Pos.x;Pos.y;Pos.z;Idp;Vel.x;Vel.y;Vel.z;Rhop;Mass;Press;Type;Acec.x;Acec.y;Acec.z;CellOffSpring;GradVel;Qfxx;Qfxy;Qfxz;Qfyy;Qfyz;Qfzz;StrainDot.x;StrainDot.y;StrainDot.z;VonMises3D
 -2.2000000E-01;  9.9999998E-03; -3.8000000E-01;0;0.0;0.0;0.0;1000.0;  4.0000001E-01;0.0;0;0.0;0.0;0.0;0;0.0;  1.0000000E+04;  0.0000000E+00;  0.0000000E+00;  1.0000000E+04;  0.0000000E+00;  1.0000000E+04;0.0;0.0;0.0;0.0
 -2.2000000E-01;  9.9999998E-03; -3.6000001E-01;1;0.0;0.0;0.0;1000.0;  4.0000001E-01;0.0;0;0.0;0.0;0.0;0;0.0;  1.0000000E+04;  0.0000000E+00;  0.0000000E+00;  1.0000000E+04;  0.0000000E+00;  1.0000000E+04;0.0;0.0;0.0;0.0
 -2.0000000E-01;  9.9999998E-03; -4.0000001E-01;39;0.0;0.0;0.0;1000.0;  4.0000001E-01;0.0;0;0.0;0.0;0.0;0;0.0;  1.0000000E+04;  0.0000000E+00;  0.0000000E+00;  1.0000000E+04;  0.0000000E+00;  1.0000000E+04;0.0;0.0;0.0;0.0
 -2.0000000E-01;  9.9999998E-03; -3.8000000E-01;40;0.0;0.0;0.0;1000.0;  4.0000001E-01;0.0;0;0.0;0.0;0.0;0;0.0;  1.0000000E+04;  0.0000000E+00;  0.0000000E+00;  1.0000000E+04;  0.0000000E+00;  1.0000000E+04;0.0;0.0;0.0;0.0
 -2.0000000E-01;  9.9999998E-03; -3.6000001E-01;41;0.0;0.0;0.0;1000.0;  4.0000001E-01;0.0;0;0.0;0.0;0.0;0;0.0;  1.0000000E+04;  0.0000000E+00;  0.0000000E+00;  1.0000000E+04;  0.0000000E+00;  1.0000000E+04;0.0;0.0;0.0;0.0
 -1.8000001E-01;  9.9999998E-03; -4.0000001E-01;80;0.0;0.0;0.0;1000.0;  4.0000001E-01;0.0;0;0.0;0.0;0.0;0;0.0;  1.0000000E+04;  0.0000000E+00;  0.0000000E+00;  1.0000000E+04;  0.0000000E+00;  1.0000000E+04;0.0;0.0;0.0;0.0
 -1.8000001E-01;  9.9999998E-03; -3.8000000E-01;81;0.0;0.0;0.0;1000.0;  4.0000001E-01;0.0;0;0.0;0.0;0.0;0;0.0;  1.0000000E+04;  0.0000000E+00;  0.0000000E+00;  1.0000000E+04;  0.0000000E+00;  1.0000000E+04;0.0;0.0;0.0;0.0
 -1.8000001E-01;  9.9999998E-03; -3.6000001E-01;82;0.0;0.0;0.0;1000.0;  4.0000001E-01;0.0;0;0.0;0.0;0.0;0;0.0;  1.0000000E+04;  0.0000000E+00;  0.0000000E+00;  1.0000000E+04;  0.0000000E+00;  1.0000000E+04;0.0;0.0;0.0;0.0
 -1.6000000E-01;  9.9999998E-03; -4.0000001E-01;121;0.0;0.0;0.0;1000.0;  4.0000001E-01;0.0;0;0.0;0.0;0.0;0;0.0;  1.0000000E+04;  0.0000000E+00;  0.0000000E+00;  1.0000000E+04;  0.0000000E+00;  1.0000000E+04;0.0;0.0;0.0;0.0
 -1.6000000E-01;  9.9999998E-03; -3.8000000E-01;122;0.0;0.0;0.0;1000.0;  4.0000001E-01;0.0;0;0.0;0.0;0.0;0;0.0;  1.0000000E+04;  0.0000000E+00;  0.0000000E+00;  1.0000000E+04;  0.0000000E+00;  1.0000000E+04;0.0;0.0;0.0;0.0
 -1.6000000E-01;  9.9999998E-03; -3.6000001E-01;123;0.0;0.0;0.0;1000.0;  4.0000001E-01;0.0;0;0.0;0.0;0.0;0;0.0;  1.0000000E+04;  0.0000000E+00;  0.0000000E+00;  1.0000000E+04;  0.0000000E+00;  1.0000000E+04;0.0;0.0;0.0;0.0
 -1.4000000E-01;  9.9999998E-03; -4.0000001E-01;162;0.0;0.0;0.0;1000.0;  4.0000001E-01;0.0;0;0.0;0.0;0.0;0;0.0;  1.0000000E+04;  0.0000000E+00;  0.0000000E+00;  1.0000000E+04;  0.0000000E+00;  1.0000000E+04;0.0;0.0;0.0;0.0
 -1.4000000E-01;  9.9999998E-03; -3.8000000E-01;163;0.0;0.0;0.0;1000.0;  4.0000001E-01;0.0;0;0.0;0.0;0.0;0;0.0;  1.0000000E+04;  0.0000000E+00;  0.0000000E+00;  1.0000000E+04;  0.0000000E+00;  1.0000000E+04;0.0;0.0;0.0;0.0
 -1.4000000E-01;  9.9999998E-03; -3.6000001E-01;164;0.0;0.0;0.0;1000.0;  4.0000001E-01;0.0;0;0.0;0.0;0.0;0;-1.3300646e-06;  1.0000000E+04;  0.0000000E+00;  0.0000000E+00;  1.0000000E+04;  0.0000000E+00;  1.0000000E+04;-1.0455643e-06;0.0;-2.8450023e-07;0.00417173
 -1.2000000E-01;  9.9999998E-03; -4.0000001E-01;203;0.0;0.0;0.0;1000.0;  4.0000001E-01;0.0;0;0.0;0.0;0.0;0;-7.4052544e-17;  1.0000000E+04;  0.0000000E+00;  0.0000000E+00;  1.0000000E+04;  0.0000000E+00;  1.0000000E+04;-5.1875371e-17;0.0;-2.2177169e-17;7.9495296e-14
 -1.2000000E-01;  9.9999998E-03; -3.8000000E-01;204;0.0;0.0;0.0;1000.0;  4.0000001E-01;0.0;0;0.0;0.0;0.0;0;-6.9801126e-06;  1.0000000E+04;  0.0000000E+00;  0.0000000E+00;  1.0000000E+04;  0.0000000E+00;  1.0000000E+04;-4.909371e-06;0.0;-2.0707414e-06;0.030701423
 -1.2000000E-01;  9.9999998E-03; -3.6000001E-01;205;0.0;0.0;0.0;1000.0;  4.0000001E-01;0.0;0;0.0;0.0;0.0;0;-4.7039244e-05;  1.0000000E+04;  0.0000000E+00;  0.0000000E+00;  1.0000000E+04;  0.0000000E+00;  1.0000000E+04;-3.536067e-05;0.0;-1.1678573e-05;0.1721729
 -1.0000000E-01;  9.9999998E-03; -4.0000001E-01;244;0.0;0.0;0.0;1000.0;  4.0000001E-01;0.0;0;0.0;0.0;0.0;0;-1.271864e-05;  1.0000000E+04;  0.0000000E+00;  0.0000000E+00;  1.0000000E+04;  0.0000000E+00;  1.0000000E+04;-8.3644645e-06;0.0;-4.3541759e-06;0.064991154
 -1.0000000E-01;  9.9999998E-03; -3.8000000E-01;245;0.0;0.0;0.0;1000.0;  4.0000001E-01;0.0;0;0.0;0.0;0.0;0;-9.2574497e-05;  1.0000000E+04;  0.0000000E+00;  0.0000000E+00;  1.0000000E+04;  0.0000000E+00;  1.0000000E+04;-6.1693085e-05;0.0;-3.0881412e-05;0.4604561
 -1.0000000E-01;  9.9999998E-03; -3.6000001E-01;246;0.0;0.0;0.0;1000.0004;  4.0000001E-01;0.3950505;0;0.0;0.0;0.0;0;-0.00029134861;  1.0000000E+04;  0.0000000E+00;  0.0000000E+00;  1.0000000E+04;  0.0000000E+00;  1.0000000E+04;-0.00021067372;0.0;-8.0674894e-05;1.1975291
 -7.9999998E-02;  9.9999998E-03; -4.0000001E-01;285;0.0;0.0;0.0;1000.0;  4.0000001E-01;0.0;0;0.0;0.0;0.0;0;-0.00010668341;  1.0000000E+04;  0.0000000E+00;  0.0000000E+00;  1.0000000E+04;  0.0000000E+00;  1.0000000E+04;-6.6291563e-05;0.0;-4.0391842e-05;0.60621995
 -7.9999998E-02;  9.9999998E-03; -3.8000000E-01;286;0.0;0.0;0.0;1000.0007;  4.0000001E-01;0.59257573;0;0.0;0.0;0.0;0;-0.00040490343;  1.0000000E+04;  0.0000000E+00;  0.0000000E+00;  1.0000000E+04;  0.0000000E+00;  1.0000000E+04;-0.00025802615;0.0;-0.0001468773;2.204139
 -7.9999998E-02;  9.9999998E-03; -3.6000001E-01;287;0.0;0.0;0.0;1000.0015;  4.0000001E-01;1.2839141;0;0.0;0.0;0.0;0;-0.00097235298;  1.0000000E+04;  0.0000000E+00;  0.0000000E+00;  1.0000000E+04;  0.0000000E+00;  1.0000000E+04;-0.00067965215;0.0;-0.00029270083;4.3725605
 -5.9999999E-02;  9.9999998E-03; -4.0000001E-01;326;0.0;0.0;0.0;1000.0005;  4.0000001E-01;0.49381313;0;0.0;0.0;0.0;0;-0.00037817273;  1.0000000E+04;  0.0000000E+00;  0.0000000E+00;  1.0000000E+04;  0.0000000E+00;  1.0000000E+04;-0.0002232182;0.0;-0.00015495454;2.3415296
 -5.9999999E-02;  9.9999998E-03; -3.8000000E-01;327;0.0;0.0;0.0;1000.0018;  4.0000001E-01;1.4814394;0;0.0;0.0;0.0;0;-0.0011037886;  1.0000000E+04;  0.0000000E+00;  0.0000000E+00;  1.0000000E+04;  0.0000000E+00;  1.0000000E+04;-0.00067346235;0.0;-0.00043032624;6.5054617
 -5.9999999E-02;  9.9999998E-03; -3.6000001E-01;328;0.0;0.0;0.0;1000.004;  4.0000001E-01;3.2591665;0;0.0;0.0;0.0;0;-0.0023178363;  1.0000000E+04;  0.0000000E+00;  0.0000000E+00;  1.0000000E+04;  0.0000000E+00;  1.0000000E+04;-0.0015662989;0.0;-0.00075153733;11.316801
 -3.9999999E-02;  9.9999998E-03; -4.0000001E-01;367;0.0;0.0;0.0;1000.0015;  4.0000001E-01;1.1851515;0;0.0;0.0;0.0;0;-0.00088786078;  1.0000000E+04;  0.0000000E+00;  0.0000000E+00;  1.0000000E+04;  0.0000000E+00;  1.0000000E+04;-0.00049624447;0.0;-0.00039161631;5.9674711
 -3.9999999E-02;  9.9999998E-03; -3.8000000E-01;368;0.0;0.0;0.0;1000.0038;  4.0000001E-01;3.160404;0;0.0;0.0;0.0;0;-0.0022676969;  1.0000000E+04;  0.0000000E+00;  0.0000000E+00;  1.0000000E+04;  0.0000000E+00;  1.0000000E+04;-0.0013203463;0.0;-0.00094735052;14.449554
 -3.9999999E-02;  9.9999998E-03; -3.6000001E-01;369;0.0;0.0;0.0;1000.0076;  4.0000001E-01;6.2220454;0;0.0;0.0;0.0;0;-0.0044127484;  1.0000000E+04;  0.0000000E+00;  0.0000000E+00;  1.0000000E+04;  0.0000000E+00;  1.0000000E+04;-0.0028735492;0.0;-0.0015391991;23.398256
 -2.0000000E-02;  9.9999998E-03; -4.0000001E-01;408;0.0;0.0;0.0;1000.0026;  4.0000001E-01;2.1727777;0;0.0;0.0;0.0;0;-0.001615297;  1.0000000E+04;  0.0000000E+00;  0.0000000E+00;  1.0000000E+04;  0.0000000E+00;  1.0000000E+04;-0.00085070677;0.0;-0.00076459034;11.77327
 -2.0000000E-02;  9.9999998E-03; -3.8000000E-01;409;0.0;0.0;0.0;1000.0067;  4.0000001E-01;5.5307069;0;0.0;0.0;0.0;0;-0.0038326145;  1.0000000E+04;  0.0000000E+00;  0.0000000E+00;  1.0000000E+04;  0.0000000E+00;  1.0000000E+04;-0.0021215798;0.0;-0.0017110347;26.384937
 -2.0000000E-02;  9.9999998E-03; -3.6000001E-01;410;0.0;0.0;0.0;1000.0122;  4.0000001E-01;10.073788;0;0.0;0.0;0.0;0;-0.007123922;  1.0000000E+04;  0.0000000E+00;  0.0000000E+00;  1.0000000E+04;  0.0000000E+00;  1.0000000E+04;-0.0044564735;0.0;-0.0026674485;41.016052
  0.0000000E+00;  9.9999998E-03; -4.0000001E-01;449;0.0;0.0;0.0;1000.0042;  4.0000001E-01;3.4566917;0;0.0;0.0;0.0;0;-0.0024600425;  1.0000000E+04;  0.0000000E+00;  0.0000000E+00;  1.0000000E+04;  0.0000000E+00;  1.0000000E+04;-0.0012177166;0.0;-0.0012423259;19.384329
  0.0000000E+00;  9.9999998E-03; -3.8000000E-01;450;0.0;0.0;0.0;1000.0096;  4.0000001E-01;7.90101;0;0.0;0.0;0.0;0;-0.0056018066;  1.0000000E+04;  0.0000000E+00;  0.0000000E+00;  1.0000000E+04;  0.0000000E+00;  1.0000000E+04;-0.0029457009;0.0;-0.0026561057;41.522984
  0.0000000E+00;  9.9999998E-03; -3.6000001E-01;451;0.0;0.0;0.0;1000.0176;  4.0000001E-01;14.616868;0;0.0;0.0;0.0;0;-0.010120122;  1.0000000E+04;  0.0000000E+00;  0.0000000E+00;  1.0000000E+04;  0.0000000E+00;  1.0000000E+04;-0.0060789799;0.0;-0.0040411414;63.020802
  2.0000000E-02;  9.9999998E-03; -4.0000001E-01;461;0.0;0.0;0.0;1000.0057;  4.0000001E-01;4.7406058;0;0.0;0.0;0.0;0;-0.0032914686;  1.0000000E+04;  0.0000000E+00;  0.0000000E+00;  1.0000000E+04;  0.0000000E+00;  1.0000000E+04;-0.0015372693;0.0;-0.0017541993;27.838287
  2.0000000E-02;  9.9999998E-03; -3.8000000E-01;462;0.0;0.0;0.0;1000.0129;  4.0000001E-01;10.765126;0;0.0;0.0;0.0;0;-0.0073337713;  1.0000000E+04;  0.0000000E+00;  0.0000000E+00;  1.0000000E+04;  0.0000000E+00;  1.0000000E+04;-0.003683473;0.0;-0.0036502986;58.063728
  2.0000000E-02;  9.9999998E-03; -3.6000001E-01;463;0.0;0.0;0.0;1000.0229;  4.0000001E-01;19.061186;0;0.0;0.0;0.0;0;-0.013014617;  1.0000000E+04;  0.0000000E+00;  0.0000000E+00;  1.0000000E+04;  0.0000000E+00;  1.0000000E+04;-0.0075473189;0.0;-0.0054672984;86.784348
  3.9999999E-02;  9.9999998E-03; -4.0000001E-01;471;0.0;0.0;0.0;1000.0071;  4.0000001E-01;5.9257574;0;0.0;0.0;0.0;0;-0.004018683;  1.0000000E+04;  0.0000000E+00;  0.0000000E+00;  1.0000000E+04;  0.0000000E+00;  1.0000000E+04;-0.0017968691;0.0;-0.0022218141;36.028385
  3.9999999E-02;  9.9999998E-03; -3.8000000E-01;472;0.0;0.0;0.0;1000.0159;  4.0000001E-01;13.135429;0;0.0;0.0;0.0;0;-0.0088670105;  1.0000000E+04;  0.0000000E+00;  0.0000000E+00;  1.0000000E+04;  0.0000000E+00;  1.0000000E+04;-0.0043174257;0.0;-0.0045495844;73.978729
  3.9999999E-02;  9.9999998E-03; -3.6000001E-01;473;0.0;0.0;0.0;1000.0281;  4.0000001E-01;23.30798;0;0.0;0.0;0.0;0;-0.015573338;  1.0000000E+04;  0.0000000E+00;  0.0000000E+00;  1.0000000E+04;  0.0000000E+00;  1.0000000E+04;-0.0088390084;0.0;-0.0067343288;109.31994
  5.9999999E-02;  9.9999998E-03; -4.0000001E-01;481;0.0;0.0;0.0;1000.0085;  4.0000001E-01;7.110909;0;0.0;0.0;0.0;0;-0.0046398435;  1.0000000E+04;  0.0000000E+00;  0.0000000E+00;  1.0000000E+04;  0.0000000E+00;  1.0000000E+04;-0.0020434044;0.0;-0.0025964393;43.254032
  5.9999999E-02;  9.9999998E-03; -3.8000000E-01;482;0.0;0.0;0.0;1000.0187;  4.0000001E-01;15.505732;0;0.0;0.0;0.0;0;-0.010206927;  1.0000000E+04;  0.0000000E+00;  0.0000000E+00;  1.0000000E+04;  0.0000000E+00;  1.0000000E+04;-0.0049419967;0.0;-0.00526493;88.002411
  5.9999999E-02;  9.9999998E-03; -3.6000001E-01;483;0.0;0.0;0.0;1000.0328;  4.0000001E-01;27.159721;0;0.0;0.0;0.0;0;-0.017844044;  1.0000000E+04;  0.0000000E+00;  0.0000000E+00;  1.0000000E+04;  0.0000000E+00;  1.0000000E+04;-0.010126997;0.0;-0.0077170469;128.84892
  7.9999998E-02;  9.9999998E-03; -4.0000001E-01;491;0.0;0.0;0.0;1000.0098;  4.0000001E-01;8.0985355;0;0.0;0.0;0.0;0;-0.0052509541;  1.0000000E+04;  0.0000000E+00;  0.0000000E+00;  1.0000000E+04;  0.0000000E+00;  1.0000000E+04;-0.0023742623;0.0;-0.0028766918;49.547802
  7.9999998E-02;  9.9999998E-03; -3.8000000E-01;492;0.0;0.0;0.0;1000.0218;  4.0000001E-01;18.073561;0;0.0;0.0;0.0;0;-0.011555178;  1.0000000E+04;  0.0000000E+00;  0.0000000E+00;  1.0000000E+04;  0.0000000E+00;  1.0000000E+04;-0.005761697;0.0;-0.0057934816;100.1476
  7.9999998E-02;  9.9999998E-03; -3.6000001E-01;493;0.0;0.0;0.0;1000.0383;  4.0000001E-01;31.801565;0;0.0;0.0;0.0;0;-0.020206282;  1.0000000E+04;  0.0000000E+00;  0.0000000E+00;  1.0000000E+04;  0.0000000E+00;  1.0000000E+04;-0.011783474;0.0;-0.0084228078;145.84898
  1.0000000E-01;  9.9999998E-03; -4.0000001E-01;501;0.0;0.0;0.0;1000.0119;  4.0000001E-01;9.8762627;0;0.0;0.0;0.0;0;-0.0060352432;  1.0000000E+04;  0.0000000E+00;  0.0000000E+00;  1.0000000E+04;  0.0000000E+00;  1.0000000E+04;-0.0029314107;0.0;-0.0031038322;58.617184
  1.0000000E-01;  9.9999998E-03; -3.8000000E-01;502;0.0;0.0;0.0;1000.0259;  4.0000001E-01;21.43149;0;0.0;0.0;0.0;0;-0.013293453;  1.0000000E+04;  0.0000000E+00;  0.0000000E+00;  1.0000000E+04;  0.0000000E+00;  1.0000000E+04;-0.0070781223;0.0;-0.0062153297;111.78472
  1.0000000E-01;  9.9999998E-03; -3.6000001E-01;503;0.0;0.0;0.0;1000.0455;  4.0000001E-01;37.628559;0;0.0;0.0;0.0;0;-0.023331437;  1.0000000E+04;  0.0000000E+00;  0.0000000E+00;  1.0000000E+04;  0.0000000E+00;  1.0000000E+04;-0.014348073;0.0;-0.0089833643;164.80923
  1.2000000E-01;  9.9999998E-03; -4.0000001E-01;511;0.0;0.0;0.0;1000.0146;  4.0000001E-01;12.147802;0;0.0;0.0;0.0;0;-0.0072648455;  1.0000000E+04;  0.0000000E+00;  0.0000000E+00;  1.0000000E+04;  0.0000000E+00;  1.0000000E+04;-0.0039048239;0.0;-0.0033600216;108.99885
  1.2000000E-01;  9.9999998E-03; -3.8000000E-01;512;0.0;0.0;0.0;1000.0321;  4.0000001E-01;26.567146;0;0.0;0.0;0.0;0;-0.015979901;  1.0000000E+04;  0.0000000E+00;  0.0000000E+00;  1.0000000E+04;  0.0000000E+00;  1.0000000E+04;-0.0092765549;0.0;-0.0067033451;138.13147
  1.2000000E-01;  9.9999998E-03; -3.6000001E-01;513;0.0;0.0;0.0;1000.0564;  4.0000001E-01;46.714722;0;0.0;0.0;0.0;0;-0.028150203;  1.0000000E+04;  0.0000000E+00;  0.0000000E+00;  1.0000000E+04;  0.0000000E+00;  1.0000000E+04;-0.018484093;0.0;-0.0096661095;198.09317
  1.4000000E-01;  9.9999998E-03; -4.0000001E-01;521;0.0;0.0;0.0;1000.0193;  4.0000001E-01;15.999545;0;0.0;0.0;0.0;0;-0.0093827369;  1.0000000E+04;  0.0000000E+00;  0.0000000E+00;  1.0000000E+04;  0.0000000E+00;  1.0000000E+04;-0.005559322;0.0;-0.0038234151;316.66385
  1.4000000E-01;  9.9999998E-03; -3.8000000E-01;522;0.0;0.0;0.0;1000.0423;  4.0000001E-01;35.06073;0;0.0;0.0;0.0;0;-0.02042485;  1.0000000E+04;  0.0000000E+00;  0.0000000E+00;  1.0000000E+04;  0.0000000E+00;  1.0000000E+04;-0.012840077;0.0;-0.007584773;279.22934
  1.4000000E-01;  9.9999998E-03; -3.6000001E-01;523;0.0;0.0;0.0;1000.0742;  4.0000001E-01;61.529114;0;0.0;0.0;0.0;0;-0.035879742;  1.0000000E+04;  0.0000000E+00;  0.0000000E+00;  1.0000000E+04;  0.0000000E+00;  1.0000000E+04;-0.024956534;0.0;-0.010923209;264.61295
  1.6000000E-01;  9.9999998E-03; -4.0000001E-01;531;0.0;0.0;0.0;1000.0277;  4.0000001E-01;22.91293;0;0.0;0.0;0.0;0;-0.01310009;  1.0000000E+04;  0.0000000E+00;  0.0000000E+00;  1.0000000E+04;  0.0000000E+00;  1.0000000E+04;-0.0082066599;0.0;-0.0048934305;888.56628
  1.6000000E-01;  9.9999998E-03; -3.8000000E-01;532;0.0;0.0;0.0;1000.0587;  4.0000001E-01;48.591209;0;0.0;0.0;0.0;0;-0.027601141;  1.0000000E+04;  0.0000000E+00;  0.0000000E+00;  1.0000000E+04;  0.0000000E+00;  1.0000000E+04;-0.018152952;0.0;-0.0094481893;739.02429
  1.6000000E-01;  9.9999998E-03; -3.6000001E-01;533;0.0;0.0;0.0;1000.1012;  4.0000001E-01;83.849464;0;0.0;0.0;0.0;0;-0.047700621;  1.0000000E+04;  0.0000000E+00;  0.0000000E+00;  1.0000000E+04;  0.0000000E+00;  1.0000000E+04;-0.034226805;0.0;-0.013473814;364.88055
  1.8000001E-01;  9.9999998E-03; -4.0000001E-01;541;0.0;0.0;0.0;1000.042;  4.0000001E-01;34.764442;0;0.0;0.0;0.0;0;-0.019363917;  1.0000000E+04;  0.0000000E+00;  0.0000000E+00;  1.0000000E+04;  0.0000000E+00;  1.0000000E+04;-0.01194005;0.0;-0.0074238679;2152.3345
  1.8000001E-01;  9.9999998E-03; -3.8000000E-01;542;0.0;0.0;0.0;1000.0831;  4.0000001E-01;68.837547;0;0.0;0.0;0.0;0;-0.038110167;  1.0000000E+04;  0.0000000E+00;  0.0000000E+00;  1.0000000E+04;  0.0000000E+00;  1.0000000E+04;-0.024806852;0.0;-0.013303317;1737.1246
  1.8000001E-01;  9.9999998E-03; -3.6000001E-01;543;0.0;0.0;0.0;1000.1385;  4.0000001E-01;114.76217;0;0.0;0.0;0.0;0;-0.063737035;  1.0000000E+04;  0.0000000E+00;  0.0000000E+00;  1.0000000E+04;  0.0000000E+00;  1.0000000E+04;-0.045321941;0.0;-0.018415092;452.26431
  2.0000000E-01;  9.9999998E-03; -3.8000000E-01;551;0.0;0.0;0.0;1000.1166;  4.0000001E-01;96.589844;0;0.0;0.0;0.0;0;-0.052141041;  1.0000000E+04;  0.0000000E+00;  0.0000000E+00;  1.0000000E+04;  0.0000000E+00;  1.0000000E+04;-0.031442158;0.0;-0.020698885;3314.2285
  2.0000000E-01;  9.9999998E-03; -3.6000001E-01;552;0.0;0.0;0.0;1000.1852;  4.0000001E-01;153.37836;0;0.0;0.0;0.0;0;-0.083109058;  1.0000000E+04;  0.0000000E+00;  0.0000000E+00;  1.0000000E+04;  0.0000000E+00;  1.0000000E+04;-0.055848122;0.0;-0.027260937;576.12463
 -2.2000000E-01;  9.9999998E-03; -3.4000000E-01;2;0.0;0.0;0.0;1000.0;  4.0000001E-01;0.0;0;0.0;0.0;0.0;0;0.0;  1.0000000E+04;  0.0000000E+00;  0.0000000E+00;  1.0000000E+04;  0.0000000E+00;  1.0000000E+04;0.0;0.0;0.0;0.0
 -2.2000000E-01;  9.9999998E-03; -3.1999999E-01;3;0.0;0.0;0.0;1000.0;  4.0000001E-01;0.0;0;0.0;0.0;0.0;0;0.0;  1.0000000E+04;  0.0000000E+00;  0.0000000E+00;  1.0000000E+04;  0.0000000E+00;  1.0000000E+04;0.0;0.0;0.0;0.0
 -2.2000000E-01;  9.9999998E-03; -3.0000001E-01;4;0.0;0.0;0.0;1000.0;  4.0000001E-01;0.0;0;0.0;0.0;0.0;0;0.0;  1.0000000E+04;  0.0000000E+00;  0.0000000E+00;  1.0000000E+04;  0.0000000E+00;  1.0000000E+04;0.0;0.0;0.0;0.0
 -2.2000000E-01;  9.9999998E-03; -2.8000000E-01;5;0.0;0.0;0.0;1000.0;  4.0000001E-01;0.0;0;0.0;0.0;0.0;0;0.0;  1.0000000E+04;  0.0000000E+00;  0.0000000E+00;  1.0000000E+04;  0.0000000E+00;  1.0000000E+04;0.0;0.0;0.0;0.0
 -2.2000000E-01;  9.9999998E-03; -2.5999999E-01;6;0.0;0.0;0.0;1000.0;  4.0000001E-01;0.0;0;0.0;0.0;0.0;0;0.0;  1.0000000E+04;  0.0000000E+00;  0.0000000E+00;  1.0000000E+04;  0.0000000E+00;  1.0000000E+04;0.0;0.0;0.0;0.0
 -2.2000000E-01;  9.9999998E-03; -2.3999999E-01;7;0.0;0.0;0.0;1000.0;  4.0000001E-01;0.0;0;0.0;0.0;0.0;0;0.0;  1.0000000E+04;  0.0000000E+00;  0.0000000E+00;  1.0000000E+04;  0.0000000E+00;  1.0000000E+04;0.0;0.0;0.0;0.0
 -2.2000000E-01;  9.9999998E-03; -2.2000000E-01;8;0.0;0.0;0.0;1000.0;  4.0000001E-01;0.0;0;0.0;0.0;0.0;0;0.0;  1.0000000E+04;  0.0000000E+00;  0.0000000E+00;  1.0000000E+04;  0.0000000E+00;  1.0000000E+04;0.0;0.0;0.0;0.0
 -2.2000000E-01;  9.9999998E-03; -2.0000000E-01;9;0.0;0.0;0.0;1000.0;  4.0000001E-01;0.0;0;0.0;0.0;0.0;0;0.0;  1.0000000E+04;  0.0000000E+00;  0.0000000E+00;  1.0000000E+04;  0.0000000E+00;  1.0000000E+04;0.0;0.0;0.0;0.0
 -2.0000000E-01;  9.9999998E-03; -3.4000000E-01;42;0.0;0.0;0.0;1000.0;  4.0000001E-01;0.0;0;0.0;0.0;0.0;0;0.0;  1.0000000E+04;  0.0000000E+00;  0.0000000E+00;  1.0000000E+04;  0.0000000E+00;  1.0000000E+04;0.0;0.0;0.0;0.0
 -2.0000000E-01;  9.9999998E-03; -3.1999999E-01;43;0.0;0.0;0.0;1000.0;  4.0000001E-01;0.0;0;0.0;0.0;0.0;0;0.0;  1.0000000E+04;  0.0000000E+00;  0.0000000E+00;  1.0000000E+04;  0.0000000E+00;  1.0000000E+04;0.0;0.0;0.0;0.0
 -2.0000000E-01;  9.9999998E-03; -3.0000001E-01;44;0.0;0.0;0.0;1000.0;  4.0000001E-01;0.0;0;0.0;0.0;0.0;0;0.0;  1.0000000E+04;  0.0000000E+00;  0.0000000E+00;  1.0000000E+04;  0.0000000E+00;  1.0000000E+04;0.0;0.0;0.0;0.0
 -2.0000000E-01;  9.9999998E-03; -2.8000000E-01;45;0.0;0.0;0.0;1000.0;  4.0000001E-01;0.0;0;0.0;0.0;0.0;0;0.0;  1.0000000E+04;  0.0000000E+00;  0.0000000E+00;  1.0000000E+04;  0.0000000E+00;  1.0000000E+04;0.0;0.0;0.0;0.0
 -2.0000000E-01;  9.9999998E-03; -2.5999999E-01;46;0.0;0.0;0.0;1000.0;  4.0000001E-01;0.0;0;0.0;0.0;0.0;0;0.0;  1.0000000E+04;  0.0000000E+00;  0.0000000E+00;  1.0000000E+04;  0.0000000E+00;  1.0000000E+04;0.0;0.0;0.0;0.0
 -2.0000000E-01;  9.9999998E-03; -2.3999999E-01;47;0.0;0.0;0.0;1000.0;  4.0000001E-01;0.0;0;0.0;0.0;0.0;0;0.0;  1.0000000E+04;  0.0000000E+00;  0.0000000E+00;  1.0000000E+04;  0.0000000E+00;  1.0000000E+04;0.0;0.0;0.0;0.0
 -2.0000000E-01;  9.9999998E-03; -2.2000000E-01;48;0.0;0.0;0.0;1000.0;  4.0000001E-01;0.0;0;0.0;0.0;0.0;0;0.0;  1.0000000E+04;  0.0000000E+00;  0.0000000E+00;  1.0000000E+04;  0.0000000E+00;  1.0000000E+04;0.0;0.0;0.0;0.0
 -2.0000000E-01;  9.9999998E-03; -2.0000000E-01;49;0.0;0.0;0.0;1000.0;  4.0000001E-01;0.0;0;0.0;0.0;0.0;0;0.0;  1.0000000E+04;  0.0000000E+00;  0.0000000E+00;  1.0000000E+04;  0.0000000E+00;  1.0000000E+04;0.0;0.0;0.0;0.0
 -1.8000001E-01;  9.9999998E-03; -3.4000000E-01;83;0.0;0.0;0.0;1000.0;  4.0000001E-01;0.0;0;0.0;0.0;0.0;0;0.0;  1.0000000E+04;  0.0000000E+00;  0.0000000E+00;  1.0000000E+04;  0.0000000E+00;  1.0000000E+04;0.0;0.0;0.0;0.0
 -1.8000001E-01;  9.9999998E-03; -3.1999999E-01;84;0.0;0.0;0.0;1000.0;  4.0000001E-01;0.0;0;0.0;0.0;0.0;0;0.0;  1.0000000E+04;  0.0000000E+00;  0.0000000E+00;  1.0000000E+04;  0.0000000E+00;  1.0000000E+04;0.0;0.0;0.0;0.0
 -1.8000001E-01;  9.9999998E-03; -3.0000001E-01;85;0.0;0.0;0.0;1000.0;  4.0000001E-01;0.0;0;0.0;0.0;0.0;0;0.0;  1.0000000E+04;  0.0000000E+00;  0.0000000E+00;  1.0000000E+04;  0.0000000E+00;  1.0000000E+04;0.0;0.0;0.0;0.0
 -1.8000001E-01;  9.9999998E-03; -2.8000000E-01;86;0.0;0.0;0.0;1000.0;  4.0000001E-01;0.0;0;0.0;0.0;0.0;0;0.0;  1.0000000E+04;  0.0000000E+00;  0.0000000E+00;  1.0000000E+04;  0.0000000E+00;  1.0000000E+04;0.0;0.0;0.0;0.0
 -1.8000001E-01;  9.9999998E-03; -2.5999999E-01;87;0.0;0.0;0.0;1000.0;  4.0000001E-01;0.0;0;0.0;0.0;0.0;0;0.0;  1.0000000E+04;  0.0000000E+00;  0.0000000E+00;  1.0000000E+04;  0.0000000E+00;  1.0000000E+04;0.0;0.0;0.0;0.0
 -1.8000001E-01;  9.9999998E-03; -2.3999999E-01;88;0.0;0.0;0.0;1000.0;  4.0000001E-01;0.0;0;0.0;0.0;0.0;0;0.0;  1.0000000E+04;  0.0000000E+00;  0.0000000E+00;  1.0000000E+04;  0.0000000E+00;  1.0000000E+04;0.0;0.0;0.0;0.0
 -1.8000001E-01;  9.9999998E-03; -2.2000000E-01;89;0.0;0.0;0.0;1000.0;  4.0000001E-01;0.0;0;0.0;0.0;0.0;0;0.0;  1.0000000E+04;  0.0000000E+00;  0.0000000E+00;  1.0000000E+04;  0.0000000E+00;  1.0000000E+04;0.0;0.0;0.0;0.0
 -1.8000001E-01;  9.9999998E-03; -2.0000000E-01;90;0.0;0.0;0.0;1000.0;  4.0000001E-01;0.0;0;0.0;0.0;0.0;0;0.0;  1.0000000E+04;  0.0000000E+00;  0.0000000E+00;  1.0000000E+04;  0.0000000E+00;  1.0000000E+04;0.0;0.0;0.0;0.0
 -1.6000000E-01;  9.9999998E-03; -3.4000000E-01;124;0.0;0.0;0.0;1000.0;  4.0000001E-01;0.0;0;0.0;0.0;0.0;0;0.0;  1.0000000E+04;  0.0000000E+00;  0.0000000E+00;  1.0000000E+04;  0.0000000E+00;  1.0000000E+04;0.0;0.0;0.0;0.0
 -1.6000000E-01;  9.9999998E-03; -3.1999999E-01;125;0.0;0.0;0.0;1000.0;  4.0000001E-01;0.0;0;0.0;0.0;0.0;0;-2.3785526e-07;  1.0000000E+04;  0.0000000E+00;  0.0000000E+00;  1.0000000E+04;  0.0000000E+00;  1.0000000E+04;-2.1855448e-07;0.0;-1.9300792e-08;0.00026536523
 -1.6000000E-01;  9.9999998E-03; -3.0000001E-01;126;0.0;0.0;0.0;1000.0;  4.0000001E-01;0.0;0;0.0;0.0;0.0;0;-1.5113152e-06;  1.0000000E+04;  0.0000000E+00;  0.0000000E+00;  1.0000000E+04;  0.0000000E+00;  1.0000000E+04;-1.4461308e-06;0.0;-6.5184381e-08;0.00082621607
 -1.6000000E-01;  9.9999998E-03; -2.8000000E-01;127;0.0;0.0;0.0;1000.0;  4.0000001E-01;0.0;0;0.0;0.0;0.0;0;-3.5720193e-06;  1.0000000E+04;  0.0000000E+00;  0.0000000E+00;  1.0000000E+04;  0.0000000E+00;  1.0000000E+04;-3.5131291e-06;0.0;-5.8890183e-08;0.00046909862
 -1.6000000E-01;  9.9999998E-03; -2.5999999E-01;128;0.0;0.0;0.0;1000.0;  4.0000001E-01;0.0;0;0.0;0.0;0.0;0;-5.3369881e-06;  1.0000000E+04;  0.0000000E+00;  0.0000000E+00;  1.0000000E+04;  0.0000000E+00;  1.0000000E+04;-5.3304648e-06;0.0;-6.5232362e-09;0.0005981084
 -1.6000000E-01;  9.9999998E-03; -2.3999999E-01;129;0.0;0.0;0.0;1000.0;  4.0000001E-01;0.0;0;0.0;0.0;0.0;0;-6.3220341e-06;  1.0000000E+04;  0.0000000E+00;  0.0000000E+00;  1.0000000E+04;  0.0000000E+00;  1.0000000E+04;-6.3375146e-06;0.0;1.5480653e-08;0.0010584603
 -1.6000000E-01;  9.9999998E-03; -2.2000000E-01;130;0.0;0.0;0.0;1000.0;  4.0000001E-01;0.0;0;0.0;0.0;0.0;0;-7.0003025e-06;  1.0000000E+04;  0.0000000E+00;  0.0000000E+00;  1.0000000E+04;  0.0000000E+00;  1.0000000E+04;-7.0185947e-06;0.0;1.8292162e-08;0.0011870513
 -1.6000000E-01;  9.9999998E-03; -2.0000000E-01;131;0.0;0.0;0.0;1000.0;  4.0000001E-01;0.0;0;0.0;0.0;0.0;0;-7.5139055e-06;  1.0000000E+04;  0.0000000E+00;  0.0000000E+00;  1.0000000E+04;  0.0000000E+00;  1.0000000E+04;-7.5325806e-06;0.0;1.8675065e-08;0.0012572724
 -1.4000000E-01;  9.9999998E-03; -3.4000000E-01;165;0.0;0.0;0.0;1000.0;  4.0000001E-01;0.0;0;0.0;0.0;0.0;0;-1.1431498e-05;  1.0000000E+04;  0.0000000E+00;  0.0000000E+00;  1.0000000E+04;  0.0000000E+00;  1.0000000E+04;-9.6313806e-06;0.0;-1.8001177e-06;0.026003093
 -1.4000000E-01;  9.9999998E-03; -3.1999999E-01;166;0.0;0.0;0.0;1000.0;  4.0000001E-01;0.0;0;0.0;0.0;0.0;0;-3.7084006e-05;  1.0000000E+04;  0.0000000E+00;  0.0000000E+00;  1.0000000E+04;  0.0000000E+00;  1.0000000E+04;-3.3189914e-05;0.0;-3.8940921e-06;0.055121146
 -1.4000000E-01;  9.9999998E-03; -3.0000001E-01;167;0.0;0.0;0.0;1000.0;  4.0000001E-01;0.0;0;0.0;0.0;0.0;0;-7.8912868e-05;  1.0000000E+04;  0.0000000E+00;  0.0000000E+00;  1.0000000E+04;  0.0000000E+00;  1.0000000E+04;-7.3871808e-05;0.0;-5.0410581e-06;0.066932343
 -1.4000000E-01;  9.9999998E-03; -2.8000000E-01;168;0.0;0.0;0.0;1000.0001;  4.0000001E-01;0.098762624;0;0.0;0.0;0.0;0;-0.00013042586;  1.0000000E+04;  0.0000000E+00;  0.0000000E+00;  1.0000000E+04;  0.0000000E+00;  1.0000000E+04;-0.00012606879;0.0;-4.3570699e-06;0.049086306
 -1.4000000E-01;  9.9999998E-03; -2.5999999E-01;169;0.0;0.0;0.0;1000.0002;  4.0000001E-01;0.19752525;0;0.0;0.0;0.0;0;-0.00018112255;  1.0000000E+04;  0.0000000E+00;  0.0000000E+00;  1.0000000E+04;  0.0000000E+00;  1.0000000E+04;-0.00017901197;0.0;-2.110577e-06;0.0079960497
 -1.4000000E-01;  9.9999998E-03; -2.3999999E-01;170;0.0;0.0;0.0;1000.0003;  4.0000001E-01;0.29628786;0;0.0;0.0;0.0;0;-0.00022241588;  1.0000000E+04;  0.0000000E+00;  0.0000000E+00;  1.0000000E+04;  0.0000000E+00;  1.0000000E+04;-0.00022286134;0.0;4.4546692e-07;0.036379181
 -1.4000000E-01;  9.9999998E-03; -2.2000000E-01;171;0.0;0.0;0.0;1000.0004;  4.0000001E-01;0.29628786;0;0.0;0.0;0.0;0;-0.00025153172;  1.0000000E+04;  0.0000000E+00;  0.0000000E+00;  1.0000000E+04;  0.0000000E+00;  1.0000000E+04;-0.00025347326;0.0;1.9415354e-06;0.062929086
 -1.4000000E-01;  9.9999998E-03; -2.0000000E-01;172;0.0;0.0;0.0;1000.0004;  4.0000001E-01;0.29628786;0;0.0;0.0;0.0;0;-0.00027126761;  1.0000000E+04;  0.0000000E+00;  0.0000000E+00;  1.0000000E+04;  0.0000000E+00;  1.0000000E+04;-0.00027349786;0.0;2.2302536e-06;0.069760732
 -1.2000000E-01;  9.9999998E-03; -3.4000000E-01;206;0.0;0.0;0.0;1000.0001;  4.0000001E-01;0.098762624;0;0.0;0.0;0.0;0;-0.00014064077;  1.0000000E+04;  0.0000000E+00;  0.0000000E+00;  1.0000000E+04;  0.0000000E+00;  1.0000000E+04;-0.00011499188;0.0;-2.5648887e-05;0.3744964
 -1.2000000E-01;  9.9999998E-03; -3.1999999E-01;207;0.0;0.0;0.0;1000.0004;  4.0000001E-01;0.3950505;0;0.0;0.0;0.0;0;-0.00029746362;  1.0000000E+04;  0.0000000E+00;  0.0000000E+00;  1.0000000E+04;  0.0000000E+00;  1.0000000E+04;-0.00026095269;0.0;-3.6510941e-05;0.51937151
 -1.2000000E-01;  9.9999998E-03; -3.0000001E-01;208;0.0;0.0;0.0;1000.0008;  4.0000001E-01;0.69133836;0;0.0;0.0;0.0;0;-0.00051201001;  1.0000000E+04;  0.0000000E+00;  0.0000000E+00;  1.0000000E+04;  0.0000000E+00;  1.0000000E+04;-0.00047291597;0.0;-3.909404e-05;0.52783149
 -1.2000000E-01;  9.9999998E-03; -2.8000000E-01;209;0.0;0.0;0.0;1000.0012;  4.0000001E-01;0.98762625;0;0.0;0.0;0.0;0;-0.00075913983;  1.0000000E+04;  0.0000000E+00;  0.0000000E+00;  1.0000000E+04;  0.0000000E+00;  1.0000000E+04;-0.00072739326;0.0;-3.174656e-05;0.38085753
 -1.2000000E-01;  9.9999998E-03; -2.5999999E-01;210;0.0;0.0;0.0;1000.0015;  4.0000001E-01;1.2839141;0;0.0;0.0;0.0;0;-0.0010018001;  1.0000000E+04;  0.0000000E+00;  0.0000000E+00;  1.0000000E+04;  0.0000000E+00;  1.0000000E+04;-0.00098516955;0.0;-1.6630476e-05;0.11662836
 -1.2000000E-01;  9.9999998E-03; -2.3999999E-01;211;0.0;0.0;0.0;1000.002;  4.0000001E-01;1.580202;0;0.0;0.0;0.0;0;-0.0012093685;  1.0000000E+04;  0.0000000E+00;  0.0000000E+00;  1.0000000E+04;  0.0000000E+00;  1.0000000E+04;-0.00120989;0.0;5.2152262e-07;0.17328131
 -1.2000000E-01;  9.9999998E-03; -2.2000000E-01;212;0.0;0.0;0.0;1000.0022;  4.0000001E-01;1.7777272;0;0.0;0.0;0.0;0;-0.0013697017;  1.0000000E+04;  0.0000000E+00;  0.0000000E+00;  1.0000000E+04;  0.0000000E+00;  1.0000000E+04;-0.0013831524;0.0;1.345078e-05;0.39140591
 -1.2000000E-01;  9.9999998E-03; -2.0000000E-01;213;0.0;0.0;0.0;1000.0024;  4.0000001E-01;1.9752525;0;0.0;0.0;0.0;0;-0.0014858722;  1.0000000E+04;  0.0000000E+00;  0.0000000E+00;  1.0000000E+04;  0.0000000E+00;  1.0000000E+04;-0.0015054169;0.0;1.9544785e-05;0.49835247
 -1.0000000E-01;  9.9999998E-03; -3.4000000E-01;247;0.0;0.0;0.0;1000.001;  4.0000001E-01;0.88886362;0;0.0;0.0;0.0;0;-0.00063673162;  1.0000000E+04;  0.0000000E+00;  0.0000000E+00;  1.0000000E+04;  0.0000000E+00;  1.0000000E+04;-0.00050690526;0.0;-0.00012982634;1.9042674
 -1.0000000E-01;  9.9999998E-03; -3.1999999E-01;248;0.0;0.0;0.0;1000.0018;  4.0000001E-01;1.4814394;0;0.0;0.0;0.0;0;-0.0011432878;  1.0000000E+04;  0.0000000E+00;  0.0000000E+00;  1.0000000E+04;  0.0000000E+00;  1.0000000E+04;-0.00098530261;0.0;-0.00015798512;2.264293
 -1.0000000E-01;  9.9999998E-03; -3.0000001E-01;249;0.0;0.0;0.0;1000.0029;  4.0000001E-01;2.4690657;0;0.0;0.0;0.0;0;-0.00179384;  1.0000000E+04;  0.0000000E+00;  0.0000000E+00;  1.0000000E+04;  0.0000000E+00;  1.0000000E+04;-0.0016379656;0.0;-0.00015587444;2.1389701
 -1.0000000E-01;  9.9999998E-03; -2.8000000E-01;250;0.0;0.0;0.0;1000.0042;  4.0000001E-01;3.4566917;0;0.0;0.0;0.0;0;-0.0025215654;  1.0000000E+04;  0.0000000E+00;  0.0000000E+00;  1.0000000E+04;  0.0000000E+00;  1.0000000E+04;-0.0023995857;0.0;-0.00012197984;1.5150046
 -1.0000000E-01;  9.9999998E-03; -2.5999999E-01;251;0.0;0.0;0.0;1000.0054;  4.0000001E-01;4.5430808;0;0.0;0.0;0.0;0;-0.0032303196;  1.0000000E+04;  0.0000000E+00;  0.0000000E+00;  1.0000000E+04;  0.0000000E+00;  1.0000000E+04;-0.0031664774;0.0;-6.3842141e-05;0.52255851
 -1.0000000E-01;  9.9999998E-03; -2.3999999E-01;252;0.0;0.0;0.0;1000.0065;  4.0000001E-01;5.4319444;0;0.0;0.0;0.0;0;-0.0038439562;  1.0000000E+04;  0.0000000E+00;  0.0000000E+00;  1.0000000E+04;  0.0000000E+00;  1.0000000E+04;-0.003844629;0.0;6.7292609e-07;0.55131346
 -1.0000000E-01;  9.9999998E-03; -2.2000000E-01;253;0.0;0.0;0.0;1000.0072;  4.0000001E-01;5.9257574;0;0.0;0.0;0.0;0;-0.0043324283;  1.0000000E+04;  0.0000000E+00;  0.0000000E+00;  1.0000000E+04;  0.0000000E+00;  1.0000000E+04;-0.0043840795;0.0;5.1651339e-05;1.395649
 -1.0000000E-01;  9.9999998E-03; -2.0000000E-01;254;0.0;0.0;0.0;1000.0079;  4.0000001E-01;6.6170959;0;0.0;0.0;0.0;0;-0.0047002193;  1.0000000E+04;  0.0000000E+00;  0.0000000E+00;  1.0000000E+04;  0.0000000E+00;  1.0000000E+04;-0.004779981;0.0;7.9761514e-05;1.868417
 -7.9999998E-02;  9.9999998E-03; -3.4000000E-01;288;0.0;0.0;0.0;1000.0031;  4.0000001E-01;2.5678282;0;0.0;0.0;0.0;0;-0.0018435961;  1.0000000E+04;  0.0000000E+00;  0.0000000E+00;  1.0000000E+04;  0.0000000E+00;  1.0000000E+04;-0.0014331747;0.0;-0.00041042143;6.0647011
 -7.9999998E-02;  9.9999998E-03; -3.1999999E-01;289;0.0;0.0;0.0;1000.0051;  4.0000001E-01;4.2467928;0;0.0;0.0;0.0;0;-0.0030485697;  1.0000000E+04;  0.0000000E+00;  0.0000000E+00;  1.0000000E+04;  0.0000000E+00;  1.0000000E+04;-0.0025857342;0.0;-0.00046283533;6.6993618
 -7.9999998E-02;  9.9999998E-03; -3.0000001E-01;290;0.0;0.0;0.0;1000.0077;  4.0000001E-01;6.4195704;0;0.0;0.0;0.0;0;-0.004549792;  1.0000000E+04;  0.0000000E+00;  0.0000000E+00;  1.0000000E+04;  0.0000000E+00;  1.0000000E+04;-0.0041122464;0.0;-0.00043754553;6.0890174
 -7.9999998E-02;  9.9999998E-03; -2.8000000E-01;291;0.0;0.0;0.0;1000.0104;  4.0000001E-01;8.6911106;0;0.0;0.0;0.0;0;-0.0061992039;  1.0000000E+04;  0.0000000E+00;  0.0000000E+00;  1.0000000E+04;  0.0000000E+00;  1.0000000E+04;-0.0058646989;0.0;-0.00033450514;4.2554512
 -7.9999998E-02;  9.9999998E-03; -2.5999999E-01;292;0.0;0.0;0.0;1000.0132;  4.0000001E-01;10.962651;0;0.0;0.0;0.0;0;-0.0077917064;  1.0000000E+04;  0.0000000E+00;  0.0000000E+00;  1.0000000E+04;  0.0000000E+00;  1.0000000E+04;-0.0076187914;0.0;-0.00017291489;1.5295072
 -7.9999998E-02;  9.9999998E-03; -2.3999999E-01;293;0.0;0.0;0.0;1000.0154;  4.0000001E-01;12.740378;0;0.0;0.0;0.0;0;-0.0091713844;  1.0000000E+04;  0.0000000E+00;  0.0000000E+00;  1.0000000E+04;  0.0000000E+00;  1.0000000E+04;-0.0091747995;0.0;3.4147779e-06;1.3831178
 -7.9999998E-02;  9.9999998E-03; -2.2000000E-01;294;0.0;0.0;0.0;1000.0172;  4.0000001E-01;14.221818;0;0.0;0.0;0.0;0;-0.010281556;  1.0000000E+04;  0.0000000E+00;  0.0000000E+00;  1.0000000E+04;  0.0000000E+00;  1.0000000E+04;-0.010426716;0.0;0.00014515949;3.7091699
 -7.9999998E-02;  9.9999998E-03; -2.0000000E-01;295;0.0;0.0;0.0;1000.0186;  4.0000001E-01;15.406969;0;0.0;0.0;0.0;0;-0.011132888;  1.0000000E+04;  0.0000000E+00;  0.0000000E+00;  1.0000000E+04;  0.0000000E+00;  1.0000000E+04;-0.011360619;0.0;0.00022773114;5.0723124
 -5.9999999E-02;  9.9999998E-03; -3.4000000E-01;329;0.0;0.0;0.0;1000.007;  4.0000001E-01;5.7282324;0;0.0;0.0;0.0;0;-0.0040642554;  1.0000000E+04;  0.0000000E+00;  0.0000000E+00;  1.0000000E+04;  0.0000000E+00;  1.0000000E+04;-0.0030836631;0.0;-0.00098059257;14.620016
 -5.9999999E-02;  9.9999998E-03; -3.1999999E-01;330;0.0;0.0;0.0;1000.0109;  4.0000001E-01;8.9873991;0;0.0;0.0;0.0;0;-0.0064042164;  1.0000000E+04;  0.0000000E+00;  0.0000000E+00;  1.0000000E+04;  0.0000000E+00;  1.0000000E+04;-0.0053428742;0.0;-0.0010613423;15.525203
 -5.9999999E-02;  9.9999998E-03; -3.0000001E-01;331;0.0;0.0;0.0;1000.0158;  4.0000001E-01;13.135429;0;0.0;0.0;0.0;0;-0.0092679309;  1.0000000E+04;  0.0000000E+00;  0.0000000E+00;  1.0000000E+04;  0.0000000E+00;  1.0000000E+04;-0.0082889609;0.0;-0.00097896974;13.809732
 -5.9999999E-02;  9.9999998E-03; -2.8000000E-01;332;0.0;0.0;0.0;1000.021;  4.0000001E-01;17.382221;0;0.0;0.0;0.0;0;-0.01237336;  1.0000000E+04;  0.0000000E+00;  0.0000000E+00;  1.0000000E+04;  0.0000000E+00;  1.0000000E+04;-0.011637603;0.0;-0.00073575741;9.5555124
 -5.9999999E-02;  9.9999998E-03; -2.5999999E-01;333;0.0;0.0;0.0;1000.026;  4.0000001E-01;21.530252;0;0.0;0.0;0.0;0;-0.015338814;  1.0000000E+04;  0.0000000E+00;  0.0000000E+00;  1.0000000E+04;  0.0000000E+00;  1.0000000E+04;-0.014965424;0.0;-0.00037338972;3.4790108
 -5.9999999E-02;  9.9999998E-03; -2.3999999E-01;334;0.0;0.0;0.0;1000.0303;  4.0000001E-01;25.085707;0;0.0;0.0;0.0;0;-0.017892489;  1.0000000E+04;  0.0000000E+00;  0.0000000E+00;  1.0000000E+04;  0.0000000E+00;  1.0000000E+04;-0.017907858;0.0;1.5368114e-05;2.9212894
 -5.9999999E-02;  9.9999998E-03; -2.2000000E-01;335;0.0;0.0;0.0;1000.0339;  4.0000001E-01;28.048586;0;0.0;0.0;0.0;0;-0.019951172;  1.0000000E+04;  0.0000000E+00;  0.0000000E+00;  1.0000000E+04;  0.0000000E+00;  1.0000000E+04;-0.020279977;0.0;0.0003288048;8.0427418
 -5.9999999E-02;  9.9999998E-03; -2.0000000E-01;336;0.0;0.0;0.0;1000.0363;  4.0000001E-01;30.122601;0;0.0;0.0;0.0;0;-0.021543477;  1.0000000E+04;  0.0000000E+00;  0.0000000E+00;  1.0000000E+04;  0.0000000E+00;  1.0000000E+04;-0.022059556;0.0;0.00051607919;11.102736
 -3.9999999E-02;  9.9999998E-03; -3.4000000E-01;370;0.0;0.0;0.0;1000.0126;  4.0000001E-01;10.468838;0;0.0;0.0;0.0;0;-0.0073774923;  1.0000000E+04;  0.0000000E+00;  0.0000000E+00;  1.0000000E+04;  0.0000000E+00;  1.0000000E+04;-0.0054473327;0.0;-0.0019301595;29.075605
 -3.9999999E-02;  9.9999998E-03; -3.1999999E-01;371;0.0;0.0;0.0;1000.0192;  4.0000001E-01;15.900783;0;0.0;0.0;0.0;0;-0.011272058;  1.0000000E+04;  0.0000000E+00;  0.0000000E+00;  1.0000000E+04;  0.0000000E+00;  1.0000000E+04;-0.0092292586;0.0;-0.002042799;30.233646
 -3.9999999E-02;  9.9999998E-03; -3.0000001E-01;372;0.0;0.0;0.0;1000.0272;  4.0000001E-01;22.517878;0;0.0;0.0;0.0;0;-0.015978467;  1.0000000E+04;  0.0000000E+00;  0.0000000E+00;  1.0000000E+04;  0.0000000E+00;  1.0000000E+04;-0.014121832;0.0;-0.0018566346;26.568165
 -3.9999999E-02;  9.9999998E-03; -2.8000000E-01;373;0.0;0.0;0.0;1000.0357;  4.0000001E-01;29.628788;0;0.0;0.0;0.0;0;-0.021012899;  1.0000000E+04;  0.0000000E+00;  0.0000000E+00;  1.0000000E+04;  0.0000000E+00;  1.0000000E+04;-0.019639101;0.0;-0.0013737979;18.201042
 -3.9999999E-02;  9.9999998E-03; -2.5999999E-01;374;0.0;0.0;0.0;1000.0438;  4.0000001E-01;36.344646;0;0.0;0.0;0.0;0;-0.025746362;  1.0000000E+04;  0.0000000E+00;  0.0000000E+00;  1.0000000E+04;  0.0000000E+00;  1.0000000E+04;-0.025067829;0.0;-0.00067853439;6.571979
 -3.9999999E-02;  9.9999998E-03; -2.3999999E-01;375;0.0;0.0;0.0;1000.0505;  4.0000001E-01;41.875351;0;0.0;0.0;0.0;0;-0.029779492;  1.0000000E+04;  0.0000000E+00;  0.0000000E+00;  1.0000000E+04;  0.0000000E+00;  1.0000000E+04;-0.029830238;0.0;5.0745766e-05;5.4320536
 -3.9999999E-02;  9.9999998E-03; -2.2000000E-01;376;0.0;0.0;0.0;1000.056;  4.0000001E-01;46.418434;0;0.0;0.0;0.0;0;-0.033022705;  1.0000000E+04;  0.0000000E+00;  0.0000000E+00;  1.0000000E+04;  0.0000000E+00;  1.0000000E+04;-0.033656605;0.0;0.00063390011;14.953476
 -3.9999999E-02;  9.9999998E-03; -2.0000000E-01;377;0.0;0.0;0.0;1000.0603;  4.0000001E-01;49.973888;0;0.0;0.0;0.0;0;-0.035540033;  1.0000000E+04;  0.0000000E+00;  0.0000000E+00;  1.0000000E+04;  0.0000000E+00;  1.0000000E+04;-0.036525559;0.0;0.00098552497;20.667538
 -2.0000000E-02;  9.9999998E-03; -3.4000000E-01;411;0.0;0.0;0.0;1000.0199;  4.0000001E-01;16.493359;0;0.0;0.0;0.0;0;-0.011548986;  1.0000000E+04;  0.0000000E+00;  0.0000000E+00;  1.0000000E+04;  0.0000000E+00;  1.0000000E+04;-0.0082763005;0.0;-0.0032726855;49.900616
 -2.0000000E-02;  9.9999998E-03; -3.1999999E-01;412;0.0;0.0;0.0;1000.0298;  4.0000001E-01;24.690657;0;0.0;0.0;0.0;0;-0.017269099;  1.0000000E+04;  0.0000000E+00;  0.0000000E+00;  1.0000000E+04;  0.0000000E+00;  1.0000000E+04;-0.013847264;0.0;-0.0034218351;51.321262
 -2.0000000E-02;  9.9999998E-03; -3.0000001E-01;413;0.0;0.0;0.0;1000.0415;  4.0000001E-01;34.369392;0;0.0;0.0;0.0;0;-0.024081446;  1.0000000E+04;  0.0000000E+00;  0.0000000E+00;  1.0000000E+04;  0.0000000E+00;  1.0000000E+04;-0.021003319;0.0;-0.0030781266;44.734196
 -2.0000000E-02;  9.9999998E-03; -2.8000000E-01;414;0.0;0.0;0.0;1000.0536;  4.0000001E-01;44.44318;0;0.0;0.0;0.0;0;-0.031234186;  1.0000000E+04;  0.0000000E+00;  0.0000000E+00;  1.0000000E+04;  0.0000000E+00;  1.0000000E+04;-0.028997473;0.0;-0.0022367132;30.220932
 -2.0000000E-02;  9.9999998E-03; -2.5999999E-01;415;0.0;0.0;0.0;1000.0649;  4.0000001E-01;53.726868;0;0.0;0.0;0.0;0;-0.037818398;  1.0000000E+04;  0.0000000E+00;  0.0000000E+00;  1.0000000E+04;  0.0000000E+00;  1.0000000E+04;-0.036755838;0.0;-0.0010625622;10.57081
 -2.0000000E-02;  9.9999998E-03; -2.3999999E-01;416;0.0;0.0;0.0;1000.0742;  4.0000001E-01;61.529114;0;0.0;0.0;0.0;0;-0.043364413;  1.0000000E+04;  0.0000000E+00;  0.0000000E+00;  1.0000000E+04;  0.0000000E+00;  1.0000000E+04;-0.043494768;0.0;0.00013035571;9.1287308
 -2.0000000E-02;  9.9999998E-03; -2.2000000E-01;417;0.0;0.0;0.0;1000.0818;  4.0000001E-01;67.849922;0;0.0;0.0;0.0;0;-0.047806848;  1.0000000E+04;  0.0000000E+00;  0.0000000E+00;  1.0000000E+04;  0.0000000E+00;  1.0000000E+04;-0.048876461;0.0;0.0010696144;24.508532
 -2.0000000E-02;  9.9999998E-03; -2.0000000E-01;418;0.0;0.0;0.0;1000.0876;  4.0000001E-01;72.59053;0;0.0;0.0;0.0;0;-0.05125526;  1.0000000E+04;  0.0000000E+00;  0.0000000E+00;  1.0000000E+04;  0.0000000E+00;  1.0000000E+04;-0.05289115;0.0;0.0016358903;33.695469
  0.0000000E+00;  9.9999998E-03; -3.4000000E-01;452;0.0;0.0;0.0;1000.028;  4.0000001E-01;23.209217;0;0.0;0.0;0.0;0;-0.016061354;  1.0000000E+04;  0.0000000E+00;  0.0000000E+00;  1.0000000E+04;  0.0000000E+00;  1.0000000E+04;-0.011164152;0.0;-0.0048972028;75.770042
  0.0000000E+00;  9.9999998E-03; -3.1999999E-01;453;0.0;0.0;0.0;1000.0411;  4.0000001E-01;34.073105;0;0.0;0.0;0.0;0;-0.023611549;  1.0000000E+04;  0.0000000E+00;  0.0000000E+00;  1.0000000E+04;  0.0000000E+00;  1.0000000E+04;-0.018530535;0.0;-0.0050810156;77.397377
  0.0000000E+00;  9.9999998E-03; -3.0000001E-01;454;0.0;0.0;0.0;1000.0562;  4.0000001E-01;46.615959;0;0.0;0.0;0.0;0;-0.032378964;  1.0000000E+04;  0.0000000E+00;  0.0000000E+00;  1.0000000E+04;  0.0000000E+00;  1.0000000E+04;-0.027871108;0.0;-0.0045078569;66.639786
  2.0000000E-02;  9.9999998E-03; -3.4000000E-01;464;0.0;0.0;0.0;1000.0358;  4.0000001E-01;29.727551;0;0.0;0.0;0.0;0;-0.020336116;  1.0000000E+04;  0.0000000E+00;  0.0000000E+00;  1.0000000E+04;  0.0000000E+00;  1.0000000E+04;-0.013771831;0.0;-0.0065642847;103.41821
  2.0000000E-02;  9.9999998E-03; -3.1999999E-01;465;0.0;0.0;0.0;1000.052;  4.0000001E-01;43.060505;0;0.0;0.0;0.0;0;-0.029461721;  1.0000000E+04;  0.0000000E+00;  0.0000000E+00;  1.0000000E+04;  0.0000000E+00;  1.0000000E+04;-0.02270438;0.0;-0.0067573413;104.8762
  3.9999999E-02;  9.9999998E-03; -3.4000000E-01;474;0.0;0.0;0.0;1000.0434;  4.0000001E-01;35.949596;0;0.0;0.0;0.0;0;-0.024081293;  1.0000000E+04;  0.0000000E+00;  0.0000000E+00;  1.0000000E+04;  0.0000000E+00;  1.0000000E+04;-0.016077327;0.0;-0.0080039669;129.00946
  3.9999999E-02;  9.9999998E-03; -3.1999999E-01;475;0.0;0.0;0.0;1000.0621;  4.0000001E-01;51.455326;0;0.0;0.0;0.0;0;-0.034515373;  1.0000000E+04;  0.0000000E+00;  0.0000000E+00;  1.0000000E+04;  0.0000000E+00;  1.0000000E+04;-0.026373776;0.0;-0.0081415987;129.32339
  5.9999999E-02;  9.9999998E-03; -3.4000000E-01;484;0.0;0.0;0.0;1000.0505;  4.0000001E-01;41.875351;0;0.0;0.0;0.0;0;-0.02745555;  1.0000000E+04;  0.0000000E+00;  0.0000000E+00;  1.0000000E+04;  0.0000000E+00;  1.0000000E+04;-0.018382968;0.0;-0.0090725813;150.47427
  5.9999999E-02;  9.9999998E-03; -3.1999999E-01;485;0.0;0.0;0.0;1000.0721;  4.0000001E-01;59.751389;0;0.0;0.0;0.0;0;-0.039161541;  1.0000000E+04;  0.0000000E+00;  0.0000000E+00;  1.0000000E+04;  0.0000000E+00;  1.0000000E+04;-0.030055268;0.0;-0.0091062728;148.86279
  7.9999998E-02;  9.9999998E-03; -3.4000000E-01;494;0.0;0.0;0.0;1000.0588;  4.0000001E-01;48.788734;0;0.0;0.0;0.0;0;-0.031078296;  1.0000000E+04;  0.0000000E+00;  0.0000000E+00;  1.0000000E+04;  0.0000000E+00;  1.0000000E+04;-0.021277633;0.0;-0.0098006632;168.86389
  7.9999998E-02;  9.9999998E-03; -3.1999999E-01;495;0.0;0.0;0.0;1000.0836;  4.0000001E-01;69.232597;0;0.0;0.0;0.0;0;-0.044252556;  1.0000000E+04;  0.0000000E+00;  0.0000000E+00;  1.0000000E+04;  0.0000000E+00;  1.0000000E+04;-0.034546278;0.0;-0.0097062774;164.73662
  1.0000000E-01;  9.9999998E-03; -3.4000000E-01;504;0.0;0.0;0.0;1000.0701;  4.0000001E-01;58.072422;0;0.0;0.0;0.0;0;-0.035963222;  1.0000000E+04;  0.0000000E+00;  0.0000000E+00;  1.0000000E+04;  0.0000000E+00;  1.0000000E+04;-0.025594577;0.0;-0.010368644;198.59096
  1.0000000E-01;  9.9999998E-03; -3.1999999E-01;505;0.0;0.0;0.0;1000.0995;  4.0000001E-01;82.466789;0;0.0;0.0;0.0;0;-0.051096223;  1.0000000E+04;  0.0000000E+00;  0.0000000E+00;  1.0000000E+04;  0.0000000E+00;  1.0000000E+04;-0.040953692;0.0;-0.010142529;198.17026
  1.2000000E-01;  9.9999998E-03; -3.4000000E-01;514;0.0;0.0;0.0;1000.0872;  4.0000001E-01;72.19548;0;0.0;0.0;0.0;0;-0.04342835;  1.0000000E+04;  0.0000000E+00;  0.0000000E+00;  1.0000000E+04;  0.0000000E+00;  1.0000000E+04;-0.032318968;0.0;-0.011109381;318.65411
  1.2000000E-01;  9.9999998E-03; -3.1999999E-01;515;0.0;0.0;0.0;1000.1226;  4.0000001E-01;101.52798;0;0.0;0.0;0.0;0;-0.06128991;  1.0000000E+04;  0.0000000E+00;  0.0000000E+00;  1.0000000E+04;  0.0000000E+00;  1.0000000E+04;-0.050527588;0.0;-0.010762324;386.21375
  1.4000000E-01;  9.9999998E-03; -3.4000000E-01;524;0.0;0.0;0.0;1000.1135;  4.0000001E-01;94.022018;0;0.0;0.0;0.0;0;-0.055070136;  1.0000000E+04;  0.0000000E+00;  0.0000000E+00;  1.0000000E+04;  0.0000000E+00;  1.0000000E+04;-0.042519808;0.0;-0.012550327;695.21649
  1.4000000E-01;  9.9999998E-03; -3.1999999E-01;525;0.0;0.0;0.0;1000.1574;  4.0000001E-01;130.36667;0;0.0;0.0;0.0;0;-0.076604798;  1.0000000E+04;  0.0000000E+00;  0.0000000E+00;  1.0000000E+04;  0.0000000E+00;  1.0000000E+04;-0.064510375;0.0;-0.012094424;981.36731
  1.6000000E-01;  9.9999998E-03; -3.4000000E-01;534;0.0;0.0;0.0;1000.1528;  4.0000001E-01;126.61369;0;0.0;0.0;0.0;0;-0.072303593;  1.0000000E+04;  0.0000000E+00;  0.0000000E+00;  1.0000000E+04;  0.0000000E+00;  1.0000000E+04;-0.056799993;0.0;-0.015503597;1501.559
  1.6000000E-01;  9.9999998E-03; -3.1999999E-01;535;0.0;0.0;0.0;1000.2076;  4.0000001E-01;171.94572;0;0.0;0.0;0.0;0;-0.098493367;  1.0000000E+04;  0.0000000E+00;  0.0000000E+00;  1.0000000E+04;  0.0000000E+00;  1.0000000E+04;-0.083547667;0.0;-0.014945703;2265.8638
  1.8000001E-01;  9.9999998E-03; -3.4000000E-01;544;0.0;0.0;0.0;1000.2062;  4.0000001E-01;170.85934;0;0.0;0.0;0.0;0;-0.095058285;  1.0000000E+04;  0.0000000E+00;  0.0000000E+00;  1.0000000E+04;  0.0000000E+00;  1.0000000E+04;-0.073860981;0.0;-0.021197306;2792.0122
  1.8000001E-01;  9.9999998E-03; -3.1999999E-01;545;0.0;0.0;0.0;1000.2742;  4.0000001E-01;227.15404;0;0.0;0.0;0.0;0;-0.12688938;  1.0000000E+04;  0.0000000E+00;  0.0000000E+00;  1.0000000E+04;  0.0000000E+00;  1.0000000E+04;-0.10631058;0.0;-0.020578805;4435.7412
  2.0000000E-01;  9.9999998E-03; -3.4000000E-01;553;0.0;0.0;0.0;1000.2701;  4.0000001E-01;223.79611;0;0.0;0.0;0.0;0;-0.12154973;  1.0000000E+04;  0.0000000E+00;  0.0000000E+00;  1.0000000E+04;  0.0000000E+00;  1.0000000E+04;-0.090263791;0.0;-0.031285942;4232.2197
  2.0000000E-01;  9.9999998E-03; -3.1999999E-01;554;0.0;0.0;0.0;1000.3542;  4.0000001E-01;293.42377;0;0.0;0.0;0.0;0;-0.15982714;  1.0000000E+04;  0.0000000E+00;  0.0000000E+00;  1.0000000E+04;  0.0000000E+00;  1.0000000E+04;-0.1290292;0.0;-0.030797945;7140.4346
 -2.2000000E-01;  9.9999998E-03; -1.8000001E-01;10;0.0;0.0;0.0;1000.0;  4.0000001E-01;0.0;0;0.0;0.0;0.0;0;0.0;  1.0000000E+04;  0.0000000E+00;  0.0000000E+00;  1.0000000E+04;  0.0000000E+00;  1.0000000E+04;0.0;0.0;0.0;0.0
 -2.2000000E-01;  9.9999998E-03; -1.6000000E-01;11;0.0;0.0;0.0;1000.0;  4.0000001E-01;0.0;0;0.0;0.0;0.0;0;0.0;  1.0000000E+04;  0.0000000E+00;  0.0000000E+00;  1.0000000E+04;  0.0000000E+00;  1.0000000E+04;0.0;0.0;0.0;0.0
 -2.2000000E-01;  9.9999998E-03; -1.4000000E-01;12;0.0;0.0;0.0;1000.0;  4.0000001E-01;0.0;0;0.0;0.0;0.0;0;0.0;  1.0000000E+04;  0.0000000E+00;  0.0000000E+00;  1.0000000E+04;  0.0000000E+00;  1.0000000E+04;0.0;0.0;0.0;0.0
 -2.2000000E-01;  9.9999998E-03; -1.2000000E-01;13;0.0;0.0;0.0;1000.0;  4.0000001E-01;0.0;0;0.0;0.0;0.0;0;0.0;  1.0000000E+04;  0.0000000E+00;  0.0000000E+00;  1.0000000E+04;  0.0000000E+00;  1.0000000E+04;0.0;0.0;0.0;0.0
 -2.2000000E-01;  9.9999998E-03; -1.0000000E-01;14;0.0;0.0;0.0;1000.0;  4.0000001E-01;0.0;0;0.0;0.0;0.0;0;0.0;  1.0000000E+04;  0.0000000E+00;  0.0000000E+00;  1.0000000E+04;  0.0000000E+00;  1.0000000E+04;0.0;0.0;0.0;0.0
 -2.2000000E-01;  9.9999998E-03; -7.9999998E-02;15;0.0;0.0;0.0;1000.0;  4.0000001E-01;0.0;0;0.0;0.0;0.0;0;0.0;  1.0000000E+04;  0.0000000E+00;  0.0000000E+00;  1.0000000E+04;  0.0000000E+00;  1.0000000E+04;0.0;0.0;0.0;0.0
 -2.2000000E-01;  9.9999998E-03; -5.9999999E-02;16;0.0;0.0;0.0;1000.0;  4.0000001E-01;0.0;0;0.0;0.0;0.0;0;0.0;  1.0000000E+04;  0.0000000E+00;  0.0000000E+00;  1.0000000E+04;  0.0000000E+00;  1.0000000E+04;0.0;0.0;0.0;0.0
 -2.2000000E-01;  9.9999998E-03; -3.9999999E-02;17;0.0;0.0;0.0;1000.0;  4.0000001E-01;0.0;0;0.0;0.0;0.0;0;0.0;  1.0000000E+04;  0.0000000E+00;  0.0000000E+00;  1.0000000E+04;  0.0000000E+00;  1.0000000E+04;0.0;0.0;0.0;0.0
 -2.2000000E-01;  9.9999998E-03; -2.0000000E-02;18;0.0;0.0;0.0;1000.0;  4.0000001E-01;0.0;0;0.0;0.0;0.0;0;0.0;  1.0000000E+04;  0.0000000E+00;  0.0000000E+00;  1.0000000E+04;  0.0000000E+00;  1.0000000E+04;0.0;0.0;0.0;0.0
 -2.0000000E-01;  9.9999998E-03; -1.8000001E-01;50;0.0;0.0;0.0;1000.0;  4.0000001E-01;0.0;0;0.0;0.0;0.0;0;0.0;  1.0000000E+04;  0.0000000E+00;  0.0000000E+00;  1.0000000E+04;  0.0000000E+00;  1.0000000E+04;0.0;0.0;0.0;0.0
 -2.0000000E-01;  9.9999998E-03; -1.6000000E-01;51;0.0;0.0;0.0;1000.0;  4.0000001E-01;0.0;0;0.0;0.0;0.0;0;0.0;  1.0000000E+04;  0.0000000E+00;  0.0000000E+00;  1.0000000E+04;  0.0000000E+00;  1.0000000E+04;0.0;0.0;0.0;0.0
 -2.0000000E-01;  9.9999998E-03; -1.4000000E-01;52;0.0;0.0;0.0;1000.0;  4.0000001E-01;0.0;0;0.0;0.0;0.0;0;0.0;  1.0000000E+04;  0.0000000E+00;  0.0000000E+00;  1.0000000E+04;  0.0000000E+00;  1.0000000E+04;0.0;0.0;0.0;0.0
 -2.0000000E-01;  9.9999998E-03; -1.2000000E-01;53;0.0;0.0;0.0;1000.0;  4.0000001E-01;0.0;0;0.0;0.0;0.0;0;0.0;  1.0000000E+04;  0.0000000E+00;  0.0000000E+00;  1.0000000E+04;  0.0000000E+00;  1.0000000E+04;0.0;0.0;0.0;0.0
 -2.0000000E-01;  9.9999998E-03; -1.0000000E-01;54;0.0;0.0;0.0;1000.0;  4.0000001E-01;0.0;0;0.0;0.0;0.0;0;0.0;  1.0000000E+04;  0.0000000E+00;  0.0000000E+00;  1.0000000E+04;  0.0000000E+00;  1.0000000E+04;0.0;0.0;0.0;0.0
 -2.0000000E-01;  9.9999998E-03; -7.9999998E-02;55;0.0;0.0;0.0;1000.0;  4.0000001E-01;0.0;0;0.0;0.0;0.0;0;0.0;  1.0000000E+04;  0.0000000E+00;  0.0000000E+00;  1.0000000E+04;  0.0000000E+00;  1.0000000E+04;0.0;0.0;0.0;0.0
 -2.0000000E-01;  9.9999998E-03; -5.9999999E-02;56;0.0;0.0;0.0;1000.0;  4.0000001E-01;0.0;0;0.0;0.0;0.0;0;0.0;  1.0000000E+04;  0.0000000E+00;  0.0000000E+00;  1.0000000E+04;  0.0000000E+00;  1.0000000E+04;0.0;0.0;0.0;0.0
 -2.0000000E-01;  9.9999998E-03; -3.9999999E-02;57;0.0;0.0;0.0;1000.0;  4.0000001E-01;0.0;0;0.0;0.0;0.0;0;0.0;  1.0000000E+04;  0.0000000E+00;  0.0000000E+00;  1.0000000E+04;  0.0000000E+00;  1.0000000E+04;0.0;0.0;0.0;0.0
 -2.0000000E-01;  9.9999998E-03; -2.0000000E-02;58;0.0;0.0;0.0;1000.0;  4.0000001E-01;0.0;0;0.0;0.0;0.0;0;0.0;  1.0000000E+04;  0.0000000E+00;  0.0000000E+00;  1.0000000E+04;  0.0000000E+00;  1.0000000E+04;0.0;0.0;0.0;0.0
 -1.8000001E-01;  9.9999998E-03; -1.8000001E-01;91;0.0;0.0;0.0;1000.0;  4.0000001E-01;0.0;0;0.0;0.0;0.0;0;0.0;  1.0000000E+04;  0.0000000E+00;  0.0000000E+00;  1.0000000E+04;  0.0000000E+00;  1.0000000E+04;0.0;0.0;0.0;0.0
 -1.8000001E-01;  9.9999998E-03; -1.6000000E-01;92;0.0;0.0;0.0;1000.0;  4.0000001E-01;0.0;0;0.0;0.0;0.0;0;0.0;  1.0000000E+04;  0.0000000E+00;  0.0000000E+00;  1.0000000E+04;  0.0000000E+00;  1.0000000E+04;0.0;0.0;0.0;0.0
 -1.8000001E-01;  9.9999998E-03; -1.4000000E-01;93;0.0;0.0;0.0;1000.0;  4.0000001E-01;0.0;0;0.0;0.0;0.0;0;0.0;  1.0000000E+04;  0.0000000E+00;  0.0000000E+00;  1.0000000E+04;  0.0000000E+00;  1.0000000E+04;0.0;0.0;0.0;0.0
 -1.8000001E-01;  9.9999998E-03; -1.2000000E-01;94;0.0;0.0;0.0;1000.0;  4.0000001E-01;0.0;0;0.0;0.0;0.0;0;0.0;  1.0000000E+04;  0.0000000E+00;  0.0000000E+00;  1.0000000E+04;  0.0000000E+00;  1.0000000E+04;0.0;0.0;0.0;0.0
 -1.8000001E-01;  9.9999998E-03; -1.0000000E-01;95;0.0;0.0;0.0;1000.0;  4.0000001E-01;0.0;0;0.0;0.0;0.0;0;0.0;  1.0000000E+04;  0.0000000E+00;  0.0000000E+00;  1.0000000E+04;  0.0000000E+00;  1.0000000E+04;0.0;0.0;0.0;0.0
 -1.8000001E-01;  9.9999998E-03; -7.9999998E-02;96;0.0;0.0;0.0;1000.0;  4.0000001E-01;0.0;0;0.0;0.0;0.0;0;0.0;  1.0000000E+04;  0.0000000E+00;  0.0000000E+00;  1.0000000E+04;  0.0000000E+00;  1.0000000E+04;0.0;0.0;0.0;0.0
 -1.8000001E-01;  9.9999998E-03; -5.9999999E-02;97;0.0;0.0;0.0;1000.0;  4.0000001E-01;0.0;0;0.0;0.0;0.0;0;0.0;  1.0000000E+04;  0.0000000E+00;  0.0000000E+00;  1.0000000E+04;  0.0000000E+00;  1.0000000E+04;0.0;0.0;0.0;0.0
 -1.8000001E-01;  9.9999998E-03; -3.9999999E-02;98;0.0;0.0;0.0;1000.0;  4.0000001E-01;0.0;0;0.0;0.0;0.0;0;0.0;  1.0000000E+04;  0.0000000E+00;  0.0000000E+00;  1.0000000E+04;  0.0000000E+00;  1.0000000E+04;0.0;0.0;0.0;0.0
 -1.8000001E-01;  9.9999998E-03; -2.0000000E-02;99;0.0;0.0;0.0;1000.0;  4.0000001E-01;0.0;0;0.0;0.0;0.0;0;0.0;  1.0000000E+04;  0.0000000E+00;  0.0000000E+00;  1.0000000E+04;  0.0000000E+00;  1.0000000E+04;0.0;0.0;0.0;0.0
 -1.6000000E-01;  9.9999998E-03; -1.8000001E-01;132;0.0;0.0;0.0;1000.0;  4.0000001E-01;0.0;0;0.0;0.0;0.0;0;-7.8798694e-06;  1.0000000E+04;  0.0000000E+00;  0.0000000E+00;  1.0000000E+04;  0.0000000E+00;  1.0000000E+04;-7.8974426e-06;0.0;1.7572912e-08;0.0012844808
 -1.6000000E-01;  9.9999998E-03; -1.6000000E-01;133;0.0;0.0;0.0;1000.0;  4.0000001E-01;0.0;0;0.0;0.0;0.0;0;-8.1233693e-06;  1.0000000E+04;  0.0000000E+00;  0.0000000E+00;  1.0000000E+04;  0.0000000E+00;  1.0000000E+04;-8.1389917e-06;0.0;1.5622097e-08;0.0012819526
 -1.6000000E-01;  9.9999998E-03; -1.4000000E-01;134;0.0;0.0;0.0;1000.0;  4.0000001E-01;0.0;0;0.0;0.0;0.0;0;-8.271586e-06;  1.0000000E+04;  0.0000000E+00;  0.0000000E+00;  1.0000000E+04;  0.0000000E+00;  1.0000000E+04;-8.2849083e-06;0.0;1.3321841e-08;0.0012621037
 -1.6000000E-01;  9.9999998E-03; -1.2000000E-01;135;0.0;0.0;0.0;1000.0;  4.0000001E-01;0.0;0;0.0;0.0;0.0;0;-8.3502791e-06;  1.0000000E+04;  0.0000000E+00;  0.0000000E+00;  1.0000000E+04;  0.0000000E+00;  1.0000000E+04;-8.3613941e-06;0.0;1.1114611e-08;0.0012350309
 -1.6000000E-01;  9.9999998E-03; -1.0000000E-01;136;0.0;0.0;0.0;1000.0;  4.0000001E-01;0.0;0;0.0;0.0;0.0;0;-8.3822506e-06;  1.0000000E+04;  0.0000000E+00;  0.0000000E+00;  1.0000000E+04;  0.0000000E+00;  1.0000000E+04;-8.3913028e-06;0.0;9.0519574e-09;0.001204603
 -1.6000000E-01;  9.9999998E-03; -7.9999998E-02;137;0.0;0.0;0.0;1000.0;  4.0000001E-01;0.0;0;0.0;0.0;0.0;0;-8.3858567e-06;  1.0000000E+04;  0.0000000E+00;  0.0000000E+00;  1.0000000E+04;  0.0000000E+00;  1.0000000E+04;-8.3930845e-06;0.0;7.2273028e-09;0.0011749119
 -1.6000000E-01;  9.9999998E-03; -5.9999999E-02;138;0.0;0.0;0.0;1000.0;  4.0000001E-01;0.0;0;0.0;0.0;0.0;0;-8.3752193e-06;  1.0000000E+04;  0.0000000E+00;  0.0000000E+00;  1.0000000E+04;  0.0000000E+00;  1.0000000E+04;-8.3809473e-06;0.0;5.7281175e-09;0.0011490331
 -1.6000000E-01;  9.9999998E-03; -3.9999999E-02;139;0.0;0.0;0.0;1000.0;  4.0000001E-01;0.0;0;0.0;0.0;0.0;0;-8.360742e-06;  1.0000000E+04;  0.0000000E+00;  0.0000000E+00;  1.0000000E+04;  0.0000000E+00;  1.0000000E+04;-8.3653385e-06;0.0;4.5966675e-09;0.0011289028
 -1.6000000E-01;  9.9999998E-03; -2.0000000E-02;140;0.0;0.0;0.0;1000.0;  4.0000001E-01;0.0;0;0.0;0.0;0.0;0;-8.3493615e-06;  1.0000000E+04;  0.0000000E+00;  0.0000000E+00;  1.0000000E+04;  0.0000000E+00;  1.0000000E+04;-8.3532641e-06;0.0;3.9023647e-09;0.0011162863
 -1.4000000E-01;  9.9999998E-03; -1.8000001E-01;173;0.0;0.0;0.0;1000.0004;  4.0000001E-01;0.3950505;0;0.0;0.0;0.0;0;-0.0002854499;  1.0000000E+04;  0.0000000E+00;  0.0000000E+00;  1.0000000E+04;  0.0000000E+00;  1.0000000E+04;-0.00028759407;0.0;2.1441683e-06;0.070044428
 -1.4000000E-01;  9.9999998E-03; -1.6000000E-01;174;0.0;0.0;0.0;1000.0004;  4.0000001E-01;0.3950505;0;0.0;0.0;0.0;0;-0.0002952714;  1.0000000E+04;  0.0000000E+00;  0.0000000E+00;  1.0000000E+04;  0.0000000E+00;  1.0000000E+04;-0.00029721059;0.0;1.9391975e-06;0.067851938
 -1.4000000E-01;  9.9999998E-03; -1.4000000E-01;175;0.0;0.0;0.0;1000.0004;  4.0000001E-01;0.3950505;0;0.0;0.0;0.0;0;-0.00030159327;  1.0000000E+04;  0.0000000E+00;  0.0000000E+00;  1.0000000E+04;  0.0000000E+00;  1.0000000E+04;-0.00030327393;0.0;1.6806647e-06;0.064338394
 -1.4000000E-01;  9.9999998E-03; -1.2000000E-01;176;0.0;0.0;0.0;1000.0004;  4.0000001E-01;0.3950505;0;0.0;0.0;0.0;0;-0.00030528463;  1.0000000E+04;  0.0000000E+00;  0.0000000E+00;  1.0000000E+04;  0.0000000E+00;  1.0000000E+04;-0.00030669675;0.0;1.4121223e-06;0.060339887
 -1.4000000E-01;  9.9999998E-03; -1.0000000E-01;177;0.0;0.0;0.0;1000.0004;  4.0000001E-01;0.3950505;0;0.0;0.0;0.0;0;-0.00030713415;  1.0000000E+04;  0.0000000E+00;  0.0000000E+00;  1.0000000E+04;  0.0000000E+00;  1.0000000E+04;-0.00030829315;0.0;1.1589995e-06;0.056384537
 -1.4000000E-01;  9.9999998E-03; -7.9999998E-02;178;0.0;0.0;0.0;1000.0004;  4.0000001E-01;0.3950505;0;0.0;0.0;0.0;0;-0.00030780636;  1.0000000E+04;  0.0000000E+00;  0.0000000E+00;  1.0000000E+04;  0.0000000E+00;  1.0000000E+04;-0.00030874225;0.0;9.3588369e-07;0.0527975
 -1.4000000E-01;  9.9999998E-03; -5.9999999E-02;179;0.0;0.0;0.0;1000.0004;  4.0000001E-01;0.3950505;0;0.0;0.0;0.0;0;-0.00030782635;  1.0000000E+04;  0.0000000E+00;  0.0000000E+00;  1.0000000E+04;  0.0000000E+00;  1.0000000E+04;-0.00030857773;0.0;7.5138638e-07;0.049786218
 -1.4000000E-01;  9.9999998E-03; -3.9999999E-02;180;0.0;0.0;0.0;1000.0004;  4.0000001E-01;0.3950505;0;0.0;0.0;0.0;0;-0.00030758025;  1.0000000E+04;  0.0000000E+00;  0.0000000E+00;  1.0000000E+04;  0.0000000E+00;  1.0000000E+04;-0.00030819382;0.0;6.1357105e-07;0.047520854
 -1.4000000E-01;  9.9999998E-03; -2.0000000E-02;181;0.0;0.0;0.0;1000.0004;  4.0000001E-01;0.3950505;0;0.0;0.0;0.0;0;-0.00030733118;  1.0000000E+04;  0.0000000E+00;  0.0000000E+00;  1.0000000E+04;  0.0000000E+00;  1.0000000E+04;-0.00030785962;0.0;5.2842915e-07;0.046116143
 -1.2000000E-01;  9.9999998E-03; -1.8000001E-01;214;0.0;0.0;0.0;1000.0026;  4.0000001E-01;2.1727777;0;0.0;0.0;0.0;0;-0.0015675339;  1.0000000E+04;  0.0000000E+00;  0.0000000E+00;  1.0000000E+04;  0.0000000E+00;  1.0000000E+04;-0.0015875696;0.0;2.0035644e-05;0.51431847
 -1.2000000E-01;  9.9999998E-03; -1.6000000E-01;215;0.0;0.0;0.0;1000.0026;  4.0000001E-01;2.1727777;0;0.0;0.0;0.0;0;-0.0016245279;  1.0000000E+04;  0.0000000E+00;  0.0000000E+00;  1.0000000E+04;  0.0000000E+00;  1.0000000E+04;-0.0016429323;0.0;1.8404467e-05;0.49385732
 -1.2000000E-01;  9.9999998E-03; -1.4000000E-01;216;0.0;0.0;0.0;1000.0027;  4.0000001E-01;2.2715404;0;0.0;0.0;0.0;0;-0.0016623577;  1.0000000E+04;  0.0000000E+00;  0.0000000E+00;  1.0000000E+04;  0.0000000E+00;  1.0000000E+04;-0.0016784943;0.0;1.6136521e-05;0.46069738
 -1.2000000E-01;  9.9999998E-03; -1.2000000E-01;217;0.0;0.0;0.0;1000.0027;  4.0000001E-01;2.2715404;0;0.0;0.0;0.0;0;-0.0016854943;  1.0000000E+04;  0.0000000E+00;  0.0000000E+00;  1.0000000E+04;  0.0000000E+00;  1.0000000E+04;-0.0016991763;0.0;1.3681925e-05;0.42273223
 -1.2000000E-01;  9.9999998E-03; -1.0000000E-01;218;0.0;0.0;0.0;1000.0027;  4.0000001E-01;2.2715404;0;0.0;0.0;0.0;0;-0.001698115;  1.0000000E+04;  0.0000000E+00;  0.0000000E+00;  1.0000000E+04;  0.0000000E+00;  1.0000000E+04;-0.0017094362;0.0;1.132119e-05;0.38516772
 -1.2000000E-01;  9.9999998E-03; -7.9999998E-02;219;0.0;0.0;0.0;1000.0027;  4.0000001E-01;2.2715404;0;0.0;0.0;0.0;0;-0.0017038051;  1.0000000E+04;  0.0000000E+00;  0.0000000E+00;  1.0000000E+04;  0.0000000E+00;  1.0000000E+04;-0.0017130258;0.0;9.220762e-06;0.35123432
 -1.2000000E-01;  9.9999998E-03; -5.9999999E-02;220;0.0;0.0;0.0;1000.0027;  4.0000001E-01;2.2715404;0;0.0;0.0;0.0;0;-0.0017054344;  1.0000000E+04;  0.0000000E+00;  0.0000000E+00;  1.0000000E+04;  0.0000000E+00;  1.0000000E+04;-0.0017129211;0.0;7.4866962e-06;0.32299939
 -1.2000000E-01;  9.9999998E-03; -3.9999999E-02;221;0.0;0.0;0.0;1000.0027;  4.0000001E-01;2.2715404;0;0.0;0.0;0.0;0;-0.0017051478;  1.0000000E+04;  0.0000000E+00;  0.0000000E+00;  1.0000000E+04;  0.0000000E+00;  1.0000000E+04;-0.0017113402;0.0;6.1923806e-06;0.30185625
 -1.2000000E-01;  9.9999998E-03; -2.0000000E-02;222;0.0;0.0;0.0;1000.0027;  4.0000001E-01;2.2715404;0;0.0;0.0;0.0;0;-0.0017044098;  1.0000000E+04;  0.0000000E+00;  0.0000000E+00;  1.0000000E+04;  0.0000000E+00;  1.0000000E+04;-0.0017098025;0.0;5.3926892e-06;0.28878379
 -1.0000000E-01;  9.9999998E-03; -1.8000001E-01;255;0.0;0.0;0.0;1000.0082;  4.0000001E-01;6.814621;0;0.0;0.0;0.0;0;-0.0049665673;  1.0000000E+04;  0.0000000E+00;  0.0000000E+00;  1.0000000E+04;  0.0000000E+00;  1.0000000E+04;-0.0050539365;0.0;8.7369423e-05;2.0095398
 -1.0000000E-01;  9.9999998E-03; -1.6000000E-01;256;0.0;0.0;0.0;1000.0085;  4.0000001E-01;7.110909;0;0.0;0.0;0.0;0;-0.0051534572;  1.0000000E+04;  0.0000000E+00;  0.0000000E+00;  1.0000000E+04;  0.0000000E+00;  1.0000000E+04;-0.0052358247;0.0;8.2367536e-05;1.9439805
 -1.0000000E-01;  9.9999998E-03; -1.4000000E-01;257;0.0;0.0;0.0;1000.0087;  4.0000001E-01;7.2096715;0;0.0;0.0;0.0;0;-0.0052795759;  1.0000000E+04;  0.0000000E+00;  0.0000000E+00;  1.0000000E+04;  0.0000000E+00;  1.0000000E+04;-0.00535258;0.0;7.3004136e-05;1.8017303
 -1.0000000E-01;  9.9999998E-03; -1.2000000E-01;258;0.0;0.0;0.0;1000.0087;  4.0000001E-01;7.2096715;0;0.0;0.0;0.0;0;-0.0053589973;  1.0000000E+04;  0.0000000E+00;  0.0000000E+00;  1.0000000E+04;  0.0000000E+00;  1.0000000E+04;-0.0054214224;0.0;6.2425286e-05;1.6344968
 -1.0000000E-01;  9.9999998E-03; -1.0000000E-01;259;0.0;0.0;0.0;1000.0089;  4.0000001E-01;7.407197;0;0.0;0.0;0.0;0;-0.0054044607;  1.0000000E+04;  0.0000000E+00;  0.0000000E+00;  1.0000000E+04;  0.0000000E+00;  1.0000000E+04;-0.0054565044;0.0;5.2043524e-05;1.4671406
 -1.0000000E-01;  9.9999998E-03; -7.9999998E-02;260;0.0;0.0;0.0;1000.0091;  4.0000001E-01;7.5059595;0;0.0;0.0;0.0;0;-0.0054270644;  1.0000000E+04;  0.0000000E+00;  0.0000000E+00;  1.0000000E+04;  0.0000000E+00;  1.0000000E+04;-0.0054697902;0.0;4.2725598e-05;1.3154334
 -1.0000000E-01;  9.9999998E-03; -5.9999999E-02;261;0.0;0.0;0.0;1000.0091;  4.0000001E-01;7.5059595;0;0.0;0.0;0.0;0;-0.0054357974;  1.0000000E+04;  0.0000000E+00;  0.0000000E+00;  1.0000000E+04;  0.0000000E+00;  1.0000000E+04;-0.0054708049;0.0;3.5007335e-05;1.1892068
 -1.0000000E-01;  9.9999998E-03; -3.9999999E-02;262;0.0;0.0;0.0;1000.0091;  4.0000001E-01;7.5059595;0;0.0;0.0;0.0;0;-0.0054374281;  1.0000000E+04;  0.0000000E+00;  0.0000000E+00;  1.0000000E+04;  0.0000000E+00;  1.0000000E+04;-0.0054666749;0.0;2.9246801e-05;1.0948584
 -1.0000000E-01;  9.9999998E-03; -2.0000000E-02;263;0.0;0.0;0.0;1000.0091;  4.0000001E-01;7.5059595;0;0.0;0.0;0.0;0;-0.0054366095;  1.0000000E+04;  0.0000000E+00;  0.0000000E+00;  1.0000000E+04;  0.0000000E+00;  1.0000000E+04;-0.0054622991;0.0;2.5689569e-05;1.0365961
 -7.9999998E-02;  9.9999998E-03; -1.8000001E-01;296;0.0;0.0;0.0;1000.0197;  4.0000001E-01;16.295834;0;0.0;0.0;0.0;0;-0.011762379;  1.0000000E+04;  0.0000000E+00;  0.0000000E+00;  1.0000000E+04;  0.0000000E+00;  1.0000000E+04;-0.012017953;0.0;0.0002555745;5.5501513
 -7.9999998E-02;  9.9999998E-03; -1.6000000E-01;297;0.0;0.0;0.0;1000.0206;  4.0000001E-01;17.085934;0;0.0;0.0;0.0;0;-0.012211185;  1.0000000E+04;  0.0000000E+00;  0.0000000E+00;  1.0000000E+04;  0.0000000E+00;  1.0000000E+04;-0.012458485;0.0;0.00024729944;5.4392614
 -7.9999998E-02;  9.9999998E-03; -1.4000000E-01;298;0.0;0.0;0.0;1000.0209;  4.0000001E-01;17.283459;0;0.0;0.0;0.0;0;-0.01251735;  1.0000000E+04;  0.0000000E+00;  0.0000000E+00;  1.0000000E+04;  0.0000000E+00;  1.0000000E+04;-0.012738944;0.0;0.00022159441;5.0365562
 -7.9999998E-02;  9.9999998E-03; -1.2000000E-01;299;0.0;0.0;0.0;1000.0212;  4.0000001E-01;17.579746;0;0.0;0.0;0.0;0;-0.012713642;  1.0000000E+04;  0.0000000E+00;  0.0000000E+00;  1.0000000E+04;  0.0000000E+00;  1.0000000E+04;-0.012904617;0.0;0.00019097487;4.543272
 -7.9999998E-02;  9.9999998E-03; -1.0000000E-01;300;0.0;0.0;0.0;1000.0217;  4.0000001E-01;17.974798;0;0.0;0.0;0.0;0;-0.01282925;  1.0000000E+04;  0.0000000E+00;  0.0000000E+00;  1.0000000E+04;  0.0000000E+00;  1.0000000E+04;-0.012989562;0.0;0.00016031202;4.0425987
 -7.9999998E-02;  9.9999998E-03; -7.9999998E-02;301;0.0;0.0;0.0;1000.0217;  4.0000001E-01;17.974798;0;0.0;0.0;0.0;0;-0.012889788;  1.0000000E+04;  0.0000000E+00;  0.0000000E+00;  1.0000000E+04;  0.0000000E+00;  1.0000000E+04;-0.013022309;0.0;0.00013252083;3.5858324
 -7.9999998E-02;  9.9999998E-03; -5.9999999E-02;302;0.0;0.0;0.0;1000.0217;  4.0000001E-01;17.974798;0;0.0;0.0;0.0;0;-0.012916154;  1.0000000E+04;  0.0000000E+00;  0.0000000E+00;  1.0000000E+04;  0.0000000E+00;  1.0000000E+04;-0.01302556;0.0;0.00010940647;3.2049801
 -7.9999998E-02;  9.9999998E-03; -3.9999999E-02;303;0.0;0.0;0.0;1000.0217;  4.0000001E-01;17.974798;0;0.0;0.0;0.0;0;-0.01292416;  1.0000000E+04;  0.0000000E+00;  0.0000000E+00;  1.0000000E+04;  0.0000000E+00;  1.0000000E+04;-0.01301629;0.0;9.2130475e-05;2.9202423
 -7.9999998E-02;  9.9999998E-03; -2.0000000E-02;304;0.0;0.0;0.0;1000.0217;  4.0000001E-01;17.974798;0;0.0;0.0;0.0;0;-0.012924741;  1.0000000E+04;  0.0000000E+00;  0.0000000E+00;  1.0000000E+04;  0.0000000E+00;  1.0000000E+04;-0.013006201;0.0;8.1460246e-05;2.7444789
 -5.9999999E-02;  9.9999998E-03; -1.8000001E-01;337;0.0;0.0;0.0;1000.0383;  4.0000001E-01;31.801565;0;0.0;0.0;0.0;0;-0.022735763;  1.0000000E+04;  0.0000000E+00;  0.0000000E+00;  1.0000000E+04;  0.0000000E+00;  1.0000000E+04;-0.023320498;0.0;0.00058473519;12.238246
 -5.9999999E-02;  9.9999998E-03; -1.6000000E-01;338;0.0;0.0;0.0;1000.0397;  4.0000001E-01;32.887955;0;0.0;0.0;0.0;0;-0.02359689;  1.0000000E+04;  0.0000000E+00;  0.0000000E+00;  1.0000000E+04;  0.0000000E+00;  1.0000000E+04;-0.024170037;0.0;0.00057314709;12.065975
 -5.9999999E-02;  9.9999998E-03; -1.4000000E-01;339;0.0;0.0;0.0;1000.0407;  4.0000001E-01;33.776817;0;0.0;0.0;0.0;0;-0.024190281;  1.0000000E+04;  0.0000000E+00;  0.0000000E+00;  1.0000000E+04;  0.0000000E+00;  1.0000000E+04;-0.0247097;0.0;0.00051941851;11.195982
 -5.9999999E-02;  9.9999998E-03; -1.2000000E-01;340;0.0;0.0;0.0;1000.0416;  4.0000001E-01;34.468155;0;0.0;0.0;0.0;0;-0.024574915;  1.0000000E+04;  0.0000000E+00;  0.0000000E+00;  1.0000000E+04;  0.0000000E+00;  1.0000000E+04;-0.02502569;0.0;0.00045077439;10.067772
 -5.9999999E-02;  9.9999998E-03; -1.0000000E-01;341;0.0;0.0;0.0;1000.0417;  4.0000001E-01;34.566917;0;0.0;0.0;0.0;0;-0.024805227;  1.0000000E+04;  0.0000000E+00;  0.0000000E+00;  1.0000000E+04;  0.0000000E+00;  1.0000000E+04;-0.025185969;0.0;0.00038074143;8.9074621
 -5.9999999E-02;  9.9999998E-03; -7.9999998E-02;342;0.0;0.0;0.0;1000.0419;  4.0000001E-01;34.66568;0;0.0;0.0;0.0;0;-0.024929333;  1.0000000E+04;  0.0000000E+00;  0.0000000E+00;  1.0000000E+04;  0.0000000E+00;  1.0000000E+04;-0.025245978;0.0;0.00031664319;7.8417182
 -5.9999999E-02;  9.9999998E-03; -5.9999999E-02;343;0.0;0.0;0.0;1000.0421;  4.0000001E-01;34.863205;0;0.0;0.0;0.0;0;-0.024986634;  1.0000000E+04;  0.0000000E+00;  0.0000000E+00;  1.0000000E+04;  0.0000000E+00;  1.0000000E+04;-0.025249712;0.0;0.0002630775;6.9504366
 -5.9999999E-02;  9.9999998E-03; -3.9999999E-02;344;0.0;0.0;0.0;1000.0421;  4.0000001E-01;34.863205;0;0.0;0.0;0.0;0;-0.025007056;  1.0000000E+04;  0.0000000E+00;  0.0000000E+00;  1.0000000E+04;  0.0000000E+00;  1.0000000E+04;-0.025230017;0.0;0.00022296075;6.283411
 -5.9999999E-02;  9.9999998E-03; -2.0000000E-02;345;0.0;0.0;0.0;1000.0421;  4.0000001E-01;34.863205;0;0.0;0.0;0.0;0;-0.025011286;  1.0000000E+04;  0.0000000E+00;  0.0000000E+00;  1.0000000E+04;  0.0000000E+00;  1.0000000E+04;-0.025209451;0.0;0.00019816567;5.8716083
 -3.9999999E-02;  9.9999998E-03; -1.8000001E-01;378;0.0;0.0;0.0;1000.0633;  4.0000001E-01;52.442955;0;0.0;0.0;0.0;0;-0.037438508;  1.0000000E+04;  0.0000000E+00;  0.0000000E+00;  1.0000000E+04;  0.0000000E+00;  1.0000000E+04;-0.038558051;0.0;0.0011195433;22.829462
 -3.9999999E-02;  9.9999998E-03; -1.6000000E-01;379;0.0;0.0;0.0;1000.0657;  4.0000001E-01;54.418205;0;0.0;0.0;0.0;0;-0.038821761;  1.0000000E+04;  0.0000000E+00;  0.0000000E+00;  1.0000000E+04;  0.0000000E+00;  1.0000000E+04;-0.039925564;0.0;0.0011038033;22.542639
 -3.9999999E-02;  9.9999998E-03; -1.4000000E-01;380;0.0;0.0;0.0;1000.0673;  4.0000001E-01;55.702122;0;0.0;0.0;0.0;0;-0.039781749;  1.0000000E+04;  0.0000000E+00;  0.0000000E+00;  1.0000000E+04;  0.0000000E+00;  1.0000000E+04;-0.040789951;0.0;0.0010082001;20.93606
 -3.9999999E-02;  9.9999998E-03; -1.2000000E-01;381;0.0;0.0;0.0;1000.0683;  4.0000001E-01;56.590984;0;0.0;0.0;0.0;0;-0.04040812;  1.0000000E+04;  0.0000000E+00;  0.0000000E+00;  1.0000000E+04;  0.0000000E+00;  1.0000000E+04;-0.041288298;0.0;0.00088017667;18.783318
 -3.9999999E-02;  9.9999998E-03; -1.0000000E-01;382;0.0;0.0;0.0;1000.0691;  4.0000001E-01;57.282322;0;0.0;0.0;0.0;0;-0.040786333;  1.0000000E+04;  0.0000000E+00;  0.0000000E+00;  1.0000000E+04;  0.0000000E+00;  1.0000000E+04;-0.041533772;0.0;0.00074744003;16.545803
 -3.9999999E-02;  9.9999998E-03; -7.9999998E-02;383;0.0;0.0;0.0;1000.0693;  4.0000001E-01;57.381084;0;0.0;0.0;0.0;0;-0.040993202;  1.0000000E+04;  0.0000000E+00;  0.0000000E+00;  1.0000000E+04;  0.0000000E+00;  1.0000000E+04;-0.041618064;0.0;0.00062486326;14.478642
 -3.9999999E-02;  9.9999998E-03; -5.9999999E-02;384;0.0;0.0;0.0;1000.0695;  4.0000001E-01;57.578609;0;0.0;0.0;0.0;0;-0.041091464;  1.0000000E+04;  0.0000000E+00;  0.0000000E+00;  1.0000000E+04;  0.0000000E+00;  1.0000000E+04;-0.041613407;0.0;0.00052194396;12.744857
 -3.9999999E-02;  9.9999998E-03; -3.9999999E-02;385;0.0;0.0;0.0;1000.0696;  4.0000001E-01;57.677372;0;0.0;0.0;0.0;0;-0.041128945;  1.0000000E+04;  0.0000000E+00;  0.0000000E+00;  1.0000000E+04;  0.0000000E+00;  1.0000000E+04;-0.041573629;0.0;0.00044468298;11.445686
 -3.9999999E-02;  9.9999998E-03; -2.0000000E-02;386;0.0;0.0;0.0;1000.0696;  4.0000001E-01;57.677372;0;0.0;0.0;0.0;0;-0.041138623;  1.0000000E+04;  0.0000000E+00;  0.0000000E+00;  1.0000000E+04;  0.0000000E+00;  1.0000000E+04;-0.041535504;0.0;0.0003968828;10.643304
 -2.0000000E-02;  9.9999998E-03; -1.8000001E-01;419;0.0;0.0;0.0;1000.092;  4.0000001E-01;76.244743;0;0.0;0.0;0.0;0;-0.053863261;  1.0000000E+04;  0.0000000E+00;  0.0000000E+00;  1.0000000E+04;  0.0000000E+00;  1.0000000E+04;-0.055718549;0.0;0.0018552882;37.164028
 -2.0000000E-02;  9.9999998E-03; -1.6000000E-01;420;0.0;0.0;0.0;1000.095;  4.0000001E-01;78.713814;0;0.0;0.0;0.0;0;-0.055772204;  1.0000000E+04;  0.0000000E+00;  0.0000000E+00;  1.0000000E+04;  0.0000000E+00;  1.0000000E+04;-0.057605833;0.0;0.0018336287;36.662186
 -2.0000000E-02;  9.9999998E-03; -1.4000000E-01;421;0.0;0.0;0.0;1000.0971;  4.0000001E-01;80.491539;0;0.0;0.0;0.0;0;-0.057101864;  1.0000000E+04;  0.0000000E+00;  0.0000000E+00;  1.0000000E+04;  0.0000000E+00;  1.0000000E+04;-0.058784597;0.0;0.0016827324;34.019753
 -2.0000000E-02;  9.9999998E-03; -1.2000000E-01;422;0.0;0.0;0.0;1000.0985;  4.0000001E-01;81.577927;0;0.0;0.0;0.0;0;-0.057970971;  1.0000000E+04;  0.0000000E+00;  0.0000000E+00;  1.0000000E+04;  0.0000000E+00;  1.0000000E+04;-0.059447657;0.0;0.001476687;30.459757
 -2.0000000E-02;  9.9999998E-03; -1.0000000E-01;423;0.0;0.0;0.0;1000.0995;  4.0000001E-01;82.466789;0;0.0;0.0;0.0;0;-0.058496911;  1.0000000E+04;  0.0000000E+00;  0.0000000E+00;  1.0000000E+04;  0.0000000E+00;  1.0000000E+04;-0.059756927;0.0;0.0012600159;26.729641
 -2.0000000E-02;  9.9999998E-03; -7.9999998E-02;424;0.0;0.0;0.0;1000.1;  4.0000001E-01;82.861839;0;0.0;0.0;0.0;0;-0.058785938;  1.0000000E+04;  0.0000000E+00;  0.0000000E+00;  1.0000000E+04;  0.0000000E+00;  1.0000000E+04;-0.059844282;0.0;0.0010583421;23.267954
 -2.0000000E-02;  9.9999998E-03; -5.9999999E-02;425;0.0;0.0;0.0;1000.1002;  4.0000001E-01;83.059364;0;0.0;0.0;0.0;0;-0.058924574;  1.0000000E+04;  0.0000000E+00;  0.0000000E+00;  1.0000000E+04;  0.0000000E+00;  1.0000000E+04;-0.059812825;0.0;0.00088825065;20.357325
 -2.0000000E-02;  9.9999998E-03; -3.9999999E-02;426;0.0;0.0;0.0;1000.1003;  4.0000001E-01;83.059364;0;0.0;0.0;0.0;0;-0.058978636;  1.0000000E+04;  0.0000000E+00;  0.0000000E+00;  1.0000000E+04;  0.0000000E+00;  1.0000000E+04;-0.059738893;0.0;0.00076025666;18.173754
 -2.0000000E-02;  9.9999998E-03; -2.0000000E-02;427;0.0;0.0;0.0;1000.1003;  4.0000001E-01;83.158127;0;0.0;0.0;0.0;0;-0.058993518;  1.0000000E+04;  0.0000000E+00;  0.0000000E+00;  1.0000000E+04;  0.0000000E+00;  1.0000000E+04;-0.059674498;0.0;0.00068097882;16.824558
 -2.2000000E-01;  9.9999998E-03;  0.0000000E+00;19;0.0;0.0;0.0;1000.0;  4.0000001E-01;0.0;0;0.0;0.0;0.0;0;0.0;  1.0000000E+04;  0.0000000E+00;  0.0000000E+00;  1.0000000E+04;  0.0000000E+00;  1.0000000E+04;0.0;0.0;0.0;0.0
 -2.2000000E-01;  9.9999998E-03;  2.0000000E-02;20;0.0;0.0;0.0;1000.0;  4.0000001E-01;0.0;0;0.0;0.0;0.0;0;0.0;  1.0000000E+04;  0.0000000E+00;  0.0000000E+00;  1.0000000E+04;  0.0000000E+00;  1.0000000E+04;0.0;0.0;0.0;0.0
 -2.2000000E-01;  9.9999998E-03;  3.9999999E-02;21;0.0;0.0;0.0;1000.0;  4.0000001E-01;0.0;0;0.0;0.0;0.0;0;0.0;  1.0000000E+04;  0.0000000E+00;  0.0000000E+00;  1.0000000E+04;  0.0000000E+00;  1.0000000E+04;0.0;0.0;0.0;0.0
 -2.2000000E-01;  9.9999998E-03;  5.9999999E-02;22;0.0;0.0;0.0;1000.0;  4.0000001E-01;0.0;0;0.0;0.0;0.0;0;0.0;  1.0000000E+04;  0.0000000E+00;  0.0000000E+00;  1.0000000E+04;  0.0000000E+00;  1.0000000E+04;0.0;0.0;0.0;0.0
 -2.2000000E-01;  9.9999998E-03;  7.9999998E-02;23;0.0;0.0;0.0;1000.0;  4.0000001E-01;0.0;0;0.0;0.0;0.0;0;0.0;  1.0000000E+04;  0.0000000E+00;  0.0000000E+00;  1.0000000E+04;  0.0000000E+00;  1.0000000E+04;0.0;0.0;0.0;0.0
 -2.2000000E-01;  9.9999998E-03;  1.0000000E-01;24;0.0;0.0;0.0;1000.0;  4.0000001E-01;0.0;0;0.0;0.0;0.0;0;0.0;  1.0000000E+04;  0.0000000E+00;  0.0000000E+00;  1.0000000E+04;  0.0000000E+00;  1.0000000E+04;0.0;0.0;0.0;0.0
 -2.2000000E-01;  9.9999998E-03;  1.2000000E-01;25;0.0;0.0;0.0;1000.0;  4.0000001E-01;0.0;0;0.0;0.0;0.0;0;0.0;  1.0000000E+04;  0.0000000E+00;  0.0000000E+00;  1.0000000E+04;  0.0000000E+00;  1.0000000E+04;0.0;0.0;0.0;0.0
 -2.2000000E-01;  9.9999998E-03;  1.4000000E-01;26;0.0;0.0;0.0;1000.0;  4.0000001E-01;0.0;0;0.0;0.0;0.0;0;0.0;  1.0000000E+04;  0.0000000E+00;  0.0000000E+00;  1.0000000E+04;  0.0000000E+00;  1.0000000E+04;0.0;0.0;0.0;0.0
 -2.0000000E-01;  9.9999998E-03;  0.0000000E+00;59;0.0;0.0;0.0;1000.0;  4.0000001E-01;0.0;0;0.0;0.0;0.0;0;0.0;  1.0000000E+04;  0.0000000E+00;  0.0000000E+00;  1.0000000E+04;  0.0000000E+00;  1.0000000E+04;0.0;0.0;0.0;0.0
 -2.0000000E-01;  9.9999998E-03;  2.0000000E-02;60;0.0;0.0;0.0;1000.0;  4.0000001E-01;0.0;0;0.0;0.0;0.0;0;0.0;  1.0000000E+04;  0.0000000E+00;  0.0000000E+00;  1.0000000E+04;  0.0000000E+00;  1.0000000E+04;0.0;0.0;0.0;0.0
 -2.0000000E-01;  9.9999998E-03;  3.9999999E-02;61;0.0;0.0;0.0;1000.0;  4.0000001E-01;0.0;0;0.0;0.0;0.0;0;0.0;  1.0000000E+04;  0.0000000E+00;  0.0000000E+00;  1.0000000E+04;  0.0000000E+00;  1.0000000E+04;0.0;0.0;0.0;0.0
 -2.0000000E-01;  9.9999998E-03;  5.9999999E-02;62;0.0;0.0;0.0;1000.0;  4.0000001E-01;0.0;0;0.0;0.0;0.0;0;0.0;  1.0000000E+04;  0.0000000E+00;  0.0000000E+00;  1.0000000E+04;  0.0000000E+00;  1.0000000E+04;0.0;0.0;0.0;0.0
 -2.0000000E-01;  9.9999998E-03;  7.9999998E-02;63;0.0;0.0;0.0;1000.0;  4.0000001E-01;0.0;0;0.0;0.0;0.0;0;0.0;  1.0000000E+04;  0.0000000E+00;  0.0000000E+00;  1.0000000E+04;  0.0000000E+00;  1.0000000E+04;0.0;0.0;0.0;0.0
 -2.0000000E-01;  9.9999998E-03;  1.0000000E-01;64;0.0;0.0;0.0;1000.0;  4.0000001E-01;0.0;0;0.0;0.0;0.0;0;0.0;  1.0000000E+04;  0.0000000E+00;  0.0000000E+00;  1.0000000E+04;  0.0000000E+00;  1.0000000E+04;0.0;0.0;0.0;0.0
 -2.0000000E-01;  9.9999998E-03;  1.2000000E-01;65;0.0;0.0;0.0;1000.0;  4.0000001E-01;0.0;0;0.0;0.0;0.0;0;0.0;  1.0000000E+04;  0.0000000E+00;  0.0000000E+00;  1.0000000E+04;  0.0000000E+00;  1.0000000E+04;0.0;0.0;0.0;0.0
 -2.0000000E-01;  9.9999998E-03;  1.4000000E-01;66;0.0;0.0;0.0;1000.0;  4.0000001E-01;0.0;0;0.0;0.0;0.0;0;0.0;  1.0000000E+04;  0.0000000E+00;  0.0000000E+00;  1.0000000E+04;  0.0000000E+00;  1.0000000E+04;0.0;0.0;0.0;0.0
 -1.8000001E-01;  9.9999998E-03;  0.0000000E+00;100;0.0;0.0;0.0;1000.0;  4.0000001E-01;0.0;0;0.0;0.0;0.0;0;0.0;  1.0000000E+04;  0.0000000E+00;  0.0000000E+00;  1.0000000E+04;  0.0000000E+00;  1.0000000E+04;0.0;0.0;0.0;0.0
 -1.8000001E-01;  9.9999998E-03;  2.0000000E-02;101;0.0;0.0;0.0;1000.0;  4.0000001E-01;0.0;0;0.0;0.0;0.0;0;0.0;  1.0000000E+04;  0.0000000E+00;  0.0000000E+00;  1.0000000E+04;  0.0000000E+00;  1.0000000E+04;0.0;0.0;0.0;0.0
 -1.8000001E-01;  9.9999998E-03;  3.9999999E-02;102;0.0;0.0;0.0;1000.0;  4.0000001E-01;0.0;0;0.0;0.0;0.0;0;0.0;  1.0000000E+04;  0.0000000E+00;  0.0000000E+00;  1.0000000E+04;  0.0000000E+00;  1.0000000E+04;0.0;0.0;0.0;0.0
 -1.8000001E-01;  9.9999998E-03;  5.9999999E-02;103;0.0;0.0;0.0;1000.0;  4.0000001E-01;0.0;0;0.0;0.0;0.0;0;0.0;  1.0000000E+04;  0.0000000E+00;  0.0000000E+00;  1.0000000E+04;  0.0000000E+00;  1.0000000E+04;0.0;0.0;0.0;0.0
 -1.8000001E-01;  9.9999998E-03;  7.9999998E-02;104;0.0;0.0;0.0;1000.0;  4.0000001E-01;0.0;0;0.0;0.0;0.0;0;0.0;  1.0000000E+04;  0.0000000E+00;  0.0000000E+00;  1.0000000E+04;  0.0000000E+00;  1.0000000E+04;0.0;0.0;0.0;0.0
 -1.8000001E-01;  9.9999998E-03;  1.0000000E-01;105;0.0;0.0;0.0;1000.0;  4.0000001E-01;0.0;0;0.0;0.0;0.0;0;0.0;  1.0000000E+04;  0.0000000E+00;  0.0000000E+00;  1.0000000E+04;  0.0000000E+00;  1.0000000E+04;0.0;0.0;0.0;0.0
 -1.8000001E-01;  9.9999998E-03;  1.2000000E-01;106;0.0;0.0;0.0;1000.0;  4.0000001E-01;0.0;0;0.0;0.0;0.0;0;0.0;  1.0000000E+04;  0.0000000E+00;  0.0000000E+00;  1.0000000E+04;  0.0000000E+00;  1.0000000E+04;0.0;0.0;0.0;0.0
 -1.8000001E-01;  9.9999998E-03;  1.4000000E-01;107;0.0;0.0;0.0;1000.0;  4.0000001E-01;0.0;0;0.0;0.0;0.0;0;0.0;  1.0000000E+04;  0.0000000E+00;  0.0000000E+00;  1.0000000E+04;  0.0000000E+00;  1.0000000E+04;0.0;0.0;0.0;0.0
 -1.6000000E-01;  9.9999998E-03;  0.0000000E+00;141;0.0;0.0;0.0;1000.0;  4.0000001E-01;0.0;0;0.0;0.0;0.0;0;-8.3451323e-06;  1.0000000E+04;  0.0000000E+00;  0.0000000E+00;  1.0000000E+04;  0.0000000E+00;  1.0000000E+04;-8.3487994e-06;0.0;3.6667114e-09;0.0011119709
 -1.6000000E-01;  9.9999998E-03;  2.0000000E-02;142;0.0;0.0;0.0;1000.0;  4.0000001E-01;0.0;0;0.0;0.0;0.0;0;-8.3493605e-06;  1.0000000E+04;  0.0000000E+00;  0.0000000E+00;  1.0000000E+04;  0.0000000E+00;  1.0000000E+04;-8.3532632e-06;0.0;3.9023798e-09;0.0011162864
 -1.6000000E-01;  9.9999998E-03;  3.9999999E-02;143;0.0;0.0;0.0;1000.0;  4.0000001E-01;0.0;0;0.0;0.0;0.0;0;-8.3607401e-06;  1.0000000E+04;  0.0000000E+00;  0.0000000E+00;  1.0000000E+04;  0.0000000E+00;  1.0000000E+04;-8.3653367e-06;0.0;4.5966839e-09;0.0011289027
 -1.6000000E-01;  9.9999998E-03;  5.9999999E-02;144;0.0;0.0;0.0;1000.0;  4.0000001E-01;0.0;0;0.0;0.0;0.0;0;-8.3752184e-06;  1.0000000E+04;  0.0000000E+00;  0.0000000E+00;  1.0000000E+04;  0.0000000E+00;  1.0000000E+04;-8.3809464e-06;0.0;5.7281113e-09;0.0011490332
 -1.6000000E-01;  9.9999998E-03;  7.9999998E-02;145;0.0;0.0;0.0;1000.0;  4.0000001E-01;0.0;0;0.0;0.0;0.0;0;-8.3858586e-06;  1.0000000E+04;  0.0000000E+00;  0.0000000E+00;  1.0000000E+04;  0.0000000E+00;  1.0000000E+04;-8.3930854e-06;0.0;7.227293e-09;0.0011749119
 -1.6000000E-01;  9.9999998E-03;  1.0000000E-01;146;0.0;0.0;0.0;1000.0;  4.0000001E-01;0.0;0;0.0;0.0;0.0;0;-8.3822488e-06;  1.0000000E+04;  0.0000000E+00;  0.0000000E+00;  1.0000000E+04;  0.0000000E+00;  1.0000000E+04;-8.391301e-06;0.0;9.0519627e-09;0.0012046034
 -1.6000000E-01;  9.9999998E-03;  1.2000000E-01;147;0.0;0.0;0.0;1000.0;  4.0000001E-01;0.0;0;0.0;0.0;0.0;0;-8.3502819e-06;  1.0000000E+04;  0.0000000E+00;  0.0000000E+00;  1.0000000E+04;  0.0000000E+00;  1.0000000E+04;-8.3613968e-06;0.0;1.1114615e-08;0.0012350311
 -1.6000000E-01;  9.9999998E-03;  1.4000000E-01;148;0.0;0.0;0.0;1000.0;  4.0000001E-01;0.0;0;0.0;0.0;0.0;0;-8.2715878e-06;  1.0000000E+04;  0.0000000E+00;  0.0000000E+00;  1.0000000E+04;  0.0000000E+00;  1.0000000E+04;-8.2849101e-06;0.0;1.3321837e-08;0.0012621034
 -1.4000000E-01;  9.9999998E-03;  0.0000000E+00;182;0.0;0.0;0.0;1000.0004;  4.0000001E-01;0.3950505;0;0.0;0.0;0.0;0;-0.00030723197;  1.0000000E+04;  0.0000000E+00;  0.0000000E+00;  1.0000000E+04;  0.0000000E+00;  1.0000000E+04;-0.00030773148;0.0;4.9951848e-07;0.045639072
 -1.4000000E-01;  9.9999998E-03;  2.0000000E-02;183;0.0;0.0;0.0;1000.0004;  4.0000001E-01;0.3950505;0;0.0;0.0;0.0;0;-0.00030733127;  1.0000000E+04;  0.0000000E+00;  0.0000000E+00;  1.0000000E+04;  0.0000000E+00;  1.0000000E+04;-0.00030785971;0.0;5.2842989e-07;0.046116143
 -1.4000000E-01;  9.9999998E-03;  3.9999999E-02;184;0.0;0.0;0.0;1000.0004;  4.0000001E-01;0.3950505;0;0.0;0.0;0.0;0;-0.00030758025;  1.0000000E+04;  0.0000000E+00;  0.0000000E+00;  1.0000000E+04;  0.0000000E+00;  1.0000000E+04;-0.00030819382;0.0;6.1357173e-07;0.047520857
 -1.4000000E-01;  9.9999998E-03;  5.9999999E-02;185;0.0;0.0;0.0;1000.0004;  4.0000001E-01;0.3950505;0;0.0;0.0;0.0;0;-0.00030782633;  1.0000000E+04;  0.0000000E+00;  0.0000000E+00;  1.0000000E+04;  0.0000000E+00;  1.0000000E+04;-0.0003085777;0.0;7.5138655e-07;0.049786221
 -1.4000000E-01;  9.9999998E-03;  7.9999998E-02;186;0.0;0.0;0.0;1000.0004;  4.0000001E-01;0.3950505;0;0.0;0.0;0.0;0;-0.00030780633;  1.0000000E+04;  0.0000000E+00;  0.0000000E+00;  1.0000000E+04;  0.0000000E+00;  1.0000000E+04;-0.00030874222;0.0;9.3588335e-07;0.052797515
 -1.4000000E-01;  9.9999998E-03;  1.0000000E-01;187;0.0;0.0;0.0;1000.0004;  4.0000001E-01;0.3950505;0;0.0;0.0;0.0;0;-0.00030713415;  1.0000000E+04;  0.0000000E+00;  0.0000000E+00;  1.0000000E+04;  0.0000000E+00;  1.0000000E+04;-0.00030829315;0.0;1.1589992e-06;0.056384549
 -1.4000000E-01;  9.9999998E-03;  1.2000000E-01;188;0.0;0.0;0.0;1000.0004;  4.0000001E-01;0.3950505;0;0.0;0.0;0.0;0;-0.00030528472;  1.0000000E+04;  0.0000000E+00;  0.0000000E+00;  1.0000000E+04;  0.0000000E+00;  1.0000000E+04;-0.00030669683;0.0;1.4121224e-06;0.060339894
 -1.4000000E-01;  9.9999998E-03;  1.4000000E-01;189;0.0;0.0;0.0;1000.0004;  4.0000001E-01;0.3950505;0;0.0;0.0;0.0;0;-0.00030159322;  1.0000000E+04;  0.0000000E+00;  0.0000000E+00;  1.0000000E+04;  0.0000000E+00;  1.0000000E+04;-0.00030327388;0.0;1.6806656e-06;0.064338379
 -1.2000000E-01;  9.9999998E-03;  0.0000000E+00;223;0.0;0.0;0.0;1000.0027;  4.0000001E-01;2.2715404;0;0.0;0.0;0.0;0;-0.0017040708;  1.0000000E+04;  0.0000000E+00;  0.0000000E+00;  1.0000000E+04;  0.0000000E+00;  1.0000000E+04;-0.0017091933;0.0;5.1224642e-06;0.28436536
 -1.2000000E-01;  9.9999998E-03;  2.0000000E-02;224;0.0;0.0;0.0;1000.0027;  4.0000001E-01;2.2715404;0;0.0;0.0;0.0;0;-0.0017044098;  1.0000000E+04;  0.0000000E+00;  0.0000000E+00;  1.0000000E+04;  0.0000000E+00;  1.0000000E+04;-0.0017098025;0.0;5.3926933e-06;0.28878379
 -1.2000000E-01;  9.9999998E-03;  3.9999999E-02;225;0.0;0.0;0.0;1000.0027;  4.0000001E-01;2.2715404;0;0.0;0.0;0.0;0;-0.0017051477;  1.0000000E+04;  0.0000000E+00;  0.0000000E+00;  1.0000000E+04;  0.0000000E+00;  1.0000000E+04;-0.00171134;0.0;6.1923865e-06;0.30185634
 -1.2000000E-01;  9.9999998E-03;  5.9999999E-02;226;0.0;0.0;0.0;1000.0027;  4.0000001E-01;2.2715404;0;0.0;0.0;0.0;0;-0.0017054344;  1.0000000E+04;  0.0000000E+00;  0.0000000E+00;  1.0000000E+04;  0.0000000E+00;  1.0000000E+04;-0.0017129211;0.0;7.4867007e-06;0.32299948
 -1.2000000E-01;  9.9999998E-03;  7.9999998E-02;227;0.0;0.0;0.0;1000.0027;  4.0000001E-01;2.2715404;0;0.0;0.0;0.0;0;-0.0017038046;  1.0000000E+04;  0.0000000E+00;  0.0000000E+00;  1.0000000E+04;  0.0000000E+00;  1.0000000E+04;-0.0017130254;0.0;9.2207629e-06;0.35123441
 -1.2000000E-01;  9.9999998E-03;  1.0000000E-01;228;0.0;0.0;0.0;1000.0027;  4.0000001E-01;2.2715404;0;0.0;0.0;0.0;0;-0.0016981151;  1.0000000E+04;  0.0000000E+00;  0.0000000E+00;  1.0000000E+04;  0.0000000E+00;  1.0000000E+04;-0.0017094363;0.0;1.1321189e-05;0.38516769
 -1.2000000E-01;  9.9999998E-03;  1.2000000E-01;229;0.0;0.0;0.0;1000.0027;  4.0000001E-01;2.2715404;0;0.0;0.0;0.0;0;-0.0016854943;  1.0000000E+04;  0.0000000E+00;  0.0000000E+00;  1.0000000E+04;  0.0000000E+00;  1.0000000E+04;-0.0016991763;0.0;1.3681926e-05;0.42273223
 -1.2000000E-01;  9.9999998E-03;  1.4000000E-01;230;0.0;0.0;0.0;1000.0027;  4.0000001E-01;2.2715404;0;0.0;0.0;0.0;0;-0.001662357;  1.0000000E+04;  0.0000000E+00;  0.0000000E+00;  1.0000000E+04;  0.0000000E+00;  1.0000000E+04;-0.0016784936;0.0;1.6136528e-05;0.46069738
 -1.0000000E-01;  9.9999998E-03;  0.0000000E+00;264;0.0;0.0;0.0;1000.0091;  4.0000001E-01;7.5059595;0;0.0;0.0;0.0;0;-0.0054360419;  1.0000000E+04;  0.0000000E+00;  0.0000000E+00;  1.0000000E+04;  0.0000000E+00;  1.0000000E+04;-0.0054605287;0.0;2.4486899e-05;1.0169053
 -1.0000000E-01;  9.9999998E-03;  2.0000000E-02;265;0.0;0.0;0.0;1000.0091;  4.0000001E-01;7.5059595;0;0.0;0.0;0.0;0;-0.0054366086;  1.0000000E+04;  0.0000000E+00;  0.0000000E+00;  1.0000000E+04;  0.0000000E+00;  1.0000000E+04;-0.0054622982;0.0;2.5689591e-05;1.0365961
 -1.0000000E-01;  9.9999998E-03;  3.9999999E-02;266;0.0;0.0;0.0;1000.0091;  4.0000001E-01;7.5059595;0;0.0;0.0;0.0;0;-0.0054374267;  1.0000000E+04;  0.0000000E+00;  0.0000000E+00;  1.0000000E+04;  0.0000000E+00;  1.0000000E+04;-0.0054666735;0.0;2.9246816e-05;1.0948586
 -1.0000000E-01;  9.9999998E-03;  5.9999999E-02;267;0.0;0.0;0.0;1000.0091;  4.0000001E-01;7.5059595;0;0.0;0.0;0.0;0;-0.0054357974;  1.0000000E+04;  0.0000000E+00;  0.0000000E+00;  1.0000000E+04;  0.0000000E+00;  1.0000000E+04;-0.0054708049;0.0;3.5007357e-05;1.1892072
 -1.0000000E-01;  9.9999998E-03;  7.9999998E-02;268;0.0;0.0;0.0;1000.0091;  4.0000001E-01;7.5059595;0;0.0;0.0;0.0;0;-0.0054270639;  1.0000000E+04;  0.0000000E+00;  0.0000000E+00;  1.0000000E+04;  0.0000000E+00;  1.0000000E+04;-0.0054697897;0.0;4.2725602e-05;1.3154337
 -1.0000000E-01;  9.9999998E-03;  1.0000000E-01;269;0.0;0.0;0.0;1000.0089;  4.0000001E-01;7.407197;0;0.0;0.0;0.0;0;-0.0054044602;  1.0000000E+04;  0.0000000E+00;  0.0000000E+00;  1.0000000E+04;  0.0000000E+00;  1.0000000E+04;-0.0054565039;0.0;5.2043535e-05;1.4671409
 -1.0000000E-01;  9.9999998E-03;  1.2000000E-01;270;0.0;0.0;0.0;1000.0087;  4.0000001E-01;7.2096715;0;0.0;0.0;0.0;0;-0.0053589968;  1.0000000E+04;  0.0000000E+00;  0.0000000E+00;  1.0000000E+04;  0.0000000E+00;  1.0000000E+04;-0.005421422;0.0;6.2425279e-05;1.6344969
 -1.0000000E-01;  9.9999998E-03;  1.4000000E-01;271;0.0;0.0;0.0;1000.0087;  4.0000001E-01;7.2096715;0;0.0;0.0;0.0;0;-0.0052795759;  1.0000000E+04;  0.0000000E+00;  0.0000000E+00;  1.0000000E+04;  0.0000000E+00;  1.0000000E+04;-0.00535258;0.0;7.3004165e-05;1.8017303
 -7.9999998E-02;  9.9999998E-03;  0.0000000E+00;305;0.0;0.0;0.0;1000.0217;  4.0000001E-01;17.974798;0;0.0;0.0;0.0;0;-0.012924237;  1.0000000E+04;  0.0000000E+00;  0.0000000E+00;  1.0000000E+04;  0.0000000E+00;  1.0000000E+04;-0.013002089;0.0;7.785199e-05;2.685075
 -7.9999998E-02;  9.9999998E-03;  2.0000000E-02;306;0.0;0.0;0.0;1000.0217;  4.0000001E-01;17.974798;0;0.0;0.0;0.0;0;-0.012924739;  1.0000000E+04;  0.0000000E+00;  0.0000000E+00;  1.0000000E+04;  0.0000000E+00;  1.0000000E+04;-0.013006199;0.0;8.146029e-05;2.7444794
 -7.9999998E-02;  9.9999998E-03;  3.9999999E-02;307;0.0;0.0;0.0;1000.0217;  4.0000001E-01;17.974798;0;0.0;0.0;0.0;0;-0.012924157;  1.0000000E+04;  0.0000000E+00;  0.0000000E+00;  1.0000000E+04;  0.0000000E+00;  1.0000000E+04;-0.013016287;0.0;9.2130562e-05;2.920243
 -7.9999998E-02;  9.9999998E-03;  5.9999999E-02;308;0.0;0.0;0.0;1000.0217;  4.0000001E-01;17.974798;0;0.0;0.0;0.0;0;-0.01291615;  1.0000000E+04;  0.0000000E+00;  0.0000000E+00;  1.0000000E+04;  0.0000000E+00;  1.0000000E+04;-0.013025556;0.0;0.00010940653;3.2049809
 -7.9999998E-02;  9.9999998E-03;  7.9999998E-02;309;0.0;0.0;0.0;1000.0217;  4.0000001E-01;17.974798;0;0.0;0.0;0.0;0;-0.01288979;  1.0000000E+04;  0.0000000E+00;  0.0000000E+00;  1.0000000E+04;  0.0000000E+00;  1.0000000E+04;-0.013022311;0.0;0.00013252087;3.5858335
 -7.9999998E-02;  9.9999998E-03;  1.0000000E-01;310;0.0;0.0;0.0;1000.0217;  4.0000001E-01;17.974798;0;0.0;0.0;0.0;0;-0.012829253;  1.0000000E+04;  0.0000000E+00;  0.0000000E+00;  1.0000000E+04;  0.0000000E+00;  1.0000000E+04;-0.012989566;0.0;0.00016031209;4.0426002
 -7.9999998E-02;  9.9999998E-03;  1.2000000E-01;311;0.0;0.0;0.0;1000.0212;  4.0000001E-01;17.579746;0;0.0;0.0;0.0;0;-0.012713647;  1.0000000E+04;  0.0000000E+00;  0.0000000E+00;  1.0000000E+04;  0.0000000E+00;  1.0000000E+04;-0.012904623;0.0;0.000190975;4.543273
 -7.9999998E-02;  9.9999998E-03;  1.4000000E-01;312;0.0;0.0;0.0;1000.0209;  4.0000001E-01;17.283459;0;0.0;0.0;0.0;0;-0.012517351;  1.0000000E+04;  0.0000000E+00;  0.0000000E+00;  1.0000000E+04;  0.0000000E+00;  1.0000000E+04;-0.012738945;0.0;0.00022159457;5.0365562
 -5.9999999E-02;  9.9999998E-03;  0.0000000E+00;346;0.0;0.0;0.0;1000.0421;  4.0000001E-01;34.863205;0;0.0;0.0;0.0;0;-0.025011385;  1.0000000E+04;  0.0000000E+00;  0.0000000E+00;  1.0000000E+04;  0.0000000E+00;  1.0000000E+04;-0.025201162;0.0;0.00018977823;5.7324162
 -5.9999999E-02;  9.9999998E-03;  2.0000000E-02;347;0.0;0.0;0.0;1000.0421;  4.0000001E-01;34.863205;0;0.0;0.0;0.0;0;-0.02501129;  1.0000000E+04;  0.0000000E+00;  0.0000000E+00;  1.0000000E+04;  0.0000000E+00;  1.0000000E+04;-0.025209455;0.0;0.00019816574;5.8716083
 -5.9999999E-02;  9.9999998E-03;  3.9999999E-02;348;0.0;0.0;0.0;1000.0421;  4.0000001E-01;34.863205;0;0.0;0.0;0.0;0;-0.025007049;  1.0000000E+04;  0.0000000E+00;  0.0000000E+00;  1.0000000E+04;  0.0000000E+00;  1.0000000E+04;-0.025230009;0.0;0.00022296088;6.283412
 -5.9999999E-02;  9.9999998E-03;  5.9999999E-02;349;0.0;0.0;0.0;1000.0421;  4.0000001E-01;34.863205;0;0.0;0.0;0.0;0;-0.024986636;  1.0000000E+04;  0.0000000E+00;  0.0000000E+00;  1.0000000E+04;  0.0000000E+00;  1.0000000E+04;-0.025249714;0.0;0.00026307767;6.9504371
 -5.9999999E-02;  9.9999998E-03;  7.9999998E-02;350;0.0;0.0;0.0;1000.0419;  4.0000001E-01;34.66568;0;0.0;0.0;0.0;0;-0.024929333;  1.0000000E+04;  0.0000000E+00;  0.0000000E+00;  1.0000000E+04;  0.0000000E+00;  1.0000000E+04;-0.025245978;0.0;0.00031664319;7.8417187
 -5.9999999E-02;  9.9999998E-03;  1.0000000E-01;351;0.0;0.0;0.0;1000.0417;  4.0000001E-01;34.566917;0;0.0;0.0;0.0;0;-0.024805224;  1.0000000E+04;  0.0000000E+00;  0.0000000E+00;  1.0000000E+04;  0.0000000E+00;  1.0000000E+04;-0.025185965;0.0;0.00038074146;8.907464
 -5.9999999E-02;  9.9999998E-03;  1.2000000E-01;352;0.0;0.0;0.0;1000.0416;  4.0000001E-01;34.468155;0;0.0;0.0;0.0;0;-0.024574911;  1.0000000E+04;  0.0000000E+00;  0.0000000E+00;  1.0000000E+04;  0.0000000E+00;  1.0000000E+04;-0.025025686;0.0;0.00045077439;10.067774
 -5.9999999E-02;  9.9999998E-03;  1.4000000E-01;353;0.0;0.0;0.0;1000.0407;  4.0000001E-01;33.776817;0;0.0;0.0;0.0;0;-0.024190284;  1.0000000E+04;  0.0000000E+00;  0.0000000E+00;  1.0000000E+04;  0.0000000E+00;  1.0000000E+04;-0.024709703;0.0;0.00051941845;11.195982
 -3.9999999E-02;  9.9999998E-03;  0.0000000E+00;387;0.0;0.0;0.0;1000.0696;  4.0000001E-01;57.677372;0;0.0;0.0;0.0;0;-0.041139759;  1.0000000E+04;  0.0000000E+00;  0.0000000E+00;  1.0000000E+04;  0.0000000E+00;  1.0000000E+04;-0.041520469;0.0;0.00038070919;10.372094
 -3.9999999E-02;  9.9999998E-03;  2.0000000E-02;388;0.0;0.0;0.0;1000.0696;  4.0000001E-01;57.677372;0;0.0;0.0;0.0;0;-0.04113863;  1.0000000E+04;  0.0000000E+00;  0.0000000E+00;  1.0000000E+04;  0.0000000E+00;  1.0000000E+04;-0.041535512;0.0;0.00039688303;10.643306
 -3.9999999E-02;  9.9999998E-03;  3.9999999E-02;389;0.0;0.0;0.0;1000.0696;  4.0000001E-01;57.677372;0;0.0;0.0;0.0;0;-0.041128952;  1.0000000E+04;  0.0000000E+00;  0.0000000E+00;  1.0000000E+04;  0.0000000E+00;  1.0000000E+04;-0.041573636;0.0;0.00044468333;11.445687
 -3.9999999E-02;  9.9999998E-03;  5.9999999E-02;390;0.0;0.0;0.0;1000.0695;  4.0000001E-01;57.578609;0;0.0;0.0;0.0;0;-0.041091457;  1.0000000E+04;  0.0000000E+00;  0.0000000E+00;  1.0000000E+04;  0.0000000E+00;  1.0000000E+04;-0.0416134;0.0;0.0005219442;12.744859
 -3.9999999E-02;  9.9999998E-03;  7.9999998E-02;391;0.0;0.0;0.0;1000.0693;  4.0000001E-01;57.381084;0;0.0;0.0;0.0;0;-0.040993188;  1.0000000E+04;  0.0000000E+00;  0.0000000E+00;  1.0000000E+04;  0.0000000E+00;  1.0000000E+04;-0.041618053;0.0;0.00062486361;14.478645
 -3.9999999E-02;  9.9999998E-03;  1.0000000E-01;392;0.0;0.0;0.0;1000.0691;  4.0000001E-01;57.282322;0;0.0;0.0;0.0;0;-0.040786333;  1.0000000E+04;  0.0000000E+00;  0.0000000E+00;  1.0000000E+04;  0.0000000E+00;  1.0000000E+04;-0.041533772;0.0;0.00074744009;16.545801
 -3.9999999E-02;  9.9999998E-03;  1.2000000E-01;393;0.0;0.0;0.0;1000.0683;  4.0000001E-01;56.590984;0;0.0;0.0;0.0;0;-0.040408131;  1.0000000E+04;  0.0000000E+00;  0.0000000E+00;  1.0000000E+04;  0.0000000E+00;  1.0000000E+04;-0.041288309;0.0;0.00088017719;18.783318
 -3.9999999E-02;  9.9999998E-03;  1.4000000E-01;394;0.0;0.0;0.0;1000.0673;  4.0000001E-01;55.702122;0;0.0;0.0;0.0;0;-0.039781764;  1.0000000E+04;  0.0000000E+00;  0.0000000E+00;  1.0000000E+04;  0.0000000E+00;  1.0000000E+04;-0.040789966;0.0;0.0010082008;20.936062
 -2.0000000E-02;  9.9999998E-03;  0.0000000E+00;428;0.0;0.0;0.0;1000.1003;  4.0000001E-01;83.158127;0;0.0;0.0;0.0;0;-0.058995582;  1.0000000E+04;  0.0000000E+00;  0.0000000E+00;  1.0000000E+04;  0.0000000E+00;  1.0000000E+04;-0.059649728;0.0;0.00065414514;16.368502
 -2.0000000E-02;  9.9999998E-03;  2.0000000E-02;429;0.0;0.0;0.0;1000.1003;  4.0000001E-01;83.158127;0;0.0;0.0;0.0;0;-0.058993522;  1.0000000E+04;  0.0000000E+00;  0.0000000E+00;  1.0000000E+04;  0.0000000E+00;  1.0000000E+04;-0.059674501;0.0;0.00068097911;16.824562
 -2.0000000E-02;  9.9999998E-03;  3.9999999E-02;430;0.0;0.0;0.0;1000.1003;  4.0000001E-01;83.059364;0;0.0;0.0;0.0;0;-0.058978621;  1.0000000E+04;  0.0000000E+00;  0.0000000E+00;  1.0000000E+04;  0.0000000E+00;  1.0000000E+04;-0.059738878;0.0;0.00076025707;18.173756
 -2.0000000E-02;  9.9999998E-03;  5.9999999E-02;431;0.0;0.0;0.0;1000.1002;  4.0000001E-01;83.059364;0;0.0;0.0;0.0;0;-0.058924593;  1.0000000E+04;  0.0000000E+00;  0.0000000E+00;  1.0000000E+04;  0.0000000E+00;  1.0000000E+04;-0.059812844;0.0;0.00088825141;20.35733
 -2.0000000E-02;  9.9999998E-03;  7.9999998E-02;432;0.0;0.0;0.0;1000.1;  4.0000001E-01;82.861839;0;0.0;0.0;0.0;0;-0.058785919;  1.0000000E+04;  0.0000000E+00;  0.0000000E+00;  1.0000000E+04;  0.0000000E+00;  1.0000000E+04;-0.059844263;0.0;0.0010583425;23.267956
 -2.0000000E-02;  9.9999998E-03;  1.0000000E-01;433;0.0;0.0;0.0;1000.0995;  4.0000001E-01;82.466789;0;0.0;0.0;0.0;0;-0.058496922;  1.0000000E+04;  0.0000000E+00;  0.0000000E+00;  1.0000000E+04;  0.0000000E+00;  1.0000000E+04;-0.059756938;0.0;0.001260016;26.729645
 -2.0000000E-02;  9.9999998E-03;  1.2000000E-01;434;0.0;0.0;0.0;1000.0985;  4.0000001E-01;81.577927;0;0.0;0.0;0.0;0;-0.057970963;  1.0000000E+04;  0.0000000E+00;  0.0000000E+00;  1.0000000E+04;  0.0000000E+00;  1.0000000E+04;-0.05944765;0.0;0.0014766874;30.459757
 -2.0000000E-02;  9.9999998E-03;  1.4000000E-01;435;0.0;0.0;0.0;1000.0971;  4.0000001E-01;80.491539;0;0.0;0.0;0.0;0;-0.057101846;  1.0000000E+04;  0.0000000E+00;  0.0000000E+00;  1.0000000E+04;  0.0000000E+00;  1.0000000E+04;-0.058784578;0.0;0.0016827324;34.019749
 -2.2000000E-01;  9.9999998E-03;  1.6000000E-01;27;0.0;0.0;0.0;1000.0;  4.0000001E-01;0.0;0;0.0;0.0;0.0;0;0.0;  1.0000000E+04;  0.0000000E+00;  0.0000000E+00;  1.0000000E+04;  0.0000000E+00;  1.0000000E+04;0.0;0.0;0.0;0.0
 -2.2000000E-01;  9.9999998E-03;  1.8000001E-01;28;0.0;0.0;0.0;1000.0;  4.0000001E-01;0.0;0;0.0;0.0;0.0;0;0.0;  1.0000000E+04;  0.0000000E+00;  0.0000000E+00;  1.0000000E+04;  0.0000000E+00;  1.0000000E+04;0.0;0.0;0.0;0.0
 -2.2000000E-01;  9.9999998E-03;  2.0000000E-01;29;0.0;0.0;0.0;1000.0;  4.0000001E-01;0.0;0;0.0;0.0;0.0;0;0.0;  1.0000000E+04;  0.0000000E+00;  0.0000000E+00;  1.0000000E+04;  0.0000000E+00;  1.0000000E+04;0.0;0.0;0.0;0.0
 -2.2000000E-01;  9.9999998E-03;  2.2000000E-01;30;0.0;0.0;0.0;1000.0;  4.0000001E-01;0.0;0;0.0;0.0;0.0;0;0.0;  1.0000000E+04;  0.0000000E+00;  0.0000000E+00;  1.0000000E+04;  0.0000000E+00;  1.0000000E+04;0.0;0.0;0.0;0.0
 -2.2000000E-01;  9.9999998E-03;  2.3999999E-01;31;0.0;0.0;0.0;1000.0;  4.0000001E-01;0.0;0;0.0;0.0;0.0;0;0.0;  1.0000000E+04;  0.0000000E+00;  0.0000000E+00;  1.0000000E+04;  0.0000000E+00;  1.0000000E+04;0.0;0.0;0.0;0.0
 -2.2000000E-01;  9.9999998E-03;  2.5999999E-01;32;0.0;0.0;0.0;1000.0;  4.0000001E-01;0.0;0;0.0;0.0;0.0;0;0.0;  1.0000000E+04;  0.0000000E+00;  0.0000000E+00;  1.0000000E+04;  0.0000000E+00;  1.0000000E+04;0.0;0.0;0.0;0.0
 -2.2000000E-01;  9.9999998E-03;  2.8000000E-01;33;0.0;0.0;0.0;1000.0;  4.0000001E-01;0.0;0;0.0;0.0;0.0;0;0.0;  1.0000000E+04;  0.0000000E+00;  0.0000000E+00;  1.0000000E+04;  0.0000000E+00;  1.0000000E+04;0.0;0.0;0.0;0.0
 -2.2000000E-01;  9.9999998E-03;  3.0000001E-01;34;0.0;0.0;0.0;1000.0;  4.0000001E-01;0.0;0;0.0;0.0;0.0;0;0.0;  1.0000000E+04;  0.0000000E+00;  0.0000000E+00;  1.0000000E+04;  0.0000000E+00;  1.0000000E+04;0.0;0.0;0.0;0.0
 -2.2000000E-01;  9.9999998E-03;  3.1999999E-01;35;0.0;0.0;0.0;1000.0;  4.0000001E-01;0.0;0;0.0;0.0;0.0;0;0.0;  1.0000000E+04;  0.0000000E+00;  0.0000000E+00;  1.0000000E+04;  0.0000000E+00;  1.0000000E+04;0.0;0.0;0.0;0.0
 -2.0000000E-01;  9.9999998E-03;  1.6000000E-01;67;0.0;0.0;0.0;1000.0;  4.0000001E-01;0.0;0;0.0;0.0;0.0;0;0.0;  1.0000000E+04;  0.0000000E+00;  0.0000000E+00;  1.0000000E+04;  0.0000000E+00;  1.0000000E+04;0.0;0.0;0.0;0.0
 -2.0000000E-01;  9.9999998E-03;  1.8000001E-01;68;0.0;0.0;0.0;1000.0;  4.0000001E-01;0.0;0;0.0;0.0;0.0;0;0.0;  1.0000000E+04;  0.0000000E+00;  0.0000000E+00;  1.0000000E+04;  0.0000000E+00;  1.0000000E+04;0.0;0.0;0.0;0.0
 -2.0000000E-01;  9.9999998E-03;  2.0000000E-01;69;0.0;0.0;0.0;1000.0;  4.0000001E-01;0.0;0;0.0;0.0;0.0;0;0.0;  1.0000000E+04;  0.0000000E+00;  0.0000000E+00;  1.0000000E+04;  0.0000000E+00;  1.0000000E+04;0.0;0.0;0.0;0.0
 -2.0000000E-01;  9.9999998E-03;  2.2000000E-01;70;0.0;0.0;0.0;1000.0;  4.0000001E-01;0.0;0;0.0;0.0;0.0;0;0.0;  1.0000000E+04;  0.0000000E+00;  0.0000000E+00;  1.0000000E+04;  0.0000000E+00;  1.0000000E+04;0.0;0.0;0.0;0.0
 -2.0000000E-01;  9.9999998E-03;  2.3999999E-01;71;0.0;0.0;0.0;1000.0;  4.0000001E-01;0.0;0;0.0;0.0;0.0;0;0.0;  1.0000000E+04;  0.0000000E+00;  0.0000000E+00;  1.0000000E+04;  0.0000000E+00;  1.0000000E+04;0.0;0.0;0.0;0.0
 -2.0000000E-01;  9.9999998E-03;  2.5999999E-01;72;0.0;0.0;0.0;1000.0;  4.0000001E-01;0.0;0;0.0;0.0;0.0;0;0.0;  1.0000000E+04;  0.0000000E+00;  0.0000000E+00;  1.0000000E+04;  0.0000000E+00;  1.0000000E+04;0.0;0.0;0.0;0.0
 -2.0000000E-01;  9.9999998E-03;  2.8000000E-01;73;0.0;0.0;0.0;1000.0;  4.0000001E-01;0.0;0;0.0;0.0;0.0;0;0.0;  1.0000000E+04;  0.0000000E+00;  0.0000000E+00;  1.0000000E+04;  0.0000000E+00;  1.0000000E+04;0.0;0.0;0.0;0.0
 -2.0000000E-01;  9.9999998E-03;  3.0000001E-01;74;0.0;0.0;0.0;1000.0;  4.0000001E-01;0.0;0;0.0;0.0;0.0;0;0.0;  1.0000000E+04;  0.0000000E+00;  0.0000000E+00;  1.0000000E+04;  0.0000000E+00;  1.0000000E+04;0.0;0.0;0.0;0.0
 -2.0000000E-01;  9.9999998E-03;  3.1999999E-01;75;0.0;0.0;0.0;1000.0;  4.0000001E-01;0.0;0;0.0;0.0;0.0;0;0.0;  1.0000000E+04;  0.0000000E+00;  0.0000000E+00;  1.0000000E+04;  0.0000000E+00;  1.0000000E+04;0.0;0.0;0.0;0.0
 -1.8000001E-01;  9.9999998E-03;  1.6000000E-01;108;0.0;0.0;0.0;1000.0;  4.0000001E-01;0.0;0;0.0;0.0;0.0;0;0.0;  1.0000000E+04;  0.0000000E+00;  0.0000000E+00;  1.0000000E+04;  0.0000000E+00;  1.0000000E+04;0.0;0.0;0.0;0.0
 -1.8000001E-01;  9.9999998E-03;  1.8000001E-01;109;0.0;0.0;0.0;1000.0;  4.0000001E-01;0.0;0;0.0;0.0;0.0;0;0.0;  1.0000000E+04;  0.0000000E+00;  0.0000000E+00;  1.0000000E+04;  0.0000000E+00;  1.0000000E+04;0.0;0.0;0.0;0.0
 -1.8000001E-01;  9.9999998E-03;  2.0000000E-01;110;0.0;0.0;0.0;1000.0;  4.0000001E-01;0.0;0;0.0;0.0;0.0;0;0.0;  1.0000000E+04;  0.0000000E+00;  0.0000000E+00;  1.0000000E+04;  0.0000000E+00;  1.0000000E+04;0.0;0.0;0.0;0.0
 -1.8000001E-01;  9.9999998E-03;  2.2000000E-01;111;0.0;0.0;0.0;1000.0;  4.0000001E-01;0.0;0;0.0;0.0;0.0;0;0.0;  1.0000000E+04;  0.0000000E+00;  0.0000000E+00;  1.0000000E+04;  0.0000000E+00;  1.0000000E+04;0.0;0.0;0.0;0.0
 -1.8000001E-01;  9.9999998E-03;  2.3999999E-01;112;0.0;0.0;0.0;1000.0;  4.0000001E-01;0.0;0;0.0;0.0;0.0;0;0.0;  1.0000000E+04;  0.0000000E+00;  0.0000000E+00;  1.0000000E+04;  0.0000000E+00;  1.0000000E+04;0.0;0.0;0.0;0.0
 -1.8000001E-01;  9.9999998E-03;  2.5999999E-01;113;0.0;0.0;0.0;1000.0;  4.0000001E-01;0.0;0;0.0;0.0;0.0;0;0.0;  1.0000000E+04;  0.0000000E+00;  0.0000000E+00;  1.0000000E+04;  0.0000000E+00;  1.0000000E+04;0.0;0.0;0.0;0.0
 -1.8000001E-01;  9.9999998E-03;  2.8000000E-01;114;0.0;0.0;0.0;1000.0;  4.0000001E-01;0.0;0;0.0;0.0;0.0;0;0.0;  1.0000000E+04;  0.0000000E+00;  0.0000000E+00;  1.0000000E+04;  0.0000000E+00;  1.0000000E+04;0.0;0.0;0.0;0.0
 -1.8000001E-01;  9.9999998E-03;  3.0000001E-01;115;0.0;0.0;0.0;1000.0;  4.0000001E-01;0.0;0;0.0;0.0;0.0;0;0.0;  1.0000000E+04;  0.0000000E+00;  0.0000000E+00;  1.0000000E+04;  0.0000000E+00;  1.0000000E+04;0.0;0.0;0.0;0.0
 -1.8000001E-01;  9.9999998E-03;  3.1999999E-01;116;0.0;0.0;0.0;1000.0;  4.0000001E-01;0.0;0;0.0;0.0;0.0;0;0.0;  1.0000000E+04;  0.0000000E+00;  0.0000000E+00;  1.0000000E+04;  0.0000000E+00;  1.0000000E+04;0.0;0.0;0.0;0.0
 -1.6000000E-01;  9.9999998E-03;  1.6000000E-01;149;0.0;0.0;0.0;1000.0;  4.0000001E-01;0.0;0;0.0;0.0;0.0;0;-8.1233675e-06;  1.0000000E+04;  0.0000000E+00;  0.0000000E+00;  1.0000000E+04;  0.0000000E+00;  1.0000000E+04;-8.1389899e-06;0.0;1.562211e-08;0.0012819526
 -1.6000000E-01;  9.9999998E-03;  1.8000001E-01;150;0.0;0.0;0.0;1000.0;  4.0000001E-01;0.0;0;0.0;0.0;0.0;0;-7.8798694e-06;  1.0000000E+04;  0.0000000E+00;  0.0000000E+00;  1.0000000E+04;  0.0000000E+00;  1.0000000E+04;-7.8974426e-06;0.0;1.7572946e-08;0.001284481
 -1.6000000E-01;  9.9999998E-03;  2.0000000E-01;151;0.0;0.0;0.0;1000.0;  4.0000001E-01;0.0;0;0.0;0.0;0.0;0;-7.5139055e-06;  1.0000000E+04;  0.0000000E+00;  0.0000000E+00;  1.0000000E+04;  0.0000000E+00;  1.0000000E+04;-7.5325806e-06;0.0;1.867507e-08;0.0012572724
 -1.6000000E-01;  9.9999998E-03;  2.2000000E-01;152;0.0;0.0;0.0;1000.0;  4.0000001E-01;0.0;0;0.0;0.0;0.0;0;-7.0003025e-06;  1.0000000E+04;  0.0000000E+00;  0.0000000E+00;  1.0000000E+04;  0.0000000E+00;  1.0000000E+04;-7.0185947e-06;0.0;1.8292159e-08;0.0011870512
 -1.6000000E-01;  9.9999998E-03;  2.3999999E-01;153;0.0;0.0;0.0;1000.0;  4.0000001E-01;0.0;0;0.0;0.0;0.0;0;-6.3220355e-06;  1.0000000E+04;  0.0000000E+00;  0.0000000E+00;  1.0000000E+04;  0.0000000E+00;  1.0000000E+04;-6.337516e-06;0.0;1.5480662e-08;0.0010584603
 -1.6000000E-01;  9.9999998E-03;  2.5999999E-01;154;0.0;0.0;0.0;1000.0;  4.0000001E-01;0.0;0;0.0;0.0;0.0;0;-5.336989e-06;  1.0000000E+04;  0.0000000E+00;  0.0000000E+00;  1.0000000E+04;  0.0000000E+00;  1.0000000E+04;-5.3304657e-06;0.0;-6.5232619e-09;0.00059810857
 -1.6000000E-01;  9.9999998E-03;  2.8000000E-01;155;0.0;0.0;0.0;1000.0;  4.0000001E-01;0.0;0;0.0;0.0;0.0;0;-3.5720209e-06;  1.0000000E+04;  0.0000000E+00;  0.0000000E+00;  1.0000000E+04;  0.0000000E+00;  1.0000000E+04;-3.5131307e-06;0.0;-5.8890212e-08;0.00046909813
 -1.6000000E-01;  9.9999998E-03;  3.0000001E-01;156;0.0;0.0;0.0;1000.0;  4.0000001E-01;0.0;0;0.0;0.0;0.0;0;-1.5113158e-06;  1.0000000E+04;  0.0000000E+00;  0.0000000E+00;  1.0000000E+04;  0.0000000E+00;  1.0000000E+04;-1.4461314e-06;0.0;-6.5184395e-08;0.00082621595
 -1.6000000E-01;  9.9999998E-03;  3.1999999E-01;157;0.0;0.0;0.0;1000.0;  4.0000001E-01;0.0;0;0.0;0.0;0.0;0;-2.378553e-07;  1.0000000E+04;  0.0000000E+00;  0.0000000E+00;  1.0000000E+04;  0.0000000E+00;  1.0000000E+04;-2.1855452e-07;0.0;-1.9300789e-08;0.00026536515
 -1.4000000E-01;  9.9999998E-03;  1.6000000E-01;190;0.0;0.0;0.0;1000.0004;  4.0000001E-01;0.3950505;0;0.0;0.0;0.0;0;-0.0002952714;  1.0000000E+04;  0.0000000E+00;  0.0000000E+00;  1.0000000E+04;  0.0000000E+00;  1.0000000E+04;-0.00029721059;0.0;1.9391987e-06;0.067851916
 -1.4000000E-01;  9.9999998E-03;  1.8000001E-01;191;0.0;0.0;0.0;1000.0004;  4.0000001E-01;0.3950505;0;0.0;0.0;0.0;0;-0.00028544996;  1.0000000E+04;  0.0000000E+00;  0.0000000E+00;  1.0000000E+04;  0.0000000E+00;  1.0000000E+04;-0.00028759413;0.0;2.144169e-06;0.070044436
 -1.4000000E-01;  9.9999998E-03;  2.0000000E-01;192;0.0;0.0;0.0;1000.0004;  4.0000001E-01;0.29628786;0;0.0;0.0;0.0;0;-0.00027126761;  1.0000000E+04;  0.0000000E+00;  0.0000000E+00;  1.0000000E+04;  0.0000000E+00;  1.0000000E+04;-0.00027349786;0.0;2.2302538e-06;0.069760755
 -1.4000000E-01;  9.9999998E-03;  2.2000000E-01;193;0.0;0.0;0.0;1000.0004;  4.0000001E-01;0.29628786;0;0.0;0.0;0.0;0;-0.00025153166;  1.0000000E+04;  0.0000000E+00;  0.0000000E+00;  1.0000000E+04;  0.0000000E+00;  1.0000000E+04;-0.0002534732;0.0;1.9415356e-06;0.062929086
 -1.4000000E-01;  9.9999998E-03;  2.3999999E-01;194;0.0;0.0;0.0;1000.0003;  4.0000001E-01;0.29628786;0;0.0;0.0;0.0;0;-0.00022241588;  1.0000000E+04;  0.0000000E+00;  0.0000000E+00;  1.0000000E+04;  0.0000000E+00;  1.0000000E+04;-0.00022286134;0.0;4.454659e-07;0.036379181
 -1.4000000E-01;  9.9999998E-03;  2.5999999E-01;195;0.0;0.0;0.0;1000.0002;  4.0000001E-01;0.19752525;0;0.0;0.0;0.0;0;-0.00018112257;  1.0000000E+04;  0.0000000E+00;  0.0000000E+00;  1.0000000E+04;  0.0000000E+00;  1.0000000E+04;-0.00017901199;0.0;-2.1105784e-06;0.0079960497
 -1.4000000E-01;  9.9999998E-03;  2.8000000E-01;196;0.0;0.0;0.0;1000.0001;  4.0000001E-01;0.098762624;0;0.0;0.0;0.0;0;-0.00013042591;  1.0000000E+04;  0.0000000E+00;  0.0000000E+00;  1.0000000E+04;  0.0000000E+00;  1.0000000E+04;-0.00012606883;0.0;-4.3570708e-06;0.04908631
 -1.4000000E-01;  9.9999998E-03;  3.0000001E-01;197;0.0;0.0;0.0;1000.0;  4.0000001E-01;0.0;0;0.0;0.0;0.0;0;-7.8912883e-05;  1.0000000E+04;  0.0000000E+00;  0.0000000E+00;  1.0000000E+04;  0.0000000E+00;  1.0000000E+04;-7.3871823e-05;0.0;-5.041059e-06;0.066932335
 -1.4000000E-01;  9.9999998E-03;  3.1999999E-01;198;0.0;0.0;0.0;1000.0;  4.0000001E-01;0.0;0;0.0;0.0;0.0;0;-3.7084017e-05;  1.0000000E+04;  0.0000000E+00;  0.0000000E+00;  1.0000000E+04;  0.0000000E+00;  1.0000000E+04;-3.3189925e-05;0.0;-3.8940921e-06;0.055121135
 -1.2000000E-01;  9.9999998E-03;  1.6000000E-01;231;0.0;0.0;0.0;1000.0026;  4.0000001E-01;2.1727777;0;0.0;0.0;0.0;0;-0.0016245279;  1.0000000E+04;  0.0000000E+00;  0.0000000E+00;  1.0000000E+04;  0.0000000E+00;  1.0000000E+04;-0.0016429323;0.0;1.8404478e-05;0.4938572
 -1.2000000E-01;  9.9999998E-03;  1.8000001E-01;232;0.0;0.0;0.0;1000.0026;  4.0000001E-01;2.1727777;0;0.0;0.0;0.0;0;-0.0015675341;  1.0000000E+04;  0.0000000E+00;  0.0000000E+00;  1.0000000E+04;  0.0000000E+00;  1.0000000E+04;-0.0015875697;0.0;2.0035652e-05;0.51431847
 -1.2000000E-01;  9.9999998E-03;  2.0000000E-01;233;0.0;0.0;0.0;1000.0024;  4.0000001E-01;1.9752525;0;0.0;0.0;0.0;0;-0.0014858727;  1.0000000E+04;  0.0000000E+00;  0.0000000E+00;  1.0000000E+04;  0.0000000E+00;  1.0000000E+04;-0.0015054174;0.0;1.9544777e-05;0.49835247
 -1.2000000E-01;  9.9999998E-03;  2.2000000E-01;234;0.0;0.0;0.0;1000.0022;  4.0000001E-01;1.7777272;0;0.0;0.0;0.0;0;-0.0013697013;  1.0000000E+04;  0.0000000E+00;  0.0000000E+00;  1.0000000E+04;  0.0000000E+00;  1.0000000E+04;-0.0013831521;0.0;1.345078e-05;0.39140591
 -1.2000000E-01;  9.9999998E-03;  2.3999999E-01;235;0.0;0.0;0.0;1000.002;  4.0000001E-01;1.580202;0;0.0;0.0;0.0;0;-0.0012093685;  1.0000000E+04;  0.0000000E+00;  0.0000000E+00;  1.0000000E+04;  0.0000000E+00;  1.0000000E+04;-0.00120989;0.0;5.2151574e-07;0.17328134
 -1.2000000E-01;  9.9999998E-03;  2.5999999E-01;236;0.0;0.0;0.0;1000.0015;  4.0000001E-01;1.2839141;0;0.0;0.0;0.0;0;-0.0010018003;  1.0000000E+04;  0.0000000E+00;  0.0000000E+00;  1.0000000E+04;  0.0000000E+00;  1.0000000E+04;-0.00098516978;0.0;-1.6630496e-05;0.11662838
 -1.2000000E-01;  9.9999998E-03;  2.8000000E-01;237;0.0;0.0;0.0;1000.0012;  4.0000001E-01;0.98762625;0;0.0;0.0;0.0;0;-0.00075913995;  1.0000000E+04;  0.0000000E+00;  0.0000000E+00;  1.0000000E+04;  0.0000000E+00;  1.0000000E+04;-0.00072739337;0.0;-3.1746564e-05;0.38085765
 -1.2000000E-01;  9.9999998E-03;  3.0000001E-01;238;0.0;0.0;0.0;1000.0008;  4.0000001E-01;0.69133836;0;0.0;0.0;0.0;0;-0.0005120103;  1.0000000E+04;  0.0000000E+00;  0.0000000E+00;  1.0000000E+04;  0.0000000E+00;  1.0000000E+04;-0.00047291626;0.0;-3.9094048e-05;0.52783149
 -1.2000000E-01;  9.9999998E-03;  3.1999999E-01;239;0.0;0.0;0.0;1000.0004;  4.0000001E-01;0.3950505;0;0.0;0.0;0.0;0;-0.00029746367;  1.0000000E+04;  0.0000000E+00;  0.0000000E+00;  1.0000000E+04;  0.0000000E+00;  1.0000000E+04;-0.00026095274;0.0;-3.6510944e-05;0.51937151
 -1.0000000E-01;  9.9999998E-03;  1.6000000E-01;272;0.0;0.0;0.0;1000.0085;  4.0000001E-01;7.110909;0;0.0;0.0;0.0;0;-0.0051534567;  1.0000000E+04;  0.0000000E+00;  0.0000000E+00;  1.0000000E+04;  0.0000000E+00;  1.0000000E+04;-0.0052358243;0.0;8.236758e-05;1.9439806
 -1.0000000E-01;  9.9999998E-03;  1.8000001E-01;273;0.0;0.0;0.0;1000.0082;  4.0000001E-01;6.814621;0;0.0;0.0;0.0;0;-0.0049665659;  1.0000000E+04;  0.0000000E+00;  0.0000000E+00;  1.0000000E+04;  0.0000000E+00;  1.0000000E+04;-0.0050539351;0.0;8.736943e-05;2.0095396
 -1.0000000E-01;  9.9999998E-03;  2.0000000E-01;274;0.0;0.0;0.0;1000.0079;  4.0000001E-01;6.6170959;0;0.0;0.0;0.0;0;-0.0047002197;  1.0000000E+04;  0.0000000E+00;  0.0000000E+00;  1.0000000E+04;  0.0000000E+00;  1.0000000E+04;-0.0047799814;0.0;7.9761536e-05;1.8684168
 -1.0000000E-01;  9.9999998E-03;  2.2000000E-01;275;0.0;0.0;0.0;1000.0072;  4.0000001E-01;5.9257574;0;0.0;0.0;0.0;0;-0.0043324279;  1.0000000E+04;  0.0000000E+00;  0.0000000E+00;  1.0000000E+04;  0.0000000E+00;  1.0000000E+04;-0.004384079;0.0;5.1651339e-05;1.3956493
 -1.0000000E-01;  9.9999998E-03;  2.3999999E-01;276;0.0;0.0;0.0;1000.0065;  4.0000001E-01;5.4319444;0;0.0;0.0;0.0;0;-0.0038439559;  1.0000000E+04;  0.0000000E+00;  0.0000000E+00;  1.0000000E+04;  0.0000000E+00;  1.0000000E+04;-0.0038446288;0.0;6.729046e-07;0.55131352
 -1.0000000E-01;  9.9999998E-03;  2.5999999E-01;277;0.0;0.0;0.0;1000.0054;  4.0000001E-01;4.5430808;0;0.0;0.0;0.0;0;-0.0032303201;  1.0000000E+04;  0.0000000E+00;  0.0000000E+00;  1.0000000E+04;  0.0000000E+00;  1.0000000E+04;-0.0031664779;0.0;-6.384217e-05;0.52255833
 -1.0000000E-01;  9.9999998E-03;  2.8000000E-01;278;0.0;0.0;0.0;1000.0042;  4.0000001E-01;3.4566917;0;0.0;0.0;0.0;0;-0.0025215663;  1.0000000E+04;  0.0000000E+00;  0.0000000E+00;  1.0000000E+04;  0.0000000E+00;  1.0000000E+04;-0.0023995864;0.0;-0.00012197988;1.5150048
 -1.0000000E-01;  9.9999998E-03;  3.0000001E-01;279;0.0;0.0;0.0;1000.0029;  4.0000001E-01;2.4690657;0;0.0;0.0;0.0;0;-0.0017938404;  1.0000000E+04;  0.0000000E+00;  0.0000000E+00;  1.0000000E+04;  0.0000000E+00;  1.0000000E+04;-0.001637966;0.0;-0.00015587446;2.1389701
 -1.0000000E-01;  9.9999998E-03;  3.1999999E-01;280;0.0;0.0;0.0;1000.0018;  4.0000001E-01;1.4814394;0;0.0;0.0;0.0;0;-0.0011432881;  1.0000000E+04;  0.0000000E+00;  0.0000000E+00;  1.0000000E+04;  0.0000000E+00;  1.0000000E+04;-0.00098530296;0.0;-0.00015798515;2.264293
 -7.9999998E-02;  9.9999998E-03;  1.6000000E-01;313;0.0;0.0;0.0;1000.0206;  4.0000001E-01;17.085934;0;0.0;0.0;0.0;0;-0.012211185;  1.0000000E+04;  0.0000000E+00;  0.0000000E+00;  1.0000000E+04;  0.0000000E+00;  1.0000000E+04;-0.012458485;0.0;0.00024729953;5.4392614
 -7.9999998E-02;  9.9999998E-03;  1.8000001E-01;314;0.0;0.0;0.0;1000.0197;  4.0000001E-01;16.295834;0;0.0;0.0;0.0;0;-0.011762382;  1.0000000E+04;  0.0000000E+00;  0.0000000E+00;  1.0000000E+04;  0.0000000E+00;  1.0000000E+04;-0.012017956;0.0;0.00025557465;5.5501513
 -7.9999998E-02;  9.9999998E-03;  2.0000000E-01;315;0.0;0.0;0.0;1000.0186;  4.0000001E-01;15.406969;0;0.0;0.0;0.0;0;-0.011132891;  1.0000000E+04;  0.0000000E+00;  0.0000000E+00;  1.0000000E+04;  0.0000000E+00;  1.0000000E+04;-0.011360622;0.0;0.00022773109;5.0723119
 -7.9999998E-02;  9.9999998E-03;  2.2000000E-01;316;0.0;0.0;0.0;1000.0172;  4.0000001E-01;14.221818;0;0.0;0.0;0.0;0;-0.010281553;  1.0000000E+04;  0.0000000E+00;  0.0000000E+00;  1.0000000E+04;  0.0000000E+00;  1.0000000E+04;-0.010426712;0.0;0.00014515937;3.7091699
 -7.9999998E-02;  9.9999998E-03;  2.3999999E-01;317;0.0;0.0;0.0;1000.0154;  4.0000001E-01;12.740378;0;0.0;0.0;0.0;0;-0.0091713835;  1.0000000E+04;  0.0000000E+00;  0.0000000E+00;  1.0000000E+04;  0.0000000E+00;  1.0000000E+04;-0.0091747986;0.0;3.4147076e-06;1.3831183
 -7.9999998E-02;  9.9999998E-03;  2.5999999E-01;318;0.0;0.0;0.0;1000.0132;  4.0000001E-01;10.962651;0;0.0;0.0;0.0;0;-0.0077917068;  1.0000000E+04;  0.0000000E+00;  0.0000000E+00;  1.0000000E+04;  0.0000000E+00;  1.0000000E+04;-0.0076187919;0.0;-0.00017291494;1.529507
 -7.9999998E-02;  9.9999998E-03;  2.8000000E-01;319;0.0;0.0;0.0;1000.0104;  4.0000001E-01;8.6911106;0;0.0;0.0;0.0;0;-0.0061992072;  1.0000000E+04;  0.0000000E+00;  0.0000000E+00;  1.0000000E+04;  0.0000000E+00;  1.0000000E+04;-0.0058647017;0.0;-0.00033450531;4.2554517
 -7.9999998E-02;  9.9999998E-03;  3.0000001E-01;320;0.0;0.0;0.0;1000.0077;  4.0000001E-01;6.4195704;0;0.0;0.0;0.0;0;-0.0045497916;  1.0000000E+04;  0.0000000E+00;  0.0000000E+00;  1.0000000E+04;  0.0000000E+00;  1.0000000E+04;-0.004112246;0.0;-0.00043754547;6.0890169
 -7.9999998E-02;  9.9999998E-03;  3.1999999E-01;321;0.0;0.0;0.0;1000.0051;  4.0000001E-01;4.2467928;0;0.0;0.0;0.0;0;-0.0030485711;  1.0000000E+04;  0.0000000E+00;  0.0000000E+00;  1.0000000E+04;  0.0000000E+00;  1.0000000E+04;-0.0025857356;0.0;-0.00046283533;6.6993604
 -5.9999999E-02;  9.9999998E-03;  1.6000000E-01;354;0.0;0.0;0.0;1000.0397;  4.0000001E-01;32.887955;0;0.0;0.0;0.0;0;-0.023596888;  1.0000000E+04;  0.0000000E+00;  0.0000000E+00;  1.0000000E+04;  0.0000000E+00;  1.0000000E+04;-0.024170035;0.0;0.00057314715;12.065974
 -5.9999999E-02;  9.9999998E-03;  1.8000001E-01;355;0.0;0.0;0.0;1000.0383;  4.0000001E-01;31.801565;0;0.0;0.0;0.0;0;-0.022735761;  1.0000000E+04;  0.0000000E+00;  0.0000000E+00;  1.0000000E+04;  0.0000000E+00;  1.0000000E+04;-0.023320496;0.0;0.00058473542;12.238244
 -5.9999999E-02;  9.9999998E-03;  2.0000000E-01;356;0.0;0.0;0.0;1000.0363;  4.0000001E-01;30.122601;0;0.0;0.0;0.0;0;-0.021543475;  1.0000000E+04;  0.0000000E+00;  0.0000000E+00;  1.0000000E+04;  0.0000000E+00;  1.0000000E+04;-0.022059554;0.0;0.00051607913;11.102735
 -5.9999999E-02;  9.9999998E-03;  2.2000000E-01;357;0.0;0.0;0.0;1000.0339;  4.0000001E-01;28.048586;0;0.0;0.0;0.0;0;-0.019951176;  1.0000000E+04;  0.0000000E+00;  0.0000000E+00;  1.0000000E+04;  0.0000000E+00;  1.0000000E+04;-0.020279981;0.0;0.0003288048;8.0427427
 -5.9999999E-02;  9.9999998E-03;  2.3999999E-01;358;0.0;0.0;0.0;1000.0303;  4.0000001E-01;25.085707;0;0.0;0.0;0.0;0;-0.017892489;  1.0000000E+04;  0.0000000E+00;  0.0000000E+00;  1.0000000E+04;  0.0000000E+00;  1.0000000E+04;-0.017907858;0.0;1.5368074e-05;2.9212911
 -5.9999999E-02;  9.9999998E-03;  2.5999999E-01;359;0.0;0.0;0.0;1000.026;  4.0000001E-01;21.530252;0;0.0;0.0;0.0;0;-0.015338813;  1.0000000E+04;  0.0000000E+00;  0.0000000E+00;  1.0000000E+04;  0.0000000E+00;  1.0000000E+04;-0.014965423;0.0;-0.00037338972;3.4790108
 -5.9999999E-02;  9.9999998E-03;  2.8000000E-01;360;0.0;0.0;0.0;1000.021;  4.0000001E-01;17.382221;0;0.0;0.0;0.0;0;-0.012373364;  1.0000000E+04;  0.0000000E+00;  0.0000000E+00;  1.0000000E+04;  0.0000000E+00;  1.0000000E+04;-0.011637606;0.0;-0.00073575799;9.5555162
 -5.9999999E-02;  9.9999998E-03;  3.0000001E-01;361;0.0;0.0;0.0;1000.0158;  4.0000001E-01;13.135429;0;0.0;0.0;0.0;0;-0.0092679299;  1.0000000E+04;  0.0000000E+00;  0.0000000E+00;  1.0000000E+04;  0.0000000E+00;  1.0000000E+04;-0.00828896;0.0;-0.00097896985;13.809735
 -5.9999999E-02;  9.9999998E-03;  3.1999999E-01;362;0.0;0.0;0.0;1000.0109;  4.0000001E-01;8.9873991;0;0.0;0.0;0.0;0;-0.0064042164;  1.0000000E+04;  0.0000000E+00;  0.0000000E+00;  1.0000000E+04;  0.0000000E+00;  1.0000000E+04;-0.0053428742;0.0;-0.0010613424;15.525205
 -3.9999999E-02;  9.9999998E-03;  1.6000000E-01;395;0.0;0.0;0.0;1000.0657;  4.0000001E-01;54.418205;0;0.0;0.0;0.0;0;-0.038821746;  1.0000000E+04;  0.0000000E+00;  0.0000000E+00;  1.0000000E+04;  0.0000000E+00;  1.0000000E+04;-0.039925549;0.0;0.0011038033;22.542637
 -3.9999999E-02;  9.9999998E-03;  1.8000001E-01;396;0.0;0.0;0.0;1000.0633;  4.0000001E-01;52.442955;0;0.0;0.0;0.0;0;-0.037438519;  1.0000000E+04;  0.0000000E+00;  0.0000000E+00;  1.0000000E+04;  0.0000000E+00;  1.0000000E+04;-0.038558062;0.0;0.0011195436;22.829462
 -3.9999999E-02;  9.9999998E-03;  2.0000000E-01;397;0.0;0.0;0.0;1000.0603;  4.0000001E-01;49.973888;0;0.0;0.0;0.0;0;-0.035540022;  1.0000000E+04;  0.0000000E+00;  0.0000000E+00;  1.0000000E+04;  0.0000000E+00;  1.0000000E+04;-0.036525548;0.0;0.00098552543;20.667538
 -3.9999999E-02;  9.9999998E-03;  2.2000000E-01;398;0.0;0.0;0.0;1000.056;  4.0000001E-01;46.418434;0;0.0;0.0;0.0;0;-0.033022698;  1.0000000E+04;  0.0000000E+00;  0.0000000E+00;  1.0000000E+04;  0.0000000E+00;  1.0000000E+04;-0.033656597;0.0;0.00063389976;14.953476
 -3.9999999E-02;  9.9999998E-03;  2.3999999E-01;399;0.0;0.0;0.0;1000.0505;  4.0000001E-01;41.875351;0;0.0;0.0;0.0;0;-0.029779481;  1.0000000E+04;  0.0000000E+00;  0.0000000E+00;  1.0000000E+04;  0.0000000E+00;  1.0000000E+04;-0.029830227;0.0;5.0745821e-05;5.4320555
 -3.9999999E-02;  9.9999998E-03;  2.5999999E-01;400;0.0;0.0;0.0;1000.0438;  4.0000001E-01;36.344646;0;0.0;0.0;0.0;0;-0.025746362;  1.0000000E+04;  0.0000000E+00;  0.0000000E+00;  1.0000000E+04;  0.0000000E+00;  1.0000000E+04;-0.025067829;0.0;-0.0006785345;6.5719786
 -3.9999999E-02;  9.9999998E-03;  2.8000000E-01;401;0.0;0.0;0.0;1000.0357;  4.0000001E-01;29.628788;0;0.0;0.0;0.0;0;-0.021012904;  1.0000000E+04;  0.0000000E+00;  0.0000000E+00;  1.0000000E+04;  0.0000000E+00;  1.0000000E+04;-0.019639106;0.0;-0.001373798;18.201042
 -3.9999999E-02;  9.9999998E-03;  3.0000001E-01;402;0.0;0.0;0.0;1000.0272;  4.0000001E-01;22.517878;0;0.0;0.0;0.0;0;-0.01597847;  1.0000000E+04;  0.0000000E+00;  0.0000000E+00;  1.0000000E+04;  0.0000000E+00;  1.0000000E+04;-0.014121835;0.0;-0.0018566352;26.568172
 -3.9999999E-02;  9.9999998E-03;  3.1999999E-01;403;0.0;0.0;0.0;1000.0192;  4.0000001E-01;15.900783;0;0.0;0.0;0.0;0;-0.01127206;  1.0000000E+04;  0.0000000E+00;  0.0000000E+00;  1.0000000E+04;  0.0000000E+00;  1.0000000E+04;-0.0092292605;0.0;-0.0020427988;30.233646
 -2.0000000E-02;  9.9999998E-03;  1.6000000E-01;436;0.0;0.0;0.0;1000.095;  4.0000001E-01;78.713814;0;0.0;0.0;0.0;0;-0.055772182;  1.0000000E+04;  0.0000000E+00;  0.0000000E+00;  1.0000000E+04;  0.0000000E+00;  1.0000000E+04;-0.05760581;0.0;0.0018336292;36.662186
 -2.0000000E-02;  9.9999998E-03;  1.8000001E-01;437;0.0;0.0;0.0;1000.092;  4.0000001E-01;76.244743;0;0.0;0.0;0.0;0;-0.05386325;  1.0000000E+04;  0.0000000E+00;  0.0000000E+00;  1.0000000E+04;  0.0000000E+00;  1.0000000E+04;-0.055718537;0.0;0.0018552883;37.164032
 -2.0000000E-02;  9.9999998E-03;  2.0000000E-01;438;0.0;0.0;0.0;1000.0876;  4.0000001E-01;72.59053;0;0.0;0.0;0.0;0;-0.051255256;  1.0000000E+04;  0.0000000E+00;  0.0000000E+00;  1.0000000E+04;  0.0000000E+00;  1.0000000E+04;-0.052891146;0.0;0.0016358903;33.695469
 -2.0000000E-02;  9.9999998E-03;  2.2000000E-01;439;0.0;0.0;0.0;1000.0818;  4.0000001E-01;67.849922;0;0.0;0.0;0.0;0;-0.047806844;  1.0000000E+04;  0.0000000E+00;  0.0000000E+00;  1.0000000E+04;  0.0000000E+00;  1.0000000E+04;-0.048876457;0.0;0.0010696137;24.508539
 -2.0000000E-02;  9.9999998E-03;  2.3999999E-01;440;0.0;0.0;0.0;1000.0742;  4.0000001E-01;61.529114;0;0.0;0.0;0.0;0;-0.043364417;  1.0000000E+04;  0.0000000E+00;  0.0000000E+00;  1.0000000E+04;  0.0000000E+00;  1.0000000E+04;-0.043494772;0.0;0.00013035543;9.1287336
 -2.0000000E-02;  9.9999998E-03;  2.5999999E-01;441;0.0;0.0;0.0;1000.0649;  4.0000001E-01;53.726868;0;0.0;0.0;0.0;0;-0.037818395;  1.0000000E+04;  0.0000000E+00;  0.0000000E+00;  1.0000000E+04;  0.0000000E+00;  1.0000000E+04;-0.03675583;0.0;-0.0010625628;10.570807
 -2.0000000E-02;  9.9999998E-03;  2.8000000E-01;442;0.0;0.0;0.0;1000.0536;  4.0000001E-01;44.44318;0;0.0;0.0;0.0;0;-0.031234186;  1.0000000E+04;  0.0000000E+00;  0.0000000E+00;  1.0000000E+04;  0.0000000E+00;  1.0000000E+04;-0.028997473;0.0;-0.0022367137;30.220936
 -2.0000000E-02;  9.9999998E-03;  3.0000001E-01;443;0.0;0.0;0.0;1000.0415;  4.0000001E-01;34.369392;0;0.0;0.0;0.0;0;-0.024081443;  1.0000000E+04;  0.0000000E+00;  0.0000000E+00;  1.0000000E+04;  0.0000000E+00;  1.0000000E+04;-0.021003315;0.0;-0.003078128;44.7342
 -2.0000000E-02;  9.9999998E-03;  3.1999999E-01;444;0.0;0.0;0.0;1000.0298;  4.0000001E-01;24.690657;0;0.0;0.0;0.0;0;-0.017269097;  1.0000000E+04;  0.0000000E+00;  0.0000000E+00;  1.0000000E+04;  0.0000000E+00;  1.0000000E+04;-0.013847263;0.0;-0.0034218344;51.321262
  0.0000000E+00;  9.9999998E-03;  3.0000001E-01;455;0.0;0.0;0.0;1000.0562;  4.0000001E-01;46.615959;0;0.0;0.0;0.0;0;-0.032378949;  1.0000000E+04;  0.0000000E+00;  0.0000000E+00;  1.0000000E+04;  0.0000000E+00;  1.0000000E+04;-0.027871091;0.0;-0.0045078569;66.639786
  0.0000000E+00;  9.9999998E-03;  3.1999999E-01;456;0.0;0.0;0.0;1000.0411;  4.0000001E-01;34.073105;0;0.0;0.0;0.0;0;-0.023611553;  1.0000000E+04;  0.0000000E+00;  0.0000000E+00;  1.0000000E+04;  0.0000000E+00;  1.0000000E+04;-0.018530538;0.0;-0.0050810156;77.397377
  2.0000000E-02;  9.9999998E-03;  3.1999999E-01;466;0.0;0.0;0.0;1000.052;  4.0000001E-01;43.060505;0;0.0;0.0;0.0;0;-0.029461715;  1.0000000E+04;  0.0000000E+00;  0.0000000E+00;  1.0000000E+04;  0.0000000E+00;  1.0000000E+04;-0.022704374;0.0;-0.0067573404;104.8762
  3.9999999E-02;  9.9999998E-03;  3.1999999E-01;476;0.0;0.0;0.0;1000.0621;  4.0000001E-01;51.455326;0;0.0;0.0;0.0;0;-0.034515373;  1.0000000E+04;  0.0000000E+00;  0.0000000E+00;  1.0000000E+04;  0.0000000E+00;  1.0000000E+04;-0.026373774;0.0;-0.0081415977;129.32338
  5.9999999E-02;  9.9999998E-03;  3.1999999E-01;486;0.0;0.0;0.0;1000.0721;  4.0000001E-01;59.751389;0;0.0;0.0;0.0;0;-0.039161537;  1.0000000E+04;  0.0000000E+00;  0.0000000E+00;  1.0000000E+04;  0.0000000E+00;  1.0000000E+04;-0.030055264;0.0;-0.0091062738;148.86278
  7.9999998E-02;  9.9999998E-03;  3.1999999E-01;496;0.0;0.0;0.0;1000.0836;  4.0000001E-01;69.232597;0;0.0;0.0;0.0;0;-0.04425256;  1.0000000E+04;  0.0000000E+00;  0.0000000E+00;  1.0000000E+04;  0.0000000E+00;  1.0000000E+04;-0.034546278;0.0;-0.0097062802;164.7366
  1.0000000E-01;  9.9999998E-03;  3.1999999E-01;506;0.0;0.0;0.0;1000.0995;  4.0000001E-01;82.466789;0;0.0;0.0;0.0;0;-0.051096208;  1.0000000E+04;  0.0000000E+00;  0.0000000E+00;  1.0000000E+04;  0.0000000E+00;  1.0000000E+04;-0.040953677;0.0;-0.01014253;198.17024
  1.2000000E-01;  9.9999998E-03;  3.1999999E-01;516;0.0;0.0;0.0;1000.1226;  4.0000001E-01;101.52798;0;0.0;0.0;0.0;0;-0.061289892;  1.0000000E+04;  0.0000000E+00;  0.0000000E+00;  1.0000000E+04;  0.0000000E+00;  1.0000000E+04;-0.050527573;0.0;-0.010762321;386.21375
  1.4000000E-01;  9.9999998E-03;  3.1999999E-01;526;0.0;0.0;0.0;1000.1574;  4.0000001E-01;130.36667;0;0.0;0.0;0.0;0;-0.076604798;  1.0000000E+04;  0.0000000E+00;  0.0000000E+00;  1.0000000E+04;  0.0000000E+00;  1.0000000E+04;-0.064510368;0.0;-0.012094427;981.36731
  1.6000000E-01;  9.9999998E-03;  3.1999999E-01;536;0.0;0.0;0.0;1000.2076;  4.0000001E-01;171.94572;0;0.0;0.0;0.0;0;-0.098493375;  1.0000000E+04;  0.0000000E+00;  0.0000000E+00;  1.0000000E+04;  0.0000000E+00;  1.0000000E+04;-0.083547674;0.0;-0.014945704;2265.8645
  1.8000001E-01;  9.9999998E-03;  3.1999999E-01;546;0.0;0.0;0.0;1000.2742;  4.0000001E-01;227.15404;0;0.0;0.0;0.0;0;-0.12688938;  1.0000000E+04;  0.0000000E+00;  0.0000000E+00;  1.0000000E+04;  0.0000000E+00;  1.0000000E+04;-0.10631058;0.0;-0.020578802;4435.7417
  2.0000000E-01;  9.9999998E-03;  3.1999999E-01;555;0.0;0.0;0.0;1000.3542;  4.0000001E-01;293.42377;0;0.0;0.0;0.0;0;-0.15982716;  1.0000000E+04;  0.0000000E+00;  0.0000000E+00;  1.0000000E+04;  0.0000000E+00;  1.0000000E+04;-0.12902921;0.0;-0.03079794;7140.4355
 -2.2000000E-01;  9.9999998E-03;  3.4000000E-01;36;0.0;0.0;0.0;1000.0;  4.0000001E-01;0.0;0;0.0;0.0;0.0;0;0.0;  1.0000000E+04;  0.0000000E+00;  0.0000000E+00;  1.0000000E+04;  0.0000000E+00;  1.0000000E+04;0.0;0.0;0.0;0.0
 -2.2000000E-01;  9.9999998E-03;  3.6000001E-01;37;0.0;0.0;0.0;1000.0;  4.0000001E-01;0.0;0;0.0;0.0;0.0;0;0.0;  1.0000000E+04;  0.0000000E+00;  0.0000000E+00;  1.0000000E+04;  0.0000000E+00;  1.0000000E+04;0.0;0.0;0.0;0.0
 -2.2000000E-01;  9.9999998E-03;  3.8000000E-01;38;0.0;0.0;0.0;1000.0;  4.0000001E-01;0.0;0;0.0;0.0;0.0;0;0.0;  1.0000000E+04;  0.0000000E+00;  0.0000000E+00;  1.0000000E+04;  0.0000000E+00;  1.0000000E+04;0.0;0.0;0.0;0.0
 -2.0000000E-01;  9.9999998E-03;  3.4000000E-01;76;0.0;0.0;0.0;1000.0;  4.0000001E-01;0.0;0;0.0;0.0;0.0;0;0.0;  1.0000000E+04;  0.0000000E+00;  0.0000000E+00;  1.0000000E+04;  0.0000000E+00;  1.0000000E+04;0.0;0.0;0.0;0.0
 -2.0000000E-01;  9.9999998E-03;  3.6000001E-01;77;0.0;0.0;0.0;1000.0;  4.0000001E-01;0.0;0;0.0;0.0;0.0;0;0.0;  1.0000000E+04;  0.0000000E+00;  0.0000000E+00;  1.0000000E+04;  0.0000000E+00;  1.0000000E+04;0.0;0.0;0.0;0.0
 -2.0000000E-01;  9.9999998E-03;  3.8000000E-01;78;0.0;0.0;0.0;1000.0;  4.0000001E-01;0.0;0;0.0;0.0;0.0;0;0.0;  1.0000000E+04;  0.0000000E+00;  0.0000000E+00;  1.0000000E+04;  0.0000000E+00;  1.0000000E+04;0.0;0.0;0.0;0.0
 -2.0000000E-01;  9.9999998E-03;  4.0000001E-01;79;0.0;0.0;0.0;1000.0;  4.0000001E-01;0.0;0;0.0;0.0;0.0;0;0.0;  1.0000000E+04;  0.0000000E+00;  0.0000000E+00;  1.0000000E+04;  0.0000000E+00;  1.0000000E+04;0.0;0.0;0.0;0.0
 -1.8000001E-01;  9.9999998E-03;  3.4000000E-01;117;0.0;0.0;0.0;1000.0;  4.0000001E-01;0.0;0;0.0;0.0;0.0;0;0.0;  1.0000000E+04;  0.0000000E+00;  0.0000000E+00;  1.0000000E+04;  0.0000000E+00;  1.0000000E+04;0.0;0.0;0.0;0.0
 -1.8000001E-01;  9.9999998E-03;  3.6000001E-01;118;0.0;0.0;0.0;1000.0;  4.0000001E-01;0.0;0;0.0;0.0;0.0;0;0.0;  1.0000000E+04;  0.0000000E+00;  0.0000000E+00;  1.0000000E+04;  0.0000000E+00;  1.0000000E+04;0.0;0.0;0.0;0.0
 -1.8000001E-01;  9.9999998E-03;  3.8000000E-01;119;0.0;0.0;0.0;1000.0;  4.0000001E-01;0.0;0;0.0;0.0;0.0;0;0.0;  1.0000000E+04;  0.0000000E+00;  0.0000000E+00;  1.0000000E+04;  0.0000000E+00;  1.0000000E+04;0.0;0.0;0.0;0.0
 -1.8000001E-01;  9.9999998E-03;  4.0000001E-01;120;0.0;0.0;0.0;1000.0;  4.0000001E-01;0.0;0;0.0;0.0;0.0;0;0.0;  1.0000000E+04;  0.0000000E+00;  0.0000000E+00;  1.0000000E+04;  0.0000000E+00;  1.0000000E+04;0.0;0.0;0.0;0.0
 -1.6000000E-01;  9.9999998E-03;  3.4000000E-01;158;0.0;0.0;0.0;1000.0;  4.0000001E-01;0.0;0;0.0;0.0;0.0;0;0.0;  1.0000000E+04;  0.0000000E+00;  0.0000000E+00;  1.0000000E+04;  0.0000000E+00;  1.0000000E+04;0.0;0.0;0.0;0.0
 -1.6000000E-01;  9.9999998E-03;  3.6000001E-01;159;0.0;0.0;0.0;1000.0;  4.0000001E-01;0.0;0;0.0;0.0;0.0;0;0.0;  1.0000000E+04;  0.0000000E+00;  0.0000000E+00;  1.0000000E+04;  0.0000000E+00;  1.0000000E+04;0.0;0.0;0.0;0.0
 -1.6000000E-01;  9.9999998E-03;  3.8000000E-01;160;0.0;0.0;0.0;1000.0;  4.0000001E-01;0.0;0;0.0;0.0;0.0;0;0.0;  1.0000000E+04;  0.0000000E+00;  0.0000000E+00;  1.0000000E+04;  0.0000000E+00;  1.0000000E+04;0.0;0.0;0.0;0.0
 -1.6000000E-01;  9.9999998E-03;  4.0000001E-01;161;0.0;0.0;0.0;1000.0;  4.0000001E-01;0.0;0;0.0;0.0;0.0;0;0.0;  1.0000000E+04;  0.0000000E+00;  0.0000000E+00;  1.0000000E+04;  0.0000000E+00;  1.0000000E+04;0.0;0.0;0.0;0.0
 -1.4000000E-01;  9.9999998E-03;  3.4000000E-01;199;0.0;0.0;0.0;1000.0;  4.0000001E-01;0.0;0;0.0;0.0;0.0;0;-1.1431497e-05;  1.0000000E+04;  0.0000000E+00;  0.0000000E+00;  1.0000000E+04;  0.0000000E+00;  1.0000000E+04;-9.6313797e-06;0.0;-1.8001177e-06;0.026003085
 -1.4000000E-01;  9.9999998E-03;  3.6000001E-01;200;0.0;0.0;0.0;1000.0;  4.0000001E-01;0.0;0;0.0;0.0;0.0;0;-1.3300645e-06;  1.0000000E+04;  0.0000000E+00;  0.0000000E+00;  1.0000000E+04;  0.0000000E+00;  1.0000000E+04;-1.0455643e-06;0.0;-2.8450015e-07;0.0041717282
 -1.4000000E-01;  9.9999998E-03;  3.8000000E-01;201;0.0;0.0;0.0;1000.0;  4.0000001E-01;0.0;0;0.0;0.0;0.0;0;0.0;  1.0000000E+04;  0.0000000E+00;  0.0000000E+00;  1.0000000E+04;  0.0000000E+00;  1.0000000E+04;0.0;0.0;0.0;0.0
 -1.4000000E-01;  9.9999998E-03;  4.0000001E-01;202;0.0;0.0;0.0;1000.0;  4.0000001E-01;0.0;0;0.0;0.0;0.0;0;0.0;  1.0000000E+04;  0.0000000E+00;  0.0000000E+00;  1.0000000E+04;  0.0000000E+00;  1.0000000E+04;0.0;0.0;0.0;0.0
 -1.2000000E-01;  9.9999998E-03;  3.4000000E-01;240;0.0;0.0;0.0;1000.0001;  4.0000001E-01;0.098762624;0;0.0;0.0;0.0;0;-0.00014064077;  1.0000000E+04;  0.0000000E+00;  0.0000000E+00;  1.0000000E+04;  0.0000000E+00;  1.0000000E+04;-0.0001149919;0.0;-2.5648878e-05;0.37449631
 -1.2000000E-01;  9.9999998E-03;  3.6000001E-01;241;0.0;0.0;0.0;1000.0;  4.0000001E-01;0.0;0;0.0;0.0;0.0;0;-4.7039226e-05;  1.0000000E+04;  0.0000000E+00;  0.0000000E+00;  1.0000000E+04;  0.0000000E+00;  1.0000000E+04;-3.5360663e-05;0.0;-1.1678565e-05;0.17217284
 -1.2000000E-01;  9.9999998E-03;  3.8000000E-01;242;0.0;0.0;0.0;1000.0;  4.0000001E-01;0.0;0;0.0;0.0;0.0;0;-6.9801117e-06;  1.0000000E+04;  0.0000000E+00;  0.0000000E+00;  1.0000000E+04;  0.0000000E+00;  1.0000000E+04;-4.909371e-06;0.0;-2.0707407e-06;0.030701419
 -1.2000000E-01;  9.9999998E-03;  4.0000001E-01;243;0.0;0.0;0.0;1000.0;  4.0000001E-01;0.0;0;0.0;0.0;0.0;0;-7.4052524e-17;  1.0000000E+04;  0.0000000E+00;  0.0000000E+00;  1.0000000E+04;  0.0000000E+00;  1.0000000E+04;-5.1875368e-17;0.0;-2.2177156e-17;7.9495255e-14
 -1.0000000E-01;  9.9999998E-03;  3.4000000E-01;281;0.0;0.0;0.0;1000.001;  4.0000001E-01;0.88886362;0;0.0;0.0;0.0;0;-0.00063673174;  1.0000000E+04;  0.0000000E+00;  0.0000000E+00;  1.0000000E+04;  0.0000000E+00;  1.0000000E+04;-0.00050690543;0.0;-0.00012982631;1.9042672
 -1.0000000E-01;  9.9999998E-03;  3.6000001E-01;282;0.0;0.0;0.0;1000.0004;  4.0000001E-01;0.3950505;0;0.0;0.0;0.0;0;-0.00029134861;  1.0000000E+04;  0.0000000E+00;  0.0000000E+00;  1.0000000E+04;  0.0000000E+00;  1.0000000E+04;-0.00021067374;0.0;-8.0674879e-05;1.1975287
 -1.0000000E-01;  9.9999998E-03;  3.8000000E-01;283;0.0;0.0;0.0;1000.0;  4.0000001E-01;0.0;0;0.0;0.0;0.0;0;-9.2574483e-05;  1.0000000E+04;  0.0000000E+00;  0.0000000E+00;  1.0000000E+04;  0.0000000E+00;  1.0000000E+04;-6.1693077e-05;0.0;-3.0881405e-05;0.4604561
 -1.0000000E-01;  9.9999998E-03;  4.0000001E-01;284;0.0;0.0;0.0;1000.0;  4.0000001E-01;0.0;0;0.0;0.0;0.0;0;-1.271864e-05;  1.0000000E+04;  0.0000000E+00;  0.0000000E+00;  1.0000000E+04;  0.0000000E+00;  1.0000000E+04;-8.3644645e-06;0.0;-4.3541759e-06;0.064991154
 -7.9999998E-02;  9.9999998E-03;  3.4000000E-01;322;0.0;0.0;0.0;1000.0031;  4.0000001E-01;2.5678282;0;0.0;0.0;0.0;0;-0.0018435963;  1.0000000E+04;  0.0000000E+00;  0.0000000E+00;  1.0000000E+04;  0.0000000E+00;  1.0000000E+04;-0.0014331751;0.0;-0.00041042129;6.0647006
 -7.9999998E-02;  9.9999998E-03;  3.6000001E-01;323;0.0;0.0;0.0;1000.0015;  4.0000001E-01;1.2839141;0;0.0;0.0;0.0;0;-0.00097235304;  1.0000000E+04;  0.0000000E+00;  0.0000000E+00;  1.0000000E+04;  0.0000000E+00;  1.0000000E+04;-0.00067965215;0.0;-0.00029270086;4.3725591
 -7.9999998E-02;  9.9999998E-03;  3.8000000E-01;324;0.0;0.0;0.0;1000.0007;  4.0000001E-01;0.59257573;0;0.0;0.0;0.0;0;-0.00040490349;  1.0000000E+04;  0.0000000E+00;  0.0000000E+00;  1.0000000E+04;  0.0000000E+00;  1.0000000E+04;-0.00025802618;0.0;-0.0001468773;2.2041383
 -7.9999998E-02;  9.9999998E-03;  4.0000001E-01;325;0.0;0.0;0.0;1000.0;  4.0000001E-01;0.0;0;0.0;0.0;0.0;0;-0.00010668344;  1.0000000E+04;  0.0000000E+00;  0.0000000E+00;  1.0000000E+04;  0.0000000E+00;  1.0000000E+04;-6.6291585e-05;0.0;-4.0391849e-05;0.60621995
 -5.9999999E-02;  9.9999998E-03;  3.4000000E-01;363;0.0;0.0;0.0;1000.007;  4.0000001E-01;5.7282324;0;0.0;0.0;0.0;0;-0.0040642554;  1.0000000E+04;  0.0000000E+00;  0.0000000E+00;  1.0000000E+04;  0.0000000E+00;  1.0000000E+04;-0.0030836628;0.0;-0.00098059245;14.620016
 -5.9999999E-02;  9.9999998E-03;  3.6000001E-01;364;0.0;0.0;0.0;1000.004;  4.0000001E-01;3.2591665;0;0.0;0.0;0.0;0;-0.0023178363;  1.0000000E+04;  0.0000000E+00;  0.0000000E+00;  1.0000000E+04;  0.0000000E+00;  1.0000000E+04;-0.0015662992;0.0;-0.0007515371;11.316796
 -5.9999999E-02;  9.9999998E-03;  3.8000000E-01;365;0.0;0.0;0.0;1000.0018;  4.0000001E-01;1.4814394;0;0.0;0.0;0.0;0;-0.0011037885;  1.0000000E+04;  0.0000000E+00;  0.0000000E+00;  1.0000000E+04;  0.0000000E+00;  1.0000000E+04;-0.00067346235;0.0;-0.00043032615;6.5054593
 -5.9999999E-02;  9.9999998E-03;  4.0000001E-01;366;0.0;0.0;0.0;1000.0005;  4.0000001E-01;0.49381313;0;0.0;0.0;0.0;0;-0.00037817279;  1.0000000E+04;  0.0000000E+00;  0.0000000E+00;  1.0000000E+04;  0.0000000E+00;  1.0000000E+04;-0.00022321827;0.0;-0.00015495453;2.3415294
 -3.9999999E-02;  9.9999998E-03;  3.4000000E-01;404;0.0;0.0;0.0;1000.0126;  4.0000001E-01;10.468838;0;0.0;0.0;0.0;0;-0.0073774927;  1.0000000E+04;  0.0000000E+00;  0.0000000E+00;  1.0000000E+04;  0.0000000E+00;  1.0000000E+04;-0.0054473332;0.0;-0.0019301596;29.075605
 -3.9999999E-02;  9.9999998E-03;  3.6000001E-01;405;0.0;0.0;0.0;1000.0076;  4.0000001E-01;6.2220454;0;0.0;0.0;0.0;0;-0.0044127489;  1.0000000E+04;  0.0000000E+00;  0.0000000E+00;  1.0000000E+04;  0.0000000E+00;  1.0000000E+04;-0.0028735497;0.0;-0.0015391994;23.398252
 -3.9999999E-02;  9.9999998E-03;  3.8000000E-01;406;0.0;0.0;0.0;1000.0038;  4.0000001E-01;3.160404;0;0.0;0.0;0.0;0;-0.002267696;  1.0000000E+04;  0.0000000E+00;  0.0000000E+00;  1.0000000E+04;  0.0000000E+00;  1.0000000E+04;-0.0013203454;0.0;-0.00094735064;14.449551
 -3.9999999E-02;  9.9999998E-03;  4.0000001E-01;407;0.0;0.0;0.0;1000.0015;  4.0000001E-01;1.1851515;0;0.0;0.0;0.0;0;-0.00088786078;  1.0000000E+04;  0.0000000E+00;  0.0000000E+00;  1.0000000E+04;  0.0000000E+00;  1.0000000E+04;-0.00049624447;0.0;-0.00039161634;5.9674702
 -2.0000000E-02;  9.9999998E-03;  3.4000000E-01;445;0.0;0.0;0.0;1000.0199;  4.0000001E-01;16.493359;0;0.0;0.0;0.0;0;-0.011548989;  1.0000000E+04;  0.0000000E+00;  0.0000000E+00;  1.0000000E+04;  0.0000000E+00;  1.0000000E+04;-0.0082763024;0.0;-0.0032726859;49.900616
 -2.0000000E-02;  9.9999998E-03;  3.6000001E-01;446;0.0;0.0;0.0;1000.0122;  4.0000001E-01;10.073788;0;0.0;0.0;0.0;0;-0.007123922;  1.0000000E+04;  0.0000000E+00;  0.0000000E+00;  1.0000000E+04;  0.0000000E+00;  1.0000000E+04;-0.004456474;0.0;-0.0026674483;41.016048
 -2.0000000E-02;  9.9999998E-03;  3.8000000E-01;447;0.0;0.0;0.0;1000.0067;  4.0000001E-01;5.5307069;0;0.0;0.0;0.0;0;-0.003832615;  1.0000000E+04;  0.0000000E+00;  0.0000000E+00;  1.0000000E+04;  0.0000000E+00;  1.0000000E+04;-0.0021215801;0.0;-0.0017110349;26.384937
 -2.0000000E-02;  9.9999998E-03;  4.0000001E-01;448;0.0;0.0;0.0;1000.0026;  4.0000001E-01;2.1727777;0;0.0;0.0;0.0;0;-0.0016152972;  1.0000000E+04;  0.0000000E+00;  0.0000000E+00;  1.0000000E+04;  0.0000000E+00;  1.0000000E+04;-0.00085070689;0.0;-0.00076459028;11.773269
  0.0000000E+00;  9.9999998E-03;  3.4000000E-01;457;0.0;0.0;0.0;1000.028;  4.0000001E-01;23.209217;0;0.0;0.0;0.0;0;-0.016061354;  1.0000000E+04;  0.0000000E+00;  0.0000000E+00;  1.0000000E+04;  0.0000000E+00;  1.0000000E+04;-0.01116415;0.0;-0.0048972033;75.77005
  0.0000000E+00;  9.9999998E-03;  3.6000001E-01;458;0.0;0.0;0.0;1000.0176;  4.0000001E-01;14.616868;0;0.0;0.0;0.0;0;-0.010120123;  1.0000000E+04;  0.0000000E+00;  0.0000000E+00;  1.0000000E+04;  0.0000000E+00;  1.0000000E+04;-0.0060789813;0.0;-0.0040411414;63.020798
  0.0000000E+00;  9.9999998E-03;  3.8000000E-01;459;0.0;0.0;0.0;1000.0096;  4.0000001E-01;7.90101;0;0.0;0.0;0.0;0;-0.0056018066;  1.0000000E+04;  0.0000000E+00;  0.0000000E+00;  1.0000000E+04;  0.0000000E+00;  1.0000000E+04;-0.0029457011;0.0;-0.0026561057;41.52298
  0.0000000E+00;  9.9999998E-03;  4.0000001E-01;460;0.0;0.0;0.0;1000.0042;  4.0000001E-01;3.4566917;0;0.0;0.0;0.0;0;-0.0024600425;  1.0000000E+04;  0.0000000E+00;  0.0000000E+00;  1.0000000E+04;  0.0000000E+00;  1.0000000E+04;-0.0012177164;0.0;-0.001242326;19.384329
  2.0000000E-02;  9.9999998E-03;  3.4000000E-01;467;0.0;0.0;0.0;1000.0358;  4.0000001E-01;29.727551;0;0.0;0.0;0.0;0;-0.020336114;  1.0000000E+04;  0.0000000E+00;  0.0000000E+00;  1.0000000E+04;  0.0000000E+00;  1.0000000E+04;-0.013771828;0.0;-0.0065642865;103.41821
  2.0000000E-02;  9.9999998E-03;  3.6000001E-01;468;0.0;0.0;0.0;1000.0229;  4.0000001E-01;19.061186;0;0.0;0.0;0.0;0;-0.013014616;  1.0000000E+04;  0.0000000E+00;  0.0000000E+00;  1.0000000E+04;  0.0000000E+00;  1.0000000E+04;-0.0075473175;0.0;-0.0054672984;86.784355
  2.0000000E-02;  9.9999998E-03;  3.8000000E-01;469;0.0;0.0;0.0;1000.0129;  4.0000001E-01;10.765126;0;0.0;0.0;0.0;0;-0.0073337727;  1.0000000E+04;  0.0000000E+00;  0.0000000E+00;  1.0000000E+04;  0.0000000E+00;  1.0000000E+04;-0.0036834746;0.0;-0.0036502981;58.063728
  2.0000000E-02;  9.9999998E-03;  4.0000001E-01;470;0.0;0.0;0.0;1000.0057;  4.0000001E-01;4.7406058;0;0.0;0.0;0.0;0;-0.0032914691;  1.0000000E+04;  0.0000000E+00;  0.0000000E+00;  1.0000000E+04;  0.0000000E+00;  1.0000000E+04;-0.0015372694;0.0;-0.0017541996;27.838287
  3.9999999E-02;  9.9999998E-03;  3.4000000E-01;477;0.0;0.0;0.0;1000.0434;  4.0000001E-01;35.949596;0;0.0;0.0;0.0;0;-0.024081297;  1.0000000E+04;  0.0000000E+00;  0.0000000E+00;  1.0000000E+04;  0.0000000E+00;  1.0000000E+04;-0.016077328;0.0;-0.0080039687;129.00949
  3.9999999E-02;  9.9999998E-03;  3.6000001E-01;478;0.0;0.0;0.0;1000.0281;  4.0000001E-01;23.30798;0;0.0;0.0;0.0;0;-0.015573338;  1.0000000E+04;  0.0000000E+00;  0.0000000E+00;  1.0000000E+04;  0.0000000E+00;  1.0000000E+04;-0.0088390093;0.0;-0.0067343288;109.31995
  3.9999999E-02;  9.9999998E-03;  3.8000000E-01;479;0.0;0.0;0.0;1000.0159;  4.0000001E-01;13.135429;0;0.0;0.0;0.0;0;-0.0088670105;  1.0000000E+04;  0.0000000E+00;  0.0000000E+00;  1.0000000E+04;  0.0000000E+00;  1.0000000E+04;-0.0043174266;0.0;-0.0045495839;73.978737
  3.9999999E-02;  9.9999998E-03;  4.0000001E-01;480;0.0;0.0;0.0;1000.0071;  4.0000001E-01;5.9257574;0;0.0;0.0;0.0;0;-0.0040186844;  1.0000000E+04;  0.0000000E+00;  0.0000000E+00;  1.0000000E+04;  0.0000000E+00;  1.0000000E+04;-0.0017968699;0.0;-0.0022218144;36.028385
  5.9999999E-02;  9.9999998E-03;  3.4000000E-01;487;0.0;0.0;0.0;1000.0505;  4.0000001E-01;41.875351;0;0.0;0.0;0.0;0;-0.027455552;  1.0000000E+04;  0.0000000E+00;  0.0000000E+00;  1.0000000E+04;  0.0000000E+00;  1.0000000E+04;-0.01838297;0.0;-0.0090725813;150.47427
  5.9999999E-02;  9.9999998E-03;  3.6000001E-01;488;0.0;0.0;0.0;1000.0328;  4.0000001E-01;27.159721;0;0.0;0.0;0.0;0;-0.017844044;  1.0000000E+04;  0.0000000E+00;  0.0000000E+00;  1.0000000E+04;  0.0000000E+00;  1.0000000E+04;-0.010126999;0.0;-0.007717046;128.84892
  5.9999999E-02;  9.9999998E-03;  3.8000000E-01;489;0.0;0.0;0.0;1000.0187;  4.0000001E-01;15.505732;0;0.0;0.0;0.0;0;-0.010206926;  1.0000000E+04;  0.0000000E+00;  0.0000000E+00;  1.0000000E+04;  0.0000000E+00;  1.0000000E+04;-0.0049419957;0.0;-0.00526493;88.002426
  5.9999999E-02;  9.9999998E-03;  4.0000001E-01;490;0.0;0.0;0.0;1000.0085;  4.0000001E-01;7.110909;0;0.0;0.0;0.0;0;-0.0046398444;  1.0000000E+04;  0.0000000E+00;  0.0000000E+00;  1.0000000E+04;  0.0000000E+00;  1.0000000E+04;-0.0020434046;0.0;-0.0025964396;43.254036
  7.9999998E-02;  9.9999998E-03;  3.4000000E-01;497;0.0;0.0;0.0;1000.0588;  4.0000001E-01;48.788734;0;0.0;0.0;0.0;0;-0.031078301;  1.0000000E+04;  0.0000000E+00;  0.0000000E+00;  1.0000000E+04;  0.0000000E+00;  1.0000000E+04;-0.021277636;0.0;-0.009800666;168.86394
  7.9999998E-02;  9.9999998E-03;  3.6000001E-01;498;0.0;0.0;0.0;1000.0383;  4.0000001E-01;31.801565;0;0.0;0.0;0.0;0;-0.020206276;  1.0000000E+04;  0.0000000E+00;  0.0000000E+00;  1.0000000E+04;  0.0000000E+00;  1.0000000E+04;-0.01178347;0.0;-0.0084228059;145.84898
  7.9999998E-02;  9.9999998E-03;  3.8000000E-01;499;0.0;0.0;0.0;1000.0218;  4.0000001E-01;18.073561;0;0.0;0.0;0.0;0;-0.01155518;  1.0000000E+04;  0.0000000E+00;  0.0000000E+00;  1.0000000E+04;  0.0000000E+00;  1.0000000E+04;-0.0057616979;0.0;-0.0057934821;100.14761
  7.9999998E-02;  9.9999998E-03;  4.0000001E-01;500;0.0;0.0;0.0;1000.0098;  4.0000001E-01;8.0985355;0;0.0;0.0;0.0;0;-0.005250955;  1.0000000E+04;  0.0000000E+00;  0.0000000E+00;  1.0000000E+04;  0.0000000E+00;  1.0000000E+04;-0.0023742625;0.0;-0.0028766922;49.547802
  1.0000000E-01;  9.9999998E-03;  3.4000000E-01;507;0.0;0.0;0.0;1000.0701;  4.0000001E-01;58.072422;0;0.0;0.0;0.0;0;-0.035963222;  1.0000000E+04;  0.0000000E+00;  0.0000000E+00;  1.0000000E+04;  0.0000000E+00;  1.0000000E+04;-0.025594579;0.0;-0.010368644;198.59096
  1.0000000E-01;  9.9999998E-03;  3.6000001E-01;508;0.0;0.0;0.0;1000.0455;  4.0000001E-01;37.628559;0;0.0;0.0;0.0;0;-0.023331441;  1.0000000E+04;  0.0000000E+00;  0.0000000E+00;  1.0000000E+04;  0.0000000E+00;  1.0000000E+04;-0.014348078;0.0;-0.0089833634;164.80923
  1.0000000E-01;  9.9999998E-03;  3.8000000E-01;509;0.0;0.0;0.0;1000.0259;  4.0000001E-01;21.43149;0;0.0;0.0;0.0;0;-0.013293448;  1.0000000E+04;  0.0000000E+00;  0.0000000E+00;  1.0000000E+04;  0.0000000E+00;  1.0000000E+04;-0.0070781196;0.0;-0.0062153284;111.78472
  1.0000000E-01;  9.9999998E-03;  4.0000001E-01;510;0.0;0.0;0.0;1000.0119;  4.0000001E-01;9.8762627;0;0.0;0.0;0.0;0;-0.0060352422;  1.0000000E+04;  0.0000000E+00;  0.0000000E+00;  1.0000000E+04;  0.0000000E+00;  1.0000000E+04;-0.0029314104;0.0;-0.003103832;58.61718
  1.2000000E-01;  9.9999998E-03;  3.4000000E-01;517;0.0;0.0;0.0;1000.0872;  4.0000001E-01;72.19548;0;0.0;0.0;0.0;0;-0.043428365;  1.0000000E+04;  0.0000000E+00;  0.0000000E+00;  1.0000000E+04;  0.0000000E+00;  1.0000000E+04;-0.03231898;0.0;-0.011109385;318.65424
  1.2000000E-01;  9.9999998E-03;  3.6000001E-01;518;0.0;0.0;0.0;1000.0564;  4.0000001E-01;46.714722;0;0.0;0.0;0.0;0;-0.028150197;  1.0000000E+04;  0.0000000E+00;  0.0000000E+00;  1.0000000E+04;  0.0000000E+00;  1.0000000E+04;-0.01848409;0.0;-0.0096661085;198.09314
  1.2000000E-01;  9.9999998E-03;  3.8000000E-01;519;0.0;0.0;0.0;1000.0321;  4.0000001E-01;26.567146;0;0.0;0.0;0.0;0;-0.015979899;  1.0000000E+04;  0.0000000E+00;  0.0000000E+00;  1.0000000E+04;  0.0000000E+00;  1.0000000E+04;-0.009276554;0.0;-0.0067033456;138.13147
  1.2000000E-01;  9.9999998E-03;  4.0000001E-01;520;0.0;0.0;0.0;1000.0146;  4.0000001E-01;12.147802;0;0.0;0.0;0.0;0;-0.0072648441;  1.0000000E+04;  0.0000000E+00;  0.0000000E+00;  1.0000000E+04;  0.0000000E+00;  1.0000000E+04;-0.0039048234;0.0;-0.0033600209;108.99883
  1.4000000E-01;  9.9999998E-03;  3.4000000E-01;527;0.0;0.0;0.0;1000.1135;  4.0000001E-01;94.022018;0;0.0;0.0;0.0;0;-0.055070132;  1.0000000E+04;  0.0000000E+00;  0.0000000E+00;  1.0000000E+04;  0.0000000E+00;  1.0000000E+04;-0.042519812;0.0;-0.012550319;695.21686
  1.4000000E-01;  9.9999998E-03;  3.6000001E-01;528;0.0;0.0;0.0;1000.0742;  4.0000001E-01;61.529114;0;0.0;0.0;0.0;0;-0.035879742;  1.0000000E+04;  0.0000000E+00;  0.0000000E+00;  1.0000000E+04;  0.0000000E+00;  1.0000000E+04;-0.024956532;0.0;-0.01092321;264.61298
  1.4000000E-01;  9.9999998E-03;  3.8000000E-01;529;0.0;0.0;0.0;1000.0423;  4.0000001E-01;35.06073;0;0.0;0.0;0.0;0;-0.020424847;  1.0000000E+04;  0.0000000E+00;  0.0000000E+00;  1.0000000E+04;  0.0000000E+00;  1.0000000E+04;-0.012840075;0.0;-0.0075847711;279.22934
  1.4000000E-01;  9.9999998E-03;  4.0000001E-01;530;0.0;0.0;0.0;1000.0193;  4.0000001E-01;15.999545;0;0.0;0.0;0.0;0;-0.0093827378;  1.0000000E+04;  0.0000000E+00;  0.0000000E+00;  1.0000000E+04;  0.0000000E+00;  1.0000000E+04;-0.0055593229;0.0;-0.0038234149;316.66382
  1.6000000E-01;  9.9999998E-03;  3.4000000E-01;537;0.0;0.0;0.0;1000.1528;  4.0000001E-01;126.61369;0;0.0;0.0;0.0;0;-0.072303616;  1.0000000E+04;  0.0000000E+00;  0.0000000E+00;  1.0000000E+04;  0.0000000E+00;  1.0000000E+04;-0.056800015;0.0;-0.015503597;1501.5591
  1.6000000E-01;  9.9999998E-03;  3.6000001E-01;538;0.0;0.0;0.0;1000.1012;  4.0000001E-01;83.849464;0;0.0;0.0;0.0;0;-0.047700614;  1.0000000E+04;  0.0000000E+00;  0.0000000E+00;  1.0000000E+04;  0.0000000E+00;  1.0000000E+04;-0.034226801;0.0;-0.013473812;364.88058
  1.6000000E-01;  9.9999998E-03;  3.8000000E-01;539;0.0;0.0;0.0;1000.0587;  4.0000001E-01;48.591209;0;0.0;0.0;0.0;0;-0.027601136;  1.0000000E+04;  0.0000000E+00;  0.0000000E+00;  1.0000000E+04;  0.0000000E+00;  1.0000000E+04;-0.01815295;0.0;-0.0094481856;739.02441
  1.6000000E-01;  9.9999998E-03;  4.0000001E-01;540;0.0;0.0;0.0;1000.0277;  4.0000001E-01;22.91293;0;0.0;0.0;0.0;0;-0.01310009;  1.0000000E+04;  0.0000000E+00;  0.0000000E+00;  1.0000000E+04;  0.0000000E+00;  1.0000000E+04;-0.0082066599;0.0;-0.00489343;888.56628
  1.8000001E-01;  9.9999998E-03;  3.4000000E-01;547;0.0;0.0;0.0;1000.2062;  4.0000001E-01;170.85934;0;0.0;0.0;0.0;0;-0.095058292;  1.0000000E+04;  0.0000000E+00;  0.0000000E+00;  1.0000000E+04;  0.0000000E+00;  1.0000000E+04;-0.073860988;0.0;-0.021197302;2792.0127
  1.8000001E-01;  9.9999998E-03;  3.6000001E-01;548;0.0;0.0;0.0;1000.1385;  4.0000001E-01;114.76217;0;0.0;0.0;0.0;0;-0.063737035;  1.0000000E+04;  0.0000000E+00;  0.0000000E+00;  1.0000000E+04;  0.0000000E+00;  1.0000000E+04;-0.045321941;0.0;-0.018415092;452.26431
  1.8000001E-01;  9.9999998E-03;  3.8000000E-01;549;0.0;0.0;0.0;1000.0831;  4.0000001E-01;68.837547;0;0.0;0.0;0.0;0;-0.038110171;  1.0000000E+04;  0.0000000E+00;  0.0000000E+00;  1.0000000E+04;  0.0000000E+00;  1.0000000E+04;-0.024806855;0.0;-0.013303316;1737.1245
  1.8000001E-01;  9.9999998E-03;  4.0000001E-01;550;0.0;0.0;0.0;1000.042;  4.0000001E-01;34.764442;0;0.0;0.0;0.0;0;-0.019363917;  1.0000000E+04;  0.0000000E+00;  0.0000000E+00;  1.0000000E+04;  0.0000000E+00;  1.0000000E+04;-0.011940052;0.0;-0.0074238665;2152.3345
  2.0000000E-01;  9.9999998E-03;  3.4000000E-01;556;0.0;0.0;0.0;1000.2701;  4.0000001E-01;223.79611;0;0.0;0.0;0.0;0;-0.12154973;  1.0000000E+04;  0.0000000E+00;  0.0000000E+00;  1.0000000E+04;  0.0000000E+00;  1.0000000E+04;-0.090263791;0.0;-0.031285934;4232.2197
  2.0000000E-01;  9.9999998E-03;  3.6000001E-01;557;0.0;0.0;0.0;1000.1852;  4.0000001E-01;153.37836;0;0.0;0.0;0.0;0;-0.083109066;  1.0000000E+04;  0.0000000E+00;  0.0000000E+00;  1.0000000E+04;  0.0000000E+00;  1.0000000E+04;-0.055848133;0.0;-0.027260933;576.12457
  2.0000000E-01;  9.9999998E-03;  3.8000000E-01;558;0.0;0.0;0.0;1000.1166;  4.0000001E-01;96.589844;0;0.0;0.0;0.0;0;-0.052141037;  1.0000000E+04;  0.0000000E+00;  0.0000000E+00;  1.0000000E+04;  0.0000000E+00;  1.0000000E+04;-0.031442154;0.0;-0.020698883;3314.2288
  1.9200000E+00;  9.9999998E-03; -3.6000001E-01;559;0.0;0.0;0.0;1000.0;  4.0000001E-01;0.0;0;0.0;0.0;0.0;0;0.0;  1.0000000E+04;  0.0000000E+00;  0.0000000E+00;  1.0000000E+04;  0.0000000E+00;  1.0000000E+04;0.0;0.0;0.0;0.0
  1.9200000E+00;  9.9999998E-03; -3.4000000E-01;560;0.0;0.0;0.0;1000.0;  4.0000001E-01;0.0;0;0.0;0.0;0.0;0;0.0;  1.0000000E+04;  0.0000000E+00;  0.0000000E+00;  1.0000000E+04;  0.0000000E+00;  1.0000000E+04;0.0;0.0;0.0;0.0
  1.9200000E+00;  9.9999998E-03; -3.1999999E-01;561;0.0;0.0;0.0;1000.0;  4.0000001E-01;0.0;0;0.0;0.0;0.0;0;0.0;  1.0000000E+04;  0.0000000E+00;  0.0000000E+00;  1.0000000E+04;  0.0000000E+00;  1.0000000E+04;0.0;0.0;0.0;0.0
  1.9400001E+00;  9.9999998E-03; -3.8000000E-01;562;0.0;0.0;0.0;1000.0;  4.0000001E-01;0.0;0;0.0;0.0;0.0;0;0.0;  1.0000000E+04;  0.0000000E+00;  0.0000000E+00;  1.0000000E+04;  0.0000000E+00;  1.0000000E+04;0.0;0.0;0.0;0.0
  1.9400001E+00;  9.9999998E-03; -3.6000001E-01;563;0.0;0.0;0.0;1000.0;  4.0000001E-01;0.0;0;0.0;0.0;0.0;0;0.0;  1.0000000E+04;  0.0000000E+00;  0.0000000E+00;  1.0000000E+04;  0.0000000E+00;  1.0000000E+04;0.0;0.0;0.0;0.0
  1.9400001E+00;  9.9999998E-03; -3.4000000E-01;564;0.0;0.0;0.0;1000.0;  4.0000001E-01;0.0;0;0.0;0.0;0.0;0;0.0;  1.0000000E+04;  0.0000000E+00;  0.0000000E+00;  1.0000000E+04;  0.0000000E+00;  1.0000000E+04;0.0;0.0;0.0;0.0
  1.9400001E+00;  9.9999998E-03; -3.1999999E-01;565;0.0;0.0;0.0;1000.0;  4.0000001E-01;0.0;0;0.0;0.0;0.0;0;0.0;  1.0000000E+04;  0.0000000E+00;  0.0000000E+00;  1.0000000E+04;  0.0000000E+00;  1.0000000E+04;0.0;0.0;0.0;0.0
  1.9400001E+00;  9.9999998E-03; -3.0000001E-01;566;0.0;0.0;0.0;1000.0;  4.0000001E-01;0.0;0;0.0;0.0;0.0;0;0.0;  1.0000000E+04;  0.0000000E+00;  0.0000000E+00;  1.0000000E+04;  0.0000000E+00;  1.0000000E+04;0.0;0.0;0.0;0.0
  1.9400001E+00;  9.9999998E-03; -2.8000000E-01;567;0.0;0.0;0.0;1000.0;  4.0000001E-01;0.0;0;0.0;0.0;0.0;0;0.0;  1.0000000E+04;  0.0000000E+00;  0.0000000E+00;  1.0000000E+04;  0.0000000E+00;  1.0000000E+04;0.0;0.0;0.0;0.0
  1.9400001E+00;  9.9999998E-03; -2.5999999E-01;568;0.0;0.0;0.0;1000.0;  4.0000001E-01;0.0;0;0.0;0.0;0.0;0;0.0;  1.0000000E+04;  0.0000000E+00;  0.0000000E+00;  1.0000000E+04;  0.0000000E+00;  1.0000000E+04;0.0;0.0;0.0;0.0
  1.9400001E+00;  9.9999998E-03; -2.3999999E-01;569;0.0;0.0;0.0;1000.0;  4.0000001E-01;0.0;0;0.0;0.0;0.0;0;0.0;  1.0000000E+04;  0.0000000E+00;  0.0000000E+00;  1.0000000E+04;  0.0000000E+00;  1.0000000E+04;0.0;0.0;0.0;0.0
  1.9400001E+00;  9.9999998E-03; -2.2000000E-01;570;0.0;0.0;0.0;1000.0;  4.0000001E-01;0.0;0;0.0;0.0;0.0;0;0.0;  1.0000000E+04;  0.0000000E+00;  0.0000000E+00;  1.0000000E+04;  0.0000000E+00;  1.0000000E+04;0.0;0.0;0.0;0.0
  1.9600000E+00;  9.9999998E-03; -3.8000000E-01;571;0.0;0.0;0.0;1000.0;  4.0000001E-01;0.0;0;0.0;0.0;0.0;0;0.0;  1.0000000E+04;  0.0000000E+00;  0.0000000E+00;  1.0000000E+04;  0.0000000E+00;  1.0000000E+04;0.0;0.0;0.0;0.0
  1.9600000E+00;  9.9999998E-03; -3.6000001E-01;572;0.0;0.0;0.0;1000.0;  4.0000001E-01;0.0;0;0.0;0.0;0.0;0;0.0;  1.0000000E+04;  0.0000000E+00;  0.0000000E+00;  1.0000000E+04;  0.0000000E+00;  1.0000000E+04;0.0;0.0;0.0;0.0
  1.9600000E+00;  9.9999998E-03; -3.4000000E-01;573;0.0;0.0;0.0;1000.0;  4.0000001E-01;0.0;0;0.0;0.0;0.0;0;0.0;  1.0000000E+04;  0.0000000E+00;  0.0000000E+00;  1.0000000E+04;  0.0000000E+00;  1.0000000E+04;0.0;0.0;0.0;0.0
  1.9600000E+00;  9.9999998E-03; -3.1999999E-01;574;0.0;0.0;0.0;1000.0;  4.0000001E-01;0.0;0;0.0;0.0;0.0;0;0.0;  1.0000000E+04;  0.0000000E+00;  0.0000000E+00;  1.0000000E+04;  0.0000000E+00;  1.0000000E+04;0.0;0.0;0.0;0.0
  1.9600000E+00;  9.9999998E-03; -3.0000001E-01;575;0.0;0.0;0.0;1000.0;  4.0000001E-01;0.0;0;0.0;0.0;0.0;0;0.0;  1.0000000E+04;  0.0000000E+00;  0.0000000E+00;  1.0000000E+04;  0.0000000E+00;  1.0000000E+04;0.0;0.0;0.0;0.0
  1.9600000E+00;  9.9999998E-03; -2.8000000E-01;576;0.0;0.0;0.0;1000.0;  4.0000001E-01;0.0;0;0.0;0.0;0.0;0;0.0;  1.0000000E+04;  0.0000000E+00;  0.0000000E+00;  1.0000000E+04;  0.0000000E+00;  1.0000000E+04;0.0;0.0;0.0;0.0
  1.9600000E+00;  9.9999998E-03; -2.5999999E-01;577;0.0;0.0;0.0;1000.0;  4.0000001E-01;0.0;0;0.0;0.0;0.0;0;0.0;  1.0000000E+04;  0.0000000E+00;  0.0000000E+00;  1.0000000E+04;  0.0000000E+00;  1.0000000E+04;0.0;0.0;0.0;0.0
  1.9600000E+00;  9.9999998E-03; -2.3999999E-01;578;0.0;0.0;0.0;1000.0;  4.0000001E-01;0.0;0;0.0;0.0;0.0;0;0.0;  1.0000000E+04;  0.0000000E+00;  0.0000000E+00;  1.0000000E+04;  0.0000000E+00;  1.0000000E+04;0.0;0.0;0.0;0.0
  1.9600000E+00;  9.9999998E-03; -2.2000000E-01;579;0.0;0.0;0.0;1000.0;  4.0000001E-01;0.0;0;0.0;0.0;0.0;0;0.0;  1.0000000E+04;  0.0000000E+00;  0.0000000E+00;  1.0000000E+04;  0.0000000E+00;  1.0000000E+04;0.0;0.0;0.0;0.0
  1.9600000E+00;  9.9999998E-03; -2.0000000E-01;580;0.0;0.0;0.0;1000.0;  4.0000001E-01;0.0;0;0.0;0.0;0.0;0;0.0;  1.0000000E+04;  0.0000000E+00;  0.0000000E+00;  1.0000000E+04;  0.0000000E+00;  1.0000000E+04;0.0;0.0;0.0;0.0
  1.9600000E+00;  9.9999998E-03; -1.8000001E-01;581;0.0;0.0;0.0;1000.0;  4.0000001E-01;0.0;0;0.0;0.0;0.0;0;0.0;  1.0000000E+04;  0.0000000E+00;  0.0000000E+00;  1.0000000E+04;  0.0000000E+00;  1.0000000E+04;0.0;0.0;0.0;0.0
  1.9600000E+00;  9.9999998E-03; -1.6000000E-01;582;0.0;0.0;0.0;1000.0;  4.0000001E-01;0.0;0;0.0;0.0;0.0;0;0.0;  1.0000000E+04;  0.0000000E+00;  0.0000000E+00;  1.0000000E+04;  0.0000000E+00;  1.0000000E+04;0.0;0.0;0.0;0.0
  1.9600000E+00;  9.9999998E-03; -1.4000000E-01;583;0.0;0.0;0.0;1000.0;  4.0000001E-01;0.0;0;0.0;0.0;0.0;0;0.0;  1.0000000E+04;  0.0000000E+00;  0.0000000E+00;  1.0000000E+04;  0.0000000E+00;  1.0000000E+04;0.0;0.0;0.0;0.0
  1.9600000E+00;  9.9999998E-03; -1.2000000E-01;584;0.0;0.0;0.0;1000.0;  4.0000001E-01;0.0;0;0.0;0.0;0.0;0;0.0;  1.0000000E+04;  0.0000000E+00;  0.0000000E+00;  1.0000000E+04;  0.0000000E+00;  1.0000000E+04;0.0;0.0;0.0;0.0
  1.9800000E+00;  9.9999998E-03; -3.8000000E-01;585;0.0;0.0;0.0;1000.0;  4.0000001E-01;0.0;0;0.0;0.0;0.0;0;0.0;  1.0000000E+04;  0.0000000E+00;  0.0000000E+00;  1.0000000E+04;  0.0000000E+00;  1.0000000E+04;0.0;0.0;0.0;0.0
  1.9800000E+00;  9.9999998E-03; -3.6000001E-01;586;0.0;0.0;0.0;1000.0;  4.0000001E-01;0.0;0;0.0;0.0;0.0;0;0.0;  1.0000000E+04;  0.0000000E+00;  0.0000000E+00;  1.0000000E+04;  0.0000000E+00;  1.0000000E+04;0.0;0.0;0.0;0.0
  1.9800000E+00;  9.9999998E-03; -3.4000000E-01;587;0.0;0.0;0.0;1000.0;  4.0000001E-01;0.0;0;0.0;0.0;0.0;0;0.0;  1.0000000E+04;  0.0000000E+00;  0.0000000E+00;  1.0000000E+04;  0.0000000E+00;  1.0000000E+04;0.0;0.0;0.0;0.0
  1.9800000E+00;  9.9999998E-03; -3.1999999E-01;588;0.0;0.0;0.0;1000.0;  4.0000001E-01;0.0;0;0.0;0.0;0.0;0;0.0;  1.0000000E+04;  0.0000000E+00;  0.0000000E+00;  1.0000000E+04;  0.0000000E+00;  1.0000000E+04;0.0;0.0;0.0;0.0
  1.9800000E+00;  9.9999998E-03; -3.0000001E-01;589;0.0;0.0;0.0;1000.0;  4.0000001E-01;0.0;0;0.0;0.0;0.0;0;0.0;  1.0000000E+04;  0.0000000E+00;  0.0000000E+00;  1.0000000E+04;  0.0000000E+00;  1.0000000E+04;0.0;0.0;0.0;0.0
  1.9800000E+00;  9.9999998E-03; -2.8000000E-01;590;0.0;0.0;0.0;1000.0;  4.0000001E-01;0.0;0;0.0;0.0;0.0;0;0.0;  1.0000000E+04;  0.0000000E+00;  0.0000000E+00;  1.0000000E+04;  0.0000000E+00;  1.0000000E+04;0.0;0.0;0.0;0.0
  1.9800000E+00;  9.9999998E-03; -2.5999999E-01;591;0.0;0.0;0.0;1000.0;  4.0000001E-01;0.0;0;0.0;0.0;0.0;0;0.0;  1.0000000E+04;  0.0000000E+00;  0.0000000E+00;  1.0000000E+04;  0.0000000E+00;  1.0000000E+04;0.0;0.0;0.0;0.0
  1.9800000E+00;  9.9999998E-03; -2.3999999E-01;592;0.0;0.0;0.0;1000.0;  4.0000001E-01;0.0;0;0.0;0.0;0.0;0;0.0;  1.0000000E+04;  0.0000000E+00;  0.0000000E+00;  1.0000000E+04;  0.0000000E+00;  1.0000000E+04;0.0;0.0;0.0;0.0
  1.9800000E+00;  9.9999998E-03; -2.2000000E-01;593;0.0;0.0;0.0;1000.0;  4.0000001E-01;0.0;0;0.0;0.0;0.0;0;0.0;  1.0000000E+04;  0.0000000E+00;  0.0000000E+00;  1.0000000E+04;  0.0000000E+00;  1.0000000E+04;0.0;0.0;0.0;0.0
  1.9800000E+00;  9.9999998E-03; -2.0000000E-01;594;0.0;0.0;0.0;1000.0;  4.0000001E-01;0.0;0;0.0;0.0;0.0;0;0.0;  1.0000000E+04;  0.0000000E+00;  0.0000000E+00;  1.0000000E+04;  0.0000000E+00;  1.0000000E+04;0.0;0.0;0.0;0.0
  1.9800000E+00;  9.9999998E-03; -1.8000001E-01;595;0.0;0.0;0.0;1000.0;  4.0000001E-01;0.0;0;0.0;0.0;0.0;0;0.0;  1.0000000E+04;  0.0000000E+00;  0.0000000E+00;  1.0000000E+04;  0.0000000E+00;  1.0000000E+04;0.0;0.0;0.0;0.0
  1.9800000E+00;  9.9999998E-03; -1.6000000E-01;596;0.0;0.0;0.0;1000.0;  4.0000001E-01;0.0;0;0.0;0.0;0.0;0;0.0;  1.0000000E+04;  0.0000000E+00;  0.0000000E+00;  1.0000000E+04;  0.0000000E+00;  1.0000000E+04;0.0;0.0;0.0;0.0
  1.9800000E+00;  9.9999998E-03; -1.4000000E-01;597;0.0;0.0;0.0;1000.0;  4.0000001E-01;0.0;0;0.0;0.0;0.0;0;0.0;  1.0000000E+04;  0.0000000E+00;  0.0000000E+00;  1.0000000E+04;  0.0000000E+00;  1.0000000E+04;0.0;0.0;0.0;0.0
  1.9800000E+00;  9.9999998E-03; -1.2000000E-01;598;0.0;0.0;0.0;1000.0;  4.0000001E-01;0.0;0;0.0;0.0;0.0;0;0.0;  1.0000000E+04;  0.0000000E+00;  0.0000000E+00;  1.0000000E+04;  0.0000000E+00;  1.0000000E+04;0.0;0.0;0.0;0.0
  1.9800000E+00;  9.9999998E-03; -1.0000000E-01;599;0.0;0.0;0.0;1000.0;  4.0000001E-01;0.0;0;0.0;0.0;0.0;0;0.0;  1.0000000E+04;  0.0000000E+00;  0.0000000E+00;  1.0000000E+04;  0.0000000E+00;  1.0000000E+04;0.0;0.0;0.0;0.0
  1.9800000E+00;  9.9999998E-03; -7.9999998E-02;600;0.0;0.0;0.0;1000.0;  4.0000001E-01;0.0;0;0.0;0.0;0.0;0;0.0;  1.0000000E+04;  0.0000000E+00;  0.0000000E+00;  1.0000000E+04;  0.0000000E+00;  1.0000000E+04;0.0;0.0;0.0;0.0
  1.9800000E+00;  9.9999998E-03; -5.9999999E-02;601;0.0;0.0;0.0;1000.0;  4.0000001E-01;0.0;0;0.0;0.0;0.0;0;0.0;  1.0000000E+04;  0.0000000E+00;  0.0000000E+00;  1.0000000E+04;  0.0000000E+00;  1.0000000E+04;0.0;0.0;0.0;0.0
  1.9800000E+00;  9.9999998E-03; -3.9999999E-02;602;0.0;0.0;0.0;1000.0;  4.0000001E-01;0.0;0;0.0;0.0;0.0;0;0.0;  1.0000000E+04;  0.0000000E+00;  0.0000000E+00;  1.0000000E+04;  0.0000000E+00;  1.0000000E+04;0.0;0.0;0.0;0.0
  1.9800000E+00;  9.9999998E-03; -2.0000000E-02;603;0.0;0.0;0.0;1000.0;  4.0000001E-01;0.0;0;0.0;0.0;0.0;0;0.0;  1.0000000E+04;  0.0000000E+00;  0.0000000E+00;  1.0000000E+04;  0.0000000E+00;  1.0000000E+04;0.0;0.0;0.0;0.0
  2.0000000E+00;  9.9999998E-03; -3.8000000E-01;604;0.0;0.0;0.0;1000.0;  4.0000001E-01;0.0;0;0.0;0.0;0.0;0;0.0;  1.0000000E+04;  0.0000000E+00;  0.0000000E+00;  1.0000000E+04;  0.0000000E+00;  1.0000000E+04;0.0;0.0;0.0;0.0
  2.0000000E+00;  9.9999998E-03; -3.6000001E-01;605;0.0;0.0;0.0;1000.0;  4.0000001E-01;0.0;0;0.0;0.0;0.0;0;0.0;  1.0000000E+04;  0.0000000E+00;  0.0000000E+00;  1.0000000E+04;  0.0000000E+00;  1.0000000E+04;0.0;0.0;0.0;0.0
  2.0000000E+00;  9.9999998E-03; -3.4000000E-01;606;0.0;0.0;0.0;1000.0;  4.0000001E-01;0.0;0;0.0;0.0;0.0;0;0.0;  1.0000000E+04;  0.0000000E+00;  0.0000000E+00;  1.0000000E+04;  0.0000000E+00;  1.0000000E+04;0.0;0.0;0.0;0.0
  2.0000000E+00;  9.9999998E-03; -3.1999999E-01;607;0.0;0.0;0.0;1000.0;  4.0000001E-01;0.0;0;0.0;0.0;0.0;0;0.0;  1.0000000E+04;  0.0000000E+00;  0.0000000E+00;  1.0000000E+04;  0.0000000E+00;  1.0000000E+04;0.0;0.0;0.0;0.0
  2.0000000E+00;  9.9999998E-03; -3.0000001E-01;608;0.0;0.0;0.0;1000.0;  4.0000001E-01;0.0;0;0.0;0.0;0.0;0;0.0;  1.0000000E+04;  0.0000000E+00;  0.0000000E+00;  1.0000000E+04;  0.0000000E+00;  1.0000000E+04;0.0;0.0;0.0;0.0
  2.0000000E+00;  9.9999998E-03; -2.8000000E-01;609;0.0;0.0;0.0;1000.0;  4.0000001E-01;0.0;0;0.0;0.0;0.0;0;0.0;  1.0000000E+04;  0.0000000E+00;  0.0000000E+00;  1.0000000E+04;  0.0000000E+00;  1.0000000E+04;0.0;0.0;0.0;0.0
  2.0000000E+00;  9.9999998E-03; -2.5999999E-01;610;0.0;0.0;0.0;1000.0;  4.0000001E-01;0.0;0;0.0;0.0;0.0;0;0.0;  1.0000000E+04;  0.0000000E+00;  0.0000000E+00;  1.0000000E+04;  0.0000000E+00;  1.0000000E+04;0.0;0.0;0.0;0.0
  2.0000000E+00;  9.9999998E-03; -2.3999999E-01;611;0.0;0.0;0.0;1000.0;  4.0000001E-01;0.0;0;0.0;0.0;0.0;0;0.0;  1.0000000E+04;  0.0000000E+00;  0.0000000E+00;  1.0000000E+04;  0.0000000E+00;  1.0000000E+04;0.0;0.0;0.0;0.0
  2.0000000E+00;  9.9999998E-03; -2.2000000E-01;612;0.0;0.0;0.0;1000.0;  4.0000001E-01;0.0;0;0.0;0.0;0.0;0;0.0;  1.0000000E+04;  0.0000000E+00;  0.0000000E+00;  1.0000000E+04;  0.0000000E+00;  1.0000000E+04;0.0;0.0;0.0;0.0
  2.0000000E+00;  9.9999998E-03; -2.0000000E-01;613;0.0;0.0;0.0;1000.0;  4.0000001E-01;0.0;0;0.0;0.0;0.0;0;0.0;  1.0000000E+04;  0.0000000E+00;  0.0000000E+00;  1.0000000E+04;  0.0000000E+00;  1.0000000E+04;0.0;0.0;0.0;0.0
  2.0000000E+00;  9.9999998E-03; -1.8000001E-01;614;0.0;0.0;0.0;1000.0;  4.0000001E-01;0.0;0;0.0;0.0;0.0;0;0.0;  1.0000000E+04;  0.0000000E+00;  0.0000000E+00;  1.0000000E+04;  0.0000000E+00;  1.0000000E+04;0.0;0.0;0.0;0.0
  2.0000000E+00;  9.9999998E-03; -1.6000000E-01;615;0.0;0.0;0.0;1000.0;  4.0000001E-01;0.0;0;0.0;0.0;0.0;0;0.0;  1.0000000E+04;  0.0000000E+00;  0.0000000E+00;  1.0000000E+04;  0.0000000E+00;  1.0000000E+04;0.0;0.0;0.0;0.0
  2.0000000E+00;  9.9999998E-03; -1.4000000E-01;616;0.0;0.0;0.0;1000.0;  4.0000001E-01;0.0;0;0.0;0.0;0.0;0;0.0;  1.0000000E+04;  0.0000000E+00;  0.0000000E+00;  1.0000000E+04;  0.0000000E+00;  1.0000000E+04;0.0;0.0;0.0;0.0
  2.0000000E+00;  9.9999998E-03; -1.2000000E-01;617;0.0;0.0;0.0;1000.0;  4.0000001E-01;0.0;0;0.0;0.0;0.0;0;0.0;  1.0000000E+04;  0.0000000E+00;  0.0000000E+00;  1.0000000E+04;  0.0000000E+00;  1.0000000E+04;0.0;0.0;0.0;0.0
  2.0000000E+00;  9.9999998E-03; -1.0000000E-01;618;0.0;0.0;0.0;1000.0;  4.0000001E-01;0.0;0;0.0;0.0;0.0;0;0.0;  1.0000000E+04;  0.0000000E+00;  0.0000000E+00;  1.0000000E+04;  0.0000000E+00;  1.0000000E+04;0.0;0.0;0.0;0.0
  2.0000000E+00;  9.9999998E-03; -7.9999998E-02;619;0.0;0.0;0.0;1000.0;  4.0000001E-01;0.0;0;0.0;0.0;0.0;0;0.0;  1.0000000E+04;  0.0000000E+00;  0.0000000E+00;  1.0000000E+04;  0.0000000E+00;  1.0000000E+04;0.0;0.0;0.0;0.0
  2.0000000E+00;  9.9999998E-03; -5.9999999E-02;620;0.0;0.0;0.0;1000.0;  4.0000001E-01;0.0;0;0.0;0.0;0.0;0;0.0;  1.0000000E+04;  0.0000000E+00;  0.0000000E+00;  1.0000000E+04;  0.0000000E+00;  1.0000000E+04;0.0;0.0;0.0;0.0
  2.0000000E+00;  9.9999998E-03; -3.9999999E-02;621;0.0;0.0;0.0;1000.0;  4.0000001E-01;0.0;0;0.0;0.0;0.0;0;0.0;  1.0000000E+04;  0.0000000E+00;  0.0000000E+00;  1.0000000E+04;  0.0000000E+00;  1.0000000E+04;0.0;0.0;0.0;0.0
  2.0000000E+00;  9.9999998E-03; -2.0000000E-02;622;0.0;0.0;0.0;1000.0;  4.0000001E-01;0.0;0;0.0;0.0;0.0;0;0.0;  1.0000000E+04;  0.0000000E+00;  0.0000000E+00;  1.0000000E+04;  0.0000000E+00;  1.0000000E+04;0.0;0.0;0.0;0.0
  2.0000000E+00;  9.9999998E-03;  0.0000000E+00;623;0.0;0.0;0.0;1000.0;  4.0000001E-01;0.0;0;0.0;0.0;0.0;0;0.0;  1.0000000E+04;  0.0000000E+00;  0.0000000E+00;  1.0000000E+04;  0.0000000E+00;  1.0000000E+04;0.0;0.0;0.0;0.0
  2.0000000E+00;  9.9999998E-03;  2.0000000E-02;624;0.0;0.0;0.0;1000.0;  4.0000001E-01;0.0;0;0.0;0.0;0.0;0;0.0;  1.0000000E+04;  0.0000000E+00;  0.0000000E+00;  1.0000000E+04;  0.0000000E+00;  1.0000000E+04;0.0;0.0;0.0;0.0
  2.0000000E+00;  9.9999998E-03;  3.9999999E-02;625;0.0;0.0;0.0;1000.0;  4.0000001E-01;0.0;0;0.0;0.0;0.0;0;0.0;  1.0000000E+04;  0.0000000E+00;  0.0000000E+00;  1.0000000E+04;  0.0000000E+00;  1.0000000E+04;0.0;0.0;0.0;0.0
  2.0000000E+00;  9.9999998E-03;  5.9999999E-02;626;0.0;0.0;0.0;1000.0;  4.0000001E-01;0.0;0;0.0;0.0;0.0;0;0.0;  1.0000000E+04;  0.0000000E+00;  0.0000000E+00;  1.0000000E+04;  0.0000000E+00;  1.0000000E+04;0.0;0.0;0.0;0.0
  2.0000000E+00;  9.9999998E-03;  7.9999998E-02;627;0.0;0.0;0.0;1000.0;  4.0000001E-01;0.0;0;0.0;0.0;0.0;0;0.0;  1.0000000E+04;  0.0000000E+00;  0.0000000E+00;  1.0000000E+04;  0.0000000E+00;  1.0000000E+04;0.0;0.0;0.0;0.0
  2.0200000E+00;  9.9999998E-03; -4.0000001E-01;628;0.0;0.0;0.0;1000.0;  4.0000001E-01;0.0;0;0.0;0.0;0.0;0;0.0;  1.0000000E+04;  0.0000000E+00;  0.0000000E+00;  1.0000000E+04;  0.0000000E+00;  1.0000000E+04;0.0;0.0;0.0;0.0
  2.0200000E+00;  9.9999998E-03; -3.8000000E-01;629;0.0;0.0;0.0;1000.0;  4.0000001E-01;0.0;0;0.0;0.0;0.0;0;0.0;  1.0000000E+04;  0.0000000E+00;  0.0000000E+00;  1.0000000E+04;  0.0000000E+00;  1.0000000E+04;0.0;0.0;0.0;0.0
  2.0200000E+00;  9.9999998E-03; -3.6000001E-01;630;0.0;0.0;0.0;1000.0;  4.0000001E-01;0.0;0;0.0;0.0;0.0;0;0.0;  1.0000000E+04;  0.0000000E+00;  0.0000000E+00;  1.0000000E+04;  0.0000000E+00;  1.0000000E+04;0.0;0.0;0.0;0.0
  2.0200000E+00;  9.9999998E-03; -3.4000000E-01;631;0.0;0.0;0.0;1000.0;  4.0000001E-01;0.0;0;0.0;0.0;0.0;0;0.0;  1.0000000E+04;  0.0000000E+00;  0.0000000E+00;  1.0000000E+04;  0.0000000E+00;  1.0000000E+04;0.0;0.0;0.0;0.0
  2.0200000E+00;  9.9999998E-03; -3.1999999E-01;632;0.0;0.0;0.0;1000.0;  4.0000001E-01;0.0;0;0.0;0.0;0.0;0;0.0;  1.0000000E+04;  0.0000000E+00;  0.0000000E+00;  1.0000000E+04;  0.0000000E+00;  1.0000000E+04;0.0;0.0;0.0;0.0
  2.0200000E+00;  9.9999998E-03; -3.0000001E-01;633;0.0;0.0;0.0;1000.0;  4.0000001E-01;0.0;0;0.0;0.0;0.0;0;0.0;  1.0000000E+04;  0.0000000E+00;  0.0000000E+00;  1.0000000E+04;  0.0000000E+00;  1.0000000E+04;0.0;0.0;0.0;0.0
  2.0200000E+00;  9.9999998E-03; -2.8000000E-01;634;0.0;0.0;0.0;1000.0;  4.0000001E-01;0.0;0;0.0;0.0;0.0;0;0.0;  1.0000000E+04;  0.0000000E+00;  0.0000000E+00;  1.0000000E+04;  0.0000000E+00;  1.0000000E+04;0.0;0.0;0.0;0.0
  2.0200000E+00;  9.9999998E-03; -2.5999999E-01;635;0.0;0.0;0.0;1000.0;  4.0000001E-01;0.0;0;0.0;0.0;0.0;0;0.0;  1.0000000E+04;  0.0000000E+00;  0.0000000E+00;  1.0000000E+04;  0.0000000E+00;  1.0000000E+04;0.0;0.0;0.0;0.0
  2.0200000E+00;  9.9999998E-03; -2.3999999E-01;636;0.0;0.0;0.0;1000.0;  4.0000001E-01;0.0;0;0.0;0.0;0.0;0;0.0;  1.0000000E+04;  0.0000000E+00;  0.0000000E+00;  1.0000000E+04;  0.0000000E+00;  1.0000000E+04;0.0;0.0;0.0;0.0
  2.0200000E+00;  9.9999998E-03; -2.2000000E-01;637;0.0;0.0;0.0;1000.0;  4.0000001E-01;0.0;0;0.0;0.0;0.0;0;0.0;  1.0000000E+04;  0.0000000E+00;  0.0000000E+00;  1.0000000E+04;  0.0000000E+00;  1.0000000E+04;0.0;0.0;0.0;0.0
  2.0200000E+00;  9.9999998E-03; -2.0000000E-01;638;0.0;0.0;0.0;1000.0;  4.0000001E-01;0.0;0;0.0;0.0;0.0;0;0.0;  1.0000000E+04;  0.0000000E+00;  0.0000000E+00;  1.0000000E+04;  0.0000000E+00;  1.0000000E+04;0.0;0.0;0.0;0.0
  2.0200000E+00;  9.9999998E-03; -1.8000001E-01;639;0.0;0.0;0.0;1000.0;  4.0000001E-01;0.0;0;0.0;0.0;0.0;0;0.0;  1.0000000E+04;  0.0000000E+00;  0.0000000E+00;  1.0000000E+04;  0.0000000E+00;  1.0000000E+04;0.0;0.0;0.0;0.0
  2.0200000E+00;  9.9999998E-03; -1.6000000E-01;640;0.0;0.0;0.0;1000.0;  4.0000001E-01;0.0;0;0.0;0.0;0.0;0;0.0;  1.0000000E+04;  0.0000000E+00;  0.0000000E+00;  1.0000000E+04;  0.0000000E+00;  1.0000000E+04;0.0;0.0;0.0;0.0
  2.0200000E+00;  9.9999998E-03; -1.4000000E-01;641;0.0;0.0;0.0;1000.0;  4.0000001E-01;0.0;0;0.0;0.0;0.0;0;0.0;  1.0000000E+04;  0.0000000E+00;  0.0000000E+00;  1.0000000E+04;  0.0000000E+00;  1.0000000E+04;0.0;0.0;0.0;0.0
  2.0200000E+00;  9.9999998E-03; -1.2000000E-01;642;0.0;0.0;0.0;1000.0;  4.0000001E-01;0.0;0;0.0;0.0;0.0;0;0.0;  1.0000000E+04;  0.0000000E+00;  0.0000000E+00;  1.0000000E+04;  0.0000000E+00;  1.0000000E+04;0.0;0.0;0.0;0.0
  2.0200000E+00;  9.9999998E-03; -1.0000000E-01;643;0.0;0.0;0.0;1000.0;  4.0000001E-01;0.0;0;0.0;0.0;0.0;0;0.0;  1.0000000E+04;  0.0000000E+00;  0.0000000E+00;  1.0000000E+04;  0.0000000E+00;  1.0000000E+04;0.0;0.0;0.0;0.0
  2.0200000E+00;  9.9999998E-03; -7.9999998E-02;644;0.0;0.0;0.0;1000.0;  4.0000001E-01;0.0;0;0.0;0.0;0.0;0;0.0;  1.0000000E+04;  0.0000000E+00;  0.0000000E+00;  1.0000000E+04;  0.0000000E+00;  1.0000000E+04;0.0;0.0;0.0;0.0
  2.0200000E+00;  9.9999998E-03; -5.9999999E-02;645;0.0;0.0;0.0;1000.0;  4.0000001E-01;0.0;0;0.0;0.0;0.0;0;0.0;  1.0000000E+04;  0.0000000E+00;  0.0000000E+00;  1.0000000E+04;  0.0000000E+00;  1.0000000E+04;0.0;0.0;0.0;0.0
  2.0200000E+00;  9.9999998E-03; -3.9999999E-02;646;0.0;0.0;0.0;1000.0;  4.0000001E-01;0.0;0;0.0;0.0;0.0;0;0.0;  1.0000000E+04;  0.0000000E+00;  0.0000000E+00;  1.0000000E+04;  0.0000000E+00;  1.0000000E+04;0.0;0.0;0.0;0.0
  2.0200000E+00;  9.9999998E-03; -2.0000000E-02;647;0.0;0.0;0.0;1000.0;  4.0000001E-01;0.0;0;0.0;0.0;0.0;0;0.0;  1.0000000E+04;  0.0000000E+00;  0.0000000E+00;  1.0000000E+04;  0.0000000E+00;  1.0000000E+04;0.0;0.0;0.0;0.0
  2.0200000E+00;  9.9999998E-03;  0.0000000E+00;648;0.0;0.0;0.0;1000.0;  4.0000001E-01;0.0;0;0.0;0.0;0.0;0;0.0;  1.0000000E+04;  0.0000000E+00;  0.0000000E+00;  1.0000000E+04;  0.0000000E+00;  1.0000000E+04;0.0;0.0;0.0;0.0
  2.0200000E+00;  9.9999998E-03;  2.0000000E-02;649;0.0;0.0;0.0;1000.0;  4.0000001E-01;0.0;0;0.0;0.0;0.0;0;0.0;  1.0000000E+04;  0.0000000E+00;  0.0000000E+00;  1.0000000E+04;  0.0000000E+00;  1.0000000E+04;0.0;0.0;0.0;0.0
  2.0200000E+00;  9.9999998E-03;  3.9999999E-02;650;0.0;0.0;0.0;1000.0;  4.0000001E-01;0.0;0;0.0;0.0;0.0;0;0.0;  1.0000000E+04;  0.0000000E+00;  0.0000000E+00;  1.0000000E+04;  0.0000000E+00;  1.0000000E+04;0.0;0.0;0.0;0.0
  2.0200000E+00;  9.9999998E-03;  5.9999999E-02;651;0.0;0.0;0.0;1000.0;  4.0000001E-01;0.0;0;0.0;0.0;0.0;0;0.0;  1.0000000E+04;  0.0000000E+00;  0.0000000E+00;  1.0000000E+04;  0.0000000E+00;  1.0000000E+04;0.0;0.0;0.0;0.0
  2.0200000E+00;  9.9999998E-03;  7.9999998E-02;652;0.0;0.0;0.0;1000.0;  4.0000001E-01;0.0;0;0.0;0.0;0.0;0;0.0;  1.0000000E+04;  0.0000000E+00;  0.0000000E+00;  1.0000000E+04;  0.0000000E+00;  1.0000000E+04;0.0;0.0;0.0;0.0
  2.0200000E+00;  9.9999998E-03;  1.0000000E-01;653;0.0;0.0;0.0;1000.0;  4.0000001E-01;0.0;0;0.0;0.0;0.0;0;0.0;  1.0000000E+04;  0.0000000E+00;  0.0000000E+00;  1.0000000E+04;  0.0000000E+00;  1.0000000E+04;0.0;0.0;0.0;0.0
  2.0200000E+00;  9.9999998E-03;  1.2000000E-01;654;0.0;0.0;0.0;1000.0;  4.0000001E-01;0.0;0;0.0;0.0;0.0;0;0.0;  1.0000000E+04;  0.0000000E+00;  0.0000000E+00;  1.0000000E+04;  0.0000000E+00;  1.0000000E+04;0.0;0.0;0.0;0.0
  2.0200000E+00;  9.9999998E-03;  1.4000000E-01;655;0.0;0.0;0.0;1000.0;  4.0000001E-01;0.0;0;0.0;0.0;0.0;0;0.0;  1.0000000E+04;  0.0000000E+00;  0.0000000E+00;  1.0000000E+04;  0.0000000E+00;  1.0000000E+04;0.0;0.0;0.0;0.0
  2.0200000E+00;  9.9999998E-03;  1.6000000E-01;656;0.0;0.0;0.0;1000.0;  4.0000001E-01;0.0;0;0.0;0.0;0.0;0;0.0;  1.0000000E+04;  0.0000000E+00;  0.0000000E+00;  1.0000000E+04;  0.0000000E+00;  1.0000000E+04;0.0;0.0;0.0;0.0
  2.0200000E+00;  9.9999998E-03;  1.8000001E-01;657;0.0;0.0;0.0;1000.0;  4.0000001E-01;0.0;0;0.0;0.0;0.0;0;0.0;  1.0000000E+04;  0.0000000E+00;  0.0000000E+00;  1.0000000E+04;  0.0000000E+00;  1.0000000E+04;0.0;0.0;0.0;0.0
  2.0400000E+00;  9.9999998E-03; -4.0000001E-01;658;0.0;0.0;0.0;1000.0;  4.0000001E-01;0.0;0;0.0;0.0;0.0;0;0.0;  1.0000000E+04;  0.0000000E+00;  0.0000000E+00;  1.0000000E+04;  0.0000000E+00;  1.0000000E+04;0.0;0.0;0.0;0.0
  2.0400000E+00;  9.9999998E-03; -3.8000000E-01;659;0.0;0.0;0.0;1000.0;  4.0000001E-01;0.0;0;0.0;0.0;0.0;0;0.0;  1.0000000E+04;  0.0000000E+00;  0.0000000E+00;  1.0000000E+04;  0.0000000E+00;  1.0000000E+04;0.0;0.0;0.0;0.0
  2.0400000E+00;  9.9999998E-03; -3.6000001E-01;660;0.0;0.0;0.0;1000.0;  4.0000001E-01;0.0;0;0.0;0.0;0.0;0;0.0;  1.0000000E+04;  0.0000000E+00;  0.0000000E+00;  1.0000000E+04;  0.0000000E+00;  1.0000000E+04;0.0;0.0;0.0;0.0
  2.0400000E+00;  9.9999998E-03; -3.4000000E-01;661;0.0;0.0;0.0;1000.0;  4.0000001E-01;0.0;0;0.0;0.0;0.0;0;0.0;  1.0000000E+04;  0.0000000E+00;  0.0000000E+00;  1.0000000E+04;  0.0000000E+00;  1.0000000E+04;0.0;0.0;0.0;0.0
  2.0400000E+00;  9.9999998E-03; -3.1999999E-01;662;0.0;0.0;0.0;1000.0;  4.0000001E-01;0.0;0;0.0;0.0;0.0;0;0.0;  1.0000000E+04;  0.0000000E+00;  0.0000000E+00;  1.0000000E+04;  0.0000000E+00;  1.0000000E+04;0.0;0.0;0.0;0.0
  2.0400000E+00;  9.9999998E-03; -3.0000001E-01;663;0.0;0.0;0.0;1000.0;  4.0000001E-01;0.0;0;0.0;0.0;0.0;0;0.0;  1.0000000E+04;  0.0000000E+00;  0.0000000E+00;  1.0000000E+04;  0.0000000E+00;  1.0000000E+04;0.0;0.0;0.0;0.0
  2.0400000E+00;  9.9999998E-03; -2.8000000E-01;664;0.0;0.0;0.0;1000.0;  4.0000001E-01;0.0;0;0.0;0.0;0.0;0;0.0;  1.0000000E+04;  0.0000000E+00;  0.0000000E+00;  1.0000000E+04;  0.0000000E+00;  1.0000000E+04;0.0;0.0;0.0;0.0
  2.0400000E+00;  9.9999998E-03; -2.5999999E-01;665;0.0;0.0;0.0;1000.0;  4.0000001E-01;0.0;0;0.0;0.0;0.0;0;0.0;  1.0000000E+04;  0.0000000E+00;  0.0000000E+00;  1.0000000E+04;  0.0000000E+00;  1.0000000E+04;0.0;0.0;0.0;0.0
  2.0400000E+00;  9.9999998E-03; -2.3999999E-01;666;0.0;0.0;0.0;1000.0;  4.0000001E-01;0.0;0;0.0;0.0;0.0;0;0.0;  1.0000000E+04;  0.0000000E+00;  0.0000000E+00;  1.0000000E+04;  0.0000000E+00;  1.0000000E+04;0.0;0.0;0.0;0.0
  2.0400000E+00;  9.9999998E-03; -2.2000000E-01;667;0.0;0.0;0.0;1000.0;  4.0000001E-01;0.0;0;0.0;0.0;0.0;0;0.0;  1.0000000E+04;  0.0000000E+00;  0.0000000E+00;  1.0000000E+04;  0.0000000E+00;  1.0000000E+04;0.0;0.0;0.0;0.0
  2.0400000E+00;  9.9999998E-03; -2.0000000E-01;668;0.0;0.0;0.0;1000.0;  4.0000001E-01;0.0;0;0.0;0.0;0.0;0;0.0;  1.0000000E+04;  0.0000000E+00;  0.0000000E+00;  1.0000000E+04;  0.0000000E+00;  1.0000000E+04;0.0;0.0;0.0;0.0
  2.0400000E+00;  9.9999998E-03; -1.8000001E-01;669;0.0;0.0;0.0;1000.0;  4.0000001E-01;0.0;0;0.0;0.0;0.0;0;0.0;  1.0000000E+04;  0.0000000E+00;  0.0000000E+00;  1.0000000E+04;  0.0000000E+00;  1.0000000E+04;0.0;0.0;0.0;0.0
  2.0400000E+00;  9.9999998E-03; -1.6000000E-01;670;0.0;0.0;0.0;1000.0;  4.0000001E-01;0.0;0;0.0;0.0;0.0;0;0.0;  1.0000000E+04;  0.0000000E+00;  0.0000000E+00;  1.0000000E+04;  0.0000000E+00;  1.0000000E+04;0.0;0.0;0.0;0.0
  2.0400000E+00;  9.9999998E-03; -1.4000000E-01;671;0.0;0.0;0.0;1000.0;  4.0000001E-01;0.0;0;0.0;0.0;0.0;0;0.0;  1.0000000E+04;  0.0000000E+00;  0.0000000E+00;  1.0000000E+04;  0.0000000E+00;  1.0000000E+04;0.0;0.0;0.0;0.0
  2.0400000E+00;  9.9999998E-03; -1.2000000E-01;672;0.0;0.0;0.0;1000.0;  4.0000001E-01;0.0;0;0.0;0.0;0.0;0;0.0;  1.0000000E+04;  0.0000000E+00;  0.0000000E+00;  1.0000000E+04;  0.0000000E+00;  1.0000000E+04;0.0;0.0;0.0;0.0
  2.0400000E+00;  9.9999998E-03; -1.0000000E-01;673;0.0;0.0;0.0;1000.0;  4.0000001E-01;0.0;0;0.0;0.0;0.0;0;0.0;  1.0000000E+04;  0.0000000E+00;  0.0000000E+00;  1.0000000E+04;  0.0000000E+00;  1.0000000E+04;0.0;0.0;0.0;0.0
  2.0400000E+00;  9.9999998E-03; -7.9999998E-02;674;0.0;0.0;0.0;1000.0;  4.0000001E-01;0.0;0;0.0;0.0;0.0;0;0.0;  1.0000000E+04;  0.0000000E+00;  0.0000000E+00;  1.0000000E+04;  0.0000000E+00;  1.0000000E+04;0.0;0.0;0.0;0.0
  2.0400000E+00;  9.9999998E-03; -5.9999999E-02;675;0.0;0.0;0.0;1000.0;  4.0000001E-01;0.0;0;0.0;0.0;0.0;0;0.0;  1.0000000E+04;  0.0000000E+00;  0.0000000E+00;  1.0000000E+04;  0.0000000E+00;  1.0000000E+04;0.0;0.0;0.0;0.0
  2.0400000E+00;  9.9999998E-03; -3.9999999E-02;676;0.0;0.0;0.0;1000.0;  4.0000001E-01;0.0;0;0.0;0.0;0.0;0;0.0;  1.0000000E+04;  0.0000000E+00;  0.0000000E+00;  1.0000000E+04;  0.0000000E+00;  1.0000000E+04;0.0;0.0;0.0;0.0
  2.0400000E+00;  9.9999998E-03; -2.0000000E-02;677;0.0;0.0;0.0;1000.0;  4.0000001E-01;0.0;0;0.0;0.0;0.0;0;0.0;  1.0000000E+04;  0.0000000E+00;  0.0000000E+00;  1.0000000E+04;  0.0000000E+00;  1.0000000E+04;0.0;0.0;0.0;0.0
  2.0400000E+00;  9.9999998E-03;  0.0000000E+00;678;0.0;0.0;0.0;1000.0;  4.0000001E-01;0.0;0;0.0;0.0;0.0;0;0.0;  1.0000000E+04;  0.0000000E+00;  0.0000000E+00;  1.0000000E+04;  0.0000000E+00;  1.0000000E+04;0.0;0.0;0.0;0.0
  2.0400000E+00;  9.9999998E-03;  2.0000000E-02;679;0.0;0.0;0.0;1000.0;  4.0000001E-01;0.0;0;0.0;0.0;0.0;0;0.0;  1.0000000E+04;  0.0000000E+00;  0.0000000E+00;  1.0000000E+04;  0.0000000E+00;  1.0000000E+04;0.0;0.0;0.0;0.0
  2.0400000E+00;  9.9999998E-03;  3.9999999E-02;680;0.0;0.0;0.0;1000.0;  4.0000001E-01;0.0;0;0.0;0.0;0.0;0;0.0;  1.0000000E+04;  0.0000000E+00;  0.0000000E+00;  1.0000000E+04;  0.0000000E+00;  1.0000000E+04;0.0;0.0;0.0;0.0
  2.0400000E+00;  9.9999998E-03;  5.9999999E-02;681;0.0;0.0;0.0;1000.0;  4.0000001E-01;0.0;0;0.0;0.0;0.0;0;0.0;  1.0000000E+04;  0.0000000E+00;  0.0000000E+00;  1.0000000E+04;  0.0000000E+00;  1.0000000E+04;0.0;0.0;0.0;0.0
  2.0400000E+00;  9.9999998E-03;  7.9999998E-02;682;0.0;0.0;0.0;1000.0;  4.0000001E-01;0.0;0;0.0;0.0;0.0;0;0.0;  1.0000000E+04;  0.0000000E+00;  0.0000000E+00;  1.0000000E+04;  0.0000000E+00;  1.0000000E+04;0.0;0.0;0.0;0.0
  2.0400000E+00;  9.9999998E-03;  1.0000000E-01;683;0.0;0.0;0.0;1000.0;  4.0000001E-01;0.0;0;0.0;0.0;0.0;0;0.0;  1.0000000E+04;  0.0000000E+00;  0.0000000E+00;  1.0000000E+04;  0.0000000E+00;  1.0000000E+04;0.0;0.0;0.0;0.0
  2.0400000E+00;  9.9999998E-03;  1.2000000E-01;684;0.0;0.0;0.0;1000.0;  4.0000001E-01;0.0;0;0.0;0.0;0.0;0;0.0;  1.0000000E+04;  0.0000000E+00;  0.0000000E+00;  1.0000000E+04;  0.0000000E+00;  1.0000000E+04;0.0;0.0;0.0;0.0
  2.0400000E+00;  9.9999998E-03;  1.4000000E-01;685;0.0;0.0;0.0;1000.0;  4.0000001E-01;0.0;0;0.0;0.0;0.0;0;0.0;  1.0000000E+04;  0.0000000E+00;  0.0000000E+00;  1.0000000E+04;  0.0000000E+00;  1.0000000E+04;0.0;0.0;0.0;0.0
  2.0400000E+00;  9.9999998E-03;  1.6000000E-01;686;0.0;0.0;0.0;1000.0;  4.0000001E-01;0.0;0;0.0;0.0;0.0;0;0.0;  1.0000000E+04;  0.0000000E+00;  0.0000000E+00;  1.0000000E+04;  0.0000000E+00;  1.0000000E+04;0.0;0.0;0.0;0.0
  2.0400000E+00;  9.9999998E-03;  1.8000001E-01;687;0.0;0.0;0.0;1000.0;  4.0000001E-01;0.0;0;0.0;0.0;0.0;0;0.0;  1.0000000E+04;  0.0000000E+00;  0.0000000E+00;  1.0000000E+04;  0.0000000E+00;  1.0000000E+04;0.0;0.0;0.0;0.0
  2.0400000E+00;  9.9999998E-03;  2.0000000E-01;688;0.0;0.0;0.0;1000.0;  4.0000001E-01;0.0;0;0.0;0.0;0.0;0;0.0;  1.0000000E+04;  0.0000000E+00;  0.0000000E+00;  1.0000000E+04;  0.0000000E+00;  1.0000000E+04;0.0;0.0;0.0;0.0
  2.0400000E+00;  9.9999998E-03;  2.2000000E-01;689;0.0;0.0;0.0;1000.0;  4.0000001E-01;0.0;0;0.0;0.0;0.0;0;0.0;  1.0000000E+04;  0.0000000E+00;  0.0000000E+00;  1.0000000E+04;  0.0000000E+00;  1.0000000E+04;0.0;0.0;0.0;0.0
  2.0400000E+00;  9.9999998E-03;  2.3999999E-01;690;0.0;0.0;0.0;1000.0;  4.0000001E-01;0.0;0;0.0;0.0;0.0;0;0.0;  1.0000000E+04;  0.0000000E+00;  0.0000000E+00;  1.0000000E+04;  0.0000000E+00;  1.0000000E+04;0.0;0.0;0.0;0.0
  2.0400000E+00;  9.9999998E-03;  2.5999999E-01;691;0.0;0.0;0.0;1000.0;  4.0000001E-01;0.0;0;0.0;0.0;0.0;0;0.0;  1.0000000E+04;  0.0000000E+00;  0.0000000E+00;  1.0000000E+04;  0.0000000E+00;  1.0000000E+04;0.0;0.0;0.0;0.0
  2.0400000E+00;  9.9999998E-03;  2.8000000E-01;692;0.0;0.0;0.0;1000.0;  4.0000001E-01;0.0;0;0.0;0.0;0.0;0;0.0;  1.0000000E+04;  0.0000000E+00;  0.0000000E+00;  1.0000000E+04;  0.0000000E+00;  1.0000000E+04;0.0;0.0;0.0;0.0
  2.0599999E+00;  9.9999998E-03; -4.0000001E-01;693;0.0;0.0;0.0;1000.0;  4.0000001E-01;0.0;0;0.0;0.0;0.0;0;0.0;  1.0000000E+04;  0.0000000E+00;  0.0000000E+00;  1.0000000E+04;  0.0000000E+00;  1.0000000E+04;0.0;0.0;0.0;0.0
  2.0599999E+00;  9.9999998E-03; -3.8000000E-01;694;0.0;0.0;0.0;1000.0;  4.0000001E-01;0.0;0;0.0;0.0;0.0;0;0.0;  1.0000000E+04;  0.0000000E+00;  0.0000000E+00;  1.0000000E+04;  0.0000000E+00;  1.0000000E+04;0.0;0.0;0.0;0.0
  2.0599999E+00;  9.9999998E-03; -3.6000001E-01;695;0.0;0.0;0.0;1000.0;  4.0000001E-01;0.0;0;0.0;0.0;0.0;0;0.0;  1.0000000E+04;  0.0000000E+00;  0.0000000E+00;  1.0000000E+04;  0.0000000E+00;  1.0000000E+04;0.0;0.0;0.0;0.0
  2.0599999E+00;  9.9999998E-03; -3.4000000E-01;696;0.0;0.0;0.0;1000.0;  4.0000001E-01;0.0;0;0.0;0.0;0.0;0;0.0;  1.0000000E+04;  0.0000000E+00;  0.0000000E+00;  1.0000000E+04;  0.0000000E+00;  1.0000000E+04;0.0;0.0;0.0;0.0
  2.0599999E+00;  9.9999998E-03; -3.1999999E-01;697;0.0;0.0;0.0;1000.0;  4.0000001E-01;0.0;0;0.0;0.0;0.0;0;0.0;  1.0000000E+04;  0.0000000E+00;  0.0000000E+00;  1.0000000E+04;  0.0000000E+00;  1.0000000E+04;0.0;0.0;0.0;0.0
  2.0599999E+00;  9.9999998E-03; -3.0000001E-01;698;0.0;0.0;0.0;1000.0;  4.0000001E-01;0.0;0;0.0;0.0;0.0;0;0.0;  1.0000000E+04;  0.0000000E+00;  0.0000000E+00;  1.0000000E+04;  0.0000000E+00;  1.0000000E+04;0.0;0.0;0.0;0.0
  2.0599999E+00;  9.9999998E-03; -2.8000000E-01;699;0.0;0.0;0.0;1000.0;  4.0000001E-01;0.0;0;0.0;0.0;0.0;0;0.0;  1.0000000E+04;  0.0000000E+00;  0.0000000E+00;  1.0000000E+04;  0.0000000E+00;  1.0000000E+04;0.0;0.0;0.0;0.0
  2.0599999E+00;  9.9999998E-03; -2.5999999E-01;700;0.0;0.0;0.0;1000.0;  4.0000001E-01;0.0;0;0.0;0.0;0.0;0;0.0;  1.0000000E+04;  0.0000000E+00;  0.0000000E+00;  1.0000000E+04;  0.0000000E+00;  1.0000000E+04;0.0;0.0;0.0;0.0
  2.0599999E+00;  9.9999998E-03; -2.3999999E-01;701;0.0;0.0;0.0;1000.0;  4.0000001E-01;0.0;0;0.0;0.0;0.0;0;0.0;  1.0000000E+04;  0.0000000E+00;  0.0000000E+00;  1.0000000E+04;  0.0000000E+00;  1.0000000E+04;0.0;0.0;0.0;0.0
  2.0599999E+00;  9.9999998E-03; -2.2000000E-01;702;0.0;0.0;0.0;1000.0;  4.0000001E-01;0.0;0;0.0;0.0;0.0;0;0.0;  1.0000000E+04;  0.0000000E+00;  0.0000000E+00;  1.0000000E+04;  0.0000000E+00;  1.0000000E+04;0.0;0.0;0.0;0.0
  2.0599999E+00;  9.9999998E-03; -2.0000000E-01;703;0.0;0.0;0.0;1000.0;  4.0000001E-01;0.0;0;0.0;0.0;0.0;0;0.0;  1.0000000E+04;  0.0000000E+00;  0.0000000E+00;  1.0000000E+04;  0.0000000E+00;  1.0000000E+04;0.0;0.0;0.0;0.0
  2.0599999E+00;  9.9999998E-03; -1.8000001E-01;704;0.0;0.0;0.0;1000.0;  4.0000001E-01;0.0;0;0.0;0.0;0.0;0;0.0;  1.0000000E+04;  0.0000000E+00;  0.0000000E+00;  1.0000000E+04;  0.0000000E+00;  1.0000000E+04;0.0;0.0;0.0;0.0
  2.0599999E+00;  9.9999998E-03; -1.6000000E-01;705;0.0;0.0;0.0;1000.0;  4.0000001E-01;0.0;0;0.0;0.0;0.0;0;0.0;  1.0000000E+04;  0.0000000E+00;  0.0000000E+00;  1.0000000E+04;  0.0000000E+00;  1.0000000E+04;0.0;0.0;0.0;0.0
  2.0599999E+00;  9.9999998E-03; -1.4000000E-01;706;0.0;0.0;0.0;1000.0;  4.0000001E-01;0.0;0;0.0;0.0;0.0;0;0.0;  1.0000000E+04;  0.0000000E+00;  0.0000000E+00;  1.0000000E+04;  0.0000000E+00;  1.0000000E+04;0.0;0.0;0.0;0.0
  2.0599999E+00;  9.9999998E-03; -1.2000000E-01;707;0.0;0.0;0.0;1000.0;  4.0000001E-01;0.0;0;0.0;0.0;0.0;0;0.0;  1.0000000E+04;  0.0000000E+00;  0.0000000E+00;  1.0000000E+04;  0.0000000E+00;  1.0000000E+04;0.0;0.0;0.0;0.0
  2.0599999E+00;  9.9999998E-03; -1.0000000E-01;708;0.0;0.0;0.0;1000.0;  4.0000001E-01;0.0;0;0.0;0.0;0.0;0;0.0;  1.0000000E+04;  0.0000000E+00;  0.0000000E+00;  1.0000000E+04;  0.0000000E+00;  1.0000000E+04;0.0;0.0;0.0;0.0
  2.0599999E+00;  9.9999998E-03; -7.9999998E-02;709;0.0;0.0;0.0;1000.0;  4.0000001E-01;0.0;0;0.0;0.0;0.0;0;0.0;  1.0000000E+04;  0.0000000E+00;  0.0000000E+00;  1.0000000E+04;  0.0000000E+00;  1.0000000E+04;0.0;0.0;0.0;0.0
  2.0599999E+00;  9.9999998E-03; -5.9999999E-02;710;0.0;0.0;0.0;1000.0;  4.0000001E-01;0.0;0;0.0;0.0;0.0;0;0.0;  1.0000000E+04;  0.0000000E+00;  0.0000000E+00;  1.0000000E+04;  0.0000000E+00;  1.0000000E+04;0.0;0.0;0.0;0.0
  2.0599999E+00;  9.9999998E-03; -3.9999999E-02;711;0.0;0.0;0.0;1000.0;  4.0000001E-01;0.0;0;0.0;0.0;0.0;0;0.0;  1.0000000E+04;  0.0000000E+00;  0.0000000E+00;  1.0000000E+04;  0.0000000E+00;  1.0000000E+04;0.0;0.0;0.0;0.0
  2.0599999E+00;  9.9999998E-03; -2.0000000E-02;712;0.0;0.0;0.0;1000.0;  4.0000001E-01;0.0;0;0.0;0.0;0.0;0;0.0;  1.0000000E+04;  0.0000000E+00;  0.0000000E+00;  1.0000000E+04;  0.0000000E+00;  1.0000000E+04;0.0;0.0;0.0;0.0
  2.0599999E+00;  9.9999998E-03;  0.0000000E+00;713;0.0;0.0;0.0;1000.0;  4.0000001E-01;0.0;0;0.0;0.0;0.0;0;0.0;  1.0000000E+04;  0.0000000E+00;  0.0000000E+00;  1.0000000E+04;  0.0000000E+00;  1.0000000E+04;0.0;0.0;0.0;0.0
  2.0599999E+00;  9.9999998E-03;  2.0000000E-02;714;0.0;0.0;0.0;1000.0;  4.0000001E-01;0.0;0;0.0;0.0;0.0;0;0.0;  1.0000000E+04;  0.0000000E+00;  0.0000000E+00;  1.0000000E+04;  0.0000000E+00;  1.0000000E+04;0.0;0.0;0.0;0.0
  2.0599999E+00;  9.9999998E-03;  3.9999999E-02;715;0.0;0.0;0.0;1000.0;  4.0000001E-01;0.0;0;0.0;0.0;0.0;0;0.0;  1.0000000E+04;  0.0000000E+00;  0.0000000E+00;  1.0000000E+04;  0.0000000E+00;  1.0000000E+04;0.0;0.0;0.0;0.0
  2.0599999E+00;  9.9999998E-03;  5.9999999E-02;716;0.0;0.0;0.0;1000.0;  4.0000001E-01;0.0;0;0.0;0.0;0.0;0;0.0;  1.0000000E+04;  0.0000000E+00;  0.0000000E+00;  1.0000000E+04;  0.0000000E+00;  1.0000000E+04;0.0;0.0;0.0;0.0
  2.0599999E+00;  9.9999998E-03;  7.9999998E-02;717;0.0;0.0;0.0;1000.0;  4.0000001E-01;0.0;0;0.0;0.0;0.0;0;0.0;  1.0000000E+04;  0.0000000E+00;  0.0000000E+00;  1.0000000E+04;  0.0000000E+00;  1.0000000E+04;0.0;0.0;0.0;0.0
  2.0599999E+00;  9.9999998E-03;  1.0000000E-01;718;0.0;0.0;0.0;1000.0;  4.0000001E-01;0.0;0;0.0;0.0;0.0;0;0.0;  1.0000000E+04;  0.0000000E+00;  0.0000000E+00;  1.0000000E+04;  0.0000000E+00;  1.0000000E+04;0.0;0.0;0.0;0.0
  2.0599999E+00;  9.9999998E-03;  1.2000000E-01;719;0.0;0.0;0.0;1000.0;  4.0000001E-01;0.0;0;0.0;0.0;0.0;0;0.0;  1.0000000E+04;  0.0000000E+00;  0.0000000E+00;  1.0000000E+04;  0.0000000E+00;  1.0000000E+04;0.0;0.0;0.0;0.0
  2.0599999E+00;  9.9999998E-03;  1.4000000E-01;720;0.0;0.0;0.0;1000.0;  4.0000001E-01;0.0;0;0.0;0.0;0.0;0;0.0;  1.0000000E+04;  0.0000000E+00;  0.0000000E+00;  1.0000000E+04;  0.0000000E+00;  1.0000000E+04;0.0;0.0;0.0;0.0
  2.0599999E+00;  9.9999998E-03;  1.6000000E-01;721;0.0;0.0;0.0;1000.0;  4.0000001E-01;0.0;0;0.0;0.0;0.0;0;0.0;  1.0000000E+04;  0.0000000E+00;  0.0000000E+00;  1.0000000E+04;  0.0000000E+00;  1.0000000E+04;0.0;0.0;0.0;0.0
  2.0599999E+00;  9.9999998E-03;  1.8000001E-01;722;0.0;0.0;0.0;1000.0;  4.0000001E-01;0.0;0;0.0;0.0;0.0;0;0.0;  1.0000000E+04;  0.0000000E+00;  0.0000000E+00;  1.0000000E+04;  0.0000000E+00;  1.0000000E+04;0.0;0.0;0.0;0.0
  2.0599999E+00;  9.9999998E-03;  2.0000000E-01;723;0.0;0.0;0.0;1000.0;  4.0000001E-01;0.0;0;0.0;0.0;0.0;0;0.0;  1.0000000E+04;  0.0000000E+00;  0.0000000E+00;  1.0000000E+04;  0.0000000E+00;  1.0000000E+04;0.0;0.0;0.0;0.0
  2.0599999E+00;  9.9999998E-03;  2.2000000E-01;724;0.0;0.0;0.0;1000.0;  4.0000001E-01;0.0;0;0.0;0.0;0.0;0;0.0;  1.0000000E+04;  0.0000000E+00;  0.0000000E+00;  1.0000000E+04;  0.0000000E+00;  1.0000000E+04;0.0;0.0;0.0;0.0
  2.0599999E+00;  9.9999998E-03;  2.3999999E-01;725;0.0;0.0;0.0;1000.0;  4.0000001E-01;0.0;0;0.0;0.0;0.0;0;0.0;  1.0000000E+04;  0.0000000E+00;  0.0000000E+00;  1.0000000E+04;  0.0000000E+00;  1.0000000E+04;0.0;0.0;0.0;0.0
  2.0599999E+00;  9.9999998E-03;  2.5999999E-01;726;0.0;0.0;0.0;1000.0;  4.0000001E-01;0.0;0;0.0;0.0;0.0;0;0.0;  1.0000000E+04;  0.0000000E+00;  0.0000000E+00;  1.0000000E+04;  0.0000000E+00;  1.0000000E+04;0.0;0.0;0.0;0.0
  2.0599999E+00;  9.9999998E-03;  2.8000000E-01;727;0.0;0.0;0.0;1000.0;  4.0000001E-01;0.0;0;0.0;0.0;0.0;0;0.0;  1.0000000E+04;  0.0000000E+00;  0.0000000E+00;  1.0000000E+04;  0.0000000E+00;  1.0000000E+04;0.0;0.0;0.0;0.0
  2.0599999E+00;  9.9999998E-03;  3.0000001E-01;728;0.0;0.0;0.0;1000.0;  4.0000001E-01;0.0;0;0.0;0.0;0.0;0;0.0;  1.0000000E+04;  0.0000000E+00;  0.0000000E+00;  1.0000000E+04;  0.0000000E+00;  1.0000000E+04;0.0;0.0;0.0;0.0
  2.0599999E+00;  9.9999998E-03;  3.1999999E-01;729;0.0;0.0;0.0;1000.0;  4.0000001E-01;0.0;0;0.0;0.0;0.0;0;0.0;  1.0000000E+04;  0.0000000E+00;  0.0000000E+00;  1.0000000E+04;  0.0000000E+00;  1.0000000E+04;0.0;0.0;0.0;0.0
  2.0599999E+00;  9.9999998E-03;  3.4000000E-01;730;0.0;0.0;0.0;1000.0;  4.0000001E-01;0.0;0;0.0;0.0;0.0;0;0.0;  1.0000000E+04;  0.0000000E+00;  0.0000000E+00;  1.0000000E+04;  0.0000000E+00;  1.0000000E+04;0.0;0.0;0.0;0.0
  2.0599999E+00;  9.9999998E-03;  3.6000001E-01;731;0.0;0.0;0.0;1000.0;  4.0000001E-01;0.0;0;0.0;0.0;0.0;0;0.0;  1.0000000E+04;  0.0000000E+00;  0.0000000E+00;  1.0000000E+04;  0.0000000E+00;  1.0000000E+04;0.0;0.0;0.0;0.0
  2.0599999E+00;  9.9999998E-03;  3.8000000E-01;732;0.0;0.0;0.0;1000.0;  4.0000001E-01;0.0;0;0.0;0.0;0.0;0;0.0;  1.0000000E+04;  0.0000000E+00;  0.0000000E+00;  1.0000000E+04;  0.0000000E+00;  1.0000000E+04;0.0;0.0;0.0;0.0
  2.0799999E+00;  9.9999998E-03; -4.0000001E-01;733;0.0;0.0;0.0;1000.0;  4.0000001E-01;0.0;0;0.0;0.0;0.0;0;0.0;  1.0000000E+04;  0.0000000E+00;  0.0000000E+00;  1.0000000E+04;  0.0000000E+00;  1.0000000E+04;0.0;0.0;0.0;0.0
  2.0799999E+00;  9.9999998E-03; -3.8000000E-01;734;0.0;0.0;0.0;1000.0;  4.0000001E-01;0.0;0;0.0;0.0;0.0;0;0.0;  1.0000000E+04;  0.0000000E+00;  0.0000000E+00;  1.0000000E+04;  0.0000000E+00;  1.0000000E+04;0.0;0.0;0.0;0.0
  2.0799999E+00;  9.9999998E-03; -3.6000001E-01;735;0.0;0.0;0.0;1000.0;  4.0000001E-01;0.0;0;0.0;0.0;0.0;0;0.0;  1.0000000E+04;  0.0000000E+00;  0.0000000E+00;  1.0000000E+04;  0.0000000E+00;  1.0000000E+04;0.0;0.0;0.0;0.0
  2.0799999E+00;  9.9999998E-03; -3.4000000E-01;736;0.0;0.0;0.0;1000.0;  4.0000001E-01;0.0;0;0.0;0.0;0.0;0;0.0;  1.0000000E+04;  0.0000000E+00;  0.0000000E+00;  1.0000000E+04;  0.0000000E+00;  1.0000000E+04;0.0;0.0;0.0;0.0
  2.0799999E+00;  9.9999998E-03; -3.1999999E-01;737;0.0;0.0;0.0;1000.0;  4.0000001E-01;0.0;0;0.0;0.0;0.0;0;0.0;  1.0000000E+04;  0.0000000E+00;  0.0000000E+00;  1.0000000E+04;  0.0000000E+00;  1.0000000E+04;0.0;0.0;0.0;0.0
  2.0799999E+00;  9.9999998E-03; -3.0000001E-01;738;0.0;0.0;0.0;1000.0;  4.0000001E-01;0.0;0;0.0;0.0;0.0;0;0.0;  1.0000000E+04;  0.0000000E+00;  0.0000000E+00;  1.0000000E+04;  0.0000000E+00;  1.0000000E+04;0.0;0.0;0.0;0.0
  2.0799999E+00;  9.9999998E-03; -2.8000000E-01;739;0.0;0.0;0.0;1000.0;  4.0000001E-01;0.0;0;0.0;0.0;0.0;0;0.0;  1.0000000E+04;  0.0000000E+00;  0.0000000E+00;  1.0000000E+04;  0.0000000E+00;  1.0000000E+04;0.0;0.0;0.0;0.0
  2.0799999E+00;  9.9999998E-03; -2.5999999E-01;740;0.0;0.0;0.0;1000.0;  4.0000001E-01;0.0;0;0.0;0.0;0.0;0;0.0;  1.0000000E+04;  0.0000000E+00;  0.0000000E+00;  1.0000000E+04;  0.0000000E+00;  1.0000000E+04;0.0;0.0;0.0;0.0
  2.0799999E+00;  9.9999998E-03; -2.3999999E-01;741;0.0;0.0;0.0;1000.0;  4.0000001E-01;0.0;0;0.0;0.0;0.0;0;0.0;  1.0000000E+04;  0.0000000E+00;  0.0000000E+00;  1.0000000E+04;  0.0000000E+00;  1.0000000E+04;0.0;0.0;0.0;0.0
  2.0799999E+00;  9.9999998E-03; -2.2000000E-01;742;0.0;0.0;0.0;1000.0;  4.0000001E-01;0.0;0;0.0;0.0;0.0;0;0.0;  1.0000000E+04;  0.0000000E+00;  0.0000000E+00;  1.0000000E+04;  0.0000000E+00;  1.0000000E+04;0.0;0.0;0.0;0.0
  2.0799999E+00;  9.9999998E-03; -2.0000000E-01;743;0.0;0.0;0.0;1000.0;  4.0000001E-01;0.0;0;0.0;0.0;0.0;0;0.0;  1.0000000E+04;  0.0000000E+00;  0.0000000E+00;  1.0000000E+04;  0.0000000E+00;  1.0000000E+04;0.0;0.0;0.0;0.0
  2.0799999E+00;  9.9999998E-03; -1.8000001E-01;744;0.0;0.0;0.0;1000.0;  4.0000001E-01;0.0;0;0.0;0.0;0.0;0;0.0;  1.0000000E+04;  0.0000000E+00;  0.0000000E+00;  1.0000000E+04;  0.0000000E+00;  1.0000000E+04;0.0;0.0;0.0;0.0
  2.0799999E+00;  9.9999998E-03; -1.6000000E-01;745;0.0;0.0;0.0;1000.0;  4.0000001E-01;0.0;0;0.0;0.0;0.0;0;0.0;  1.0000000E+04;  0.0000000E+00;  0.0000000E+00;  1.0000000E+04;  0.0000000E+00;  1.0000000E+04;0.0;0.0;0.0;0.0
  2.0799999E+00;  9.9999998E-03; -1.4000000E-01;746;0.0;0.0;0.0;1000.0;  4.0000001E-01;0.0;0;0.0;0.0;0.0;0;0.0;  1.0000000E+04;  0.0000000E+00;  0.0000000E+00;  1.0000000E+04;  0.0000000E+00;  1.0000000E+04;0.0;0.0;0.0;0.0
  2.0799999E+00;  9.9999998E-03; -1.2000000E-01;747;0.0;0.0;0.0;1000.0;  4.0000001E-01;0.0;0;0.0;0.0;0.0;0;0.0;  1.0000000E+04;  0.0000000E+00;  0.0000000E+00;  1.0000000E+04;  0.0000000E+00;  1.0000000E+04;0.0;0.0;0.0;0.0
  2.0799999E+00;  9.9999998E-03; -1.0000000E-01;748;0.0;0.0;0.0;1000.0;  4.0000001E-01;0.0;0;0.0;0.0;0.0;0;0.0;  1.0000000E+04;  0.0000000E+00;  0.0000000E+00;  1.0000000E+04;  0.0000000E+00;  1.0000000E+04;0.0;0.0;0.0;0.0
  2.0799999E+00;  9.9999998E-03; -7.9999998E-02;749;0.0;0.0;0.0;1000.0;  4.0000001E-01;0.0;0;0.0;0.0;0.0;0;0.0;  1.0000000E+04;  0.0000000E+00;  0.0000000E+00;  1.0000000E+04;  0.0000000E+00;  1.0000000E+04;0.0;0.0;0.0;0.0
  2.0799999E+00;  9.9999998E-03; -5.9999999E-02;750;0.0;0.0;0.0;1000.0;  4.0000001E-01;0.0;0;0.0;0.0;0.0;0;0.0;  1.0000000E+04;  0.0000000E+00;  0.0000000E+00;  1.0000000E+04;  0.0000000E+00;  1.0000000E+04;0.0;0.0;0.0;0.0
  2.0799999E+00;  9.9999998E-03; -3.9999999E-02;751;0.0;0.0;0.0;1000.0;  4.0000001E-01;0.0;0;0.0;0.0;0.0;0;0.0;  1.0000000E+04;  0.0000000E+00;  0.0000000E+00;  1.0000000E+04;  0.0000000E+00;  1.0000000E+04;0.0;0.0;0.0;0.0
  2.0799999E+00;  9.9999998E-03; -2.0000000E-02;752;0.0;0.0;0.0;1000.0;  4.0000001E-01;0.0;0;0.0;0.0;0.0;0;0.0;  1.0000000E+04;  0.0000000E+00;  0.0000000E+00;  1.0000000E+04;  0.0000000E+00;  1.0000000E+04;0.0;0.0;0.0;0.0
  2.0799999E+00;  9.9999998E-03;  0.0000000E+00;753;0.0;0.0;0.0;1000.0;  4.0000001E-01;0.0;0;0.0;0.0;0.0;0;0.0;  1.0000000E+04;  0.0000000E+00;  0.0000000E+00;  1.0000000E+04;  0.0000000E+00;  1.0000000E+04;0.0;0.0;0.0;0.0
  2.0799999E+00;  9.9999998E-03;  2.0000000E-02;754;0.0;0.0;0.0;1000.0;  4.0000001E-01;0.0;0;0.0;0.0;0.0;0;0.0;  1.0000000E+04;  0.0000000E+00;  0.0000000E+00;  1.0000000E+04;  0.0000000E+00;  1.0000000E+04;0.0;0.0;0.0;0.0
  2.0799999E+00;  9.9999998E-03;  3.9999999E-02;755;0.0;0.0;0.0;1000.0;  4.0000001E-01;0.0;0;0.0;0.0;0.0;0;0.0;  1.0000000E+04;  0.0000000E+00;  0.0000000E+00;  1.0000000E+04;  0.0000000E+00;  1.0000000E+04;0.0;0.0;0.0;0.0
  2.0799999E+00;  9.9999998E-03;  5.9999999E-02;756;0.0;0.0;0.0;1000.0;  4.0000001E-01;0.0;0;0.0;0.0;0.0;0;0.0;  1.0000000E+04;  0.0000000E+00;  0.0000000E+00;  1.0000000E+04;  0.0000000E+00;  1.0000000E+04;0.0;0.0;0.0;0.0
  2.0799999E+00;  9.9999998E-03;  7.9999998E-02;757;0.0;0.0;0.0;1000.0;  4.0000001E-01;0.0;0;0.0;0.0;0.0;0;0.0;  1.0000000E+04;  0.0000000E+00;  0.0000000E+00;  1.0000000E+04;  0.0000000E+00;  1.0000000E+04;0.0;0.0;0.0;0.0
  2.0799999E+00;  9.9999998E-03;  1.0000000E-01;758;0.0;0.0;0.0;1000.0;  4.0000001E-01;0.0;0;0.0;0.0;0.0;0;0.0;  1.0000000E+04;  0.0000000E+00;  0.0000000E+00;  1.0000000E+04;  0.0000000E+00;  1.0000000E+04;0.0;0.0;0.0;0.0
  2.0799999E+00;  9.9999998E-03;  1.2000000E-01;759;0.0;0.0;0.0;1000.0;  4.0000001E-01;0.0;0;0.0;0.0;0.0;0;0.0;  1.0000000E+04;  0.0000000E+00;  0.0000000E+00;  1.0000000E+04;  0.0000000E+00;  1.0000000E+04;0.0;0.0;0.0;0.0
  2.0799999E+00;  9.9999998E-03;  1.4000000E-01;760;0.0;0.0;0.0;1000.0;  4.0000001E-01;0.0;0;0.0;0.0;0.0;0;0.0;  1.0000000E+04;  0.0000000E+00;  0.0000000E+00;  1.0000000E+04;  0.0000000E+00;  1.0000000E+04;0.0;0.0;0.0;0.0
  2.0799999E+00;  9.9999998E-03;  1.6000000E-01;761;0.0;0.0;0.0;1000.0;  4.0000001E-01;0.0;0;0.0;0.0;0.0;0;0.0;  1.0000000E+04;  0.0000000E+00;  0.0000000E+00;  1.0000000E+04;  0.0000000E+00;  1.0000000E+04;0.0;0.0;0.0;0.0
  2.0799999E+00;  9.9999998E-03;  1.8000001E-01;762;0.0;0.0;0.0;1000.0;  4.0000001E-01;0.0;0;0.0;0.0;0.0;0;0.0;  1.0000000E+04;  0.0000000E+00;  0.0000000E+00;  1.0000000E+04;  0.0000000E+00;  1.0000000E+04;0.0;0.0;0.0;0.0
  2.0799999E+00;  9.9999998E-03;  2.0000000E-01;763;0.0;0.0;0.0;1000.0;  4.0000001E-01;0.0;0;0.0;0.0;0.0;0;0.0;  1.0000000E+04;  0.0000000E+00;  0.0000000E+00;  1.0000000E+04;  0.0000000E+00;  1.0000000E+04;0.0;0.0;0.0;0.0
  2.0799999E+00;  9.9999998E-03;  2.2000000E-01;764;0.0;0.0;0.0;1000.0;  4.0000001E-01;0.0;0;0.0;0.0;0.0;0;0.0;  1.0000000E+04;  0.0000000E+00;  0.0000000E+00;  1.0000000E+04;  0.0000000E+00;  1.0000000E+04;0.0;0.0;0.0;0.0
  2.0799999E+00;  9.9999998E-03;  2.3999999E-01;765;0.0;0.0;0.0;1000.0;  4.0000001E-01;0.0;0;0.0;0.0;0.0;0;0.0;  1.0000000E+04;  0.0000000E+00;  0.0000000E+00;  1.0000000E+04;  0.0000000E+00;  1.0000000E+04;0.0;0.0;0.0;0.0
  2.0799999E+00;  9.9999998E-03;  2.5999999E-01;766;0.0;0.0;0.0;1000.0;  4.0000001E-01;0.0;0;0.0;0.0;0.0;0;0.0;  1.0000000E+04;  0.0000000E+00;  0.0000000E+00;  1.0000000E+04;  0.0000000E+00;  1.0000000E+04;0.0;0.0;0.0;0.0
  2.0799999E+00;  9.9999998E-03;  2.8000000E-01;767;0.0;0.0;0.0;1000.0;  4.0000001E-01;0.0;0;0.0;0.0;0.0;0;0.0;  1.0000000E+04;  0.0000000E+00;  0.0000000E+00;  1.0000000E+04;  0.0000000E+00;  1.0000000E+04;0.0;0.0;0.0;0.0
  2.0799999E+00;  9.9999998E-03;  3.0000001E-01;768;0.0;0.0;0.0;1000.0;  4.0000001E-01;0.0;0;0.0;0.0;0.0;0;0.0;  1.0000000E+04;  0.0000000E+00;  0.0000000E+00;  1.0000000E+04;  0.0000000E+00;  1.0000000E+04;0.0;0.0;0.0;0.0
  2.0799999E+00;  9.9999998E-03;  3.1999999E-01;769;0.0;0.0;0.0;1000.0;  4.0000001E-01;0.0;0;0.0;0.0;0.0;0;0.0;  1.0000000E+04;  0.0000000E+00;  0.0000000E+00;  1.0000000E+04;  0.0000000E+00;  1.0000000E+04;0.0;0.0;0.0;0.0
  2.0799999E+00;  9.9999998E-03;  3.4000000E-01;770;0.0;0.0;0.0;1000.0;  4.0000001E-01;0.0;0;0.0;0.0;0.0;0;0.0;  1.0000000E+04;  0.0000000E+00;  0.0000000E+00;  1.0000000E+04;  0.0000000E+00;  1.0000000E+04;0.0;0.0;0.0;0.0
  2.0799999E+00;  9.9999998E-03;  3.6000001E-01;771;0.0;0.0;0.0;1000.0;  4.0000001E-01;0.0;0;0.0;0.0;0.0;0;0.0;  1.0000000E+04;  0.0000000E+00;  0.0000000E+00;  1.0000000E+04;  0.0000000E+00;  1.0000000E+04;0.0;0.0;0.0;0.0
  2.0799999E+00;  9.9999998E-03;  3.8000000E-01;772;0.0;0.0;0.0;1000.0;  4.0000001E-01;0.0;0;0.0;0.0;0.0;0;0.0;  1.0000000E+04;  0.0000000E+00;  0.0000000E+00;  1.0000000E+04;  0.0000000E+00;  1.0000000E+04;0.0;0.0;0.0;0.0
  2.0799999E+00;  9.9999998E-03;  4.0000001E-01;773;0.0;0.0;0.0;1000.0;  4.0000001E-01;0.0;0;0.0;0.0;0.0;0;0.0;  1.0000000E+04;  0.0000000E+00;  0.0000000E+00;  1.0000000E+04;  0.0000000E+00;  1.0000000E+04;0.0;0.0;0.0;0.0
  2.0999999E+00;  9.9999998E-03; -4.0000001E-01;774;0.0;0.0;0.0;1000.0;  4.0000001E-01;0.0;0;0.0;0.0;0.0;0;0.0;  1.0000000E+04;  0.0000000E+00;  0.0000000E+00;  1.0000000E+04;  0.0000000E+00;  1.0000000E+04;0.0;0.0;0.0;0.0
  2.0999999E+00;  9.9999998E-03; -3.8000000E-01;775;0.0;0.0;0.0;1000.0;  4.0000001E-01;0.0;0;0.0;0.0;0.0;0;0.0;  1.0000000E+04;  0.0000000E+00;  0.0000000E+00;  1.0000000E+04;  0.0000000E+00;  1.0000000E+04;0.0;0.0;0.0;0.0
  2.0999999E+00;  9.9999998E-03; -3.6000001E-01;776;0.0;0.0;0.0;1000.0;  4.0000001E-01;0.0;0;0.0;0.0;0.0;0;0.0;  1.0000000E+04;  0.0000000E+00;  0.0000000E+00;  1.0000000E+04;  0.0000000E+00;  1.0000000E+04;0.0;0.0;0.0;0.0
  2.0999999E+00;  9.9999998E-03; -3.4000000E-01;777;0.0;0.0;0.0;1000.0;  4.0000001E-01;0.0;0;0.0;0.0;0.0;0;0.0;  1.0000000E+04;  0.0000000E+00;  0.0000000E+00;  1.0000000E+04;  0.0000000E+00;  1.0000000E+04;0.0;0.0;0.0;0.0
  2.0999999E+00;  9.9999998E-03; -3.1999999E-01;778;0.0;0.0;0.0;1000.0;  4.0000001E-01;0.0;0;0.0;0.0;0.0;0;0.0;  1.0000000E+04;  0.0000000E+00;  0.0000000E+00;  1.0000000E+04;  0.0000000E+00;  1.0000000E+04;0.0;0.0;0.0;0.0
  2.0999999E+00;  9.9999998E-03; -3.0000001E-01;779;0.0;0.0;0.0;1000.0;  4.0000001E-01;0.0;0;0.0;0.0;0.0;0;0.0;  1.0000000E+04;  0.0000000E+00;  0.0000000E+00;  1.0000000E+04;  0.0000000E+00;  1.0000000E+04;0.0;0.0;0.0;0.0
  2.0999999E+00;  9.9999998E-03; -2.8000000E-01;780;0.0;0.0;0.0;1000.0;  4.0000001E-01;0.0;0;0.0;0.0;0.0;0;0.0;  1.0000000E+04;  0.0000000E+00;  0.0000000E+00;  1.0000000E+04;  0.0000000E+00;  1.0000000E+04;0.0;0.0;0.0;0.0
  2.0999999E+00;  9.9999998E-03; -2.5999999E-01;781;0.0;0.0;0.0;1000.0;  4.0000001E-01;0.0;0;0.0;0.0;0.0;0;0.0;  1.0000000E+04;  0.0000000E+00;  0.0000000E+00;  1.0000000E+04;  0.0000000E+00;  1.0000000E+04;0.0;0.0;0.0;0.0
  2.0999999E+00;  9.9999998E-03; -2.3999999E-01;782;0.0;0.0;0.0;1000.0;  4.0000001E-01;0.0;0;0.0;0.0;0.0;0;0.0;  1.0000000E+04;  0.0000000E+00;  0.0000000E+00;  1.0000000E+04;  0.0000000E+00;  1.0000000E+04;0.0;0.0;0.0;0.0
  2.0999999E+00;  9.9999998E-03; -2.2000000E-01;783;0.0;0.0;0.0;1000.0;  4.0000001E-01;0.0;0;0.0;0.0;0.0;0;0.0;  1.0000000E+04;  0.0000000E+00;  0.0000000E+00;  1.0000000E+04;  0.0000000E+00;  1.0000000E+04;0.0;0.0;0.0;0.0
  2.0999999E+00;  9.9999998E-03; -2.0000000E-01;784;0.0;0.0;0.0;1000.0;  4.0000001E-01;0.0;0;0.0;0.0;0.0;0;0.0;  1.0000000E+04;  0.0000000E+00;  0.0000000E+00;  1.0000000E+04;  0.0000000E+00;  1.0000000E+04;0.0;0.0;0.0;0.0
  2.0999999E+00;  9.9999998E-03; -1.8000001E-01;785;0.0;0.0;0.0;1000.0;  4.0000001E-01;0.0;0;0.0;0.0;0.0;0;0.0;  1.0000000E+04;  0.0000000E+00;  0.0000000E+00;  1.0000000E+04;  0.0000000E+00;  1.0000000E+04;0.0;0.0;0.0;0.0
  2.0999999E+00;  9.9999998E-03; -1.6000000E-01;786;0.0;0.0;0.0;1000.0;  4.0000001E-01;0.0;0;0.0;0.0;0.0;0;0.0;  1.0000000E+04;  0.0000000E+00;  0.0000000E+00;  1.0000000E+04;  0.0000000E+00;  1.0000000E+04;0.0;0.0;0.0;0.0
  2.0999999E+00;  9.9999998E-03; -1.4000000E-01;787;0.0;0.0;0.0;1000.0;  4.0000001E-01;0.0;0;0.0;0.0;0.0;0;0.0;  1.0000000E+04;  0.0000000E+00;  0.0000000E+00;  1.0000000E+04;  0.0000000E+00;  1.0000000E+04;0.0;0.0;0.0;0.0
  2.0999999E+00;  9.9999998E-03; -1.2000000E-01;788;0.0;0.0;0.0;1000.0;  4.0000001E-01;0.0;0;0.0;0.0;0.0;0;0.0;  1.0000000E+04;  0.0000000E+00;  0.0000000E+00;  1.0000000E+04;  0.0000000E+00;  1.0000000E+04;0.0;0.0;0.0;0.0
  2.0999999E+00;  9.9999998E-03; -1.0000000E-01;789;0.0;0.0;0.0;1000.0;  4.0000001E-01;0.0;0;0.0;0.0;0.0;0;0.0;  1.0000000E+04;  0.0000000E+00;  0.0000000E+00;  1.0000000E+04;  0.0000000E+00;  1.0000000E+04;0.0;0.0;0.0;0.0
  2.0999999E+00;  9.9999998E-03; -7.9999998E-02;790;0.0;0.0;0.0;1000.0;  4.0000001E-01;0.0;0;0.0;0.0;0.0;0;0.0;  1.0000000E+04;  0.0000000E+00;  0.0000000E+00;  1.0000000E+04;  0.0000000E+00;  1.0000000E+04;0.0;0.0;0.0;0.0
  2.0999999E+00;  9.9999998E-03; -5.9999999E-02;791;0.0;0.0;0.0;1000.0;  4.0000001E-01;0.0;0;0.0;0.0;0.0;0;0.0;  1.0000000E+04;  0.0000000E+00;  0.0000000E+00;  1.0000000E+04;  0.0000000E+00;  1.0000000E+04;0.0;0.0;0.0;0.0
  2.0999999E+00;  9.9999998E-03; -3.9999999E-02;792;0.0;0.0;0.0;1000.0;  4.0000001E-01;0.0;0;0.0;0.0;0.0;0;0.0;  1.0000000E+04;  0.0000000E+00;  0.0000000E+00;  1.0000000E+04;  0.0000000E+00;  1.0000000E+04;0.0;0.0;0.0;0.0
  2.0999999E+00;  9.9999998E-03; -2.0000000E-02;793;0.0;0.0;0.0;1000.0;  4.0000001E-01;0.0;0;0.0;0.0;0.0;0;0.0;  1.0000000E+04;  0.0000000E+00;  0.0000000E+00;  1.0000000E+04;  0.0000000E+00;  1.0000000E+04;0.0;0.0;0.0;0.0
  2.0999999E+00;  9.9999998E-03;  0.0000000E+00;794;0.0;0.0;0.0;1000.0;  4.0000001E-01;0.0;0;0.0;0.0;0.0;0;0.0;  1.0000000E+04;  0.0000000E+00;  0.0000000E+00;  1.0000000E+04;  0.0000000E+00;  1.0000000E+04;0.0;0.0;0.0;0.0
  2.0999999E+00;  9.9999998E-03;  2.0000000E-02;795;0.0;0.0;0.0;1000.0;  4.0000001E-01;0.0;0;0.0;0.0;0.0;0;0.0;  1.0000000E+04;  0.0000000E+00;  0.0000000E+00;  1.0000000E+04;  0.0000000E+00;  1.0000000E+04;0.0;0.0;0.0;0.0
  2.0999999E+00;  9.9999998E-03;  3.9999999E-02;796;0.0;0.0;0.0;1000.0;  4.0000001E-01;0.0;0;0.0;0.0;0.0;0;0.0;  1.0000000E+04;  0.0000000E+00;  0.0000000E+00;  1.0000000E+04;  0.0000000E+00;  1.0000000E+04;0.0;0.0;0.0;0.0
  2.0999999E+00;  9.9999998E-03;  5.9999999E-02;797;0.0;0.0;0.0;1000.0;  4.0000001E-01;0.0;0;0.0;0.0;0.0;0;0.0;  1.0000000E+04;  0.0000000E+00;  0.0000000E+00;  1.0000000E+04;  0.0000000E+00;  1.0000000E+04;0.0;0.0;0.0;0.0
  2.0999999E+00;  9.9999998E-03;  7.9999998E-02;798;0.0;0.0;0.0;1000.0;  4.0000001E-01;0.0;0;0.0;0.0;0.0;0;0.0;  1.0000000E+04;  0.0000000E+00;  0.0000000E+00;  1.0000000E+04;  0.0000000E+00;  1.0000000E+04;0.0;0.0;0.0;0.0
  2.0999999E+00;  9.9999998E-03;  1.0000000E-01;799;0.0;0.0;0.0;1000.0;  4.0000001E-01;0.0;0;0.0;0.0;0.0;0;0.0;  1.0000000E+04;  0.0000000E+00;  0.0000000E+00;  1.0000000E+04;  0.0000000E+00;  1.0000000E+04;0.0;0.0;0.0;0.0
  2.0999999E+00;  9.9999998E-03;  1.2000000E-01;800;0.0;0.0;0.0;1000.0;  4.0000001E-01;0.0;0;0.0;0.0;0.0;0;0.0;  1.0000000E+04;  0.0000000E+00;  0.0000000E+00;  1.0000000E+04;  0.0000000E+00;  1.0000000E+04;0.0;0.0;0.0;0.0
  2.0999999E+00;  9.9999998E-03;  1.4000000E-01;801;0.0;0.0;0.0;1000.0;  4.0000001E-01;0.0;0;0.0;0.0;0.0;0;0.0;  1.0000000E+04;  0.0000000E+00;  0.0000000E+00;  1.0000000E+04;  0.0000000E+00;  1.0000000E+04;0.0;0.0;0.0;0.0
  2.0999999E+00;  9.9999998E-03;  1.6000000E-01;802;0.0;0.0;0.0;1000.0;  4.0000001E-01;0.0;0;0.0;0.0;0.0;0;0.0;  1.0000000E+04;  0.0000000E+00;  0.0000000E+00;  1.0000000E+04;  0.0000000E+00;  1.0000000E+04;0.0;0.0;0.0;0.0
  2.0999999E+00;  9.9999998E-03;  1.8000001E-01;803;0.0;0.0;0.0;1000.0;  4.0000001E-01;0.0;0;0.0;0.0;0.0;0;0.0;  1.0000000E+04;  0.0000000E+00;  0.0000000E+00;  1.0000000E+04;  0.0000000E+00;  1.0000000E+04;0.0;0.0;0.0;0.0
  2.0999999E+00;  9.9999998E-03;  2.0000000E-01;804;0.0;0.0;0.0;1000.0;  4.0000001E-01;0.0;0;0.0;0.0;0.0;0;0.0;  1.0000000E+04;  0.0000000E+00;  0.0000000E+00;  1.0000000E+04;  0.0000000E+00;  1.0000000E+04;0.0;0.0;0.0;0.0
  2.0999999E+00;  9.9999998E-03;  2.2000000E-01;805;0.0;0.0;0.0;1000.0;  4.0000001E-01;0.0;0;0.0;0.0;0.0;0;0.0;  1.0000000E+04;  0.0000000E+00;  0.0000000E+00;  1.0000000E+04;  0.0000000E+00;  1.0000000E+04;0.0;0.0;0.0;0.0
  2.0999999E+00;  9.9999998E-03;  2.3999999E-01;806;0.0;0.0;0.0;1000.0;  4.0000001E-01;0.0;0;0.0;0.0;0.0;0;0.0;  1.0000000E+04;  0.0000000E+00;  0.0000000E+00;  1.0000000E+04;  0.0000000E+00;  1.0000000E+04;0.0;0.0;0.0;0.0
  2.0999999E+00;  9.9999998E-03;  2.5999999E-01;807;0.0;0.0;0.0;1000.0;  4.0000001E-01;0.0;0;0.0;0.0;0.0;0;0.0;  1.0000000E+04;  0.0000000E+00;  0.0000000E+00;  1.0000000E+04;  0.0000000E+00;  1.0000000E+04;0.0;0.0;0.0;0.0
  2.0999999E+00;  9.9999998E-03;  2.8000000E-01;808;0.0;0.0;0.0;1000.0;  4.0000001E-01;0.0;0;0.0;0.0;0.0;0;0.0;  1.0000000E+04;  0.0000000E+00;  0.0000000E+00;  1.0000000E+04;  0.0000000E+00;  1.0000000E+04;0.0;0.0;0.0;0.0
  2.0999999E+00;  9.9999998E-03;  3.0000001E-01;809;0.0;0.0;0.0;1000.0;  4.0000001E-01;0.0;0;0.0;0.0;0.0;0;0.0;  1.0000000E+04;  0.0000000E+00;  0.0000000E+00;  1.0000000E+04;  0.0000000E+00;  1.0000000E+04;0.0;0.0;0.0;0.0
  2.0999999E+00;  9.9999998E-03;  3.1999999E-01;810;0.0;0.0;0.0;1000.0;  4.0000001E-01;0.0;0;0.0;0.0;0.0;0;0.0;  1.0000000E+04;  0.0000000E+00;  0.0000000E+00;  1.0000000E+04;  0.0000000E+00;  1.0000000E+04;0.0;0.0;0.0;0.0
  2.0999999E+00;  9.9999998E-03;  3.4000000E-01;811;0.0;0.0;0.0;1000.0;  4.0000001E-01;0.0;0;0.0;0.0;0.0;0;0.0;  1.0000000E+04;  0.0000000E+00;  0.0000000E+00;  1.0000000E+04;  0.0000000E+00;  1.0000000E+04;0.0;0.0;0.0;0.0
  2.0999999E+00;  9.9999998E-03;  3.6000001E-01;812;0.0;0.0;0.0;1000.0;  4.0000001E-01;0.0;0;0.0;0.0;0.0;0;0.0;  1.0000000E+04;  0.0000000E+00;  0.0000000E+00;  1.0000000E+04;  0.0000000E+00;  1.0000000E+04;0.0;0.0;0.0;0.0
  2.0999999E+00;  9.9999998E-03;  3.8000000E-01;813;0.0;0.0;0.0;1000.0;  4.0000001E-01;0.0;0;0.0;0.0;0.0;0;0.0;  1.0000000E+04;  0.0000000E+00;  0.0000000E+00;  1.0000000E+04;  0.0000000E+00;  1.0000000E+04;0.0;0.0;0.0;0.0
  2.0999999E+00;  9.9999998E-03;  4.0000001E-01;814;0.0;0.0;0.0;1000.0;  4.0000001E-01;0.0;0;0.0;0.0;0.0;0;0.0;  1.0000000E+04;  0.0000000E+00;  0.0000000E+00;  1.0000000E+04;  0.0000000E+00;  1.0000000E+04;0.0;0.0;0.0;0.0
  2.1199999E+00;  9.9999998E-03; -4.1999999E-01;815;0.0;0.0;0.0;1000.0;  4.0000001E-01;0.0;0;0.0;0.0;0.0;0;0.0;  1.0000000E+04;  0.0000000E+00;  0.0000000E+00;  1.0000000E+04;  0.0000000E+00;  1.0000000E+04;0.0;0.0;0.0;0.0
  2.1199999E+00;  9.9999998E-03; -4.0000001E-01;816;0.0;0.0;0.0;1000.0;  4.0000001E-01;0.0;0;0.0;0.0;0.0;0;0.0;  1.0000000E+04;  0.0000000E+00;  0.0000000E+00;  1.0000000E+04;  0.0000000E+00;  1.0000000E+04;0.0;0.0;0.0;0.0
  2.1199999E+00;  9.9999998E-03; -3.8000000E-01;817;0.0;0.0;0.0;1000.0;  4.0000001E-01;0.0;0;0.0;0.0;0.0;0;0.0;  1.0000000E+04;  0.0000000E+00;  0.0000000E+00;  1.0000000E+04;  0.0000000E+00;  1.0000000E+04;0.0;0.0;0.0;0.0
  2.1199999E+00;  9.9999998E-03; -3.6000001E-01;818;0.0;0.0;0.0;1000.0;  4.0000001E-01;0.0;0;0.0;0.0;0.0;0;0.0;  1.0000000E+04;  0.0000000E+00;  0.0000000E+00;  1.0000000E+04;  0.0000000E+00;  1.0000000E+04;0.0;0.0;0.0;0.0
  2.1199999E+00;  9.9999998E-03; -3.4000000E-01;819;0.0;0.0;0.0;1000.0;  4.0000001E-01;0.0;0;0.0;0.0;0.0;0;0.0;  1.0000000E+04;  0.0000000E+00;  0.0000000E+00;  1.0000000E+04;  0.0000000E+00;  1.0000000E+04;0.0;0.0;0.0;0.0
  2.1199999E+00;  9.9999998E-03; -3.1999999E-01;820;0.0;0.0;0.0;1000.0;  4.0000001E-01;0.0;0;0.0;0.0;0.0;0;0.0;  1.0000000E+04;  0.0000000E+00;  0.0000000E+00;  1.0000000E+04;  0.0000000E+00;  1.0000000E+04;0.0;0.0;0.0;0.0
  2.1199999E+00;  9.9999998E-03; -3.0000001E-01;821;0.0;0.0;0.0;1000.0;  4.0000001E-01;0.0;0;0.0;0.0;0.0;0;0.0;  1.0000000E+04;  0.0000000E+00;  0.0000000E+00;  1.0000000E+04;  0.0000000E+00;  1.0000000E+04;0.0;0.0;0.0;0.0
  2.1199999E+00;  9.9999998E-03; -2.8000000E-01;822;0.0;0.0;0.0;1000.0;  4.0000001E-01;0.0;0;0.0;0.0;0.0;0;0.0;  1.0000000E+04;  0.0000000E+00;  0.0000000E+00;  1.0000000E+04;  0.0000000E+00;  1.0000000E+04;0.0;0.0;0.0;0.0
  2.1199999E+00;  9.9999998E-03; -2.5999999E-01;823;0.0;0.0;0.0;1000.0;  4.0000001E-01;0.0;0;0.0;0.0;0.0;0;0.0;  1.0000000E+04;  0.0000000E+00;  0.0000000E+00;  1.0000000E+04;  0.0000000E+00;  1.0000000E+04;0.0;0.0;0.0;0.0
  2.1199999E+00;  9.9999998E-03; -2.3999999E-01;824;0.0;0.0;0.0;1000.0;  4.0000001E-01;0.0;0;0.0;0.0;0.0;0;0.0;  1.0000000E+04;  0.0000000E+00;  0.0000000E+00;  1.0000000E+04;  0.0000000E+00;  1.0000000E+04;0.0;0.0;0.0;0.0
  2.1199999E+00;  9.9999998E-03; -2.2000000E-01;825;0.0;0.0;0.0;1000.0;  4.0000001E-01;0.0;0;0.0;0.0;0.0;0;0.0;  1.0000000E+04;  0.0000000E+00;  0.0000000E+00;  1.0000000E+04;  0.0000000E+00;  1.0000000E+04;0.0;0.0;0.0;0.0
  2.1199999E+00;  9.9999998E-03; -2.0000000E-01;826;0.0;0.0;0.0;1000.0;  4.0000001E-01;0.0;0;0.0;0.0;0.0;0;0.0;  1.0000000E+04;  0.0000000E+00;  0.0000000E+00;  1.0000000E+04;  0.0000000E+00;  1.0000000E+04;0.0;0.0;0.0;0.0
  2.1199999E+00;  9.9999998E-03; -1.8000001E-01;827;0.0;0.0;0.0;1000.0;  4.0000001E-01;0.0;0;0.0;0.0;0.0;0;0.0;  1.0000000E+04;  0.0000000E+00;  0.0000000E+00;  1.0000000E+04;  0.0000000E+00;  1.0000000E+04;0.0;0.0;0.0;0.0
  2.1199999E+00;  9.9999998E-03; -1.6000000E-01;828;0.0;0.0;0.0;1000.0;  4.0000001E-01;0.0;0;0.0;0.0;0.0;0;0.0;  1.0000000E+04;  0.0000000E+00;  0.0000000E+00;  1.0000000E+04;  0.0000000E+00;  1.0000000E+04;0.0;0.0;0.0;0.0
  2.1199999E+00;  9.9999998E-03; -1.4000000E-01;829;0.0;0.0;0.0;1000.0;  4.0000001E-01;0.0;0;0.0;0.0;0.0;0;0.0;  1.0000000E+04;  0.0000000E+00;  0.0000000E+00;  1.0000000E+04;  0.0000000E+00;  1.0000000E+04;0.0;0.0;0.0;0.0
  2.1199999E+00;  9.9999998E-03; -1.2000000E-01;830;0.0;0.0;0.0;1000.0;  4.0000001E-01;0.0;0;0.0;0.0;0.0;0;0.0;  1.0000000E+04;  0.0000000E+00;  0.0000000E+00;  1.0000000E+04;  0.0000000E+00;  1.0000000E+04;0.0;0.0;0.0;0.0
  2.1199999E+00;  9.9999998E-03; -1.0000000E-01;831;0.0;0.0;0.0;1000.0;  4.0000001E-01;0.0;0;0.0;0.0;0.0;0;0.0;  1.0000000E+04;  0.0000000E+00;  0.0000000E+00;  1.0000000E+04;  0.0000000E+00;  1.0000000E+04;0.0;0.0;0.0;0.0
  2.1199999E+00;  9.9999998E-03; -7.9999998E-02;832;0.0;0.0;0.0;1000.0;  4.0000001E-01;0.0;0;0.0;0.0;0.0;0;0.0;  1.0000000E+04;  0.0000000E+00;  0.0000000E+00;  1.0000000E+04;  0.0000000E+00;  1.0000000E+04;0.0;0.0;0.0;0.0
  2.1199999E+00;  9.9999998E-03; -5.9999999E-02;833;0.0;0.0;0.0;1000.0;  4.0000001E-01;0.0;0;0.0;0.0;0.0;0;0.0;  1.0000000E+04;  0.0000000E+00;  0.0000000E+00;  1.0000000E+04;  0.0000000E+00;  1.0000000E+04;0.0;0.0;0.0;0.0
  2.1199999E+00;  9.9999998E-03; -3.9999999E-02;834;0.0;0.0;0.0;1000.0;  4.0000001E-01;0.0;0;0.0;0.0;0.0;0;0.0;  1.0000000E+04;  0.0000000E+00;  0.0000000E+00;  1.0000000E+04;  0.0000000E+00;  1.0000000E+04;0.0;0.0;0.0;0.0
  2.1199999E+00;  9.9999998E-03; -2.0000000E-02;835;0.0;0.0;0.0;1000.0;  4.0000001E-01;0.0;0;0.0;0.0;0.0;0;0.0;  1.0000000E+04;  0.0000000E+00;  0.0000000E+00;  1.0000000E+04;  0.0000000E+00;  1.0000000E+04;0.0;0.0;0.0;0.0
  2.1199999E+00;  9.9999998E-03;  0.0000000E+00;836;0.0;0.0;0.0;1000.0;  4.0000001E-01;0.0;0;0.0;0.0;0.0;0;0.0;  1.0000000E+04;  0.0000000E+00;  0.0000000E+00;  1.0000000E+04;  0.0000000E+00;  1.0000000E+04;0.0;0.0;0.0;0.0
  2.1199999E+00;  9.9999998E-03;  2.0000000E-02;837;0.0;0.0;0.0;1000.0;  4.0000001E-01;0.0;0;0.0;0.0;0.0;0;0.0;  1.0000000E+04;  0.0000000E+00;  0.0000000E+00;  1.0000000E+04;  0.0000000E+00;  1.0000000E+04;0.0;0.0;0.0;0.0
  2.1199999E+00;  9.9999998E-03;  3.9999999E-02;838;0.0;0.0;0.0;1000.0;  4.0000001E-01;0.0;0;0.0;0.0;0.0;0;0.0;  1.0000000E+04;  0.0000000E+00;  0.0000000E+00;  1.0000000E+04;  0.0000000E+00;  1.0000000E+04;0.0;0.0;0.0;0.0
  2.1199999E+00;  9.9999998E-03;  5.9999999E-02;839;0.0;0.0;0.0;1000.0;  4.0000001E-01;0.0;0;0.0;0.0;0.0;0;0.0;  1.0000000E+04;  0.0000000E+00;  0.0000000E+00;  1.0000000E+04;  0.0000000E+00;  1.0000000E+04;0.0;0.0;0.0;0.0
  2.1199999E+00;  9.9999998E-03;  7.9999998E-02;840;0.0;0.0;0.0;1000.0;  4.0000001E-01;0.0;0;0.0;0.0;0.0;0;0.0;  1.0000000E+04;  0.0000000E+00;  0.0000000E+00;  1.0000000E+04;  0.0000000E+00;  1.0000000E+04;0.0;0.0;0.0;0.0
  2.1199999E+00;  9.9999998E-03;  1.0000000E-01;841;0.0;0.0;0.0;1000.0;  4.0000001E-01;0.0;0;0.0;0.0;0.0;0;0.0;  1.0000000E+04;  0.0000000E+00;  0.0000000E+00;  1.0000000E+04;  0.0000000E+00;  1.0000000E+04;0.0;0.0;0.0;0.0
  2.1199999E+00;  9.9999998E-03;  1.2000000E-01;842;0.0;0.0;0.0;1000.0;  4.0000001E-01;0.0;0;0.0;0.0;0.0;0;0.0;  1.0000000E+04;  0.0000000E+00;  0.0000000E+00;  1.0000000E+04;  0.0000000E+00;  1.0000000E+04;0.0;0.0;0.0;0.0
  2.1199999E+00;  9.9999998E-03;  1.4000000E-01;843;0.0;0.0;0.0;1000.0;  4.0000001E-01;0.0;0;0.0;0.0;0.0;0;0.0;  1.0000000E+04;  0.0000000E+00;  0.0000000E+00;  1.0000000E+04;  0.0000000E+00;  1.0000000E+04;0.0;0.0;0.0;0.0
  2.1199999E+00;  9.9999998E-03;  1.6000000E-01;844;0.0;0.0;0.0;1000.0;  4.0000001E-01;0.0;0;0.0;0.0;0.0;0;0.0;  1.0000000E+04;  0.0000000E+00;  0.0000000E+00;  1.0000000E+04;  0.0000000E+00;  1.0000000E+04;0.0;0.0;0.0;0.0
  2.1199999E+00;  9.9999998E-03;  1.8000001E-01;845;0.0;0.0;0.0;1000.0;  4.0000001E-01;0.0;0;0.0;0.0;0.0;0;0.0;  1.0000000E+04;  0.0000000E+00;  0.0000000E+00;  1.0000000E+04;  0.0000000E+00;  1.0000000E+04;0.0;0.0;0.0;0.0
  2.1199999E+00;  9.9999998E-03;  2.0000000E-01;846;0.0;0.0;0.0;1000.0;  4.0000001E-01;0.0;0;0.0;0.0;0.0;0;0.0;  1.0000000E+04;  0.0000000E+00;  0.0000000E+00;  1.0000000E+04;  0.0000000E+00;  1.0000000E+04;0.0;0.0;0.0;0.0
  2.1199999E+00;  9.9999998E-03;  2.2000000E-01;847;0.0;0.0;0.0;1000.0;  4.0000001E-01;0.0;0;0.0;0.0;0.0;0;0.0;  1.0000000E+04;  0.0000000E+00;  0.0000000E+00;  1.0000000E+04;  0.0000000E+00;  1.0000000E+04;0.0;0.0;0.0;0.0
  2.1199999E+00;  9.9999998E-03;  2.3999999E-01;848;0.0;0.0;0.0;1000.0;  4.0000001E-01;0.0;0;0.0;0.0;0.0;0;0.0;  1.0000000E+04;  0.0000000E+00;  0.0000000E+00;  1.0000000E+04;  0.0000000E+00;  1.0000000E+04;0.0;0.0;0.0;0.0
  2.1199999E+00;  9.9999998E-03;  2.5999999E-01;849;0.0;0.0;0.0;1000.0;  4.0000001E-01;0.0;0;0.0;0.0;0.0;0;0.0;  1.0000000E+04;  0.0000000E+00;  0.0000000E+00;  1.0000000E+04;  0.0000000E+00;  1.0000000E+04;0.0;0.0;0.0;0.0
  2.1199999E+00;  9.9999998E-03;  2.8000000E-01;850;0.0;0.0;0.0;1000.0;  4.0000001E-01;0.0;0;0.0;0.0;0.0;0;0.0;  1.0000000E+04;  0.0000000E+00;  0.0000000E+00;  1.0000000E+04;  0.0000000E+00;  1.0000000E+04;0.0;0.0;0.0;0.0
  2.1199999E+00;  9.9999998E-03;  3.0000001E-01;851;0.0;0.0;0.0;1000.0;  4.0000001E-01;0.0;0;0.0;0.0;0.0;0;0.0;  1.0000000E+04;  0.0000000E+00;  0.0000000E+00;  1.0000000E+04;  0.0000000E+00;  1.0000000E+04;0.0;0.0;0.0;0.0
  2.1199999E+00;  9.9999998E-03;  3.1999999E-01;852;0.0;0.0;0.0;1000.0;  4.0000001E-01;0.0;0;0.0;0.0;0.0;0;0.0;  1.0000000E+04;  0.0000000E+00;  0.0000000E+00;  1.0000000E+04;  0.0000000E+00;  1.0000000E+04;0.0;0.0;0.0;0.0
  2.1199999E+00;  9.9999998E-03;  3.4000000E-01;853;0.0;0.0;0.0;1000.0;  4.0000001E-01;0.0;0;0.0;0.0;0.0;0;0.0;  1.0000000E+04;  0.0000000E+00;  0.0000000E+00;  1.0000000E+04;  0.0000000E+00;  1.0000000E+04;0.0;0.0;0.0;0.0
  2.1199999E+00;  9.9999998E-03;  3.6000001E-01;854;0.0;0.0;0.0;1000.0;  4.0000001E-01;0.0;0;0.0;0.0;0.0;0;0.0;  1.0000000E+04;  0.0000000E+00;  0.0000000E+00;  1.0000000E+04;  0.0000000E+00;  1.0000000E+04;0.0;0.0;0.0;0.0
  2.1199999E+00;  9.9999998E-03;  3.8000000E-01;855;0.0;0.0;0.0;1000.0;  4.0000001E-01;0.0;0;0.0;0.0;0.0;0;0.0;  1.0000000E+04;  0.0000000E+00;  0.0000000E+00;  1.0000000E+04;  0.0000000E+00;  1.0000000E+04;0.0;0.0;0.0;0.0
  2.1199999E+00;  9.9999998E-03;  4.0000001E-01;856;0.0;0.0;0.0;1000.0;  4.0000001E-01;0.0;0;0.0;0.0;0.0;0;0.0;  1.0000000E+04;  0.0000000E+00;  0.0000000E+00;  1.0000000E+04;  0.0000000E+00;  1.0000000E+04;0.0;0.0;0.0;0.0
  2.1400001E+00;  9.9999998E-03; -3.8000000E-01;857;0.0;0.0;0.0;1000.0;  4.0000001E-01;0.0;0;0.0;0.0;0.0;0;0.0;  1.0000000E+04;  0.0000000E+00;  0.0000000E+00;  1.0000000E+04;  0.0000000E+00;  1.0000000E+04;0.0;0.0;0.0;0.0
  2.1400001E+00;  9.9999998E-03; -3.6000001E-01;858;0.0;0.0;0.0;1000.0;  4.0000001E-01;0.0;0;0.0;0.0;0.0;0;0.0;  1.0000000E+04;  0.0000000E+00;  0.0000000E+00;  1.0000000E+04;  0.0000000E+00;  1.0000000E+04;0.0;0.0;0.0;0.0
  2.1400001E+00;  9.9999998E-03; -3.4000000E-01;859;0.0;0.0;0.0;1000.0;  4.0000001E-01;0.0;0;0.0;0.0;0.0;0;0.0;  1.0000000E+04;  0.0000000E+00;  0.0000000E+00;  1.0000000E+04;  0.0000000E+00;  1.0000000E+04;0.0;0.0;0.0;0.0
  2.1400001E+00;  9.9999998E-03; -3.1999999E-01;860;0.0;0.0;0.0;1000.0;  4.0000001E-01;0.0;0;0.0;0.0;0.0;0;0.0;  1.0000000E+04;  0.0000000E+00;  0.0000000E+00;  1.0000000E+04;  0.0000000E+00;  1.0000000E+04;0.0;0.0;0.0;0.0
  2.1400001E+00;  9.9999998E-03; -3.0000001E-01;861;0.0;0.0;0.0;1000.0;  4.0000001E-01;0.0;0;0.0;0.0;0.0;0;0.0;  1.0000000E+04;  0.0000000E+00;  0.0000000E+00;  1.0000000E+04;  0.0000000E+00;  1.0000000E+04;0.0;0.0;0.0;0.0
  2.1400001E+00;  9.9999998E-03; -2.8000000E-01;862;0.0;0.0;0.0;1000.0;  4.0000001E-01;0.0;0;0.0;0.0;0.0;0;0.0;  1.0000000E+04;  0.0000000E+00;  0.0000000E+00;  1.0000000E+04;  0.0000000E+00;  1.0000000E+04;0.0;0.0;0.0;0.0
  2.1400001E+00;  9.9999998E-03; -2.5999999E-01;863;0.0;0.0;0.0;1000.0;  4.0000001E-01;0.0;0;0.0;0.0;0.0;0;0.0;  1.0000000E+04;  0.0000000E+00;  0.0000000E+00;  1.0000000E+04;  0.0000000E+00;  1.0000000E+04;0.0;0.0;0.0;0.0
  2.1400001E+00;  9.9999998E-03; -2.3999999E-01;864;0.0;0.0;0.0;1000.0;  4.0000001E-01;0.0;0;0.0;0.0;0.0;0;0.0;  1.0000000E+04;  0.0000000E+00;  0.0000000E+00;  1.0000000E+04;  0.0000000E+00;  1.0000000E+04;0.0;0.0;0.0;0.0
  2.1400001E+00;  9.9999998E-03; -2.2000000E-01;865;0.0;0.0;0.0;1000.0;  4.0000001E-01;0.0;0;0.0;0.0;0.0;0;0.0;  1.0000000E+04;  0.0000000E+00;  0.0000000E+00;  1.0000000E+04;  0.0000000E+00;  1.0000000E+04;0.0;0.0;0.0;0.0
  2.1400001E+00;  9.9999998E-03; -2.0000000E-01;866;0.0;0.0;0.0;1000.0;  4.0000001E-01;0.0;0;0.0;0.0;0.0;0;0.0;  1.0000000E+04;  0.0000000E+00;  0.0000000E+00;  1.0000000E+04;  0.0000000E+00;  1.0000000E+04;0.0;0.0;0.0;0.0
  2.1400001E+00;  9.9999998E-03; -1.8000001E-01;867;0.0;0.0;0.0;1000.0;  4.0000001E-01;0.0;0;0.0;0.0;0.0;0;0.0;  1.0000000E+04;  0.0000000E+00;  0.0000000E+00;  1.0000000E+04;  0.0000000E+00;  1.0000000E+04;0.0;0.0;0.0;0.0
  2.1400001E+00;  9.9999998E-03; -1.6000000E-01;868;0.0;0.0;0.0;1000.0;  4.0000001E-01;0.0;0;0.0;0.0;0.0;0;0.0;  1.0000000E+04;  0.0000000E+00;  0.0000000E+00;  1.0000000E+04;  0.0000000E+00;  1.0000000E+04;0.0;0.0;0.0;0.0
  2.1400001E+00;  9.9999998E-03; -1.4000000E-01;869;0.0;0.0;0.0;1000.0;  4.0000001E-01;0.0;0;0.0;0.0;0.0;0;0.0;  1.0000000E+04;  0.0000000E+00;  0.0000000E+00;  1.0000000E+04;  0.0000000E+00;  1.0000000E+04;0.0;0.0;0.0;0.0
  2.1400001E+00;  9.9999998E-03; -1.2000000E-01;870;0.0;0.0;0.0;1000.0;  4.0000001E-01;0.0;0;0.0;0.0;0.0;0;0.0;  1.0000000E+04;  0.0000000E+00;  0.0000000E+00;  1.0000000E+04;  0.0000000E+00;  1.0000000E+04;0.0;0.0;0.0;0.0
  2.1400001E+00;  9.9999998E-03; -1.0000000E-01;871;0.0;0.0;0.0;1000.0;  4.0000001E-01;0.0;0;0.0;0.0;0.0;0;0.0;  1.0000000E+04;  0.0000000E+00;  0.0000000E+00;  1.0000000E+04;  0.0000000E+00;  1.0000000E+04;0.0;0.0;0.0;0.0
  2.1400001E+00;  9.9999998E-03; -7.9999998E-02;872;0.0;0.0;0.0;1000.0;  4.0000001E-01;0.0;0;0.0;0.0;0.0;0;0.0;  1.0000000E+04;  0.0000000E+00;  0.0000000E+00;  1.0000000E+04;  0.0000000E+00;  1.0000000E+04;0.0;0.0;0.0;0.0
  2.1400001E+00;  9.9999998E-03; -5.9999999E-02;873;0.0;0.0;0.0;1000.0;  4.0000001E-01;0.0;0;0.0;0.0;0.0;0;0.0;  1.0000000E+04;  0.0000000E+00;  0.0000000E+00;  1.0000000E+04;  0.0000000E+00;  1.0000000E+04;0.0;0.0;0.0;0.0
  2.1400001E+00;  9.9999998E-03; -3.9999999E-02;874;0.0;0.0;0.0;1000.0;  4.0000001E-01;0.0;0;0.0;0.0;0.0;0;0.0;  1.0000000E+04;  0.0000000E+00;  0.0000000E+00;  1.0000000E+04;  0.0000000E+00;  1.0000000E+04;0.0;0.0;0.0;0.0
  2.1400001E+00;  9.9999998E-03; -2.0000000E-02;875;0.0;0.0;0.0;1000.0;  4.0000001E-01;0.0;0;0.0;0.0;0.0;0;0.0;  1.0000000E+04;  0.0000000E+00;  0.0000000E+00;  1.0000000E+04;  0.0000000E+00;  1.0000000E+04;0.0;0.0;0.0;0.0
  2.1400001E+00;  9.9999998E-03;  0.0000000E+00;876;0.0;0.0;0.0;1000.0;  4.0000001E-01;0.0;0;0.0;0.0;0.0;0;0.0;  1.0000000E+04;  0.0000000E+00;  0.0000000E+00;  1.0000000E+04;  0.0000000E+00;  1.0000000E+04;0.0;0.0;0.0;0.0
  2.1400001E+00;  9.9999998E-03;  2.0000000E-02;877;0.0;0.0;0.0;1000.0;  4.0000001E-01;0.0;0;0.0;0.0;0.0;0;0.0;  1.0000000E+04;  0.0000000E+00;  0.0000000E+00;  1.0000000E+04;  0.0000000E+00;  1.0000000E+04;0.0;0.0;0.0;0.0
  2.1400001E+00;  9.9999998E-03;  3.9999999E-02;878;0.0;0.0;0.0;1000.0;  4.0000001E-01;0.0;0;0.0;0.0;0.0;0;0.0;  1.0000000E+04;  0.0000000E+00;  0.0000000E+00;  1.0000000E+04;  0.0000000E+00;  1.0000000E+04;0.0;0.0;0.0;0.0
  2.1400001E+00;  9.9999998E-03;  5.9999999E-02;879;0.0;0.0;0.0;1000.0;  4.0000001E-01;0.0;0;0.0;0.0;0.0;0;0.0;  1.0000000E+04;  0.0000000E+00;  0.0000000E+00;  1.0000000E+04;  0.0000000E+00;  1.0000000E+04;0.0;0.0;0.0;0.0
  2.1400001E+00;  9.9999998E-03;  7.9999998E-02;880;0.0;0.0;0.0;1000.0;  4.0000001E-01;0.0;0;0.0;0.0;0.0;0;0.0;  1.0000000E+04;  0.0000000E+00;  0.0000000E+00;  1.0000000E+04;  0.0000000E+00;  1.0000000E+04;0.0;0.0;0.0;0.0
  2.1400001E+00;  9.9999998E-03;  1.0000000E-01;881;0.0;0.0;0.0;1000.0;  4.0000001E-01;0.0;0;0.0;0.0;0.0;0;0.0;  1.0000000E+04;  0.0000000E+00;  0.0000000E+00;  1.0000000E+04;  0.0000000E+00;  1.0000000E+04;0.0;0.0;0.0;0.0
  2.1400001E+00;  9.9999998E-03;  1.2000000E-01;882;0.0;0.0;0.0;1000.0;  4.0000001E-01;0.0;0;0.0;0.0;0.0;0;0.0;  1.0000000E+04;  0.0000000E+00;  0.0000000E+00;  1.0000000E+04;  0.0000000E+00;  1.0000000E+04;0.0;0.0;0.0;0.0
  2.1400001E+00;  9.9999998E-03;  1.4000000E-01;883;0.0;0.0;0.0;1000.0;  4.0000001E-01;0.0;0;0.0;0.0;0.0;0;0.0;  1.0000000E+04;  0.0000000E+00;  0.0000000E+00;  1.0000000E+04;  0.0000000E+00;  1.0000000E+04;0.0;0.0;0.0;0.0
  2.1400001E+00;  9.9999998E-03;  1.6000000E-01;884;0.0;0.0;0.0;1000.0;  4.0000001E-01;0.0;0;0.0;0.0;0.0;0;0.0;  1.0000000E+04;  0.0000000E+00;  0.0000000E+00;  1.0000000E+04;  0.0000000E+00;  1.0000000E+04;0.0;0.0;0.0;0.0
  2.1400001E+00;  9.9999998E-03;  1.8000001E-01;885;0.0;0.0;0.0;1000.0;  4.0000001E-01;0.0;0;0.0;0.0;0.0;0;0.0;  1.0000000E+04;  0.0000000E+00;  0.0000000E+00;  1.0000000E+04;  0.0000000E+00;  1.0000000E+04;0.0;0.0;0.0;0.0
  2.1400001E+00;  9.9999998E-03;  2.0000000E-01;886;0.0;0.0;0.0;1000.0;  4.0000001E-01;0.0;0;0.0;0.0;0.0;0;0.0;  1.0000000E+04;  0.0000000E+00;  0.0000000E+00;  1.0000000E+04;  0.0000000E+00;  1.0000000E+04;0.0;0.0;0.0;0.0
  2.1400001E+00;  9.9999998E-03;  2.2000000E-01;887;0.0;0.0;0.0;1000.0;  4.0000001E-01;0.0;0;0.0;0.0;0.0;0;0.0;  1.0000000E+04;  0.0000000E+00;  0.0000000E+00;  1.0000000E+04;  0.0000000E+00;  1.0000000E+04;0.0;0.0;0.0;0.0
  2.1400001E+00;  9.9999998E-03;  2.3999999E-01;888;0.0;0.0;0.0;1000.0;  4.0000001E-01;0.0;0;0.0;0.0;0.0;0;0.0;  1.0000000E+04;  0.0000000E+00;  0.0000000E+00;  1.0000000E+04;  0.0000000E+00;  1.0000000E+04;0.0;0.0;0.0;0.0
  2.1400001E+00;  9.9999998E-03;  2.5999999E-01;889;0.0;0.0;0.0;1000.0;  4.0000001E-01;0.0;0;0.0;0.0;0.0;0;0.0;  1.0000000E+04;  0.0000000E+00;  0.0000000E+00;  1.0000000E+04;  0.0000000E+00;  1.0000000E+04;0.0;0.0;0.0;0.0
  2.1400001E+00;  9.9999998E-03;  2.8000000E-01;890;0.0;0.0;0.0;1000.0;  4.0000001E-01;0.0;0;0.0;0.0;0.0;0;0.0;  1.0000000E+04;  0.0000000E+00;  0.0000000E+00;  1.0000000E+04;  0.0000000E+00;  1.0000000E+04;0.0;0.0;0.0;0.0
  2.1400001E+00;  9.9999998E-03;  3.0000001E-01;891;0.0;0.0;0.0;1000.0;  4.0000001E-01;0.0;0;0.0;0.0;0.0;0;0.0;  1.0000000E+04;  0.0000000E+00;  0.0000000E+00;  1.0000000E+04;  0.0000000E+00;  1.0000000E+04;0.0;0.0;0.0;0.0
  2.1400001E+00;  9.9999998E-03;  3.1999999E-01;892;0.0;0.0;0.0;1000.0;  4.0000001E-01;0.0;0;0.0;0.0;0.0;0;0.0;  1.0000000E+04;  0.0000000E+00;  0.0000000E+00;  1.0000000E+04;  0.0000000E+00;  1.0000000E+04;0.0;0.0;0.0;0.0
  2.1400001E+00;  9.9999998E-03;  3.4000000E-01;893;0.0;0.0;0.0;1000.0;  4.0000001E-01;0.0;0;0.0;0.0;0.0;0;0.0;  1.0000000E+04;  0.0000000E+00;  0.0000000E+00;  1.0000000E+04;  0.0000000E+00;  1.0000000E+04;0.0;0.0;0.0;0.0
  2.1400001E+00;  9.9999998E-03;  3.6000001E-01;894;0.0;0.0;0.0;1000.0;  4.0000001E-01;0.0;0;0.0;0.0;0.0;0;0.0;  1.0000000E+04;  0.0000000E+00;  0.0000000E+00;  1.0000000E+04;  0.0000000E+00;  1.0000000E+04;0.0;0.0;0.0;0.0
  2.1400001E+00;  9.9999998E-03;  3.8000000E-01;895;0.0;0.0;0.0;1000.0;  4.0000001E-01;0.0;0;0.0;0.0;0.0;0;0.0;  1.0000000E+04;  0.0000000E+00;  0.0000000E+00;  1.0000000E+04;  0.0000000E+00;  1.0000000E+04;0.0;0.0;0.0;0.0
  2.1400001E+00;  9.9999998E-03;  4.0000001E-01;896;0.0;0.0;0.0;1000.0;  4.0000001E-01;0.0;0;0.0;0.0;0.0;0;0.0;  1.0000000E+04;  0.0000000E+00;  0.0000000E+00;  1.0000000E+04;  0.0000000E+00;  1.0000000E+04;0.0;0.0;0.0;0.0
  2.1600001E+00;  9.9999998E-03; -2.8000000E-01;897;0.0;0.0;0.0;1000.0;  4.0000001E-01;0.0;0;0.0;0.0;0.0;0;0.0;  1.0000000E+04;  0.0000000E+00;  0.0000000E+00;  1.0000000E+04;  0.0000000E+00;  1.0000000E+04;0.0;0.0;0.0;0.0
  2.1600001E+00;  9.9999998E-03; -2.5999999E-01;898;0.0;0.0;0.0;1000.0;  4.0000001E-01;0.0;0;0.0;0.0;0.0;0;0.0;  1.0000000E+04;  0.0000000E+00;  0.0000000E+00;  1.0000000E+04;  0.0000000E+00;  1.0000000E+04;0.0;0.0;0.0;0.0
  2.1600001E+00;  9.9999998E-03; -2.3999999E-01;899;0.0;0.0;0.0;1000.0;  4.0000001E-01;0.0;0;0.0;0.0;0.0;0;0.0;  1.0000000E+04;  0.0000000E+00;  0.0000000E+00;  1.0000000E+04;  0.0000000E+00;  1.0000000E+04;0.0;0.0;0.0;0.0
  2.1600001E+00;  9.9999998E-03; -2.2000000E-01;900;0.0;0.0;0.0;1000.0;  4.0000001E-01;0.0;0;0.0;0.0;0.0;0;0.0;  1.0000000E+04;  0.0000000E+00;  0.0000000E+00;  1.0000000E+04;  0.0000000E+00;  1.0000000E+04;0.0;0.0;0.0;0.0
  2.1600001E+00;  9.9999998E-03; -2.0000000E-01;901;0.0;0.0;0.0;1000.0;  4.0000001E-01;0.0;0;0.0;0.0;0.0;0;0.0;  1.0000000E+04;  0.0000000E+00;  0.0000000E+00;  1.0000000E+04;  0.0000000E+00;  1.0000000E+04;0.0;0.0;0.0;0.0
  2.1600001E+00;  9.9999998E-03; -1.8000001E-01;902;0.0;0.0;0.0;1000.0;  4.0000001E-01;0.0;0;0.0;0.0;0.0;0;0.0;  1.0000000E+04;  0.0000000E+00;  0.0000000E+00;  1.0000000E+04;  0.0000000E+00;  1.0000000E+04;0.0;0.0;0.0;0.0
  2.1600001E+00;  9.9999998E-03; -1.6000000E-01;903;0.0;0.0;0.0;1000.0;  4.0000001E-01;0.0;0;0.0;0.0;0.0;0;0.0;  1.0000000E+04;  0.0000000E+00;  0.0000000E+00;  1.0000000E+04;  0.0000000E+00;  1.0000000E+04;0.0;0.0;0.0;0.0
  2.1600001E+00;  9.9999998E-03; -1.4000000E-01;904;0.0;0.0;0.0;1000.0;  4.0000001E-01;0.0;0;0.0;0.0;0.0;0;0.0;  1.0000000E+04;  0.0000000E+00;  0.0000000E+00;  1.0000000E+04;  0.0000000E+00;  1.0000000E+04;0.0;0.0;0.0;0.0
  2.1600001E+00;  9.9999998E-03; -1.2000000E-01;905;0.0;0.0;0.0;1000.0;  4.0000001E-01;0.0;0;0.0;0.0;0.0;0;0.0;  1.0000000E+04;  0.0000000E+00;  0.0000000E+00;  1.0000000E+04;  0.0000000E+00;  1.0000000E+04;0.0;0.0;0.0;0.0
  2.1600001E+00;  9.9999998E-03; -1.0000000E-01;906;0.0;0.0;0.0;1000.0;  4.0000001E-01;0.0;0;0.0;0.0;0.0;0;0.0;  1.0000000E+04;  0.0000000E+00;  0.0000000E+00;  1.0000000E+04;  0.0000000E+00;  1.0000000E+04;0.0;0.0;0.0;0.0
  2.1600001E+00;  9.9999998E-03; -7.9999998E-02;907;0.0;0.0;0.0;1000.0;  4.0000001E-01;0.0;0;0.0;0.0;0.0;0;0.0;  1.0000000E+04;  0.0000000E+00;  0.0000000E+00;  1.0000000E+04;  0.0000000E+00;  1.0000000E+04;0.0;0.0;0.0;0.0
  2.1600001E+00;  9.9999998E-03; -5.9999999E-02;908;0.0;0.0;0.0;1000.0;  4.0000001E-01;0.0;0;0.0;0.0;0.0;0;0.0;  1.0000000E+04;  0.0000000E+00;  0.0000000E+00;  1.0000000E+04;  0.0000000E+00;  1.0000000E+04;0.0;0.0;0.0;0.0
  2.1600001E+00;  9.9999998E-03; -3.9999999E-02;909;0.0;0.0;0.0;1000.0;  4.0000001E-01;0.0;0;0.0;0.0;0.0;0;0.0;  1.0000000E+04;  0.0000000E+00;  0.0000000E+00;  1.0000000E+04;  0.0000000E+00;  1.0000000E+04;0.0;0.0;0.0;0.0
  2.1600001E+00;  9.9999998E-03; -2.0000000E-02;910;0.0;0.0;0.0;1000.0;  4.0000001E-01;0.0;0;0.0;0.0;0.0;0;0.0;  1.0000000E+04;  0.0000000E+00;  0.0000000E+00;  1.0000000E+04;  0.0000000E+00;  1.0000000E+04;0.0;0.0;0.0;0.0
  2.1600001E+00;  9.9999998E-03;  0.0000000E+00;911;0.0;0.0;0.0;1000.0;  4.0000001E-01;0.0;0;0.0;0.0;0.0;0;0.0;  1.0000000E+04;  0.0000000E+00;  0.0000000E+00;  1.0000000E+04;  0.0000000E+00;  1.0000000E+04;0.0;0.0;0.0;0.0
  2.1600001E+00;  9.9999998E-03;  2.0000000E-02;912;0.0;0.0;0.0;1000.0;  4.0000001E-01;0.0;0;0.0;0.0;0.0;0;0.0;  1.0000000E+04;  0.0000000E+00;  0.0000000E+00;  1.0000000E+04;  0.0000000E+00;  1.0000000E+04;0.0;0.0;0.0;0.0
  2.1600001E+00;  9.9999998E-03;  3.9999999E-02;913;0.0;0.0;0.0;1000.0;  4.0000001E-01;0.0;0;0.0;0.0;0.0;0;0.0;  1.0000000E+04;  0.0000000E+00;  0.0000000E+00;  1.0000000E+04;  0.0000000E+00;  1.0000000E+04;0.0;0.0;0.0;0.0
  2.1600001E+00;  9.9999998E-03;  5.9999999E-02;914;0.0;0.0;0.0;1000.0;  4.0000001E-01;0.0;0;0.0;0.0;0.0;0;0.0;  1.0000000E+04;  0.0000000E+00;  0.0000000E+00;  1.0000000E+04;  0.0000000E+00;  1.0000000E+04;0.0;0.0;0.0;0.0
  2.1600001E+00;  9.9999998E-03;  7.9999998E-02;915;0.0;0.0;0.0;1000.0;  4.0000001E-01;0.0;0;0.0;0.0;0.0;0;0.0;  1.0000000E+04;  0.0000000E+00;  0.0000000E+00;  1.0000000E+04;  0.0000000E+00;  1.0000000E+04;0.0;0.0;0.0;0.0
  2.1600001E+00;  9.9999998E-03;  1.0000000E-01;916;0.0;0.0;0.0;1000.0;  4.0000001E-01;0.0;0;0.0;0.0;0.0;0;0.0;  1.0000000E+04;  0.0000000E+00;  0.0000000E+00;  1.0000000E+04;  0.0000000E+00;  1.0000000E+04;0.0;0.0;0.0;0.0
  2.1600001E+00;  9.9999998E-03;  1.2000000E-01;917;0.0;0.0;0.0;1000.0;  4.0000001E-01;0.0;0;0.0;0.0;0.0;0;0.0;  1.0000000E+04;  0.0000000E+00;  0.0000000E+00;  1.0000000E+04;  0.0000000E+00;  1.0000000E+04;0.0;0.0;0.0;0.0
  2.1600001E+00;  9.9999998E-03;  1.4000000E-01;918;0.0;0.0;0.0;1000.0;  4.0000001E-01;0.0;0;0.0;0.0;0.0;0;0.0;  1.0000000E+04;  0.0000000E+00;  0.0000000E+00;  1.0000000E+04;  0.0000000E+00;  1.0000000E+04;0.0;0.0;0.0;0.0
  2.1600001E+00;  9.9999998E-03;  1.6000000E-01;919;0.0;0.0;0.0;1000.0;  4.0000001E-01;0.0;0;0.0;0.0;0.0;0;0.0;  1.0000000E+04;  0.0000000E+00;  0.0000000E+00;  1.0000000E+04;  0.0000000E+00;  1.0000000E+04;0.0;0.0;0.0;0.0
  2.1600001E+00;  9.9999998E-03;  1.8000001E-01;920;0.0;0.0;0.0;1000.0;  4.0000001E-01;0.0;0;0.0;0.0;0.0;0;0.0;  1.0000000E+04;  0.0000000E+00;  0.0000000E+00;  1.0000000E+04;  0.0000000E+00;  1.0000000E+04;0.0;0.0;0.0;0.0
  2.1600001E+00;  9.9999998E-03;  2.0000000E-01;921;0.0;0.0;0.0;1000.0;  4.0000001E-01;0.0;0;0.0;0.0;0.0;0;0.0;  1.0000000E+04;  0.0000000E+00;  0.0000000E+00;  1.0000000E+04;  0.0000000E+00;  1.0000000E+04;0.0;0.0;0.0;0.0
  2.1600001E+00;  9.9999998E-03;  2.2000000E-01;922;0.0;0.0;0.0;1000.0;  4.0000001E-01;0.0;0;0.0;0.0;0.0;0;0.0;  1.0000000E+04;  0.0000000E+00;  0.0000000E+00;  1.0000000E+04;  0.0000000E+00;  1.0000000E+04;0.0;0.0;0.0;0.0
  2.1600001E+00;  9.9999998E-03;  2.3999999E-01;923;0.0;0.0;0.0;1000.0;  4.0000001E-01;0.0;0;0.0;0.0;0.0;0;0.0;  1.0000000E+04;  0.0000000E+00;  0.0000000E+00;  1.0000000E+04;  0.0000000E+00;  1.0000000E+04;0.0;0.0;0.0;0.0
  2.1600001E+00;  9.9999998E-03;  2.5999999E-01;924;0.0;0.0;0.0;1000.0;  4.0000001E-01;0.0;0;0.0;0.0;0.0;0;0.0;  1.0000000E+04;  0.0000000E+00;  0.0000000E+00;  1.0000000E+04;  0.0000000E+00;  1.0000000E+04;0.0;0.0;0.0;0.0
  2.1600001E+00;  9.9999998E-03;  2.8000000E-01;925;0.0;0.0;0.0;1000.0;  4.0000001E-01;0.0;0;0.0;0.0;0.0;0;0.0;  1.0000000E+04;  0.0000000E+00;  0.0000000E+00;  1.0000000E+04;  0.0000000E+00;  1.0000000E+04;0.0;0.0;0.0;0.0
  2.1600001E+00;  9.9999998E-03;  3.0000001E-01;926;0.0;0.0;0.0;1000.0;  4.0000001E-01;0.0;0;0.0;0.0;0.0;0;0.0;  1.0000000E+04;  0.0000000E+00;  0.0000000E+00;  1.0000000E+04;  0.0000000E+00;  1.0000000E+04;0.0;0.0;0.0;0.0
  2.1600001E+00;  9.9999998E-03;  3.1999999E-01;927;0.0;0.0;0.0;1000.0;  4.0000001E-01;0.0;0;0.0;0.0;0.0;0;0.0;  1.0000000E+04;  0.0000000E+00;  0.0000000E+00;  1.0000000E+04;  0.0000000E+00;  1.0000000E+04;0.0;0.0;0.0;0.0
  2.1600001E+00;  9.9999998E-03;  3.4000000E-01;928;0.0;0.0;0.0;1000.0;  4.0000001E-01;0.0;0;0.0;0.0;0.0;0;0.0;  1.0000000E+04;  0.0000000E+00;  0.0000000E+00;  1.0000000E+04;  0.0000000E+00;  1.0000000E+04;0.0;0.0;0.0;0.0
  2.1600001E+00;  9.9999998E-03;  3.6000001E-01;929;0.0;0.0;0.0;1000.0;  4.0000001E-01;0.0;0;0.0;0.0;0.0;0;0.0;  1.0000000E+04;  0.0000000E+00;  0.0000000E+00;  1.0000000E+04;  0.0000000E+00;  1.0000000E+04;0.0;0.0;0.0;0.0
  2.1600001E+00;  9.9999998E-03;  3.8000000E-01;930;0.0;0.0;0.0;1000.0;  4.0000001E-01;0.0;0;0.0;0.0;0.0;0;0.0;  1.0000000E+04;  0.0000000E+00;  0.0000000E+00;  1.0000000E+04;  0.0000000E+00;  1.0000000E+04;0.0;0.0;0.0;0.0
  2.1600001E+00;  9.9999998E-03;  4.0000001E-01;931;0.0;0.0;0.0;1000.0;  4.0000001E-01;0.0;0;0.0;0.0;0.0;0;0.0;  1.0000000E+04;  0.0000000E+00;  0.0000000E+00;  1.0000000E+04;  0.0000000E+00;  1.0000000E+04;0.0;0.0;0.0;0.0
  2.1800001E+00;  9.9999998E-03; -1.8000001E-01;932;0.0;0.0;0.0;1000.0;  4.0000001E-01;0.0;0;0.0;0.0;0.0;0;0.0;  1.0000000E+04;  0.0000000E+00;  0.0000000E+00;  1.0000000E+04;  0.0000000E+00;  1.0000000E+04;0.0;0.0;0.0;0.0
  2.1800001E+00;  9.9999998E-03; -1.6000000E-01;933;0.0;0.0;0.0;1000.0;  4.0000001E-01;0.0;0;0.0;0.0;0.0;0;0.0;  1.0000000E+04;  0.0000000E+00;  0.0000000E+00;  1.0000000E+04;  0.0000000E+00;  1.0000000E+04;0.0;0.0;0.0;0.0
  2.1800001E+00;  9.9999998E-03; -1.4000000E-01;934;0.0;0.0;0.0;1000.0;  4.0000001E-01;0.0;0;0.0;0.0;0.0;0;0.0;  1.0000000E+04;  0.0000000E+00;  0.0000000E+00;  1.0000000E+04;  0.0000000E+00;  1.0000000E+04;0.0;0.0;0.0;0.0
  2.1800001E+00;  9.9999998E-03; -1.2000000E-01;935;0.0;0.0;0.0;1000.0;  4.0000001E-01;0.0;0;0.0;0.0;0.0;0;0.0;  1.0000000E+04;  0.0000000E+00;  0.0000000E+00;  1.0000000E+04;  0.0000000E+00;  1.0000000E+04;0.0;0.0;0.0;0.0
  2.1800001E+00;  9.9999998E-03; -1.0000000E-01;936;0.0;0.0;0.0;1000.0;  4.0000001E-01;0.0;0;0.0;0.0;0.0;0;0.0;  1.0000000E+04;  0.0000000E+00;  0.0000000E+00;  1.0000000E+04;  0.0000000E+00;  1.0000000E+04;0.0;0.0;0.0;0.0
  2.1800001E+00;  9.9999998E-03; -7.9999998E-02;937;0.0;0.0;0.0;1000.0;  4.0000001E-01;0.0;0;0.0;0.0;0.0;0;0.0;  1.0000000E+04;  0.0000000E+00;  0.0000000E+00;  1.0000000E+04;  0.0000000E+00;  1.0000000E+04;0.0;0.0;0.0;0.0
  2.1800001E+00;  9.9999998E-03; -5.9999999E-02;938;0.0;0.0;0.0;1000.0;  4.0000001E-01;0.0;0;0.0;0.0;0.0;0;0.0;  1.0000000E+04;  0.0000000E+00;  0.0000000E+00;  1.0000000E+04;  0.0000000E+00;  1.0000000E+04;0.0;0.0;0.0;0.0
  2.1800001E+00;  9.9999998E-03; -3.9999999E-02;939;0.0;0.0;0.0;1000.0;  4.0000001E-01;0.0;0;0.0;0.0;0.0;0;0.0;  1.0000000E+04;  0.0000000E+00;  0.0000000E+00;  1.0000000E+04;  0.0000000E+00;  1.0000000E+04;0.0;0.0;0.0;0.0
  2.1800001E+00;  9.9999998E-03; -2.0000000E-02;940;0.0;0.0;0.0;1000.0;  4.0000001E-01;0.0;0;0.0;0.0;0.0;0;0.0;  1.0000000E+04;  0.0000000E+00;  0.0000000E+00;  1.0000000E+04;  0.0000000E+00;  1.0000000E+04;0.0;0.0;0.0;0.0
  2.1800001E+00;  9.9999998E-03;  0.0000000E+00;941;0.0;0.0;0.0;1000.0;  4.0000001E-01;0.0;0;0.0;0.0;0.0;0;0.0;  1.0000000E+04;  0.0000000E+00;  0.0000000E+00;  1.0000000E+04;  0.0000000E+00;  1.0000000E+04;0.0;0.0;0.0;0.0
  2.1800001E+00;  9.9999998E-03;  2.0000000E-02;942;0.0;0.0;0.0;1000.0;  4.0000001E-01;0.0;0;0.0;0.0;0.0;0;0.0;  1.0000000E+04;  0.0000000E+00;  0.0000000E+00;  1.0000000E+04;  0.0000000E+00;  1.0000000E+04;0.0;0.0;0.0;0.0
  2.1800001E+00;  9.9999998E-03;  3.9999999E-02;943;0.0;0.0;0.0;1000.0;  4.0000001E-01;0.0;0;0.0;0.0;0.0;0;0.0;  1.0000000E+04;  0.0000000E+00;  0.0000000E+00;  1.0000000E+04;  0.0000000E+00;  1.0000000E+04;0.0;0.0;0.0;0.0
  2.1800001E+00;  9.9999998E-03;  5.9999999E-02;944;0.0;0.0;0.0;1000.0;  4.0000001E-01;0.0;0;0.0;0.0;0.0;0;0.0;  1.0000000E+04;  0.0000000E+00;  0.0000000E+00;  1.0000000E+04;  0.0000000E+00;  1.0000000E+04;0.0;0.0;0.0;0.0
  2.1800001E+00;  9.9999998E-03;  7.9999998E-02;945;0.0;0.0;0.0;1000.0;  4.0000001E-01;0.0;0;0.0;0.0;0.0;0;0.0;  1.0000000E+04;  0.0000000E+00;  0.0000000E+00;  1.0000000E+04;  0.0000000E+00;  1.0000000E+04;0.0;0.0;0.0;0.0
  2.1800001E+00;  9.9999998E-03;  1.0000000E-01;946;0.0;0.0;0.0;1000.0;  4.0000001E-01;0.0;0;0.0;0.0;0.0;0;0.0;  1.0000000E+04;  0.0000000E+00;  0.0000000E+00;  1.0000000E+04;  0.0000000E+00;  1.0000000E+04;0.0;0.0;0.0;0.0
  2.1800001E+00;  9.9999998E-03;  1.2000000E-01;947;0.0;0.0;0.0;1000.0;  4.0000001E-01;0.0;0;0.0;0.0;0.0;0;0.0;  1.0000000E+04;  0.0000000E+00;  0.0000000E+00;  1.0000000E+04;  0.0000000E+00;  1.0000000E+04;0.0;0.0;0.0;0.0
  2.1800001E+00;  9.9999998E-03;  1.4000000E-01;948;0.0;0.0;0.0;1000.0;  4.0000001E-01;0.0;0;0.0;0.0;0.0;0;0.0;  1.0000000E+04;  0.0000000E+00;  0.0000000E+00;  1.0000000E+04;  0.0000000E+00;  1.0000000E+04;0.0;0.0;0.0;0.0
  2.1800001E+00;  9.9999998E-03;  1.6000000E-01;949;0.0;0.0;0.0;1000.0;  4.0000001E-01;0.0;0;0.0;0.0;0.0;0;0.0;  1.0000000E+04;  0.0000000E+00;  0.0000000E+00;  1.0000000E+04;  0.0000000E+00;  1.0000000E+04;0.0;0.0;0.0;0.0
  2.1800001E+00;  9.9999998E-03;  1.8000001E-01;950;0.0;0.0;0.0;1000.0;  4.0000001E-01;0.0;0;0.0;0.0;0.0;0;0.0;  1.0000000E+04;  0.0000000E+00;  0.0000000E+00;  1.0000000E+04;  0.0000000E+00;  1.0000000E+04;0.0;0.0;0.0;0.0
  2.1800001E+00;  9.9999998E-03;  2.0000000E-01;951;0.0;0.0;0.0;1000.0;  4.0000001E-01;0.0;0;0.0;0.0;0.0;0;0.0;  1.0000000E+04;  0.0000000E+00;  0.0000000E+00;  1.0000000E+04;  0.0000000E+00;  1.0000000E+04;0.0;0.0;0.0;0.0
  2.1800001E+00;  9.9999998E-03;  2.2000000E-01;952;0.0;0.0;0.0;1000.0;  4.0000001E-01;0.0;0;0.0;0.0;0.0;0;0.0;  1.0000000E+04;  0.0000000E+00;  0.0000000E+00;  1.0000000E+04;  0.0000000E+00;  1.0000000E+04;0.0;0.0;0.0;0.0
  2.1800001E+00;  9.9999998E-03;  2.3999999E-01;953;0.0;0.0;0.0;1000.0;  4.0000001E-01;0.0;0;0.0;0.0;0.0;0;0.0;  1.0000000E+04;  0.0000000E+00;  0.0000000E+00;  1.0000000E+04;  0.0000000E+00;  1.0000000E+04;0.0;0.0;0.0;0.0
  2.1800001E+00;  9.9999998E-03;  2.5999999E-01;954;0.0;0.0;0.0;1000.0;  4.0000001E-01;0.0;0;0.0;0.0;0.0;0;0.0;  1.0000000E+04;  0.0000000E+00;  0.0000000E+00;  1.0000000E+04;  0.0000000E+00;  1.0000000E+04;0.0;0.0;0.0;0.0
  2.1800001E+00;  9.9999998E-03;  2.8000000E-01;955;0.0;0.0;0.0;1000.0;  4.0000001E-01;0.0;0;0.0;0.0;0.0;0;0.0;  1.0000000E+04;  0.0000000E+00;  0.0000000E+00;  1.0000000E+04;  0.0000000E+00;  1.0000000E+04;0.0;0.0;0.0;0.0
  2.1800001E+00;  9.9999998E-03;  3.0000001E-01;956;0.0;0.0;0.0;1000.0;  4.0000001E-01;0.0;0;0.0;0.0;0.0;0;0.0;  1.0000000E+04;  0.0000000E+00;  0.0000000E+00;  1.0000000E+04;  0.0000000E+00;  1.0000000E+04;0.0;0.0;0.0;0.0
  2.1800001E+00;  9.9999998E-03;  3.1999999E-01;957;0.0;0.0;0.0;1000.0;  4.0000001E-01;0.0;0;0.0;0.0;0.0;0;0.0;  1.0000000E+04;  0.0000000E+00;  0.0000000E+00;  1.0000000E+04;  0.0000000E+00;  1.0000000E+04;0.0;0.0;0.0;0.0
  2.1800001E+00;  9.9999998E-03;  3.4000000E-01;958;0.0;0.0;0.0;1000.0;  4.0000001E-01;0.0;0;0.0;0.0;0.0;0;0.0;  1.0000000E+04;  0.0000000E+00;  0.0000000E+00;  1.0000000E+04;  0.0000000E+00;  1.0000000E+04;0.0;0.0;0.0;0.0
  2.1800001E+00;  9.9999998E-03;  3.6000001E-01;959;0.0;0.0;0.0;1000.0;  4.0000001E-01;0.0;0;0.0;0.0;0.0;0;0.0;  1.0000000E+04;  0.0000000E+00;  0.0000000E+00;  1.0000000E+04;  0.0000000E+00;  1.0000000E+04;0.0;0.0;0.0;0.0
  2.1800001E+00;  9.9999998E-03;  3.8000000E-01;960;0.0;0.0;0.0;1000.0;  4.0000001E-01;0.0;0;0.0;0.0;0.0;0;0.0;  1.0000000E+04;  0.0000000E+00;  0.0000000E+00;  1.0000000E+04;  0.0000000E+00;  1.0000000E+04;0.0;0.0;0.0;0.0
  2.1800001E+00;  9.9999998E-03;  4.0000001E-01;961;0.0;0.0;0.0;1000.0;  4.0000001E-01;0.0;0;0.0;0.0;0.0;0;0.0;  1.0000000E+04;  0.0000000E+00;  0.0000000E+00;  1.0000000E+04;  0.0000000E+00;  1.0000000E+04;0.0;0.0;0.0;0.0
  2.2000000E+00;  9.9999998E-03; -7.9999998E-02;962;0.0;0.0;0.0;1000.0;  4.0000001E-01;0.0;0;0.0;0.0;0.0;0;0.0;  1.0000000E+04;  0.0000000E+00;  0.0000000E+00;  1.0000000E+04;  0.0000000E+00;  1.0000000E+04;0.0;0.0;0.0;0.0
  2.2000000E+00;  9.9999998E-03; -5.9999999E-02;963;0.0;0.0;0.0;1000.0;  4.0000001E-01;0.0;0;0.0;0.0;0.0;0;0.0;  1.0000000E+04;  0.0000000E+00;  0.0000000E+00;  1.0000000E+04;  0.0000000E+00;  1.0000000E+04;0.0;0.0;0.0;0.0
  2.2000000E+00;  9.9999998E-03; -3.9999999E-02;964;0.0;0.0;0.0;1000.0;  4.0000001E-01;0.0;0;0.0;0.0;0.0;0;0.0;  1.0000000E+04;  0.0000000E+00;  0.0000000E+00;  1.0000000E+04;  0.0000000E+00;  1.0000000E+04;0.0;0.0;0.0;0.0
  2.2000000E+00;  9.9999998E-03; -2.0000000E-02;965;0.0;0.0;0.0;1000.0;  4.0000001E-01;0.0;0;0.0;0.0;0.0;0;0.0;  1.0000000E+04;  0.0000000E+00;  0.0000000E+00;  1.0000000E+04;  0.0000000E+00;  1.0000000E+04;0.0;0.0;0.0;0.0
  2.2000000E+00;  9.9999998E-03;  0.0000000E+00;966;0.0;0.0;0.0;1000.0;  4.0000001E-01;0.0;0;0.0;0.0;0.0;0;0.0;  1.0000000E+04;  0.0000000E+00;  0.0000000E+00;  1.0000000E+04;  0.0000000E+00;  1.0000000E+04;0.0;0.0;0.0;0.0
  2.2000000E+00;  9.9999998E-03;  2.0000000E-02;967;0.0;0.0;0.0;1000.0;  4.0000001E-01;0.0;0;0.0;0.0;0.0;0;0.0;  1.0000000E+04;  0.0000000E+00;  0.0000000E+00;  1.0000000E+04;  0.0000000E+00;  1.0000000E+04;0.0;0.0;0.0;0.0
  2.2000000E+00;  9.9999998E-03;  3.9999999E-02;968;0.0;0.0;0.0;1000.0;  4.0000001E-01;0.0;0;0.0;0.0;0.0;0;0.0;  1.0000000E+04;  0.0000000E+00;  0.0000000E+00;  1.0000000E+04;  0.0000000E+00;  1.0000000E+04;0.0;0.0;0.0;0.0
  2.2000000E+00;  9.9999998E-03;  5.9999999E-02;969;0.0;0.0;0.0;1000.0;  4.0000001E-01;0.0;0;0.0;0.0;0.0;0;0.0;  1.0000000E+04;  0.0000000E+00;  0.0000000E+00;  1.0000000E+04;  0.0000000E+00;  1.0000000E+04;0.0;0.0;0.0;0.0
  2.2000000E+00;  9.9999998E-03;  7.9999998E-02;970;0.0;0.0;0.0;1000.0;  4.0000001E-01;0.0;0;0.0;0.0;0.0;0;0.0;  1.0000000E+04;  0.0000000E+00;  0.0000000E+00;  1.0000000E+04;  0.0000000E+00;  1.0000000E+04;0.0;0.0;0.0;0.0
  2.2000000E+00;  9.9999998E-03;  1.0000000E-01;971;0.0;0.0;0.0;1000.0;  4.0000001E-01;0.0;0;0.0;0.0;0.0;0;0.0;  1.0000000E+04;  0.0000000E+00;  0.0000000E+00;  1.0000000E+04;  0.0000000E+00;  1.0000000E+04;0.0;0.0;0.0;0.0
  2.2000000E+00;  9.9999998E-03;  1.2000000E-01;972;0.0;0.0;0.0;1000.0;  4.0000001E-01;0.0;0;0.0;0.0;0.0;0;0.0;  1.0000000E+04;  0.0000000E+00;  0.0000000E+00;  1.0000000E+04;  0.0000000E+00;  1.0000000E+04;0.0;0.0;0.0;0.0
  2.2000000E+00;  9.9999998E-03;  1.4000000E-01;973;0.0;0.0;0.0;1000.0;  4.0000001E-01;0.0;0;0.0;0.0;0.0;0;0.0;  1.0000000E+04;  0.0000000E+00;  0.0000000E+00;  1.0000000E+04;  0.0000000E+00;  1.0000000E+04;0.0;0.0;0.0;0.0
  2.2000000E+00;  9.9999998E-03;  1.6000000E-01;974;0.0;0.0;0.0;1000.0;  4.0000001E-01;0.0;0;0.0;0.0;0.0;0;0.0;  1.0000000E+04;  0.0000000E+00;  0.0000000E+00;  1.0000000E+04;  0.0000000E+00;  1.0000000E+04;0.0;0.0;0.0;0.0
  2.2000000E+00;  9.9999998E-03;  1.8000001E-01;975;0.0;0.0;0.0;1000.0;  4.0000001E-01;0.0;0;0.0;0.0;0.0;0;0.0;  1.0000000E+04;  0.0000000E+00;  0.0000000E+00;  1.0000000E+04;  0.0000000E+00;  1.0000000E+04;0.0;0.0;0.0;0.0
  2.2000000E+00;  9.9999998E-03;  2.0000000E-01;976;0.0;0.0;0.0;1000.0;  4.0000001E-01;0.0;0;0.0;0.0;0.0;0;0.0;  1.0000000E+04;  0.0000000E+00;  0.0000000E+00;  1.0000000E+04;  0.0000000E+00;  1.0000000E+04;0.0;0.0;0.0;0.0
  2.2000000E+00;  9.9999998E-03;  2.2000000E-01;977;0.0;0.0;0.0;1000.0;  4.0000001E-01;0.0;0;0.0;0.0;0.0;0;0.0;  1.0000000E+04;  0.0000000E+00;  0.0000000E+00;  1.0000000E+04;  0.0000000E+00;  1.0000000E+04;0.0;0.0;0.0;0.0
  2.2000000E+00;  9.9999998E-03;  2.3999999E-01;978;0.0;0.0;0.0;1000.0;  4.0000001E-01;0.0;0;0.0;0.0;0.0;0;0.0;  1.0000000E+04;  0.0000000E+00;  0.0000000E+00;  1.0000000E+04;  0.0000000E+00;  1.0000000E+04;0.0;0.0;0.0;0.0
  2.2000000E+00;  9.9999998E-03;  2.5999999E-01;979;0.0;0.0;0.0;1000.0;  4.0000001E-01;0.0;0;0.0;0.0;0.0;0;0.0;  1.0000000E+04;  0.0000000E+00;  0.0000000E+00;  1.0000000E+04;  0.0000000E+00;  1.0000000E+04;0.0;0.0;0.0;0.0
  2.2000000E+00;  9.9999998E-03;  2.8000000E-01;980;0.0;0.0;0.0;1000.0;  4.0000001E-01;0.0;0;0.0;0.0;0.0;0;0.0;  1.0000000E+04;  0.0000000E+00;  0.0000000E+00;  1.0000000E+04;  0.0000000E+00;  1.0000000E+04;0.0;0.0;0.0;0.0
  2.2000000E+00;  9.9999998E-03;  3.0000001E-01;981;0.0;0.0;0.0;1000.0;  4.0000001E-01;0.0;0;0.0;0.0;0.0;0;0.0;  1.0000000E+04;  0.0000000E+00;  0.0000000E+00;  1.0000000E+04;  0.0000000E+00;  1.0000000E+04;0.0;0.0;0.0;0.0
  2.2000000E+00;  9.9999998E-03;  3.1999999E-01;982;0.0;0.0;0.0;1000.0;  4.0000001E-01;0.0;0;0.0;0.0;0.0;0;0.0;  1.0000000E+04;  0.0000000E+00;  0.0000000E+00;  1.0000000E+04;  0.0000000E+00;  1.0000000E+04;0.0;0.0;0.0;0.0
  2.2000000E+00;  9.9999998E-03;  3.4000000E-01;983;0.0;0.0;0.0;1000.0;  4.0000001E-01;0.0;0;0.0;0.0;0.0;0;0.0;  1.0000000E+04;  0.0000000E+00;  0.0000000E+00;  1.0000000E+04;  0.0000000E+00;  1.0000000E+04;0.0;0.0;0.0;0.0
  2.2000000E+00;  9.9999998E-03;  3.6000001E-01;984;0.0;0.0;0.0;1000.0;  4.0000001E-01;0.0;0;0.0;0.0;0.0;0;0.0;  1.0000000E+04;  0.0000000E+00;  0.0000000E+00;  1.0000000E+04;  0.0000000E+00;  1.0000000E+04;0.0;0.0;0.0;0.0
  2.2000000E+00;  9.9999998E-03;  3.8000000E-01;985;0.0;0.0;0.0;1000.0;  4.0000001E-01;0.0;0;0.0;0.0;0.0;0;0.0;  1.0000000E+04;  0.0000000E+00;  0.0000000E+00;  1.0000000E+04;  0.0000000E+00;  1.0000000E+04;0.0;0.0;0.0;0.0
  2.2200000E+00;  9.9999998E-03;  2.0000000E-02;986;0.0;0.0;0.0;1000.0;  4.0000001E-01;0.0;0;0.0;0.0;0.0;0;0.0;  1.0000000E+04;  0.0000000E+00;  0.0000000E+00;  1.0000000E+04;  0.0000000E+00;  1.0000000E+04;0.0;0.0;0.0;0.0
  2.2200000E+00;  9.9999998E-03;  3.9999999E-02;987;0.0;0.0;0.0;1000.0;  4.0000001E-01;0.0;0;0.0;0.0;0.0;0;0.0;  1.0000000E+04;  0.0000000E+00;  0.0000000E+00;  1.0000000E+04;  0.0000000E+00;  1.0000000E+04;0.0;0.0;0.0;0.0
  2.2200000E+00;  9.9999998E-03;  5.9999999E-02;988;0.0;0.0;0.0;1000.0;  4.0000001E-01;0.0;0;0.0;0.0;0.0;0;0.0;  1.0000000E+04;  0.0000000E+00;  0.0000000E+00;  1.0000000E+04;  0.0000000E+00;  1.0000000E+04;0.0;0.0;0.0;0.0
  2.2200000E+00;  9.9999998E-03;  7.9999998E-02;989;0.0;0.0;0.0;1000.0;  4.0000001E-01;0.0;0;0.0;0.0;0.0;0;0.0;  1.0000000E+04;  0.0000000E+00;  0.0000000E+00;  1.0000000E+04;  0.0000000E+00;  1.0000000E+04;0.0;0.0;0.0;0.0
  2.2200000E+00;  9.9999998E-03;  1.0000000E-01;990;0.0;0.0;0.0;1000.0;  4.0000001E-01;0.0;0;0.0;0.0;0.0;0;0.0;  1.0000000E+04;  0.0000000E+00;  0.0000000E+00;  1.0000000E+04;  0.0000000E+00;  1.0000000E+04;0.0;0.0;0.0;0.0
  2.2200000E+00;  9.9999998E-03;  1.2000000E-01;991;0.0;0.0;0.0;1000.0;  4.0000001E-01;0.0;0;0.0;0.0;0.0;0;0.0;  1.0000000E+04;  0.0000000E+00;  0.0000000E+00;  1.0000000E+04;  0.0000000E+00;  1.0000000E+04;0.0;0.0;0.0;0.0
  2.2200000E+00;  9.9999998E-03;  1.4000000E-01;992;0.0;0.0;0.0;1000.0;  4.0000001E-01;0.0;0;0.0;0.0;0.0;0;0.0;  1.0000000E+04;  0.0000000E+00;  0.0000000E+00;  1.0000000E+04;  0.0000000E+00;  1.0000000E+04;0.0;0.0;0.0;0.0
  2.2200000E+00;  9.9999998E-03;  1.6000000E-01;993;0.0;0.0;0.0;1000.0;  4.0000001E-01;0.0;0;0.0;0.0;0.0;0;0.0;  1.0000000E+04;  0.0000000E+00;  0.0000000E+00;  1.0000000E+04;  0.0000000E+00;  1.0000000E+04;0.0;0.0;0.0;0.0
  2.2200000E+00;  9.9999998E-03;  1.8000001E-01;994;0.0;0.0;0.0;1000.0;  4.0000001E-01;0.0;0;0.0;0.0;0.0;0;0.0;  1.0000000E+04;  0.0000000E+00;  0.0000000E+00;  1.0000000E+04;  0.0000000E+00;  1.0000000E+04;0.0;0.0;0.0;0.0
  2.2200000E+00;  9.9999998E-03;  2.0000000E-01;995;0.0;0.0;0.0;1000.0;  4.0000001E-01;0.0;0;0.0;0.0;0.0;0;0.0;  1.0000000E+04;  0.0000000E+00;  0.0000000E+00;  1.0000000E+04;  0.0000000E+00;  1.0000000E+04;0.0;0.0;0.0;0.0
  2.2200000E+00;  9.9999998E-03;  2.2000000E-01;996;0.0;0.0;0.0;1000.0;  4.0000001E-01;0.0;0;0.0;0.0;0.0;0;0.0;  1.0000000E+04;  0.0000000E+00;  0.0000000E+00;  1.0000000E+04;  0.0000000E+00;  1.0000000E+04;0.0;0.0;0.0;0.0
  2.2200000E+00;  9.9999998E-03;  2.3999999E-01;997;0.0;0.0;0.0;1000.0;  4.0000001E-01;0.0;0;0.0;0.0;0.0;0;0.0;  1.0000000E+04;  0.0000000E+00;  0.0000000E+00;  1.0000000E+04;  0.0000000E+00;  1.0000000E+04;0.0;0.0;0.0;0.0
  2.2200000E+00;  9.9999998E-03;  2.5999999E-01;998;0.0;0.0;0.0;1000.0;  4.0000001E-01;0.0;0;0.0;0.0;0.0;0;0.0;  1.0000000E+04;  0.0000000E+00;  0.0000000E+00;  1.0000000E+04;  0.0000000E+00;  1.0000000E+04;0.0;0.0;0.0;0.0
  2.2200000E+00;  9.9999998E-03;  2.8000000E-01;999;0.0;0.0;0.0;1000.0;  4.0000001E-01;0.0;0;0.0;0.0;0.0;0;0.0;  1.0000000E+04;  0.0000000E+00;  0.0000000E+00;  1.0000000E+04;  0.0000000E+00;  1.0000000E+04;0.0;0.0;0.0;0.0
  2.2200000E+00;  9.9999998E-03;  3.0000001E-01;1000;0.0;0.0;0.0;1000.0;  4.0000001E-01;0.0;0;0.0;0.0;0.0;0;0.0;  1.0000000E+04;  0.0000000E+00;  0.0000000E+00;  1.0000000E+04;  0.0000000E+00;  1.0000000E+04;0.0;0.0;0.0;0.0
  2.2200000E+00;  9.9999998E-03;  3.1999999E-01;1001;0.0;0.0;0.0;1000.0;  4.0000001E-01;0.0;0;0.0;0.0;0.0;0;0.0;  1.0000000E+04;  0.0000000E+00;  0.0000000E+00;  1.0000000E+04;  0.0000000E+00;  1.0000000E+04;0.0;0.0;0.0;0.0
  2.2200000E+00;  9.9999998E-03;  3.4000000E-01;1002;0.0;0.0;0.0;1000.0;  4.0000001E-01;0.0;0;0.0;0.0;0.0;0;0.0;  1.0000000E+04;  0.0000000E+00;  0.0000000E+00;  1.0000000E+04;  0.0000000E+00;  1.0000000E+04;0.0;0.0;0.0;0.0
  2.2200000E+00;  9.9999998E-03;  3.6000001E-01;1003;0.0;0.0;0.0;1000.0;  4.0000001E-01;0.0;0;0.0;0.0;0.0;0;0.0;  1.0000000E+04;  0.0000000E+00;  0.0000000E+00;  1.0000000E+04;  0.0000000E+00;  1.0000000E+04;0.0;0.0;0.0;0.0
  2.2200000E+00;  9.9999998E-03;  3.8000000E-01;1004;0.0;0.0;0.0;1000.0;  4.0000001E-01;0.0;0;0.0;0.0;0.0;0;0.0;  1.0000000E+04;  0.0000000E+00;  0.0000000E+00;  1.0000000E+04;  0.0000000E+00;  1.0000000E+04;0.0;0.0;0.0;0.0
  2.2400000E+00;  9.9999998E-03;  1.2000000E-01;1005;0.0;0.0;0.0;1000.0;  4.0000001E-01;0.0;0;0.0;0.0;0.0;0;0.0;  1.0000000E+04;  0.0000000E+00;  0.0000000E+00;  1.0000000E+04;  0.0000000E+00;  1.0000000E+04;0.0;0.0;0.0;0.0
  2.2400000E+00;  9.9999998E-03;  1.4000000E-01;1006;0.0;0.0;0.0;1000.0;  4.0000001E-01;0.0;0;0.0;0.0;0.0;0;0.0;  1.0000000E+04;  0.0000000E+00;  0.0000000E+00;  1.0000000E+04;  0.0000000E+00;  1.0000000E+04;0.0;0.0;0.0;0.0
  2.2400000E+00;  9.9999998E-03;  1.6000000E-01;1007;0.0;0.0;0.0;1000.0;  4.0000001E-01;0.0;0;0.0;0.0;0.0;0;0.0;  1.0000000E+04;  0.0000000E+00;  0.0000000E+00;  1.0000000E+04;  0.0000000E+00;  1.0000000E+04;0.0;0.0;0.0;0.0
  2.2400000E+00;  9.9999998E-03;  1.8000001E-01;1008;0.0;0.0;0.0;1000.0;  4.0000001E-01;0.0;0;0.0;0.0;0.0;0;0.0;  1.0000000E+04;  0.0000000E+00;  0.0000000E+00;  1.0000000E+04;  0.0000000E+00;  1.0000000E+04;0.0;0.0;0.0;0.0
  2.2400000E+00;  9.9999998E-03;  2.0000000E-01;1009;0.0;0.0;0.0;1000.0;  4.0000001E-01;0.0;0;0.0;0.0;0.0;0;0.0;  1.0000000E+04;  0.0000000E+00;  0.0000000E+00;  1.0000000E+04;  0.0000000E+00;  1.0000000E+04;0.0;0.0;0.0;0.0
  2.2400000E+00;  9.9999998E-03;  2.2000000E-01;1010;0.0;0.0;0.0;1000.0;  4.0000001E-01;0.0;0;0.0;0.0;0.0;0;0.0;  1.0000000E+04;  0.0000000E+00;  0.0000000E+00;  1.0000000E+04;  0.0000000E+00;  1.0000000E+04;0.0;0.0;0.0;0.0
  2.2400000E+00;  9.9999998E-03;  2.3999999E-01;1011;0.0;0.0;0.0;1000.0;  4.0000001E-01;0.0;0;0.0;0.0;0.0;0;0.0;  1.0000000E+04;  0.0000000E+00;  0.0000000E+00;  1.0000000E+04;  0.0000000E+00;  1.0000000E+04;0.0;0.0;0.0;0.0
  2.2400000E+00;  9.9999998E-03;  2.5999999E-01;1012;0.0;0.0;0.0;1000.0;  4.0000001E-01;0.0;0;0.0;0.0;0.0;0;0.0;  1.0000000E+04;  0.0000000E+00;  0.0000000E+00;  1.0000000E+04;  0.0000000E+00;  1.0000000E+04;0.0;0.0;0.0;0.0
  2.2400000E+00;  9.9999998E-03;  2.8000000E-01;1013;0.0;0.0;0.0;1000.0;  4.0000001E-01;0.0;0;0.0;0.0;0.0;0;0.0;  1.0000000E+04;  0.0000000E+00;  0.0000000E+00;  1.0000000E+04;  0.0000000E+00;  1.0000000E+04;0.0;0.0;0.0;0.0
  2.2400000E+00;  9.9999998E-03;  3.0000001E-01;1014;0.0;0.0;0.0;1000.0;  4.0000001E-01;0.0;0;0.0;0.0;0.0;0;0.0;  1.0000000E+04;  0.0000000E+00;  0.0000000E+00;  1.0000000E+04;  0.0000000E+00;  1.0000000E+04;0.0;0.0;0.0;0.0
  2.2400000E+00;  9.9999998E-03;  3.1999999E-01;1015;0.0;0.0;0.0;1000.0;  4.0000001E-01;0.0;0;0.0;0.0;0.0;0;0.0;  1.0000000E+04;  0.0000000E+00;  0.0000000E+00;  1.0000000E+04;  0.0000000E+00;  1.0000000E+04;0.0;0.0;0.0;0.0
  2.2400000E+00;  9.9999998E-03;  3.4000000E-01;1016;0.0;0.0;0.0;1000.0;  4.0000001E-01;0.0;0;0.0;0.0;0.0;0;0.0;  1.0000000E+04;  0.0000000E+00;  0.0000000E+00;  1.0000000E+04;  0.0000000E+00;  1.0000000E+04;0.0;0.0;0.0;0.0
  2.2400000E+00;  9.9999998E-03;  3.6000001E-01;1017;0.0;0.0;0.0;1000.0;  4.0000001E-01;0.0;0;0.0;0.0;0.0;0;0.0;  1.0000000E+04;  0.0000000E+00;  0.0000000E+00;  1.0000000E+04;  0.0000000E+00;  1.0000000E+04;0.0;0.0;0.0;0.0
  2.2400000E+00;  9.9999998E-03;  3.8000000E-01;1018;0.0;0.0;0.0;1000.0;  4.0000001E-01;0.0;0;0.0;0.0;0.0;0;0.0;  1.0000000E+04;  0.0000000E+00;  0.0000000E+00;  1.0000000E+04;  0.0000000E+00;  1.0000000E+04;0.0;0.0;0.0;0.0
  2.2600000E+00;  9.9999998E-03;  2.2000000E-01;1019;0.0;0.0;0.0;1000.0;  4.0000001E-01;0.0;0;0.0;0.0;0.0;0;0.0;  1.0000000E+04;  0.0000000E+00;  0.0000000E+00;  1.0000000E+04;  0.0000000E+00;  1.0000000E+04;0.0;0.0;0.0;0.0
  2.2600000E+00;  9.9999998E-03;  2.3999999E-01;1020;0.0;0.0;0.0;1000.0;  4.0000001E-01;0.0;0;0.0;0.0;0.0;0;0.0;  1.0000000E+04;  0.0000000E+00;  0.0000000E+00;  1.0000000E+04;  0.0000000E+00;  1.0000000E+04;0.0;0.0;0.0;0.0
  2.2600000E+00;  9.9999998E-03;  2.5999999E-01;1021;0.0;0.0;0.0;1000.0;  4.0000001E-01;0.0;0;0.0;0.0;0.0;0;0.0;  1.0000000E+04;  0.0000000E+00;  0.0000000E+00;  1.0000000E+04;  0.0000000E+00;  1.0000000E+04;0.0;0.0;0.0;0.0
  2.2600000E+00;  9.9999998E-03;  2.8000000E-01;1022;0.0;0.0;0.0;1000.0;  4.0000001E-01;0.0;0;0.0;0.0;0.0;0;0.0;  1.0000000E+04;  0.0000000E+00;  0.0000000E+00;  1.0000000E+04;  0.0000000E+00;  1.0000000E+04;0.0;0.0;0.0;0.0
  2.2600000E+00;  9.9999998E-03;  3.0000001E-01;1023;0.0;0.0;0.0;1000.0;  4.0000001E-01;0.0;0;0.0;0.0;0.0;0;0.0;  1.0000000E+04;  0.0000000E+00;  0.0000000E+00;  1.0000000E+04;  0.0000000E+00;  1.0000000E+04;0.0;0.0;0.0;0.0
  2.2600000E+00;  9.9999998E-03;  3.1999999E-01;1024;0.0;0.0;0.0;1000.0;  4.0000001E-01;0.0;0;0.0;0.0;0.0;0;0.0;  1.0000000E+04;  0.0000000E+00;  0.0000000E+00;  1.0000000E+04;  0.0000000E+00;  1.0000000E+04;0.0;0.0;0.0;0.0
  2.2600000E+00;  9.9999998E-03;  3.4000000E-01;1025;0.0;0.0;0.0;1000.0;  4.0000001E-01;0.0;0;0.0;0.0;0.0;0;0.0;  1.0000000E+04;  0.0000000E+00;  0.0000000E+00;  1.0000000E+04;  0.0000000E+00;  1.0000000E+04;0.0;0.0;0.0;0.0
  2.2600000E+00;  9.9999998E-03;  3.6000001E-01;1026;0.0;0.0;0.0;1000.0;  4.0000001E-01;0.0;0;0.0;0.0;0.0;0;0.0;  1.0000000E+04;  0.0000000E+00;  0.0000000E+00;  1.0000000E+04;  0.0000000E+00;  1.0000000E+04;0.0;0.0;0.0;0.0
  2.2600000E+00;  9.9999998E-03;  3.8000000E-01;1027;0.0;0.0;0.0;1000.0;  4.0000001E-01;0.0;0;0.0;0.0;0.0;0;0.0;  1.0000000E+04;  0.0000000E+00;  0.0000000E+00;  1.0000000E+04;  0.0000000E+00;  1.0000000E+04;0.0;0.0;0.0;0.0
  2.2800000E+00;  9.9999998E-03;  3.1999999E-01;1028;0.0;0.0;0.0;1000.0;  4.0000001E-01;0.0;0;0.0;0.0;0.0;0;0.0;  1.0000000E+04;  0.0000000E+00;  0.0000000E+00;  1.0000000E+04;  0.0000000E+00;  1.0000000E+04;0.0;0.0;0.0;0.0
  2.2800000E+00;  9.9999998E-03;  3.4000000E-01;1029;0.0;0.0;0.0;1000.0;  4.0000001E-01;0.0;0;0.0;0.0;0.0;0;0.0;  1.0000000E+04;  0.0000000E+00;  0.0000000E+00;  1.0000000E+04;  0.0000000E+00;  1.0000000E+04;0.0;0.0;0.0;0.0
  2.2800000E+00;  9.9999998E-03;  3.6000001E-01;1030;0.0;0.0;0.0;1000.0;  4.0000001E-01;0.0;0;0.0;0.0;0.0;0;0.0;  1.0000000E+04;  0.0000000E+00;  0.0000000E+00;  1.0000000E+04;  0.0000000E+00;  1.0000000E+04;0.0;0.0;0.0;0.0
 -3.2911705E-06;  9.9999998E-03; -2.8000128E-01;1031;-0.0020615652;0.0;-0.00080606778;1000.0716;  4.0000001E-01;59.356339;3;-1.4732599;0.0;-0.58551621;0;-0.041214831;  1.0001326E+04;  0.0000000E+00; -8.9264529E-07;  1.0000000E+04;  0.0000000E+00;  1.0000106E+04;-0.038078204;0.0;-0.0031366269;43.134254
 -4.0104364E-06;  9.9999998E-03; -2.6000121E-01;1032;-0.0025211794;0.0;-0.00077955;1000.0854;  4.0000001E-01;70.714035;3;-1.7220774;0.0;-0.54231882;0;-0.049318932;  1.0001667E+04;  0.0000000E+00; -3.5190922E-07;  1.0000000E+04;  0.0000000E+00;  1.0000046E+04;-0.047870964;0.0;-0.0014479669;14.611714
 -4.6192649E-06;  9.9999998E-03; -2.4000111E-01;1033;-0.0029123486;0.0;-0.00071031536;1000.097;  4.0000001E-01;80.392776;3;-1.9289942;0.0;-0.48246706;0;-0.056053039;  1.0001955E+04;  0.0000000E+00; -4.4493206E-08;  1.0000000E+04;  0.0000000E+00;  9.9999873E+03;-0.056317292;0.0;0.00026425475;13.903382
 -5.0951871E-06;  9.9999998E-03; -2.2000097E-01;1034;-0.0032208695;0.0;-0.00061888935;1000.1062;  4.0000001E-01;87.997498;3;-2.0989532;0.0;-0.41733992;0;-0.06141438;  1.0002184E+04;  0.0000000E+00;  3.8689041E-08;  1.0000000E+04;  0.0000000E+00;  9.9999404E+03;-0.063008428;0.0;0.001594049;35.840061
 -5.4465490E-06;  9.9999998E-03; -2.0000079E-01;1035;-0.0034489918;0.0;-0.00052041135;1000.1132;  4.0000001E-01;93.725731;3;-2.2333984;0.0;-0.3545922;0;-0.065556556;  1.0002351E+04;  0.0000000E+00;  1.0402479E-08;  1.0000000E+04;  0.0000000E+00;  9.9999150E+03;-0.067949787;0.0;0.0023932306;48.832642
  1.9996747E-02;  9.9999998E-03; -3.0000168E-01;1060;-0.0020023466;0.0;-0.0010482732;1000.0693;  4.0000001E-01;57.381084;3;-1.4119759;0.0;-0.75520182;0;-0.039294131;  1.0001197E+04;  0.0000000E+00; -1.0837356E-06;  1.0000000E+04;  0.0000000E+00;  1.0000190E+04;-0.033873774;0.0;-0.0054203579;81.625885
  1.9995432E-02;  9.9999998E-03; -2.8000155E-01;1061;-0.0028324078;0.0;-0.00097275776;1000.0879;  4.0000001E-01;72.788055;3;-1.8580012;0.0;-0.64739227;0;-0.049835242;  1.0001622E+04;  0.0000000E+00; -3.8756420E-07;  1.0000000E+04;  0.0000000E+00;  1.0000133E+04;-0.04587673;0.0;-0.0039585121;55.466171
  1.9994307E-02;  9.9999998E-03; -2.6000154E-01;1062;-0.0035467977;0.0;-0.00096946408;1000.1038;  4.0000001E-01;85.923485;3;-2.1882076;0.0;-0.60922933;0;-0.059011675;  1.0002021E+04;  0.0000000E+00;  2.2289099E-07;  1.0000000E+04;  0.0000000E+00;  1.0000056E+04;-0.057260655;0.0;-0.0017510192;17.625301
  1.9993396E-02;  9.9999998E-03; -2.4000144E-01;1063;-0.0041272151;0.0;-0.00090870808;1000.1168;  4.0000001E-01;96.688606;3;-2.4409389;0.0;-0.55349672;0;-0.066541865;  1.0002359E+04;  0.0000000E+00;  4.7638457E-07;  1.0000000E+04;  0.0000000E+00;  9.9999795E+03;-0.066975884;0.0;0.000434021;19.35022
  1.9992709E-02;  9.9999998E-03; -2.2000127E-01;1064;-0.0045690634;0.0;-0.0008089341;1000.1271;  4.0000001E-01;105.28096;3;-2.641573;0.0;-0.48836827;0;-0.072454281;  1.0002623E+04;  0.0000000E+00;  4.2265208E-07;  1.0000000E+04;  0.0000000E+00;  9.9999180E+03;-0.07456807;0.0;0.0021137914;47.449142
  1.9992217E-02;  9.9999998E-03; -2.0000106E-01;1065;-0.0048864502;0.0;-0.00068965391;1000.1348;  4.0000001E-01;111.60177;3;-2.8005085;0.0;-0.42168868;0;-0.076960541;  1.0002813E+04;  0.0000000E+00;  2.5240232E-07;  1.0000000E+04;  0.0000000E+00;  9.9998848E+03;-0.080079287;0.0;0.0031187495;63.907349
  3.9995454E-02;  9.9999998E-03; -3.0000186E-01;1091;-0.0027717527;0.0;-0.0011323452;1000.082;  4.0000001E-01;67.948685;3;-1.8473387;0.0;-0.76568842;0;-0.045589741;  1.0001411E+04;  0.0000000E+00; -9.8277326E-07;  1.0000000E+04;  0.0000000E+00;  1.0000230E+04;-0.039138101;0.0;-0.0064516403;99.417892
  3.9993636E-02;  9.9999998E-03; -2.8000179E-01;1092;-0.0039108908;0.0;-0.001079671;1000.1028;  4.0000001E-01;85.232147;3;-2.383543;0.0;-0.66122866;0;-0.057327084;  1.0001899E+04;  0.0000000E+00; -3.7333541E-07;  1.0000000E+04;  0.0000000E+00;  1.0000158E+04;-0.052765775;0.0;-0.0045613078;65.149147
  3.9992075E-02;  9.9999998E-03; -2.6000175E-01;1093;-0.004894448;0.0;-0.0010622385;1000.1208;  4.0000001E-01;100.1453;3;-2.7648196;0.0;-0.60591435;0;-0.067441091;  1.0002356E+04;  0.0000000E+00;  2.7299714E-07;  1.0000000E+04;  0.0000000E+00;  1.0000061E+04;-0.065515324;0.0;-0.0019257665;18.87361
  3.9990809E-02;  9.9999998E-03; -2.4000162E-01;1094;-0.0056968299;0.0;-0.0009997075;1000.1352;  4.0000001E-01;111.99682;3;-3.0542755;0.0;-0.54936874;0;-0.075582817;  1.0002736E+04;  0.0000000E+00;  5.9058277E-07;  1.0000000E+04;  0.0000000E+00;  9.9999697E+03;-0.076201886;0.0;0.00061906595;25.280449
  3.9989866E-02;  9.9999998E-03; -2.2000144E-01;1095;-0.0062969523;0.0;-0.00090509246;1000.1461;  4.0000001E-01;120.98421;3;-3.2825975;0.0;-0.49382424;0;-0.081827946;  1.0003025E+04;  0.0000000E+00;  5.6542825E-07;  1.0000000E+04;  0.0000000E+00;  9.9998994E+03;-0.084377624;0.0;0.0025496786;58.313358
  3.9989207E-02;  9.9999998E-03; -2.0000122E-01;1096;-0.0067211557;0.0;-0.0007793167;1000.1542;  4.0000001E-01;127.79884;3;-3.4675732;0.0;-0.43239161;0;-0.086470269;  1.0003225E+04;  0.0000000E+00;  3.7818785E-07;  1.0000000E+04;  0.0000000E+00;  9.9998604E+03;-0.090162933;0.0;0.003692663;77.312637
  5.9993852E-02;  9.9999998E-03; -3.0000198E-01;1122;-0.0037150665;0.0;-0.0011727081;1000.0948;  4.0000001E-01;78.615051;3;-2.3748279;0.0;-0.74771309;0;-0.051561952;  1.0001636E+04;  0.0000000E+00; -1.5773268E-05;  1.0000000E+04;  0.0000000E+00;  1.0000261E+04;-0.044435911;0.0;-0.0071260408;112.82319
  5.9991438E-02;  9.9999998E-03; -2.8000188E-01;1123;-0.0052106031;0.0;-0.0011031682;1000.1187;  4.0000001E-01;98.268814;3;-3.0047555;0.0;-0.62532949;0;-0.064553976;  1.0002195E+04;  0.0000000E+00; -5.1922952E-06;  1.0000000E+04;  0.0000000E+00;  1.0000173E+04;-0.059648573;0.0;-0.0049054055;71.493965
  5.9989400E-02;  9.9999998E-03; -2.6000184E-01;1124;-0.0064787478;0.0;-0.0010906579;1000.1385;  4.0000001E-01;114.76217;3;-3.4229355;0.0;-0.57145286;0;-0.075634122;  1.0002708E+04;  0.0000000E+00; -8.4318299E-07;  1.0000000E+04;  0.0000000E+00;  1.0000063E+04;-0.073672302;0.0;-0.0019618229;18.053997
  5.9987761E-02;  9.9999998E-03; -2.4000172E-01;1125;-0.0075039454;0.0;-0.0010341948;1000.1542;  4.0000001E-01;127.79884;3;-3.7342939;0.0;-0.52144432;0;-0.08437366;  1.0003128E+04;  0.0000000E+00; -1.7835528E-07;  1.0000000E+04;  0.0000000E+00;  9.9999600E+03;-0.085179865;0.0;0.00080620544;31.682201
  5.9986554E-02;  9.9999998E-03; -2.2000155E-01;1126;-0.0082671652;0.0;-0.00094163208;1000.166;  4.0000001E-01;137.47757;3;-3.9860039;0.0;-0.4744767;0;-0.090884797;  1.0003438E+04;  0.0000000E+00;  1.6372780E-07;  1.0000000E+04;  0.0000000E+00;  9.9998818E+03;-0.093749374;0.0;0.0028645755;68.086113
  5.9985723E-02;  9.9999998E-03; -2.0000131E-01;1127;-0.00879669;0.0;-0.00081621238;1000.1741;  4.0000001E-01;144.29219;3;-4.1947885;0.0;-0.42175376;0;-0.095556743;  1.0003646E+04;  0.0000000E+00;  2.3519424E-07;  1.0000000E+04;  0.0000000E+00;  9.9998389E+03;-0.099615164;0.0;0.0040584202;88.425049
  7.9991944E-02;  9.9999998E-03; -3.0000213E-01;1153;-0.0048126457;0.0;-0.0012036153;1000.1102;  4.0000001E-01;91.256668;3;-2.9888391;0.0;-0.72897243;0;-0.058290143;  1.0001918E+04;  0.0000000E+00; -1.5049396E-03;  1.0000000E+04;  0.0000000E+00;  1.0000283E+04;-0.050826475;0.0;-0.007463668;122.26993
  7.9988852E-02;  9.9999998E-03; -2.8000194E-01;1154;-0.0066992305;0.0;-0.001084807;1000.1369;  4.0000001E-01;113.37949;3;-3.7185745;0.0;-0.57388783;0;-0.072637491;  1.0002555E+04;  0.0000000E+00; -8.4348558E-04;  1.0000000E+04;  0.0000000E+00;  1.0000184E+04;-0.067630634;0.0;-0.0050068581;74.680077
  7.9986297E-02;  9.9999998E-03; -2.6000190E-01;1155;-0.0082660066;0.0;-0.0010686959;1000.1591;  4.0000001E-01;131.74934;3;-4.1722021;0.0;-0.52071047;0;-0.084724583;  1.0003122E+04;  0.0000000E+00; -2.9334033E-04;  1.0000000E+04;  0.0000000E+00;  1.0000059E+04;-0.082847528;0.0;-0.0018770564;15.295712
  7.9984285E-02;  9.9999998E-03; -2.4000177E-01;1156;-0.0095135318;0.0;-0.0010157347;1000.1763;  4.0000001E-01;146.06992;3;-4.502593;0.0;-0.47805786;0;-0.09409637;  1.0003579E+04;  0.0000000E+00; -3.3196844E-05;  1.0000000E+04;  0.0000000E+00;  9.9999492E+03;-0.095077008;0.0;0.00098064146;38.555588
  7.9982817E-02;  9.9999998E-03; -2.2000158E-01;1157;-0.010427276;0.0;-0.00093123887;1000.1888;  4.0000001E-01;156.44;3;-4.7718925;0.0;-0.44232208;0;-0.10089073;  1.0003906E+04;  0.0000000E+00; -9.4345847E-07;  1.0000000E+04;  0.0000000E+00;  9.9998672E+03;-0.1039408;0.0;0.0030500661;76.862724
  7.9981834E-02;  9.9999998E-03; -2.0000134E-01;1158;-0.01105237;0.0;-0.00080966076;1000.1969;  4.0000001E-01;163.15585;3;-5.003027;0.0;-0.39892927;0;-0.10556065;  1.0004114E+04;  0.0000000E+00; -2.4257932E-07;  1.0000000E+04;  0.0000000E+00;  9.9998262E+03;-0.10977568;0.0;0.0042150244;97.448814
  9.9989668E-02;  9.9999998E-03; -3.0000231E-01;1184;-0.0060883909;0.0;-0.0012471379;1000.1312;  4.0000001E-01;108.63889;3;-3.7063498;0.0;-0.72302437;0;-0.067788251;  1.0002327E+04;  0.0000000E+00; -1.3400979E-02;  1.0000000E+04;  0.0000000E+00;  1.0000299E+04;-0.060215052;0.0;-0.0075731985;146.2066
  9.9985816E-02;  9.9999998E-03; -2.8000200E-01;1185;-0.0084016416;0.0;-0.0010425942;1000.1613;  4.0000001E-01;133.62582;3;-4.5459318;0.0;-0.51585102;0;-0.083379157;  1.0003033E+04;  0.0000000E+00; -8.4786424E-03;  1.0000000E+04;  0.0000000E+00;  1.0000189E+04;-0.078432411;0.0;-0.0049467492;87.254211
  9.9982716E-02;  9.9999998E-03; -2.6000190E-01;1186;-0.010274928;0.0;-0.0010078507;1000.1854;  4.0000001E-01;153.57588;3;-5.0328636;0.0;-0.45809317;0;-0.096153639;  1.0003655E+04;  0.0000000E+00; -3.9045305E-03;  1.0000000E+04;  0.0000000E+00;  1.0000054E+04;-0.094438344;0.0;-0.001715292;23.030159
  9.9980310E-02;  9.9999998E-03; -2.4000175E-01;1187;-0.011738077;0.0;-0.00095659227;1000.2035;  4.0000001E-01;168.5878;3;-5.3778253;0.0;-0.42341614;0;-0.10587211;  1.0004137E+04;  0.0000000E+00; -1.0739050E-03;  1.0000000E+04;  0.0000000E+00;  9.9999375E+03;-0.1069998;0.0;0.001127691;46.379616
  9.9978603E-02;  9.9999998E-03; -2.2000156E-01;1188;-0.01279053;0.0;-0.00088440953;1000.2164;  4.0000001E-01;179.35292;3;-5.6629634;0.0;-0.40051651;0;-0.11280217;  1.0004470E+04;  0.0000000E+00; -1.2053944E-04;  1.0000000E+04;  0.0000000E+00;  9.9998564E+03;-0.11591867;0.0;0.0031164954;85.091003
  9.9977478E-02;  9.9999998E-03; -2.0000133E-01;1189;-0.013496731;0.0;-0.00077365915;1000.2247;  4.0000001E-01;186.16754;3;-5.9122467;0.0;-0.36971608;0;-0.1174181;  1.0004683E+04;  0.0000000E+00; -1.0536821E-06;  1.0000000E+04;  0.0000000E+00;  9.9998145E+03;-0.12161723;0.0;0.0041991258;105.18227
  1.1998691E-01;  9.9999998E-03; -3.0000257E-01;1215;-0.0075895386;0.0;-0.001342133;1000.1647;  4.0000001E-01;136.48994;3;-4.5471544;0.0;-0.75635624;0;-0.083053768;  1.0002981E+04;  0.0000000E+00; -5.6763891E-02;  1.0000000E+04;  0.0000000E+00;  1.0000313E+04;-0.075443022;0.0;-0.0076107495;326.03461
  1.1998221E-01;  9.9999998E-03; -2.8000206E-01;1216;-0.010370231;0.0;-0.0010075374;1000.1967;  4.0000001E-01;162.95833;3;-5.5054317;0.0;-0.46760654;0;-0.099378958;  1.0003744E+04;  0.0000000E+00; -3.8837168E-02;  1.0000000E+04;  0.0000000E+00;  1.0000190E+04;-0.094523609;0.0;-0.0048553478;216.72586
  1.1997852E-01;  9.9999998E-03; -2.6000187E-01;1217;-0.012555968;0.0;-0.00093239016;1000.2211;  4.0000001E-01;183.10591;3;-6.0178475;0.0;-0.39293528;0;-0.11174776;  1.0004370E+04;  0.0000000E+00; -1.9506732E-02;  1.0000000E+04;  0.0000000E+00;  1.0000045E+04;-0.11021999;0.0;-0.0015277697;102.33417
  1.1997573E-01;  9.9999998E-03; -2.4000172E-01;1218;-0.014227701;0.0;-0.00087930879;1000.2382;  4.0000001E-01;197.32773;3;-6.3678246;0.0;-0.36510015;0;-0.12085135;  1.0004841E+04;  0.0000000E+00; -6.7646699E-03;  1.0000000E+04;  0.0000000E+00;  9.9999238E+03;-0.1221175;0.0;0.0012661449;65.596909
  1.1997379E-01;  9.9999998E-03; -2.2000155E-01;1219;-0.015410469;0.0;-0.00082046096;1000.2502;  4.0000001E-01;207.30275;3;-6.6650877;0.0;-0.35427308;0;-0.1272943;  1.0005166E+04;  0.0000000E+00; -1.3471876E-03;  1.0000000E+04;  0.0000000E+00;  9.9998418E+03;-0.13041942;0.0;0.0031251118;94.549942
  1.1997255E-01;  9.9999998E-03; -2.0000131E-01;1220;-0.016185816;0.0;-0.000728074;1000.2584;  4.0000001E-01;214.0186;3;-6.9292035;0.0;-0.33884957;0;-0.13156134;  1.0005361E+04;  0.0000000E+00; -9.5029223E-05;  1.0000000E+04;  0.0000000E+00;  9.9998027E+03;-0.13565639;0.0;0.0040950538;113.31613
  1.3998353E-01;  9.9999998E-03; -3.0000299E-01;1246;-0.0093829334;0.0;-0.0015328454;1000.2183;  4.0000001E-01;180.83437;3;-5.5369949;0.0;-0.85631466;0;-0.1078686;  1.0004034E+04;  0.0000000E+00; -1.6653523E-01;  1.0000000E+04;  0.0000000E+00;  1.0000335E+04;-0.10013759;0.0;-0.0077310028;884.99176
  1.3997789E-01;  9.9999998E-03; -2.8000221E-01;1247;-0.012665206;0.0;-0.0010244547;1000.25;  4.0000001E-01;207.10522;3;-6.6082673;0.0;-0.45366192;0;-0.12357808;  1.0004802E+04;  0.0000000E+00; -1.1700768E-01;  1.0000000E+04;  0.0000000E+00;  1.0000200E+04;-0.11868235;0.0;-0.0048957234;618.54712
  1.3997360E-01;  9.9999998E-03; -2.6000193E-01;1248;-0.015164148;0.0;-0.00088977267;1000.2696;  4.0000001E-01;223.40106;3;-7.1276426;0.0;-0.34832907;0;-0.13333131;  1.0005360E+04;  0.0000000E+00; -6.1083112E-02;  1.0000000E+04;  0.0000000E+00;  1.0000035E+04;-0.13197775;0.0;-0.0013535663;320.65594
  1.3997039E-01;  9.9999998E-03; -2.4000171E-01;1249;-0.017052146;0.0;-0.00081503415;1000.2828;  4.0000001E-01;234.26494;3;-7.4754715;0.0;-0.31732893;0;-0.13996305;  1.0005753E+04;  0.0000000E+00; -2.3132611E-02;  1.0000000E+04;  0.0000000E+00;  9.9999033E+03;-0.14144036;0.0;0.0014773225;139.49857
  1.3996823E-01;  9.9999998E-03; -2.2000155E-01;1250;-0.018353049;0.0;-0.00077643874;1000.2919;  4.0000001E-01;241.86966;3;-7.7743988;0.0;-0.31817842;0;-0.14471866;  1.0006016E+04;  0.0000000E+00; -5.7305219E-03;  1.0000000E+04;  0.0000000E+00;  9.9998213E+03;-0.14795151;0.0;0.0032328572;112.17308
  1.3996689E-01;  9.9999998E-03; -2.0000133E-01;1251;-0.019188998;0.0;-0.00070369599;1000.2979;  4.0000001E-01;246.8078;3;-8.0489817;0.0;-0.31786305;0;-0.14800857;  1.0006176E+04;  0.0000000E+00; -7.2186929E-04;  1.0000000E+04;  0.0000000E+00;  9.9997861E+03;-0.15208997;0.0;0.0040814043;125.48395
  1.5997925E-01;  9.9999998E-03; -3.0000350E-01;1277;-0.011597216;0.0;-0.0017586433;1000.3001;  4.0000001E-01;248.68428;3;-6.7425499;0.0;-0.97417831;0;-0.14587641;  1.0005640E+04;  0.0000000E+00; -3.8259807E-01;  1.0000000E+04;  0.0000000E+00;  1.0000364E+04;-0.13772143;0.0;-0.0081549771;2016.4873
  1.5997267E-01;  9.9999998E-03; -2.8000247E-01;1278;-0.015348159;0.0;-0.0011086097;1000.3258;  4.0000001E-01;269.91824;3;-7.8657036;0.0;-0.47877312;0;-0.15803884;  1.0006302E+04;  0.0000000E+00; -2.6672414E-01;  1.0000000E+04;  0.0000000E+00;  1.0000210E+04;-0.15280716;0.0;-0.0052316748;1404.1316
  1.5996777E-01;  9.9999998E-03; -2.6000211E-01;1279;-0.018145029;0.0;-0.00092679082;1000.3342;  4.0000001E-01;276.83163;3;-8.355155;0.0;-0.34833002;0;-0.16177022;  1.0006672E+04;  0.0000000E+00; -1.4016150E-01;  1.0000000E+04;  0.0000000E+00;  1.0000015E+04;-0.16060083;0.0;-0.0011694045;737.01996
  1.5996417E-01;  9.9999998E-03; -2.4000184E-01;1280;-0.020252457;0.0;-0.00082539045;1000.3381;  4.0000001E-01;280.09079;3;-8.691596;0.0;-0.30317116;0;-0.16342108;  1.0006895E+04;  0.0000000E+00; -5.4928549E-02;  1.0000000E+04;  0.0000000E+00;  9.9998643E+03;-0.16536495;0.0;0.0019438674;302.87811
  1.5996179E-01;  9.9999998E-03; -2.2000167E-01;1281;-0.021674693;0.0;-0.00079975568;1000.3411;  4.0000001E-01;282.65863;3;-8.9864092;0.0;-0.31585014;0;-0.16496204;  1.0007046E+04;  0.0000000E+00; -1.5057330E-02;  1.0000000E+04;  0.0000000E+00;  9.9997764E+03;-0.16868012;0.0;0.0037180719;154.5457
  1.5996037E-01;  9.9999998E-03; -2.0000146E-01;1282;-0.022559594;0.0;-0.00074605306;1000.3441;  4.0000001E-01;285.02893;3;-9.2668657;0.0;-0.32600188;0;-0.16648751;  1.0007132E+04;  0.0000000E+00; -2.4331119E-03;  1.0000000E+04;  0.0000000E+00;  9.9997451E+03;-0.17094401;0.0;0.0044564893;148.20573
  1.7997365E-01;  9.9999998E-03; -3.0000377E-01;1308;-0.014483288;0.0;-0.0017599373;1000.4141;  4.0000001E-01;343.00259;3;-8.3180885;0.0;-0.92143631;0;-0.1984161;  1.0007839E+04;  0.0000000E+00; -7.0644087E-01;  1.0000000E+04;  0.0000000E+00;  1.0000443E+04;-0.18847342;0.0;-0.0099426862;3724.2832
  1.7996638E-01;  9.9999998E-03; -2.8000280E-01;1309;-0.018505597;0.0;-0.0012053113;1000.423;  4.0000001E-01;350.40979;3;-9.3083506;0.0;-0.50518036;0;-0.2017343;  1.0008230E+04;  0.0000000E+00; -4.8238415E-01;  1.0000000E+04;  0.0000000E+00;  1.0000233E+04;-0.1956186;0.0;-0.0061157108;2541.5081
  1.7996091E-01;  9.9999998E-03; -2.6000240E-01;1310;-0.021567244;0.0;-0.0010319586;1000.4128;  4.0000001E-01;342.01495;3;-9.7166224;0.0;-0.3834486;0;-0.19573115;  1.0008282E+04;  0.0000000E+00; -2.5045970E-01;  1.0000000E+04;  0.0000000E+00;  9.9999775E+03;-0.19488832;0.0;-0.0008428311;1319.3776
  1.7995693E-01;  9.9999998E-03; -2.4000217E-01;1311;-0.023867069;0.0;-0.00095033157;1000.4025;  4.0000001E-01;333.42261;3;-10.015871;0.0;-0.33857059;0;-0.19018964;  1.0008264E+04;  0.0000000E+00; -9.8945931E-02;  1.0000000E+04;  0.0000000E+00;  9.9997861E+03;-0.19320303;0.0;0.0030133941;537.42291
  1.7995432E-01;  9.9999998E-03; -2.2000200E-01;1312;-0.025408698;0.0;-0.00094096328;1000.3972;  4.0000001E-01;329.07706;3;-10.29807;0.0;-0.36401141;0;-0.1873562;  1.0008254E+04;  0.0000000E+00; -2.8425191E-02;  1.0000000E+04;  0.0000000E+00;  9.9996943E+03;-0.19235131;0.0;0.0049951137;232.25023
  1.7995286E-01;  9.9999998E-03; -2.0000179E-01;1313;-0.026329547;0.0;-0.00090693909;1000.3956;  4.0000001E-01;327.79315;3;-10.578073;0.0;-0.38706559;0;-0.18657325;  1.0008242E+04;  0.0000000E+00; -5.1865377E-03;  1.0000000E+04;  0.0000000E+00;  9.9996699E+03;-0.19220145;0.0;0.0056282002;190.56064
  1.9996630E-01;  9.9999998E-03; -3.0000371E-01;1339;-0.018257713;0.0;-0.0015053485;1000.549;  4.0000001E-01;454.80188;3;-10.387772;0.0;-0.68090057;0;-0.25990871;  1.0010351E+04;  0.0000000E+00; -1.0300102E+00;  1.0000000E+04;  0.0000000E+00;  1.0000626E+04;-0.24460958;0.0;-0.015299139;5442.7642
  1.9995867E-01;  9.9999998E-03; -2.8000313E-01;1340;-0.022288457;0.0;-0.0012770856;1000.5313;  4.0000001E-01;440.08624;3;-11.006852;0.0;-0.50721931;0;-0.24882236;  1.0010354E+04;  0.0000000E+00; -6.9467479E-01;  1.0000000E+04;  0.0000000E+00;  1.0000276E+04;-0.24077003;0.0;-0.0080523379;3666.4702
  1.9995278E-01;  9.9999998E-03; -2.6000285E-01;1341;-0.025515825;0.0;-0.0011891633;1000.4977;  4.0000001E-01;412.33395;3;-11.247753;0.0;-0.43181515;0;-0.23114932;  1.0010063E+04;  0.0000000E+00; -3.5510430E-01;  1.0000000E+04;  0.0000000E+00;  9.9998975E+03;-0.23100954;0.0;-0.00013977801;1874.8003
  1.9994847E-01;  9.9999998E-03; -2.4000272E-01;1342;-0.027959688;0.0;-0.001200263;1000.4719;  4.0000001E-01;391.00122;3;-11.458037;0.0;-0.4355979;0;-0.21782044;  1.0009797E+04;  0.0000000E+00; -1.3971215E-01;  1.0000000E+04;  0.0000000E+00;  9.9996504E+03;-0.22304167;0.0;0.0052212314;764.40515
  1.9994572E-01;  9.9999998E-03; -2.2000261E-01;1343;-0.029585458;0.0;-0.0012430892;1000.4579;  4.0000001E-01;379.44601;3;-11.708467;0.0;-0.47681093;0;-0.21060336;  1.0009623E+04;  0.0000000E+00; -4.0869053E-02;  1.0000000E+04;  0.0000000E+00;  9.9995391E+03;-0.21820287;0.0;0.0075995242;333.68808
  1.9994424E-01;  9.9999998E-03; -2.0000240E-01;1344;-0.030523602;0.0;-0.0012328337;1000.4523;  4.0000001E-01;374.70538;3;-11.976004;0.0;-0.51933432;0;-0.20761229;  1.0009516E+04;  0.0000000E+00; -7.8849187E-03;  1.0000000E+04;  0.0000000E+00;  9.9995313E+03;-0.21567939;0.0;0.0080671012;261.68683
  2.1995784E-01;  9.9999998E-03; -3.0000561E-01;1370;-0.02245101;0.0;-0.002248131;1000.6584;  4.0000001E-01;545.46594;3;-12.615589;0.0;-1.0158367;0;-0.30686662;  1.0012509E+04;  0.0000000E+00; -1.1958858E+00;  1.0000000E+04;  0.0000000E+00;  1.0000659E+04;-0.28875011;0.0;-0.018116517;6334.833
  2.1994941E-01;  9.9999998E-03; -2.8000429E-01;1371;-0.026726458;0.0;-0.0017584573;1000.6291;  4.0000001E-01;521.17035;3;-12.95211;0.0;-0.71936417;0;-0.28866935;  1.0012328E+04;  0.0000000E+00; -7.9465711E-01;  1.0000000E+04;  0.0000000E+00;  1.0000254E+04;-0.27928486;0.0;-0.0093844915;4202.6372
  2.1994321E-01;  9.9999998E-03; -2.6000383E-01;1372;-0.030032493;0.0;-0.0016265868;1000.5783;  4.0000001E-01;479.0975;3;-12.946554;0.0;-0.60881519;0;-0.2623747;  1.0011831E+04;  0.0000000E+00; -4.0100369E-01;  1.0000000E+04;  0.0000000E+00;  9.9997354E+03;-0.2643199;0.0;0.0019451929;2125.6946
  2.1993864E-01;  9.9999998E-03; -2.4000368E-01;1373;-0.032573823;0.0;-0.001677938;1000.5411;  4.0000001E-01;448.28354;3;-13.01734;0.0;-0.63491106;0;-0.24336953;  1.0011419E+04;  0.0000000E+00; -1.5610419E-01;  1.0000000E+04;  0.0000000E+00;  9.9994082E+03;-0.25266367;0.0;0.009294142;885.74463
  2.1993580E-01;  9.9999998E-03; -2.2000359E-01;1374;-0.034252439;0.0;-0.0017396049;1000.5214;  4.0000001E-01;431.98773;3;-13.218524;0.0;-0.6709038;0;-0.23324491;  1.0011136E+04;  0.0000000E+00; -4.5587812E-02;  1.0000000E+04;  0.0000000E+00;  9.9992969E+03;-0.24528836;0.0;0.012043443;446.49286
  2.1993437E-01;  9.9999998E-03; -2.0000336E-01;1375;-0.035173025;0.0;-0.0017602372;1000.513;  4.0000001E-01;424.97559;3;-13.457782;0.0;-0.72989988;0;-0.22889361;  1.0010946E+04;  0.0000000E+00; -8.8732401E-03;  1.0000000E+04;  0.0000000E+00;  9.9993164E+03;-0.24106133;0.0;0.012167722;368.92648
  2.3994730E-01;  9.9999998E-03; -3.0001307E-01;1401;-0.027327038;0.0;-0.0059141354;1000.6824;  4.0000001E-01;565.31726;3;-15.019106;0.0;-2.9872456;0;-0.30781963;  1.0014192E+04;  0.0000000E+00; -1.1349164E+00;  1.0000000E+04;  0.0000000E+00;  9.9994619E+03;-0.31687546;0.0;0.0090558156;6028.2534
  2.3993830E-01;  9.9999998E-03; -2.8000891E-01;1402;-0.031834241;0.0;-0.0041114516;1000.6848;  4.0000001E-01;567.29254;3;-15.079013;0.0;-1.8961887;0;-0.30445668;  1.0014032E+04;  0.0000000E+00; -7.3094797E-01;  1.0000000E+04;  0.0000000E+00;  9.9996650E+03;-0.30775201;0.0;0.0032953378;3879.2048
  2.3993185E-01;  9.9999998E-03; -2.6000664E-01;1403;-0.03523672;0.0;-0.0030442278;1000.6428;  4.0000001E-01;532.52808;3;-14.834869;0.0;-1.2277889;0;-0.28352255;  1.0013541E+04;  0.0000000E+00; -3.6079374E-01;  1.0000000E+04;  0.0000000E+00;  9.9993232E+03;-0.29299349;0.0;0.0094709266;1946.1133
  2.3992717E-01;  9.9999998E-03; -2.4000563E-01;1404;-0.037804641;0.0;-0.0026852728;1000.6062;  4.0000001E-01;502.20795;3;-14.722853;0.0;-1.0523391;0;-0.26477408;  1.0013103E+04;  0.0000000E+00; -1.3762417E-01;  1.0000000E+04;  0.0000000E+00;  9.9990254E+03;-0.28105399;0.0;0.016279908;890.22797
  2.3992442E-01;  9.9999998E-03; -2.2000520E-01;1405;-0.039445184;0.0;-0.0026017202;1000.5861;  4.0000001E-01;485.51706;3;-14.821531;0.0;-1.0231613;0;-0.25444144;  1.0012781E+04;  0.0000000E+00; -3.9306026E-02;  1.0000000E+04;  0.0000000E+00;  9.9989463E+03;-0.27307296;0.0;0.018631527;586.64227
  2.3992310E-01;  9.9999998E-03; -2.0000479E-01;1406;-0.040317394;0.0;-0.0025589566;1000.5775;  4.0000001E-01;478.40616;3;-15.025118;0.0;-1.0680654;0;-0.25006539;  1.0012546E+04;  0.0000000E+00; -7.3487977E-03;  1.0000000E+04;  0.0000000E+00;  9.9990107E+03;-0.2681126;0.0;0.018047217;516.80695
  2.5993326E-01;  9.9999998E-03; -3.0002037E-01;1432;-0.03363961;0.0;-0.0091387499;1000.6825;  4.0000001E-01;565.41595;3;-18.046207;0.0;-4.5824051;0;-0.29745173;  1.0015784E+04;  0.0000000E+00; -8.2914054E-01;  1.0000000E+04;  0.0000000E+00;  9.9978730E+03;-0.33883029;0.0;0.041378543;4535.3594
  2.5992453E-01;  9.9999998E-03; -2.8001514E-01;1433;-0.037972264;0.0;-0.0071325055;1000.7089;  4.0000001E-01;587.34131;3;-17.563992;0.0;-3.2740545;0;-0.30299425;  1.0015652E+04;  0.0000000E+00; -5.2781016E-01;  1.0000000E+04;  0.0000000E+00;  9.9985303E+03;-0.33065742;0.0;0.027663186;2902.4917
  2.5991818E-01;  9.9999998E-03; -2.6001111E-01;1434;-0.041288737;0.0;-0.0053451797;1000.6932;  4.0000001E-01;574.30463;3;-16.924379;0.0;-2.2566895;0;-0.29469842;  1.0015264E+04;  0.0000000E+00; -2.5487575E-01;  1.0000000E+04;  0.0000000E+00;  9.9986055E+03;-0.31872267;0.0;0.024024241;1530.1735
  2.5991377E-01;  9.9999998E-03; -2.4000885E-01;1435;-0.043722596;0.0;-0.0043689273;1000.668;  4.0000001E-01;553.4657;3;-16.56918;0.0;-1.7496564;0;-0.28225213;  1.0014887E+04;  0.0000000E+00; -9.4139330E-02;  1.0000000E+04;  0.0000000E+00;  9.9984805E+03;-0.30873123;0.0;0.026479091;921.46796
  2.5991130E-01;  9.9999998E-03; -2.2000772E-01;1436;-0.045225807;0.0;-0.0039517656;1000.653;  4.0000001E-01;541.02161;3;-16.522285;0.0;-1.5704613;0;-0.27452511;  1.0014578E+04;  0.0000000E+00; -2.5527149E-02;  1.0000000E+04;  0.0000000E+00;  9.9984922E+03;-0.30161405;0.0;0.027088929;780.53986
  2.5991023E-01;  9.9999998E-03; -2.0000683E-01;1437;-0.046021663;0.0;-0.0036698135;1000.647;  4.0000001E-01;535.98474;3;-16.68614;0.0;-1.503116;0;-0.27137837;  1.0014317E+04;  0.0000000E+00; -4.2665349E-03;  1.0000000E+04;  0.0000000E+00;  9.9986260E+03;-0.29676017;0.0;0.025381807;703.15167
  2.7991617E-01;  9.9999998E-03; -3.0002588E-01;1463;-0.041136932;0.0;-0.011339365;1000.7106;  4.0000001E-01;588.72394;3;-21.547703;0.0;-5.6054034;0;-0.29826435;  1.0017507E+04;  0.0000000E+00; -4.6304321E-01;  1.0000000E+04;  0.0000000E+00;  9.9967148E+03;-0.35934994;0.0;0.061085582;2950.73
  2.7990809E-01;  9.9999998E-03; -2.8002077E-01;1464;-0.045116693;0.0;-0.0095797777;1000.7402;  4.0000001E-01;613.2171;3;-20.379631;0.0;-4.2802315;0;-0.30406183;  1.0017399E+04;  0.0000000E+00; -2.9232836E-01;  1.0000000E+04;  0.0000000E+00;  9.9974160E+03;-0.35255474;0.0;0.048492905;2017.0393
  2.7990225E-01;  9.9999998E-03; -2.6001608E-01;1465;-0.048139755;0.0;-0.0077535575;1000.7444;  4.0000001E-01;616.67377;3;-19.219208;0.0;-3.2364986;0;-0.30393246;  1.0017120E+04;  0.0000000E+00; -1.3761993E-01;  1.0000000E+04;  0.0000000E+00;  9.9977734E+03;-0.34406868;0.0;0.040136229;1334.9001
  2.7989835E-01;  9.9999998E-03; -2.4001294E-01;1466;-0.050302915;0.0;-0.0064581828;1000.7335;  4.0000001E-01;607.6864;3;-18.520014;0.0;-2.5891819;0;-0.29870176;  1.0016827E+04;  0.0000000E+00; -4.8133217E-02;  1.0000000E+04;  0.0000000E+00;  9.9978525E+03;-0.33681324;0.0;0.038111471;1109.3375
  2.7989626E-01;  9.9999998E-03; -2.2001095E-01;1467;-0.051636085;0.0;-0.0056729051;1000.7262;  4.0000001E-01;601.66187;3;-18.314251;0.0;-2.2488818;0;-0.2948927;  1.0016548E+04;  0.0000000E+00; -1.1715304E-02;  1.0000000E+04;  0.0000000E+00;  9.9979785E+03;-0.33125463;0.0;0.036361944;1020.28
  2.7989548E-01;  9.9999998E-03; -2.0000939E-01;1468;-0.052330095;0.0;-0.0050736046;1000.7232;  4.0000001E-01;599.19281;3;-18.430815;0.0;-2.0678489;0;-0.2935403;  1.0016279E+04;  0.0000000E+00; -1.5200570E-03;  1.0000000E+04;  0.0000000E+00;  9.9981885E+03;-0.32701674;0.0;0.03347645;917.47577
  2.9989704E-01;  9.9999998E-03; -3.0003071E-01;1494;-0.049178932;0.0;-0.013149153;1000.7719;  4.0000001E-01;639.48785;3;-25.197124;0.0;-6.4051733;0;-0.31023824;  1.0019459E+04;  0.0000000E+00; -1.9657235E-01;  1.0000000E+04;  0.0000000E+00;  9.9959912E+03;-0.38057384;0.0;0.070335612;2231.0317
  2.9988962E-01;  9.9999998E-03; -2.8002578E-01;1495;-0.052760098;0.0;-0.011630452;1000.7979;  4.0000001E-01;661.01807;3;-23.232399;0.0;-5.0908909;0;-0.31418407;  1.0019379E+04;  0.0000000E+00; -1.2110904E-01;  1.0000000E+04;  0.0000000E+00;  9.9965850E+03;-0.37593269;0.0;0.061748613;1804.2162
  2.9988432E-01;  9.9999998E-03; -2.6002097E-01;1496;-0.055516683;0.0;-0.0099691451;1000.8102;  4.0000001E-01;671.28943;3;-21.543844;0.0;-4.0675554;0;-0.31768012;  1.0019198E+04;  0.0000000E+00; -5.3836204E-02;  1.0000000E+04;  0.0000000E+00;  9.9970205E+03;-0.3707726;0.0;0.05309248;1508.4573
  2.9988089E-01;  9.9999998E-03; -2.4001729E-01;1497;-0.057469856;0.0;-0.0085740695;1000.8097;  4.0000001E-01;670.79559;3;-20.528986;0.0;-3.3725443;0;-0.31763166;  1.0018972E+04;  0.0000000E+00; -1.6869375E-02;  1.0000000E+04;  0.0000000E+00;  9.9972344E+03;-0.36618707;0.0;0.048555419;1383.6022
  2.9987916E-01;  9.9999998E-03; -2.2001459E-01;1498;-0.058671515;0.0;-0.0075207874;1000.8083;  4.0000001E-01;669.70923;3;-20.180189;0.0;-2.946703;0;-0.3171373;  1.0018723E+04;  0.0000000E+00; -3.2410852E-03;  1.0000000E+04;  0.0000000E+00;  9.9974570E+03;-0.3622973;0.0;0.045159988;1276.0204
  2.9987872E-01;  9.9999998E-03; -2.0001239E-01;1499;-0.059280593;0.0;-0.0066674044;1000.8082;  4.0000001E-01;669.51166;3;-20.260435;0.0;-2.6713669;0;-0.31734595;  1.0018452E+04;  0.0000000E+00; -2.1908224E-04;  1.0000000E+04;  0.0000000E+00;  9.9977207E+03;-0.35891733;0.0;0.041571382;1147.4016
  3.1987667E-01;  9.9999998E-03; -3.0003551E-01;1525;-0.057336815;0.0;-0.014873963;1000.8615;  4.0000001E-01;713.65857;3;-28.72397;0.0;-7.1555195;0;-0.33044237;  1.0021709E+04;  0.0000000E+00; -5.8965709E-02;  1.0000000E+04;  0.0000000E+00;  9.9955361E+03;-0.40438312;0.0;0.073940769;2219.9761
  3.1986955E-01;  9.9999998E-03; -2.8003052E-01;1526;-0.060690537;0.0;-0.013472904;1000.8832;  4.0000001E-01;731.73212;3;-26.03673;0.0;-5.7963824;0;-0.33357826;  1.0021654E+04;  0.0000000E+00; -3.3588994E-02;  1.0000000E+04;  0.0000000E+00;  9.9960166E+03;-0.40214798;0.0;0.068569727;1974.2229
  3.1986448E-01;  9.9999998E-03; -2.6002565E-01;1527;-0.06331905;0.0;-0.011962405;1000.8969;  4.0000001E-01;742.99103;3;-23.858763;0.0;-4.7787623;0;-0.33812708;  1.0021533E+04;  0.0000000E+00; -1.3091601E-02;  1.0000000E+04;  0.0000000E+00;  9.9964180E+03;-0.39970368;0.0;0.061576597;1778.3195
  3.1986129E-01;  9.9999998E-03; -2.4002165E-01;1528;-0.065194681;0.0;-0.01056524;1000.9006;  4.0000001E-01;746.15143;3;-22.564007;0.0;-4.0532899;0;-0.34061414;  1.0021355E+04;  0.0000000E+00; -3.1210000E-03;  1.0000000E+04;  0.0000000E+00;  9.9966719E+03;-0.39730424;0.0;0.056690093;1657.0443
  3.1985980E-01;  9.9999998E-03; -2.2001839E-01;1529;-0.066352509;0.0;-0.0093621071;1000.9026;  4.0000001E-01;747.83044;3;-22.099167;0.0;-3.5907457;0;-0.34209383;  1.0021130E+04;  0.0000000E+00; -2.9131118E-04;  1.0000000E+04;  0.0000000E+00;  9.9969375E+03;-0.39494166;0.0;0.052847836;1530.7645
  3.1985968E-01;  9.9999998E-03; -2.0001565E-01;1530;-0.066902995;0.0;-0.0083271991;1000.9041;  4.0000001E-01;749.01556;3;-22.159952;0.0;-3.2565281;0;-0.34336373;  1.0020856E+04;  0.0000000E+00;  1.4788237E-05;  1.0000000E+04;  0.0000000E+00;  9.9972402E+03;-0.39254206;0.0;0.049178325;1385.5637
  3.3985510E-01;  9.9999998E-03; -3.0004063E-01;1556;-0.065494694;0.0;-0.016628671;1000.9717;  4.0000001E-01;805.01392;3;-32.072414;0.0;-7.8705754;0;-0.35657796;  1.0024269E+04;  0.0000000E+00; -8.8843899E-03;  1.0000000E+04;  0.0000000E+00;  9.9951826E+03;-0.43189359;0.0;0.075315632;2380.2014
  3.3984774E-01;  9.9999998E-03; -2.8003535E-01;1557;-0.068910785;0.0;-0.015255489;1000.9902;  4.0000001E-01;820.32208;3;-28.7883;0.0;-6.4376602;0;-0.35963637;  1.0024231E+04;  0.0000000E+00; -4.1506812E-03;  1.0000000E+04;  0.0000000E+00;  9.9955879E+03;-0.43156642;0.0;0.071930058;2186.5664
  3.3984247E-01;  9.9999998E-03; -2.6003027E-01;1558;-0.071603239;0.0;-0.013807433;1001.0025;  4.0000001E-01;830.59344;3;-26.174025;0.0;-5.3878932;0;-0.36419329;  1.0024147E+04;  0.0000000E+00; -1.0181986E-03;  1.0000000E+04;  0.0000000E+00;  9.9959219E+03;-0.43108714;0.0;0.066893853;2027.6985
  3.3983931E-01;  9.9999998E-03; -2.4002600E-01;1559;-0.073526837;0.0;-0.012425304;1001.007;  4.0000001E-01;834.24762;3;-24.631538;0.0;-4.6388574;0;-0.36750525;  1.0024000E+04;  0.0000000E+00;  7.8020921E-06;  1.0000000E+04;  0.0000000E+00;  9.9961582E+03;-0.43039852;0.0;0.062893286;1916.7963
  3.3983797E-01;  9.9999998E-03; -2.2002229E-01;1560;-0.0747061;0.0;-0.011148794;1001.0101;  4.0000001E-01;836.91425;3;-24.070786;0.0;-4.1525993;0;-0.36995283;  1.0023791E+04;  0.0000000E+00;  5.0142986E-05;  1.0000000E+04;  0.0000000E+00;  9.9964297E+03;-0.4294202;0.0;0.059467364;1785.4998
  3.3983812E-01;  9.9999998E-03; -2.0001908E-01;1561;-0.075236194;0.0;-0.0099905711;1001.0126;  4.0000001E-01;838.98822;3;-24.125301;0.0;-3.7912529;0;-0.37193626;  1.0023517E+04;  0.0000000E+00;  1.3434151E-05;  1.0000000E+04;  0.0000000E+00;  9.9967432E+03;-0.42810676;0.0;0.056170508;1630.8944
  3.5983172E-01;  9.9999998E-03; -3.0004624E-01;1587;-0.073895372;0.0;-0.018458847;1001.0964;  4.0000001E-01;908.41827;3;-35.349316;0.0;-8.5766964;0;-0.38599074;  1.0027146E+04;  0.0000000E+00;  7.4688418E-05;  1.0000000E+04;  0.0000000E+00;  9.9948057E+03;-0.46302402;0.0;0.077033274;2576.4358
  3.5982358E-01;  9.9999998E-03; -2.8004053E-01;1588;-0.077601619;0.0;-0.017061604;1001.1138;  4.0000001E-01;922.73883;3;-31.549831;0.0;-7.033587;0;-0.3894279;  1.0027137E+04;  0.0000000E+00;  2.8974985E-04;  1.0000000E+04;  0.0000000E+00;  9.9951650E+03;-0.46407071;0.0;0.074642822;2403.2429
  3.5981789E-01;  9.9999998E-03; -2.6003504E-01;1589;-0.080504708;0.0;-0.015585802;1001.1249;  4.0000001E-01;932.02252;3;-28.529158;0.0;-5.9208655;0;-0.3941417;  1.0027078E+04;  0.0000000E+00;  2.4554774E-04;  1.0000000E+04;  0.0000000E+00;  9.9954395E+03;-0.46505851;0.0;0.070916794;2272.9729
  3.5981458E-01;  9.9999998E-03; -2.4003045E-01;1590;-0.082551777;0.0;-0.014202614;1001.1288;  4.0000001E-01;935.18292;3;-26.745367;0.0;-5.135838;0;-0.39767405;  1.0026959E+04;  0.0000000E+00;  1.3245034E-04;  1.0000000E+04;  0.0000000E+00;  9.9956357E+03;-0.46578982;0.0;0.068115771;2179.7759
  3.5981336E-01;  9.9999998E-03; -2.2002633E-01;1591;-0.08378838;0.0;-0.012878446;1001.1324;  4.0000001E-01;938.14581;3;-26.094959;0.0;-4.6342421;0;-0.400702;  1.0026758E+04;  0.0000000E+00;  5.1263727E-05;  1.0000000E+04;  0.0000000E+00;  9.9959082E+03;-0.46611369;0.0;0.065411672;2048.6067
  3.5981378E-01;  9.9999998E-03; -2.0002261E-01;1592;-0.084318601;0.0;-0.011620266;1001.135;  4.0000001E-01;940.3186;3;-26.14609;0.0;-4.2668152;0;-0.40327322;  1.0026480E+04;  0.0000000E+00;  1.2655647E-05;  1.0000000E+04;  0.0000000E+00;  9.9962402E+03;-0.46593907;0.0;0.062665857;1886.2842
  3.7980562E-01;  9.9999998E-03; -3.0005243E-01;1618;-0.082873218;0.0;-0.020357383;1001.2365;  4.0000001E-01;1024.4641;3;-38.715324;0.0;-9.246829;0;-0.41764256;  1.0030425E+04;  0.0000000E+00;  2.6044800E-04;  1.0000000E+04;  0.0000000E+00;  9.9943330E+03;-0.49771461;0.0;0.080072038;2821.1187
  3.7979650E-01;  9.9999998E-03; -2.8004614E-01;1619;-0.086963296;0.0;-0.018893985;1001.2546;  4.0000001E-01;1039.3772;3;-34.387402;0.0;-7.5925136;0;-0.42194495;  1.0030439E+04;  0.0000000E+00;  3.7857323E-04;  1.0000000E+04;  0.0000000E+00;  9.9946797E+03;-0.49984932;0.0;0.077904373;2652.7463
  3.7979022E-01;  9.9999998E-03; -2.6004013E-01;1620;-0.090133026;0.0;-0.017349282;1001.2645;  4.0000001E-01;1047.5745;3;-30.947899;0.0;-6.3847327;0;-0.42711872;  1.0030403E+04;  0.0000000E+00;  2.8601420E-04;  1.0000000E+04;  0.0000000E+00;  9.9949141E+03;-0.50201505;0.0;0.074896336;2541.6765
  3.7978673E-01;  9.9999998E-03; -2.4003513E-01;1621;-0.092336603;0.0;-0.015939843;1001.2672;  4.0000001E-01;1049.8461;3;-28.904991;0.0;-5.5569687;0;-0.4308472;  1.0030288E+04;  0.0000000E+00;  1.4941803E-04;  1.0000000E+04;  0.0000000E+00;  9.9950801E+03;-0.50395077;0.0;0.073103577;2461.8755
  3.7978563E-01;  9.9999998E-03; -2.2003055E-01;1622;-0.093645111;0.0;-0.014568303;1001.2707;  4.0000001E-01;1052.7102;3;-28.164759;0.0;-5.0357885;0;-0.43433979;  1.0030081E+04;  0.0000000E+00;  5.5138054E-05;  1.0000000E+04;  0.0000000E+00;  9.9953564E+03;-0.50543791;0.0;0.071098112;2328.345
  3.7978637E-01;  9.9999998E-03; -2.0002630E-01;1623;-0.09419293;0.0;-0.013212188;1001.2731;  4.0000001E-01;1054.7842;3;-28.21487;0.0;-4.6760406;0;-0.43739876;  1.0029780E+04;  0.0000000E+00;  1.2341134E-05;  1.0000000E+04;  0.0000000E+00;  9.9957051E+03;-0.5063135;0.0;0.068914741;2156.2288
  3.9977622E-01;  9.9999998E-03; -3.0005935E-01;1649;-0.092572741;0.0;-0.022305582;1001.3954;  4.0000001E-01;1156.0155;3;-42.214382;0.0;-9.855875;0;-0.45224178;  1.0034206E+04;  0.0000000E+00;  3.2057206E-04;  1.0000000E+04;  0.0000000E+00;  9.9937344E+03;-0.53645337;0.0;0.084211603;3124.7622
  3.9976600E-01;  9.9999998E-03; -2.8005233E-01;1650;-0.097073346;0.0;-0.020759789;1001.4143;  4.0000001E-01;1171.7188;3;-37.311962;0.0;-8.0872211;0;-0.45733571;  1.0034218E+04;  0.0000000E+00;  4.6265754E-04;  1.0000000E+04;  0.0000000E+00;  9.9940967E+03;-0.53936678;0.0;0.082031079;2950.366
  3.9975911E-01;  9.9999998E-03; -2.6004571E-01;1651;-0.10053834;0.0;-0.019129772;1001.4227;  4.0000001E-01;1178.731;3;-33.426903;0.0;-6.7711515;0;-0.46296999;  1.0034176E+04;  0.0000000E+00;  3.4291833E-04;  1.0000000E+04;  0.0000000E+00;  9.9943145E+03;-0.54239315;0.0;0.079423167;2848.1565
  3.9975542E-01;  9.9999998E-03; -2.4004015E-01;1652;-0.10292313;0.0;-0.017675404;1001.4239;  4.0000001E-01;1179.6198;3;-31.11949;0.0;-5.8783636;0;-0.46686727;  1.0034040E+04;  0.0000000E+00;  1.7413805E-04;  1.0000000E+04;  0.0000000E+00;  9.9944697E+03;-0.54523951;0.0;0.07837224;2772.8262
  3.9975443E-01;  9.9999998E-03; -2.2003502E-01;1653;-0.1043197;0.0;-0.016242759;1001.4266;  4.0000001E-01;1181.8914;3;-30.27059;0.0;-5.3566394;0;-0.4707593;  1.0033802E+04;  0.0000000E+00;  6.1154009E-05;  1.0000000E+04;  0.0000000E+00;  9.9947607E+03;-0.54763812;0.0;0.076878823;2630.6326
  3.9975551E-01;  9.9999998E-03; -2.0003018E-01;1654;-0.10490271;0.0;-0.014777608;1001.4281;  4.0000001E-01;1183.1753;3;-30.332125;0.0;-4.9896984;0;-0.47420925;  1.0033452E+04;  0.0000000E+00;  1.2176705E-05;  1.0000000E+04;  0.0000000E+00;  9.9951426E+03;-0.54937297;0.0;0.075163715;2443.957
  4.1974309E-01;  9.9999998E-03; -3.0006716E-01;1680;-0.10302766;0.0;-0.024310116;1001.5771;  4.0000001E-01;1306.6281;3;-45.839073;0.0;-10.371402;0;-0.49010417;  1.0038564E+04;  0.0000000E+00;  3.8108201E-04;  1.0000000E+04;  0.0000000E+00;  9.9930205E+03;-0.57958966;0.0;0.089485496;3491.9287
  4.1973168E-01;  9.9999998E-03; -2.8005925E-01;1681;-0.10797287;0.0;-0.022667432;1001.5956;  4.0000001E-01;1321.9363;3;-40.311501;0.0;-8.4988222;0;-0.49576259;  1.0038545E+04;  0.0000000E+00;  5.6652981E-04;  1.0000000E+04;  0.0000000E+00;  9.9934102E+03;-0.5829069;0.0;0.087144315;3303.127
  4.1972417E-01;  9.9999998E-03; -2.6005182E-01;1682;-0.11175994;0.0;-0.020950804;1001.6019;  4.0000001E-01;1327.1707;3;-35.952599;0.0;-7.0695472;0;-0.50160837;  1.0038448E+04;  0.0000000E+00;  4.1644511E-04;  1.0000000E+04;  0.0000000E+00;  9.9936328E+03;-0.58641016;0.0;0.084801808;3197.6726
  4.1972026E-01;  9.9999998E-03; -2.4004559E-01;1683;-0.11434844;0.0;-0.019435968;1001.6006;  4.0000001E-01;1326.0842;3;-33.357204;0.0;-6.133657;0;-0.50563663;  1.0038259E+04;  0.0000000E+00;  2.0690991E-04;  1.0000000E+04;  0.0000000E+00;  9.9937998E+03;-0.58979446;0.0;0.084157817;3115.1565
  4.1971943E-01;  9.9999998E-03; -2.2003978E-01;1684;-0.11585648;0.0;-0.017914932;1001.6014;  4.0000001E-01;1326.7756;3;-32.401649;0.0;-5.5893493;0;-0.50984091;  1.0037943E+04;  0.0000000E+00;  6.9753558E-05;  1.0000000E+04;  0.0000000E+00;  9.9941250E+03;-0.59277397;0.0;0.082933076;2956.4167
  4.1972089E-01;  9.9999998E-03; -2.0003429E-01;1685;-0.11649124;0.0;-0.016325286;1001.601;  4.0000001E-01;1326.3805;3;-32.476074;0.0;-5.2089128;0;-0.51355922;  1.0037518E+04;  0.0000000E+00;  1.2517623E-05;  1.0000000E+04;  0.0000000E+00;  9.9945430E+03;-0.59510469;0.0;0.081545457;2749.3662
  4.3970567E-01;  9.9999998E-03; -3.0007598E-01;1711;-0.11427629;0.0;-0.026381349;1001.7838;  4.0000001E-01;1477.8817;3;-49.556881;0.0;-10.805905;0;-0.53152448;  1.0043559E+04;  0.0000000E+00;  4.2685849E-04;  1.0000000E+04;  0.0000000E+00;  9.9921680E+03;-0.62731016;0.0;0.095785655;3924.4521
  4.3969300E-01;  9.9999998E-03; -2.8006706E-01;1712;-0.11970924;0.0;-0.024623618;1001.8007;  4.0000001E-01;1491.8071;3;-43.372742;0.0;-8.8038673;0;-0.53731406;  1.0043457E+04;  0.0000000E+00;  6.8998284E-04;  1.0000000E+04;  0.0000000E+00;  9.9926104E+03;-0.63056123;0.0;0.093247168;3710.8999
  4.3968484E-01;  9.9999998E-03; -2.6005861E-01;1713;-0.12384515;0.0;-0.022818787;1001.8044;  4.0000001E-01;1494.8688;3;-38.504921;0.0;-7.274827;0;-0.54303038;  1.0043262E+04;  0.0000000E+00;  5.1052868E-04;  1.0000000E+04;  0.0000000E+00;  9.9928740E+03;-0.63405782;0.0;0.091027461;3583.5623
  4.3968076E-01;  9.9999998E-03; -2.4005149E-01;1714;-0.1266645;0.0;-0.021210153;1001.7992;  4.0000001E-01;1490.6221;3;-35.609615;0.0;-6.285696;0;-0.54711145;  1.0042956E+04;  0.0000000E+00;  2.5142971E-04;  1.0000000E+04;  0.0000000E+00;  9.9930811E+03;-0.63751078;0.0;0.090399347;3482.3833
  4.3968013E-01;  9.9999998E-03; -2.2004494E-01;1715;-0.12830622;0.0;-0.019576173;1001.7963;  4.0000001E-01;1488.153;3;-34.545925;0.0;-5.719317;0;-0.55143446;  1.0042524E+04;  0.0000000E+00;  8.3409082E-05;  1.0000000E+04;  0.0000000E+00;  9.9934502E+03;-0.640652;0.0;0.089217566;3300.7993
  4.3968213E-01;  9.9999998E-03; -2.0003876E-01;1716;-0.12901019;0.0;-0.017847586;1001.7921;  4.0000001E-01;1484.6963;3;-34.63715;0.0;-5.3249493;0;-0.55521685;  1.0041978E+04;  0.0000000E+00;  1.4864224E-05;  1.0000000E+04;  0.0000000E+00;  9.9939189E+03;-0.64324927;0.0;0.088032424;3068.9019
  4.5966327E-01;  9.9999998E-03; -3.0008614E-01;1742;-0.12639052;0.0;-0.028523741;1002.0181;  4.0000072E-01;1671.949;3;-53.366814;0.0;-11.12474;0;-0.57644886;  1.0049200E+04;  0.0000000E+00;  4.4175304E-04;  1.0000000E+04;  0.0000000E+00;  9.9911904E+03;-0.67942154;0.0;0.10297268;4423.3618
  4.5964932E-01;  9.9999998E-03; -2.8007591E-01;1743;-0.1323512;0.0;-0.026637521;1002.0321;  4.0000084E-01;1683.6029;3;-46.48539;0.0;-8.9784031;0;-0.58178252;  1.0048945E+04;  0.0000000E+00;  8.3957723E-04;  1.0000000E+04;  0.0000000E+00;  9.9917266E+03;-0.68198144;0.0;0.10019893;4161.6743
  4.5964053E-01;  9.9999998E-03; -2.6006615E-01;1744;-0.13686195;0.0;-0.024716837;1002.0324;  4.0000084E-01;1683.8004;3;-41.07547;0.0;-7.3498979;0;-0.58709955;  1.0048591E+04;  0.0000000E+00;  6.3663936E-04;  1.0000000E+04;  0.0000000E+00;  9.9920889E+03;-0.68484062;0.0;0.097741067;3986.0449
  4.5963633E-01;  9.9999998E-03; -2.4005792E-01;1745;-0.13993849;0.0;-0.022967227;1002.0212;  4.0000072E-01;1674.5167;3;-37.864792;0.0;-6.3038311;0;-0.59099722;  1.0048107E+04;  0.0000000E+00;  3.1731534E-04;  1.0000000E+04;  0.0000000E+00;  9.9923457E+03;-0.6877625;0.0;0.096765265;3860.4182
  4.5963606E-01;  9.9999998E-03; -2.2005059E-01;1746;-0.1417329;0.0;-0.021204181;1002.0115;  4.0000081E-01;1666.517;3;-36.689087;0.0;-5.7138543;0;-0.59504205;  1.0047501E+04;  0.0000000E+00;  1.0827745E-04;  1.0000000E+04;  0.0000000E+00;  9.9927607E+03;-0.69054496;0.0;0.095502935;3655.2876
  4.5963868E-01;  9.9999998E-03; -2.0004375E-01;1747;-0.14251962;0.0;-0.01933462;1002.0018;  4.0000084E-01;1658.4185;3;-36.806145;0.0;-5.3154678;0;-0.59854025;  1.0046787E+04;  0.0000000E+00;  2.2448305E-05;  1.0000000E+04;  0.0000000E+00;  9.9932793E+03;-0.69300675;0.0;0.094466485;3398.041
  4.7961491E-01;  9.9999998E-03; -3.0009797E-01;1773;-0.13950039;0.0;-0.030757248;1002.2762;  4.0000227E-01;1885.7682;3;-57.283047;0.0;-11.304623;0;-0.6238386;  1.0055383E+04;  0.0000000E+00;  4.1509970E-04;  1.0000000E+04;  0.0000000E+00;  9.9901113E+03;-0.73459554;0.0;0.11075693;4973.0688
  4.7959977E-01;  9.9999998E-03; -2.8008607E-01;1774;-0.14600866;0.0;-0.028711552;1002.2877;  4.0000224E-01;1895.2493;3;-49.649891;0.0;-8.9861851;0;-0.62818658;  1.0054902E+04;  0.0000000E+00;  1.0352805E-03;  1.0000000E+04;  0.0000000E+00;  9.9908232E+03;-0.73568267;0.0;0.10749608;4625.021
  4.7959051E-01;  9.9999998E-03; -2.6007444E-01;1775;-0.15090613;0.0;-0.026609622;1002.2836;  4.0000236E-01;1891.8914;3;-43.659565;0.0;-7.2537355;0;-0.63290983;  1.0054304E+04;  0.0000000E+00;  8.2026090E-04;  1.0000000E+04;  0.0000000E+00;  9.9913408E+03;-0.73712766;0.0;0.10421785;4372.9507
  4.7958639E-01;  9.9999998E-03; -2.4006496E-01;1776;-0.15425722;0.0;-0.024661748;1002.2614;  4.0000218E-01;1873.5216;3;-40.116821;0.0;-6.144825;0;-0.63606828;  1.0053574E+04;  0.0000000E+00;  4.2290849E-04;  1.0000000E+04;  0.0000000E+00;  9.9916230E+03;-0.73880196;0.0;0.10273369;4232.9238
  4.7958663E-01;  9.9999998E-03; -2.2005694E-01;1777;-0.15621057;0.0;-0.022781996;1002.2413;  4.0000230E-01;1856.9296;3;-38.823715;0.0;-5.5371175;0;-0.63913316;  1.0052729E+04;  0.0000000E+00;  1.5506717E-04;  1.0000000E+04;  0.0000000E+00;  9.9920645E+03;-0.74062413;0.0;0.10149095;4014.2053
  4.7959009E-01;  9.9999998E-03; -2.0004964E-01;1778;-0.15708478;0.0;-0.020795131;1002.2232;  4.0000227E-01;1841.9176;3;-38.971935;0.0;-5.1352425;0;-0.64182329;  1.0051806E+04;  0.0000000E+00;  4.1140607E-05;  1.0000000E+04;  0.0000000E+00;  9.9926182E+03;-0.74249649;0.0;0.1006732;3737.0178
  4.9955916E-01;  9.9999998E-03; -3.0011192E-01;1804;-0.15384179;0.0;-0.033112291;1002.5471;  4.0000534E-01;2110.2529;3;-61.356972;0.0;-11.324205;0;-0.67081267;  1.0061769E+04;  0.0000000E+00;  3.5166036E-04;  1.0000000E+04;  0.0000000E+00;  9.9890078E+03;-0.78925061;0.0;0.11843797;5536.0396
  4.9954334E-01;  9.9999998E-03; -2.8009781E-01;1805;-0.16084842;0.0;-0.030850742;1002.5573;  4.0000543E-01;2118.6477;3;-52.887688;0.0;-8.7892866;0;-0.67382169;  1.0060986E+04;  0.0000000E+00;  1.3225587E-03;  1.0000000E+04;  0.0000000E+00;  9.9899932E+03;-0.78805357;0.0;0.1142319;5051.2188
  4.9953398E-01;  9.9999998E-03; -2.6008371E-01;1806;-0.16610189;0.0;-0.028454073;1002.5465;  4.0000537E-01;2109.7593;3;-46.263569;0.0;-6.9368844;0;-0.6777879;  1.0060073E+04;  0.0000000E+00;  1.1108540E-03;  1.0000000E+04;  0.0000000E+00;  9.9906963E+03;-0.78727752;0.0;0.10948963;4710.0605
  4.9953032E-01;  9.9999998E-03; -2.4007297E-01;1807;-0.16971448;0.0;-0.026269283;1002.5065;  4.0000540E-01;2076.5752;3;-42.370567;0.0;-5.7515373;0;-0.67911541;  1.0059037E+04;  0.0000000E+00;  6.0124928E-04;  1.0000000E+04;  0.0000000E+00;  9.9909238E+03;-0.78698796;0.0;0.10787255;4596.0801
  4.9953139E-01;  9.9999998E-03; -2.2006455E-01;1808;-0.17181027;0.0;-0.024336426;1002.4712;  4.0000534E-01;2047.3414;3;-40.946438;0.0;-5.1444235;0;-0.68019587;  1.0057906E+04;  0.0000000E+00;  2.4068741E-04;  1.0000000E+04;  0.0000000E+00;  9.9913398E+03;-0.78726453;0.0;0.10706867;4387.0059
  4.9953592E-01;  9.9999998E-03; -2.0005707E-01;1809;-0.17276545;0.0;-0.022296691;1002.4417;  4.0000546E-01;2022.8484;3;-41.135487;0.0;-4.7734923;0;-0.68145591;  1.0056740E+04;  0.0000000E+00;  7.9269616E-05;  1.0000000E+04;  0.0000000E+00;  9.9919141E+03;-0.78812343;0.0;0.10666753;4100.3032
  5.1949424E-01;  9.9999998E-03; -3.0012861E-01;1835;-0.16976318;0.0;-0.03564243;1002.8165;  4.0001476E-01;2333.3538;3;-65.686684;0.0;-11.173019;0;-0.7115823;  1.0067712E+04;  0.0000000E+00;  2.8519126E-04;  1.0000000E+04;  0.0000000E+00;  9.9879883E+03;-0.8364867;0.0;0.12490442;6056.6338
  5.1947886E-01;  9.9999998E-03; -2.8011158E-01;1836;-0.17707093;0.0;-0.03308009;1002.8278;  4.0001476E-01;2342.7361;3;-56.237545;0.0;-8.3505163;0;-0.71314156;  1.0066584E+04;  0.0000000E+00;  1.7890012E-03;  1.0000000E+04;  0.0000000E+00;  9.9893340E+03;-0.83242905;0.0;0.11928749;5392.6904
  5.1947033E-01;  9.9999998E-03; -2.6009437E-01;1837;-0.18256582;0.0;-0.0302423;1002.8055;  4.0001458E-01;2324.3665;3;-48.903332;0.0;-6.3424544;0;-0.71605051;  1.0065311E+04;  0.0000000E+00;  1.6041134E-03;  1.0000000E+04;  0.0000000E+00;  9.9901631E+03;-0.82886237;0.0;0.11281189;4990.0264
  5.1946771E-01;  9.9999998E-03; -2.4008273E-01;1838;-0.18636625;0.0;-0.027838726;1002.7374;  4.0001473E-01;2267.8745;3;-44.615448;0.0;-5.0805006;0;-0.7138679;  1.0063940E+04;  0.0000000E+00;  9.1397291E-04;  1.0000000E+04;  0.0000000E+00;  9.9901768E+03;-0.82613134;0.0;0.11226347;4981.5083
  5.1947004E-01;  9.9999998E-03; -2.2007440E-01;1839;-0.18856733;0.0;-0.025961474;1002.6828;  4.0001467E-01;2222.6414;3;-43.049198;0.0;-4.4939213;0;-0.71184391;  1.0062513E+04;  0.0000000E+00;  3.9152283E-04;  1.0000000E+04;  0.0000000E+00;  9.9905059E+03;-0.82450891;0.0;0.112665;4815.6519
  5.1947588E-01;  9.9999998E-03; -2.0006707E-01;1840;-0.18957528;0.0;-0.023979871;1002.6412;  4.0001470E-01;2188.1736;3;-43.274456;0.0;-4.159564;0;-0.71115607;  1.0061105E+04;  0.0000000E+00;  1.4451383E-04;  1.0000000E+04;  0.0000000E+00;  9.9910654E+03;-0.82411718;0.0;0.11296109;4529.7495
  5.3941840E-01;  9.9999998E-03; -3.0014887E-01;1866;-0.18759583;0.0;-0.038431734;1003.0636;  4.0003961E-01;2538.0828;3;-70.371346;0.0;-10.841108;0;-0.7368691;  1.0072187E+04;  0.0000000E+00;  2.7770951E-04;  1.0000000E+04;  0.0000000E+00;  9.9871836E+03;-0.86551207;0.0;0.12864301;6468.0122
  5.3940582E-01;  9.9999998E-03; -2.8012821E-01;1867;-0.19478957;0.0;-0.035470769;1003.0768;  4.0003958E-01;2549.0454;3;-59.728569;0.0;-7.6370397;0;-0.7370013;  1.0070734E+04;  0.0000000E+00;  2.5733116E-03;  1.0000000E+04;  0.0000000E+00;  9.9889033E+03;-0.85864794;0.0;0.12164663;5621.1792
  5.3939956E-01;  9.9999998E-03; -2.6010764E-01;1868;-0.20028298;0.0;-0.032049965;1003.0343;  4.0003964E-01;2513.8862;3;-51.58503;0.0;-5.4205465;0;-0.73818958;  1.0069138E+04;  0.0000000E+00;  2.4690444E-03;  1.0000000E+04;  0.0000000E+00;  9.9896475E+03;-0.85236615;0.0;0.11417654;5258.9409
  5.3939885E-01;  9.9999998E-03; -2.4009563E-01;1869;-0.20413458;0.0;-0.029537385;1002.9284;  4.0003964E-01;2426.0869;3;-46.853024;0.0;-4.0903454;0;-0.73034537;  1.0067466E+04;  0.0000000E+00;  1.4760544E-03;  1.0000000E+04;  0.0000000E+00;  9.9892070E+03;-0.84733009;0.0;0.1169847;5470.9688
  5.3940290E-01;  9.9999998E-03; -2.2008801E-01;1870;-0.20636585;0.0;-0.027877139;1002.8526;  4.0003973E-01;2363.2742;3;-45.135483;0.0;-3.5245967;0;-0.72435272;  1.0065793E+04;  0.0000000E+00;  6.5420277E-04;  1.0000000E+04;  0.0000000E+00;  9.9893584E+03;-0.84398514;0.0;0.11963239;5387.4658
  5.3941035E-01;  9.9999998E-03; -2.0008102E-01;1871;-0.20739684;0.0;-0.026064834;1002.8006;  4.0003970E-01;2320.2141;3;-45.379066;0.0;-3.2836549;0;-0.72166491;  1.0064188E+04;  0.0000000E+00;  2.4056379E-04;  1.0000000E+04;  0.0000000E+00;  9.9899121E+03;-0.8425169;0.0;0.12085199;5106.2246
  5.5933172E-01;  9.9999998E-03; -3.0017403E-01;1897;-0.20731395;0.0;-0.041633721;1003.2875;  4.0010655E-01;2723.5515;3;-75.417419;0.0;-10.319348;0;-0.73276341;  1.0073803E+04;  0.0000000E+00;  4.1399882E-04;  1.0000000E+04;  0.0000000E+00;  9.9866494E+03;-0.86126012;0.0;0.12849668;6739.4917
  5.5932510E-01;  9.9999998E-03; -2.8014931E-01;1898;-0.21377632;0.0;-0.038194239;1003.3016;  4.0010661E-01;2735.304;3;-63.321957;0.0;-6.6361375;0;-0.73190987;  1.0072154E+04;  0.0000000E+00;  3.8521260E-03;  1.0000000E+04;  0.0000000E+00;  9.9885840E+03;-0.85283935;0.0;0.12092946;5785.8374
  5.5932295E-01;  9.9999998E-03; -2.6012534E-01;1899;-0.21892259;0.0;-0.034155127;1003.2284;  4.0010658E-01;2674.6643;3;-54.253437;0.0;-4.2026529;0;-0.73024678;  1.0070373E+04;  0.0000000E+00;  3.9485418E-03;  1.0000000E+04;  0.0000000E+00;  9.9889033E+03;-0.8451885;0.0;0.11494173;5632.4849
  5.5932528E-01;  9.9999998E-03; -2.4011368E-01;1900;-0.22258539;0.0;-0.031746898;1003.0793;  4.0010661E-01;2551.1135;3;-49.026489;0.0;-2.8007567;0;-0.71491277;  1.0068560E+04;  0.0000000E+00;  2.4645808E-03;  1.0000000E+04;  0.0000000E+00;  9.9877441E+03;-0.83916551;0.0;0.12425273;6192.4185
  5.5933154E-01;  9.9999998E-03; -2.2010717E-01;1901;-0.22476937;0.0;-0.030454308;1002.9855;  4.0010682E-01;2473.3879;3;-47.140251;0.0;-2.2585623;0;-0.70500845;  1.0066775E+04;  0.0000000E+00;  1.1063770E-03;  1.0000000E+04;  0.0000000E+00;  9.9876475E+03;-0.83522528;0.0;0.13021682;6228.811
  5.5934066E-01;  9.9999998E-03; -2.0010027E-01;1902;-0.22583057;0.0;-0.028819475;1002.9301;  4.0010673E-01;2427.5625;3;-47.391178;0.0;-2.1512728;0;-0.70108604;  1.0065104E+04;  0.0000000E+00;  3.7027177E-04;  1.0000000E+04;  0.0000000E+00;  9.9882002E+03;-0.83353049;0.0;0.13244446;5946.0767
  5.7923764E-01;  9.9999998E-03; -3.0020621E-01;1928;-0.22807506;0.0;-0.045535963;1003.5574;  4.0028414E-01;2947.1384;3;-80.572891;0.0;-9.617775;0;-0.67812574;  1.0070722E+04;  0.0000000E+00;  8.6109038E-04;  1.0000000E+04;  0.0000000E+00;  9.9861855E+03;-0.80281347;0.0;0.12468772;6956.7881
  5.7924038E-01;  9.9999998E-03; -2.8017762E-01;1929;-0.23316231;0.0;-0.041608933;1003.5692;  4.0028432E-01;2957.0144;3;-66.863213;0.0;-5.3709221;0;-0.67750186;  1.0069155E+04;  0.0000000E+00;  5.8907266E-03;  1.0000000E+04;  0.0000000E+00;  9.9879893E+03;-0.79583186;0.0;0.11833002;6068.3252
  5.7924420E-01;  9.9999998E-03; -2.6015061E-01;1930;-0.23760648;0.0;-0.037019927;1003.4626;  4.0028438E-01;2868.7217;3;-56.784481;0.0;-2.6129117;0;-0.67240542;  1.0067499E+04;  0.0000000E+00;  6.3641267E-03;  1.0000000E+04;  0.0000000E+00;  9.9875264E+03;-0.79012758;0.0;0.11772214;6298.6851
  5.7925034E-01;  9.9999998E-03; -2.4013907E-01;1931;-0.24086845;0.0;-0.03489621;1003.2778;  4.0028441E-01;2715.543;3;-51.014759;0.0;-1.1792638;0;-0.64998984;  1.0065847E+04;  0.0000000E+00;  4.0942747E-03;  1.0000000E+04;  0.0000000E+00;  9.9854932E+03;-0.78641379;0.0;0.13642392;7281.3047
  5.7925916E-01;  9.9999998E-03; -2.2013320E-01;1932;-0.24284451;0.0;-0.034026209;1003.1779;  4.0028447E-01;2632.7808;3;-48.867561;0.0;-0.83828902;0;-0.63819921;  1.0064240E+04;  0.0000000E+00;  1.8334877E-03;  1.0000000E+04;  0.0000000E+00;  9.9851025E+03;-0.7847541;0.0;0.14655489;7459.9897
  5.7926989E-01;  9.9999998E-03; -2.0012577E-01;1933;-0.24400683;0.0;-0.032464281;1003.1305;  4.0028465E-01;2593.4739;3;-49.16785;0.0;-0.80587333;0;-0.63498282;  1.0062726E+04;  0.0000000E+00;  5.3498149E-04;  1.0000000E+04;  0.0000000E+00;  9.9856680E+03;-0.78498644;0.0;0.1500036;7171.1816
  5.9914422E-01;  9.9999998E-03; -3.0024883E-01;1959;-0.24825791;0.0;-0.050658587;1004.1319;  4.0073517E-01;3423.1528;3;-85.51918;0.0;-8.9522896;0;-0.54148841;  1.0060721E+04;  0.0000000E+00;  1.8564587E-03;  1.0000000E+04;  0.0000000E+00;  9.9850928E+03;-0.66249895;0.0;0.12101056;7459.5044
  5.9915799E-01;  9.9999998E-03; -2.8021762E-01;1960;-0.25151363;0.0;-0.0463369;1004.1394;  4.0073544E-01;3429.375;3;-70.068649;0.0;-3.9389997;0;-0.54414648;  1.0059647E+04;  0.0000000E+00;  9.1014905E-03;  1.0000000E+04;  0.0000000E+00;  9.9863115E+03;-0.661668;0.0;0.11752155;6863.0786
  5.9916866E-01;  9.9999998E-03; -2.6018786E-01;1961;-0.2549001;0.0;-0.041621998;1004.0195;  4.0073574E-01;3330.0215;3;-58.982452;0.0;-0.67432308;0;-0.53556573;  1.0058559E+04;  0.0000000E+00;  1.0155100E-02;  1.0000000E+04;  0.0000000E+00;  9.9850166E+03;-0.66292179;0.0;0.12735605;7496.6094
  5.9917849E-01;  9.9999998E-03; -2.4017353E-01;1962;-0.25773284;0.0;-0.039358746;1003.8319;  4.0073606E-01;3174.5718;3;-52.590984;0.0;0.59274805;0;-0.51274854;  1.0057508E+04;  0.0000000E+00;  6.6500297E-03;  1.0000000E+04;  0.0000000E+00;  9.9823369E+03;-0.66653156;0.0;0.15378301;8791.3594
  5.9918940E-01;  9.9999998E-03; -2.2016592E-01;1963;-0.25976777;0.0;-0.038289491;1003.7451;  4.0073642E-01;3102.6736;3;-50.262981;0.0;0.94742543;0;-0.50301611;  1.0056485E+04;  0.0000000E+00;  2.9488674E-03;  1.0000000E+04;  0.0000000E+00;  9.9816172E+03;-0.67182744;0.0;0.16881134;9128.9639
  5.9920150E-01;  9.9999998E-03; -2.0015652E-01;1964;-0.26103866;0.0;-0.036609087;1003.7224;  4.0073636E-01;3083.8103;3;-50.576912;0.0;0.8357982;0;-0.50332975;  1.0055479E+04;  0.0000000E+00;  7.3686504E-04;  1.0000000E+04;  0.0000000E+00;  9.9821602E+03;-0.67789084;0.0;0.17456105;8851.582
  6.1906195E-01;  9.9999998E-03; -3.0030704E-01;1990;-0.26557535;0.0;-0.057617016;1005.5922;  4.0177003E-01;4632.9468;3;-89.494774;0.0;-8.3066635;0;-0.2853688;  1.0041597E+04;  0.0000000E+00;  3.4785264E-03;  1.0000000E+04;  0.0000000E+00;  9.9817471E+03;-0.40998074;0.0;0.12461193;9031.6309
  6.1908489E-01;  9.9999998E-03; -2.8027594E-01;1991;-0.26721725;0.0;-0.053544689;1005.604;  4.0177086E-01;4642.7241;3;-72.80471;0.0;-2.2437425;0;-0.29114121;  1.0041464E+04;  0.0000000E+00;  1.3624849E-02;  1.0000000E+04;  0.0000000E+00;  9.9820732E+03;-0.42055255;0.0;0.12941135;8875.3428
  6.1909926E-01;  9.9999998E-03; -2.6024047E-01;1992;-0.27015251;0.0;-0.048637513;1005.5519;  4.0177161E-01;4599.5654;3;-60.708752;0.0;1.1085576;0;-0.29016423;  1.0041390E+04;  0.0000000E+00;  1.5414287E-02;  1.0000000E+04;  0.0000000E+00;  9.9811143E+03;-0.43392015;0.0;0.1437559;9341.876
  6.1911207E-01;  9.9999998E-03; -2.4021834E-01;1993;-0.27286923;0.0;-0.045029294;1005.4143;  4.0177220E-01;4485.4971;3;-53.819485;0.0;2.634572;0;-0.27685097;  1.0041389E+04;  0.0000000E+00;  1.0359176E-02;  1.0000000E+04;  0.0000000E+00;  9.9783750E+03;-0.44986579;0.0;0.17301482;10669.542
  6.1912549E-01;  9.9999998E-03; -2.2020529E-01;1994;-0.27473551;0.0;-0.043331224;1005.3614;  4.0177280E-01;4441.7466;3;-51.319527;0.0;3.054076;0;-0.27194795;  1.0041392E+04;  0.0000000E+00;  4.6414440E-03;  1.0000000E+04;  0.0000000E+00;  9.9773135E+03;-0.46693444;0.0;0.19498649;11172.482
  6.1913902E-01;  9.9999998E-03; -2.0019154E-01;1995;-0.27610028;0.0;-0.040955655;1005.3777;  4.0177307E-01;4455.1777;3;-51.668503;0.0;2.9071946;0;-0.27811995;  1.0041283E+04;  0.0000000E+00;  1.0662390E-03;  1.0000000E+04;  0.0000000E+00;  9.9777227E+03;-0.48323694;0.0;0.20511699;10959.133
  6.3900131E-01;  9.9999998E-03; -3.0038425E-01;2021;-0.27811098;0.0;-0.067004584;1008.5139;  4.0367714E-01;7053.3086;3;-92.592331;0.0;-8.2512255;0;0.11964016;  1.0012066E+04;  0.0000000E+00;  5.1286304E-03;  1.0000000E+04;  0.0000000E+00;  9.9746865E+03;-0.024362296;0.0;0.14400245;12382.791
  6.3902658E-01;  9.9999998E-03; -2.8035635E-01;2022;-0.27970824;0.0;-0.063840009;1008.5569;  4.0367869E-01;7088.9609;3;-74.934959;0.0;-0.57667035;0;0.10892576;  1.0013221E+04;  0.0000000E+00;  1.8123971E-02;  1.0000000E+04;  0.0000000E+00;  9.9743154E+03;-0.050130773;0.0;0.15905653;12572.154
  6.3904250E-01;  9.9999998E-03; -2.6031896E-01;2023;-0.28268337;0.0;-0.059244744;1008.6323;  4.0367967E-01;7151.4756;3;-62.098629;0.0;2.7778339;0;0.092640154;  1.0014489E+04;  0.0000000E+00;  2.1195056E-02;  1.0000000E+04;  0.0000000E+00;  9.9745283E+03;-0.078862064;0.0;0.17150222;12465.199
  6.3905579E-01;  9.9999998E-03; -2.4028119E-01;2024;-0.28543696;0.0;-0.053505156;1008.6473;  4.0368047E-01;7163.9194;3;-54.747456;0.0;4.7639704;0;0.0841076;  1.0015839E+04;  0.0000000E+00;  1.4883577E-02;  1.0000000E+04;  0.0000000E+00;  9.9734727E+03;-0.1099124;0.0;0.19402;12972.62
  6.3907015E-01;  9.9999998E-03; -2.2025259E-01;2025;-0.28724945;0.0;-0.049207233;1008.6667;  4.0368131E-01;7179.9185;3;-52.101318;0.0;5.2888346;0;0.079239771;  1.0017142E+04;  0.0000000E+00;  7.0174360E-03;  1.0000000E+04;  0.0000000E+00;  9.9725322E+03;-0.14126755;0.0;0.22050732;13415.572
  6.3908589E-01;  9.9999998E-03; -2.0023149E-01;2026;-0.28834701;0.0;-0.045596734;1008.7284;  4.0368184E-01;7231.0757;3;-52.349945;0.0;5.3016071;0;0.068039849;  1.0018228E+04;  0.0000000E+00;  1.7609487E-03;  1.0000000E+04;  0.0000000E+00;  9.9726436E+03;-0.1702553;0.0;0.23829515;13345.342
  6.5896952E-01;  9.9999998E-03; -3.0047408E-01;2052;-0.28386164;0.0;-0.077833131;1012.1147;  4.0609765E-01;10036.43;3;-93.246605;0.0;-8.5624905;0;0.65109736;  9.9730068E+03;  0.0000000E+00;  4.8398483E-03;  1.0000000E+04;  0.0000000E+00;  9.9655322E+03;0.48742366;0.0;0.16367368;16739.803
  6.5899283E-01;  9.9999998E-03; -2.8045186E-01;2053;-0.28609321;0.0;-0.077054732;1012.2004;  4.0609914E-01;10107.437;3;-75.729424;0.0;0.83981007;0;0.64995474;  9.9755283E+03;  0.0000000E+00;  1.9893371E-02;  1.0000000E+04;  0.0000000E+00;  9.9646367E+03;0.44666693;0.0;0.2032878;17167.398
  6.5900940E-01;  9.9999998E-03; -2.6042259E-01;2054;-0.28937179;0.0;-0.074013919;1012.386;  4.0609962E-01;10261.203;3;-62.396038;0.0;4.009727;0;0.61408252;  9.9781865E+03;  0.0000000E+00;  2.5107823E-02;  1.0000000E+04;  0.0000000E+00;  9.9656338E+03;0.40337783;0.0;0.2107047;16684.131
  6.5902221E-01;  9.9999998E-03; -2.4037459E-01;2055;-0.29237738;0.0;-0.0679667;1012.6048;  4.0609980E-01;10442.425;3;-54.971771;0.0;6.2711954;0;0.58096838;  9.9808965E+03;  0.0000000E+00;  1.8876467E-02;  1.0000000E+04;  0.0000000E+00;  9.9672510E+03;0.35893312;0.0;0.22203529;15881.904
  6.5903413E-01;  9.9999998E-03; -2.2032166E-01;2056;-0.29499418;0.0;-0.059003968;1012.7485;  4.0610015E-01;10561.429;3;-52.237385;0.0;7.3620224;0;0.55886036;  9.9835039E+03;  0.0000000E+00;  9.6920207E-03;  1.0000000E+04;  0.0000000E+00;  9.9674854E+03;0.31542557;0.0;0.24343479;15755.471
  6.5904921E-01;  9.9999998E-03; -2.0028339E-01;2057;-0.29661894;0.0;-0.051966518;1012.8614;  4.0610066E-01;10654.953;3;-52.685719;0.0;7.6604433;0;0.5449127;  9.9857891E+03;  0.0000000E+00;  3.0035176E-03;  1.0000000E+04;  0.0000000E+00;  9.9674102E+03;0.27568999;0.0;0.26922268;15772.122
  6.7898405E-01;  9.9999998E-03; -3.0055633E-01;2083;-0.27727318;0.0;-0.086593501;1014.4174;  4.0805060E-01;11943.873;3;-89.331718;0.0;-9.4492378;0;1.2088253;  9.9285430E+03;  0.0000000E+00;  1.6671811E-03;  1.0000000E+04;  0.0000000E+00;  9.9595938E+03;1.0728012;0.0;0.13602412;19533.916
  6.7899173E-01;  9.9999998E-03; -2.8054067E-01;2084;-0.28425992;0.0;-0.089279406;1014.5094;  4.0805104E-01;12020.114;3;-74.148682;0.0;2.1793823;0;1.2411758;  9.9320488E+03;  0.0000000E+00;  1.6091879E-02;  1.0000000E+04;  0.0000000E+00;  9.9578809E+03;1.0242232;0.0;0.21695258;20327.629
  6.7900610E-01;  9.9999998E-03; -2.6052436E-01;2085;-0.28904054;0.0;-0.08908429;1014.7212;  4.0805084E-01;12195.507;3;-61.075905;0.0;5.2168012;0;1.206484;  9.9357510E+03;  0.0000000E+00;  2.4093540E-02;  1.0000000E+04;  0.0000000E+00;  9.9583643E+03;0.97348613;0.0;0.23299788;20092.643
  6.7901814E-01;  9.9999998E-03; -2.4048457E-01;2086;-0.29219455;0.0;-0.085967034;1015.0444;  4.0804994E-01;12463.234;3;-53.847603;0.0;7.8215466;0;1.1698067;  9.9394414E+03;  0.0000000E+00;  2.0062633E-02;  1.0000000E+04;  0.0000000E+00;  9.9610752E+03;0.92351955;0.0;0.24628715;18749.479
  6.7902535E-01;  9.9999998E-03; -2.2041444E-01;2087;-0.29618263;0.0;-0.074658819;1015.3052;  4.0804920E-01;12679.315;3;-51.566124;0.0;8.8330441;0;1.1372449;  9.9429590E+03;  0.0000000E+00;  1.1449986E-02;  1.0000000E+04;  0.0000000E+00;  9.9627129E+03;0.87602681;0.0;0.26121807;17934.059
  6.7903721E-01;  9.9999998E-03; -2.0035663E-01;2088;-0.29887325;0.0;-0.06345851;1015.46;  4.0804899E-01;12807.601;3;-52.367771;0.0;9.718523;0;1.126636;  9.9461182E+03;  0.0000000E+00;  4.4313916E-03;  1.0000000E+04;  0.0000000E+00;  9.9626064E+03;0.83315474;0.0;0.29348129;17964.545
  6.9913310E-01;  9.9999998E-03; -3.0062199E-01;2114;-0.23144338;0.0;-0.095682047;1014.8567;  4.0912944E-01;12307.546;3;-69.188942;0.0;-9.5782137;0;1.7514992;  9.8862852E+03;  0.0000000E+00;  6.6167363E-03;  1.0000000E+04;  0.0000000E+00;  9.9579111E+03;1.6283448;0.0;0.12315445;20197.133
  6.9906294E-01;  9.9999998E-03; -2.8061011E-01;2115;-0.26416349;0.0;-0.09934292;1014.9095;  4.0912896E-01;12351.296;3;-65.393898;0.0;3.8119371;0;1.7945621;  9.8897881E+03;  0.0000000E+00;  1.0439590E-02;  1.0000000E+04;  0.0000000E+00;  9.9555205E+03;1.5882311;0.0;0.20633097;21328.129
  6.9905281E-01;  9.9999998E-03; -2.6060766E-01;2116;-0.27718425;0.0;-0.10094645;1015.0399;  4.0912825E-01;12459.234;3;-56.994659;0.0;6.6081767;0;1.7698023;  9.8936318E+03;  0.0000000E+00;  1.8088566E-02;  1.0000000E+04;  0.0000000E+00;  9.9542822E+03;1.5453113;0.0;0.22449094;21953.123
  6.9906300E-01;  9.9999998E-03; -2.4058825E-01;2117;-0.27983013;0.0;-0.10457192;1015.3397;  4.0912682E-01;12707.702;3;-50.422951;0.0;9.9062996;0;1.7650532;  9.8974697E+03;  0.0000000E+00;  1.7254753E-02;  1.0000000E+04;  0.0000000E+00;  9.9563799E+03;1.5043824;0.0;0.26067081;20886.455
  6.9906437E-01;  9.9999998E-03; -2.2052513E-01;2118;-0.2846829;0.0;-0.098095924;1015.6401;  4.0912530E-01;12956.565;3;-48.314857;0.0;9.7555418;0;1.7434814;  9.9011445E+03;  0.0000000E+00;  1.0935106E-02;  1.0000000E+04;  0.0000000E+00;  9.9586436E+03;1.4667358;0.0;0.27674556;19758.408
  6.9907027E-01;  9.9999998E-03; -2.0045732E-01;2119;-0.28942025;0.0;-0.085518457;1015.8131;  4.0912449E-01;13099.859;3;-50.182537;0.0;10.357767;0;1.7434762;  9.9045342E+03;  0.0000000E+00;  5.0509013E-03;  1.0000000E+04;  0.0000000E+00;  9.9586699E+03;1.4331092;0.0;0.31036705;19722.445
  7.1940958E-01;  9.9999998E-03; -3.0067042E-01;2145;-0.15103686;0.0;-0.10240074;1014.4966;  4.0960369E-01;12008.979;3;-41.273254;0.0;-10.178121;0;2.1161799;  9.8552979E+03;  0.0000000E+00;  1.2655490E-02;  1.0000000E+04;  0.0000000E+00;  9.9589473E+03;2.0252442;0.0;0.09093561;19579.643
  7.1932745E-01;  9.9999998E-03; -2.8065851E-01;2146;-0.18369173;0.0;-0.10599884;1014.4779;  4.0960366E-01;11993.377;3;-40.635963;0.0;4.3824868;0;2.1815782;  9.8575117E+03;  0.0000000E+00;  1.6752981E-02;  1.0000000E+04;  0.0000000E+00;  9.9564102E+03;2.0154116;0.0;0.16616666;20788.514
  7.1925980E-01;  9.9999998E-03; -2.6066265E-01;2147;-0.21539558;0.0;-0.10975327;1014.4601;  4.0960327E-01;11978.665;3;-40.822357;0.0;9.2765474;0;2.2094636;  9.8601641E+03;  0.0000000E+00;  1.5344352E-02;  1.0000000E+04;  0.0000000E+00;  9.9534688E+03;2.0021644;0.0;0.20729919;22228.85
  7.1921831E-01;  9.9999998E-03; -2.4066080E-01;2148;-0.23749737;0.0;-0.11762393;1014.6304;  4.0960154E-01;12119.782;3;-40.927429;0.0;12.647372;0;2.248019;  9.8629863E+03;  0.0000000E+00;  1.2342754E-02;  1.0000000E+04;  0.0000000E+00;  9.9540615E+03;1.9890852;0.0;0.25893372;21887.451
  7.1920186E-01;  9.9999998E-03; -2.2062223E-01;2149;-0.24835896;0.0;-0.12030537;1014.8658;  4.0960008E-01;12314.721;3;-40.797939;0.0;12.731619;0;2.2636092;  9.8658320E+03;  0.0000000E+00;  8.0876816E-03;  1.0000000E+04;  0.0000000E+00;  9.9558691E+03;1.9776175;0.0;0.28599176;20970.418
  7.1920300E-01;  9.9999998E-03; -2.0056818E-01;2150;-0.25418311;0.0;-0.11683174;1015.0081;  4.0959930E-01;12432.63;3;-42.533772;0.0;10.678098;0;2.2891304;  9.8686729E+03;  0.0000000E+00;  4.1697002E-03;  1.0000000E+04;  0.0000000E+00;  9.9558428E+03;1.9669058;0.0;0.32222459;20954.951
  7.3964399E-01;  9.9999998E-03; -3.0070481E-01;2176;-0.089600086;0.0;-0.1055828;1014.2822;  4.0979025E-01;11830.888;3;-23.359564;0.0;-10.950513;0;2.2267919;  9.8408066E+03;  0.0000000E+00;  2.4378488E-03;  1.0000000E+04;  0.0000000E+00;  9.9603906E+03;2.1934648;0.0;0.033327091;18857.068
  7.3959059E-01;  9.9999998E-03; -2.8069130E-01;2177;-0.10953705;0.0;-0.10997684;1014.1743;  4.0979049E-01;11741.521;3;-22.758163;0.0;7.5183082;0;2.3481603;  9.8411709E+03;  0.0000000E+00;  1.1546239E-02;  1.0000000E+04;  0.0000000E+00;  9.9579326E+03;2.2201242;0.0;0.12803605;20005.482
  7.3954487E-01;  9.9999998E-03; -2.6068091E-01;2178;-0.12941422;0.0;-0.1126427;1014.1252;  4.0979043E-01;11700.837;3;-22.706903;0.0;10.186531;0;2.4157803;  9.8417734E+03;  0.0000000E+00;  1.1034972E-02;  1.0000000E+04;  0.0000000E+00;  9.9563975E+03;2.2486835;0.0;0.16709691;20729.322
  7.3951072E-01;  9.9999998E-03; -2.4067366E-01;2179;-0.1454969;0.0;-0.11777023;1014.122;  4.0978935E-01;11698.173;3;-22.876823;0.0;14.442786;0;2.5010438;  9.8426865E+03;  0.0000000E+00;  7.7550807E-03;  1.0000000E+04;  0.0000000E+00;  9.9554736E+03;2.2768242;0.0;0.22421952;21128.809
  7.3949122E-01;  9.9999998E-03; -2.2063878E-01;2180;-0.15694165;0.0;-0.12084734;1014.194;  4.0978831E-01;11757.817;3;-24.107756;0.0;14.592364;0;2.5732646;  9.8439678E+03;  0.0000000E+00;  4.6268133E-03;  1.0000000E+04;  0.0000000E+00;  9.9556436E+03;2.302285;0.0;0.27097973;20996.063
  7.3948610E-01;  9.9999998E-03; -2.0058934E-01;2181;-0.16381726;0.0;-0.11836632;1014.2291;  4.0978751E-01;11786.949;3;-26.169018;0.0;12.304597;0;2.64325;  9.8456865E+03;  0.0000000E+00;  2.3956953E-03;  1.0000000E+04;  0.0000000E+00;  9.9546318E+03;2.3225641;0.0;0.32068598;21447.287
  7.5980955E-01;  9.9999998E-03; -3.0072954E-01;2207;-0.051532548;0.0;-0.10748612;1014.4732;  4.0985954E-01;11988.487;3;-14.994208;0.0;-10.963023;0;2.1668158;  9.8410947E+03;  0.0000000E+00; -6.2165209E-03;  1.0000000E+04;  0.0000000E+00;  9.9605508E+03;2.1717782;0.0;-0.0049623968;18808.951
  7.5977981E-01;  9.9999998E-03; -2.8071544E-01;2208;-0.061928652;0.0;-0.11244935;1014.2642;  4.0985993E-01;11815.39;3;-14.351976;0.0;12.786432;0;2.3408785;  9.8397871E+03;  0.0000000E+00;  2.1929678E-03;  1.0000000E+04;  0.0000000E+00;  9.9577744E+03;2.2274485;0.0;0.11342999;20090.537
  7.5975478E-01;  9.9999998E-03; -2.6068825E-01;2209;-0.0720658;0.0;-0.11385923;1014.235;  4.0986010E-01;11791.198;3;-13.820992;0.0;10.942196;0;2.4346323;  9.8384980E+03;  0.0000000E+00;  3.8180742E-03;  1.0000000E+04;  0.0000000E+00;  9.9585273E+03;2.2900407;0.0;0.14459158;19665.289
  7.5973392E-01;  9.9999998E-03; -2.4067220E-01;2210;-0.080977522;0.0;-0.11567818;1014.0944;  4.0985948E-01;11674.779;3;-13.646124;0.0;15.147982;0;2.5559244;  9.8375566E+03;  0.0000000E+00;  2.7914993E-03;  1.0000000E+04;  0.0000000E+00;  9.9567549E+03;2.3531148;0.0;0.20280957;20477.557
  7.5972015E-01;  9.9999998E-03; -2.2063628E-01;2211;-0.087927066;0.0;-0.11668536;1014.0251;  4.0985885E-01;11617.313;3;-14.216221;0.0;15.60488;0;2.6731312;  9.8372461E+03;  0.0000000E+00;  1.5889505E-03;  1.0000000E+04;  0.0000000E+00;  9.9557500E+03;2.411109;0.0;0.26202217;20905.07
  7.5971389E-01;  9.9999998E-03; -2.0058803E-01;2212;-0.092863984;0.0;-0.11162458;1013.962;  4.0985817E-01;11565.077;3;-15.456841;0.0;15.661365;0;2.7798212;  9.8377246E+03;  0.0000000E+00;  8.0895721E-04;  1.0000000E+04;  0.0000000E+00;  9.9540596E+03;2.4593458;0.0;0.3204754;21677.455
  7.7992171E-01;  9.9999998E-03; -3.0074614E-01;2238;-0.028625011;0.0;-0.1093485;1014.9407;  4.0988383E-01;12374.93;3;-11.580149;0.0;-11.298409;0;2.0456667;  9.8500146E+03;  0.0000000E+00; -4.8308722E-03;  1.0000000E+04;  0.0000000E+00;  9.9595342E+03;2.0595446;0.0;-0.013877944;19341.787
  7.7991056E-01;  9.9999998E-03; -2.8073126E-01;2239;-0.032177474;0.0;-0.11445816;1014.6585;  4.0988445E-01;12141.12;3;-10.841553;0.0;14.998965;0;2.2520123;  9.8475391E+03;  0.0000000E+00; -1.1949170E-03;  1.0000000E+04;  0.0000000E+00;  9.9564922E+03;2.1326237;0.0;0.1193886;20732.705
  7.7990174E-01;  9.9999998E-03; -2.6069471E-01;2240;-0.035348136;0.0;-0.11674856;1014.6359;  4.0988451E-01;12122.461;3;-10.086111;0.0;11.024816;0;2.3738253;  9.8449736E+03;  0.0000000E+00;  1.3432212E-04;  1.0000000E+04;  0.0000000E+00;  9.9586553E+03;2.2147408;0.0;0.15908466;19586.043
  7.7989280E-01;  9.9999998E-03; -2.4066976E-01;2241;-0.038491551;0.0;-0.114314;1014.4352;  4.0988412E-01;11956.286;3;-9.6187181;0.0;15.879683;0;2.5003052;  9.8427764E+03;  0.0000000E+00;  2.6928642E-04;  1.0000000E+04;  0.0000000E+00;  9.9569688E+03;2.2979481;0.0;0.20235699;20365.543
  7.7988535E-01;  9.9999998E-03; -2.2063039E-01;2242;-0.041340817;0.0;-0.11220519;1014.2873;  4.0988374E-01;11833.655;3;-9.5338459;0.0;17.36268;0;2.6394913;  9.8413252E+03;  0.0000000E+00;  1.4049179E-04;  1.0000000E+04;  0.0000000E+00;  9.9555625E+03;2.3750021;0.0;0.26448923;20985.492
  7.7988034E-01;  9.9999998E-03; -2.0058176E-01;2243;-0.043789878;0.0;-0.10552235;1014.1663;  4.0988326E-01;11733.536;3;-9.8490448;0.0;18.691847;0;2.7663412;  9.8408789E+03;  0.0000000E+00;  5.4345895E-05;  1.0000000E+04;  0.0000000E+00;  9.9536699E+03;2.4398842;0.0;0.32645714;21848.689
  8.0001116E-01;  9.9999998E-03; -3.0075470E-01;2269;-0.0089902906;0.0;-0.11055651;1015.4529;  4.0989065E-01;12797.947;3;-7.6566033;0.0;-11.479433;0;1.9427625;  9.8610225E+03;  0.0000000E+00; -6.0154952E-04;  1.0000000E+04;  0.0000000E+00;  9.9581055E+03;1.9506723;0.0;-0.0079097711;20057.547
  8.0001521E-01;  9.9999998E-03; -2.8073928E-01;2270;-0.0073513719;0.0;-0.11516591;1015.1309;  4.0989128E-01;12531.282;3;-7.1037803;0.0;15.99833;0;2.1554017;  9.8579824E+03;  0.0000000E+00; -4.0774912E-04;  1.0000000E+04;  0.0000000E+00;  9.9548457E+03;2.0298762;0.0;0.12552537;21553.748
  8.0001885E-01;  9.9999998E-03; -2.6070023E-01;2271;-0.0054175714;0.0;-0.11888439;1015.1013;  4.0989125E-01;12506.797;3;-6.4856911;0.0;11.848611;0;2.3011084;  9.8548564E+03;  0.0000000E+00; -2.1771043E-04;  1.0000000E+04;  0.0000000E+00;  9.9574248E+03;2.117501;0.0;0.18360722;20173.801
  8.0002010E-01;  9.9999998E-03; -2.4067035E-01;2272;-0.0039926455;0.0;-0.11496121;1014.8978;  4.0989095E-01;12338.268;3;-5.9314647;0.0;16.041208;0;2.4237289;  9.8521143E+03;  0.0000000E+00; -1.1278759E-04;  1.0000000E+04;  0.0000000E+00;  9.9562324E+03;2.2058105;0.0;0.2179185;20717.773
  8.0001855E-01;  9.9999998E-03; -2.2062719E-01;2273;-0.0034902561;0.0;-0.11080039;1014.7348;  4.0989071E-01;12203.207;3;-5.4923701;0.0;18.073738;0;2.5641921;  9.8501602E+03;  0.0000000E+00; -6.6896857E-05;  1.0000000E+04;  0.0000000E+00;  9.9550244E+03;2.287204;0.0;0.27698794;21239.006
  8.0001557E-01;  9.9999998E-03; -2.0057522E-01;2274;-0.0037276116;0.0;-0.10242601;1014.6016;  4.0989020E-01;12092.928;3;-5.1958599;0.0;19.661713;0;2.6925449;  9.8492900E+03;  0.0000000E+00; -4.3464897E-05;  1.0000000E+04;  0.0000000E+00;  9.9533203E+03;2.3552384;0.0;0.33730662;22008.742
  8.2010484E-01;  9.9999998E-03; -3.0075541E-01;2300;0.015932964;0.0;-0.11094733;1015.832;  4.0987706E-01;13110.298;3;-0.10370353;0.0;-11.580386;0;1.8904095;  9.8701621E+03;  0.0000000E+00;  2.4180087E-04;  1.0000000E+04;  0.0000000E+00;  9.9569189E+03;1.890873;0.0;-0.00046349547;20630.156
  8.2012272E-01;  9.9999998E-03; -2.8073984E-01;2301;0.022440748;0.0;-0.11488731;1015.5002;  4.0987775E-01;12835.57;3;0.023177147;0.0;16.062548;0;2.0943887;  9.8671172E+03;  0.0000000E+00;  4.5043573E-04;  1.0000000E+04;  0.0000000E+00;  9.9534775E+03;1.9670827;0.0;0.1273059;22223.492
  8.2013607E-01;  9.9999998E-03; -2.6070318E-01;2302;0.028669534;0.0;-0.11968423;1015.4584;  4.0987781E-01;12801.019;3;0.19959703;0.0;12.994267;0;2.2509065;  9.8640566E+03;  0.0000000E+00;  4.2636742E-04;  1.0000000E+04;  0.0000000E+00;  9.9557480E+03;2.0497215;0.0;0.201185;20979.125
  8.2014567E-01;  9.9999998E-03; -2.4067342E-01;2303;0.033749167;0.0;-0.11748993;1015.2839;  4.0987751E-01;12656.398;3;0.47789499;0.0;15.589123;0;2.3721142;  9.8614053E+03;  0.0000000E+00;  3.2225926E-04;  1.0000000E+04;  0.0000000E+00;  9.9550244E+03;2.1317825;0.0;0.24033159;21282.912
  8.2014906E-01;  9.9999998E-03; -2.2062655E-01;2304;0.036768194;0.0;-0.11261259;1015.1548;  4.0987700E-01;12549.587;3;0.87276089;0.0;17.046564;0;2.4992425;  9.8595439E+03;  0.0000000E+00;  2.0939311E-04;  1.0000000E+04;  0.0000000E+00;  9.9543867E+03;2.2058921;0.0;0.29335049;21526.473
  8.2014722E-01;  9.9999998E-03; -2.0056911E-01;2305;0.037939839;0.0;-0.10214857;1015.0463;  4.0987647E-01;12459.756;3;1.3717266;0.0;18.801199;0;2.6150291;  9.8587734E+03;  0.0000000E+00;  1.0936099E-04;  1.0000000E+04;  0.0000000E+00;  9.9530713E+03;2.265744;0.0;0.3492851;22109.137
  8.4021354E-01;  9.9999998E-03; -3.0074671E-01;2331;0.048366606;0.0;-0.11030415;1015.7855;  4.0971643E-01;13069.637;3;11.213652;0.0;-11.529349;0;1.8721308;  9.8770010E+03;  0.0000000E+00; -7.4847793E-04;  1.0000000E+04;  0.0000000E+00;  9.9568984E+03;1.8700171;0.0;0.0021136957;20604.641
  8.4024453E-01;  9.9999998E-03; -2.8073090E-01;2332;0.060103051;0.0;-0.11367593;1015.4692;  4.0971705E-01;12807.782;3;10.820969;0.0;15.237803;0;2.0579946;  9.8743857E+03;  0.0000000E+00;  1.1209358E-03;  1.0000000E+04;  0.0000000E+00;  9.9533281E+03;1.9368411;0.0;0.12115343;22272.348
  8.4026659E-01;  9.9999998E-03; -2.6069731E-01;2333;0.070551366;0.0;-0.1187322;1015.4215;  4.0971693E-01;12768.301;3;10.425508;0.0;13.470435;0;2.2120616;  9.8718516E+03;  0.0000000E+00;  1.4285176E-03;  1.0000000E+04;  0.0000000E+00;  9.9549580E+03;2.0078139;0.0;0.20424762;21341.318
  8.4028298E-01;  9.9999998E-03; -2.4067017E-01;2334;0.078727901;0.0;-0.11870253;1015.2786;  4.0971649E-01;12649.957;3;10.055228;0.0;15.459809;0;2.33109;  9.8697529E+03;  0.0000000E+00;  1.0909877E-03;  1.0000000E+04;  0.0000000E+00;  9.9543018E+03;2.076473;0.0;0.25461689;21596.645
  8.4029007E-01;  9.9999998E-03; -2.2062190E-01;2335;0.083654672;0.0;-0.11473909;1015.1996;  4.0971589E-01;12584.518;3;10.206407;0.0;15.283441;0;2.4414976;  9.8684443E+03;  0.0000000E+00;  6.5087754E-04;  1.0000000E+04;  0.0000000E+00;  9.9540996E+03;2.1357965;0.0;0.30570108;21631.85
  8.4028769E-01;  9.9999998E-03; -2.0056133E-01;2336;0.085235715;0.0;-0.10324097;1015.1348;  4.0971532E-01;12530.924;3;10.531203;0.0;16.81815;0;2.5384619;  9.8681875E+03;  0.0000000E+00;  3.0888370E-04;  1.0000000E+04;  0.0000000E+00;  9.9531084E+03;2.1799843;0.0;0.35847756;22057.008
  8.6033261E-01;  9.9999998E-03; -3.0072978E-01;2362;0.085612625;0.0;-0.10920963;1015.3866;  4.0940070E-01;12736.538;3;24.630133;0.0;-11.600336;0;1.8497559;  9.8835850E+03;  0.0000000E+00; -2.1507175E-04;  1.0000000E+04;  0.0000000E+00;  9.9578145E+03;1.8433937;0.0;0.0063621686;20099.912
  8.6037666E-01;  9.9999998E-03; -2.8071353E-01;2363;0.10282682;0.0;-0.11192109;1015.1061;  4.0940109E-01;12504.342;3;23.632927;0.0;13.772275;0;2.0094419;  9.8816934E+03;  0.0000000E+00;  2.8828855E-03;  1.0000000E+04;  0.0000000E+00;  9.9542197E+03;1.896759;0.0;0.11268294;21790.818
  8.6040670E-01;  9.9999998E-03; -2.6068220E-01;2364;0.11750633;0.0;-0.11656756;1015.0687;  4.0940094E-01;12473.451;3;22.477552;0.0;13.230167;0;2.1502702;  9.8799805E+03;  0.0000000E+00;  3.2121767E-03;  1.0000000E+04;  0.0000000E+00;  9.9552334E+03;1.9519207;0.0;0.19834957;21169.736
  8.6042893E-01;  9.9999998E-03; -2.4065788E-01;2365;0.12874189;0.0;-0.11828224;1014.9617;  4.0940037E-01;12384.835;3;21.643621;0.0;15.118382;0;2.2622371;  9.8787578E+03;  0.0000000E+00;  2.3359575E-03;  1.0000000E+04;  0.0000000E+00;  9.9544072E+03;2.0027802;0.0;0.25945696;21498.666
  8.6043853E-01;  9.9999998E-03; -2.2061040E-01;2366;0.13506646;0.0;-0.11558629;1014.9368;  4.0939969E-01;12364.21;3;21.381243;0.0;13.505641;0;2.3540549;  9.8783262E+03;  0.0000000E+00;  1.2892911E-03;  1.0000000E+04;  0.0000000E+00;  9.9543877E+03;2.042865;0.0;0.31118986;21445.58
  8.6043388E-01;  9.9999998E-03; -2.0054950E-01;2367;0.13631809;0.0;-0.10422788;1014.9242;  4.0939921E-01;12353.75;3;21.385225;0.0;14.325963;0;2.4299664;  9.8788799E+03;  0.0000000E+00;  5.3898443E-04;  1.0000000E+04;  0.0000000E+00;  9.9535947E+03;2.0673225;0.0;0.36264396;21774.811
  8.8045096E-01;  9.9999998E-03; -3.0070603E-01;2393;0.12328631;0.0;-0.10791146;1014.7855;  4.0894786E-01;12235.208;3;38.356098;0.0;-12.202828;0;1.781776;  9.8924131E+03;  0.0000000E+00;  2.4965608E-03;  1.0000000E+04;  0.0000000E+00;  9.9592051E+03;1.7658904;0.0;0.015885551;19344.475
  8.8050687E-01;  9.9999998E-03; -2.8068915E-01;2394;0.1455726;0.0;-0.10991556;1014.5574;  4.0894794E-01;12046.482;3;36.561069;0.0;11.81679;0;1.9119036;  9.8914199E+03;  0.0000000E+00;  5.8952291E-03;  1.0000000E+04;  0.0000000E+00;  9.9557529E+03;1.802758;0.0;0.10914568;20974.668
  8.8054401E-01;  9.9999998E-03; -2.6065907E-01;2395;0.16450377;0.0;-0.11397231;1014.5501;  4.0894768E-01;12040.458;3;34.669773;0.0;12.052409;0;2.0307958;  9.8907510E+03;  0.0000000E+00;  5.7861386E-03;  1.0000000E+04;  0.0000000E+00;  9.9563330E+03;1.8387282;0.0;0.19206767;20581.58
  8.8057166E-01;  9.9999998E-03; -2.4063648E-01;2396;0.17880286;0.0;-0.11644199;1014.491;  4.0894699E-01;11991.62;3;33.486832;0.0;14.195568;0;2.1259928;  9.8906357E+03;  0.0000000E+00;  4.0345490E-03;  1.0000000E+04;  0.0000000E+00;  9.9553281E+03;1.8682121;0.0;0.2577807;20996.205
  8.8058305E-01;  9.9999998E-03; -2.2059104E-01;2397;0.18628936;0.0;-0.11466405;1014.5231;  4.0894619E-01;12018.155;3;32.863815;0.0;11.920766;0;2.1964023;  9.8913164E+03;  0.0000000E+00;  2.1075578E-03;  1.0000000E+04;  0.0000000E+00;  9.9553066E+03;1.8858763;0.0;0.31052598;20943.049
  8.8057548E-01;  9.9999998E-03; -2.0053186E-01;2398;0.1869714;0.0;-0.10400994;1014.5667;  4.0894559E-01;12054.162;3;32.69659;0.0;11.761909;0;2.2500272;  9.8928740E+03;  0.0000000E+00;  7.8467029E-04;  1.0000000E+04;  0.0000000E+00;  9.9546211E+03;1.888448;0.0;0.36157909;21227.836
  9.0055817E-01;  9.9999998E-03; -3.0067667E-01;2424;0.15793869;0.0;-0.10609634;1014.0831;  4.0838239E-01;11649.221;3;51.022724;0.0;-12.723445;0;1.6481415;  9.9046123E+03;  0.0000000E+00;  5.9675183E-03;  1.0000000E+04;  0.0000000E+00;  9.9607461E+03;1.6197218;0.0;0.028419692;18505.832
  9.0062290E-01;  9.9999998E-03; -2.8065893E-01;2425;0.18395723;0.0;-0.10775898;1013.9253;  4.0838221E-01;11518.745;3;48.706928;0.0;8.760025;0;1.748906;  9.9046826E+03;  0.0000000E+00;  9.2431782E-03;  1.0000000E+04;  0.0000000E+00;  9.9576338E+03;1.6367334;0.0;0.11217257;19971.969
  9.0066582E-01;  9.9999998E-03; -2.6062936E-01;2426;0.20716383;0.0;-0.11131629;1013.9691;  4.0838179E-01;11554.922;3;46.001507;0.0;10.344049;0;1.8403968;  9.9052197E+03;  0.0000000E+00;  8.4344093E-03;  1.0000000E+04;  0.0000000E+00;  9.9580049E+03;1.6496891;0.0;0.19070771;19698.541
  9.0069735E-01;  9.9999998E-03; -2.4060613E-01;2427;0.22357242;0.0;-0.11286134;1013.9756;  4.0838096E-01;11560.337;3;43.973434;0.0;12.815516;0;1.9059013;  9.9064180E+03;  0.0000000E+00;  5.6881714E-03;  1.0000000E+04;  0.0000000E+00;  9.9569824E+03;1.6539482;0.0;0.25195313;20129.533
  9.0071076E-01;  9.9999998E-03; -2.2056243E-01;2428;0.23267798;0.0;-0.11128616;1014.0682;  4.0838009E-01;11636.853;3;43.672119;0.0;10.413421;0;1.9511317;  9.9083857E+03;  0.0000000E+00;  2.8145150E-03;  1.0000000E+04;  0.0000000E+00;  9.9568721E+03;1.6460556;0.0;0.30507612;20128.734
  9.0070158E-01;  9.9999998E-03; -2.0050772E-01;2429;0.23334245;0.0;-0.1019812;1014.1683;  4.0837967E-01;11719.686;3;43.633717;0.0;9.4689207;0;1.9814694;  9.9110498E+03;  0.0000000E+00;  9.2265254E-04;  1.0000000E+04;  0.0000000E+00;  9.9561729E+03;1.62517;0.0;0.35629946;20421.01
  9.2064679E-01;  9.9999998E-03; -3.0064300E-01;2455;0.18790871;0.0;-0.10368565;1013.3005;  4.0773380E-01;10995.907;3;62.236259;0.0;-12.530465;0;1.4657809;  9.9193320E+03;  0.0000000E+00;  8.5548712E-03;  1.0000000E+04;  0.0000000E+00;  9.9622734E+03;1.4199511;0.0;0.045829765;17653.936
  9.2071575E-01;  9.9999998E-03; -2.8062436E-01;2456;0.21575914;0.0;-0.10564432;1013.2274;  4.0773341E-01;10935.47;3;59.145065;0.0;5.8485136;0;1.538779;  9.9205918E+03;  0.0000000E+00;  1.1853189E-02;  1.0000000E+04;  0.0000000E+00;  9.9596426E+03;1.4138271;0.0;0.12495194;18883.875
  9.2076319E-01;  9.9999998E-03; -2.6059404E-01;2457;0.24173468;0.0;-0.10796616;1013.3469;  4.0773270E-01;11034.204;3;55.128735;0.0;7.9458251;0;1.5895047;  9.9224932E+03;  0.0000000E+00;  1.0203410E-02;  1.0000000E+04;  0.0000000E+00;  9.9601563E+03;1.4000939;0.0;0.18941075;18571.156
  9.2079628E-01;  9.9999998E-03; -2.4056813E-01;2458;0.26019526;0.0;-0.10800877;1013.4338;  4.0773186E-01;11106.038;3;53.364597;0.0;10.422544;0;1.6194543;  9.9251494E+03;  0.0000000E+00;  6.5775705E-03;  1.0000000E+04;  0.0000000E+00;  9.9592646E+03;1.3757149;0.0;0.2437394;18947.938
  9.2081201E-01;  9.9999998E-03; -2.2052537E-01;2459;0.27112344;0.0;-0.10552618;1013.5876;  4.0773106E-01;11233.166;3;53.361229;0.0;9.0600748;0;1.6358325;  9.9284814E+03;  0.0000000E+00;  3.0159464E-03;  1.0000000E+04;  0.0000000E+00;  9.9589844E+03;1.3398811;0.0;0.29595143;19037.537
  9.2079937E-01;  9.9999998E-03; -2.0047770E-01;2460;0.27173847;0.0;-0.09801171;1013.7368;  4.0773043E-01;11356.559;3;53.824322;0.0;7.6164775;0;1.6431472;  9.9322393E+03;  0.0000000E+00;  8.3528302E-04;  1.0000000E+04;  0.0000000E+00;  9.9581816E+03;1.295213;0.0;0.34793425;19383.057
  9.4071287E-01;  9.9999998E-03; -3.0060613E-01;2486;0.21263732;0.0;-0.10138942;1012.4095;  4.0703338E-01;10251.716;3;72.964157;0.0;-12.850265;0;1.271426;  9.9344521E+03;  0.0000000E+00;  9.4084274E-03;  1.0000000E+04;  0.0000000E+00;  9.9638389E+03;1.2001175;0.0;0.071308464;16746.336
  9.4078332E-01;  9.9999998E-03; -2.8058633E-01;2487;0.24048139;0.0;-0.10367845;1012.4343;  4.0703270E-01;10272.169;3;68.128181;0.0;2.5615211;0;1.3171334;  9.9369902E+03;  0.0000000E+00;  1.3280827E-02;  1.0000000E+04;  0.0000000E+00;  9.9618730E+03;1.1690838;0.0;0.14804953;17648.395
  9.4083375E-01;  9.9999998E-03; -2.6055479E-01;2488;0.26794803;0.0;-0.10400237;1012.6411;  4.0703204E-01;10442.911;3;63.076885;0.0;4.9384317;0;1.3151356;  9.9403125E+03;  0.0000000E+00;  1.0543772E-02;  1.0000000E+04;  0.0000000E+00;  9.9626934E+03;1.1270264;0.0;0.18810917;17231.037
  9.4086611E-01;  9.9999998E-03; -2.4052522E-01;2489;0.28800943;0.0;-0.10196903;1012.8115;  4.0703106E-01;10583.724;3;61.670631;0.0;8.1077595;0;1.3060138;  9.9444004E+03;  0.0000000E+00;  6.3007534E-03;  1.0000000E+04;  0.0000000E+00;  9.9620234E+03;1.0732483;0.0;0.2327656;17521.324
  9.4086593E-01;  9.9999998E-03; -2.2048773E-01;2490;0.29604468;0.0;-0.10009626;1013.0103;  4.0703061E-01;10747.89;3;62.332546;0.0;7.2639365;0;1.297498;  9.9489902E+03;  0.0000000E+00;  2.6690315E-03;  1.0000000E+04;  0.0000000E+00;  9.9613799E+03;1.0107177;0.0;0.2867803;17788.936
  9.4083542E-01;  9.9999998E-03; -2.0044544E-01;2491;0.29164231;0.0;-0.093572721;1013.2028;  4.0703022E-01;10906.949;3;62.992474;0.0;5.7910304;0;1.2830114;  9.9536182E+03;  0.0000000E+00;  5.9346034E-04;  1.0000000E+04;  0.0000000E+00;  9.9605273E+03;0.94543576;0.0;0.33757567;18159.979
  9.6076268E-01;  9.9999998E-03; -3.0056646E-01;2517;0.23334378;0.0;-0.098721616;1011.3868;  4.0631199E-01;9397.3711;3;83.281296;0.0;-13.235249;0;1.0901927;  9.9477891E+03;  0.0000000E+00;  8.2154041E-03;  1.0000000E+04;  0.0000000E+00;  9.9656885E+03;0.99340522;0.0;0.096787475;15662.173
  9.6083230E-01;  9.9999998E-03; -2.8054586E-01;2518;0.26054356;0.0;-0.10126066;1011.5063;  4.0631118E-01;9496.0107;3;76.647774;0.0;-0.49879438;0;1.1099167;  9.9515752E+03;  0.0000000E+00;  2.1641875E-02;  1.0000000E+04;  0.0000000E+00;  9.9643467E+03;0.93844473;0.0;0.171472;16258.33
  9.6088254E-01;  9.9999998E-03; -2.6051310E-01;2519;0.28836;0.0;-0.09963996;1011.798;  4.0631050E-01;9736.7217;3;70.599701;0.0;1.8753049;0;1.055567;  9.9562275E+03;  0.0000000E+00;  1.6789157E-02;  1.0000000E+04;  0.0000000E+00;  9.9655254E+03;0.86984116;0.0;0.18572581;15720.92
  9.6090037E-01;  9.9999998E-03; -2.4048559E-01;2520;0.30542096;0.0;-0.097371407;1012.0225;  4.0630978E-01;9921.9648;3;69.335159;0.0;5.6052909;0;1.0166396;  9.9615547E+03;  0.0000000E+00;  8.1697591E-03;  1.0000000E+04;  0.0000000E+00;  9.9646719E+03;0.79015857;0.0;0.22648105;16108.861
  9.6087760E-01;  9.9999998E-03; -2.2045393E-01;2521;0.30586633;0.0;-0.096976094;1012.2624;  4.0630943E-01;10119.921;3;69.326561;0.0;4.0085149;0;0.98550153;  9.9670898E+03;  0.0000000E+00;  2.3205497E-03;  1.0000000E+04;  0.0000000E+00;  9.9638770E+03;0.70632827;0.0;0.27917325;16451.891
  9.6084076E-01;  9.9999998E-03; -2.0041253E-01;2522;0.29843163;0.0;-0.089419208;1012.4876;  4.0630919E-01;10305.885;3;68.504951;0.0;3.6151628;0;0.95144993;  9.9722822E+03;  0.0000000E+00;  3.5190536E-04;  1.0000000E+04;  0.0000000E+00;  9.9631211E+03;0.62631518;0.0;0.32513475;16785.744
  9.8080701E-01;  9.9999998E-03; -3.0052426E-01;2548;0.25253999;0.0;-0.094939373;1010.26;  4.0559736E-01;8456.0986;3;93.47229;0.0;-13.954949;0;0.92486596;  9.9582100E+03;  0.0000000E+00;  5.0131474E-03;  1.0000000E+04;  0.0000000E+00;  9.9681250E+03;0.81711841;0.0;0.10774755;14273.098
  9.8087245E-01;  9.9999998E-03; -2.8050345E-01;2549;0.27863878;0.0;-0.097687036;1010.4523;  4.0559646E-01;8614.6299;3;85.038338;0.0;-2.9741066;0;0.92497689;  9.9630205E+03;  0.0000000E+00;  5.2524548E-02;  1.0000000E+04;  0.0000000E+00;  9.9672031E+03;0.74309736;0.0;0.18187951;14670.041
  9.8091394E-01;  9.9999998E-03; -2.6047122E-01;2550;0.30436331;0.0;-0.094919145;1010.7997;  4.0559590E-01;8900.9014;3;77.894073;0.0;-0.44223413;0;0.83503598;  9.9687412E+03;  0.0000000E+00;  4.4911571E-02;  1.0000000E+04;  0.0000000E+00;  9.9684219E+03;0.65402514;0.0;0.18101083;14152.112
  9.8090875E-01;  9.9999998E-03; -2.4044932E-01;2551;0.31353933;0.0;-0.094687909;1011.0499;  4.0559542E-01;9107.1309;3;75.507797;0.0;2.0625966;0;0.78082496;  9.9749609E+03;  0.0000000E+00;  2.3817688E-02;  1.0000000E+04;  0.0000000E+00;  9.9671699E+03;0.55567455;0.0;0.22515039;14718.403
  9.8087656E-01;  9.9999998E-03; -2.2041918E-01;2552;0.30892271;0.0;-0.093324579;1011.3279;  4.0559524E-01;9336.1729;3;72.87606;0.0;0.45577452;0;0.72660983;  9.9810654E+03;  0.0000000E+00;  6.5276171E-03;  1.0000000E+04;  0.0000000E+00;  9.9665518E+03;0.45835298;0.0;0.26825681;14991.498
  9.8083669E-01;  9.9999998E-03; -2.0038007E-01;2553;0.29991874;0.0;-0.085198626;1011.5697;  4.0559492E-01;9535.5518;3;70.610847;0.0;1.4169112;0;0.68036097;  9.9865244E+03;  0.0000000E+00;  5.6915078E-04;  1.0000000E+04;  0.0000000E+00;  9.9658672E+03;0.37082586;0.0;0.30953512;15293.828
  1.0008546E+00;  9.9999998E-03; -3.0048054E-01;2579;0.27208632;0.0;-0.089876227;1009.0974;  4.0491271E-01;7484.3379;3;103.78968;0.0;-14.673412;0;0.77513784;  9.9658359E+03;  0.0000000E+00; -9.4576785E-03;  1.0000000E+04;  0.0000000E+00;  9.9712285E+03;0.67109764;0.0;0.10404021;12554.348
  1.0009084E+00;  9.9999998E-03; -2.8045964E-01;2580;0.29540968;0.0;-0.092617616;1009.3329;  4.0491208E-01;7678.0874;3;93.414024;0.0;-4.8175049;0;0.76341861;  9.9712900E+03;  0.0000000E+00;  1.0244568E-01;  1.0000000E+04;  0.0000000E+00;  9.9705176E+03;0.58626938;0.0;0.17714925;12862.069
  1.0009298E+00;  9.9999998E-03; -2.6042986E-01;2581;0.31574699;0.0;-0.090003937;1009.6923;  4.0491152E-01;7973.7573;3;85.641777;0.0;-3.0675023;0;0.65992159;  9.9777129E+03;  0.0000000E+00;  9.5512576E-02;  1.0000000E+04;  0.0000000E+00;  9.9712520E+03;0.48540992;0.0;0.17451167;12583.868
  1.0009086E+00;  9.9999998E-03; -2.4041210E-01;2582;0.31671575;0.0;-0.090709276;1009.9551;  4.0491131E-01;8189.9268;3;79.135765;0.0;-1.8542209;0;0.59489834;  9.9844297E+03;  0.0000000E+00;  5.2704461E-02;  1.0000000E+04;  0.0000000E+00;  9.9697402E+03;0.37696487;0.0;0.21793351;13256.767
  1.0008701E+00;  9.9999998E-03; -2.2038336E-01;2583;0.30934009;0.0;-0.088290945;1010.2498;  4.0491122E-01;8432.4932;3;74.462036;0.0;-1.7428414;0;0.52806568;  9.9907178E+03;  0.0000000E+00;  1.3657484E-02;  1.0000000E+04;  0.0000000E+00;  9.9692822E+03;0.27508333;0.0;0.25298235;13464.864
  1.0008283E+00;  9.9999998E-03; -2.0034975E-01;2584;0.29956445;0.0;-0.080987625;1010.4931;  4.0491107E-01;8632.6982;3;71.702484;0.0;-0.22245461;0;0.4777838;  9.9961406E+03;  0.0000000E+00;  2.8868395E-04;  1.0000000E+04;  0.0000000E+00;  9.9686572E+03;0.18737215;0.0;0.29041165;13742.402
  1.0209123E+00;  9.9999998E-03; -3.0043647E-01;2610;0.29319775;0.0;-0.083770759;1007.9822;  4.0427631E-01;6551.0601;3;114.94949;0.0;-15.756674;0;0.63388896;  9.9714053E+03;  0.0000000E+00; -3.7139416E-02;  1.0000000E+04;  0.0000000E+00;  9.9750049E+03;0.54719543;0.0;0.08669351;10542.636
  1.0209441E+00;  9.9999998E-03; -2.8041592E-01;2611;0.31246471;0.0;-0.086284809;1008.2264;  4.0427604E-01;6751.3965;3;102.22975;0.0;-5.9854107;0;0.62072265;  9.9772373E+03;  0.0000000E+00;  1.2253934E-01;  1.0000000E+04;  0.0000000E+00;  9.9740576E+03;0.46035367;0.0;0.16036896;10958.492
  1.0209383E+00;  9.9999998E-03; -2.6038936E-01;2612;0.32187369;0.0;-0.084265538;1008.5667;  4.0427598E-01;7030.6235;3;91.346123;0.0;-5.946588;0;0.51887757;  9.9840957E+03;  0.0000000E+00;  1.2861593E-01;  1.0000000E+04;  0.0000000E+00;  9.9739512E+03;0.35395175;0.0;0.16492583;11055.274
  1.0209059E+00;  9.9999998E-03; -2.4037468E-01;2613;0.31760177;0.0;-0.084954746;1008.8201;  4.0427592E-01;7238.751;3;81.554581;0.0;-4.2081413;0;0.45002145;  9.9908789E+03;  0.0000000E+00;  6.0143895E-02;  1.0000000E+04;  0.0000000E+00;  9.9721885E+03;0.24430193;0.0;0.2057195;11819.077
  1.0208620E+00;  9.9999998E-03; -2.2034980E-01;2614;0.30865872;0.0;-0.082909636;1009.1073;  4.0427575E-01;7474.4829;3;75.443146;0.0;-3.229238;0;0.38266522;  9.9969336E+03;  0.0000000E+00;  2.1210466E-04;  1.0000000E+04;  0.0000000E+00;  9.9718086E+03;0.14665027;0.0;0.23601493;11994.043
  1.0208182E+00;  9.9999998E-03; -2.0032194E-01;2615;0.29831395;0.0;-0.076973855;1009.3403;  4.0427583E-01;7665.7012;3;72.325111;0.0;-1.6952971;0;0.33412522;  1.0002021E+04;  0.0000000E+00; -1.2272087E-02;  1.0000000E+04;  0.0000000E+00;  9.9713301E+03;0.065507688;0.0;0.26861754;12208.208
  1.0409889E+00;  9.9999998E-03; -3.0039299E-01;2641;0.31743282;0.0;-0.076252744;1006.9374;  4.0370136E-01;5675.0527;3;126.69585;0.0;-16.619938;0;0.49728861;  9.9748779E+03;  0.0000000E+00;  5.8755404E-03;  1.0000000E+04;  0.0000000E+00;  9.9792813E+03;0.44769907;0.0;0.049589533;8357.6533
  1.0409832E+00;  9.9999998E-03; -2.8037429E-01;2642;0.32894856;0.0;-0.079246953;1007.1889;  4.0370134E-01;5880.8213;3;111.33039;0.0;-8.1593838;0;0.49458888;  9.9817832E+03;  0.0000000E+00;  9.8888595E-03;  1.0000000E+04;  0.0000000E+00;  9.9773721E+03;0.35768917;0.0;0.13689971;9148.1797
  1.0409460E+00;  9.9999998E-03; -2.6035240E-01;2643;0.32518476;0.0;-0.078352518;1007.4964;  4.0370148E-01;6132.3633;3;95.322388;0.0;-8.0296469;0;0.40317088;  9.9891631E+03;  0.0000000E+00;  5.3929213E-02;  1.0000000E+04;  0.0000000E+00;  9.9760654E+03;0.24414253;0.0;0.15902834;9737.7979
  1.0409027E+00;  9.9999998E-03; -2.4033928E-01;2644;0.31757522;0.0;-0.078376085;1007.7288;  4.0370163E-01;6322.5752;3;83.348984;0.0;-5.3465991;0;0.33521929;  9.9956035E+03;  0.0000000E+00; -2.5157610E-02;  1.0000000E+04;  0.0000000E+00;  9.9742246E+03;0.14159639;0.0;0.1936229;10526.937
  1.0408540E+00;  9.9999998E-03; -2.2031820E-01;2645;0.30770069;0.0;-0.076934911;1007.9886;  4.0370166E-01;6535.2275;3;76.4888;0.0;-4.1276956;0;0.27505955;  1.0000995E+04;  0.0000000E+00; -8.2064740E-02;  1.0000000E+04;  0.0000000E+00;  9.9739707E+03;0.055868108;0.0;0.21919143;10659.132
  1.0408067E+00;  9.9999998E-03; -2.0029370E-01;2646;0.29656392;0.0;-0.072005212;1008.2008;  4.0370172E-01;6708.7749;3;73.044777;0.0;-2.6796622;0;0.23238385;  1.0005406E+04;  0.0000000E+00; -6.3769877E-02;  1.0000000E+04;  0.0000000E+00;  9.9737529E+03;-0.013084468;0.0;0.24546832;10760.014
  1.0610628E+00;  9.9999998E-03; -3.0035540E-01;2672;0.34031612;0.0;-0.072552301;1005.8609;  4.0319544E-01;4773.6963;3;140.24324;0.0;-17.480268;0;0.46168965;  9.9756143E+03;  0.0000000E+00;  3.7860781E-01;  1.0000000E+04;  0.0000000E+00;  9.9822842E+03;0.38653359;0.0;0.075156055;6889.2725
  1.0610151E+00;  9.9999998E-03; -2.8033903E-01;2673;0.33710229;0.0;-0.073441021;1006.2165;  4.0319553E-01;5063.3916;3;118.09264;0.0;-11.498112;0;0.39952987;  9.9855605E+03;  0.0000000E+00; -2.7624753E-01;  1.0000000E+04;  0.0000000E+00;  9.9793486E+03;0.26355574;0.0;0.13597415;7987.1987
  1.0609571E+00;  9.9999998E-03; -2.6032016E-01;2674;0.3277736;0.0;-0.071607806;1006.5266;  4.0319571E-01;5316.0166;3;99.422729;0.0;-8.7154312;0;0.30085969;  9.9936650E+03;  0.0000000E+00; -2.4269202E-01;  1.0000000E+04;  0.0000000E+00;  9.9773623E+03;0.14692079;0.0;0.15393889;8811.8115
  1.0609007E+00;  9.9999998E-03; -2.4030735E-01;2675;0.31723917;0.0;-0.071448043;1006.741;  4.0319598E-01;5490.7729;3;85.717033;0.0;-5.9263988;0;0.2407397;  9.9995928E+03;  0.0000000E+00; -2.7938652E-01;  1.0000000E+04;  0.0000000E+00;  9.9756738E+03;0.056071755;0.0;0.18466794;9527.3193
  1.0608470E+00;  9.9999998E-03; -2.2028807E-01;2676;0.30655426;0.0;-0.070433334;1006.9629;  4.0319616E-01;5671.5503;3;77.985954;0.0;-4.6583395;0;0.19206695;  1.0003970E+04;  0.0000000E+00; -2.8735796E-01;  1.0000000E+04;  0.0000000E+00;  9.9756797E+03;-0.012535405;0.0;0.20460236;9553.8379
  1.0607951E+00;  9.9999998E-03; -2.0026612E-01;2677;0.2945005;0.0;-0.066557027;1007.1422;  4.0319636E-01;5817.6641;3;73.762131;0.0;-3.3732817;0;0.15785807;  1.0007399E+04;  0.0000000E+00; -1.9065167E-01;  1.0000000E+04;  0.0000000E+00;  9.9757900E+03;-0.065511055;0.0;0.22336912;9480.8213
  1.0810958E+00;  9.9999998E-03; -3.0032235E-01;2703;0.34702808;0.0;-0.067061953;1004.8958;  4.0276128E-01;3964.7014;3;150.10664;0.0;-18.614046;0;0.39770889;  9.9757979E+03;  0.0000000E+00;  1.3116426E+00;  1.0000000E+04;  0.0000000E+00;  9.9844463E+03;0.31807196;0.0;0.079636931;7604.0537
  1.0810349E+00;  9.9999998E-03; -2.8030813E-01;2704;0.34053054;0.0;-0.066501997;1005.3557;  4.0276152E-01;4337.2305;3;125.75412;0.0;-12.802025;0;0.30563426;  9.9886025E+03;  0.0000000E+00; -5.7087570E-01;  1.0000000E+04;  0.0000000E+00;  9.9807275E+03;0.17936239;0.0;0.12627187;7270.6963
  1.0809652E+00;  9.9999998E-03; -2.6028976E-01;2705;0.32812718;0.0;-0.064153723;1005.7075;  4.0276149E-01;4622.2246;3;104.18198;0.0;-8.9901409;0;0.20412616;  9.9977148E+03;  0.0000000E+00; -7.4860787E-01;  1.0000000E+04;  0.0000000E+00;  9.9785762E+03;0.059420045;0.0;0.14470612;8351.7236
  1.0808996E+00;  9.9999998E-03; -2.4027669E-01;2706;0.31641939;0.0;-0.063769549;1005.899;  4.0276188E-01;4777.3745;3;89.095238;0.0;-6.1170311;0;0.1576367;  1.0003199E+04;  0.0000000E+00; -7.2942364E-01;  1.0000000E+04;  0.0000000E+00;  9.9768711E+03;-0.017689459;0.0;0.17532617;8951.71
  1.0808412E+00;  9.9999998E-03; -2.2026002E-01;2707;0.30524686;0.0;-0.063515611;1006.0655;  4.0276200E-01;4912.3398;3;80.126686;0.0;-4.7438502;0;0.12562019;  1.0006421E+04;  0.0000000E+00; -6.4997172E-01;  1.0000000E+04;  0.0000000E+00;  9.9769346E+03;-0.067542188;0.0;0.19316237;8846.9746
  1.0807844E+00;  9.9999998E-03; -2.0023897E-01;2708;0.29235002;0.0;-0.060303491;1006.2038;  4.0276235E-01;5024.4268;3;74.79126;0.0;-3.7379465;0;0.10056036;  1.0008676E+04;  0.0000000E+00; -4.2928883E-01;  1.0000000E+04;  0.0000000E+00;  9.9774063E+03;-0.1032761;0.0;0.20383646;8468.2646
  1.1010406E+00;  9.9999998E-03; -2.8027973E-01;2734;0.33992541;0.0;-0.059765324;1004.6306;  4.0239745E-01;3721.582;3;134.35373;0.0;-14.096262;0;0.22628406;  9.9905889E+03;  0.0000000E+00; -4.6186700E-01;  1.0000000E+04;  0.0000000E+00;  9.9823955E+03;0.11147157;0.0;0.11481249;6035.4448
  1.1009672E+00;  9.9999998E-03; -2.6025975E-01;2735;0.32653186;0.0;-0.056430224;1005.0515;  4.0239742E-01;4060.0115;3;110.77687;0.0;-9.7768955;0;0.11458854;  1.0000842E+04;  0.0000000E+00; -1.2504951E+00;  1.0000000E+04;  0.0000000E+00;  9.9804766E+03;-0.012683259;0.0;0.1272718;8062.1602
  1.1008991E+00;  9.9999998E-03; -2.4024630E-01;2736;0.31473684;0.0;-0.055116639;1005.2093;  4.0239775E-01;4186.9893;3;93.863892;0.0;-6.3560171;0;0.079274878;  1.0006098E+04;  0.0000000E+00; -1.3126074E+00;  1.0000000E+04;  0.0000000E+00;  9.9783418E+03;-0.078457668;0.0;0.15773255;8829.6113
  1.1008365E+00;  9.9999998E-03; -2.2023205E-01;2737;0.3034988;0.0;-0.055549923;1005.3112;  4.0239802E-01;4269.0264;3;82.916214;0.0;-4.752512;0;0.068999775;  1.0008408E+04;  0.0000000E+00; -1.1619070E+00;  1.0000000E+04;  0.0000000E+00;  9.9780322E+03;-0.11183431;0.0;0.18083408;8627.6953
  1.1007758E+00;  9.9999998E-03; -2.0021315E-01;2738;0.29026303;0.0;-0.053611964;1005.3992;  4.0239820E-01;4339.8535;3;76.301804;0.0;-3.808497;0;0.055769265;  1.0009531E+04;  0.0000000E+00; -8.0547011E-01;  1.0000000E+04;  0.0000000E+00;  9.9786348E+03;-0.13192989;0.0;0.18769915;7858.6582
  1.1210326E+00;  9.9999998E-03; -2.8025535E-01;2763;0.33627233;0.0;-0.053636342;1004.0087;  4.0209904E-01;3189.7813;3;144.15422;0.0;-15.124062;0;0.16962053;  9.9912754E+03;  0.0000000E+00;  4.4635242E-01;  1.0000000E+04;  0.0000000E+00;  9.9841396E+03;0.066732131;0.0;0.1028884;4921.5869
  1.1209664E+00;  9.9999998E-03; -2.6023543E-01;2764;0.32423049;0.0;-0.050004233;1004.4534;  4.0209916E-01;3543.8284;3;119.52061;0.0;-10.612405;0;0.057874754;  1.0001912E+04;  0.0000000E+00; -1.4604515E+00;  1.0000000E+04;  0.0000000E+00;  9.9823311E+03;-0.055004254;0.0;0.11287901;7308.9028
  1.1208985E+00;  9.9999998E-03; -2.4021840E-01;2765;0.31218171;0.0;-0.046952829;1004.6426;  4.0209928E-01;3694.5161;3;100.14758;0.0;-6.8999224;0;0.011986412;  1.0007628E+04;  0.0000000E+00; -1.8680878E+00;  1.0000000E+04;  0.0000000E+00;  9.9803633E+03;-0.12053741;0.0;0.13252382;8756.4355
  1.1208339E+00;  9.9999998E-03; -2.2020540E-01;2766;0.3012521;0.0;-0.047264487;1004.6921;  4.0209940E-01;3734.0217;3;86.927048;0.0;-4.8430481;0;0.019719094;  1.0009672E+04;  0.0000000E+00; -1.7691665E+00;  1.0000000E+04;  0.0000000E+00;  9.9792842E+03;-0.14443861;0.0;0.1641577;8758.9502
  1.1207695E+00;  9.9999998E-03; -2.0018828E-01;2767;0.28827569;0.0;-0.046425391;1004.7315;  4.0209967E-01;3765.5603;3;78.713867;0.0;-3.9017904;0;0.019924611;  1.0010048E+04;  0.0000000E+00; -1.3278702E+00;  1.0000000E+04;  0.0000000E+00;  9.9796738E+03;-0.15357023;0.0;0.17349485;7724.1753
  1.1409627E+00;  9.9999998E-03; -2.6021892E-01;2792;0.32152447;0.0;-0.045057591;1003.8214;  4.0185988E-01;3001.7068;3;129.95634;0.0;-11.289911;0;0.048828173;  1.0000177E+04;  0.0000000E+00; -9.2703867E-01;  1.0000000E+04;  0.0000000E+00;  9.9833721E+03;-0.056865845;0.0;0.10569402;5275.9883
  1.1408976E+00;  9.9999998E-03; -2.4019842E-01;2793;0.30927727;0.0;-0.040737968;1004.1082;  4.0185988E-01;3227.1577;3;108.50169;0.0;-7.446846;0;-0.026246078;  1.0007026E+04;  0.0000000E+00; -2.1503148E+00;  1.0000000E+04;  0.0000000E+00;  9.9822207E+03;-0.13595945;0.0;0.10971337;8078.1367
  1.1408342E+00;  9.9999998E-03; -2.2018419E-01;2794;0.29856133;0.0;-0.039640523;1004.1637;  4.0186009E-01;3270.9478;3;92.701988;0.0;-4.7875304;0;-0.021501824;  1.0009693E+04;  0.0000000E+00; -2.3697724E+00;  1.0000000E+04;  0.0000000E+00;  9.9806475E+03;-0.16294903;0.0;0.1414472;8866.9893
  1.1407669E+00;  9.9999998E-03; -2.0016734E-01;2795;0.28638539;0.0;-0.039556675;1004.1869;  4.0186030E-01;3289.2781;3;82.674271;0.0;-3.9234321;0;-0.0083096474;  1.0010144E+04;  0.0000000E+00; -1.9712340E+00;  1.0000000E+04;  0.0000000E+00;  9.9806396E+03;-0.16825014;0.0;0.1599405;7950.6108
  1.1609508E+00;  9.9999998E-03; -2.6020634E-01;2819;0.31691054;0.0;-0.04096365;1003.2126;  4.0167227E-01;2481.7966;3;141.17055;0.0;-11.861084;0;0.06755887;  9.9965635E+03;  0.0000000E+00;  8.3429718E-01;  1.0000000E+04;  0.0000000E+00;  9.9841895E+03;-0.032954309;0.0;0.10051318;4247.5015
  1.1608986E+00;  9.9999998E-03; -2.4018875E-01;2820;0.30681843;0.0;-0.036818426;1003.4863;  4.0167230E-01;2693.3723;3;118.75565;0.0;-7.6929522;0;-0.012908831;  1.0003415E+04;  0.0000000E+00; -1.7742673E+00;  1.0000000E+04;  0.0000000E+00;  9.9827871E+03;-0.11387219;0.0;0.10096336;6154.02
  1.1608369E+00;  9.9999998E-03; -2.2017008E-01;2821;0.29562801;0.0;-0.033518516;1003.6609;  4.0167236E-01;2828.458;3;100.5962;0.0;-4.5677133;0;-0.045622252;  1.0007768E+04;  0.0000000E+00; -2.7138088E+00;  1.0000000E+04;  0.0000000E+00;  9.9819102E+03;-0.16151005;0.0;0.1158878;8250.9648
  1.1607703E+00;  9.9999998E-03; -2.0015326E-01;2822;0.2842887;0.0;-0.033306945;1003.7168;  4.0167254E-01;2871.833;3;88.397507;0.0;-3.5848155;0;-0.029041022;  1.0009303E+04;  0.0000000E+00; -2.6356430E+00;  1.0000000E+04;  0.0000000E+00;  9.9814756E+03;-0.17329115;0.0;0.14425012;8134.1851
  1.1808923E+00;  9.9999998E-03; -2.4018353E-01;2846;0.30343017;0.0;-0.034651674;1002.8473;  4.0152818E-01;2153.8188;3;130.88104;0.0;-8.4457521;0;0.046202749;  9.9978877E+03;  0.0000000E+00; -1.6961331E-02;  1.0000000E+04;  0.0000000E+00;  9.9827490E+03;-0.061827078;0.0;0.10802983;3464.936
  1.1808401E+00;  9.9999998E-03; -2.2016485E-01;2847;0.29304144;0.0;-0.030346673;1003.0874;  4.0152824E-01;2335.5737;3;110.80059;0.0;-4.7640638;0;-0.02180171;  1.0003133E+04;  0.0000000E+00; -2.2971530E+00;  1.0000000E+04;  0.0000000E+00;  9.9822900E+03;-0.12742947;0.0;0.10562776;6184.3345
  1.1807787E+00;  9.9999998E-03; -2.0014735E-01;2848;0.28222063;0.0;-0.028707884;1003.2331;  4.0152827E-01;2445.9507;3;95.791313;0.0;-3.056879;0;-0.028920457;  1.0006438E+04;  0.0000000E+00; -3.0416775E+00;  1.0000000E+04;  0.0000000E+00;  9.9818809E+03;-0.15862262;0.0;0.12970217;7602.7705
  1.2008362E+00;  9.9999998E-03; -2.2016348E-01;2871;0.28960618;0.0;-0.029205943;1002.4883;  4.0141991E-01;1833.7255;3;123.30425;0.0;-5.7453151;0;0.048733525;  9.9967363E+03;  0.0000000E+00; -3.3161682E-01;  1.0000000E+04;  0.0000000E+00;  9.9821377E+03;-0.064651377;0.0;0.1133849;3067.2637
  1.2007880E+00;  9.9999998E-03; -2.0014799E-01;2872;0.28065515;0.0;-0.026698126;1002.6526;  4.0141982E-01;1954.9155;3;105.90119;0.0;-3.121002;0;0.022303365;  1.0000531E+04;  0.0000000E+00; -2.5579753E+00;  1.0000000E+04;  0.0000000E+00;  9.9816201E+03;-0.10622851;0.0;0.12853187;5571.8838
  1.2208092E+00;  9.9999998E-03; -2.2015373E-01;2894;0.27974325;0.0;-0.026636727;1002.2764;  4.0133983E-01;1625.0425;3;134.52126;0.0;-6.9539318;0;0.042119313;  9.9944951E+03;  0.0000000E+00;  2.9463794E+00;  1.0000000E+04;  0.0000000E+00;  9.9841270E+03;-0.059852723;0.0;0.10197204;4795.8447
  1.2207845E+00;  9.9999998E-03; -2.0014894E-01;2895;0.27649891;0.0;-0.025915476;1002.1115;  4.0134007E-01;1507.4156;3;119.2781;0.0;-4.2711616;0;0.095000252;  9.9939863E+03;  0.0000000E+00; -3.4777692E-01;  1.0000000E+04;  0.0000000E+00;  9.9813525E+03;-0.041156475;0.0;0.13615672;2603.4287
 -5.6893728E-06;  9.9999998E-03; -1.8000065E-01;1036;-0.0036078054;0.0;-0.00042641273;1000.1183;  4.0000001E-01;98.071289;3;-2.3350067;0.0;-0.29679489;0;-0.068682179;  1.0002464E+04;  0.0000000E+00; -1.3408204E-08;  1.0000000E+04;  0.0000000E+00;  9.9999023E+03;-0.071386635;0.0;0.0027044588;53.660671
 -5.8478154E-06;  9.9999998E-03; -1.6000050E-01;1037;-0.0037124984;0.0;-0.0003376909;1000.1223;  4.0000001E-01;101.33045;3;-2.4070091;0.0;-0.24190682;0;-0.070970006;  1.0002543E+04;  0.0000000E+00; -1.5992113E-08;  1.0000000E+04;  0.0000000E+00;  9.9999072E+03;-0.073645368;0.0;0.0026753652;52.814812
 -5.9394270E-06;  9.9999998E-03; -1.4000039E-01;1038;-0.0037742537;0.0;-0.00026221183;1000.1248;  4.0000001E-01;103.40446;3;-2.4528522;0.0;-0.19393486;0;-0.072562285;  1.0002582E+04;  0.0000000E+00; -7.7394251E-09;  1.0000000E+04;  0.0000000E+00;  9.9999150E+03;-0.075025842;0.0;0.0024635533;48.922398
 -5.9841141E-06;  9.9999998E-03; -1.2000028E-01;1039;-0.0038053726;0.0;-0.00019862296;1000.1267;  4.0000001E-01;104.98467;3;-2.4785995;0.0;-0.15280867;0;-0.073599219;  1.0002606E+04;  0.0000000E+00; -2.9942002E-09;  1.0000000E+04;  0.0000000E+00;  9.9999268E+03;-0.075771593;0.0;0.0021723746;43.718407
 -5.9981298E-06;  9.9999998E-03; -1.0000020E-01;1040;-0.0038165832;0.0;-0.00014523401;1000.1275;  4.0000001E-01;105.67601;3;-2.4911299;0.0;-0.11631586;0;-0.074224152;  1.0002614E+04;  0.0000000E+00; -1.9812167E-09;  1.0000000E+04;  0.0000000E+00;  9.9999365E+03;-0.076086596;0.0;0.0018624414;38.237438
 -5.9937920E-06;  9.9999998E-03; -8.0000140E-02;1041;-0.0038155671;0.0;-0.00010295189;1000.1282;  4.0000001E-01;106.26859;3;-2.4950867;0.0;-0.085723668;0;-0.074565955;  1.0002614E+04;  0.0000000E+00; -8.1201712E-10;  1.0000000E+04;  0.0000000E+00;  9.9999502E+03;-0.076137722;0.0;0.0015717706;33.132385
 -5.9814629E-06;  9.9999998E-03; -6.0000088E-02;1042;-0.0038089794;0.0;-6.8775742e-05;1000.1285;  4.0000001E-01;106.46611;3;-2.4944344;0.0;-0.059941739;0;-0.074728765;  1.0002611E+04;  0.0000000E+00; -4.2852319E-10;  1.0000000E+04;  0.0000000E+00;  9.9999590E+03;-0.076054275;0.0;0.0013255137;28.830681
 -5.9678687E-06;  9.9999998E-03; -4.0000055E-02;1043;-0.003801201;0.0;-4.1902917e-05;1000.1285;  4.0000001E-01;106.46611;3;-2.4921894;0.0;-0.037651725;0;-0.074791297;  1.0002606E+04;  0.0000000E+00; -2.0371785E-10;  1.0000000E+04;  0.0000000E+00;  9.9999668E+03;-0.07593105;0.0;0.0011397506;25.600109
 -5.9579443E-06;  9.9999998E-03; -2.0000024E-02;1044;-0.0037953528;0.0;-1.9722454e-05;1000.1285;  4.0000001E-01;106.46611;3;-2.4900227;0.0;-0.018264107;0;-0.074807875;  1.0002602E+04;  0.0000000E+00; -8.9755488E-11;  1.0000000E+04;  0.0000000E+00;  9.9999697E+03;-0.075832427;0.0;0.0010245505;23.603113
  1.9991888E-02;  9.9999998E-03; -1.8000087E-01;1066;-0.0051016142;0.0;-0.00056684582;1000.1404;  4.0000001E-01;116.34237;3;-2.9217224;0.0;-0.35559818;0;-0.08032354;  1.0002938E+04;  0.0000000E+00;  1.2366459E-07;  1.0000000E+04;  0.0000000E+00;  9.9998740E+03;-0.083833203;0.0;0.0035096656;69.861603
  1.9991683E-02;  9.9999998E-03; -1.6000068E-01;1067;-0.0052364809;0.0;-0.00045368329;1000.1447;  4.0000001E-01;119.79906;3;-3.0059347;0.0;-0.29471654;0;-0.082764447;  1.0003019E+04;  0.0000000E+00;  5.7587076E-08;  1.0000000E+04;  0.0000000E+00;  9.9998760E+03;-0.086238265;0.0;0.0034738178;68.562523
  1.9991575E-02;  9.9999998E-03; -1.4000052E-01;1068;-0.0053111874;0.0;-0.00035705988;1000.1474;  4.0000001E-01;122.0706;3;-3.0580759;0.0;-0.2413668;0;-0.08444605;  1.0003062E+04;  0.0000000E+00;  2.5551001E-08;  1.0000000E+04;  0.0000000E+00;  9.9998887E+03;-0.087655991;0.0;0.0032099385;63.41098
  1.9991526E-02;  9.9999998E-03; -1.2000038E-01;1069;-0.0053460989;0.0;-0.00027131542;1000.1493;  4.0000001E-01;123.6508;3;-3.0874472;0.0;-0.19137998;0;-0.085524559;  1.0003081E+04;  0.0000000E+00;  8.7674339E-09;  1.0000000E+04;  0.0000000E+00;  9.9999023E+03;-0.088370062;0.0;0.002845502;56.602894
  1.9991521E-02;  9.9999998E-03; -1.0000028E-01;1070;-0.0053540608;0.0;-0.00020128192;1000.1501;  4.0000001E-01;124.4409;3;-3.1006346;0.0;-0.14845425;0;-0.086162746;  1.0003085E+04;  0.0000000E+00;  2.0391890E-09;  1.0000000E+04;  0.0000000E+00;  9.9999180E+03;-0.088615522;0.0;0.0024527784;49.404514
  1.9991538E-02;  9.9999998E-03; -8.0000192E-02;1071;-0.0053467806;0.0;-0.00014432857;1000.1509;  4.0000001E-01;125.03349;3;-3.1038589;0.0;-0.11160717;0;-0.086502478;  1.0003083E+04;  0.0000000E+00; -1.4481870E-10;  1.0000000E+04;  0.0000000E+00;  9.9999336E+03;-0.088583827;0.0;0.0020813476;42.675941
  1.9991564E-02;  9.9999998E-03; -6.0000129E-02;1072;-0.0053332201;0.0;-9.7833959e-05;1000.1509;  4.0000001E-01;125.03349;3;-3.1021652;0.0;-0.078993298;0;-0.086656369;  1.0003075E+04;  0.0000000E+00; -1.4926639E-10;  1.0000000E+04;  0.0000000E+00;  9.9999443E+03;-0.088421419;0.0;0.0017650522;36.993355
  1.9991588E-02;  9.9999998E-03; -4.0000077E-02;1073;-0.0053193141;0.0;-6.0444007e-05;1000.1511;  4.0000001E-01;125.13225;3;-3.0986338;0.0;-0.050727256;0;-0.086708918;  1.0003067E+04;  0.0000000E+00; -1.0645154E-10;  1.0000000E+04;  0.0000000E+00;  9.9999541E+03;-0.088234708;0.0;0.0015257931;32.720936
  1.9991605E-02;  9.9999998E-03; -2.0000035E-02;1074;-0.0053094295;0.0;-2.8681734e-05;1000.151;  4.0000001E-01;125.13225;3;-3.0957088;0.0;-0.024646284;0;-0.08671806;  1.0003061E+04;  0.0000000E+00; -2.3148906E-11;  1.0000000E+04;  0.0000000E+00;  9.9999609E+03;-0.088095263;0.0;0.0013772008;30.078478
  3.9988779E-02;  9.9999998E-03; -1.8000101E-01;1097;-0.006999074;0.0;-0.00064981333;1000.16;  4.0000001E-01;132.53944;3;-3.6087856;0.0;-0.37290666;0;-0.089852035;  1.0003356E+04;  0.0000000E+00;  2.2411494E-07;  1.0000000E+04;  0.0000000E+00;  9.9998477E+03;-0.093984082;0.0;0.0041320454;83.885231
  3.9988525E-02;  9.9999998E-03; -1.6000080E-01;1098;-0.0071675237;0.0;-0.00052665273;1000.1641;  4.0000001E-01;135.89737;3;-3.7071953;0.0;-0.3150171;0;-0.092249289;  1.0003434E+04;  0.0000000E+00;  1.1854976E-07;  1.0000000E+04;  0.0000000E+00;  9.9998506E+03;-0.096339375;0.0;0.0040900819;82.027832
  3.9988399E-02;  9.9999998E-03; -1.4000061E-01;1099;-0.0072573549;0.0;-0.00041676307;1000.167;  4.0000001E-01;138.36644;3;-3.7680607;0.0;-0.26142296;0;-0.093853854;  1.0003474E+04;  0.0000000E+00;  5.3186493E-08;  1.0000000E+04;  0.0000000E+00;  9.9998652E+03;-0.097648814;0.0;0.0037949604;75.791695
  3.9988350E-02;  9.9999998E-03; -1.2000046E-01;1100;-0.0072941729;0.0;-0.0003205339;1000.1685;  4.0000001E-01;139.55159;3;-3.8014154;0.0;-0.21145564;0;-0.094843097;  1.0003486E+04;  0.0000000E+00;  1.8363991E-08;  1.0000000E+04;  0.0000000E+00;  9.9998818E+03;-0.098228648;0.0;0.0033855506;67.669899
  3.9988358E-02;  9.9999998E-03; -1.0000034E-01;1101;-0.0072968523;0.0;-0.00024068942;1000.1695;  4.0000001E-01;140.44044;3;-3.8160648;0.0;-0.16747063;0;-0.095399201;  1.0003486E+04;  0.0000000E+00;  4.2590109E-09;  1.0000000E+04;  0.0000000E+00;  9.9998994E+03;-0.098337114;0.0;0.0029379148;59.052265
  3.9988395E-02;  9.9999998E-03; -8.0000229E-02;1102;-0.0072812513;0.0;-0.00017363932;1000.1697;  4.0000001E-01;140.63797;3;-3.819479;0.0;-0.12711999;0;-0.095670491;  1.0003478E+04;  0.0000000E+00;  5.4343646E-10;  1.0000000E+04;  0.0000000E+00;  9.9999180E+03;-0.098180667;0.0;0.0025101756;50.965885
  3.9988436E-02;  9.9999998E-03; -6.0000155E-02;1103;-0.0072583673;0.0;-0.00011907721;1000.1699;  4.0000001E-01;140.73674;3;-3.8170776;0.0;-0.091244139;0;-0.095771447;  1.0003465E+04;  0.0000000E+00; -8.8365166E-12;  1.0000000E+04;  0.0000000E+00;  9.9999326E+03;-0.097915031;0.0;0.0021435826;44.118481
  3.9988477E-02;  9.9999998E-03; -4.0000092E-02;1104;-0.0072365357;0.0;-7.3968979e-05;1000.1698;  4.0000001E-01;140.63797;3;-3.8126125;0.0;-0.05914896;0;-0.095786586;  1.0003451E+04;  0.0000000E+00;  3.6458146E-11;  1.0000000E+04;  0.0000000E+00;  9.9999443E+03;-0.097651847;0.0;0.0018652596;38.962421
  3.9988503E-02;  9.9999998E-03; -2.0000044E-02;1105;-0.0072213411;0.0;-3.5343139e-05;1000.1697;  4.0000001E-01;140.53922;3;-3.8089628;0.0;-0.028836329;0;-0.095773548;  1.0003443E+04;  0.0000000E+00;  1.2684109E-10;  1.0000000E+04;  0.0000000E+00;  9.9999512E+03;-0.097465619;0.0;0.0016920685;35.770973
  5.9985202E-02;  9.9999998E-03; -1.8000108E-01;1128;-0.0091363005;0.0;-0.00068396929;1000.1799;  4.0000001E-01;149.03281;3;-4.3567634;0.0;-0.36880484;0;-0.098827526;  1.0003772E+04;  0.0000000E+00;  2.0371989E-07;  1.0000000E+04;  0.0000000E+00;  9.9998271E+03;-0.10333183;0.0;0.0045043011;94.956993
  5.9984904E-02;  9.9999998E-03; -1.6000086E-01;1129;-0.0093353326;0.0;-0.00055957737;1000.1837;  4.0000001E-01;152.19321;3;-4.4694376;0.0;-0.31741184;0;-0.10104232;  1.0003847E+04;  0.0000000E+00;  1.3072763E-07;  1.0000000E+04;  0.0000000E+00;  9.9998320E+03;-0.10549815;0.0;0.0044558304;92.430412
  5.9984762E-02;  9.9999998E-03; -1.4000066E-01;1130;-0.0094374809;0.0;-0.00044416662;1000.186;  4.0000001E-01;154.16846;3;-4.5394402;0.0;-0.26642126;0;-0.1024358;  1.0003875E+04;  0.0000000E+00;  6.1241963E-08;  1.0000000E+04;  0.0000000E+00;  9.9998467E+03;-0.10659236;0.0;0.004156549;85.386353
  5.9984729E-02;  9.9999998E-03; -1.2000050E-01;1131;-0.0094734086;0.0;-0.00034459052;1000.1872;  4.0000001E-01;155.05731;3;-4.5774174;0.0;-0.21913256;0;-0.10322239;  1.0003881E+04;  0.0000000E+00;  2.0064212E-08;  1.0000000E+04;  0.0000000E+00;  9.9998672E+03;-0.10696142;0.0;0.0037390348;76.376183
  5.9984755E-02;  9.9999998E-03; -1.0000036E-01;1132;-0.0094683096;0.0;-0.00025986927;1000.188;  4.0000001E-01;155.74866;3;-4.5941982;0.0;-0.1759139;0;-0.10360786;  1.0003868E+04;  0.0000000E+00;  3.9320871E-09;  1.0000000E+04;  0.0000000E+00;  9.9998877E+03;-0.10688177;0.0;0.0032739083;66.784431
  5.9984811E-02;  9.9999998E-03; -8.0000252E-02;1133;-0.0094416346;0.0;-0.00018902488;1000.188;  4.0000001E-01;155.74866;3;-4.5981359;0.0;-0.13539618;0;-0.10374497;  1.0003853E+04;  0.0000000E+00; -1.7937676E-11;  1.0000000E+04;  0.0000000E+00;  9.9999072E+03;-0.10656835;0.0;0.0028233833;57.743511
  5.9984878E-02;  9.9999998E-03; -6.0000166E-02;1134;-0.0094074737;0.0;-0.00013061419;1000.1879;  4.0000001E-01;155.6499;3;-4.5952816;0.0;-0.0986109;0;-0.10374635;  1.0003836E+04;  0.0000000E+00; -1.4642479E-10;  1.0000000E+04;  0.0000000E+00;  9.9999229E+03;-0.10618019;0.0;0.002433843;50.061394
  5.9984937E-02;  9.9999998E-03; -4.0000100E-02;1135;-0.0093762772;0.0;-8.1456448e-05;1000.1876;  4.0000001E-01;155.45238;3;-4.5902786;0.0;-0.064147562;0;-0.10369327;  1.0003821E+04;  0.0000000E+00; -4.8834235E-11;  1.0000000E+04;  0.0000000E+00;  9.9999346E+03;-0.10582976;0.0;0.0021364924;44.263386
  5.9984978E-02;  9.9999998E-03; -2.0000048E-02;1136;-0.0093548745;0.0;-3.9108687e-05;1000.1875;  4.0000001E-01;155.35361;3;-4.5860691;0.0;-0.031686198;0;-0.10364046;  1.0003808E+04;  0.0000000E+00;  8.0389237E-12;  1.0000000E+04;  0.0000000E+00;  9.9999414E+03;-0.10559138;0.0;0.0019509165;40.670048
  7.9981230E-02;  9.9999998E-03; -1.8000109E-01;1159;-0.011443641;0.0;-0.00068183983;1000.2025;  4.0000001E-01;167.69893;3;-5.1842875;0.0;-0.35441831;0;-0.10865083;  1.0004238E+04;  0.0000000E+00;  4.7658389E-08;  1.0000000E+04;  0.0000000E+00;  9.9998105E+03;-0.11328246;0.0;0.0046316339;103.37462
  7.9980902E-02;  9.9999998E-03; -1.6000088E-01;1160;-0.011666442;0.0;-0.0005592368;1000.2058;  4.0000001E-01;170.46429;3;-5.3109617;0.0;-0.30860007;0;-0.11059006;  1.0004297E+04;  0.0000000E+00;  1.0172870E-07;  1.0000000E+04;  0.0000000E+00;  9.9998203E+03;-0.11517081;0.0;0.0045807604;100.13992
  7.9980761E-02;  9.9999998E-03; -1.4000067E-01;1161;-0.01177428;0.0;-0.00044568026;1000.2078;  4.0000001E-01;172.14325;3;-5.3891397;0.0;-0.26276413;0;-0.11167199;  1.0004320E+04;  0.0000000E+00;  5.5572649E-08;  1.0000000E+04;  0.0000000E+00;  9.9998350E+03;-0.11597953;0.0;0.0043075378;92.615364
  7.9980746E-02;  9.9999998E-03; -1.2000050E-01;1162;-0.011804474;0.0;-0.00034831624;1000.2083;  4.0000001E-01;172.5383;3;-5.4314594;0.0;-0.2198402;0;-0.11216649;  1.0004314E+04;  0.0000000E+00;  1.7992363E-08;  1.0000000E+04;  0.0000000E+00;  9.9998545E+03;-0.11608738;0.0;0.0039208955;83.172729
  7.9980798E-02;  9.9999998E-03; -1.0000037E-01;1163;-0.011787836;0.0;-0.00026353545;1000.2085;  4.0000001E-01;172.73582;3;-5.4502559;0.0;-0.17802164;0;-0.1123067;  1.0004296E+04;  0.0000000E+00;  2.2848994E-09;  1.0000000E+04;  0.0000000E+00;  9.9998779E+03;-0.11578494;0.0;0.0034782426;73.085228
  7.9980887E-02;  9.9999998E-03; -8.0000259E-02;1164;-0.011747142;0.0;-0.00019304788;1000.2081;  4.0000001E-01;172.34077;3;-5.4546585;0.0;-0.13894892;0;-0.11225074;  1.0004268E+04;  0.0000000E+00; -1.0825270E-09;  1.0000000E+04;  0.0000000E+00;  9.9998975E+03;-0.11529135;0.0;0.0030406106;63.517921
  7.9980984E-02;  9.9999998E-03; -6.0000170E-02;1165;-0.011699676;0.0;-0.00013382606;1000.2077;  4.0000001E-01;172.04449;3;-5.4515886;0.0;-0.10216776;0;-0.11210878;  1.0004245E+04;  0.0000000E+00; -7.7401741E-10;  1.0000000E+04;  0.0000000E+00;  9.9999150E+03;-0.11476575;0.0;0.0026569683;55.345974
  7.9981066E-02;  9.9999998E-03; -4.0000103E-02;1166;-0.011657595;0.0;-8.3980951e-05;1000.2075;  4.0000001E-01;171.84697;3;-5.4460201;0.0;-0.067064159;0;-0.11195746;  1.0004223E+04;  0.0000000E+00; -2.7698105E-10;  1.0000000E+04;  0.0000000E+00;  9.9999277E+03;-0.114319;0.0;0.0023615442;49.155102
  7.9981118E-02;  9.9999998E-03; -2.0000048E-02;1167;-0.011629183;0.0;-4.0387065e-05;1000.2071;  4.0000001E-01;171.55067;3;-5.4413371;0.0;-0.033201545;0;-0.11184742;  1.0004210E+04;  0.0000000E+00; -6.8335143E-11;  1.0000000E+04;  0.0000000E+00;  9.9999365E+03;-0.11402368;0.0;0.0021762599;45.309704
  9.9976815E-02;  9.9999998E-03; -1.8000109E-01;1190;-0.01392751;0.0;-0.00065697799;1000.2297;  4.0000001E-01;190.31558;3;-6.1108508;0.0;-0.33509687;0;-0.1202656;  1.0004795E+04;  0.0000000E+00; -2.1893382E-07;  1.0000000E+04;  0.0000000E+00;  9.9998037E+03;-0.12483972;0.0;0.0045741126;110.26413
  9.9976480E-02;  9.9999998E-03; -1.6000086E-01;1191;-0.014164611;0.0;-0.00054070086;1000.2325;  4.0000001E-01;192.58711;3;-6.2498379;0.0;-0.29610839;0;-0.12184989;  1.0004840E+04;  0.0000000E+00;  3.0334565E-08;  1.0000000E+04;  0.0000000E+00;  9.9998125E+03;-0.12638858;0.0;0.0045386925;106.47517
  9.9976353E-02;  9.9999998E-03; -1.4000067E-01;1192;-0.014269754;0.0;-0.00043436684;1000.2337;  4.0000001E-01;193.57474;3;-6.3349271;0.0;-0.25634798;0;-0.12254224;  1.0004847E+04;  0.0000000E+00;  4.3354838E-08;  1.0000000E+04;  0.0000000E+00;  9.9998281E+03;-0.12686712;0.0;0.0043248758;98.832764
  9.9976368E-02;  9.9999998E-03; -1.2000050E-01;1193;-0.01428816;0.0;-0.0003409567;1000.2337;  4.0000001E-01;193.57474;3;-6.3808403;0.0;-0.21707466;0;-0.12267457;  1.0004830E+04;  0.0000000E+00;  1.5830871E-08;  1.0000000E+04;  0.0000000E+00;  9.9998467E+03;-0.12668286;0.0;0.0040082964;89.3993
  9.9976465E-02;  9.9999998E-03; -1.0000036E-01;1194;-0.014254957;0.0;-0.00026029372;1000.2332;  4.0000001E-01;193.17969;3;-6.4010496;0.0;-0.1786772;0;-0.12250881;  1.0004796E+04;  0.0000000E+00;  5.9475347E-10;  1.0000000E+04;  0.0000000E+00;  9.9998691E+03;-0.12613523;0.0;0.0036264234;79.2463
  9.9976592E-02;  9.9999998E-03; -8.0000252E-02;1195;-0.014196861;0.0;-0.0001918482;1000.2326;  4.0000001E-01;192.68588;3;-6.4056311;0.0;-0.14131887;0;-0.12221062;  1.0004760E+04;  0.0000000E+00; -2.6457396E-09;  1.0000000E+04;  0.0000000E+00;  9.9998887E+03;-0.12544528;0.0;0.0032346551;69.516342
  9.9976726E-02;  9.9999998E-03; -6.0000170E-02;1196;-0.01413353;0.0;-0.00013406911;1000.2316;  4.0000001E-01;191.89578;3;-6.4021163;0.0;-0.10487636;0;-0.12188784;  1.0004726E+04;  0.0000000E+00; -2.3591817E-09;  1.0000000E+04;  0.0000000E+00;  9.9999053E+03;-0.12477055;0.0;0.0028827128;61.132088
  9.9976830E-02;  9.9999998E-03; -4.0000103E-02;1197;-0.014078945;0.0;-8.465987e-05;1000.231;  4.0000001E-01;191.40196;3;-6.3958893;0.0;-0.069487795;0;-0.12161206;  1.0004702E+04;  0.0000000E+00; -7.6731532E-10;  1.0000000E+04;  0.0000000E+00;  9.9999189E+03;-0.12421954;0.0;0.0026074778;54.740364
  9.9976905E-02;  9.9999998E-03; -2.0000048E-02;1198;-0.014042552;0.0;-4.0931503e-05;1000.2307;  4.0000001E-01;191.10568;3;-6.3906832;0.0;-0.034556974;0;-0.12142917;  1.0004686E+04;  0.0000000E+00; -2.0045046E-10;  1.0000000E+04;  0.0000000E+00;  9.9999277E+03;-0.12386248;0.0;0.0024333161;50.754589
  1.1997185E-01;  9.9999998E-03; -1.8000108E-01;1221;-0.016644605;0.0;-0.00062960858;1000.2627;  4.0000001E-01;217.67282;3;-7.1417465;0.0;-0.31692913;0;-0.13404772;  1.0005460E+04;  0.0000000E+00; -5.9045630E-07;  1.0000000E+04;  0.0000000E+00;  9.9997949E+03;-0.13848455;0.0;0.0044368398;117.51954
  1.1997151E-01;  9.9999998E-03; -1.6000086E-01;1222;-0.016885437;0.0;-0.00052474783;1000.2646;  4.0000001E-01;219.25302;3;-7.2909093;0.0;-0.28667283;0;-0.13518719;  1.0005490E+04;  0.0000000E+00; -6.2702206E-08;  1.0000000E+04;  0.0000000E+00;  9.9998018E+03;-0.13963649;0.0;0.0044492949;113.48528
  1.1997143E-01;  9.9999998E-03; -1.4000067E-01;1223;-0.016979111;0.0;-0.00042804235;1000.2649;  4.0000001E-01;219.45055;3;-7.381515;0.0;-0.25365156;0;-0.13542117;  1.0005482E+04;  0.0000000E+00;  3.3379742E-08;  1.0000000E+04;  0.0000000E+00;  9.9998184E+03;-0.13975377;0.0;0.0043325964;106.10783
  1.1997149E-01;  9.9999998E-03; -1.2000050E-01;1224;-0.016978571;0.0;-0.00033954595;1000.2643;  4.0000001E-01;218.95674;3;-7.4299483;0.0;-0.2184487;0;-0.1351327;  1.0005448E+04;  0.0000000E+00;  1.6480151E-08;  1.0000000E+04;  0.0000000E+00;  9.9998379E+03;-0.13925822;0.0;0.0041255248;97.08371
  1.1997164E-01;  9.9999998E-03; -1.0000037E-01;1225;-0.016923361;0.0;-0.00026291239;1000.2628;  4.0000001E-01;217.77159;3;-7.4508009;0.0;-0.18276228;0;-0.13461243;  1.0005400E+04;  0.0000000E+00; -1.2117030E-10;  1.0000000E+04;  0.0000000E+00;  9.9998555E+03;-0.13845171;0.0;0.0038392812;87.19471
  1.1997183E-01;  9.9999998E-03; -8.0000259E-02;1226;-0.016843777;0.0;-0.00019621415;1000.2615;  4.0000001E-01;216.6852;3;-7.4551902;0.0;-0.14658752;0;-0.13403367;  1.0005354E+04;  0.0000000E+00; -4.1896451E-09;  1.0000000E+04;  0.0000000E+00;  9.9998760E+03;-0.13755463;0.0;0.00352097;77.537186
  1.1997200E-01;  9.9999998E-03; -6.0000174E-02;1227;-0.01676162;0.0;-0.00013884512;1000.2603;  4.0000001E-01;215.5988;3;-7.4509654;0.0;-0.11015324;0;-0.13350134;  1.0005313E+04;  0.0000000E+00; -3.1702341E-09;  1.0000000E+04;  0.0000000E+00;  9.9998975E+03;-0.13672213;0.0;0.0032207896;69.090828
  1.1997214E-01;  9.9999998E-03; -4.0000107E-02;1228;-0.016692532;0.0;-8.8551249e-05;1000.2593;  4.0000001E-01;214.8087;3;-7.4439816;0.0;-0.073473066;0;-0.13308109;  1.0005280E+04;  0.0000000E+00; -1.5151669E-09;  1.0000000E+04;  0.0000000E+00;  9.9999082E+03;-0.13606019;0.0;0.0029791009;62.585346
  1.1997223E-01;  9.9999998E-03; -2.0000050E-02;1229;-0.016646998;0.0;-4.3097258e-05;1000.2587;  4.0000001E-01;214.3149;3;-7.4382138;0.0;-0.036821023;0;-0.13281363;  1.0005262E+04;  0.0000000E+00; -6.1086020E-10;  1.0000000E+04;  0.0000000E+00;  9.9999160E+03;-0.13563725;0.0;0.0028236189;58.502617
  1.3996617E-01;  9.9999998E-03; -1.8000112E-01;1252;-0.019665156;0.0;-0.00062625454;1000.3015;  4.0000001E-01;249.77068;3;-8.2727671;0.0;-0.31008255;0;-0.14987886;  1.0006251E+04;  0.0000000E+00; -1.6592348E-05;  1.0000000E+04;  0.0000000E+00;  9.9997793E+03;-0.15426822;0.0;0.0043893652;128.27713
  1.3996588E-01;  9.9999998E-03; -1.6000091E-01;1253;-0.019898957;0.0;-0.00053627742;1000.3022;  4.0000001E-01;250.36325;3;-8.4301348;0.0;-0.29043469;0;-0.15048048;  1.0006259E+04;  0.0000000E+00; -1.4078381E-07;  1.0000000E+04;  0.0000000E+00;  9.9997861E+03;-0.15495472;0.0;0.0044742301;124.00719
  1.3996585E-01;  9.9999998E-03; -1.4000072E-01;1254;-0.019972391;0.0;-0.00044841916;1000.3013;  4.0000001E-01;249.67192;3;-8.5251131;0.0;-0.26398179;0;-0.15018998;  1.0006227E+04;  0.0000000E+00;  3.5099561E-08;  1.0000000E+04;  0.0000000E+00;  9.9998027E+03;-0.15468134;0.0;0.0044913646;117.14594
  1.3996598E-01;  9.9999998E-03; -1.2000055E-01;1255;-0.019945344;0.0;-0.00036432547;1000.2997;  4.0000001E-01;248.28923;3;-8.5752048;0.0;-0.23238391;0;-0.14943184;  1.0006176E+04;  0.0000000E+00;  2.2895005E-08;  1.0000000E+04;  0.0000000E+00;  9.9998174E+03;-0.15386164;0.0;0.0044298009;108.78784
  1.3996619E-01;  9.9999998E-03; -1.0000041E-01;1256;-0.019862298;0.0;-0.00028776404;1000.2975;  4.0000001E-01;246.51151;3;-8.5962696;0.0;-0.19755988;0;-0.14852202;  1.0006115E+04;  0.0000000E+00;  1.3376568E-09;  1.0000000E+04;  0.0000000E+00;  9.9998359E+03;-0.15279022;0.0;0.0042682006;99.320427
  1.3996644E-01;  9.9999998E-03; -8.0000289E-02;1257;-0.019756623;0.0;-0.00021908105;1000.2956;  4.0000001E-01;244.9313;3;-8.6001081;0.0;-0.16050281;0;-0.14763798;  1.0006056E+04;  0.0000000E+00; -5.1768025E-09;  1.0000000E+04;  0.0000000E+00;  9.9998545E+03;-0.15168168;0.0;0.0040437002;89.784416
  1.3996667E-01;  9.9999998E-03; -6.0000200E-02;1258;-0.0196523;0.0;-0.00015763065;1000.2939;  4.0000001E-01;243.54863;3;-8.5950928;0.0;-0.12190683;0;-0.14687911;  1.0006004E+04;  0.0000000E+00; -3.6073673E-09;  1.0000000E+04;  0.0000000E+00;  9.9998740E+03;-0.15068725;0.0;0.0038081396;81.252899
  1.3996685E-01;  9.9999998E-03; -4.0000122E-02;1259;-0.019566361;0.0;-0.00010187425;1000.2925;  4.0000001E-01;242.36348;3;-8.5873289;0.0;-0.081966288;0;-0.14630353;  1.0005963E+04;  0.0000000E+00; -2.0393855E-09;  1.0000000E+04;  0.0000000E+00;  9.9998877E+03;-0.14991088;0.0;0.0036073492;74.581436
  1.3996696E-01;  9.9999998E-03; -2.0000059E-02;1260;-0.019510316;0.0;-4.9985447e-05;1000.2919;  4.0000001E-01;241.7709;3;-8.5809526;0.0;-0.041239411;0;-0.14594528;  1.0005939E+04;  0.0000000E+00; -3.8304412E-10;  1.0000000E+04;  0.0000000E+00;  9.9998945E+03;-0.14941946;0.0;0.0034741771;70.356003
  1.5995966E-01;  9.9999998E-03; -1.8000126E-01;1283;-0.023042077;0.0;-0.0006848608;1000.3453;  4.0000001E-01;286.11533;3;-9.4988012;0.0;-0.33107775;0;-0.16742139;  1.0007162E+04;  0.0000000E+00; -1.3864336E-04;  1.0000000E+04;  0.0000000E+00;  9.9997480E+03;-0.17211908;0.0;0.0046976982;147.65816
  1.5995941E-01;  9.9999998E-03; -1.6000105E-01;1284;-0.023258245;0.0;-0.00060782291;1000.3452;  4.0000001E-01;286.01657;3;-9.6627932;0.0;-0.32133713;0;-0.16739161;  1.0007145E+04;  0.0000000E+00; -1.9655509E-07;  1.0000000E+04;  0.0000000E+00;  9.9997568E+03;-0.17222911;0.0;0.0048374925;142.13657
  1.5995947E-01;  9.9999998E-03; -1.4000085E-01;1285;-0.023303017;0.0;-0.00052473455;1000.3432;  4.0000001E-01;284.33759;3;-9.7615604;0.0;-0.30005142;0;-0.16653517;  1.0007093E+04;  0.0000000E+00;  5.6456777E-08;  1.0000000E+04;  0.0000000E+00;  9.9997705E+03;-0.17153491;0.0;0.004999747;135.42366
  1.5995967E-01;  9.9999998E-03; -1.2000067E-01;1286;-0.023242556;0.0;-0.00043856897;1000.3403;  4.0000001E-01;281.96729;3;-9.8132;0.0;-0.26920709;0;-0.16528206;  1.0007021E+04;  0.0000000E+00;  3.7268375E-08;  1.0000000E+04;  0.0000000E+00;  9.9997852E+03;-0.17038514;0.0;0.0051030819;127.57248
  1.5995999E-01;  9.9999998E-03; -1.0000051E-01;1287;-0.023125917;0.0;-0.00035449103;1000.3375;  4.0000001E-01;279.59698;3;-9.8345327;0.0;-0.23197456;0;-0.16396856;  1.0006944E+04;  0.0000000E+00;  5.0620166E-09;  1.0000000E+04;  0.0000000E+00;  9.9998057E+03;-0.16905111;0.0;0.0050825528;118.36201
  1.5996030E-01;  9.9999998E-03; -8.0000371E-02;1288;-0.0229895;0.0;-0.00027520064;1000.3348;  4.0000001E-01;277.32544;3;-9.8379374;0.0;-0.19016075;0;-0.16277334;  1.0006871E+04;  0.0000000E+00; -4.8864974E-09;  1.0000000E+04;  0.0000000E+00;  9.9998223E+03;-0.16773513;0.0;0.0049617919;108.72626
  1.5996060E-01;  9.9999998E-03; -6.0000259E-02;1289;-0.022859383;0.0;-0.00020129107;1000.3323;  4.0000001E-01;275.35019;3;-9.832242;0.0;-0.1454296;0;-0.1617865;  1.0006811E+04;  0.0000000E+00; -4.3845261E-09;  1.0000000E+04;  0.0000000E+00;  9.9998389E+03;-0.16658165;0.0;0.0047951546;99.864403
  1.5996082E-01;  9.9999998E-03; -4.0000163E-02;1290;-0.02275403;0.0;-0.00013168099;1000.3307;  4.0000001E-01;274.06628;3;-9.8237143;0.0;-0.098218672;0;-0.16105554;  1.0006760E+04;  0.0000000E+00; -2.5558600E-09;  1.0000000E+04;  0.0000000E+00;  9.9998555E+03;-0.16569175;0.0;0.0046362095;92.808189
  1.5996097E-01;  9.9999998E-03; -2.0000080E-02;1291;-0.022685943;0.0;-6.5103981e-05;1000.3298;  4.0000001E-01;273.27618;3;-9.8168106;0.0;-0.049535893;0;-0.16060728;  1.0006732E+04;  0.0000000E+00; -4.2862977E-10;  1.0000000E+04;  0.0000000E+00;  9.9998623E+03;-0.16513224;0.0;0.0045249546;88.290695
  1.7995219E-01;  9.9999998E-03; -1.8000157E-01;1314;-0.026804486;0.0;-0.000855644;1000.395;  4.0000001E-01;327.29935;3;-10.814583;0.0;-0.4023619;0;-0.18636246;  1.0008219E+04;  0.0000000E+00; -4.1304104E-04;  1.0000000E+04;  0.0000000E+00;  9.9996816E+03;-0.1920877;0.0;0.0057252329;182.92378
  1.7995203E-01;  9.9999998E-03; -1.6000135E-01;1315;-0.026993614;0.0;-0.00077927124;1000.3933;  4.0000001E-01;325.8179;3;-10.985158;0.0;-0.39653191;0;-0.18566872;  1.0008164E+04;  0.0000000E+00; -1.5117315E-06;  1.0000000E+04;  0.0000000E+00;  9.9996992E+03;-0.19150513;0.0;0.0058364104;173.54613
  1.7995217E-01;  9.9999998E-03; -1.4000112E-01;1316;-0.027002661;0.0;-0.00068874628;1000.39;  4.0000001E-01;323.15131;3;-11.088151;0.0;-0.37579522;0;-0.18426773;  1.0008085E+04;  0.0000000E+00;  9.2294805E-08;  1.0000000E+04;  0.0000000E+00;  9.9997168E+03;-0.19036558;0.0;0.0060978481;165.35414
  1.7995250E-01;  9.9999998E-03; -1.2000090E-01;1317;-0.026902996;0.0;-0.00058735104;1000.386;  4.0000001E-01;319.79337;3;-11.142276;0.0;-0.3403663;0;-0.18254015;  1.0007991E+04;  0.0000000E+00;  6.0623265E-08;  1.0000000E+04;  0.0000000E+00;  9.9997275E+03;-0.18888748;0.0;0.0063473224;157.01329
  1.7995290E-01;  9.9999998E-03; -1.0000070E-01;1318;-0.026747635;0.0;-0.00048296346;1000.3823;  4.0000001E-01;316.73172;3;-11.164681;0.0;-0.29507539;0;-0.18084385;  1.0007896E+04;  0.0000000E+00;  1.2558264E-08;  1.0000000E+04;  0.0000000E+00;  9.9997480E+03;-0.18730363;0.0;0.0064597917;147.32907
  1.7995332E-01;  9.9999998E-03; -8.0000527E-02;1319;-0.026576078;0.0;-0.00037995027;1000.3788;  4.0000001E-01;313.76886;3;-11.168307;0.0;-0.24253736;0;-0.17935637;  1.0007810E+04;  0.0000000E+00; -2.4274720E-09;  1.0000000E+04;  0.0000000E+00;  9.9997656E+03;-0.18579306;0.0;0.0064366935;136.97351
  1.7995368E-01;  9.9999998E-03; -6.0000371E-02;1320;-0.026416576;0.0;-0.00028077324;1000.3761;  4.0000001E-01;311.59607;3;-11.162254;0.0;-0.18533958;0;-0.17815785;  1.0007735E+04;  0.0000000E+00; -3.4461256E-09;  1.0000000E+04;  0.0000000E+00;  9.9997881E+03;-0.18449064;0.0;0.0063327872;127.2506
  1.7995396E-01;  9.9999998E-03; -4.0000238E-02;1321;-0.026289174;0.0;-0.00018518053;1000.374;  4.0000001E-01;309.81836;3;-11.153255;0.0;-0.12522925;0;-0.1772839;  1.0007678E+04;  0.0000000E+00; -1.3603335E-09;  1.0000000E+04;  0.0000000E+00;  9.9998027E+03;-0.18349384;0.0;0.0062099327;119.39551
  1.7995414E-01;  9.9999998E-03; -2.0000115E-02;1322;-0.026207443;0.0;-9.1991729e-05;1000.3729;  4.0000001E-01;308.92947;3;-11.14596;0.0;-0.06302835;0;-0.17675318;  1.0007643E+04;  0.0000000E+00; -1.4265991E-10;  1.0000000E+04;  0.0000000E+00;  9.9998125E+03;-0.18286966;0.0;0.0061164857;114.32156
  1.9994365E-01;  9.9999998E-03; -1.8000215E-01;1345;-0.030978903;0.0;-0.0011806337;1000.4496;  4.0000001E-01;372.53262;3;-12.217259;0.0;-0.53897899;0;-0.20635319;  1.0009430E+04;  0.0000000E+00; -7.2087033E-04;  1.0000000E+04;  0.0000000E+00;  9.9995654E+03;-0.21422896;0.0;0.0078757778;242.45082
  1.9994359E-01;  9.9999998E-03; -1.6000187E-01;1346;-0.031132603;0.0;-0.0010888873;1000.4467;  4.0000001E-01;370.06354;3;-12.393763;0.0;-0.53215617;0;-0.20509757;  1.0009335E+04;  0.0000000E+00; -5.9773042E-06;  1.0000000E+04;  0.0000000E+00;  9.9996006E+03;-0.21290213;0.0;0.0078045554;224.91417
  1.9994387E-01;  9.9999998E-03; -1.4000158E-01;1347;-0.031100579;0.0;-0.00097154215;1000.4423;  4.0000001E-01;366.40933;3;-12.502793;0.0;-0.50439894;0;-0.20325792;  1.0009224E+04;  0.0000000E+00;  1.4410347E-07;  1.0000000E+04;  0.0000000E+00;  9.9996250E+03;-0.21130528;0.0;0.0080473553;212.00757
  1.9994432E-01;  9.9999998E-03; -1.2000129E-01;1348;-0.030957524;0.0;-0.00083520915;1000.4376;  4.0000001E-01;362.55759;3;-12.56164;0.0;-0.45589969;0;-0.20114128;  1.0009106E+04;  0.0000000E+00;  8.6304638E-08;  1.0000000E+04;  0.0000000E+00;  9.9996445E+03;-0.20951129;0.0;0.0083700139;200.99739
  1.9994485E-01;  9.9999998E-03; -1.0000101E-01;1349;-0.030759463;0.0;-0.00069122034;1000.4327;  4.0000001E-01;358.50833;3;-12.587041;0.0;-0.39333147;0;-0.19912572;  1.0008990E+04;  0.0000000E+00;  2.2758503E-08;  1.0000000E+04;  0.0000000E+00;  9.9996670E+03;-0.2076976;0.0;0.0085718734;189.30475
  1.9994538E-01;  9.9999998E-03; -8.0000773E-02;1350;-0.03054888;0.0;-0.00054733257;1000.4287;  4.0000001E-01;355.15039;3;-12.592131;0.0;-0.32234019;0;-0.19739455;  1.0008890E+04;  0.0000000E+00;  1.4451292E-09;  1.0000000E+04;  0.0000000E+00;  9.9996895E+03;-0.20601334;0.0;0.0086187907;177.07623
  1.9994582E-01;  9.9999998E-03; -6.0000550E-02;1351;-0.030356627;0.0;-0.00040669827;1000.4255;  4.0000001E-01;352.58258;3;-12.586623;0.0;-0.24599227;0;-0.19601993;  1.0008800E+04;  0.0000000E+00; -1.2723903E-09;  1.0000000E+04;  0.0000000E+00;  9.9997119E+03;-0.20457901;0.0;0.0085590733;165.61157
  1.9994618E-01;  9.9999998E-03; -4.0000357E-02;1352;-0.030204615;0.0;-0.00026940412;1000.4232;  4.0000001E-01;350.60733;3;-12.577419;0.0;-0.16697671;0;-0.19502765;  1.0008732E+04;  0.0000000E+00; -1.0637532E-09;  1.0000000E+04;  0.0000000E+00;  9.9997305E+03;-0.20348753;0.0;0.0084598828;156.32208
  1.9994639E-01;  9.9999998E-03; -2.0000175E-02;1353;-0.030107671;0.0;-0.00013412307;1000.4218;  4.0000001E-01;349.42215;3;-12.569941;0.0;-0.084294438;0;-0.19442891;  1.0008691E+04;  0.0000000E+00; -2.5146432E-10;  1.0000000E+04;  0.0000000E+00;  9.9997441E+03;-0.20280589;0.0;0.0083769821;150.30415
  2.1993390E-01;  9.9999998E-03; -1.8000305E-01;1376;-0.035597589;0.0;-0.0016907129;1000.5091;  4.0000001E-01;421.81516;3;-13.703835;0.0;-0.74928761;0;-0.22703245;  1.0010801E+04;  0.0000000E+00; -8.2229025E-04;  1.0000000E+04;  0.0000000E+00;  9.9993857E+03;-0.23850819;0.0;0.011475736;333.5705
  2.1993397E-01;  9.9999998E-03; -1.6000265E-01;1377;-0.035711147;0.0;-0.0015602158;1000.5053;  4.0000001E-01;418.65475;3;-13.887832;0.0;-0.73908097;0;-0.22546491;  1.0010665E+04;  0.0000000E+00; -6.7747660E-06;  1.0000000E+04;  0.0000000E+00;  9.9994434E+03;-0.23648714;0.0;0.011022232;302.37671
  2.1993440E-01;  9.9999998E-03; -1.4000225E-01;1378;-0.035634585;0.0;-0.0013939345;1000.5002;  4.0000001E-01;414.40796;3;-14.006878;0.0;-0.69268274;0;-0.22337386;  1.0010521E+04;  0.0000000E+00;  1.6616247E-07;  1.0000000E+04;  0.0000000E+00;  9.9994912E+03;-0.23444992;0.0;0.011076056;280.21121
  2.1993500E-01;  9.9999998E-03; -1.2000185E-01;1379;-0.0354455;0.0;-0.0012000286;1000.4945;  4.0000001E-01;409.66736;3;-14.074249;0.0;-0.61994994;0;-0.22101651;  1.0010373E+04;  0.0000000E+00;  9.7910508E-08;  1.0000000E+04;  0.0000000E+00;  9.9995195E+03;-0.23236634;0.0;0.011349827;263.18539
  2.1993567E-01;  9.9999998E-03; -1.0000147E-01;1380;-0.035201576;0.0;-0.000995529;1000.4891;  4.0000001E-01;405.22305;3;-14.104674;0.0;-0.53539759;0;-0.21879035;  1.0010235E+04;  0.0000000E+00;  2.9167007E-08;  1.0000000E+04;  0.0000000E+00;  9.9995518E+03;-0.23035216;0.0;0.011561816;247.08301
  2.1993631E-01;  9.9999998E-03; -8.0001123E-02;1381;-0.0349489;0.0;-0.00078961736;1000.4844;  4.0000001E-01;401.37131;3;-14.11323;0.0;-0.43726397;0;-0.21689235;  1.0010112E+04;  0.0000000E+00;  4.7319566E-09;  1.0000000E+04;  0.0000000E+00;  9.9995840E+03;-0.22852176;0.0;0.011629422;231.24309
  2.1993688E-01;  9.9999998E-03; -6.0000811E-02;1382;-0.034721084;0.0;-0.00058753672;1000.481;  4.0000001E-01;398.5072;3;-14.109554;0.0;-0.33294985;0;-0.21539508;  1.0010013E+04;  0.0000000E+00; -1.1413855E-10;  1.0000000E+04;  0.0000000E+00;  9.9996123E+03;-0.22697884;0.0;0.011583763;216.78159
  2.1993729E-01;  9.9999998E-03; -4.0000524E-02;1383;-0.034542222;0.0;-0.00038918489;1000.4783;  4.0000001E-01;396.23566;3;-14.101398;0.0;-0.22413355;0;-0.21431985;  1.0009935E+04;  0.0000000E+00; -1.3671049E-09;  1.0000000E+04;  0.0000000E+00;  9.9996328E+03;-0.22581032;0.0;0.011490463;205.19594
  2.1993756E-01;  9.9999998E-03; -2.0000257E-02;1384;-0.034428623;0.0;-0.0001938826;1000.4767;  4.0000001E-01;394.95172;3;-14.094241;0.0;-0.11269487;0;-0.21367338;  1.0009890E+04;  0.0000000E+00;  5.2585780E-10;  1.0000000E+04;  0.0000000E+00;  9.9996494E+03;-0.22508217;0.0;0.011408796;197.72594
  2.3992278E-01;  9.9999998E-03; -1.8000428E-01;1407;-0.040703423;0.0;-0.0024019682;1000.5736;  4.0000001E-01;475.24576;3;-15.273406;0.0;-1.0446323;0;-0.24823427;  1.0012349E+04;  0.0000000E+00; -6.0693885E-04;  1.0000000E+04;  0.0000000E+00;  9.9991221E+03;-0.26486421;0.0;0.016629932;459.98807
  2.3992303E-01;  9.9999998E-03; -1.6000375E-01;1408;-0.040771835;0.0;-0.0022090869;1000.5696;  4.0000001E-01;471.88782;3;-15.470604;0.0;-1.0116907;0;-0.24667667;  1.0012168E+04;  0.0000000E+00; -1.9067592E-06;  1.0000000E+04;  0.0000000E+00;  9.9992295E+03;-0.26228946;0.0;0.015612796;409.6871
  2.3992363E-01;  9.9999998E-03; -1.4000317E-01;1409;-0.040649932;0.0;-0.0019653398;1000.5641;  4.0000001E-01;467.34473;3;-15.604401;0.0;-0.9408952;0;-0.24456647;  1.0011987E+04;  0.0000000E+00;  1.3139626E-07;  1.0000000E+04;  0.0000000E+00;  9.9993027E+03;-0.25987321;0.0;0.015306742;373.34558
  2.3992440E-01;  9.9999998E-03; -1.2000261E-01;1410;-0.040413152;0.0;-0.0016879826;1000.558;  4.0000001E-01;462.30783;3;-15.683372;0.0;-0.8389492;0;-0.24215671;  1.0011810E+04;  0.0000000E+00;  8.0620168E-08;  1.0000000E+04;  0.0000000E+00;  9.9993545E+03;-0.25754866;0.0;0.01539194;346.28946
  2.3992522E-01;  9.9999998E-03; -1.0000209E-01;1411;-0.040121429;0.0;-0.0014000596;1000.5521;  4.0000001E-01;457.46848;3;-15.723645;0.0;-0.71548313;0;-0.23986015;  1.0011648E+04;  0.0000000E+00;  2.6241576E-08;  1.0000000E+04;  0.0000000E+00;  9.9993994E+03;-0.25537607;0.0;0.015515922;322.73376
  2.3992601E-01;  9.9999998E-03; -8.0001600E-02;1412;-0.039824188;0.0;-0.0011122526;1000.5473;  4.0000001E-01;453.41922;3;-15.737993;0.0;-0.58233553;0;-0.23789367;  1.0011506E+04;  0.0000000E+00;  5.8058567E-09;  1.0000000E+04;  0.0000000E+00;  9.9994424E+03;-0.25343582;0.0;0.015542146;301.05804
  2.3992668E-01;  9.9999998E-03; -6.0001157E-02;1413;-0.039558459;0.0;-0.00082856353;1000.5433;  4.0000001E-01;450.16003;3;-15.737914;0.0;-0.44216469;0;-0.23634113;  1.0011389E+04;  0.0000000E+00;  1.2260335E-09;  1.0000000E+04;  0.0000000E+00;  9.9994795E+03;-0.25181517;0.0;0.015474035;282.02026
  2.3992719E-01;  9.9999998E-03; -4.0000752E-02;1414;-0.039350756;0.0;-0.00054928486;1000.5405;  4.0000001E-01;447.78973;3;-15.731678;0.0;-0.29697517;0;-0.235227;  1.0011306E+04;  0.0000000E+00;  1.3896592E-09;  1.0000000E+04;  0.0000000E+00;  9.9995098E+03;-0.25059372;0.0;0.015366714;267.08032
  2.3992752E-01;  9.9999998E-03; -2.0000368E-02;1415;-0.039219145;0.0;-0.0002740834;1000.5387;  4.0000001E-01;446.30829;3;-15.724655;0.0;-0.15113366;0;-0.23455758;  1.0011247E+04;  0.0000000E+00;  4.2886691E-10;  1.0000000E+04;  0.0000000E+00;  9.9995273E+03;-0.2498343;0.0;0.015276711;257.54749
  2.5991008E-01;  9.9999998E-03; -1.8000597E-01;1438;-0.046346489;0.0;-0.0033666866;1000.644;  4.0000001E-01;533.51563;3;-16.929842;0.0;-1.4464194;0;-0.27010262;  1.0014081E+04;  0.0000000E+00; -2.5374553E-04;  1.0000000E+04;  0.0000000E+00;  9.9987998E+03;-0.29323703;0.0;0.023134395;620.12805
  2.5991055E-01;  9.9999998E-03; -1.6000515E-01;1439;-0.046367142;0.0;-0.0030408858;1000.6401;  4.0000001E-01;530.35522;3;-17.144575;0.0;-1.3647426;0;-0.26883125;  1.0013858E+04;  0.0000000E+00;  1.8742578E-07;  1.0000000E+04;  0.0000000E+00;  9.9989502E+03;-0.29030856;0.0;0.021477303;546.99451
  2.5991133E-01;  9.9999998E-03; -1.4000435E-01;1440;-0.046197399;0.0;-0.0026846554;1000.6348;  4.0000001E-01;525.91095;3;-17.299889;0.0;-1.2429805;0;-0.2669239;  1.0013642E+04;  0.0000000E+00;  5.3859999E-08;  1.0000000E+04;  0.0000000E+00;  9.9990605E+03;-0.28762943;0.0;0.020705514;492.40082
  2.5991231E-01;  9.9999998E-03; -1.2000358E-01;1441;-0.045909699;0.0;-0.0023068648;1000.6287;  4.0000001E-01;520.87402;3;-17.393766;0.0;-1.112352;0;-0.26465157;  1.0013436E+04;  0.0000000E+00;  2.5201023E-08;  1.0000000E+04;  0.0000000E+00;  9.9991436E+03;-0.28514397;0.0;0.020492399;451.45062
  2.5991333E-01;  9.9999998E-03; -1.0000286E-01;1442;-0.045569547;0.0;-0.0019114851;1000.6225;  4.0000001E-01;515.7384;3;-17.448801;0.0;-0.9428305;0;-0.26243106;  1.0013249E+04;  0.0000000E+00;  6.8555055E-09;  1.0000000E+04;  0.0000000E+00;  9.9992090E+03;-0.28287235;0.0;0.02044129;417.22815
  2.5991428E-01;  9.9999998E-03; -8.0002196E-02;1443;-0.045226626;0.0;-0.0015193485;1000.6173;  4.0000001E-01;511.39282;3;-17.473066;0.0;-0.76736832;0;-0.2605027;  1.0013084E+04;  0.0000000E+00;  2.8284082E-09;  1.0000000E+04;  0.0000000E+00;  9.9992666E+03;-0.28087094;0.0;0.020368254;387.2551
  2.5991508E-01;  9.9999998E-03; -6.0001589E-02;1444;-0.044921625;0.0;-0.0011311941;1000.6132;  4.0000001E-01;508.03491;3;-17.47875;0.0;-0.58170545;0;-0.25896892;  1.0012954E+04;  0.0000000E+00;  1.2647005E-09;  1.0000000E+04;  0.0000000E+00;  9.9993184E+03;-0.27921301;0.0;0.020244088;361.86658
  2.5991568E-01;  9.9999998E-03; -4.0001031E-02;1445;-0.044684358;0.0;-0.00074998284;1000.6103;  4.0000001E-01;505.56583;3;-17.476376;0.0;-0.39016965;0;-0.25786442;  1.0012854E+04;  0.0000000E+00;  2.5032725E-09;  1.0000000E+04;  0.0000000E+00;  9.9993555E+03;-0.27796996;0.0;0.02010553;342.38516
  2.5991607E-01;  9.9999998E-03; -2.0000508E-02;1446;-0.044534463;0.0;-0.00037377659;1000.6085;  4.0000001E-01;504.08438;3;-17.472336;0.0;-0.19595414;0;-0.25720021;  1.0012793E+04;  0.0000000E+00;  6.9669820E-10;  1.0000000E+04;  0.0000000E+00;  9.9993809E+03;-0.27719992;0.0;0.019999702;330.10867
  2.7989563E-01;  9.9999998E-03; -1.8000807E-01;1469;-0.052583486;0.0;-0.0045579355;1000.7213;  4.0000001E-01;597.61261;3;-18.67853;0.0;-1.9281496;0;-0.29304743;  1.0016019E+04;  0.0000000E+00; -3.2601944E-05;  1.0000000E+04;  0.0000000E+00;  9.9984170E+03;-0.32356909;0.0;0.030521652;807.77954
  2.7989632E-01;  9.9999998E-03; -1.6000688E-01;1470;-0.052550137;0.0;-0.0040594647;1000.7184;  4.0000001E-01;595.24231;3;-18.915537;0.0;-1.7784183;0;-0.29221776;  1.0015755E+04;  0.0000000E+00;  1.4570604E-07;  1.0000000E+04;  0.0000000E+00;  9.9986172E+03;-0.32052881;0.0;0.028311035;710.98981
  2.7989736E-01;  9.9999998E-03; -1.4000578E-01;1471;-0.052328542;0.0;-0.0035554194;1000.7133;  4.0000001E-01;590.89673;3;-19.095474;0.0;-1.6054957;0;-0.29067785;  1.0015501E+04;  0.0000000E+00; -3.9856090E-08;  1.0000000E+04;  0.0000000E+00;  9.9987705E+03;-0.31775868;0.0;0.027080832;635.83435
  2.7989858E-01;  9.9999998E-03; -1.2000474E-01;1472;-0.051989093;0.0;-0.0030449287;1000.707;  4.0000001E-01;585.76111;3;-19.214533;0.0;-1.4128466;0;-0.28869396;  1.0015262E+04;  0.0000000E+00; -3.9169237E-08;  1.0000000E+04;  0.0000000E+00;  9.9988838E+03;-0.31522512;0.0;0.02653116;578.03503
  2.7989981E-01;  9.9999998E-03; -1.0000379E-01;1473;-0.051597167;0.0;-0.0025275869;1000.701;  4.0000001E-01;580.72418;3;-19.284096;0.0;-1.2135186;0;-0.28667668;  1.0015045E+04;  0.0000000E+00; -1.8774498E-08;  1.0000000E+04;  0.0000000E+00;  9.9989795E+03;-0.31293523;0.0;0.026258551;530.28772
  2.7990094E-01;  9.9999998E-03; -8.0002911E-02;1474;-0.05120806;0.0;-0.0020083978;1000.6953;  4.0000001E-01;576.08234;3;-19.32062;0.0;-0.98641646;0;-0.28488544;  1.0014861E+04;  0.0000000E+00; -4.5630792E-09;  1.0000000E+04;  0.0000000E+00;  9.9990586E+03;-0.3109366;0.0;0.02605116;489.63928
  2.7990189E-01;  9.9999998E-03; -6.0002111E-02;1475;-0.050864249;0.0;-0.0014977505;1000.6914;  4.0000001E-01;572.82318;3;-19.336321;0.0;-0.74797899;0;-0.28344274;  1.0014709E+04;  0.0000000E+00;  6.1189391E-09;  1.0000000E+04;  0.0000000E+00;  9.9991260E+03;-0.30929327;0.0;0.025850527;456.10938
  2.7990261E-01;  9.9999998E-03; -4.0001370E-02;1476;-0.050597124;0.0;-0.00099368952;1000.6882;  4.0000001E-01;570.15656;3;-19.339375;0.0;-0.50281852;0;-0.28239769;  1.0014596E+04;  0.0000000E+00;  6.5006471E-09;  1.0000000E+04;  0.0000000E+00;  9.9991768E+03;-0.3080692;0.0;0.025671504;430.86115
  2.7990305E-01;  9.9999998E-03; -2.0000676E-02;1477;-0.050428715;0.0;-0.00049540232;1000.6865;  4.0000001E-01;568.77393;3;-19.338484;0.0;-0.25222039;0;-0.28176707;  1.0014528E+04;  0.0000000E+00;  2.5960241E-09;  1.0000000E+04;  0.0000000E+00;  9.9992080E+03;-0.30731374;0.0;0.025546663;415.13214
  2.9987916E-01;  9.9999998E-03; -1.8001054E-01;1500;-0.059465155;0.0;-0.0059284768;1000.8076;  4.0000001E-01;669.11664;3;-20.514742;0.0;-2.4633255;0;-0.31758925;  1.0018167E+04;  0.0000000E+00;  2.7066853E-06;  1.0000000E+04;  0.0000000E+00;  9.9979922E+03;-0.35583347;0.0;0.038244214;1015.1739
  2.9988015E-01;  9.9999998E-03; -1.6000891E-01;1501;-0.059372753;0.0;-0.0052303551;1000.8049;  4.0000001E-01;666.84509;3;-20.783945;0.0;-2.2445362;0;-0.3172532;  1.0017872E+04;  0.0000000E+00;  5.8687490E-08;  1.0000000E+04;  0.0000000E+00;  9.9982412E+03;-0.35295653;0.0;0.035703331;896.44031
  2.9988149E-01;  9.9999998E-03; -1.4000744E-01;1502;-0.05909441;0.0;-0.0045537506;1000.8004;  4.0000001E-01;663.0921;3;-20.994457;0.0;-2.0087457;0;-0.31615856;  1.0017582E+04;  0.0000000E+00; -1.2291673E-07;  1.0000000E+04;  0.0000000E+00;  9.9984336E+03;-0.35029683;0.0;0.034138262;800.3479
  2.9988295E-01;  9.9999998E-03; -1.2000608E-01;1503;-0.0587008;0.0;-0.0038871001;1000.7945;  4.0000001E-01;658.25275;3;-21.140724;0.0;-1.7573351;0;-0.31455007;  1.0017310E+04;  0.0000000E+00; -9.9581200E-08;  1.0000000E+04;  0.0000000E+00;  9.9985889E+03;-0.34785029;0.0;0.033300214;723.99884
  2.9988444E-01;  9.9999998E-03; -1.0000485E-01;1504;-0.058258206;0.0;-0.0032260437;1000.7888;  4.0000001E-01;653.51215;3;-21.233675;0.0;-1.4963913;0;-0.31282583;  1.0017063E+04;  0.0000000E+00; -4.3049560E-08;  1.0000000E+04;  0.0000000E+00;  9.9987158E+03;-0.34564248;0.0;0.032816648;660.57751
  2.9988578E-01;  9.9999998E-03; -8.0003724E-02;1505;-0.057823457;0.0;-0.0025673991;1000.7834;  4.0000001E-01;649.06781;3;-21.28932;0.0;-1.2194827;0;-0.31125221;  1.0016854E+04;  0.0000000E+00; -4.4394257E-09;  1.0000000E+04;  0.0000000E+00;  9.9988223E+03;-0.34372637;0.0;0.032474153;607.22784
  2.9988688E-01;  9.9999998E-03; -6.0002703E-02;1506;-0.057441294;0.0;-0.0019173241;1000.779;  4.0000001E-01;645.41357;3;-21.315596;0.0;-0.93045646;0;-0.30996624;  1.0016680E+04;  0.0000000E+00;  1.2976799E-08;  1.0000000E+04;  0.0000000E+00;  9.9989102E+03;-0.3421627;0.0;0.032196466;563.9176
  2.9988775E-01;  9.9999998E-03; -4.0001757E-02;1507;-0.05714611;0.0;-0.001273873;1000.7759;  4.0000001E-01;642.84576;3;-21.328241;0.0;-0.62488395;0;-0.30902722;  1.0016553E+04;  0.0000000E+00;  9.5503738E-09;  1.0000000E+04;  0.0000000E+00;  9.9989717E+03;-0.34100553;0.0;0.031978313;531.73364
  2.9988825E-01;  9.9999998E-03; -2.0000866E-02;1508;-0.056960199;0.0;-0.0006358297;1000.7742;  4.0000001E-01;641.46307;3;-21.332159;0.0;-0.3144483;0;-0.30845845;  1.0016479E+04;  0.0000000E+00;  3.8421013E-09;  1.0000000E+04;  0.0000000E+00;  9.9990107E+03;-0.34029499;0.0;0.031836543;511.86102
  3.1986046E-01;  9.9999998E-03; -1.8001327E-01;1531;-0.067032881;0.0;-0.0073980917;1000.9041;  4.0000001E-01;749.01556;3;-22.442614;0.0;-3.0107429;0;-0.34421703;  1.0020549E+04;  0.0000000E+00;  2.2102095E-06;  1.0000000E+04;  0.0000000E+00;  9.9975508E+03;-0.39008567;0.0;0.045868646;1236.2866
  3.1986180E-01;  9.9999998E-03; -1.6001116E-01;1532;-0.066881202;0.0;-0.0065063061;1000.9022;  4.0000001E-01;747.43536;3;-22.746367;0.0;-2.7339725;0;-0.34436953;  1.0020228E+04;  0.0000000E+00; -7.1178179E-09;  1.0000000E+04;  0.0000000E+00;  9.9978301E+03;-0.38764316;0.0;0.043273635;1098.3568
  3.1986347E-01;  9.9999998E-03; -1.4000928E-01;1533;-0.066545092;0.0;-0.0056485017;1000.898;  4.0000001E-01;743.9787;3;-22.993504;0.0;-2.4405687;0;-0.3437171;  1.0019903E+04;  0.0000000E+00; -1.6994944E-07;  1.0000000E+04;  0.0000000E+00;  9.9980664E+03;-0.38528559;0.0;0.041568495;982.21191
  3.1986526E-01;  9.9999998E-03; -1.2000757E-01;1534;-0.066097617;0.0;-0.0048135421;1000.8922;  4.0000001E-01;739.13928;3;-23.176134;0.0;-2.1273632;0;-0.34250936;  1.0019596E+04;  0.0000000E+00; -1.3623352E-07;  1.0000000E+04;  0.0000000E+00;  9.9982617E+03;-0.3830671;0.0;0.04055775;886.69641
  3.1986701E-01;  9.9999998E-03; -1.0000603E-01;1535;-0.065605432;0.0;-0.0039937077;1000.8864;  4.0000001E-01;734.29993;3;-23.296804;0.0;-1.808466;0;-0.34112623;  1.0019316E+04;  0.0000000E+00; -5.3168222E-08;  1.0000000E+04;  0.0000000E+00;  9.9984199E+03;-0.38105166;0.0;0.039925434;806.2243
  3.1986856E-01;  9.9999998E-03; -8.0004632E-02;1536;-0.065128893;0.0;-0.0031824952;1000.8813;  4.0000001E-01;730.15192;3;-23.375654;0.0;-1.4687428;0;-0.33982879;  1.0019076E+04;  0.0000000E+00;  3.8023016E-09;  1.0000000E+04;  0.0000000E+00;  9.9985566E+03;-0.37930903;0.0;0.039480232;738.6275
  3.1986988E-01;  9.9999998E-03; -6.0003363E-02;1537;-0.064712875;0.0;-0.0023809064;1000.8769;  4.0000001E-01;726.49768;3;-23.422937;0.0;-1.1162084;0;-0.33875421;  1.0018885E+04;  0.0000000E+00;  2.5999944E-08;  1.0000000E+04;  0.0000000E+00;  9.9986650E+03;-0.37789741;0.0;0.039143201;684.16846
  3.1987086E-01;  9.9999998E-03; -4.0002186E-02;1538;-0.064392202;0.0;-0.0015853583;1000.8738;  4.0000001E-01;723.92987;3;-23.446276;0.0;-0.75683099;0;-0.33796516;  1.0018745E+04;  0.0000000E+00;  1.9237815E-08;  1.0000000E+04;  0.0000000E+00;  9.9987432E+03;-0.37686151;0.0;0.03889636;644.02008
  3.1987146E-01;  9.9999998E-03; -2.0001078E-02;1539;-0.064190723;0.0;-0.00079241127;1000.8722;  4.0000001E-01;722.54718;3;-23.457253;0.0;-0.382732;0;-0.33748573;  1.0018662E+04;  0.0000000E+00;  5.9701550E-09;  1.0000000E+04;  0.0000000E+00;  9.9987930E+03;-0.37622917;0.0;0.038743444;619.37872
  3.3983925E-01;  9.9999998E-03; -1.8001617E-01;1562;-0.075323991;0.0;-0.0088920044;1001.0132;  4.0000001E-01;839.3833;3;-24.444004;0.0;-3.5098562;0;-0.3733246;  1.0023195E+04;  0.0000000E+00;  1.7266260E-06;  1.0000000E+04;  0.0000000E+00;  9.9970801E+03;-0.42649439;0.0;0.053169787;1468.2675
  3.3984101E-01;  9.9999998E-03; -1.6001357E-01;1563;-0.075119659;0.0;-0.0078295292;1001.0114;  4.0000001E-01;837.90186;3;-24.79854;0.0;-3.2072194;0;-0.37390333;  1.0022844E+04;  0.0000000E+00; -8.9601826E-08;  1.0000000E+04;  0.0000000E+00;  9.9973984E+03;-0.42467618;0.0;0.050772831;1313.5513
  3.3984306E-01;  9.9999998E-03; -1.4001127E-01;1564;-0.074729525;0.0;-0.0068023028;1001.0071;  4.0000001E-01;834.34637;3;-25.092999;0.0;-2.8726883;0;-0.37364393;  1.0022484E+04;  0.0000000E+00; -1.9123036E-07;  1.0000000E+04;  0.0000000E+00;  9.9976709E+03;-0.42277244;0.0;0.049128495;1178.4901
  3.3984521E-01;  9.9999998E-03; -1.2000918E-01;1565;-0.074231923;0.0;-0.0058017019;1001.0016;  4.0000001E-01;829.80334;3;-25.314543;0.0;-2.5150795;0;-0.37282056;  1.0022140E+04;  0.0000000E+00; -1.4639491E-07;  1.0000000E+04;  0.0000000E+00;  9.9979033E+03;-0.42090669;0.0;0.048086148;1063.7916
  3.3984727E-01;  9.9999998E-03; -1.0000730E-01;1566;-0.073696963;0.0;-0.0048182704;1000.9955;  4.0000001E-01;824.76642;3;-25.473814;0.0;-2.1390555;0;-0.37179735;  1.0021825E+04;  0.0000000E+00; -4.1662211E-08;  1.0000000E+04;  0.0000000E+00;  9.9981006E+03;-0.41919124;0.0;0.047393881;965.51355
  3.3984908E-01;  9.9999998E-03; -8.0005601E-02;1567;-0.07318522;0.0;-0.003845447;1000.9907;  4.0000001E-01;820.71716;3;-25.585766;0.0;-1.7435776;0;-0.37081593;  1.0021556E+04;  0.0000000E+00;  3.0585237E-08;  1.0000000E+04;  0.0000000E+00;  9.9982656E+03;-0.41771269;0.0;0.046896763;882.61786
  3.3985060E-01;  9.9999998E-03; -6.0004063E-02;1568;-0.07274165;0.0;-0.0028806203;1000.9863;  4.0000001E-01;817.16168;3;-25.657778;0.0;-1.3309207;0;-0.37000018;  1.0021337E+04;  0.0000000E+00;  4.6149612E-08;  1.0000000E+04;  0.0000000E+00;  9.9983965E+03;-0.41652754;0.0;0.046527367;815.98706
  3.3985174E-01;  9.9999998E-03; -4.0002644E-02;1569;-0.072400935;0.0;-0.0019198272;1000.9832;  4.0000001E-01;814.59387;3;-25.702103;0.0;-0.89801341;0;-0.36940107;  1.0021180E+04;  0.0000000E+00;  3.1367104E-08;  1.0000000E+04;  0.0000000E+00;  9.9984932E+03;-0.41566637;0.0;0.046265304;767.07074
  3.3985242E-01;  9.9999998E-03; -2.0001302E-02;1570;-0.072187431;0.0;-0.00095982605;1000.9815;  4.0000001E-01;813.11243;3;-25.725176;0.0;-0.45280573;0;-0.36903849;  1.0021083E+04;  0.0000000E+00;  1.0345943E-08;  1.0000000E+04;  0.0000000E+00;  9.9985566E+03;-0.41514608;0.0;0.046107594;737.16113
  3.5981533E-01;  9.9999998E-03; -1.8001920E-01;1593;-0.08437933;0.0;-0.010382187;1001.1357;  4.0000001E-01;940.91119;3;-26.515049;0.0;-3.9635713;0;-0.40511376;  1.0026139E+04;  0.0000000E+00;  1.2817567E-06;  1.0000000E+04;  0.0000000E+00;  9.9965957E+03;-0.4652552;0.0;0.060141459;1711.4633
  3.5981750E-01;  9.9999998E-03; -1.6001612E-01;1594;-0.084132962;0.0;-0.00917006;1001.1337;  4.0000001E-01;939.23218;3;-26.931292;0.0;-3.6384919;0;-0.40603867;  1.0025750E+04;  0.0000000E+00; -1.9776387E-07;  1.0000000E+04;  0.0000000E+00;  9.9969434E+03;-0.46415025;0.0;0.058111571;1540.9456
  3.5981998E-01;  9.9999998E-03; -1.4001335E-01;1595;-0.083698794;0.0;-0.0079893135;1001.1293;  4.0000001E-01;935.578;3;-27.283106;0.0;-3.2809951;0;-0.40610981;  1.0025346E+04;  0.0000000E+00; -2.1501386E-07;  1.0000000E+04;  0.0000000E+00;  9.9972510E+03;-0.46279275;0.0;0.056682959;1387.6466
  3.5982251E-01;  9.9999998E-03; -1.2001087E-01;1596;-0.083161175;0.0;-0.0068305475;1001.1232;  4.0000001E-01;930.54108;3;-27.558489;0.0;-2.8981206;0;-0.40564299;  1.0024957E+04;  0.0000000E+00; -1.5541843E-07;  1.0000000E+04;  0.0000000E+00;  9.9975225E+03;-0.46137431;0.0;0.055731338;1253.9707
  3.5982493E-01;  9.9999998E-03; -1.0000863E-01;1597;-0.08259286;0.0;-0.0056832382;1001.1171;  4.0000001E-01;925.50421;3;-27.762403;0.0;-2.4907238;0;-0.40498737;  1.0024604E+04;  0.0000000E+00; -2.3563715E-08;  1.0000000E+04;  0.0000000E+00;  9.9977520E+03;-0.46004859;0.0;0.055061221;1137.6281
  3.5982707E-01;  9.9999998E-03; -8.0006622E-02;1598;-0.082054392;0.0;-0.0045420821;1001.1119;  4.0000001E-01;921.15863;3;-27.912601;0.0;-2.042181;0;-0.40435436;  1.0024300E+04;  0.0000000E+00;  6.1611026E-08;  1.0000000E+04;  0.0000000E+00;  9.9979521E+03;-0.45891339;0.0;0.054559011;1038.9066
  3.5982880E-01;  9.9999998E-03; -6.0004801E-02;1599;-0.081591018;0.0;-0.0034062145;1001.1077;  4.0000001E-01;917.70197;3;-28.017391;0.0;-1.5641316;0;-0.40383813;  1.0024058E+04;  0.0000000E+00;  7.8200131E-08;  1.0000000E+04;  0.0000000E+00;  9.9981094E+03;-0.458018;0.0;0.054179877;959.53119
  3.5983011E-01;  9.9999998E-03; -4.0003121E-02;1600;-0.081236884;0.0;-0.0022714627;1001.1047;  4.0000001E-01;915.23291;3;-28.084717;0.0;-1.060895;0;-0.40346804;  1.0023880E+04;  0.0000000E+00;  4.3147452E-08;  1.0000000E+04;  0.0000000E+00;  9.9982275E+03;-0.45737988;0.0;0.053911842;901.38031
  3.5983089E-01;  9.9999998E-03; -2.0001536E-02;1601;-0.081014745;0.0;-0.0011356099;1001.1028;  4.0000001E-01;913.65271;3;-28.121527;0.0;-0.53512472;0;-0.40324706;  1.0023772E+04;  0.0000000E+00;  1.4877203E-08;  1.0000000E+04;  0.0000000E+00;  9.9982969E+03;-0.45699924;0.0;0.053752191;865.91077
  3.7978831E-01;  9.9999998E-03; -1.8002236E-01;1624;-0.094240293;0.0;-0.011852085;1001.2734;  4.0000001E-01;1054.9817;3;-28.645727;0.0;-4.3571119;0;-0.43960238;  1.0029399E+04;  0.0000000E+00;  7.2347609E-07;  1.0000000E+04;  0.0000000E+00;  9.9960898E+03;-0.50651646;0.0;0.066914074;1967.7856
  3.7979096E-01;  9.9999998E-03; -1.6001877E-01;1625;-0.093966648;0.0;-0.010506503;1001.2705;  4.0000001E-01;1052.6115;3;-29.133924;0.0;-4.01863;0;-0.4408024;  1.0028965E+04;  0.0000000E+00; -3.2065662E-07;  1.0000000E+04;  0.0000000E+00;  9.9964688E+03;-0.50612622;0.0;0.065323822;1780.8884
  3.7979394E-01;  9.9999998E-03; -1.4001553E-01;1626;-0.093503073;0.0;-0.0091794506;1001.2651;  4.0000001E-01;1048.1671;3;-29.557528;0.0;-3.657481;0;-0.44115353;  1.0028511E+04;  0.0000000E+00; -2.4809003E-07;  1.0000000E+04;  0.0000000E+00;  9.9968125E+03;-0.50535101;0.0;0.064197466;1609.5648
  3.7979692E-01;  9.9999998E-03; -1.2001262E-01;1627;-0.092939459;0.0;-0.007862932;1001.2584;  4.0000001E-01;1042.5376;3;-29.898209;0.0;-3.2559824;0;-0.44102204;  1.0028071E+04;  0.0000000E+00; -1.8560745E-07;  1.0000000E+04;  0.0000000E+00;  9.9971172E+03;-0.50443494;0.0;0.063412912;1457.4292
  3.7979972E-01;  9.9999998E-03; -1.0001001E-01;1628;-0.092350967;0.0;-0.0065520527;1001.2518;  4.0000001E-01;1037.1057;3;-30.162489;0.0;-2.8178873;0;-0.44074243;  1.0027669E+04;  0.0000000E+00; -3.8587025E-08;  1.0000000E+04;  0.0000000E+00;  9.9973838E+03;-0.50355792;0.0;0.062815502;1323.4293
  3.7980217E-01;  9.9999998E-03; -8.0007672E-02;1629;-0.091797784;0.0;-0.0052405735;1001.2462;  4.0000001E-01;1032.4639;3;-30.364941;0.0;-2.3271611;0;-0.4404881;  1.0027327E+04;  0.0000000E+00;  7.6523854E-08;  1.0000000E+04;  0.0000000E+00;  9.9976133E+03;-0.50282067;0.0;0.062332556;1209.0854
  3.7980419E-01;  9.9999998E-03; -6.0005561E-02;1630;-0.09132418;0.0;-0.003930347;1001.2416;  4.0000001E-01;1028.7108;3;-30.51005;0.0;-1.7883457;0;-0.44030991;  1.0027057E+04;  0.0000000E+00;  8.2447912E-08;  1.0000000E+04;  0.0000000E+00;  9.9977930E+03;-0.50226009;0.0;0.061950188;1117.0452
  3.7980565E-01;  9.9999998E-03; -4.0003613E-02;1631;-0.09096273;0.0;-0.0026212158;1001.2385;  4.0000001E-01;1026.0443;3;-30.608797;0.0;-1.2137439;0;-0.44020256;  1.0026855E+04;  0.0000000E+00;  5.5577917E-08;  1.0000000E+04;  0.0000000E+00;  9.9979297E+03;-0.50187677;0.0;0.061674207;1049.6959
  3.7980658E-01;  9.9999998E-03; -2.0001778E-02;1632;-0.090737127;0.0;-0.001311121;1001.2365;  4.0000001E-01;1024.3654;3;-30.664621;0.0;-0.61334229;0;-0.44014701;  1.0026732E+04;  0.0000000E+00;  1.6625229E-08;  1.0000000E+04;  0.0000000E+00;  9.9980098E+03;-0.50165594;0.0;0.061508916;1008.6865
  3.9975795E-01;  9.9999998E-03; -1.8002565E-01;1655;-0.10495121;0.0;-0.013296354;1001.4271;  4.0000001E-01;1182.2864;3;-30.82568;0.0;-4.6669631;0;-0.47669148;  1.0033013E+04;  0.0000000E+00;  1.0756929E-07;  1.0000000E+04;  0.0000000E+00;  9.9955566E+03;-0.55033767;0.0;0.073646188;2238.6934
  3.9976117E-01;  9.9999998E-03; -1.6002153E-01;1656;-0.10466595;0.0;-0.011816014;1001.4227;  4.0000001E-01;1178.731;3;-31.399502;0.0;-4.3445296;0;-0.47810537;  1.0032514E+04;  0.0000000E+00; -4.3457257E-07;  1.0000000E+04;  0.0000000E+00;  9.9959678E+03;-0.55060184;0.0;0.072496466;2034.1808
  3.9976466E-01;  9.9999998E-03; -1.4001781E-01;1657;-0.10418937;0.0;-0.010340269;1001.4158;  4.0000001E-01;1173.0027;3;-31.907106;0.0;-3.9835036;0;-0.47869617;  1.0031998E+04;  0.0000000E+00; -3.1256613E-07;  1.0000000E+04;  0.0000000E+00;  9.9963457E+03;-0.55039722;0.0;0.071701042;1845.4213
  3.9976814E-01;  9.9999998E-03; -1.2001445E-01;1658;-0.10361673;0.0;-0.0088675702;1001.4078;  4.0000001E-01;1166.3856;3;-32.328526;0.0;-3.5761788;0;-0.4788821;  1.0031497E+04;  0.0000000E+00; -3.2165823E-07;  1.0000000E+04;  0.0000000E+00;  9.9966826E+03;-0.5499965;0.0;0.071114399;1676.3734
  3.9977139E-01;  9.9999998E-03; -1.0001145E-01;1659;-0.1030239;0.0;-0.0073910109;1001.4;  4.0000001E-01;1159.8673;3;-32.668888;0.0;-3.1188526;0;-0.47898495;  1.0031042E+04;  0.0000000E+00; -1.5772576E-07;  1.0000000E+04;  0.0000000E+00;  9.9969814E+03;-0.54958922;0.0;0.07060425;1526.3794
  3.9977419E-01;  9.9999998E-03; -8.0008768E-02;1660;-0.10247006;0.0;-0.0059137433;1001.3936;  4.0000001E-01;1154.5341;3;-32.935776;0.0;-2.5851369;0;-0.47913232;  1.0030655E+04;  0.0000000E+00; -5.2329234E-09;  1.0000000E+04;  0.0000000E+00;  9.9972363E+03;-0.54926944;0.0;0.070137106;1397.8132
  3.9977649E-01;  9.9999998E-03; -6.0006350E-02;1661;-0.10199788;0.0;-0.0044374298;1001.3884;  4.0000001E-01;1150.1886;3;-33.135326;0.0;-1.9968878;0;-0.47932261;  1.0030344E+04;  0.0000000E+00;  3.8393921E-08;  1.0000000E+04;  0.0000000E+00;  9.9974443E+03;-0.54905981;0.0;0.069737211;1294.1675
  3.9977819E-01;  9.9999998E-03; -4.0004127E-02;1662;-0.10163837;0.0;-0.0029598728;1001.3846;  4.0000001E-01;1147.127;3;-33.273113;0.0;-1.3598894;0;-0.47950575;  1.0030122E+04;  0.0000000E+00;  2.6381946E-08;  1.0000000E+04;  0.0000000E+00;  9.9975957E+03;-0.54894221;0.0;0.069436453;1218.3627
  3.9977920E-01;  9.9999998E-03; -2.0002032E-02;1663;-0.10141388;0.0;-0.0014803723;1001.3826;  4.0000001E-01;1145.448;3;-33.353664;0.0;-0.68951774;0;-0.47963542;  1.0029984E+04;  0.0000000E+00;  1.0897471E-08;  1.0000000E+04;  0.0000000E+00;  9.9976865E+03;-0.54888827;0.0;0.069252849;1172.2612
  4.1972390E-01;  9.9999998E-03; -1.8002917E-01;1686;-0.11655738;0.0;-0.014709979;1001.5978;  4.0000001E-01;1323.714;3;-33.046848;0.0;-4.9040093;0;-0.51621801;  1.0036994E+04;  0.0000000E+00; -2.6025009E-07;  1.0000000E+04;  0.0000000E+00;  9.9949951E+03;-0.59665269;0.0;0.080434702;2523.9875
  4.1972771E-01;  9.9999998E-03; -1.6002448E-01;1687;-0.11627576;0.0;-0.013081015;1001.5909;  4.0000001E-01;1318.0845;3;-33.716633;0.0;-4.5935183;0;-0.51776731;  1.0036409E+04;  0.0000000E+00; -4.1200056E-07;  1.0000000E+04;  0.0000000E+00;  9.9954443E+03;-0.59746999;0.0;0.079702646;2301.6633
  4.1973186E-01;  9.9999998E-03; -1.4002024E-01;1688;-0.11580267;0.0;-0.011451068;1001.5817;  4.0000001E-01;1310.381;3;-34.322922;0.0;-4.2407503;0;-0.5185374;  1.0035817E+04;  0.0000000E+00; -4.0683886E-07;  1.0000000E+04;  0.0000000E+00;  9.9958467E+03;-0.59778517;0.0;0.07924778;2097.9988
  4.1973591E-01;  9.9999998E-03; -1.2001642E-01;1689;-0.1152374;0.0;-0.009819082;1001.5711;  4.0000001E-01;1301.5912;3;-34.844334;0.0;-3.8409269;0;-0.51900107;  1.0035246E+04;  0.0000000E+00; -5.7613119E-07;  1.0000000E+04;  0.0000000E+00;  9.9962109E+03;-0.59787327;0.0;0.078872226;1915.8868
  4.1973963E-01;  9.9999998E-03; -1.0001301E-01;1690;-0.11465624;0.0;-0.0081834784;1001.5616;  4.0000001E-01;1293.7889;3;-35.273193;0.0;-3.3629313;0;-0.51947153;  1.0034732E+04;  0.0000000E+00; -4.2942494E-07;  1.0000000E+04;  0.0000000E+00;  9.9965322E+03;-0.59791833;0.0;0.078446776;1753.7535
  4.1974285E-01;  9.9999998E-03; -8.0009967E-02;1691;-0.11411703;0.0;-0.0065493314;1001.5536;  4.0000001E-01;1287.1719;3;-35.621117;0.0;-2.8065655;0;-0.52002627;  1.0034292E+04;  0.0000000E+00; -2.0541201E-07;  1.0000000E+04;  0.0000000E+00;  9.9968086E+03;-0.59800082;0.0;0.077974536;1614.1869
  4.1974548E-01;  9.9999998E-03; -6.0007226E-02;1692;-0.11365854;0.0;-0.004915488;1001.5474;  4.0000001E-01;1282.0361;3;-35.887459;0.0;-2.1779528;0;-0.52060062;  1.0033944E+04;  0.0000000E+00; -8.7967059E-08;  1.0000000E+04;  0.0000000E+00;  9.9970322E+03;-0.59812599;0.0;0.077525385;1501.354
  4.1974738E-01;  9.9999998E-03; -4.0004700E-02;1693;-0.11331014;0.0;-0.0032796243;1001.543;  4.0000001E-01;1278.382;3;-36.074837;0.0;-1.4893966;0;-0.52109379;  1.0033688E+04;  0.0000000E+00; -3.1071536E-08;  1.0000000E+04;  0.0000000E+00;  9.9971953E+03;-0.59826177;0.0;0.077167995;1418.7491
  4.1974854E-01;  9.9999998E-03; -2.0002315E-02;1694;-0.113092;0.0;-0.0016409658;1001.5403;  4.0000001E-01;1276.1105;3;-36.187099;0.0;-0.75599653;0;-0.52142155;  1.0033538E+04;  0.0000000E+00; -7.7734565E-09;  1.0000000E+04;  0.0000000E+00;  9.9972979E+03;-0.59836489;0.0;0.076943308;1368.5231
  4.3968579E-01;  9.9999998E-03; -1.8003301E-01;1717;-0.12910779;0.0;-0.016083119;1001.7851;  4.0000001E-01;1478.8693;3;-35.295727;0.0;-5.0381122;0;-0.55788112;  1.0041341E+04;  0.0000000E+00;  2.3867958E-07;  1.0000000E+04;  0.0000000E+00;  9.9944160E+03;-0.64515692;0.0;0.087275781;2822.1812
  4.3969035E-01;  9.9999998E-03; -1.6002774E-01;1718;-0.12884276;0.0;-0.014295066;1001.7748;  4.0000001E-01;1470.3757;3;-36.074955;0.0;-4.7422619;0;-0.55942285;  1.0040658E+04;  0.0000000E+00;  1.0647588E-07;  1.0000000E+04;  0.0000000E+00;  9.9948867E+03;-0.64639509;0.0;0.086972222;2585.0442
  4.3969518E-01;  9.9999998E-03; -1.4002298E-01;1719;-0.12838663;0.0;-0.012505135;1001.7616;  4.0000001E-01;1459.4131;3;-36.796898;0.0;-4.4138951;0;-0.56025219;  1.0039970E+04;  0.0000000E+00; -3.1926359E-07;  1.0000000E+04;  0.0000000E+00;  9.9953076E+03;-0.6471566;0.0;0.086904384;2372.8855
  4.3969989E-01;  9.9999998E-03; -1.2001868E-01;1720;-0.12784208;0.0;-0.010712327;1001.7479;  4.0000001E-01;1448.1542;3;-37.429153;0.0;-4.0133934;0;-0.56090039;  1.0039320E+04;  0.0000000E+00; -8.5568820E-07;  1.0000000E+04;  0.0000000E+00;  9.9956797E+03;-0.64768332;0.0;0.086782947;2185.3384
  4.3970418E-01;  9.9999998E-03; -1.0001484E-01;1721;-0.12728775;0.0;-0.0089247711;1001.7354;  4.0000001E-01;1437.6853;3;-37.966007;0.0;-3.5363011;0;-0.56168103;  1.0038736E+04;  0.0000000E+00; -7.7916320E-07;  1.0000000E+04;  0.0000000E+00;  9.9960098E+03;-0.6481362;0.0;0.086455166;2018.0842
  4.3970788E-01;  9.9999998E-03; -8.0011398E-02;1722;-0.12677705;0.0;-0.0071418099;1001.7253;  4.0000001E-01;1429.3893;3;-38.410805;0.0;-2.9693263;0;-0.56261754;  1.0038243E+04;  0.0000000E+00; -4.7130715E-07;  1.0000000E+04;  0.0000000E+00;  9.9963008E+03;-0.6485756;0.0;0.085958071;1873.1149
  4.3971083E-01;  9.9999998E-03; -6.0008280E-02;1723;-0.12634447;0.0;-0.0053613167;1001.7175;  4.0000001E-01;1422.9697;3;-38.758739;0.0;-2.3165004;0;-0.5635736;  1.0037851E+04;  0.0000000E+00; -2.3876549E-07;  1.0000000E+04;  0.0000000E+00;  9.9965371E+03;-0.6489926;0.0;0.085419029;1755.147
  4.3971300E-01;  9.9999998E-03; -4.0005393E-02;1724;-0.12601607;0.0;-0.0035780149;1001.7119;  4.0000001E-01;1418.3279;3;-39.007172;0.0;-1.5906768;0;-0.56438339;  1.0037569E+04;  0.0000000E+00; -1.0920763E-07;  1.0000000E+04;  0.0000000E+00;  9.9967061E+03;-0.64934427;0.0;0.084960908;1668.422
  4.3971434E-01;  9.9999998E-03; -2.0002661E-02;1725;-0.12581007;0.0;-0.0017906838;1001.7084;  4.0000001E-01;1415.365;3;-39.157631;0.0;-0.80926508;0;-0.56491661;  1.0037395E+04;  0.0000000E+00; -2.7556990E-08;  1.0000000E+04;  0.0000000E+00;  9.9968115E+03;-0.64957905;0.0;0.084662415;1615.5903
  4.5964316E-01;  9.9999998E-03; -1.8003744E-01;1748;-0.14265803;0.0;-0.01742113;1001.9896;  4.0000081E-01;1648.3447;3;-37.561535;0.0;-5.0410476;0;-0.60091883;  1.0046004E+04;  0.0000000E+00;  3.2818184E-06;  1.0000000E+04;  0.0000000E+00;  9.9938066E+03;-0.69500798;0.0;0.094089143;3132.9753
  4.5964858E-01;  9.9999998E-03; -1.6003162E-01;1749;-0.14241824;0.0;-0.015475017;1001.9736;  4.0000078E-01;1635.1106;3;-38.461674;0.0;-4.7639103;0;-0.60220528;  1.0045200E+04;  0.0000000E+00;  2.0959380E-06;  1.0000000E+04;  0.0000000E+00;  9.9942910E+03;-0.69652128;0.0;0.094316006;2889.241
  4.5965427E-01;  9.9999998E-03; -1.4002632E-01;1750;-0.14198716;0.0;-0.013522252;1001.9548;  4.0000084E-01;1619.5061;3;-39.314217;0.0;-4.4660492;0;-0.60287809;  1.0044412E+04;  0.0000000E+00;  6.4983345E-07;  1.0000000E+04;  0.0000000E+00;  9.9947061E+03;-0.69765335;0.0;0.094775282;2680.5557
  4.5965973E-01;  9.9999998E-03; -1.2002151E-01;1751;-0.14147381;0.0;-0.011569249;1001.9362;  4.0000084E-01;1604.0991;3;-40.071678;0.0;-4.078598;0;-0.6035437;  1.0043679E+04;  0.0000000E+00; -6.9955212E-07;  1.0000000E+04;  0.0000000E+00;  9.9950596E+03;-0.69857067;0.0;0.09502697;2500.103
  4.5966464E-01;  9.9999998E-03; -1.0001717E-01;1752;-0.14095776;0.0;-0.0096306792;1001.9198;  4.0000078E-01;1590.47;3;-40.73341;0.0;-3.6170557;0;-0.60452449;  1.0043028E+04;  0.0000000E+00; -9.1718573E-07;  1.0000000E+04;  0.0000000E+00;  9.9953799E+03;-0.69938219;0.0;0.094857708;2338.4768
  4.5966887E-01;  9.9999998E-03; -8.0013253E-02;1753;-0.14048727;0.0;-0.0077029862;1001.9064;  4.0000075E-01;1579.4086;3;-41.291183;0.0;-3.0548568;0;-0.60578668;  1.0042477E+04;  0.0000000E+00; -6.3602209E-07;  1.0000000E+04;  0.0000000E+00;  9.9956650E+03;-0.70012236;0.0;0.09433569;2196.2583
  4.5967224E-01;  9.9999998E-03; -6.0009666E-02;1754;-0.14009109;0.0;-0.0057818415;1001.8964;  4.0000072E-01;1571.1125;3;-41.735542;0.0;-2.3972721;0;-0.60710508;  1.0042041E+04;  0.0000000E+00; -3.4470480E-07;  1.0000000E+04;  0.0000000E+00;  9.9958945E+03;-0.70077145;0.0;0.09366639;2078.8247
  4.5967472E-01;  9.9999998E-03; -4.0006321E-02;1755;-0.13979033;0.0;-0.0038595733;1001.8891;  4.0000072E-01;1565.088;3;-42.058067;0.0;-1.6516632;0;-0.60822999;  1.0041727E+04;  0.0000000E+00; -1.5153900E-07;  1.0000000E+04;  0.0000000E+00;  9.9960703E+03;-0.70128441;0.0;0.093054436;1991.6
  4.5967624E-01;  9.9999998E-03; -2.0003125E-02;1756;-0.13960171;0.0;-0.0019317637;1001.8851;  4.0000072E-01;1561.7301;3;-42.254093;0.0;-0.84283394;0;-0.60897434;  1.0041536E+04;  0.0000000E+00; -4.0734044E-08;  1.0000000E+04;  0.0000000E+00;  9.9961748E+03;-0.70161456;0.0;0.092640199;1938.1543
  4.7959557E-01;  9.9999998E-03; -1.8004289E-01;1779;-0.15726726;0.0;-0.018761804;1002.2029;  4.0000230E-01;1825.0293;3;-39.833328;0.0;-4.8800926;0;-0.64349401;  1.0050853E+04;  0.0000000E+00;  1.2432589E-05;  1.0000000E+04;  0.0000000E+00;  9.9931660E+03;-0.74430567;0.0;0.10081168;3461.9529
  4.7960201E-01;  9.9999998E-03; -1.6003658E-01;1780;-0.15705591;0.0;-0.016674303;1002.1796;  4.0000239E-01;1805.7706;3;-40.865055;0.0;-4.6320004;0;-0.64415723;  1.0049914E+04;  0.0000000E+00;  8.1973194E-06;  1.0000000E+04;  0.0000000E+00;  9.9936357E+03;-0.74595344;0.0;0.10179623;3225.863
  4.7960865E-01;  9.9999998E-03; -1.4003073E-01;1781;-0.15665446;0.0;-0.014562234;1002.1538;  4.0000236E-01;1784.3392;3;-41.856644;0.0;-4.3651052;0;-0.6443581;  1.0049024E+04;  0.0000000E+00;  4.3664463E-06;  1.0000000E+04;  0.0000000E+00;  9.9940010E+03;-0.74740767;0.0;0.1030496;3038.6196
  4.7961497E-01;  9.9999998E-03; -1.2002531E-01;1782;-0.15617926;0.0;-0.012443641;1002.1283;  4.0000233E-01;1763.2041;3;-42.755905;0.0;-4.0107346;0;-0.64479882;  1.0048212E+04;  0.0000000E+00;  1.0156600E-06;  1.0000000E+04;  0.0000000E+00;  9.9943057E+03;-0.74869525;0.0;0.10389644;2882.7529
  4.7962064E-01;  9.9999998E-03; -1.0002036E-01;1783;-0.15570891;0.0;-0.010343599;1002.1064;  4.0000242E-01;1745.1306;3;-43.557095;0.0;-3.5782688;0;-0.64582688;  1.0047498E+04;  0.0000000E+00; -2.9751112E-07;  1.0000000E+04;  0.0000000E+00;  9.9945820E+03;-0.74983865;0.0;0.10401179;2741.0142
  4.7962546E-01;  9.9999998E-03; -8.0015816E-02;1784;-0.15528609;0.0;-0.0082645016;1002.0892;  4.0000218E-01;1730.9088;3;-44.244617;0.0;-3.0415168;0;-0.64733875;  1.0046896E+04;  0.0000000E+00; -4.4270803E-07;  1.0000000E+04;  0.0000000E+00;  9.9948359E+03;-0.75083327;0.0;0.1034945;2611.8887
  4.7962928E-01;  9.9999998E-03; -6.0011607E-02;1785;-0.15493353;0.0;-0.0061993604;1002.0763;  4.0000242E-01;1720.1437;3;-44.80048;0.0;-2.3993373;0;-0.64899492;  1.0046418E+04;  0.0000000E+00; -2.8401547E-07;  1.0000000E+04;  0.0000000E+00;  9.9950547E+03;-0.75165492;0.0;0.10265999;2501.8955
  4.7963208E-01;  9.9999998E-03; -4.0007621E-02;1786;-0.15466635;0.0;-0.004136825;1002.0673;  4.0000230E-01;1712.6377;3;-45.209717;0.0;-1.6615223;0;-0.65043575;  1.0046072E+04;  0.0000000E+00; -1.3562534E-07;  1.0000000E+04;  0.0000000E+00;  9.9952227E+03;-0.75227016;0.0;0.1018344;2418.4238
  4.7963381E-01;  9.9999998E-03; -2.0003779E-02;1787;-0.15449859;0.0;-0.0020708635;1002.062;  4.0000224E-01;1708.2922;3;-45.460125;0.0;-0.84905952;0;-0.65139914;  1.0045860E+04;  0.0000000E+00; -3.8662900E-08;  1.0000000E+04;  0.0000000E+00;  9.9953271E+03;-0.75265306;0.0;0.1012539;2366.6345
  4.9954256E-01;  9.9999998E-03; -1.8005008E-01;1810;-0.17298704;0.0;-0.020193342;1002.412;  4.0000540E-01;1998.2566;3;-42.101112;0.0;-4.5252161;0;-0.68192911;  1.0055599E+04;  0.0000000E+00;  3.3596472E-05;  1.0000000E+04;  0.0000000E+00;  9.9924570E+03;-0.78948265;0.0;0.10755356;3827.2346
  4.9955016E-01;  9.9999998E-03; -1.6004333E-01;1811;-0.17280623;0.0;-0.017995119;1002.3788;  4.0000522E-01;1970.8008;3;-43.271969;0.0;-4.3164043;0;-0.68153125;  1.0054528E+04;  0.0000000E+00;  2.3654937E-05;  1.0000000E+04;  0.0000000E+00;  9.9928662E+03;-0.7911582;0.0;0.10962697;3617.0779
  4.9955788E-01;  9.9999998E-03; -1.4003685E-01;1812;-0.17243941;0.0;-0.015728779;1002.3437;  4.0000531E-01;1941.6659;3;-44.412022;0.0;-4.0963621;0;-0.68087995;  1.0053546E+04;  0.0000000E+00;  1.4902582E-05;  1.0000000E+04;  0.0000000E+00;  9.9931387E+03;-0.79292512;0.0;0.1120452;3473.2595
  4.9956518E-01;  9.9999998E-03; -1.2003067E-01;1813;-0.17200616;0.0;-0.013423365;1002.3107;  4.0000525E-01;1914.4075;3;-45.464439;0.0;-3.7871053;0;-0.68081117;  1.0052668E+04;  0.0000000E+00;  6.6126795E-06;  1.0000000E+04;  0.0000000E+00;  9.9933486E+03;-0.79460597;0.0;0.11379478;3362.741
  4.9957165E-01;  9.9999998E-03; -1.0002487E-01;1814;-0.17158489;0.0;-0.011132714;1002.2824;  4.0000528E-01;1890.9021;3;-46.418827;0.0;-3.395956;0;-0.68171293;  1.0051902E+04;  0.0000000E+00;  2.1242915E-06;  1.0000000E+04;  0.0000000E+00;  9.9935537E+03;-0.79609108;0.0;0.11437818;3257.3823
  4.9957713E-01;  9.9999998E-03; -8.0019452E-02;1815;-0.17121285;0.0;-0.0088754594;1002.2604;  4.0000531E-01;1872.6311;3;-47.25066;0.0;-2.901587;0;-0.683397;  1.0051258E+04;  0.0000000E+00;  4.6286971E-07;  1.0000000E+04;  0.0000000E+00;  9.9937549E+03;-0.79732174;0.0;0.11392473;3152.9648
  4.9958149E-01;  9.9999998E-03; -6.0014356E-02;1816;-0.17090553;0.0;-0.0066480311;1002.2446;  4.0000525E-01;1859.5945;3;-47.933441;0.0;-2.3000846;0;-0.68537277;  1.0050743E+04;  0.0000000E+00;  1.9940268E-08;  1.0000000E+04;  0.0000000E+00;  9.9939453E+03;-0.79827166;0.0;0.11289888;3057.928
  4.9958465E-01;  9.9999998E-03; -4.0009473E-02;1817;-0.17067374;0.0;-0.0044326298;1002.2332;  4.0000540E-01;1850.212;3;-48.439625;0.0;-1.6023875;0;-0.68714219;  1.0050371E+04;  0.0000000E+00; -3.4304037E-08;  1.0000000E+04;  0.0000000E+00;  9.9940977E+03;-0.79894018;0.0;0.11179797;2982.6953
  4.9958658E-01;  9.9999998E-03; -2.0004708E-02;1818;-0.17052847;0.0;-0.0022171286;1002.2272;  4.0000540E-01;1845.1752;3;-48.75214;0.0;-0.82264954;0;-0.68833888;  1.0050142E+04;  0.0000000E+00; -6.5404357E-09;  1.0000000E+04;  0.0000000E+00;  9.9941904E+03;-0.79933482;0.0;0.11099597;2934.9016
  5.1948386E-01;  9.9999998E-03; -1.8005995E-01;1841;-0.18983108;0.0;-0.021861592;1002.6011;  4.0001476E-01;2154.9895;3;-44.355278;0.0;-3.9526918;0;-0.71008217;  1.0059783E+04;  0.0000000E+00;  7.0180758E-05;  1.0000000E+04;  0.0000000E+00;  9.9915830E+03;-0.82489622;0.0;0.11481407;4268.2056
  5.1949275E-01;  9.9999998E-03; -1.6005275E-01;1842;-0.18968782;0.0;-0.019577086;1002.5579;  4.0001482E-01;2119.1387;3;-45.670383;0.0;-3.7972293;0;-0.70827734;  1.0058592E+04;  0.0000000E+00;  5.3603486E-05;  1.0000000E+04;  0.0000000E+00;  9.9919053E+03;-0.82656568;0.0;0.11828831;4099.6826
  5.1950163E-01;  9.9999998E-03; -1.4004545E-01;1843;-0.18936498;0.0;-0.017143643;1002.5126;  4.0001482E-01;2081.6091;3;-46.959831;0.0;-3.6123221;0;-0.70645082;  1.0057538E+04;  0.0000000E+00;  3.7748301E-05;  1.0000000E+04;  0.0000000E+00;  9.9920449E+03;-0.82868212;0.0;0.12223133;4019.5173
  5.1950991E-01;  9.9999998E-03; -1.2003823E-01;1844;-0.18898092;0.0;-0.014618302;1002.4702;  4.0001473E-01;2046.5486;3;-48.181896;0.0;-3.3797691;0;-0.70561868;  1.0056615E+04;  0.0000000E+00;  2.0077880E-05;  1.0000000E+04;  0.0000000E+00;  9.9921182E+03;-0.83081406;0.0;0.12519538;3974.2998
  5.1951730E-01;  9.9999998E-03; -1.0003124E-01;1845;-0.18860909;0.0;-0.01208793;1002.4351;  4.0001476E-01;2017.4138;3;-49.299713;0.0;-3.0457702;0;-0.70623964;  1.0055817E+04;  0.0000000E+00;  8.4286257E-06;  1.0000000E+04;  0.0000000E+00;  9.9922148E+03;-0.83268398;0.0;0.12644434;3921.5181
  5.1952350E-01;  9.9999998E-03; -8.0024585E-02;1846;-0.18828538;0.0;-0.0096024787;1002.4083;  4.0001470E-01;1995.1923;3;-50.286469;0.0;-2.6136167;0;-0.70803273;  1.0055146E+04;  0.0000000E+00;  2.9109974E-06;  1.0000000E+04;  0.0000000E+00;  9.9923496E+03;-0.83416331;0.0;0.12613057;3853.2688
  5.1952839E-01;  9.9999998E-03; -6.0018223E-02;1847;-0.18802102;0.0;-0.0071687135;1002.3887;  4.0001485E-01;1978.9954;3;-51.106236;0.0;-2.0801685;0;-0.71032655;  1.0054610E+04;  0.0000000E+00;  8.6115421E-07;  1.0000000E+04;  0.0000000E+00;  9.9924932E+03;-0.83522862;0.0;0.12490206;3780.573
  5.1953202E-01;  9.9999998E-03; -4.0012065E-02;1848;-0.18782169;0.0;-0.0047693639;1002.3755;  4.0001479E-01;1968.0326;3;-51.722374;0.0;-1.4509189;0;-0.7124452;  1.0054220E+04;  0.0000000E+00;  2.0771591E-07;  1.0000000E+04;  0.0000000E+00;  9.9926172E+03;-0.8359198;0.0;0.12347461;3717.9702
  5.1953417E-01;  9.9999998E-03; -2.0006012E-02;1849;-0.18769595;0.0;-0.002384722;1002.3682;  4.0001476E-01;1962.0081;3;-52.105408;0.0;-0.74587989;0;-0.71389842;  1.0053980E+04;  0.0000000E+00;  3.8432351E-08;  1.0000000E+04;  0.0000000E+00;  9.9927012E+03;-0.83630008;0.0;0.12240166;3676.4546
  5.3941971E-01;  9.9999998E-03; -1.8007365E-01;1872;-0.20769604;0.0;-0.023965081;1002.7526;  4.0003952E-01;2280.5117;3;-46.574059;0.0;-3.1527271;0;-0.71914113;  1.0062734E+04;  0.0000000E+00;  1.1242535E-04;  1.0000000E+04;  0.0000000E+00;  9.9904033E+03;-0.84286207;0.0;0.12372091;4854.5249
  5.3942984E-01;  9.9999998E-03; -1.6006570E-01;1873;-0.20761564;0.0;-0.021572702;1002.701;  4.0003976E-01;2237.7478;3;-48.038021;0.0;-3.0695558;0;-0.71597564;  1.0061463E+04;  0.0000000E+00;  9.1718633E-05;  1.0000000E+04;  0.0000000E+00;  9.9906309E+03;-0.84464407;0.0;0.1286684;4730.0156
  5.3943992E-01;  9.9999998E-03; -1.4005728E-01;1874;-0.2073596;0.0;-0.018928688;1002.6468;  4.0003937E-01;2192.811;3;-49.49371;0.0;-2.9291198;0;-0.71295458;  1.0060380E+04;  0.0000000E+00;  7.3423646E-05;  1.0000000E+04;  0.0000000E+00;  9.9906260E+03;-0.84721494;0.0;0.13426037;4721.6973
  5.3944927E-01;  9.9999998E-03; -1.2004860E-01;1875;-0.20703879;0.0;-0.016133146;1002.5959;  4.0003958E-01;2150.6399;3;-50.886314;0.0;-2.7590635;0;-0.71130252;  1.0059445E+04;  0.0000000E+00;  4.4645021E-05;  1.0000000E+04;  0.0000000E+00;  9.9905381E+03;-0.84989035;0.0;0.13858786;4753.6987
  5.3945756E-01;  9.9999998E-03; -1.0003997E-01;1876;-0.20671859;0.0;-0.013295727;1002.5541;  4.0003970E-01;2115.9744;3;-52.174892;0.0;-2.4874053;0;-0.71159524;  1.0058643E+04;  0.0000000E+00;  2.1412596E-05;  1.0000000E+04;  0.0000000E+00;  9.9905039E+03;-0.85222185;0.0;0.14062662;4765.4492
  5.3946453E-01;  9.9999998E-03; -8.0031596E-02;1877;-0.20643851;0.0;-0.010517357;1002.5224;  4.0003973E-01;2089.7036;3;-53.325459;0.0;-2.1383159;0;-0.71348768;  1.0057967E+04;  0.0000000E+00;  8.4312451E-06;  1.0000000E+04;  0.0000000E+00;  9.9905449E+03;-0.85400409;0.0;0.14051642;4742.8579
  5.3947008E-01;  9.9999998E-03; -6.0023498E-02;1878;-0.20620891;0.0;-0.0078186272;1002.5;  4.0003973E-01;2071.2351;3;-54.289635;0.0;-1.7053362;0;-0.7161181;  1.0057425E+04;  0.0000000E+00;  2.7968563E-06;  1.0000000E+04;  0.0000000E+00;  9.9906318E+03;-0.85521454;0.0;0.13909641;4699.125
  5.3947413E-01;  9.9999998E-03; -4.0015586E-02;1879;-0.20603506;0.0;-0.0051824721;1002.4848;  4.0003976E-01;2058.5938;3;-55.02129;0.0;-1.1932834;0;-0.71861881;  1.0057031E+04;  0.0000000E+00;  8.2713262E-07;  1.0000000E+04;  0.0000000E+00;  9.9907197E+03;-0.85594332;0.0;0.13732451;4653.377
  5.3947657E-01;  9.9999998E-03; -2.0007774E-02;1880;-0.20592511;0.0;-0.0025826355;1002.4763;  4.0003964E-01;2051.4829;3;-55.47868;0.0;-0.61309171;0;-0.72035527;  1.0056787E+04;  0.0000000E+00;  1.6908383E-07;  1.0000000E+04;  0.0000000E+00;  9.9907900E+03;-0.85631323;0.0;0.13595799;4620.498
  5.5935144E-01;  9.9999998E-03; -1.8009226E-01;1903;-0.22620545;0.0;-0.02672397;1002.8811;  4.0010667E-01;2386.8728;3;-48.696163;0.0;-2.1324725;0;-0.69793469;  1.0063608E+04;  0.0000000E+00;  1.2955921E-04;  1.0000000E+04;  0.0000000E+00;  9.9887031E+03;-0.83404756;0.0;0.13611287;5686.6245
  5.5936271E-01;  9.9999998E-03; -1.6008312E-01;1904;-0.22625068;0.0;-0.024136374;1002.827;  4.0010685E-01;2342.1338;3;-50.337818;0.0;-2.0856185;0;-0.6941846;  1.0062342E+04;  0.0000000E+00;  1.0636907E-04;  1.0000000E+04;  0.0000000E+00;  9.9888789E+03;-0.83635384;0.0;0.14216922;5586.2666
  5.5937386E-01;  9.9999998E-03; -1.4007302E-01;1905;-0.22610815;0.0;-0.021194099;1002.768;  4.0010676E-01;2293.2466;3;-51.95332;0.0;-2.0100977;0;-0.69061321;  1.0061282E+04;  0.0000000E+00;  1.0344535E-04;  1.0000000E+04;  0.0000000E+00;  9.9887578E+03;-0.83965743;0.0;0.1490442;5635.1313
  5.5938423E-01;  9.9999998E-03; -1.2006235E-01;1906;-0.2258864;0.0;-0.018038532;1002.7117;  4.0010682E-01;2246.5322;3;-53.524353;0.0;-1.8843251;0;-0.68858874;  1.0060380E+04;  0.0000000E+00;  7.4538315E-05;  1.0000000E+04;  0.0000000E+00;  9.9885254E+03;-0.84308672;0.0;0.15449801;5739.1001
  5.5939341E-01;  9.9999998E-03; -1.0005154E-01;1907;-0.22563277;0.0;-0.014814749;1002.665;  4.0010682E-01;2207.8176;3;-54.99025;0.0;-1.6793158;0;-0.68881178;  1.0059614E+04;  0.0000000E+00;  4.0943949E-05;  1.0000000E+04;  0.0000000E+00;  9.9883516E+03;-0.8460561;0.0;0.15724432;5817.8062
  5.5940115E-01;  9.9999998E-03; -8.0040909E-02;1908;-0.22539549;0.0;-0.01167471;1002.6296;  4.0010682E-01;2178.4854;3;-56.307678;0.0;-1.4360921;0;-0.69094855;  1.0058973E+04;  0.0000000E+00;  1.7913684E-05;  1.0000000E+04;  0.0000000E+00;  9.9882891E+03;-0.84829944;0.0;0.15735088;5846.3799
  5.5940735E-01;  9.9999998E-03; -6.0030494E-02;1909;-0.22519243;0.0;-0.0086518256;1002.6047;  4.0010694E-01;2157.9429;3;-57.423054;0.0;-1.1377168;0;-0.69400311;  1.0058455E+04;  0.0000000E+00;  6.4999972E-06;  1.0000000E+04;  0.0000000E+00;  9.9883057E+03;-0.84979421;0.0;0.15579113;5837.1938
  5.5941182E-01;  9.9999998E-03; -4.0020254E-02;1910;-0.22503842;0.0;-0.0057168179;1002.5883;  4.0010706E-01;2144.314;3;-58.275177;0.0;-0.79200304;0;-0.69693577;  1.0058074E+04;  0.0000000E+00;  2.0337523E-06;  1.0000000E+04;  0.0000000E+00;  9.9883555E+03;-0.85066736;0.0;0.15373157;5812.8257
  5.5941457E-01;  9.9999998E-03; -2.0010106E-02;1911;-0.22493917;0.0;-0.0028446007;1002.5788;  4.0010694E-01;2136.5117;3;-58.812492;0.0;-0.41092435;0;-0.69898325;  1.0057839E+04;  0.0000000E+00;  4.3263387E-07;  1.0000000E+04;  0.0000000E+00;  9.9884063E+03;-0.85109609;0.0;0.15211283;5791.5361
  5.7928175E-01;  9.9999998E-03; -1.8011642E-01;1934;-0.24458292;0.0;-0.030157704;1003.0922;  4.0028471E-01;2561.7715;3;-50.603691;0.0;-0.83330894;0;-0.63291478;  1.0061367E+04;  0.0000000E+00;  7.9423866E-05;  1.0000000E+04;  0.0000000E+00;  9.9862441E+03;-0.78707319;0.0;0.15415843;6876.7832
  5.7929397E-01;  9.9999998E-03; -1.6010520E-01;1935;-0.24485272;0.0;-0.027251281;1003.0455;  4.0028462E-01;2523.1558;3;-52.418983;0.0;-0.84983033;0;-0.63020205;  1.0060215E+04;  0.0000000E+00;  4.4767894E-05;  1.0000000E+04;  0.0000000E+00;  9.9864531E+03;-0.79080439;0.0;0.16060232;6760.5474
  5.7930601E-01;  9.9999998E-03; -1.4009272E-01;1936;-0.2449176;0.0;-0.023899524;1002.9907;  4.0028477E-01;2477.7256;3;-54.247005;0.0;-0.818654;0;-0.62761974;  1.0059272E+04;  0.0000000E+00;  8.7551532E-05;  1.0000000E+04;  0.0000000E+00;  9.9862939E+03;-0.79547906;0.0;0.16785929;6826.9233
  5.7931727E-01;  9.9999998E-03; -1.2007946E-01;1937;-0.24483944;0.0;-0.020305537;1002.9354;  4.0028480E-01;2431.9001;3;-56.011124;0.0;-0.74003428;0;-0.62646163;  1.0058476E+04;  0.0000000E+00;  8.8390771E-05;  1.0000000E+04;  0.0000000E+00;  9.9859736E+03;-0.80015469;0.0;0.17369308;6975.4023
  5.7932729E-01;  9.9999998E-03; -1.0006586E-01;1938;-0.24467947;0.0;-0.016626962;1002.8876;  4.0028486E-01;2392.2969;3;-57.654903;0.0;-0.61475837;0;-0.62742352;  1.0057801E+04;  0.0000000E+00;  5.9320657E-05;  1.0000000E+04;  0.0000000E+00;  9.9856875E+03;-0.80417627;0.0;0.17675273;7109.2813
  5.7933581E-01;  9.9999998E-03; -8.0052353E-02;1939;-0.24448992;0.0;-0.013060894;1002.8511;  4.0028489E-01;2362.0759;3;-59.134808;0.0;-0.50065267;0;-0.63023692;  1.0057238E+04;  0.0000000E+00;  2.9366358E-05;  1.0000000E+04;  0.0000000E+00;  9.9855244E+03;-0.80724496;0.0;0.17700805;7188.1777
  5.7934260E-01;  9.9999998E-03; -6.0039077E-02;1940;-0.24430113;0.0;-0.0096621951;1002.8256;  4.0028498E-01;2340.9409;3;-60.388409;0.0;-0.40663147;0;-0.63390005;  1.0056775E+04;  0.0000000E+00;  1.1631236E-05;  1.0000000E+04;  0.0000000E+00;  9.9854668E+03;-0.80933177;0.0;0.17543171;7217.6172
  5.7934755E-01;  9.9999998E-03; -4.0025994E-02;1941;-0.24415562;0.0;-0.0063702082;1002.8088;  4.0028507E-01;2327.0154;3;-61.379658;0.0;-0.25529668;0;-0.6373136;  1.0056437E+04;  0.0000000E+00;  3.8990524E-06;  1.0000000E+04;  0.0000000E+00;  9.9854668E+03;-0.81058604;0.0;0.17327245;7219.8384
  5.7935065E-01;  9.9999998E-03; -2.0012990E-02;1942;-0.24405749;0.0;-0.0031653964;1002.7988;  4.0028495E-01;2318.7192;3;-61.995152;0.0;-0.13783452;0;-0.63966453;  1.0056222E+04;  0.0000000E+00;  8.6792659E-07;  1.0000000E+04;  0.0000000E+00;  9.9854824E+03;-0.81122166;0.0;0.17155711;7214.2212
  5.9921443E-01;  9.9999998E-03; -1.8014491E-01;1965;-0.26182389;0.0;-0.034068935;1003.709;  4.0073651E-01;3072.749;3;-52.184414;0.0;0.74634737;0;-0.50489223;  1.0054517E+04;  0.0000000E+00; -7.7682744E-05;  1.0000000E+04;  0.0000000E+00;  9.9828398E+03;-0.68431622;0.0;0.179424;8507.5996
  5.9922779E-01;  9.9999998E-03; -1.6013147E-01;1966;-0.26229531;0.0;-0.030845977;1003.6839;  4.0073678E-01;3052.0093;3;-54.202843;0.0;0.696522;0;-0.50551593;  1.0053668E+04;  0.0000000E+00; -1.4463058E-04;  1.0000000E+04;  0.0000000E+00;  9.9831670E+03;-0.69118416;0.0;0.1856682;8334.0488
  5.9924072E-01;  9.9999998E-03; -1.4011639E-01;1967;-0.26259509;0.0;-0.027045187;1003.6444;  4.0073693E-01;3019.3196;3;-56.239826;0.0;0.71426612;0;-0.50605655;  1.0052959E+04;  0.0000000E+00; -2.3337798E-05;  1.0000000E+04;  0.0000000E+00;  9.9830801E+03;-0.69833529;0.0;0.19227874;8367.0576
  5.9925276E-01;  9.9999998E-03; -1.2010004E-01;1968;-0.26269001;0.0;-0.022928419;1003.5991;  4.0073702E-01;2981.6914;3;-58.181877;0.0;0.77554715;0;-0.50761354;  1.0052364E+04;  0.0000000E+00;  5.1029951E-05;  1.0000000E+04;  0.0000000E+00;  9.9827588E+03;-0.7050972;0.0;0.19748364;8517.1895
  5.9926349E-01;  9.9999998E-03; -1.0008308E-01;1969;-0.26264489;0.0;-0.01873081;1003.557;  4.0073714E-01;2946.8286;3;-60.004612;0.0;0.82903302;0;-0.51062632;  1.0051854E+04;  0.0000000E+00;  5.8162110E-05;  1.0000000E+04;  0.0000000E+00;  9.9824209E+03;-0.71086526;0.0;0.20023897;8680.9434
  5.9927261E-01;  9.9999998E-03; -8.0066137E-02;1970;-0.2625002;0.0;-0.014687238;1003.5229;  4.0073743E-01;2918.583;3;-61.619141;0.0;0.73898447;0;-0.51481593;  1.0051419E+04;  0.0000000E+00;  3.5099045E-05;  1.0000000E+04;  0.0000000E+00;  9.9821729E+03;-0.71534312;0.0;0.20052721;8801.7041
  5.9928000E-01;  9.9999998E-03; -6.0049448E-02;1971;-0.26233581;0.0;-0.010815997;1003.4984;  4.0073755E-01;2898.3372;3;-63.036037;0.0;0.67881918;0;-0.51933253;  1.0051060E+04;  0.0000000E+00;  1.5271367E-05;  1.0000000E+04;  0.0000000E+00;  9.9820322E+03;-0.71850348;0.0;0.19917095;8871.3135
  5.9928542E-01;  9.9999998E-03; -4.0032960E-02;1972;-0.26217905;0.0;-0.0071057072;1003.4818;  4.0073746E-01;2884.6094;3;-64.112396;0.0;0.50827473;0;-0.52321643;  1.0050785E+04;  0.0000000E+00;  5.5387686E-06;  1.0000000E+04;  0.0000000E+00;  9.9819717E+03;-0.7204985;0.0;0.19728206;8905.4805
  5.9928882E-01;  9.9999998E-03; -2.0016501E-02;1973;-0.26206499;0.0;-0.0035199153;1003.4719;  4.0073758E-01;2876.4121;3;-64.766777;0.0;0.28061482;0;-0.52577955;  1.0050615E+04;  0.0000000E+00;  1.3005881E-06;  1.0000000E+04;  0.0000000E+00;  9.9819463E+03;-0.72156239;0.0;0.19578286;8920.5527
  6.1915356E-01;  9.9999998E-03; -1.8017709E-01;1996;-0.2769115;0.0;-0.038054641;1005.4041;  4.0177336E-01;4477.1025;3;-53.399628;0.0;2.7150183;0;-0.28564787;  1.0041044E+04;  0.0000000E+00; -3.2226072E-04;  1.0000000E+04;  0.0000000E+00;  9.9784600E+03;-0.4975895;0.0;0.21194163;10586.152
  6.1916822E-01;  9.9999998E-03; -1.6016130E-01;1997;-0.27751732;0.0;-0.034476135;1005.4138;  4.0177396E-01;4485.1021;3;-55.627056;0.0;2.6490178;0;-0.29187083;  1.0040729E+04;  0.0000000E+00; -4.7383708E-04;  1.0000000E+04;  0.0000000E+00;  9.9789424E+03;-0.51005948;0.0;0.21818864;10338.72
  6.1918199E-01;  9.9999998E-03; -1.4014329E-01;1998;-0.27800968;0.0;-0.030273035;1005.4024;  4.0177444E-01;4475.7202;3;-57.821793;0.0;2.6614459;0;-0.29755837;  1.0040418E+04;  0.0000000E+00; -2.6034485E-04;  1.0000000E+04;  0.0000000E+00;  9.9790010E+03;-0.52122647;0.0;0.2236681;10301.58
  6.1919469E-01;  9.9999998E-03; -1.2012349E-01;1999;-0.27827018;0.0;-0.025700791;1005.3771;  4.0177456E-01;4454.7827;3;-59.917534;0.0;2.7019708;0;-0.30358714;  1.0040132E+04;  0.0000000E+00; -7.5658441E-05;  1.0000000E+04;  0.0000000E+00;  9.9787637E+03;-0.53113765;0.0;0.22755049;10414.102
  6.1920589E-01;  9.9999998E-03; -1.0010293E-01;2000;-0.27832681;0.0;-0.021043394;1005.3475;  4.0177497E-01;4430.1914;3;-61.863308;0.0;2.6807163;0;-0.3099606;  1.0039862E+04;  0.0000000E+00;  6.4953870E-06;  1.0000000E+04;  0.0000000E+00;  9.9784287E+03;-0.53949648;0.0;0.22953588;10578.976
  6.1921555E-01;  9.9999998E-03; -8.0082297E-02;2001;-0.27825549;0.0;-0.016478147;1005.3208;  4.0177521E-01;4408.0693;3;-63.580719;0.0;2.5028403;0;-0.31621766;  1.0039622E+04;  0.0000000E+00;  1.6624905E-05;  1.0000000E+04;  0.0000000E+00;  9.9781270E+03;-0.54608363;0.0;0.22986597;10728.441
  6.1922348E-01;  9.9999998E-03; -6.0061723E-02;2002;-0.27810436;0.0;-0.01211671;1005.2999;  4.0177542E-01;4390.7861;3;-65.055626;0.0;2.1653607;0;-0.32172558;  1.0039410E+04;  0.0000000E+00;  8.4252579E-06;  1.0000000E+04;  0.0000000E+00;  9.9779082E+03;-0.55088609;0.0;0.22916052;10837.285
  6.1922932E-01;  9.9999998E-03; -4.0041234E-02;2003;-0.27793431;0.0;-0.0079544988;1005.2847;  4.0177548E-01;4378.145;3;-66.157173;0.0;1.6345403;0;-0.32591075;  1.0039239E+04;  0.0000000E+00;  3.4999973E-06;  1.0000000E+04;  0.0000000E+00;  9.9777725E+03;-0.55405509;0.0;0.22814435;10908.264
  6.1923295E-01;  9.9999998E-03; -2.0020695E-02;2004;-0.27781308;0.0;-0.0039472342;1005.2755;  4.0177560E-01;4370.54;3;-66.863022;0.0;0.89233392;0;-0.32845771;  1.0039131E+04;  0.0000000E+00;  1.0338274E-06;  1.0000000E+04;  0.0000000E+00;  9.9776924E+03;-0.55581731;0.0;0.22735961;10949.363
  6.3910246E-01;  9.9999998E-03; -1.8021283E-01;2027;-0.28910643;0.0;-0.041912474;1008.8016;  4.0368259E-01;7291.7144;3;-54.248444;0.0;5.09481;0;0.054735884;  1.0018975E+04;  0.0000000E+00; -4.5512122E-04;  1.0000000E+04;  0.0000000E+00;  9.9733027E+03;-0.19489767;0.0;0.24963355;13009.897
  6.3911813E-01;  9.9999998E-03; -1.6019365E-01;2028;-0.28984407;0.0;-0.037821952;1008.8544;  4.0368310E-01;7335.4648;3;-56.595852;0.0;4.9998651;0;0.042453915;  1.0019421E+04;  0.0000000E+00; -8.2086201E-04;  1.0000000E+04;  0.0000000E+00;  9.9738701E+03;-0.21493518;0.0;0.2573891;12720.081
  6.3913238E-01;  9.9999998E-03; -1.4017205E-01;2029;-0.29051372;0.0;-0.033179432;1008.8786;  4.0368366E-01;7355.5127;3;-58.922005;0.0;5.0143199;0;0.030957431;  1.0019665E+04;  0.0000000E+00; -5.7290273E-04;  1.0000000E+04;  0.0000000E+00;  9.9740762E+03;-0.23145577;0.0;0.2624132;12616.269
  6.3914531E-01;  9.9999998E-03; -1.2014844E-01;2030;-0.29094687;0.0;-0.028309716;1008.8805;  4.0368420E-01;7357.0923;3;-61.098995;0.0;4.9679999;0;0.019794077;  1.0019807E+04;  0.0000000E+00; -2.9390294E-04;  1.0000000E+04;  0.0000000E+00;  9.9739434E+03;-0.24540332;0.0;0.2651974;12678.999
  6.3915706E-01;  9.9999998E-03; -1.0012377E-01;2031;-0.2911185;0.0;-0.023303786;1008.8701;  4.0368474E-01;7348.4014;3;-63.125118;0.0;4.803535;0;0.0095679462;  1.0019874E+04;  0.0000000E+00; -1.2107103E-04;  1.0000000E+04;  0.0000000E+00;  9.9736387E+03;-0.25701365;0.0;0.26658159;12829.402
  6.3916737E-01;  9.9999998E-03; -8.0098994E-02;2032;-0.29111442;0.0;-0.018313359;1008.8552;  4.0368512E-01;7336.1553;3;-64.925186;0.0;4.4132395;0;0.001113236;  1.0019894E+04;  0.0000000E+00; -5.0458508E-05;  1.0000000E+04;  0.0000000E+00;  9.9733027E+03;-0.26625854;0.0;0.26737177;12997.978
  6.3917571E-01;  9.9999998E-03; -6.0074329E-02;2033;-0.29097521;0.0;-0.01352256;1008.8401;  4.0368539E-01;7323.6128;3;-66.383995;0.0;3.7196863;0;-0.0051010847;  1.0019878E+04;  0.0000000E+00; -2.3614810E-05;  1.0000000E+04;  0.0000000E+00;  9.9730098E+03;-0.27316502;0.0;0.26806393;13145.324
  6.3918191E-01;  9.9999998E-03; -4.0049747E-02;2034;-0.29080331;0.0;-0.0089199059;1008.828;  4.0368563E-01;7313.6382;3;-67.537735;0.0;2.6099777;0;-0.0090740323;  1.0019850E+04;  0.0000000E+00; -8.7650114E-06;  1.0000000E+04;  0.0000000E+00;  9.9727871E+03;-0.27787077;0.0;0.26879674;13258.055
  6.3918579E-01;  9.9999998E-03; -2.0024970E-02;2035;-0.2906478;0.0;-0.004433387;1008.8197;  4.0368572E-01;7306.7251;3;-68.258759;0.0;1.2819752;0;-0.011153638;  1.0019825E+04;  0.0000000E+00; -1.5421091E-06;  1.0000000E+04;  0.0000000E+00;  9.9726426E+03;-0.28057361;0.0;0.26941997;13330.763
  6.5906578E-01;  9.9999998E-03; -1.8025556E-01;2058;-0.29766491;0.0;-0.046384729;1012.9742;  4.0610096E-01;10748.379;3;-54.71077;0.0;7.6983099;0;0.53032249;  9.9875967E+03;  0.0000000E+00; -1.3488016E-04;  1.0000000E+04;  0.0000000E+00;  9.9678047E+03;0.241979;0.0;0.28834349;15564.198
  6.5908158E-01;  9.9999998E-03; -1.6023108E-01;2059;-0.29864877;0.0;-0.041239016;1013.0657;  4.0610158E-01;10824.225;3;-57.188637;0.0;7.7976103;0;0.5153656;  9.9888994E+03;  0.0000000E+00; -8.9973613E-04;  1.0000000E+04;  0.0000000E+00;  9.9682783E+03;0.21486916;0.0;0.30049646;15319.515
  6.5909582E-01;  9.9999998E-03; -1.4020509E-01;2060;-0.29951912;0.0;-0.035994612;1013.1243;  4.0610200E-01;10872.814;3;-59.58049;0.0;7.8103991;0;0.50032568;  9.9898105E+03;  0.0000000E+00; -7.8168482E-04;  1.0000000E+04;  0.0000000E+00;  9.9684971E+03;0.19316286;0.0;0.30716279;15208.195
  6.5910870E-01;  9.9999998E-03; -1.2017660E-01;2061;-0.30011645;0.0;-0.030580534;1013.1539;  4.0610224E-01;10897.307;3;-61.810806;0.0;7.7275934;0;0.48559874;  9.9904648E+03;  0.0000000E+00; -5.1935128E-04;  1.0000000E+04;  0.0000000E+00;  9.9684092E+03;0.17528883;0.0;0.31030992;15252.602
  6.5912038E-01;  9.9999998E-03; -1.0014711E-01;2062;-0.30048025;0.0;-0.025114361;1013.1642;  4.0610269E-01;10905.898;3;-63.878685;0.0;7.4041629;0;0.47270569;  9.9909453E+03;  0.0000000E+00; -3.0287585E-04;  1.0000000E+04;  0.0000000E+00;  9.9681143E+03;0.16050977;0.0;0.31219593;15400.436
  6.5913075E-01;  9.9999998E-03; -8.0117829E-02;2063;-0.30055907;0.0;-0.019743545;1013.1634;  4.0610313E-01;10905.207;3;-65.679947;0.0;6.7541385;0;0.46313655;  9.9912920E+03;  0.0000000E+00; -1.7084855E-04;  1.0000000E+04;  0.0000000E+00;  9.9677324E+03;0.14864428;0.0;0.31449226;15591.959
  6.5913934E-01;  9.9999998E-03; -6.0088888E-02;2064;-0.30047521;0.0;-0.014605605;1013.1569;  4.0610337E-01;10899.775;3;-67.118469;0.0;5.7357302;0;0.45734799;  9.9915303E+03;  0.0000000E+00; -8.9498353E-05;  1.0000000E+04;  0.0000000E+00;  9.9673486E+03;0.1396192;0.0;0.31772879;15782.11
  6.5914571E-01;  9.9999998E-03; -4.0059716E-02;2065;-0.30032155;0.0;-0.0096300412;1013.1484;  4.0610364E-01;10892.764;3;-68.209976;0.0;4.1177907;0;0.45468429;  9.9916807E+03;  0.0000000E+00; -3.6135720E-05;  1.0000000E+04;  0.0000000E+00;  9.9670225E+03;0.13332927;0.0;0.32135502;15943.208
  6.5914959E-01;  9.9999998E-03; -2.0029996E-02;2066;-0.30014834;0.0;-0.0047427192;1013.1412;  4.0610361E-01;10886.838;3;-68.836876;0.0;2.1493275;0;0.45388412;  9.9917617E+03;  0.0000000E+00; -7.8535040E-06;  1.0000000E+04;  0.0000000E+00;  9.9667959E+03;0.12963448;0.0;0.32424963;16053.724
  6.7905265E-01;  9.9999998E-03; -1.8031666E-01;2089;-0.30044833;0.0;-0.055180512;1015.5917;  4.0804884E-01;12916.628;3;-54.582985;0.0;10.26956;0;1.1194625;  9.9487559E+03;  0.0000000E+00;  7.2417554E-04;  1.0000000E+04;  0.0000000E+00;  9.9625508E+03;0.79653263;0.0;0.32292992;17967.541
  6.7906779E-01;  9.9999998E-03; -1.6028440E-01;2090;-0.30183852;0.0;-0.048249114;1015.7028;  4.0804872E-01;13008.769;3;-57.26321;0.0;10.729371;0;1.1096439;  9.9508135E+03;  0.0000000E+00; -4.9911800E-04;  1.0000000E+04;  0.0000000E+00;  9.9626748E+03;0.76665527;0.0;0.34298864;17892.301
  6.7908114E-01;  9.9999998E-03; -1.4025232E-01;2091;-0.30316377;0.0;-0.041886862;1015.7828;  4.0804866E-01;13075.034;3;-59.896542;0.0;11.159533;0;1.0970119;  9.9523740E+03;  0.0000000E+00; -6.8952126E-04;  1.0000000E+04;  0.0000000E+00;  9.9626855E+03;0.74259079;0.0;0.35442111;17881.48
  6.7909312E-01;  9.9999998E-03; -1.2021800E-01;2092;-0.30422515;0.0;-0.035666283;1015.8332;  4.0804863E-01;13116.71;3;-62.288506;0.0;11.305048;0;1.0831485;  9.9535713E+03;  0.0000000E+00; -6.0599745E-04;  1.0000000E+04;  0.0000000E+00;  9.9624854E+03;0.72275376;0.0;0.36039472;17981.707
  6.7910409E-01;  9.9999998E-03; -1.0018267E-01;2093;-0.30492976;0.0;-0.029602366;1015.8618;  4.0804869E-01;13140.412;3;-64.429482;0.0;10.976787;0;1.0709727;  9.9544980E+03;  0.0000000E+00; -4.5035570E-04;  1.0000000E+04;  0.0000000E+00;  9.9621064E+03;0.7062605;0.0;0.36471212;18169.676
  6.7911386E-01;  9.9999998E-03; -8.0147602E-02;2094;-0.30528599;0.0;-0.023732631;1015.8738;  4.0804872E-01;13150.386;3;-66.278778;0.0;10.212848;0;1.0629662;  9.9552090E+03;  0.0000000E+00; -2.9919264E-04;  1.0000000E+04;  0.0000000E+00;  9.9616328E+03;0.69285029;0.0;0.37011591;18405.85
  6.7912191E-01;  9.9999998E-03; -6.0112491E-02;2095;-0.30546352;0.0;-0.017969498;1015.8754;  4.0804881E-01;13151.67;3;-67.697121;0.0;8.8367558;0;1.0598125;  9.9557344E+03;  0.0000000E+00; -1.6931328E-04;  1.0000000E+04;  0.0000000E+00;  9.9611348E+03;0.68247867;0.0;0.37733388;18650.793
  6.7912787E-01;  9.9999998E-03; -4.0076520E-02;2096;-0.30555415;0.0;-0.012156957;1015.8706;  4.0804878E-01;13147.72;3;-68.677971;0.0;6.5581393;0;1.0602357;  9.9560957E+03;  0.0000000E+00; -7.1630289E-05;  1.0000000E+04;  0.0000000E+00;  9.9606836E+03;0.67512685;0.0;0.38510895;18868.852
  6.7913151E-01;  9.9999998E-03; -2.0038893E-02;2097;-0.3056204;0.0;-0.0061798343;1015.8647;  4.0804875E-01;13142.88;3;-69.254395;0.0;3.555927;0;1.0619195;  9.9562988E+03;  0.0000000E+00; -1.6457792E-05;  1.0000000E+04;  0.0000000E+00;  9.9603643E+03;0.67074674;0.0;0.39117268;19023.43
  6.9908202E-01;  9.9999998E-03; -1.8040514E-01;2120;-0.29245993;0.0;-0.073931806;1015.9376;  4.0912393E-01;13202.959;3;-53.088123;0.0;11.639856;0;1.7530202;  9.9075244E+03;  0.0000000E+00;  1.5840806E-03;  1.0000000E+04;  0.0000000E+00;  9.9581289E+03;1.4037519;0.0;0.34926829;19958.412
  6.9909441E-01;  9.9999998E-03; -1.6036268E-01;2121;-0.29512107;0.0;-0.064116985;1016.0419;  4.0912318E-01;13289.37;3;-56.390255;0.0;12.988235;0;1.7584391;  9.9100479E+03;  0.0000000E+00;  1.6286391E-04;  1.0000000E+04;  0.0000000E+00;  9.9576602E+03;1.378762;0.0;0.37967703;20165.115
  6.9910425E-01;  9.9999998E-03; -1.4032003E-01;2122;-0.29783377;0.0;-0.055292696;1016.1226;  4.0912279E-01;13356.228;3;-59.496807;0.0;13.967067;0;1.7566009;  9.9120986E+03;  0.0000000E+00; -3.2277853E-04;  1.0000000E+04;  0.0000000E+00;  9.9572119E+03;1.3577619;0.0;0.398839;20375.559
  6.9911236E-01;  9.9999998E-03; -1.2027534E-01;2123;-0.30025575;0.0;-0.047300197;1016.181;  4.0912244E-01;13404.617;3;-62.133198;0.0;14.334859;0;1.7500898;  9.9137695E+03;  0.0000000E+00; -4.7828659E-04;  1.0000000E+04;  0.0000000E+00;  9.9567021E+03;1.3398479;0.0;0.41024187;20625.459
  6.9912064E-01;  9.9999998E-03; -1.0023060E-01;2124;-0.30188948;0.0;-0.040032893;1016.2197;  4.0912196E-01;13436.613;3;-64.320396;0.0;13.937672;0;1.7436485;  9.9151250E+03;  0.0000000E+00; -4.5887008E-04;  1.0000000E+04;  0.0000000E+00;  9.9561143E+03;1.3245261;0.0;0.41912246;20915.271
  6.9912869E-01;  9.9999998E-03; -8.0186665E-02;2125;-0.30304939;0.0;-0.033065084;1016.2417;  4.0912190E-01;13454.883;3;-66.194687;0.0;12.858425;0;1.7410432;  9.9162100E+03;  0.0000000E+00; -3.4915147E-04;  1.0000000E+04;  0.0000000E+00;  9.9554707E+03;1.3117279;0.0;0.4293153;21231.297
  6.9913554E-01;  9.9999998E-03; -6.0142476E-02;2126;-0.30395904;0.0;-0.025731798;1016.25;  4.0912163E-01;13461.795;3;-67.761803;0.0;10.896857;0;1.7434142;  9.9170371E+03;  0.0000000E+00; -2.1018722E-04;  1.0000000E+04;  0.0000000E+00;  9.9548125E+03;1.3015796;0.0;0.44183454;21549.775
  6.9914067E-01;  9.9999998E-03; -4.0096924E-02;2127;-0.30467695;0.0;-0.017743416;1016.2491;  4.0912154E-01;13461.005;3;-68.963104;0.0;7.9761438;0;1.7490177;  9.9176191E+03;  0.0000000E+00; -9.1991948E-05;  1.0000000E+04;  0.0000000E+00;  9.9542207E+03;1.2942448;0.0;0.45477289;21835.092
  6.9914365E-01;  9.9999998E-03; -2.0049240E-02;2128;-0.30515069;0.0;-0.0090397988;1016.2449;  4.0912130E-01;13457.549;3;-69.66272;0.0;4.2511692;0;1.7544839;  9.9179688E+03;  0.0000000E+00; -2.1712203E-05;  1.0000000E+04;  0.0000000E+00;  9.9537900E+03;1.2898142;0.0;0.46466967;22039.27
  7.1921158E-01;  9.9999998E-03; -1.8051231E-01;2151;-0.25882632;0.0;-0.10720184;1015.1005;  4.0959844E-01;12509.163;3;-46.205975;0.0;9.1066904;0;2.3222394;  9.8714482E+03;  0.0000000E+00;  1.7235106E-03;  1.0000000E+04;  0.0000000E+00;  9.9548887E+03;1.9557559;0.0;0.36648339;21389.252
  7.1922266E-01;  9.9999998E-03; -1.6046308E-01;2152;-0.26239875;0.0;-0.096136153;1015.1739;  4.0959749E-01;12569.995;3;-50.048653;0.0;10.668859;0;2.3506894;  9.8740430E+03;  0.0000000E+00;  5.7632639E-04;  1.0000000E+04;  0.0000000E+00;  9.9537480E+03;1.9441251;0.0;0.40656447;21920.686
  7.1923274E-01;  9.9999998E-03; -1.4040892E-01;2153;-0.26623541;0.0;-0.084689356;1015.2366;  4.0959689E-01;12621.938;3;-53.985264;0.0;11.979612;0;2.3671243;  9.8763545E+03;  0.0000000E+00;  5.1350216E-05;  1.0000000E+04;  0.0000000E+00;  9.9526738E+03;1.93257;0.0;0.43455431;22430.121
  7.1924233E-01;  9.9999998E-03; -1.2034938E-01;2154;-0.26981837;0.0;-0.073021628;1015.2892;  4.0959626E-01;12665.488;3;-57.891228;0.0;12.430282;0;2.3742449;  9.8783691E+03;  0.0000000E+00; -2.1394652E-04;  1.0000000E+04;  0.0000000E+00;  9.9516943E+03;1.9213945;0.0;0.4528504;22905.082
  7.1925229E-01;  9.9999998E-03; -1.0028988E-01;2155;-0.27227128;0.0;-0.061544228;1015.3297;  4.0959564E-01;12699.064;3;-61.449329;0.0;12.126744;0;2.3785365;  9.8800889E+03;  0.0000000E+00; -2.9993706E-04;  1.0000000E+04;  0.0000000E+00;  9.9507783E+03;1.9108301;0.0;0.46770638;23356.012
  7.1926188E-01;  9.9999998E-03; -8.0232501E-02;2156;-0.27363753;0.0;-0.050284613;1015.3569;  4.0959555E-01;12721.58;3;-64.49044;0.0;11.128963;0;2.3850689;  9.8815244E+03;  0.0000000E+00; -2.6186413E-04;  1.0000000E+04;  0.0000000E+00;  9.9498828E+03;1.9012665;0.0;0.4838025;23791.703
  7.1927035E-01;  9.9999998E-03; -6.0176447E-02;2157;-0.27434474;0.0;-0.038875509;1015.3701;  4.0959498E-01;12732.539;3;-67.033539;0.0;9.3474741;0;2.3955762;  9.8826523E+03;  0.0000000E+00; -1.6621924E-04;  1.0000000E+04;  0.0000000E+00;  9.9490186E+03;1.8931946;0.0;0.50238168;24207.773
  7.1927708E-01;  9.9999998E-03; -4.0119652E-02;2158;-0.2745795;0.0;-0.026736932;1015.3721;  4.0959463E-01;12734.218;3;-68.936386;0.0;6.7845106;0;2.4080477;  9.8834688E+03;  0.0000000E+00; -7.3892741E-05;  1.0000000E+04;  0.0000000E+00;  9.9482500E+03;1.8870898;0.0;0.52095777;24574.063
  7.1928138E-01;  9.9999998E-03; -2.0060726E-02;2159;-0.27461037;0.0;-0.013682744;1015.3692;  4.0959448E-01;12731.749;3;-70.059441;0.0;3.5952809;0;2.4182472;  9.8839619E+03;  0.0000000E+00; -1.7439317E-05;  1.0000000E+04;  0.0000000E+00;  9.9477002E+03;1.8832958;0.0;0.53495157;24834.83
  7.3948920E-01;  9.9999998E-03; -1.8053648E-01;2182;-0.16815859;0.0;-0.10845314;1014.25;  4.0978652E-01;11804.229;3;-28.834303;0.0;12.522227;0;2.7106807;  9.8477881E+03;  0.0000000E+00;  1.1369891E-03;  1.0000000E+04;  0.0000000E+00;  9.9529463E+03;2.335978;0.0;0.37470266;22228.842
  7.3949492E-01;  9.9999998E-03; -1.6048826E-01;2183;-0.17183718;0.0;-0.097995296;1014.2757;  4.0978587E-01;11825.46;3;-31.87558;0.0;14.285089;0;2.765507;  9.8501133E+03;  0.0000000E+00;  5.3948379E-04;  1.0000000E+04;  0.0000000E+00;  9.9511504E+03;2.3426635;0.0;0.4228434;23077.129
  7.3950136E-01;  9.9999998E-03; -1.4043275E-01;2184;-0.17526427;0.0;-0.086630933;1014.3091;  4.0978494E-01;11853.208;3;-35.137264;0.0;15.470464;0;2.8020518;  9.8524502E+03;  0.0000000E+00;  2.2670030E-04;  1.0000000E+04;  0.0000000E+00;  9.9494766E+03;2.3443477;0.0;0.45770407;23878.102
  7.3950797E-01;  9.9999998E-03; -1.2037080E-01;2185;-0.1782465;0.0;-0.074737303;1014.3456;  4.0978432E-01;11883.327;3;-38.386269;0.0;15.731347;0;2.8248739;  9.8546592E+03;  0.0000000E+00;  2.8636114E-05;  1.0000000E+04;  0.0000000E+00;  9.9479980E+03;2.3428059;0.0;0.48206794;24597.645
  7.3951453E-01;  9.9999998E-03; -1.0030904E-01;2186;-0.1806197;0.0;-0.063343935;1014.3798;  4.0978372E-01;11911.767;3;-41.433006;0.0;15.099936;0;2.8419878;  9.8566484E+03;  0.0000000E+00; -7.3307507E-05;  1.0000000E+04;  0.0000000E+00;  9.9466777E+03;2.3392739;0.0;0.50271386;25240.092
  7.3952079E-01;  9.9999998E-03; -8.0249175E-02;2187;-0.18233818;0.0;-0.052248187;1014.4053;  4.0978324E-01;11932.898;3;-44.13665;0.0;13.630159;0;2.8594341;  9.8583525E+03;  0.0000000E+00; -9.1667738E-05;  1.0000000E+04;  0.0000000E+00;  9.9454736E+03;2.3347232;0.0;0.52471083;25824.34
  7.3952639E-01;  9.9999998E-03; -6.0189988E-02;2188;-0.18345512;0.0;-0.040736586;1014.4186;  4.0978271E-01;11943.859;3;-46.383591;0.0;11.323022;0;2.8792901;  9.8597393E+03;  0.0000000E+00; -6.3077554E-05;  1.0000000E+04;  0.0000000E+00;  9.9443584E+03;2.3300436;0.0;0.54924649;26359.527
  7.3953092E-01;  9.9999998E-03; -4.0129293E-02;2189;-0.18409333;0.0;-0.028208656;1014.4208;  4.0978241E-01;11945.636;3;-48.074875;0.0;8.1765375;0;2.899266;  9.8607539E+03;  0.0000000E+00; -2.7300244E-05;  1.0000000E+04;  0.0000000E+00;  9.9433906E+03;2.3260436;0.0;0.5732224;26820.078
  7.3953384E-01;  9.9999998E-03; -2.0065755E-02;2190;-0.18439898;0.0;-0.014498625;1014.4175;  4.0978232E-01;11942.97;3;-49.128166;0.0;4.3033381;0;2.9144332;  9.8613760E+03;  0.0000000E+00; -5.9826439E-06;  1.0000000E+04;  0.0000000E+00;  9.9427002E+03;2.3233633;0.0;0.59106988;27144.113
  7.5971258E-01;  9.9999998E-03; -1.8053962E-01;2213;-0.096598856;0.0;-0.1024067;1013.9175;  4.0985727E-01;11528.146;3;-17.162031;0.0;17.117867;0;2.8751674;  9.8389941E+03;  0.0000000E+00;  4.2893158E-04;  1.0000000E+04;  0.0000000E+00;  9.9519395E+03;2.4952278;0.0;0.37993959;22665.588
  7.5971311E-01;  9.9999998E-03; -1.6049489E-01;2214;-0.1000887;0.0;-0.093415663;1013.8994;  4.0985650E-01;11513.138;3;-19.272102;0.0;18.647722;0;2.950094;  9.8408604E+03;  0.0000000E+00;  2.7607608E-04;  1.0000000E+04;  0.0000000E+00;  9.9497471E+03;2.5190308;0.0;0.43106312;23705.428
  7.5971466E-01;  9.9999998E-03; -1.4044154E-01;2215;-0.1034589;0.0;-0.083394036;1013.9024;  4.0985587E-01;11515.705;3;-21.637976;0.0;19.495838;0;3.0021906;  9.8430293E+03;  0.0000000E+00;  1.9372080E-04;  1.0000000E+04;  0.0000000E+00;  9.9476465E+03;2.5333693;0.0;0.46882132;24714.875
  7.5971675E-01;  9.9999998E-03; -1.2038067E-01;2216;-0.10654103;0.0;-0.072716877;1013.9185;  4.0985519E-01;11529.035;3;-24.089621;0.0;19.33032;0;3.0379748;  9.8452520E+03;  0.0000000E+00;  1.1834093E-04;  1.0000000E+04;  0.0000000E+00;  9.9457461E+03;2.5413849;0.0;0.49658993;25637.896
  7.5971913E-01;  9.9999998E-03; -1.0031907E-01;2217;-0.1091748;0.0;-0.062319301;1013.9392;  4.0985453E-01;11546.217;3;-26.469353;0.0;18.224005;0;3.0665855;  9.8473477E+03;  0.0000000E+00;  5.9312271E-05;  1.0000000E+04;  0.0000000E+00;  9.9440635E+03;2.5453124;0.0;0.52127326;26458.994
  7.5972170E-01;  9.9999998E-03; -8.0258600E-02;2218;-0.11127018;0.0;-0.051944811;1013.9557;  4.0985402E-01;11559.844;3;-28.642775;0.0;16.243628;0;3.094456;  9.8491914E+03;  0.0000000E+00;  2.6891612E-05;  1.0000000E+04;  0.0000000E+00;  9.9425498E+03;2.5465748;0.0;0.54788107;27192.682
  7.5972426E-01;  9.9999998E-03; -6.0198043E-02;2219;-0.11280357;0.0;-0.040863883;1013.9628;  4.0985349E-01;11565.67;3;-30.489197;0.0;13.373814;0;3.1234913;  9.8507070E+03;  0.0000000E+00;  1.4177032E-05;  1.0000000E+04;  0.0000000E+00;  9.9411738E+03;2.546243;0.0;0.57724845;27851.305
  7.5972652E-01;  9.9999998E-03; -4.0135220E-02;2220;-0.11381388;0.0;-0.02848546;1013.9601;  4.0985325E-01;11563.497;3;-31.90032;0.0;9.5989332;0;3.1508222;  9.8518340E+03;  0.0000000E+00;  8.3222167E-06;  1.0000000E+04;  0.0000000E+00;  9.9400000E+03;2.5452096;0.0;0.60561264;28408.936
  7.5972801E-01;  9.9999998E-03; -2.0068904E-02;2221;-0.11437487;0.0;-0.014699377;1013.9536;  4.0985301E-01;11558.066;3;-32.787182;0.0;5.0342398;0;3.1708078;  9.8525303E+03;  0.0000000E+00;  2.8139179E-06;  1.0000000E+04;  0.0000000E+00;  9.9391787E+03;2.544239;0.0;0.62656873;28797.043
  7.7987736E-01;  9.9999998E-03; -1.8053609E-01;2244;-0.046026871;0.0;-0.096903034;1014.0829;  4.0988249E-01;11664.42;3;-10.531816;0.0;20.166536;0;2.875267;  9.8414668E+03;  0.0000000E+00;  4.1831863E-05;  1.0000000E+04;  0.0000000E+00;  9.9514814E+03;2.4892795;0.0;0.38598764;22868.967
  7.7987540E-01;  9.9999998E-03; -1.6049421E-01;2245;-0.048366472;0.0;-0.088857986;1014.038;  4.0988180E-01;11627.196;3;-11.536165;0.0;21.594633;0;2.959012;  9.8429033E+03;  0.0000000E+00;  6.5421315E-05;  1.0000000E+04;  0.0000000E+00;  9.9491846E+03;2.5234687;0.0;0.43554321;23956.689
  7.7987403E-01;  9.9999998E-03; -1.4044291E-01;2246;-0.050820429;0.0;-0.07975433;1014.0197;  4.0988114E-01;11612.089;3;-12.799141;0.0;22.299431;0;3.018055;  9.8448486E+03;  0.0000000E+00;  8.2732171E-05;  1.0000000E+04;  0.0000000E+00;  9.9468926E+03;2.5457158;0.0;0.47233915;25060.99
  7.7987313E-01;  9.9999998E-03; -1.2038336E-01;2247;-0.05324832;0.0;-0.069934733;1014.0184;  4.0988040E-01;11611.003;3;-14.225116;0.0;21.936237;0;3.0605249;  9.8469766E+03;  0.0000000E+00;  7.8585392E-05;  1.0000000E+04;  0.0000000E+00;  9.9447480E+03;2.5601685;0.0;0.5003565;26107.414
  7.7987260E-01;  9.9999998E-03; -1.0032251E-01;2248;-0.055489209;0.0;-0.060295764;1014.0242;  4.0987992E-01;11615.742;3;-15.703218;0.0;20.58078;0;3.0961845;  9.8490439E+03;  0.0000000E+00;  6.2572195E-05;  1.0000000E+04;  0.0000000E+00;  9.9428047E+03;2.5696893;0.0;0.52649516;27055.83
  7.7987242E-01;  9.9999998E-03; -8.0262288E-02;2249;-0.057411849;0.0;-0.05056531;1014.0281;  4.0987933E-01;11619.001;3;-17.122559;0.0;18.288902;0;3.1313751;  9.8508877E+03;  0.0000000E+00;  4.4638182E-05;  1.0000000E+04;  0.0000000E+00;  9.9410439E+03;2.5758598;0.0;0.55551529;27907.602
  7.7987266E-01;  9.9999998E-03; -6.0201492E-02;2250;-0.058926087;0.0;-0.040004119;1014.0245;  4.0987885E-01;11616.039;3;-18.372889;0.0;15.024707;0;3.1673841;  9.8524111E+03;  0.0000000E+00;  2.8503107E-05;  1.0000000E+04;  0.0000000E+00;  9.9394561E+03;2.5796053;0.0;0.58777875;28669.715
  7.7987301E-01;  9.9999998E-03; -4.0137909E-02;2251;-0.059995949;0.0;-0.028011851;1014.0138;  4.0987867E-01;11607.152;3;-19.352348;0.0;10.765778;0;3.2005293;  9.8535488E+03;  0.0000000E+00;  1.4620541E-05;  1.0000000E+04;  0.0000000E+00;  9.9381074E+03;2.5816259;0.0;0.61890346;29310.57
  7.7987337E-01;  9.9999998E-03; -2.0070383E-02;2252;-0.060625512;0.0;-0.014496058;1014.0015;  4.0987831E-01;11596.982;3;-19.977451;0.0;5.6400814;0;3.2243772;  9.8542559E+03;  0.0000000E+00;  4.1264207E-06;  1.0000000E+04;  0.0000000E+00;  9.9371699E+03;2.5825338;0.0;0.64184338;29753.85
  8.0001217E-01;  9.9999998E-03; -1.8053009E-01;2275;-0.0044188951;0.0;-0.093554012;1014.511;  4.0988958E-01;12017.896;3;-5.0537267;0.0;21.258707;0;2.8003685;  9.8495635E+03;  0.0000000E+00; -2.4155908E-05;  1.0000000E+04;  0.0000000E+00;  9.9513027E+03;2.4064474;0.0;0.39392117;22941.949
  8.0000883E-01;  9.9999998E-03; -1.6048960E-01;2276;-0.0054542739;0.0;-0.085719138;1014.4615;  4.0988883E-01;11976.923;3;-5.0892868;0.0;22.760765;0;2.8810554;  9.8507871E+03;  0.0000000E+00; -4.4634462E-06;  1.0000000E+04;  0.0000000E+00;  9.9491377E+03;2.4414556;0.0;0.43959975;23969.365
  8.0000561E-01;  9.9999998E-03; -1.4043956E-01;2277;-0.0067617553;0.0;-0.076903179;1014.4376;  4.0988818E-01;11957.078;3;-5.3197932;0.0;23.532349;0;2.9373038;  9.8526094E+03;  0.0000000E+00;  1.0276999E-05;  1.0000000E+04;  0.0000000E+00;  9.9468701E+03;2.4642761;0.0;0.47302765;25065.615
  8.0000269E-01;  9.9999998E-03; -1.2038103E-01;2278;-0.0082375426;0.0;-0.067400746;1014.4283;  4.0988740E-01;11949.378;3;-5.7242565;0.0;23.217487;0;2.9785247;  9.8546465E+03;  0.0000000E+00;  1.6784419E-05;  1.0000000E+04;  0.0000000E+00;  9.9446563E+03;2.4797275;0.0;0.49879727;26146.365
  8.0000013E-01;  9.9999998E-03; -1.0032102E-01;2279;-0.0097472146;0.0;-0.058118004;1014.4244;  4.0988687E-01;11946.219;3;-6.2528443;0.0;21.863651;0;3.0148163;  9.8566377E+03;  0.0000000E+00;  1.7060749E-05;  1.0000000E+04;  0.0000000E+00;  9.9425996E+03;2.4909322;0.0;0.52388412;27151.137
  7.9999804E-01;  9.9999998E-03; -8.0261514E-02;2280;-0.011153541;0.0;-0.048793573;1014.4181;  4.0988645E-01;11940.986;3;-6.8378611;0.0;19.49568;0;3.0521996;  9.8584121E+03;  0.0000000E+00;  1.3906289E-05;  1.0000000E+04;  0.0000000E+00;  9.9407100E+03;2.4993198;0.0;0.55287987;28067.568
  7.9999650E-01;  9.9999998E-03; -6.0201243E-02;2281;-0.012337891;0.0;-0.038674705;1014.4043;  4.0988603E-01;11929.534;3;-7.4012256;0.0;16.056646;0;3.0912035;  9.8598682E+03;  0.0000000E+00;  9.3473291E-06;  1.0000000E+04;  0.0000000E+00;  9.9389873E+03;2.5054154;0.0;0.58578801;28893.486
  7.9999554E-01;  9.9999998E-03; -4.0137947E-02;2282;-0.013223005;0.0;-0.027133545;1014.3848;  4.0988567E-01;11913.441;3;-7.8682432;0.0;11.523087;0;3.1272597;  9.8609561E+03;  0.0000000E+00;  4.7758599E-06;  1.0000000E+04;  0.0000000E+00;  9.9375254E+03;2.5094812;0.0;0.6177786;29588.787
  7.9999501E-01;  9.9999998E-03; -2.0070475E-02;2283;-0.013765899;0.0;-0.014061172;1014.3671;  4.0988538E-01;11898.731;3;-8.1764517;0.0;6.0415154;0;3.153183;  9.8616299E+03;  0.0000000E+00;  1.3174463E-06;  1.0000000E+04;  0.0000000E+00;  9.9365117E+03;2.5117662;0.0;0.64141679;30069.158
  8.2014287E-01;  9.9999998E-03; -1.8052310E-01;2306;0.038105294;0.0;-0.092537157;1014.9752;  4.0987596E-01;12400.823;3;1.9434646;0.0;20.580599;0;2.7108881;  9.8591416E+03;  0.0000000E+00;  4.2087169E-05;  1.0000000E+04;  0.0000000E+00;  9.9513350E+03;2.3083296;0.0;0.40255857;22906.805
  8.2013786E-01;  9.9999998E-03; -1.6048273E-01;2307;0.037845489;0.0;-0.084331855;1014.942;  4.0987512E-01;12373.38;3;2.5288184;0.0;22.253752;0;2.7794511;  9.8604473E+03;  0.0000000E+00;  9.2870341E-06;  1.0000000E+04;  0.0000000E+00;  9.9494072E+03;2.3351727;0.0;0.44427851;23820.096
  8.2013291E-01;  9.9999998E-03; -1.4043312E-01;2308;0.037352227;0.0;-0.075270697;1014.9289;  4.0987450E-01;12362.521;3;3.0585127;0.0;23.231947;0;2.8249373;  9.8623145E+03;  0.0000000E+00; -2.1547567E-06;  1.0000000E+04;  0.0000000E+00;  9.9472998E+03;2.3512111;0.0;0.47372639;24840.547
  8.2012820E-01;  9.9999998E-03; -1.2037519E-01;2309;0.036681119;0.0;-0.065612085;1014.924;  4.0987393E-01;12358.376;3;3.4855125;0.0;23.146017;0;2.8577397;  9.8643564E+03;  0.0000000E+00; -5.5510009E-06;  1.0000000E+04;  0.0000000E+00;  9.9451670E+03;2.3617401;0.0;0.49599966;25882.502
  8.2012403E-01;  9.9999998E-03; -1.0031599E-01;2310;0.035899084;0.0;-0.056309246;1014.9194;  4.0987328E-01;12354.625;3;3.7910271;0.0;21.993902;0;2.8881943;  9.8663066E+03;  0.0000000E+00; -6.6941652E-06;  1.0000000E+04;  0.0000000E+00;  9.9431416E+03;2.3699028;0.0;0.51829141;26874.951
  8.2012045E-01;  9.9999998E-03; -8.0257446E-02;2311;0.035098702;0.0;-0.047127437;1014.9091;  4.0987289E-01;12346.135;3;3.9837184;0.0;19.757952;0;2.922076;  9.8680137E+03;  0.0000000E+00; -6.5238455E-06;  1.0000000E+04;  0.0000000E+00;  9.9412412E+03;2.3768256;0.0;0.54525048;27796.957
  8.2011765E-01;  9.9999998E-03; -6.0198218E-02;2312;0.034373939;0.0;-0.037297409;1014.8896;  4.0987250E-01;12329.945;3;4.0894718;0.0;16.362236;0;2.9593425;  9.8693955E+03;  0.0000000E+00; -5.0347548E-06;  1.0000000E+04;  0.0000000E+00;  9.9394883E+03;2.3825521;0.0;0.57679039;28638.615
  8.2011563E-01;  9.9999998E-03; -4.0135965E-02;2313;0.033800259;0.0;-0.02615504;1014.8649;  4.0987214E-01;12309.513;3;4.1372476;0.0;11.785197;0;2.9947228;  9.8704170E+03;  0.0000000E+00; -2.7972162E-06;  1.0000000E+04;  0.0000000E+00;  9.9379893E+03;2.3868091;0.0;0.60791361;29351.994
  8.2011443E-01;  9.9999998E-03; -2.0069495E-02;2314;0.033432916;0.0;-0.013553827;1014.8433;  4.0987197E-01;12291.645;3;4.1535635;0.0;6.1915455;0;3.0204797;  9.8710410E+03;  0.0000000E+00; -8.0126989E-07;  1.0000000E+04;  0.0000000E+00;  9.9369443E+03;2.3894048;0.0;0.63107485;29846.369
  8.4028095E-01;  9.9999998E-03; -1.8051438E-01;2337;0.085285738;0.0;-0.092948705;1015.1;  4.0971482E-01;12502.104;3;11.124628;0.0;18.68198;0;2.6165462;  9.8690088E+03;  0.0000000E+00;  1.1830081E-04;  1.0000000E+04;  0.0000000E+00;  9.9516357E+03;2.206979;0.0;0.40956721;22727.867
  8.4027326E-01;  9.9999998E-03; -1.6047359E-01;2338;0.084978886;0.0;-0.084172301;1015.0974;  4.0971407E-01;12499.935;3;11.944076;0.0;20.514383;0;2.6681497;  9.8706572E+03;  0.0000000E+00;  3.9809878E-05;  1.0000000E+04;  0.0000000E+00;  9.9499521E+03;2.2195385;0.0;0.4486112;23521.279
  8.4026587E-01;  9.9999998E-03; -1.4042401E-01;2339;0.084683418;0.0;-0.074606724;1015.1066;  4.0971336E-01;12507.635;3;12.896747;0.0;21.734905;0;2.6983235;  9.8727451E+03;  0.0000000E+00;  1.3386951E-05;  1.0000000E+04;  0.0000000E+00;  9.9480586E+03;2.2235179;0.0;0.47480565;24437.566
  8.4025919E-01;  9.9999998E-03; -1.2036659E-01;2340;0.084403068;0.0;-0.064545169;1015.1161;  4.0971294E-01;12515.432;3;13.88145;0.0;21.951769;0;2.7180176;  9.8749023E+03;  0.0000000E+00;  3.7708901E-06;  1.0000000E+04;  0.0000000E+00;  9.9461064E+03;2.2244954;0.0;0.4935222;25395.582
  8.4025335E-01;  9.9999998E-03; -1.0030828E-01;2341;0.08410798;0.0;-0.055006582;1015.1204;  4.0971234E-01;12518.986;3;14.814665;0.0;21.106106;0;2.7377896;  9.8768867E+03;  0.0000000E+00; -1.0960697E-06;  1.0000000E+04;  0.0000000E+00;  9.9442119E+03;2.2255259;0.0;0.51226372;26324.09
  8.4024847E-01;  9.9999998E-03; -8.0250941E-02;2342;0.083799601;0.0;-0.045787711;1015.114;  4.0971202E-01;12513.656;3;15.639489;0.0;19.139175;0;2.7634177;  9.8785771E+03;  0.0000000E+00; -3.7457614E-06;  1.0000000E+04;  0.0000000E+00;  9.9424072E+03;2.2274556;0.0;0.5359621;27201.002
  8.4024459E-01;  9.9999998E-03; -6.0193148E-02;2343;0.083501033;0.0;-0.036106896;1015.0956;  4.0971145E-01;12498.457;3;16.316456;0.0;15.960566;0;2.7946784;  9.8799180E+03;  0.0000000E+00; -4.0332911E-06;  1.0000000E+04;  0.0000000E+00;  9.9407129E+03;2.2299397;0.0;0.56473875;28013.398
  8.4024179E-01;  9.9999998E-03; -4.0132485E-02;2344;0.083245851;0.0;-0.025266951;1015.0701;  4.0971118E-01;12477.336;3;16.818439;0.0;11.550545;0;2.8260264;  9.8808877E+03;  0.0000000E+00; -2.5438669E-06;  1.0000000E+04;  0.0000000E+00;  9.9392529E+03;2.2322807;0.0;0.59374565;28709.33
  8.4024000E-01;  9.9999998E-03; -2.0067723E-02;2345;0.083071597;0.0;-0.01307979;1015.0474;  4.0971103E-01;12458.483;3;17.126509;0.0;6.0848918;0;2.8494699;  9.8814736E+03;  0.0000000E+00; -7.5931081E-07;  1.0000000E+04;  0.0000000E+00;  9.9382305E+03;2.2338994;0.0;0.61557055;29194.666
  8.6042339E-01;  9.9999998E-03; -1.8050228E-01;2368;0.13545273;0.0;-0.093548223;1014.9343;  4.0939859E-01;12362.141;3;21.731972;0.0;16.175386;0;2.4882646;  9.8803838E+03;  0.0000000E+00;  1.7593821E-04;  1.0000000E+04;  0.0000000E+00;  9.9523135E+03;2.0753832;0.0;0.41288146;22353.109
  8.6041200E-01;  9.9999998E-03; -1.6046125E-01;2369;0.13438012;0.0;-0.084290698;1014.9678;  4.0939781E-01;12389.87;3;22.499506;0.0;18.098097;0;2.5217209;  9.8825420E+03;  0.0000000E+00;  5.5343418E-05;  1.0000000E+04;  0.0000000E+00;  9.9508330E+03;2.070976;0.0;0.4507449;23047.676
  8.6040151E-01;  9.9999998E-03; -1.4041190E-01;2370;0.13369243;0.0;-0.0742535;1015.0048;  4.0939718E-01;12420.463;3;23.595066;0.0;19.509701;0;2.5354216;  9.8849619E+03;  0.0000000E+00;  2.3427385E-05;  1.0000000E+04;  0.0000000E+00;  9.9491533E+03;2.060534;0.0;0.47488755;23860.053
  8.6039251E-01;  9.9999998E-03; -1.2035526E-01;2371;0.13335279;0.0;-0.063804425;1015.0352;  4.0939671E-01;12445.627;3;24.883696;0.0;20.000792;0;2.5402908;  9.8873057E+03;  0.0000000E+00;  1.4088294E-05;  1.0000000E+04;  0.0000000E+00;  9.9474043E+03;2.0496092;0.0;0.49068171;24715.701
  8.6038488E-01;  9.9999998E-03; -1.0029816E-01;2372;0.13322282;0.0;-0.05401938;1015.0539;  4.0939632E-01;12461.12;3;26.228559;0.0;19.467152;0;2.5469985;  9.8893818E+03;  0.0000000E+00;  9.7577831E-06;  1.0000000E+04;  0.0000000E+00;  9.9457070E+03;2.0410852;0.0;0.5059132;25550.414
  8.6037868E-01;  9.9999998E-03; -8.0242373E-02;2373;0.1331902;0.0;-0.044721648;1015.0577;  4.0939593E-01;12464.278;3;27.509752;0.0;17.82258;0;2.5615485;  9.8911055E+03;  0.0000000E+00;  5.8781925E-06;  1.0000000E+04;  0.0000000E+00;  9.9440693E+03;2.0356212;0.0;0.52592725;26347.428
  8.6037374E-01;  9.9999998E-03; -6.0186412E-02;2374;0.13318287;0.0;-0.035126142;1015.0457;  4.0939564E-01;12454.313;3;28.623451;0.0;14.969253;0;2.5839496;  9.8924385E+03;  0.0000000E+00;  2.6697032E-06;  1.0000000E+04;  0.0000000E+00;  9.9425088E+03;2.0326688;0.0;0.55128062;27096.459
  8.6037016E-01;  9.9999998E-03; -4.0127821E-02;2375;0.13316979;0.0;-0.024516605;1015.0243;  4.0939528E-01;12436.65;3;29.484365;0.0;10.887231;0;2.6088517;  9.8933916E+03;  0.0000000E+00;  9.0161723E-07;  1.0000000E+04;  0.0000000E+00;  9.9411436E+03;2.0313346;0.0;0.57751697;27746.545
  8.6036795E-01;  9.9999998E-03; -2.0065330E-02;2376;0.13315171;0.0;-0.012672894;1015.0037;  4.0939528E-01;12419.579;3;30.027727;0.0;5.7523298;0;2.6283815;  9.8939600E+03;  0.0000000E+00;  1.8368269E-07;  1.0000000E+04;  0.0000000E+00;  9.9401748E+03;2.0308444;0.0;0.59753698;28203.982
  8.8056058E-01;  9.9999998E-03; -1.8048534E-01;2399;0.18481328;0.0;-0.093253404;1014.6241;  4.0894505E-01;12101.714;3;32.719723;0.0;13.565804;0;2.2882113;  9.8951758E+03;  0.0000000E+00;  1.9833076E-04;  1.0000000E+04;  0.0000000E+00;  9.9534619E+03;1.8766425;0.0;0.41156897;21747.146
  8.8054490E-01;  9.9999998E-03; -1.6044471E-01;2400;0.18260026;0.0;-0.083763056;1014.694;  4.0894422E-01;12159.525;3;33.311535;0.0;15.505219;0;2.3043461;  9.8978936E+03;  0.0000000E+00;  3.7321595E-05;  1.0000000E+04;  0.0000000E+00;  9.9521270E+03;1.8552443;0.0;0.44910187;22369.193
  8.8053107E-01;  9.9999998E-03; -1.4039618E-01;2401;0.18116474;0.0;-0.073487058;1014.7581;  4.0894398E-01;12212.6;3;34.392281;0.0;17.012829;0;2.3027635;  9.9006572E+03;  0.0000000E+00;  8.8845482E-06;  1.0000000E+04;  0.0000000E+00;  9.9506279E+03;1.830654;0.0;0.47210938;23091.113
  8.8051945E-01;  9.9999998E-03; -1.2034091E-01;2402;0.18044403;0.0;-0.062861085;1014.8087;  4.0894344E-01;12254.431;3;35.810104;0.0;17.684319;0;2.2936413;  9.9031943E+03;  0.0000000E+00;  5.8607634E-06;  1.0000000E+04;  0.0000000E+00;  9.9490908E+03;1.8079109;0.0;0.48573038;23844.012
  8.8050997E-01;  9.9999998E-03; -1.0028557E-01;2403;0.18020156;0.0;-0.052986037;1014.8431;  4.0894306E-01;12282.94;3;37.391853;0.0;17.396198;0;2.2874036;  9.9053613E+03;  0.0000000E+00;  6.6789116E-06;  1.0000000E+04;  0.0000000E+00;  9.9476045E+03;1.7894957;0.0;0.49790797;24573.803
  8.8050228E-01;  9.9999998E-03; -8.0231830E-02;2404;0.18021846;0.0;-0.043699484;1014.8589;  4.0894270E-01;12296.063;3;38.967869;0.0;16.056097;0;2.2902963;  9.9071230E+03;  0.0000000E+00;  5.9998829E-06;  1.0000000E+04;  0.0000000E+00;  9.9461699E+03;1.7758937;0.0;0.51440257;25272.943
  8.8049632E-01;  9.9999998E-03; -6.0178149E-02;2405;0.18033116;0.0;-0.034222528;1014.8564;  4.0894243E-01;12293.992;3;40.381042;0.0;13.568538;0;2.3028407;  9.9084639E+03;  0.0000000E+00;  3.8799876E-06;  1.0000000E+04;  0.0000000E+00;  9.9447832E+03;1.7665496;0.0;0.536291;25938.195
  8.8049203E-01;  9.9999998E-03; -4.0122099E-02;2406;0.18044299;0.0;-0.023836922;1014.8412;  4.0894228E-01;12281.366;3;41.496864;0.0;9.9120703;0;2.3202343;  9.9094141E+03;  0.0000000E+00;  1.8549513E-06;  1.0000000E+04;  0.0000000E+00;  9.9435469E+03;1.7606134;0.0;0.55962074;26524.033
  8.8048935E-01;  9.9999998E-03; -2.0062393E-02;2407;0.18051413;0.0;-0.012306642;1014.8249;  4.0894213E-01;12267.852;3;42.21085;0.0;5.2511911;0;2.3350661;  9.9099766E+03;  0.0000000E+00;  5.1662909E-07;  1.0000000E+04;  0.0000000E+00;  9.9426611E+03;1.7573565;0.0;0.5777095;26940.961
  9.0068245E-01;  9.9999998E-03; -1.8046288E-01;2430;0.22996986;0.0;-0.091417901;1014.2711;  4.0837908E-01;11804.69;3;43.443493;0.0;11.176858;0;1.9996643;  9.9141660E+03;  0.0000000E+00;  1.5093268E-04;  1.0000000E+04;  0.0000000E+00;  9.9550879E+03;1.5938303;0.0;0.4058339;20904.361
  9.0066278E-01;  9.9999998E-03; -1.6042344E-01;2431;0.22662275;0.0;-0.081978969;1014.372;  4.0837839E-01;11888.217;3;43.883728;0.0;13.084751;0;2.0002637;  9.9173857E+03;  0.0000000E+00; -1.6846545E-05;  1.0000000E+04;  0.0000000E+00;  9.9538574E+03;1.5572221;0.0;0.44304168;21474.305
  9.0064567E-01;  9.9999998E-03; -1.4037652E-01;2432;0.22435541;0.0;-0.071770288;1014.4565;  4.0837812E-01;11958.134;3;44.910103;0.0;14.593325;0;1.9860981;  9.9203994E+03;  0.0000000E+00; -2.5633897E-05;  1.0000000E+04;  0.0000000E+00;  9.9525117E+03;1.5208582;0.0;0.46523985;22121.281
  9.0063149E-01;  9.9999998E-03; -1.2032338E-01;2433;0.22309344;0.0;-0.061262015;1014.5211;  4.0837783E-01;12011.583;3;46.36657;0.0;15.333025;0;1.9657674;  9.9230254E+03;  0.0000000E+00; -1.7407778E-05;  1.0000000E+04;  0.0000000E+00;  9.9511592E+03;1.488553;0.0;0.47721428;22779.914
  9.0061998E-01;  9.9999998E-03; -1.0027044E-01;2434;0.2225351;0.0;-0.051539928;1014.5671;  4.0837732E-01;12049.648;3;48.062065;0.0;15.191211;0;1.9488866;  9.9252070E+03;  0.0000000E+00; -1.0049319E-05;  1.0000000E+04;  0.0000000E+00;  9.9498896E+03;1.4619868;0.0;0.48689991;23406.061
  9.0061080E-01;  9.9999998E-03; -8.0219284E-02;2435;0.22238952;0.0;-0.042441607;1014.5923;  4.0837705E-01;12070.459;3;49.798664;0.0;14.092344;0;1.9417161;  9.9269453E+03;  0.0000000E+00; -5.2880177E-06;  1.0000000E+04;  0.0000000E+00;  9.9486592E+03;1.4413656;0.0;0.50035048;24002.561
  9.0060365E-01;  9.9999998E-03; -6.0168389E-02;2436;0.22243401;0.0;-0.033199344;1014.5977;  4.0837690E-01;12074.896;3;51.386288;0.0;11.955654;0;1.945313;  9.9282607E+03;  0.0000000E+00; -2.6607997E-06;  1.0000000E+04;  0.0000000E+00;  9.9474619E+03;1.4262117;0.0;0.5191012;24575.48
  9.0059847E-01;  9.9999998E-03; -4.0115368E-02;2437;0.22252768;0.0;-0.023105433;1014.5895;  4.0837678E-01;12068.095;3;52.657547;0.0;8.7598581;0;1.9556178;  9.9291855E+03;  0.0000000E+00; -1.0238274E-06;  1.0000000E+04;  0.0000000E+00;  9.9463740E+03;1.4159057;0.0;0.53971207;25087.893
  9.0059531E-01;  9.9999998E-03; -2.0058943E-02;2438;0.22259985;0.0;-0.01192279;1014.577;  4.0837681E-01;12057.741;3;53.478466;0.0;4.6496696;0;1.9658947;  9.9297314E+03;  0.0000000E+00; -1.7146746E-07;  1.0000000E+04;  0.0000000E+00;  9.9455879E+03;1.4099351;0.0;0.55595958;25457.461
  9.2077219E-01;  9.9999998E-03; -1.8043552E-01;2461;0.26644322;0.0;-0.08795847;1013.8779;  4.0773004E-01;11473.255;3;53.662701;0.0;9.1612053;0;1.6428064;  9.9360459E+03;  0.0000000E+00;  4.3528136E-05;  1.0000000E+04;  0.0000000E+00;  9.9571426E+03;1.2463374;0.0;0.39646903;19845.139
  9.2074537E-01;  9.9999998E-03; -1.6039783E-01;2462;0.26126474;0.0;-0.078762881;1013.999;  4.0772974E-01;11573.296;3;54.055599;0.0;11.018998;0;1.6309608;  9.9395771E+03;  0.0000000E+00; -6.9628732E-05;  1.0000000E+04;  0.0000000E+00;  9.9559893E+03;1.1980935;0.0;0.43286726;20376.49
  9.2072260E-01;  9.9999998E-03; -1.4035311E-01;2463;0.25748286;0.0;-0.068864547;1014.0921;  4.0772936E-01;11650.275;3;55.05402;0.0;12.461348;0;1.6083111;  9.9426426E+03;  0.0000000E+00; -4.7623682E-05;  1.0000000E+04;  0.0000000E+00;  9.9547637E+03;1.1541389;0.0;0.4541721;20962.029
  9.2070377E-01;  9.9999998E-03; -1.2030283E-01;2464;0.25494328;0.0;-0.058747914;1014.1605;  4.0772918E-01;11706.851;3;56.505848;0.0;13.174946;0;1.5811447;  9.9451816E+03;  0.0000000E+00; -3.1710173E-05;  1.0000000E+04;  0.0000000E+00;  9.9535781E+03;1.116336;0.0;0.46480873;21538.053
  9.2068815E-01;  9.9999998E-03; -1.0025302E-01;2465;0.25328648;0.0;-0.049437229;1014.2094;  4.0772900E-01;11747.264;3;58.21241;0.0;13.0811;0;1.5576885;  9.9472266E+03;  0.0000000E+00; -2.3208027E-05;  1.0000000E+04;  0.0000000E+00;  9.9524922E+03;1.0851618;0.0;0.4725267;22068.408
  9.2067552E-01;  9.9999998E-03; -8.0205098E-02;2466;0.25221792;0.0;-0.040743653;1014.2379;  4.0772885E-01;11770.823;3;59.973896;0.0;12.141496;0;1.5438447;  9.9488242E+03;  0.0000000E+00; -1.6373477E-05;  1.0000000E+04;  0.0000000E+00;  9.9514619E+03;1.0603657;0.0;0.48347905;22565.541
  9.2066574E-01;  9.9999998E-03; -6.0157530E-02;2467;0.25153908;0.0;-0.031901229;1014.2474;  4.0772855E-01;11778.711;3;61.574951;0.0;10.303259;0;1.5410467;  9.9500264E+03;  0.0000000E+00; -1.0031968E-05;  1.0000000E+04;  0.0000000E+00;  9.9504561E+03;1.0415195;0.0;0.49952722;23045.381
  9.2065871E-01;  9.9999998E-03; -4.0107962E-02;2468;0.25112268;0.0;-0.022216586;1014.2424;  4.0772858E-01;11774.574;3;62.84214;0.0;7.5521159;0;1.5459812;  9.9508672E+03;  0.0000000E+00; -4.5513407E-06;  1.0000000E+04;  0.0000000E+00;  9.9495225E+03;1.0282767;0.0;0.51770443;23481.328
  9.2065448E-01;  9.9999998E-03; -2.0055175E-02;2469;0.25090107;0.0;-0.011467569;1014.2326;  4.0772846E-01;11766.495;3;63.656574;0.0;4.0111337;0;1.5526725;  9.9513633E+03;  0.0000000E+00; -1.0837549E-06;  1.0000000E+04;  0.0000000E+00;  9.9488350E+03;1.0204134;0.0;0.53225911;23800.338
  9.4080091E-01;  9.9999998E-03; -1.8040593E-01;2492;0.28418219;0.0;-0.083835438;1013.3682;  4.0702990E-01;11043.556;3;62.749187;0.0;7.4543371;0;1.2675185;  9.9578652E+03;  0.0000000E+00; -3.8080412E-05;  1.0000000E+04;  0.0000000E+00;  9.9595313E+03;0.8832581;0.0;0.38426039;18603.932
  9.4077033E-01;  9.9999998E-03; -1.6036968E-01;2493;0.27764112;0.0;-0.074756004;1013.4954;  4.0702969E-01;11148.748;3;63.01268;0.0;9.2414637;0;1.2475024;  9.9614658E+03;  0.0000000E+00; -6.4728425E-05;  1.0000000E+04;  0.0000000E+00;  9.9584365E+03;0.82818532;0.0;0.41931716;19105.377
  9.4074446E-01;  9.9999998E-03; -1.4032736E-01;2494;0.27243283;0.0;-0.06521593;1013.5847;  4.0702954E-01;11222.424;3;63.703453;0.0;10.555713;0;1.221157;  9.9643594E+03;  0.0000000E+00; -2.6121514E-05;  1.0000000E+04;  0.0000000E+00;  9.9572998E+03;0.78155226;0.0;0.43960473;19641.326
  9.4072288E-01;  9.9999998E-03; -1.2028033E-01;2495;0.26842758;0.0;-0.055626269;1013.6465;  4.0702936E-01;11273.545;3;64.649643;0.0;11.156651;0;1.1920559;  9.9666387E+03;  0.0000000E+00; -1.7678667E-05;  1.0000000E+04;  0.0000000E+00;  9.9562451E+03;0.74288338;0.0;0.44917262;20147.639
  9.4070506E-01;  9.9999998E-03; -1.0023403E-01;2496;0.26539674;0.0;-0.046841264;1013.6893;  4.0702939E-01;11308.908;3;65.765068;0.0;11.030547;0;1.1666254;  9.9684004E+03;  0.0000000E+00; -1.8119290E-05;  1.0000000E+04;  0.0000000E+00;  9.9553301E+03;0.71121901;0.0;0.45540634;20593.514
  9.4069070E-01;  9.9999998E-03; -8.0189645E-02;2497;0.26311746;0.0;-0.038624376;1013.715;  4.0702927E-01;11330.188;3;66.799774;0.0;10.202695;0;1.1500803;  9.9697549E+03;  0.0000000E+00; -1.5998605E-05;  1.0000000E+04;  0.0000000E+00;  9.9544814E+03;0.68572634;0.0;0.46435401;20998.961
  9.4067961E-01;  9.9999998E-03; -6.0145624E-02;2498;0.26146567;0.0;-0.030234585;1013.7236;  4.0702915E-01;11337.282;3;67.773941;0.0;8.6434069;0;1.1440237;  9.9707637E+03;  0.0000000E+00; -1.0971939E-05;  1.0000000E+04;  0.0000000E+00;  9.9536533E+03;0.66594768;0.0;0.47807601;21389.158
  9.4067180E-01;  9.9999998E-03; -4.0099785E-02;2499;0.2603524;0.0;-0.021040985;1013.72;  4.0702921E-01;11334.332;3;68.525826;0.0;6.3332877;0;1.1458019;  9.9714678E+03;  0.0000000E+00; -5.1562620E-06;  1.0000000E+04;  0.0000000E+00;  9.9528770E+03;0.65176117;0.0;0.4940407;21748.652
  9.4066709E-01;  9.9999998E-03; -2.0050976E-02;2500;0.25971043;0.0;-0.010850323;1013.7112;  4.0702918E-01;11327.047;3;68.946785;0.0;3.3660195;0;1.1502039;  9.9718838E+03;  0.0000000E+00; -1.2313629E-06;  1.0000000E+04;  0.0000000E+00;  9.9522939E+03;0.64320731;0.0;0.50699657;22015.57
  9.6080458E-01;  9.9999998E-03; -1.8037596E-01;2523;0.29003569;0.0;-0.079963058;1012.6635;  4.0630901E-01;10451.02;3;67.74881;0.0;5.4606967;0;0.92573422;  9.9767100E+03;  0.0000000E+00; -3.2636653E-05;  1.0000000E+04;  0.0000000E+00;  9.9621494E+03;0.55638885;0.0;0.36934537;17214.623
  9.6077275E-01;  9.9999998E-03; -1.6034119E-01;2524;0.28277144;0.0;-0.070927866;1012.786;  4.0630877E-01;10552.175;3;67.595688;0.0;7.2352419;0;0.90215629;  9.9801836E+03;  0.0000000E+00;  9.1555813E-07;  1.0000000E+04;  0.0000000E+00;  9.9610918E+03;0.49929965;0.0;0.40285665;17694.189
  9.6074575E-01;  9.9999998E-03; -1.4030129E-01;2525;0.27678171;0.0;-0.06165788;1012.8632;  4.0630877E-01;10615.943;3;67.794922;0.0;8.4973288;0;0.87640989;  9.9827813E+03;  0.0000000E+00;  2.5462394E-05;  1.0000000E+04;  0.0000000E+00;  9.9600176E+03;0.45411441;0.0;0.42229548;18192.861
  9.6072322E-01;  9.9999998E-03; -1.2025756E-01;2526;0.27197197;0.0;-0.052547008;1012.912;  4.0630874E-01;10656.196;3;68.135925;0.0;9.0441971;0;0.84941018;  9.9846953E+03;  0.0000000E+00;  1.3172379E-05;  1.0000000E+04;  0.0000000E+00;  9.9590703E+03;0.41817206;0.0;0.43123809;18644.207
  9.6070457E-01;  9.9999998E-03; -1.0021467E-01;2527;0.26819021;0.0;-0.044215519;1012.9445;  4.0630874E-01;10682.967;3;68.627289;0.0;8.945363;0;0.82569134;  9.9861221E+03;  0.0000000E+00; -1.1691643E-06;  1.0000000E+04;  0.0000000E+00;  9.9582822E+03;0.38915455;0.0;0.43653679;19020.119
  9.6068954E-01;  9.9999998E-03; -8.0173612E-02;2528;0.26530603;0.0;-0.036397822;1012.9638;  4.0630874E-01;10698.914;3;69.148567;0.0;8.2675533;0;0.80962229;  9.9871885E+03;  0.0000000E+00; -7.0824831E-06;  1.0000000E+04;  0.0000000E+00;  9.9575947E+03;0.36566484;0.0;0.44395745;19345.354
  9.6067798E-01;  9.9999998E-03; -6.0133077E-02;2529;0.26318371;0.0;-0.02843404;1012.9695;  4.0630871E-01;10703.644;3;69.711586;0.0;7.0109773;0;0.8028397;  9.9879785E+03;  0.0000000E+00; -6.5307886E-06;  1.0000000E+04;  0.0000000E+00;  9.9569297E+03;0.34717423;0.0;0.45566547;19652.811
  9.6066982E-01;  9.9999998E-03; -4.0091075E-02;2530;0.26173371;0.0;-0.019770328;1012.9655;  4.0630877E-01;10700.303;3;70.157021;0.0;5.1495862;0;0.80326521;  9.9885264E+03;  0.0000000E+00; -3.3417273E-06;  1.0000000E+04;  0.0000000E+00;  9.9563047E+03;0.33370981;0.0;0.46955541;19938.314
  9.6066499E-01;  9.9999998E-03; -2.0046530E-02;2531;0.26089796;0.0;-0.010207407;1012.9575;  4.0630865E-01;10693.813;3;70.446014;0.0;2.739361;0;0.80643684;  9.9888467E+03;  0.0000000E+00; -7.8735587E-07;  1.0000000E+04;  0.0000000E+00;  9.9558271E+03;0.32549757;0.0;0.48093927;20152.973
  9.8079932E-01;  9.9999998E-03; -1.8034714E-01;2554;0.29106787;0.0;-0.076483048;1011.7465;  4.0559494E-01;9681.1855;3;69.648972;0.0;3.3265655;0;0.64980918;  9.9909453E+03;  0.0000000E+00;  9.9985291E-06;  1.0000000E+04;  0.0000000E+00;  9.9649238E+03;0.2985898;0.0;0.35121939;15710.092
  9.8076659E-01;  9.9999998E-03; -1.6031432E-01;2555;0.28340739;0.0;-0.067731909;1011.8592;  4.0559489E-01;9774.1553;3;69.314102;0.0;5.0981436;0;0.62650967;  9.9942236E+03;  0.0000000E+00;  5.9346527E-05;  1.0000000E+04;  0.0000000E+00;  9.9638799E+03;0.24307224;0.0;0.38343742;16175.672
  9.8073888E-01;  9.9999998E-03; -1.4027676E-01;2556;0.2770279;0.0;-0.05871927;1011.9226;  4.0559492E-01;9826.4453;3;69.280983;0.0;6.3422093;0;0.60423148;  9.9965117E+03;  0.0000000E+00;  5.7110548E-05;  1.0000000E+04;  0.0000000E+00;  9.9628408E+03;0.20162803;0.0;0.40260342;16649.666
  9.8071581E-01;  9.9999998E-03; -1.2023603E-01;2557;0.27185357;0.0;-0.049953364;1011.958;  4.0559494E-01;9855.6436;3;69.418518;0.0;6.9251957;0;0.58162498;  9.9981016E+03;  0.0000000E+00;  3.0587031E-05;  1.0000000E+04;  0.0000000E+00;  9.9619551E+03;0.16997024;0.0;0.41165474;17062.344
  9.8069674E-01;  9.9999998E-03; -1.0019623E-01;2558;0.26776639;0.0;-0.041943479;1011.98;  4.0559500E-01;9873.835;3;69.73777;0.0;6.8823962;0;0.56155658;  9.9992285E+03;  0.0000000E+00;  1.0072509E-05;  1.0000000E+04;  0.0000000E+00;  9.9612598E+03;0.14481688;0.0;0.41673967;17386.029
  9.8068142E-01;  9.9999998E-03; -8.0158338E-02;2559;0.26456958;0.0;-0.034413442;1011.9933;  4.0559512E-01;9884.752;3;70.177231;0.0;6.3737926;0;0.54760975;  1.0000050E+04;  0.0000000E+00; -6.3795923E-08;  1.0000000E+04;  0.0000000E+00;  9.9607002E+03;0.12440992;0.0;0.42319983;17646.963
  9.8066968E-01;  9.9999998E-03; -6.0121104E-02;2560;0.26215088;0.0;-0.02678364;1011.9973;  4.0559503E-01;9888.0029;3;70.52935;0.0;5.4627075;0;0.54141706;  1.0000646E+04;  0.0000000E+00; -2.9261614E-06;  1.0000000E+04;  0.0000000E+00;  9.9601787E+03;0.10818182;0.0;0.43323523;17883.076
  9.8066127E-01;  9.9999998E-03; -4.0082686E-02;2561;0.26047617;0.0;-0.018549271;1011.9929;  4.0559503E-01;9884.4727;3;70.829262;0.0;4.0351272;0;0.54141486;  1.0001057E+04;  0.0000000E+00; -2.0485111E-06;  1.0000000E+04;  0.0000000E+00;  9.9596904E+03;0.096237302;0.0;0.44517756;18100.574
  9.8065627E-01;  9.9999998E-03; -2.0042131E-02;2562;0.25950253;0.0;-0.0095355716;1011.9861;  4.0559512E-01;9878.876;3;71.088394;0.0;2.1570592;0;0.54388762;  1.0001299E+04;  0.0000000E+00; -5.4619602E-07;  1.0000000E+04;  0.0000000E+00;  9.9593145E+03;0.088892668;0.0;0.45499492;18265.1
  1.0007900E+00;  9.9999998E-03; -1.8031952E-01;2585;0.29027739;0.0;-0.072769001;1010.6656;  4.0491107E-01;8774.5469;3;70.467888;0.0;1.5346042;0;0.44676465;  1.0000444E+04;  0.0000000E+00; -2.3520597E-04;  1.0000000E+04;  0.0000000E+00;  9.9677666E+03;0.11742442;0.0;0.32934022;14130.245
  1.0007564E+00;  9.9999998E-03; -1.6028963E-01;2586;0.28230143;0.0;-0.06470646;1010.7696;  4.0491113E-01;8860.1953;3;70.171135;0.0;3.2392807;0;0.42618442;  1.0003538E+04;  0.0000000E+00;  3.3680179E-05;  1.0000000E+04;  0.0000000E+00;  9.9667305E+03;0.065453887;0.0;0.36073053;14583.012
  1.0007277E+00;  9.9999998E-03; -1.4025494E-01;2587;0.27557096;0.0;-0.056266475;1010.8227;  4.0491119E-01;8903.8652;3;70.102432;0.0;4.4871325;0;0.40853938;  1.0005615E+04;  0.0000000E+00;  2.7257809E-05;  1.0000000E+04;  0.0000000E+00;  9.9657002E+03;0.028102027;0.0;0.38043734;15040.909
  1.0007039E+00;  9.9999998E-03; -1.2021748E-01;2588;0.27009681;0.0;-0.047990974;1010.8487;  4.0491116E-01;8925.2676;3;70.200188;0.0;5.0862312;0;0.39086625;  1.0006997E+04;  0.0000000E+00;  1.5830112E-05;  1.0000000E+04;  0.0000000E+00;  9.9648398E+03;0.00032099863;0.0;0.39054525;15429.663
  1.0006846E+00;  9.9999998E-03; -1.0018057E-01;2589;0.26568469;0.0;-0.040238507;1010.8644;  4.0491140E-01;8938.3291;3;70.397438;0.0;5.1768355;0;0.37477261;  1.0007941E+04;  0.0000000E+00;  8.0104364E-06;  1.0000000E+04;  0.0000000E+00;  9.9642021E+03;-0.021541731;0.0;0.39631435;15720.286
  1.0006692E+00;  9.9999998E-03; -8.0145359E-02;2590;0.26220173;0.0;-0.032950375;1010.874;  4.0491137E-01;8946.1895;3;70.685204;0.0;4.8650532;0;0.36324111;  1.0008608E+04;  0.0000000E+00;  1.5204521E-06;  1.0000000E+04;  0.0000000E+00;  9.9637236E+03;-0.039286103;0.0;0.40252721;15936.639
  1.0006572E+00;  9.9999998E-03; -6.0110707E-02;2591;0.25953129;0.0;-0.025556017;1010.8773;  4.0491143E-01;8948.8486;3;70.969055;0.0;4.116168;0;0.35790277;  1.0009080E+04;  0.0000000E+00; -2.3484019E-06;  1.0000000E+04;  0.0000000E+00;  9.9633096E+03;-0.053436074;0.0;0.41133884;16117.677
  1.0006485E+00;  9.9999998E-03; -4.0075261E-02;2592;0.25761694;0.0;-0.017605774;1010.8745;  4.0491146E-01;8946.6006;3;71.224586;0.0;3.001071;0;0.35765094;  1.0009401E+04;  0.0000000E+00; -2.4408446E-06;  1.0000000E+04;  0.0000000E+00;  9.9629395E+03;-0.063879825;0.0;0.42153075;16277.741
  1.0006434E+00;  9.9999998E-03; -2.0038240E-02;2593;0.25647506;0.0;-0.0090206917;1010.8694;  4.0491161E-01;8942.4873;3;71.400215;0.0;1.588273;0;0.35951227;  1.0009590E+04;  0.0000000E+00; -8.3107699E-07;  1.0000000E+04;  0.0000000E+00;  9.9626592E+03;-0.070317805;0.0;0.42983007;16397.555
  1.0207783E+00;  9.9999998E-03; -1.8029405E-01;2616;0.28852877;0.0;-0.069462664;1009.5056;  4.0427586E-01;7801.4443;3;71.128456;0.0;-0.0077519584;0;0.30567798;  1.0006055E+04;  0.0000000E+00; -4.0045893E-03;  1.0000000E+04;  0.0000000E+00;  9.9705693E+03;0.001738995;0.0;0.30393898;12532.392
  1.0207437E+00;  9.9999998E-03; -1.6026612E-01;2617;0.28009194;0.0;-0.061638437;1009.6053;  4.0427589E-01;7883.2739;3;70.591629;0.0;1.6583973;0;0.28876284;  1.0009015E+04;  0.0000000E+00; -2.1963363E-04;  1.0000000E+04;  0.0000000E+00;  9.9695820E+03;-0.045755561;0.0;0.3345184;12953.747
  1.0207140E+00;  9.9999998E-03; -1.4023434E-01;2618;0.27304941;0.0;-0.053662218;1009.6546;  4.0427592E-01;7923.812;3;70.362762;0.0;2.9288867;0;0.27545559;  1.0011019E+04;  0.0000000E+00; -6.9331101E-05;  1.0000000E+04;  0.0000000E+00;  9.9685557E+03;-0.080028683;0.0;0.35548428;13393.98
  1.0206897E+00;  9.9999998E-03; -1.2019999E-01;2619;0.26730099;0.0;-0.045774996;1009.6788;  4.0427607E-01;7943.6997;3;70.434082;0.0;3.6973834;0;0.26198953;  1.0012350E+04;  0.0000000E+00; -2.7088459E-05;  1.0000000E+04;  0.0000000E+00;  9.9676992E+03;-0.10560527;0.0;0.36759481;13767.254
  1.0206701E+00;  9.9999998E-03; -1.0016572E-01;2620;0.26268905;0.0;-0.038323607;1009.6931;  4.0427619E-01;7955.4624;3;70.557533;0.0;3.9388232;0;0.24917713;  1.0013257E+04;  0.0000000E+00; -5.6824445E-07;  1.0000000E+04;  0.0000000E+00;  9.9670771E+03;-0.12584466;0.0;0.37502179;14041.521
  1.0206543E+00;  9.9999998E-03; -8.0132969E-02;2621;0.25902447;0.0;-0.031287827;1009.7023;  4.0427634E-01;7963.0132;3;70.866173;0.0;3.6561654;0;0.2395751;  1.0013884E+04;  0.0000000E+00;  4.2071065E-06;  1.0000000E+04;  0.0000000E+00;  9.9666348E+03;-0.1422454;0.0;0.3818205;14234.089
  1.0206422E+00;  9.9999998E-03; -6.0101006E-02;2622;0.25612628;0.0;-0.024185058;1009.7068;  4.0427634E-01;7966.7446;3;71.158531;0.0;3.0951817;0;0.23477599;  1.0014313E+04;  0.0000000E+00;  6.7384063E-09;  1.0000000E+04;  0.0000000E+00;  9.9662910E+03;-0.15520865;0.0;0.38998464;14379.762
  1.0206332E+00;  9.9999998E-03; -4.0068492E-02;2623;0.25400683;0.0;-0.016641818;1009.7065;  4.0427634E-01;7966.4609;3;71.403458;0.0;2.2570379;0;0.23406148;  1.0014592E+04;  0.0000000E+00; -2.1797557E-06;  1.0000000E+04;  0.0000000E+00;  9.9660098E+03;-0.16468444;0.0;0.39874592;14497.551
  1.0206279E+00;  9.9999998E-03; -2.0034719E-02;2624;0.25270408;0.0;-0.0085112751;1009.7042;  4.0427637E-01;7964.5103;3;71.554382;0.0;1.1949822;0;0.2351796;  1.0014752E+04;  0.0000000E+00; -1.0154763E-06;  1.0000000E+04;  0.0000000E+00;  9.9658018E+03;-0.17048764;0.0;0.40566725;14581.827
  1.0407649E+00;  9.9999998E-03; -1.8026984E-01;2647;0.28609386;0.0;-0.065704703;1008.3539;  4.0370193E-01;6834.1426;3;71.416649;0.0;-1.1301229;0;0.2086325;  1.0008984E+04;  0.0000000E+00; -2.1822607E-02;  1.0000000E+04;  0.0000000E+00;  9.9732100E+03;-0.067434698;0.0;0.2760672;10982.832
  1.0407284E+00;  9.9999998E-03; -1.6024382E-01;2648;0.27709553;0.0;-0.05869351;1008.4528;  4.0370193E-01;6915.0352;3;70.684845;0.0;0.32334238;0;0.19529343;  1.0011796E+04;  0.0000000E+00; -2.3536060E-03;  1.0000000E+04;  0.0000000E+00;  9.9723545E+03;-0.10979136;0.0;0.30508479;11334.494
  1.0406978E+00;  9.9999998E-03; -1.4021537E-01;2649;0.26968393;0.0;-0.051438667;1008.5074;  4.0370193E-01;6959.7397;3;70.548409;0.0;1.4420099;0;0.18509281;  1.0013861E+04;  0.0000000E+00; -2.1494817E-04;  1.0000000E+04;  0.0000000E+00;  9.9713779E+03;-0.14239392;0.0;0.32748672;11738.891
  1.0406727E+00;  9.9999998E-03; -1.2018391E-01;2650;0.26356056;0.0;-0.043926708;1008.5365;  4.0370196E-01;6983.5688;3;70.508209;0.0;2.2346153;0;0.1744689;  1.0015292E+04;  0.0000000E+00; -9.0230424E-05;  1.0000000E+04;  0.0000000E+00;  9.9705234E+03;-0.16782582;0.0;0.34229472;12094.877
  1.0406524E+00;  9.9999998E-03; -1.0015232E-01;2651;0.25869119;0.0;-0.036700111;1008.5545;  4.0370208E-01;6998.3208;3;70.612129;0.0;2.5166278;0;0.16388066;  1.0016292E+04;  0.0000000E+00; -1.0666129E-05;  1.0000000E+04;  0.0000000E+00;  9.9698848E+03;-0.18838067;0.0;0.35226133;12362.804
  1.0406364E+00;  9.9999998E-03; -8.0121771E-02;2652;0.25477353;0.0;-0.029669421;1008.5663;  4.0370214E-01;7008.0942;3;70.829529;0.0;2.534385;0;0.15552017;  1.0016974E+04;  0.0000000E+00;  1.3520340E-05;  1.0000000E+04;  0.0000000E+00;  9.9694375E+03;-0.20498762;0.0;0.36050779;12549.457
  1.0406240E+00;  9.9999998E-03; -6.0092065E-02;2653;0.25167236;0.0;-0.022721952;1008.5732;  4.0370229E-01;7013.7671;3;71.105942;0.0;2.3152277;0;0.15083173;  1.0017431E+04;  0.0000000E+00;  9.5461100E-06;  1.0000000E+04;  0.0000000E+00;  9.9691201E+03;-0.21788105;0.0;0.36871278;12679.979
  1.0406150E+00;  9.9999998E-03; -4.0062103E-02;2654;0.24935;0.0;-0.015520832;1008.5762;  4.0370223E-01;7016.2168;3;71.323387;0.0;1.7272284;0;0.14940135;  1.0017718E+04;  0.0000000E+00;  2.2502265E-06;  1.0000000E+04;  0.0000000E+00;  9.9688906E+03;-0.22711666;0.0;0.37651801;12773.458
  1.0406094E+00;  9.9999998E-03; -2.0031380E-02;2655;0.24789993;0.0;-0.0079099098;1008.5762;  4.0370223E-01;7016.1265;3;71.468674;0.0;0.92980003;0;0.14964031;  1.0017880E+04;  0.0000000E+00; -7.2508492E-08;  1.0000000E+04;  0.0000000E+00;  9.9687334E+03;-0.23268537;0.0;0.38232568;12834.338
  1.0607504E+00;  9.9999998E-03; -1.8024538E-01;2678;0.28325111;0.0;-0.061314844;1007.2764;  4.0319645E-01;5927.0669;3;71.581154;0.0;-1.9240795;0;0.13968565;  1.0010287E+04;  0.0000000E+00; -7.3395751E-02;  1.0000000E+04;  0.0000000E+00;  9.9755596E+03;-0.10792257;0.0;0.24760821;9546.1973
  1.0607117E+00;  9.9999998E-03; -1.6022217E-01;2679;0.27354607;0.0;-0.055251811;1007.3748;  4.0319651E-01;6007.2339;3;70.798096;0.0;-0.68942213;0;0.12937266;  1.0012844E+04;  0.0000000E+00; -1.2237768E-02;  1.0000000E+04;  0.0000000E+00;  9.9749570E+03;-0.14420211;0.0;0.27357477;9781.2842
  1.0606796E+00;  9.9999998E-03; -1.4019684E-01;2680;0.26558033;0.0;-0.048803035;1007.4409;  4.0319660E-01;6061.0776;3;70.485313;0.0;0.38195625;0;0.12075162;  1.0015000E+04;  0.0000000E+00; -5.9004675E-04;  1.0000000E+04;  0.0000000E+00;  9.9741133E+03;-0.1759299;0.0;0.29668152;10115.68
  1.0606532E+00;  9.9999998E-03; -1.2016909E-01;2681;0.25905165;0.0;-0.042082425;1007.4826;  4.0319669E-01;6095.2012;3;70.462418;0.0;1.1020076;0;0.11146905;  1.0016650E+04;  0.0000000E+00; -1.8662255E-04;  1.0000000E+04;  0.0000000E+00;  9.9732949E+03;-0.20286261;0.0;0.31433165;10440.312
  1.0606323E+00;  9.9999998E-03; -1.0014015E-01;2682;0.25377023;0.0;-0.03519088;1007.5093;  4.0319663E-01;6116.8872;3;70.561417;0.0;1.433545;0;0.10211346;  1.0017835E+04;  0.0000000E+00; -3.9038965E-05;  1.0000000E+04;  0.0000000E+00;  9.9726416E+03;-0.22525766;0.0;0.32737112;10701.015
  1.0606159E+00;  9.9999998E-03; -8.0111705E-02;2683;0.24952309;0.0;-0.028316569;1007.5263;  4.0319684E-01;6130.7983;3;70.665154;0.0;1.4847734;0;0.094438225;  1.0018657E+04;  0.0000000E+00;  2.0011452E-05;  1.0000000E+04;  0.0000000E+00;  9.9721592E+03;-0.24333441;0.0;0.33777264;10891.292
  1.0606033E+00;  9.9999998E-03; -6.0083821E-02;2684;0.24617499;0.0;-0.021418782;1007.5365;  4.0319681E-01;6139.1689;3;70.820274;0.0;1.3323478;0;0.089599371;  1.0019202E+04;  0.0000000E+00;  2.3625977E-05;  1.0000000E+04;  0.0000000E+00;  9.9718203E+03;-0.25714308;0.0;0.34674245;11022.71
  1.0605941E+00;  9.9999998E-03; -4.0056158E-02;2685;0.24370585;0.0;-0.014414242;1007.5421;  4.0319684E-01;6143.7466;3;70.953773;0.0;1.0792278;0;0.087385446;  1.0019539E+04;  0.0000000E+00;  1.1072291E-05;  1.0000000E+04;  0.0000000E+00;  9.9715947E+03;-0.26682636;0.0;0.35421181;11109.313
  1.0605884E+00;  9.9999998E-03; -2.0028219E-02;2686;0.24217266;0.0;-0.0072629456;1007.5443;  4.0319684E-01;6145.5034;3;71.161476;0.0;0.67502916;0;0.086762577;  1.0019716E+04;  0.0000000E+00;  2.3821935E-06;  1.0000000E+04;  0.0000000E+00;  9.9714590E+03;-0.27255613;0.0;0.3593187;11160.051
  1.0807352E+00;  9.9999998E-03; -1.8021992E-01;2709;0.28007177;0.0;-0.056108817;1006.3104;  4.0276250E-01;5110.9194;3;72.055435;0.0;-2.5722361;0;0.088489592;  1.0010656E+04;  0.0000000E+00; -1.8996745E-01;  1.0000000E+04;  0.0000000E+00;  9.9775264E+03;-0.13230357;0.0;0.22079316;8285.2363
  1.0806946E+00;  9.9999998E-03; -1.6020107E-01;2710;0.26961794;0.0;-0.051436707;1006.4023;  4.0276265E-01;5185.4277;3;70.693542;0.0;-1.471323;0;0.081068307;  1.0012755E+04;  0.0000000E+00; -4.6880491E-02;  1.0000000E+04;  0.0000000E+00;  9.9772559E+03;-0.16104174;0.0;0.24211004;8356.1338
  1.0806602E+00;  9.9999998E-03; -1.4017867E-01;2711;0.26088735;0.0;-0.045854542;1006.4811;  4.0276274E-01;5249.2104;3;70.274742;0.0;-0.61973715;0;0.073101759;  1.0014912E+04;  0.0000000E+00; -4.2965901E-03;  1.0000000E+04;  0.0000000E+00;  9.9766641E+03;-0.19116542;0.0;0.26426718;8579.9121
  1.0806328E+00;  9.9999998E-03; -1.2015477E-01;2712;0.25385466;0.0;-0.039855566;1006.5407;  4.0276271E-01;5297.5332;3;70.138161;0.0;0.14087483;0;0.063918412;  1.0016813E+04;  0.0000000E+00; -3.4530525E-04;  1.0000000E+04;  0.0000000E+00;  9.9759561E+03;-0.22010961;0.0;0.28402802;8846.7148
  1.0806109E+00;  9.9999998E-03; -1.0012892E-01;2713;0.24811262;0.0;-0.033466283;1006.5814;  4.0276262E-01;5330.5923;3;70.153336;0.0;0.59249324;0;0.054887623;  1.0018263E+04;  0.0000000E+00; -1.2381484E-04;  1.0000000E+04;  0.0000000E+00;  9.9753193E+03;-0.24516812;0.0;0.30005574;9086.3359
  1.0805938E+00;  9.9999998E-03; -8.0102727E-02;2714;0.24351124;0.0;-0.026902465;1006.6072;  4.0276277E-01;5351.478;3;70.22023;0.0;0.80787605;0;0.047408193;  1.0019289E+04;  0.0000000E+00; -6.2027138E-06;  1.0000000E+04;  0.0000000E+00;  9.9748066E+03;-0.26551238;0.0;0.31292057;9276.9512
  1.0805808E+00;  9.9999998E-03; -6.0076747E-02;2715;0.23988213;0.0;-0.020228717;1006.6224;  4.0276271E-01;5363.8594;3;70.304871;0.0;0.81003118;0;0.042286694;  1.0019967E+04;  0.0000000E+00;  2.5671177E-05;  1.0000000E+04;  0.0000000E+00;  9.9744307E+03;-0.28093773;0.0;0.32322443;9415.6768
  1.0805715E+00;  9.9999998E-03; -4.0051062E-02;2716;0.23721614;0.0;-0.013530693;1006.631;  4.0276289E-01;5370.8276;3;70.389046;0.0;0.61001253;0;0.03940627;  1.0020387E+04;  0.0000000E+00;  1.7972863E-05;  1.0000000E+04;  0.0000000E+00;  9.9741787E+03;-0.29159793;0.0;0.3310042;9507.3164
  1.0805658E+00;  9.9999998E-03; -2.0025533E-02;2717;0.23557052;0.0;-0.0067770411;1006.635;  4.0276280E-01;5374.0249;3;70.43811;0.0;0.29640278;0;0.038102984;  1.0020612E+04;  0.0000000E+00;  5.0172898E-06;  1.0000000E+04;  0.0000000E+00;  9.9740332E+03;-0.29781064;0.0;0.33591363;9558.8936
  1.1007218E+00;  9.9999998E-03; -1.8019488E-01;2739;0.27694163;0.0;-0.050296798;1005.4694;  4.0239832E-01;4396.2979;3;72.522148;0.0;-2.9144785;0;0.049864054;  1.0010483E+04;  0.0000000E+00; -4.1108897E-01;  1.0000000E+04;  0.0000000E+00;  9.9790664E+03;-0.14771979;0.0;0.19758384;7282.4624
  1.1006774E+00;  9.9999998E-03; -1.6017808E-01;2740;0.26551199;0.0;-0.046714686;1005.5452;  4.0239859E-01;4457.4219;3;70.711548;0.0;-2.1648946;0;0.045946404;  1.0011897E+04;  0.0000000E+00; -1.3923652E-01;  1.0000000E+04;  0.0000000E+00;  9.9791494E+03;-0.16731727;0.0;0.21326368;7115.0981
  1.1006416E+00;  9.9999998E-03; -1.4016069E-01;2741;0.25604838;0.0;-0.04244782;1005.6289;  4.0239862E-01;4524.7603;3;69.876701;0.0;-1.409796;0;0.038977891;  1.0013819E+04;  0.0000000E+00; -2.6025901E-02;  1.0000000E+04;  0.0000000E+00;  9.9788896E+03;-0.19356637;0.0;0.23254426;7194.8052
  1.1006122E+00;  9.9999998E-03; -1.2014013E-01;2742;0.24825779;0.0;-0.03734719;1005.707;  4.0239850E-01;4587.584;3;69.587685;0.0;-0.77751553;0;0.029499158;  1.0015865E+04;  0.0000000E+00; -1.9022482E-03;  1.0000000E+04;  0.0000000E+00;  9.9784043E+03;-0.2231039;0.0;0.25260305;7370.6665
  1.1005894E+00;  9.9999998E-03; -1.0011805E-01;2743;0.24201736;0.0;-0.031620197;1005.767;  4.0239850E-01;4635.8301;3;69.476654;0.0;-0.22253859;0;0.019919723;  1.0017610E+04;  0.0000000E+00; -2.9351676E-04;  1.0000000E+04;  0.0000000E+00;  9.9778564E+03;-0.25080594;0.0;0.27072567;7565.3628
  1.1005714E+00;  9.9999998E-03; -8.0094248E-02;2744;0.23697585;0.0;-0.025383299;1005.807;  4.0239862E-01;4668.064;3;69.446945;0.0;0.12656684;0;0.011990905;  1.0018903E+04;  0.0000000E+00; -1.0165117E-04;  1.0000000E+04;  0.0000000E+00;  9.9773604E+03;-0.27377987;0.0;0.28577077;7740.4009
  1.1005580E+00;  9.9999998E-03; -6.0070347E-02;2745;0.23307072;0.0;-0.019006671;1005.8309;  4.0239856E-01;4687.2568;3;69.437645;0.0;0.32651973;0;0.0063189566;  1.0019790E+04;  0.0000000E+00; -1.2172532E-05;  1.0000000E+04;  0.0000000E+00;  9.9769541E+03;-0.29127324;0.0;0.29759219;7879.8867
  1.1005484E+00;  9.9999998E-03; -4.0046599E-02;2746;0.2302295;0.0;-0.01260085;1005.8442;  4.0239865E-01;4698.0093;3;69.471733;0.0;0.35190722;0;0.0028049052;  1.0020333E+04;  0.0000000E+00;  8.9417154E-06;  1.0000000E+04;  0.0000000E+00;  9.9766709E+03;-0.30330843;0.0;0.30611333;7977.8291
  1.1005427E+00;  9.9999998E-03; -2.0023184E-02;2747;0.2285012;0.0;-0.0062650568;1005.8503;  4.0239877E-01;4702.9082;3;69.540611;0.0;0.22566813;0;0.00097966194;  1.0020629E+04;  0.0000000E+00;  4.2340671E-06;  1.0000000E+04;  0.0000000E+00;  9.9765039E+03;-0.31026208;0.0;0.31124175;8034.6372
  1.1207113E+00;  9.9999998E-03; -1.8017091E-01;2768;0.2742531;0.0;-0.043993808;1004.7601;  4.0209985E-01;3788.4546;3;73.549622;0.0;-3.033041;0;0.020474762;  1.0010051E+04;  0.0000000E+00; -7.8367758E-01;  1.0000000E+04;  0.0000000E+00;  9.9802217E+03;-0.15851964;0.0;0.1789944;6671.8062
  1.1206628E+00;  9.9999998E-03; -1.6015519E-01;2769;0.26169091;0.0;-0.041165058;1004.8071;  4.0210015E-01;3825.9402;3;70.793243;0.0;-2.4486859;0;0.021087632;  1.0010617E+04;  0.0000000E+00; -3.4616414E-01;  1.0000000E+04;  0.0000000E+00;  9.9805762E+03;-0.16822684;0.0;0.18931447;6131.6802
  1.1206239E+00;  9.9999998E-03; -1.4014073E-01;2770;0.25134122;0.0;-0.038173672;1004.8814;  4.0210003E-01;3885.1343;3;69.578262;0.0;-2.0165293;0;0.016874671;  1.0012007E+04;  0.0000000E+00; -1.0581580E-01;  1.0000000E+04;  0.0000000E+00;  9.9806641E+03;-0.18751504;0.0;0.20438971;6013.3452
  1.1205931E+00;  9.9999998E-03; -1.2012497E-01;2771;0.24276644;0.0;-0.03420265;1004.9685;  4.0210027E-01;3954.5601;3;68.889893;0.0;-1.4063203;0;0.0081462115;  1.0013910E+04;  0.0000000E+00; -1.9141132E-02;  1.0000000E+04;  0.0000000E+00;  9.9804961E+03;-0.21421768;0.0;0.22236389;6070.7656
  1.1205685E+00;  9.9999998E-03; -1.0010627E-01;2772;0.23583448;0.0;-0.029405991;1005.048;  4.0210012E-01;4017.8071;3;68.653809;0.0;-0.95642191;0;-0.0020720065;  1.0015844E+04;  0.0000000E+00; -1.7442969E-03;  1.0000000E+04;  0.0000000E+00;  9.9801465E+03;-0.24271493;0.0;0.24064292;6192.3218
  1.1205498E+00;  9.9999998E-03; -8.0085941E-02;2773;0.23032044;0.0;-0.02380494;1005.1076;  4.0210024E-01;4065.3857;3;68.448174;0.0;-0.45796451;0;-0.011163831;  1.0017438E+04;  0.0000000E+00; -2.7216075E-04;  1.0000000E+04;  0.0000000E+00;  9.9797451E+03;-0.2680195;0.0;0.25685567;6328.8604
  1.1205357E+00;  9.9999998E-03; -6.0064193E-02;2774;0.22607137;0.0;-0.017788718;1005.1461;  4.0210029E-01;4095.9712;3;68.357872;0.0;-0.16624013;0;-0.017942071;  1.0018583E+04;  0.0000000E+00; -1.0827297E-04;  1.0000000E+04;  0.0000000E+00;  9.9793701E+03;-0.28775319;0.0;0.26981112;6452.2437
  1.1205260E+00;  9.9999998E-03; -4.0042546E-02;2775;0.22303686;0.0;-0.011707225;1005.1683;  4.0210018E-01;4113.7373;3;68.295471;0.0;0.068301968;0;-0.022376955;  1.0019318E+04;  0.0000000E+00; -3.0010175E-05;  1.0000000E+04;  0.0000000E+00;  9.9790791E+03;-0.30145648;0.0;0.27907953;6546.6064
  1.1205201E+00;  9.9999998E-03; -2.0021122E-02;2776;0.22126918;0.0;-0.005810916;1005.1793;  4.0210012E-01;4122.4805;3;68.407516;0.0;-0.052639261;0;-0.02481699;  1.0019722E+04;  0.0000000E+00; -4.4904768E-06;  1.0000000E+04;  0.0000000E+00;  9.9788994E+03;-0.30939478;0.0;0.28457779;6604.4829
  1.1407044E+00;  9.9999998E-03; -1.8014942E-01;2796;0.27208492;0.0;-0.037662838;1004.1851;  4.0186062E-01;3288.0239;3;75.793404;0.0;-3.1153152;0;-0.00283508;  1.0009599E+04;  0.0000000E+00; -1.3380588E+00;  1.0000000E+04;  0.0000000E+00;  9.9811309E+03;-0.16755149;0.0;0.16471641;6572.6826
  1.1406516E+00;  9.9999998E-03; -1.6013385E-01;2797;0.25859466;0.0;-0.035332967;1004.1951;  4.0186056E-01;3296.0186;3;71.584305;0.0;-2.5101619;0;0.0026578903;  1.0009321E+04;  0.0000000E+00; -7.3578733E-01;  1.0000000E+04;  0.0000000E+00;  9.9815967E+03;-0.16872488;0.0;0.17138277;5549.3794
  1.1406091E+00;  9.9999998E-03; -1.4012049E-01;2798;0.24706647;0.0;-0.03291348;1004.2431;  4.0186071E-01;3333.8677;3;69.410492;0.0;-2.2070904;0;0.0032005459;  1.0009918E+04;  0.0000000E+00; -3.1667629E-01;  1.0000000E+04;  0.0000000E+00;  9.9819473E+03;-0.17885491;0.0;0.18205546;5096.9961
  1.1405758E+00;  9.9999998E-03; -1.2010793E-01;2799;0.23771134;0.0;-0.030240627;1004.3213;  4.0186077E-01;3395.3936;3;68.41362;0.0;-1.9199518;0;-0.002387926;  1.0011320E+04;  0.0000000E+00; -1.0150071E-01;  1.0000000E+04;  0.0000000E+00;  9.9821045E+03;-0.19857857;0.0;0.19619064;4989.4917
  1.1405499E+00;  9.9999998E-03; -1.0009372E-01;2800;0.22999124;0.0;-0.026473461;1004.4083;  4.0186065E-01;3463.7415;3;67.68541;0.0;-1.3710225;0;-0.011719227;  1.0013107E+04;  0.0000000E+00; -2.2871545E-02;  1.0000000E+04;  0.0000000E+00;  9.9820566E+03;-0.22381011;0.0;0.21209088;5014.4863
  1.1405298E+00;  9.9999998E-03; -8.0076516E-02;2801;0.22389387;0.0;-0.021831019;1004.4849;  4.0186074E-01;3524.022;3;67.398216;0.0;-0.98469466;0;-0.021574423;  1.0014842E+04;  0.0000000E+00; -3.3142348E-03;  1.0000000E+04;  0.0000000E+00;  9.9818506E+03;-0.24907464;0.0;0.22750022;5088.9424
  1.1405151E+00;  9.9999998E-03; -6.0057931E-02;2802;0.21925902;0.0;-0.01645611;1004.5414;  4.0186074E-01;3568.4595;3;67.1054;0.0;-0.51088029;0;-0.029854745;  1.0016237E+04;  0.0000000E+00; -3.6935508E-04;  1.0000000E+04;  0.0000000E+00;  9.9815859E+03;-0.27034312;0.0;0.24048838;5176.0186
  1.1405050E+00;  9.9999998E-03; -4.0038440E-02;2803;0.21602555;0.0;-0.010862375;1004.5775;  4.0186074E-01;3596.8682;3;67.072617;0.0;-0.35376403;0;-0.035687834;  1.0017203E+04;  0.0000000E+00; -9.5465977E-05;  1.0000000E+04;  0.0000000E+00;  9.9813457E+03;-0.28568119;0.0;0.24999335;5251.5542
  1.1404990E+00;  9.9999998E-03; -2.0019162E-02;2804;0.21417516;0.0;-0.0054186094;1004.5967;  4.0186065E-01;3611.9651;3;67.031616;0.0;-0.24489556;0;-0.03904894;  1.0017745E+04;  0.0000000E+00; -2.1438449E-05;  1.0000000E+04;  0.0000000E+00;  9.9811865E+03;-0.29472351;0.0;0.25567457;5301.0972
  1.1607029E+00;  9.9999998E-03; -1.8013339E-01;2823;0.27027801;0.0;-0.031917144;1003.7323;  4.0167266E-01;2883.989;3;79.527802;0.0;-3.0343678;0;-0.021704733;  1.0009163E+04;  0.0000000E+00; -2.0456483E+00;  1.0000000E+04;  0.0000000E+00;  9.9818994E+03;-0.17526314;0.0;0.1535584;6856.688
  1.1606450E+00;  9.9999998E-03; -1.6011599E-01;2824;0.25623104;0.0;-0.029704519;1003.718;  4.0167290E-01;2872.999;3;73.77504;0.0;-2.5052979;0;-0.013804972;  1.0008393E+04;  0.0000000E+00; -1.3448883E+00;  1.0000000E+04;  0.0000000E+00;  9.9823711E+03;-0.1726355;0.0;0.15883052;5507.4141
  1.1605983E+00;  9.9999998E-03; -1.4010212E-01;2825;0.24373722;0.0;-0.027546702;1003.7272;  4.0167305E-01;2880.3101;3;70.224281;0.0;-2.1842024;0;-0.0077298284;  1.0008106E+04;  0.0000000E+00; -7.3837882E-01;  1.0000000E+04;  0.0000000E+00;  9.9828330E+03;-0.1738859;0.0;0.16615607;4586.9917
  1.1605618E+00;  9.9999998E-03; -1.2009050E-01;2826;0.2332243;0.0;-0.025273975;1003.7761;  4.0167293E-01;2918.1797;3;68.088799;0.0;-1.9636749;0;-0.0078647882;  1.0008682E+04;  0.0000000E+00; -3.3456647E-01;  1.0000000E+04;  0.0000000E+00;  9.9832324E+03;-0.18381724;0.0;0.17595245;4178.7163
  1.1605337E+00;  9.9999998E-03; -1.0007924E-01;2827;0.22485115;0.0;-0.022739962;1003.8505;  4.0167287E-01;2975.8367;3;67.137703;0.0;-1.7181541;0;-0.013608828;  1.0009922E+04;  0.0000000E+00; -1.2398831E-01;  1.0000000E+04;  0.0000000E+00;  9.9834746E+03;-0.201324;0.0;0.18771517;4060.3608
  1.1605124E+00;  9.9999998E-03; -8.0066256E-02;2828;0.21810231;0.0;-0.019165108;1003.9292;  4.0167293E-01;3036.7014;3;66.309662;0.0;-1.1853731;0;-0.022237822;  1.0011425E+04;  0.0000000E+00; -3.6930129E-02;  1.0000000E+04;  0.0000000E+00;  9.9835391E+03;-0.22221313;0.0;0.19997531;4053.8921
  1.1604967E+00;  9.9999998E-03; -6.0050569E-02;2829;0.21296108;0.0;-0.014729358;1003.9965;  4.0167281E-01;3088.7085;3;65.902946;0.0;-0.85175449;0;-0.030919582;  1.0012829E+04;  0.0000000E+00; -8.2011167E-03;  1.0000000E+04;  0.0000000E+00;  9.9834785E+03;-0.24198154;0.0;0.21106195;4087.5801
  1.1604861E+00;  9.9999998E-03; -4.0033951E-02;2830;0.20951803;0.0;-0.0098642418;1004.045;  4.0167284E-01;3126.2368;3;65.754646;0.0;-0.60051084;0;-0.037917718;  1.0013916E+04;  0.0000000E+00; -1.2629615E-03;  1.0000000E+04;  0.0000000E+00;  9.9833643E+03;-0.2575613;0.0;0.21964358;4130.0957
  1.1604800E+00;  9.9999998E-03; -2.0017033E-02;2831;0.20754001;0.0;-0.0049541993;1004.0736;  4.0167281E-01;3148.3665;3;65.650505;0.0;-0.3878122;0;-0.042321816;  1.0014585E+04;  0.0000000E+00; -8.3603743E-05;  1.0000000E+04;  0.0000000E+00;  9.9832656E+03;-0.26726994;0.0;0.22494812;4162.1626
  1.1807114E+00;  9.9999998E-03; -1.8012701E-01;2849;0.26904505;0.0;-0.027296087;1003.3286;  4.0152842E-01;2518.3896;3;84.749352;0.0;-2.4502776;0;-0.030403852;  1.0007914E+04;  0.0000000E+00; -2.7913120E+00;  1.0000000E+04;  0.0000000E+00;  9.9822998E+03;-0.17520243;0.0;0.14479858;7097.3486
  1.1806458E+00;  9.9999998E-03; -1.6010539E-01;2850;0.25458282;0.0;-0.024984026;1003.3585;  4.0152836E-01;2541.2241;3;77.286621;0.0;-2.2696004;0;-0.029087245;  1.0007817E+04;  0.0000000E+00; -2.1189339E+00;  1.0000000E+04;  0.0000000E+00;  9.9829717E+03;-0.17941196;0.0;0.15032472;5821.6694
  1.1805927E+00;  9.9999998E-03; -1.4008826E-01;2851;0.24116555;0.0;-0.022595089;1003.3458;  4.0152863E-01;2531.7305;3;72.250549;0.0;-2.021066;0;-0.021512866;  1.0007019E+04;  0.0000000E+00; -1.3952323E+00;  1.0000000E+04;  0.0000000E+00;  9.9835068E+03;-0.17690828;0.0;0.15539542;4596.4561
  1.1805520E+00;  9.9999998E-03; -1.2007541E-01;2852;0.22984669;0.0;-0.020443747;1003.352;  4.0152863E-01;2536.6326;3;69.075569;0.0;-1.8388476;0;-0.01556319;  1.0006633E+04;  0.0000000E+00; -7.9534191E-01;  1.0000000E+04;  0.0000000E+00;  9.9840127E+03;-0.17716411;0.0;0.16160092;3771.7234
  1.1805211E+00;  9.9999998E-03; -1.0006487E-01;2853;0.22049241;0.0;-0.018175459;1003.3911;  4.0152860E-01;2566.2246;3;66.953476;0.0;-1.5744843;0;-0.015347347;  1.0006972E+04;  0.0000000E+00; -3.9069834E-01;  1.0000000E+04;  0.0000000E+00;  9.9844521E+03;-0.18407549;0.0;0.16872814;3378.4543
  1.1804978E+00;  9.9999998E-03; -8.0054395E-02;2854;0.21313158;0.0;-0.015708225;1003.4498;  4.0152860E-01;2610.7715;3;65.749985;0.0;-1.3217777;0;-0.019905075;  1.0007832E+04;  0.0000000E+00; -1.6331953E-01;  1.0000000E+04;  0.0000000E+00;  9.9847637E+03;-0.19632448;0.0;0.17641941;3240.5383
  1.1804811E+00;  9.9999998E-03; -6.0042452E-02;2855;0.2076451;0.0;-0.012454326;1003.5107;  4.0152851E-01;2656.9238;3;64.953201;0.0;-0.91381043;0;-0.02681537;  1.0008882E+04;  0.0000000E+00; -5.5517107E-02;  1.0000000E+04;  0.0000000E+00;  9.9849287E+03;-0.21051916;0.0;0.1837038;3206.7295
  1.1804699E+00;  9.9999998E-03; -4.0028807E-02;2856;0.203844;0.0;-0.0085062385;1003.5609;  4.0152863E-01;2694.9412;3;64.653732;0.0;-0.78827238;0;-0.033566922;  1.0009824E+04;  0.0000000E+00; -1.3993566E-02;  1.0000000E+04;  0.0000000E+00;  9.9849893E+03;-0.22327074;0.0;0.18970382;3208.3926
  1.1804634E+00;  9.9999998E-03; -2.0014478E-02;2857;0.20175545;0.0;-0.0043316577;1003.5936;  4.0152854E-01;2719.7717;3;64.471039;0.0;-0.4474684;0;-0.038326308;  1.0010465E+04;  0.0000000E+00; -1.9131352E-03;  1.0000000E+04;  0.0000000E+00;  9.9849980E+03;-0.23195127;0.0;0.19362496;3217.4993
  1.2007262E+00;  9.9999998E-03; -1.8012774E-01;2873;0.26833454;0.0;-0.024137821;1002.8722;  4.0141976E-01;2116.9312;3;92.610016;0.0;-1.7060256;0;-0.012363285;  1.0004310E+04;  0.0000000E+00; -3.2313900E+00;  1.0000000E+04;  0.0000000E+00;  9.9822158E+03;-0.15173474;0.0;0.13937145;6578.479
  1.2006601E+00;  9.9999998E-03; -1.6010648E-01;2874;0.25440526;0.0;-0.021952638;1003.0093;  4.0141988E-01;2218.1831;3;83.071701;0.0;-1.4189303;0;-0.029677764;  1.0006194E+04;  0.0000000E+00; -2.9101348E+00;  1.0000000E+04;  0.0000000E+00;  9.9830518E+03;-0.17644198;0.0;0.14676422;6019.8423
  1.2005972E+00;  9.9999998E-03; -1.4008412E-01;2875;0.23973624;0.0;-0.018971752;1003.0664;  4.0141988E-01;2260.4785;3;76.350105;0.0;-1.5214686;0;-0.036448598;  1.0006411E+04;  0.0000000E+00; -2.1870706E+00;  1.0000000E+04;  0.0000000E+00;  9.9839629E+03;-0.18504062;0.0;0.14859203;4854.0791
  1.2005484E+00;  9.9999998E-03; -1.2006638E-01;2876;0.227284;0.0;-0.016283134;1003.0588;  4.0141994E-01;2255.0132;3;71.579025;0.0;-1.3872584;0;-0.03061302;  1.0005592E+04;  0.0000000E+00; -1.4537151E+00;  1.0000000E+04;  0.0000000E+00;  9.9846211E+03;-0.18191877;0.0;0.15130575;3783.0129
  1.2005130E+00;  9.9999998E-03; -1.0005362E-01;2877;0.21722217;0.0;-0.014009031;1003.0518;  4.0142000E-01;2250.031;3;68.476349;0.0;-1.3678337;0;-0.024310946;  1.0004926E+04;  0.0000000E+00; -8.5142982E-01;  1.0000000E+04;  0.0000000E+00;  9.9851426E+03;-0.17864788;0.0;0.15433693;3052.0867
  1.2004874E+00;  9.9999998E-03; -8.0043688E-02;2878;0.2091803;0.0;-0.011762644;1003.0688;  4.0141997E-01;2262.5947;3;66.032166;0.0;-1.0727328;0;-0.022714943;  1.0004827E+04;  0.0000000E+00; -4.2999035E-01;  1.0000000E+04;  0.0000000E+00;  9.9855771E+03;-0.17995884;0.0;0.15724389;2680.1304
  1.2004689E+00;  9.9999998E-03; -6.0033955E-02;2879;0.20323522;0.0;-0.0095030563;1003.1025;  4.0142003E-01;2287.5295;3;64.836594;0.0;-0.88289392;0;-0.025289282;  1.0005170E+04;  0.0000000E+00; -1.8002447E-01;  1.0000000E+04;  0.0000000E+00;  9.9859063E+03;-0.18523762;0.0;0.15994833;2537.0369
  1.2004567E+00;  9.9999998E-03; -4.0023256E-02;2880;0.19930139;0.0;-0.0067675347;1003.1387;  4.0141991E-01;2314.2017;3;64.302521;0.0;-0.72671473;0;-0.029874071;  1.0005679E+04;  0.0000000E+00; -5.7603184E-02;  1.0000000E+04;  0.0000000E+00;  9.9861221E+03;-0.19207668;0.0;0.16220261;2491.3486
  1.2004498E+00;  9.9999998E-03; -2.0011781E-02;2881;0.19695456;0.0;-0.0034647328;1003.1655;  4.0141991E-01;2334.0015;3;63.878361;0.0;-0.4189347;0;-0.033861741;  1.0006102E+04;  0.0000000E+00; -1.0773335E-02;  1.0000000E+04;  0.0000000E+00;  9.9862393E+03;-0.19761221;0.0;0.16375047;2477.8821
  1.2207351E+00;  9.9999998E-03; -1.8013087E-01;2896;0.26602158;0.0;-0.022568431;1002.3544;  4.0133989E-01;1680.9135;3;103.64326;0.0;-2.0234487;0;0.040412091;  9.9982578E+03;  0.0000000E+00; -2.5514436E+00;  1.0000000E+04;  0.0000000E+00;  9.9819229E+03;-0.098351024;0.0;0.13876311;4506.9082
  1.2206786E+00;  9.9999998E-03; -1.6011195E-01;2897;0.25389054;0.0;-0.019843703;1002.5681;  4.0133989E-01;1833.6946;3;91.687103;0.0;-0.65595824;0;-0.00060458481;  1.0001713E+04;  0.0000000E+00; -3.2192228E+00;  1.0000000E+04;  0.0000000E+00;  9.9827324E+03;-0.14552827;0.0;0.14492369;5308.585
  1.2206173E+00;  9.9999998E-03; -1.4009175E-01;2898;0.24024221;0.0;-0.017463613;1002.7333;  4.0133977E-01;1951.7903;3;82.856445;0.0;-0.53985745;0;-0.027192324;  1.0003963E+04;  0.0000000E+00; -2.8841767E+00;  1.0000000E+04;  0.0000000E+00;  9.9837676E+03;-0.17516567;0.0;0.14797334;4831.5522
  1.2205595E+00;  9.9999998E-03; -1.2007020E-01;2899;0.22639063;0.0;-0.014056575;1002.8195;  4.0133989E-01;2013.6239;3;76.193161;0.0;-0.4904581;0;-0.043158293;  1.0004618E+04;  0.0000000E+00; -2.1462131E+00;  1.0000000E+04;  0.0000000E+00;  9.9848223E+03;-0.18836118;0.0;0.14520289;3860.2603
  1.2205141E+00;  9.9999998E-03; -1.0005143E-01;2900;0.21493176;0.0;-0.011014887;1002.8264;  4.0133998E-01;2018.6354;3;71.560661;0.0;-0.71710414;0;-0.041718796;  1.0003981E+04;  0.0000000E+00; -1.3993578E+00;  1.0000000E+04;  0.0000000E+00;  9.9855869E+03;-0.18485217;0.0;0.14313337;2964.3137
  1.2204827E+00;  9.9999998E-03; -8.0037802E-02;2901;0.20630735;0.0;-0.0085090501;1002.806;  4.0133992E-01;2004.27;3;68.37883;0.0;-0.67696398;0;-0.035922185;  1.0003057E+04;  0.0000000E+00; -7.9436773E-01;  1.0000000E+04;  0.0000000E+00;  9.9860996E+03;-0.17744467;0.0;0.14152248;2366.0818
  1.2204615E+00;  9.9999998E-03; -6.0027752E-02;2902;0.19994545;0.0;-0.0064598587;1002.7975;  4.0133989E-01;1998.2126;3;66.133743;0.0;-0.50903702;0;-0.032985315;  1.0002504E+04;  0.0000000E+00; -3.7715322E-01;  1.0000000E+04;  0.0000000E+00;  9.9864785E+03;-0.17287332;0.0;0.139888;2072.9092
  1.2204477E+00;  9.9999998E-03; -4.0018957E-02;2903;0.195536;0.0;-0.0046041198;1002.8035;  4.0133995E-01;2002.5181;3;64.995468;0.0;-0.42501259;0;-0.033660546;  1.0002346E+04;  0.0000000E+00; -1.3825886E-01;  1.0000000E+04;  0.0000000E+00;  9.9867607E+03;-0.17204008;0.0;0.13837953;1965.3234
  1.2204399E+00;  9.9999998E-03; -2.0009682E-02;2904;0.19303139;0.0;-0.0024533169;1002.8138;  4.0133995E-01;2009.9535;3;64.495621;0.0;-0.32716975;0;-0.03558898;  1.0002372E+04;  0.0000000E+00; -2.9306920E-02;  1.0000000E+04;  0.0000000E+00;  9.9869355E+03;-0.17286944;0.0;0.13728046;1930.6687
  1.2407235E+00;  9.9999998E-03; -1.8012850E-01;2917;0.2596994;0.0;-0.021063004;1002.05;  4.0128234E-01;1409.6897;3;117.31812;0.0;-3.3729215;0;0.074762478;  9.9943682E+03;  0.0000000E+00; -1.8191695E-02;  1.0000000E+04;  0.0000000E+00;  9.9826152E+03;-0.059895143;0.0;0.13465762;1958.4792
  1.2406819E+00;  9.9999998E-03; -1.6011360E-01;2918;0.24989624;0.0;-0.017932886;1002.1686;  4.0128213E-01;1491.2957;3;103.37994;0.0;-1.2338554;0;0.03853859;  9.9964385E+03;  0.0000000E+00; -2.0158770E+00;  1.0000000E+04;  0.0000000E+00;  9.9829063E+03;-0.099118516;0.0;0.13765711;3058.2156
  1.2406350E+00;  9.9999998E-03; -1.4009884E-01;2919;0.23909567;0.0;-0.015877912;1002.3018;  4.0128225E-01;1583.099;3;92.42469;0.0;-0.090607502;0;0.01042816;  9.9985908E+03;  0.0000000E+00; -2.7671843E+00;  1.0000000E+04;  0.0000000E+00;  9.9834111E+03;-0.13472979;0.0;0.14515795;3757.5503
  1.2405849E+00;  9.9999998E-03; -1.2008196E-01;2920;0.22673406;0.0;-0.013350565;1002.4431;  4.0128219E-01;1680.4246;3;83.460365;0.0;0.6225974;0;-0.022963062;  1.0000491E+04;  0.0000000E+00; -2.5527442E+00;  1.0000000E+04;  0.0000000E+00;  9.9843242E+03;-0.16687228;0.0;0.14390922;3511.2339
  1.2405355E+00;  9.9999998E-03; -1.0006336E-01;2921;0.21483226;0.0;-0.010436161;1002.5491;  4.0128219E-01;1753.4935;3;77.168579;0.0;0.60261589;0;-0.043188632;  1.0001603E+04;  0.0000000E+00; -1.8623477E+00;  1.0000000E+04;  0.0000000E+00;  9.9853242E+03;-0.18081065;0.0;0.13762201;2810.0056
  1.2404941E+00;  9.9999998E-03; -8.0044970E-02;2922;0.20479763;0.0;-0.0072077434;1002.5939;  4.0128213E-01;1784.4758;3;72.612968;0.0;0.3927823;0;-0.050872132;  1.0001681E+04;  0.0000000E+00; -1.1317644E+00;  1.0000000E+04;  0.0000000E+00;  9.9861289E+03;-0.18058543;0.0;0.1297133;2153.2751
  1.2404648E+00;  9.9999998E-03; -6.0029712E-02;2923;0.1976393;0.0;-0.0046646995;1002.5916;  4.0128210E-01;1783.0229;3;69.927681;0.0;0.064177901;0;-0.04939311;  1.0001113E+04;  0.0000000E+00; -5.7351947E-01;  1.0000000E+04;  0.0000000E+00;  9.9866455E+03;-0.17272145;0.0;0.12332834;1763.4167
  1.2404467E+00;  9.9999998E-03; -4.0018559E-02;2924;0.19282736;0.0;-0.0028816229;1002.5772;  4.0128207E-01;1773.1638;3;67.928314;0.0;0.077513486;0;-0.047303535;  1.0000516E+04;  0.0000000E+00; -2.2600053E-01;  1.0000000E+04;  0.0000000E+00;  9.9869551E+03;-0.1657708;0.0;0.11846726;1603.4319
  1.2404368E+00;  9.9999998E-03; -2.0009348E-02;2925;0.19002594;0.0;-0.0014629384;1002.5697;  4.0128222E-01;1768.0316;3;67.031174;0.0;0.14017655;0;-0.047221385;  1.0000170E+04;  0.0000000E+00; -5.1065110E-02;  1.0000000E+04;  0.0000000E+00;  9.9871455E+03;-0.16238539;0.0;0.115164;1552.0505
  1.2606624E+00;  9.9999998E-03; -1.6010900E-01;2936;0.24157079;0.0;-0.015840147;1002.0959;  4.0124139E-01;1380.8484;3;116.25466;0.0;-2.2674065;0;0.031143032;  9.9958096E+03;  0.0000000E+00;  7.5602508E-01;  1.0000000E+04;  0.0000000E+00;  9.9841250E+03;-0.092727639;0.0;0.12387067;1646.2581
  1.2606301E+00;  9.9999998E-03; -1.4009804E-01;2937;0.23328474;0.0;-0.013503562;1002.0635;  4.0124130E-01;1359.5856;3;104.59092;0.0;-0.57552862;0;0.027429529;  9.9953369E+03;  0.0000000E+00; -9.6971732E-01;  1.0000000E+04;  0.0000000E+00;  9.9839443E+03;-0.10338833;0.0;0.13081786;1739.619
  1.2605933E+00;  9.9999998E-03; -1.2008535E-01;2938;0.22307459;0.0;-0.010942172;1002.1116;  4.0124136E-01;1391.4333;3;93.946152;0.0;0.80425078;0;-0.0035754293;  9.9959648E+03;  0.0000000E+00; -1.7541915E+00;  1.0000000E+04;  0.0000000E+00;  9.9842715E+03;-0.13481686;0.0;0.13124143;2181.2771
  1.2605569E+00;  9.9999998E-03; -1.0007282E-01;2939;0.21330534;0.0;-0.0093096616;1002.1592;  4.0124139E-01;1422.892;3;85.655579;0.0;1.4419796;0;-0.022163466;  9.9964082E+03;  0.0000000E+00; -1.7237788E+00;  1.0000000E+04;  0.0000000E+00;  9.9847783E+03;-0.15280217;0.0;0.1306387;2132.4561
  1.2605227E+00;  9.9999998E-03; -8.0057591E-02;2940;0.20384163;0.0;-0.0069984323;1002.2197;  4.0124124E-01;1462.8337;3;79.349045;0.0;1.9602232;0;-0.043935865;  9.9968320E+03;  0.0000000E+00; -1.2322735E+00;  1.0000000E+04;  0.0000000E+00;  9.9855605E+03;-0.16578157;0.0;0.12184571;1772.3051
  1.2604939E+00;  9.9999998E-03; -6.0041651E-02;2941;0.19651964;0.0;-0.004939646;1002.262;  4.0124139E-01;1490.8208;3;75.304726;0.0;1.8228564;0;-0.052892938;  9.9969756E+03;  0.0000000E+00; -6.8108672E-01;  1.0000000E+04;  0.0000000E+00;  9.9862549E+03;-0.16481757;0.0;0.11192463;1444.0664
  1.2604723E+00;  9.9999998E-03; -4.0026110E-02;2942;0.190983;0.0;-0.0028162913;1002.2885;  4.0124145E-01;1508.3364;3;73.046158;0.0;1.4094646;0;-0.059335686;  9.9970146E+03;  0.0000000E+00; -2.7924246E-01;  1.0000000E+04;  0.0000000E+00;  9.9867344E+03;-0.16233931;0.0;0.10300363;1282.6691
  1.2604595E+00;  9.9999998E-03; -2.0012589E-02;2943;0.18766062;0.0;-0.0011576926;1002.2993;  4.0124136E-01;1515.5303;3;72.041496;0.0;0.86702359;0;-0.062978625;  9.9969727E+03;  0.0000000E+00; -6.4549804E-02;  1.0000000E+04;  0.0000000E+00;  9.9869980E+03;-0.16030924;0.0;0.097330615;1232.0087
  1.2805771E+00;  9.9999998E-03; -1.2008207E-01;2953;0.21530618;0.0;-0.0082754456;1002.1272;  4.0121296E-01;1336.9569;3;105.81969;0.0;0.58040535;0;-0.028585367;  9.9969844E+03;  0.0000000E+00;  3.3242300E-01;  1.0000000E+04;  0.0000000E+00;  9.9849805E+03;-0.13817728;0.0;0.10959191;1218.8401
  1.2805511E+00;  9.9999998E-03; -1.0007250E-01;2954;0.20731917;0.0;-0.0065609282;1002.0491;  4.0121296E-01;1287.963;3;97.040726;0.0;1.6088207;0;-0.032707237;  9.9955410E+03;  0.0000000E+00; -3.8774389E-01;  1.0000000E+04;  0.0000000E+00;  9.9848623E+03;-0.14418338;0.0;0.11147615;1195.5771
  1.2805250E+00;  9.9999998E-03; -8.0059119E-02;2955;0.19909635;0.0;-0.0044895015;1002.0466;  4.0121290E-01;1286.4714;3;89.730179;0.0;2.4798656;0;-0.054900028;  9.9949873E+03;  0.0000000E+00; -5.4929543E-01;  1.0000000E+04;  0.0000000E+00;  9.9853613E+03;-0.16001667;0.0;0.10511664;1171.6066
  1.2805049E+00;  9.9999998E-03; -6.0044538E-02;2956;0.19251549;0.0;-0.0032088412;1002.0183;  4.0121302E-01;1268.7747;3;84.830086;0.0;2.5951838;0;-0.065025456;  9.9938564E+03;  0.0000000E+00; -3.9592722E-01;  1.0000000E+04;  0.0000000E+00;  9.9859326E+03;-0.16270439;0.0;0.097678937;1061.1656
  1.2804900E+00;  9.9999998E-03; -4.0028803E-02;2957;0.18726476;0.0;-0.0019006985;1001.9963;  4.0121305E-01;1254.9568;3;81.856018;0.0;2.3226988;0;-0.077070296;  9.9929326E+03;  0.0000000E+00; -1.8446082E-01;  1.0000000E+04;  0.0000000E+00;  9.9864170E+03;-0.16606003;0.0;0.088989735;964.34247
  1.2804811E+00;  9.9999998E-03; -2.0013742E-02;2958;0.18383697;0.0;-0.00060192531;1001.9785;  4.0121299E-01;1243.8179;3;80.417435;0.0;1.5870699;0;-0.086128399;  9.9922891E+03;  0.0000000E+00; -4.4974383E-02;  1.0000000E+04;  0.0000000E+00;  9.9866973E+03;-0.16873179;0.0;0.082603395;914.5567
  1.3005062E+00;  9.9999998E-03; -8.0057010E-02;2966;0.19114222;0.0;-0.0020136815;1002.2416;  4.0119350E-01;1340.3674;3;100.22284;0.0;2.8124924;0;-0.10591274;  9.9998467E+03;  0.0000000E+00;  5.9558630E-01;  1.0000000E+04;  0.0000000E+00;  9.9853506E+03;-0.19057885;0.0;0.084666111;1110.8185
  1.3004893E+00;  9.9999998E-03; -6.0042065E-02;2967;0.1855239;0.0;-0.00024302876;1002.2081;  4.0119359E-01;1320.3943;3;95.426796;0.0;3.3814352;0;-0.11313226;  9.9986787E+03;  0.0000000E+00;  2.1108131E-01;  1.0000000E+04;  0.0000000E+00;  9.9858525E+03;-0.19161718;0.0;0.078484915;996.1131
  1.3004764E+00;  9.9999998E-03; -4.0026587E-02;2968;0.1810786;0.0;0.00063948345;1002.1794;  4.0119377E-01;1303.2572;3;92.808884;0.0;2.7460501;0;-0.12167308;  9.9977354E+03;  0.0000000E+00;  5.4589648E-02;  1.0000000E+04;  0.0000000E+00;  9.9862236E+03;-0.19500101;0.0;0.073327929;934.96826
  1.3004688E+00;  9.9999998E-03; -2.0012466E-02;2969;0.17851175;0.0;0.00048328826;1002.1533;  4.0119365E-01;1287.6704;3;91.834267;0.0;0.99759662;0;-0.12573943;  9.9970244E+03;  0.0000000E+00;  8.2770679E-03;  1.0000000E+04;  0.0000000E+00;  9.9864092E+03;-0.19544362;0.0;0.069704182;900.77197
 -5.9543231E-06;  9.9999998E-03; -1.2438245E-13;1045;-0.0037932144;0.0;6.4939623e-11;1000.1285;  4.0000001E-01;106.46611;3;-2.4892426;0.0;-5.9706872e-07;0;-0.074810021;  1.0002601E+04;  0.0000000E+00;  2.1816796E-16;  1.0000000E+04;  0.0000000E+00;  9.9999727E+03;-0.075795561;0.0;0.00098553987;22.92802
 -5.9579452E-06;  9.9999998E-03;  2.0000024E-02;1046;-0.0037953542;0.0;1.9722853e-05;1000.1285;  4.0000001E-01;106.46611;3;-2.4900265;0.0;0.01826678;0;-0.074807882;  1.0002602E+04;  0.0000000E+00; -5.5605763E-12;  1.0000000E+04;  0.0000000E+00;  9.9999697E+03;-0.075832434;0.0;0.0010245505;23.603113
 -5.9678678E-06;  9.9999998E-03;  4.0000055E-02;1047;-0.0038011996;0.0;4.1902971e-05;1000.1285;  4.0000001E-01;106.46611;3;-2.4921856;0.0;0.037650779;0;-0.074791312;  1.0002606E+04;  0.0000000E+00; -1.3567232E-10;  1.0000000E+04;  0.0000000E+00;  9.9999668E+03;-0.075931065;0.0;0.0011397511;25.600111
 -5.9814629E-06;  9.9999998E-03;  6.0000088E-02;1048;-0.0038089785;0.0;6.8775844e-05;1000.1285;  4.0000001E-01;106.46611;3;-2.4944382;0.0;0.059941337;0;-0.074728757;  1.0002611E+04;  0.0000000E+00; -3.8145934E-10;  1.0000000E+04;  0.0000000E+00;  9.9999590E+03;-0.076054268;0.0;0.0013255142;28.830683
 -5.9937911E-06;  9.9999998E-03;  8.0000140E-02;1049;-0.0038155648;0.0;0.00010295172;1000.1282;  4.0000001E-01;106.26859;3;-2.4950848;0.0;0.085723281;0;-0.07456594;  1.0002614E+04;  0.0000000E+00; -8.5540386E-10;  1.0000000E+04;  0.0000000E+00;  9.9999502E+03;-0.076137714;0.0;0.0015717709;33.132393
 -5.9981335E-06;  9.9999998E-03;  1.0000020E-01;1050;-0.0038165872;0.0;0.00014523392;1000.1275;  4.0000001E-01;105.67601;3;-2.4911356;0.0;0.11631522;0;-0.074224144;  1.0002614E+04;  0.0000000E+00; -2.0413244E-09;  1.0000000E+04;  0.0000000E+00;  9.9999365E+03;-0.076086588;0.0;0.0018624415;38.237446
 -5.9841118E-06;  9.9999998E-03;  1.2000028E-01;1051;-0.0038053696;0.0;0.00019862287;1000.1267;  4.0000001E-01;104.98467;3;-2.4785919;0.0;0.15280852;0;-0.073599227;  1.0002606E+04;  0.0000000E+00; -3.0363088E-09;  1.0000000E+04;  0.0000000E+00;  9.9999268E+03;-0.0757716;0.0;0.0021723756;43.718418
 -5.9394270E-06;  9.9999998E-03;  1.4000039E-01;1052;-0.0037742548;0.0;0.00026221186;1000.1248;  4.0000001E-01;103.40446;3;-2.4528542;0.0;0.19393507;0;-0.072562277;  1.0002582E+04;  0.0000000E+00; -5.1096833E-09;  1.0000000E+04;  0.0000000E+00;  9.9999150E+03;-0.075025834;0.0;0.0024635531;48.922413
  1.9991612E-02;  9.9999998E-03; -8.3516053E-14;1075;-0.0053058346;0.0;-6.2354375e-13;1000.151;  4.0000001E-01;125.13225;3;-3.0945539;0.0;8.6206001e-07;0;-0.086717486;  1.0003060E+04;  0.0000000E+00; -2.9352802E-17;  1.0000000E+04;  0.0000000E+00;  9.9999619E+03;-0.088044345;0.0;0.0013268566;29.185093
  1.9991605E-02;  9.9999998E-03;  2.0000035E-02;1076;-0.005309429;0.0;2.8681468e-05;1000.151;  4.0000001E-01;125.13225;3;-3.095706;0.0;0.024648301;0;-0.086718082;  1.0003061E+04;  0.0000000E+00;  1.0538737E-11;  1.0000000E+04;  0.0000000E+00;  9.9999609E+03;-0.088095285;0.0;0.0013772018;30.078478
  1.9991588E-02;  9.9999998E-03;  4.0000077E-02;1077;-0.0053193145;0.0;6.0443948e-05;1000.1511;  4.0000001E-01;125.13225;3;-3.0986357;0.0;0.050728172;0;-0.086708881;  1.0003067E+04;  0.0000000E+00; -1.3193133E-10;  1.0000000E+04;  0.0000000E+00;  9.9999541E+03;-0.088234678;0.0;0.0015257939;32.720947
  1.9991564E-02;  9.9999998E-03;  6.0000129E-02;1078;-0.0053332192;0.0;9.7833843e-05;1000.1509;  4.0000001E-01;125.03349;3;-3.1021633;0.0;0.07899224;0;-0.086656354;  1.0003075E+04;  0.0000000E+00; -2.0598132E-10;  1.0000000E+04;  0.0000000E+00;  9.9999443E+03;-0.088421404;0.0;0.0017650522;36.993366
  1.9991538E-02;  9.9999998E-03;  8.0000192E-02;1079;-0.0053467811;0.0;0.00014432833;1000.1509;  4.0000001E-01;125.03349;3;-3.1038628;0.0;0.11160714;0;-0.086502455;  1.0003083E+04;  0.0000000E+00; -8.0896054E-11;  1.0000000E+04;  0.0000000E+00;  9.9999336E+03;-0.088583805;0.0;0.0020813479;42.675953
  1.9991521E-02;  9.9999998E-03;  1.0000028E-01;1080;-0.0053540599;0.0;0.0002012819;1000.1501;  4.0000001E-01;124.4409;3;-3.1006327;0.0;0.14845417;0;-0.086162746;  1.0003085E+04;  0.0000000E+00;  2.1668809E-09;  1.0000000E+04;  0.0000000E+00;  9.9999180E+03;-0.088615522;0.0;0.0024527789;49.404526
  1.9991526E-02;  9.9999998E-03;  1.2000038E-01;1081;-0.0053460994;0.0;0.00027131508;1000.1493;  4.0000001E-01;123.6508;3;-3.0874386;0.0;0.19138005;0;-0.085524537;  1.0003081E+04;  0.0000000E+00;  7.7449664E-09;  1.0000000E+04;  0.0000000E+00;  9.9999023E+03;-0.08837004;0.0;0.0028455015;56.602894
  1.9991575E-02;  9.9999998E-03;  1.4000052E-01;1082;-0.0053111883;0.0;0.00035706026;1000.1474;  4.0000001E-01;122.0706;3;-3.0580769;0.0;0.24136716;0;-0.084446065;  1.0003062E+04;  0.0000000E+00;  2.7055545E-08;  1.0000000E+04;  0.0000000E+00;  9.9998887E+03;-0.087656006;0.0;0.0032099397;63.410988
  3.9988514E-02;  9.9999998E-03;  8.1875973E-14;1106;-0.007215919;0.0;1.6960332e-10;1000.1697;  4.0000001E-01;140.53922;3;-3.8075695;0.0;-9.6472513e-07;0;-0.09576562;  1.0003443E+04;  0.0000000E+00;  5.6846393E-16;  1.0000000E+04;  0.0000000E+00;  9.9999521E+03;-0.097398967;0.0;0.0016333436;34.691666
  3.9988503E-02;  9.9999998E-03;  2.0000044E-02;1107;-0.0072213402;0.0;3.5343455e-05;1000.1697;  4.0000001E-01;140.53922;3;-3.8089714;0.0;0.02883913;0;-0.095773548;  1.0003443E+04;  0.0000000E+00; -6.3821019E-12;  1.0000000E+04;  0.0000000E+00;  9.9999512E+03;-0.097465619;0.0;0.001692069;35.770977
  3.9988477E-02;  9.9999998E-03;  4.0000092E-02;1108;-0.0072365352;0.0;7.3968913e-05;1000.1698;  4.0000001E-01;140.63797;3;-3.8126192;0.0;0.05914703;0;-0.095786609;  1.0003451E+04;  0.0000000E+00;  1.0986493E-10;  1.0000000E+04;  0.0000000E+00;  9.9999443E+03;-0.097651869;0.0;0.0018652603;38.962429
  3.9988436E-02;  9.9999998E-03;  6.0000155E-02;1109;-0.0072583691;0.0;0.00011907674;1000.1699;  4.0000001E-01;140.73674;3;-3.8170757;0.0;0.091242149;0;-0.095771499;  1.0003465E+04;  0.0000000E+00; -1.5156784E-11;  1.0000000E+04;  0.0000000E+00;  9.9999326E+03;-0.097915083;0.0;0.0021435821;44.118484
  3.9988395E-02;  9.9999998E-03;  8.0000229E-02;1110;-0.007281254;0.0;0.00017363942;1000.1697;  4.0000001E-01;140.63797;3;-3.8194818;0.0;0.12712017;0;-0.095670477;  1.0003478E+04;  0.0000000E+00;  4.7393584E-10;  1.0000000E+04;  0.0000000E+00;  9.9999180E+03;-0.098180652;0.0;0.0025101765;50.965897
  3.9988358E-02;  9.9999998E-03;  1.0000034E-01;1111;-0.0072968528;0.0;0.00024068856;1000.1695;  4.0000001E-01;140.44044;3;-3.8160696;0.0;0.16746986;0;-0.095399171;  1.0003486E+04;  0.0000000E+00;  4.2607518E-09;  1.0000000E+04;  0.0000000E+00;  9.9998994E+03;-0.098337084;0.0;0.0029379157;59.052273
  3.9988350E-02;  9.9999998E-03;  1.2000046E-01;1112;-0.0072941771;0.0;0.00032053306;1000.1685;  4.0000001E-01;139.55159;3;-3.8014278;0.0;0.21145451;0;-0.094843104;  1.0003486E+04;  0.0000000E+00;  1.8097321E-08;  1.0000000E+04;  0.0000000E+00;  9.9998818E+03;-0.098228656;0.0;0.0033855506;67.669914
  3.9988399E-02;  9.9999998E-03;  1.4000061E-01;1113;-0.007257354;0.0;0.00041676327;1000.167;  4.0000001E-01;138.36644;3;-3.7680616;0.0;0.26142374;0;-0.093853876;  1.0003474E+04;  0.0000000E+00;  5.3403326E-08;  1.0000000E+04;  0.0000000E+00;  9.9998652E+03;-0.097648837;0.0;0.0037949618;75.791687
  5.9984989E-02;  9.9999998E-03; -6.6102310E-13;1137;-0.0093473308;0.0;2.2624816e-10;1000.1875;  4.0000001E-01;155.35361;3;-4.5844979;0.0;1.8068536e-06;0;-0.10361948;  1.0003803E+04;  0.0000000E+00;  7.5703501E-16;  1.0000000E+04;  0.0000000E+00;  9.9999463E+03;-0.10550739;0.0;0.0018879107;39.454128
  5.9984978E-02;  9.9999998E-03;  2.0000048E-02;1138;-0.0093548754;0.0;3.9109073e-05;1000.1875;  4.0000001E-01;155.35361;3;-4.5860715;0.0;0.031688292;0;-0.10364053;  1.0003808E+04;  0.0000000E+00; -4.8091534E-11;  1.0000000E+04;  0.0000000E+00;  9.9999414E+03;-0.10559145;0.0;0.0019509163;40.670048
  5.9984937E-02;  9.9999998E-03;  4.0000100E-02;1139;-0.0093762772;0.0;8.1455328e-05;1000.1876;  4.0000001E-01;155.45238;3;-4.5902829;0.0;0.064146183;0;-0.10369327;  1.0003821E+04;  0.0000000E+00; -1.4011567E-10;  1.0000000E+04;  0.0000000E+00;  9.9999346E+03;-0.10582976;0.0;0.0021364922;44.26339
  5.9984878E-02;  9.9999998E-03;  6.0000166E-02;1140;-0.0094074747;0.0;0.000130614;1000.1879;  4.0000001E-01;155.6499;3;-4.5952854;0.0;0.098610297;0;-0.10374632;  1.0003836E+04;  0.0000000E+00; -2.2058940E-11;  1.0000000E+04;  0.0000000E+00;  9.9999229E+03;-0.10618017;0.0;0.0024338411;50.061401
  5.9984811E-02;  9.9999998E-03;  8.0000252E-02;1141;-0.0094416337;0.0;0.00018902493;1000.188;  4.0000001E-01;155.74866;3;-4.5981336;0.0;0.13539487;0;-0.10374498;  1.0003853E+04;  0.0000000E+00; -2.2162421E-11;  1.0000000E+04;  0.0000000E+00;  9.9999072E+03;-0.10656837;0.0;0.002823384;57.743523
  5.9984755E-02;  9.9999998E-03;  1.0000036E-01;1142;-0.0094683077;0.0;0.00025986912;1000.188;  4.0000001E-01;155.74866;3;-4.5941944;0.0;0.17591326;0;-0.10360793;  1.0003868E+04;  0.0000000E+00;  3.9074908E-09;  1.0000000E+04;  0.0000000E+00;  9.9998877E+03;-0.10688183;0.0;0.0032739076;66.784447
  5.9984729E-02;  9.9999998E-03;  1.2000050E-01;1143;-0.0094734104;0.0;0.00034458976;1000.1872;  4.0000001E-01;155.05731;3;-4.5774288;0.0;0.21912807;0;-0.10322236;  1.0003881E+04;  0.0000000E+00;  1.9449601E-08;  1.0000000E+04;  0.0000000E+00;  9.9998672E+03;-0.10696139;0.0;0.0037390341;76.37619
  5.9984762E-02;  9.9999998E-03;  1.4000066E-01;1144;-0.0094374791;0.0;0.0004441659;1000.186;  4.0000001E-01;154.16846;3;-4.539432;0.0;0.26641893;0;-0.1024358;  1.0003875E+04;  0.0000000E+00;  6.1945208E-08;  1.0000000E+04;  0.0000000E+00;  9.9998467E+03;-0.10659236;0.0;0.004156549;85.38636
  7.9981133E-02;  9.9999998E-03; -3.6748588E-13;1168;-0.011619201;0.0;-1.2921065e-09;1000.207;  4.0000001E-01;171.45192;3;-5.4395757;0.0;-3.6330466e-06;0;-0.11180758;  1.0004206E+04;  0.0000000E+00; -1.8816457E-16;  1.0000000E+04;  0.0000000E+00;  9.9999385E+03;-0.11392079;0.0;0.0021132159;44.007187
  7.9981118E-02;  9.9999998E-03;  2.0000048E-02;1169;-0.011629181;0.0;4.0387666e-05;1000.2071;  4.0000001E-01;171.55067;3;-5.4413261;0.0;0.03320263;0;-0.11184741;  1.0004210E+04;  0.0000000E+00; -1.7511365E-10;  1.0000000E+04;  0.0000000E+00;  9.9999365E+03;-0.11402367;0.0;0.0021762599;45.309715
  7.9981066E-02;  9.9999998E-03;  4.0000103E-02;1170;-0.011657597;0.0;8.3981518e-05;1000.2075;  4.0000001E-01;171.84697;3;-5.4460235;0.0;0.067062296;0;-0.11195746;  1.0004223E+04;  0.0000000E+00; -4.5895657E-10;  1.0000000E+04;  0.0000000E+00;  9.9999277E+03;-0.114319;0.0;0.0023615425;49.155106
  7.9980984E-02;  9.9999998E-03;  6.0000170E-02;1171;-0.011699676;0.0;0.00013382583;1000.2077;  4.0000001E-01;172.04449;3;-5.4515977;0.0;0.10216761;0;-0.11210882;  1.0004245E+04;  0.0000000E+00; -9.1823232E-10;  1.0000000E+04;  0.0000000E+00;  9.9999150E+03;-0.11476579;0.0;0.002656966;55.345982
  7.9980887E-02;  9.9999998E-03;  8.0000259E-02;1172;-0.01174714;0.0;0.00019304758;1000.2081;  4.0000001E-01;172.34077;3;-5.4546614;0.0;0.13894755;0;-0.11225073;  1.0004268E+04;  0.0000000E+00; -1.1918004E-09;  1.0000000E+04;  0.0000000E+00;  9.9998975E+03;-0.11529134;0.0;0.0030406101;63.517941
  7.9980798E-02;  9.9999998E-03;  1.0000037E-01;1173;-0.011787836;0.0;0.00026353533;1000.2085;  4.0000001E-01;172.73582;3;-5.4502511;0.0;0.17802112;0;-0.11230669;  1.0004296E+04;  0.0000000E+00;  2.0394197E-09;  1.0000000E+04;  0.0000000E+00;  9.9998779E+03;-0.11578494;0.0;0.0034782423;73.085236
  7.9980746E-02;  9.9999998E-03;  1.2000050E-01;1174;-0.011804473;0.0;0.00034831587;1000.2083;  4.0000001E-01;172.5383;3;-5.4314547;0.0;0.21983749;0;-0.11216648;  1.0004314E+04;  0.0000000E+00;  1.7760557E-08;  1.0000000E+04;  0.0000000E+00;  9.9998545E+03;-0.11608737;0.0;0.0039208941;83.172745
  7.9980761E-02;  9.9999998E-03;  1.4000067E-01;1175;-0.011774279;0.0;0.00044568113;1000.2078;  4.0000001E-01;172.14325;3;-5.3891335;0.0;0.26276726;0;-0.11167199;  1.0004320E+04;  0.0000000E+00;  5.6264362E-08;  1.0000000E+04;  0.0000000E+00;  9.9998350E+03;-0.11597953;0.0;0.0043075392;92.615372
  9.9976927E-02;  9.9999998E-03; -2.3055163E-13;1199;-0.01402982;0.0;6.3816558e-10;1000.2305;  4.0000001E-01;190.90816;3;-6.3887181;0.0;4.1544117e-06;0;-0.12136544;  1.0004679E+04;  0.0000000E+00;  2.0607160E-16;  1.0000000E+04;  0.0000000E+00;  9.9999316E+03;-0.12373926;0.0;0.0023738279;49.402191
  9.9976905E-02;  9.9999998E-03;  2.0000048E-02;1200;-0.014042553;0.0;4.093186e-05;1000.2307;  4.0000001E-01;191.10568;3;-6.3906903;0.0;0.034554895;0;-0.12142915;  1.0004686E+04;  0.0000000E+00; -2.7985256E-10;  1.0000000E+04;  0.0000000E+00;  9.9999277E+03;-0.12386246;0.0;0.0024333163;50.754593
  9.9976830E-02;  9.9999998E-03;  4.0000103E-02;1201;-0.014078945;0.0;8.4660227e-05;1000.231;  4.0000001E-01;191.40196;3;-6.3958917;0.0;0.069488682;0;-0.12161206;  1.0004702E+04;  0.0000000E+00; -6.5038791E-10;  1.0000000E+04;  0.0000000E+00;  9.9999189E+03;-0.12421954;0.0;0.002607479;54.740356
  9.9976726E-02;  9.9999998E-03;  6.0000170E-02;1202;-0.014133528;0.0;0.00013406851;1000.2316;  4.0000001E-01;191.89578;3;-6.4021101;0.0;0.10487657;0;-0.12188783;  1.0004726E+04;  0.0000000E+00; -2.2050206E-09;  1.0000000E+04;  0.0000000E+00;  9.9999053E+03;-0.12477054;0.0;0.0028827137;61.132088
  9.9976592E-02;  9.9999998E-03;  8.0000252E-02;1203;-0.014196862;0.0;0.00019184788;1000.2326;  4.0000001E-01;192.68588;3;-6.4056282;0.0;0.14131854;0;-0.12221065;  1.0004760E+04;  0.0000000E+00; -2.7301008E-09;  1.0000000E+04;  0.0000000E+00;  9.9998887E+03;-0.12544531;0.0;0.0032346549;69.516357
  9.9976465E-02;  9.9999998E-03;  1.0000036E-01;1204;-0.014254957;0.0;0.00026029331;1000.2332;  4.0000001E-01;193.17969;3;-6.4010544;0.0;0.17867617;0;-0.12250888;  1.0004796E+04;  0.0000000E+00;  4.0369058E-10;  1.0000000E+04;  0.0000000E+00;  9.9998691E+03;-0.1261353;0.0;0.0036264241;79.246323
  9.9976368E-02;  9.9999998E-03;  1.2000050E-01;1205;-0.014288163;0.0;0.00034095618;1000.2337;  4.0000001E-01;193.57474;3;-6.380847;0.0;0.21707191;0;-0.12267458;  1.0004830E+04;  0.0000000E+00;  1.5027966E-08;  1.0000000E+04;  0.0000000E+00;  9.9998467E+03;-0.12668288;0.0;0.0040082973;89.399323
  9.9976353E-02;  9.9999998E-03;  1.4000067E-01;1206;-0.014269756;0.0;0.00043436501;1000.2337;  4.0000001E-01;193.57474;3;-6.334928;0.0;0.25634381;0;-0.1225423;  1.0004847E+04;  0.0000000E+00;  4.1838316E-08;  1.0000000E+04;  0.0000000E+00;  9.9998281E+03;-0.12686718;0.0;0.0043248767;98.832764
  1.1997226E-01;  9.9999998E-03; -4.3842748E-13;1230;-0.016631145;0.0;6.3535149e-10;1000.2584;  4.0000001E-01;214.0186;3;-7.4360147;0.0;6.1530318e-07;0;-0.13272199;  1.0005254E+04;  0.0000000E+00;  6.2895780E-16;  1.0000000E+04;  0.0000000E+00;  9.9999189E+03;-0.13549212;0.0;0.0027701254;57.113144
  1.1997223E-01;  9.9999998E-03;  2.0000050E-02;1231;-0.016646998;0.0;4.3094802e-05;1000.2587;  4.0000001E-01;214.3149;3;-7.4382157;0.0;0.0368184;0;-0.13281371;  1.0005262E+04;  0.0000000E+00; -2.7093425E-10;  1.0000000E+04;  0.0000000E+00;  9.9999160E+03;-0.13563733;0.0;0.0028236194;58.502609
  1.1997214E-01;  9.9999998E-03;  4.0000107E-02;1232;-0.016692532;0.0;8.8550747e-05;1000.2593;  4.0000001E-01;214.8087;3;-7.4439917;0.0;0.073471174;0;-0.13308112;  1.0005280E+04;  0.0000000E+00; -1.4887366E-09;  1.0000000E+04;  0.0000000E+00;  9.9999082E+03;-0.13606022;0.0;0.0029790991;62.585358
  1.1997200E-01;  9.9999998E-03;  6.0000174E-02;1233;-0.016761621;0.0;0.00013884564;1000.2603;  4.0000001E-01;215.5988;3;-7.450963;0.0;0.11015321;0;-0.1335014;  1.0005313E+04;  0.0000000E+00; -3.1717358E-09;  1.0000000E+04;  0.0000000E+00;  9.9998975E+03;-0.13672219;0.0;0.0032207901;69.090858
  1.1997183E-01;  9.9999998E-03;  8.0000259E-02;1234;-0.016843777;0.0;0.00019621392;1000.2615;  4.0000001E-01;216.6852;3;-7.4551916;0.0;0.14658676;0;-0.13403365;  1.0005354E+04;  0.0000000E+00; -4.0878909E-09;  1.0000000E+04;  0.0000000E+00;  9.9998760E+03;-0.13755462;0.0;0.0035209714;77.537209
  1.1997164E-01;  9.9999998E-03;  1.0000037E-01;1235;-0.016923359;0.0;0.00026291184;1000.2628;  4.0000001E-01;217.77159;3;-7.4507923;0.0;0.18276274;0;-0.13461243;  1.0005400E+04;  0.0000000E+00;  4.2352812E-11;  1.0000000E+04;  0.0000000E+00;  9.9998555E+03;-0.13845171;0.0;0.0038392791;87.194717
  1.1997149E-01;  9.9999998E-03;  1.2000050E-01;1236;-0.016978567;0.0;0.00033954653;1000.2643;  4.0000001E-01;218.95674;3;-7.4299273;0.0;0.21845295;0;-0.1351327;  1.0005448E+04;  0.0000000E+00;  1.6736903E-08;  1.0000000E+04;  0.0000000E+00;  9.9998379E+03;-0.13925822;0.0;0.0041255238;97.083717
  1.1997143E-01;  9.9999998E-03;  1.4000067E-01;1237;-0.016979111;0.0;0.00042804147;1000.2649;  4.0000001E-01;219.45055;3;-7.3815136;0.0;0.25365439;0;-0.13542116;  1.0005482E+04;  0.0000000E+00;  3.3506886E-08;  1.0000000E+04;  0.0000000E+00;  9.9998184E+03;-0.13975376;0.0;0.0043326016;106.10785
  1.3996699E-01;  9.9999998E-03;  9.1783558E-13;1261;-0.019490898;0.0;9.7057484e-10;1000.2913;  4.0000001E-01;241.37585;3;-8.5785675;0.0;1.0679059e-06;0;-0.14582382;  1.0005935E+04;  0.0000000E+00; -1.0469557E-15;  1.0000000E+04;  0.0000000E+00;  9.9998975E+03;-0.14925157;0.0;0.0034277388;68.911674
  1.3996696E-01;  9.9999998E-03;  2.0000059E-02;1262;-0.019510316;0.0;4.9982875e-05;1000.2919;  4.0000001E-01;241.7709;3;-8.5809574;0.0;0.041235331;0;-0.14594537;  1.0005939E+04;  0.0000000E+00; -2.9263463E-11;  1.0000000E+04;  0.0000000E+00;  9.9998945E+03;-0.14941955;0.0;0.0034741757;70.356003
  1.3996685E-01;  9.9999998E-03;  4.0000122E-02;1263;-0.019566361;0.0;0.00010187308;1000.2925;  4.0000001E-01;242.36348;3;-8.5873241;0.0;0.081970856;0;-0.1463034;  1.0005963E+04;  0.0000000E+00; -1.8751114E-09;  1.0000000E+04;  0.0000000E+00;  9.9998877E+03;-0.14991075;0.0;0.003607349;74.581429
  1.3996667E-01;  9.9999998E-03;  6.0000200E-02;1264;-0.0196523;0.0;0.00015763106;1000.2939;  4.0000001E-01;243.54863;3;-8.5951185;0.0;0.12190755;0;-0.14687908;  1.0006004E+04;  0.0000000E+00; -3.9437764E-09;  1.0000000E+04;  0.0000000E+00;  9.9998740E+03;-0.15068722;0.0;0.0038081396;81.252907
  1.3996644E-01;  9.9999998E-03;  8.0000289E-02;1265;-0.019756624;0.0;0.00021908063;1000.2956;  4.0000001E-01;244.9313;3;-8.6001158;0.0;0.160503;0;-0.14763793;  1.0006056E+04;  0.0000000E+00; -5.2412674E-09;  1.0000000E+04;  0.0000000E+00;  9.9998545E+03;-0.15168163;0.0;0.0040437011;89.784424
  1.3996619E-01;  9.9999998E-03;  1.0000041E-01;1266;-0.019862296;0.0;0.0002877643;1000.2975;  4.0000001E-01;246.51151;3;-8.5962839;0.0;0.19755957;0;-0.14852206;  1.0006115E+04;  0.0000000E+00;  7.7970352E-10;  1.0000000E+04;  0.0000000E+00;  9.9998359E+03;-0.15279026;0.0;0.0042682006;99.320427
  1.3996598E-01;  9.9999998E-03;  1.2000055E-01;1267;-0.019945342;0.0;0.00036432652;1000.2997;  4.0000001E-01;248.28923;3;-8.5752029;0.0;0.23238872;0;-0.14943193;  1.0006176E+04;  0.0000000E+00;  2.3287811E-08;  1.0000000E+04;  0.0000000E+00;  9.9998174E+03;-0.15386173;0.0;0.0044298009;108.78788
  1.3996585E-01;  9.9999998E-03;  1.4000072E-01;1268;-0.019972391;0.0;0.00044841866;1000.3013;  4.0000001E-01;249.67192;3;-8.5251083;0.0;0.26397923;0;-0.15018986;  1.0006227E+04;  0.0000000E+00;  3.4503831E-08;  1.0000000E+04;  0.0000000E+00;  9.9998027E+03;-0.15468122;0.0;0.0044913632;117.14598
  1.5996101E-01;  9.9999998E-03; -1.5774723E-12;1292;-0.022662438;0.0;-8.4477708e-10;1000.3294;  4.0000001E-01;272.88113;3;-9.8142271;0.0;2.4322435e-07;0;-0.16045631;  1.0006724E+04;  0.0000000E+00;  2.9252298E-15;  1.0000000E+04;  0.0000000E+00;  9.9998682E+03;-0.16494158;0.0;0.0044852695;86.738808
  1.5996097E-01;  9.9999998E-03;  2.0000080E-02;1293;-0.022685943;0.0;6.5101478e-05;1000.3298;  4.0000001E-01;273.27618;3;-9.8168173;0.0;0.049527042;0;-0.16060731;  1.0006732E+04;  0.0000000E+00; -2.1641240E-10;  1.0000000E+04;  0.0000000E+00;  9.9998623E+03;-0.16513227;0.0;0.0045249537;88.29071
  1.5996082E-01;  9.9999998E-03;  4.0000163E-02;1294;-0.022754032;0.0;0.00013167999;1000.3307;  4.0000001E-01;274.06628;3;-9.8237247;0.0;0.098218247;0;-0.16105555;  1.0006760E+04;  0.0000000E+00; -1.7959738E-09;  1.0000000E+04;  0.0000000E+00;  9.9998555E+03;-0.16569176;0.0;0.0046362109;92.808205
  1.5996060E-01;  9.9999998E-03;  6.0000259E-02;1295;-0.022859378;0.0;0.00020128972;1000.3323;  4.0000001E-01;275.35019;3;-9.832221;0.0;0.14542826;0;-0.16178659;  1.0006811E+04;  0.0000000E+00; -4.0672750E-09;  1.0000000E+04;  0.0000000E+00;  9.9998389E+03;-0.16658174;0.0;0.0047951546;99.864441
  1.5996030E-01;  9.9999998E-03;  8.0000371E-02;1296;-0.0229895;0.0;0.00027520047;1000.3348;  4.0000001E-01;277.32544;3;-9.8379498;0.0;0.19016097;0;-0.16277334;  1.0006871E+04;  0.0000000E+00; -4.7921951E-09;  1.0000000E+04;  0.0000000E+00;  9.9998223E+03;-0.16773513;0.0;0.0049617924;108.7263
  1.5995999E-01;  9.9999998E-03;  1.0000051E-01;1297;-0.023125919;0.0;0.00035448984;1000.3375;  4.0000001E-01;279.59698;3;-9.8345165;0.0;0.23196995;0;-0.16396864;  1.0006944E+04;  0.0000000E+00;  4.3062318E-09;  1.0000000E+04;  0.0000000E+00;  9.9998057E+03;-0.16905119;0.0;0.0050825533;118.36205
  1.5995967E-01;  9.9999998E-03;  1.2000067E-01;1298;-0.023242561;0.0;0.00043856853;1000.3403;  4.0000001E-01;281.96729;3;-9.8132057;0.0;0.26920554;0;-0.16528206;  1.0007021E+04;  0.0000000E+00;  3.8520323E-08;  1.0000000E+04;  0.0000000E+00;  9.9997852E+03;-0.17038514;0.0;0.0051030829;127.57253
  1.5995947E-01;  9.9999998E-03;  1.4000085E-01;1299;-0.023303019;0.0;0.00052473316;1000.3432;  4.0000001E-01;284.33759;3;-9.7615566;0.0;0.3000465;0;-0.16653524;  1.0007093E+04;  0.0000000E+00;  5.3453178E-08;  1.0000000E+04;  0.0000000E+00;  9.9997705E+03;-0.17153499;0.0;0.0049997461;135.42369
  1.7995422E-01;  9.9999998E-03;  5.1825639E-13;1323;-0.026179323;0.0;2.0526625e-09;1000.3723;  4.0000001E-01;308.43567;3;-11.143191;0.0;9.7105612e-06;0;-0.17657536;  1.0007630E+04;  0.0000000E+00;  2.2084898E-15;  1.0000000E+04;  0.0000000E+00;  9.9998145E+03;-0.18265742;0.0;0.0060820505;112.57113
  1.7995414E-01;  9.9999998E-03;  2.0000115E-02;1324;-0.026207441;0.0;9.1989816e-05;1000.3729;  4.0000001E-01;308.92947;3;-11.14596;0.0;0.063024901;0;-0.17675324;  1.0007643E+04;  0.0000000E+00;  7.6788784E-11;  1.0000000E+04;  0.0000000E+00;  9.9998125E+03;-0.18286972;0.0;0.0061164852;114.32156
  1.7995396E-01;  9.9999998E-03;  4.0000238E-02;1325;-0.026289176;0.0;0.00018517901;1000.374;  4.0000001E-01;309.81836;3;-11.153251;0.0;0.12522538;0;-0.17728402;  1.0007678E+04;  0.0000000E+00; -9.0130320E-10;  1.0000000E+04;  0.0000000E+00;  9.9998027E+03;-0.18349396;0.0;0.0062099341;119.39557
  1.7995368E-01;  9.9999998E-03;  6.0000371E-02;1326;-0.026416577;0.0;0.00028077318;1000.3761;  4.0000001E-01;311.59607;3;-11.162248;0.0;0.18534049;0;-0.17815781;  1.0007735E+04;  0.0000000E+00; -3.6416810E-09;  1.0000000E+04;  0.0000000E+00;  9.9997881E+03;-0.18449059;0.0;0.0063327872;127.25066
  1.7995332E-01;  9.9999998E-03;  8.0000527E-02;1327;-0.026576074;0.0;0.00037995077;1000.3788;  4.0000001E-01;313.76886;3;-11.168303;0.0;0.24253726;0;-0.17935638;  1.0007809E+04;  0.0000000E+00; -2.9528366E-09;  1.0000000E+04;  0.0000000E+00;  9.9997656E+03;-0.18579307;0.0;0.0064366953;136.97357
  1.7995290E-01;  9.9999998E-03;  1.0000070E-01;1328;-0.026747629;0.0;0.00048296331;1000.3823;  4.0000001E-01;316.73172;3;-11.164674;0.0;0.29507476;0;-0.18084379;  1.0007896E+04;  0.0000000E+00;  1.2884917E-08;  1.0000000E+04;  0.0000000E+00;  9.9997480E+03;-0.18730359;0.0;0.0064597954;147.3291
  1.7995250E-01;  9.9999998E-03;  1.2000090E-01;1329;-0.026903003;0.0;0.0005873504;1000.386;  4.0000001E-01;319.79337;3;-11.142276;0.0;0.34036732;0;-0.18254024;  1.0007991E+04;  0.0000000E+00;  5.9653914E-08;  1.0000000E+04;  0.0000000E+00;  9.9997275E+03;-0.18888757;0.0;0.0063473214;157.01332
  1.7995217E-01;  9.9999998E-03;  1.4000112E-01;1330;-0.027002657;0.0;0.00068874651;1000.39;  4.0000001E-01;323.15131;3;-11.088144;0.0;0.37579158;0;-0.18426766;  1.0008085E+04;  0.0000000E+00;  9.7543335E-08;  1.0000000E+04;  0.0000000E+00;  9.9997168E+03;-0.19036551;0.0;0.0060978513;165.35414
  1.9994646E-01;  9.9999998E-03; -1.0948224E-12;1354;-0.030074408;0.0;1.2457811e-09;1000.4213;  4.0000001E-01;349.0271;3;-12.567115;0.0;4.5087527e-06;0;-0.19422883;  1.0008680E+04;  0.0000000E+00; -1.7886484E-16;  1.0000000E+04;  0.0000000E+00;  9.9997461E+03;-0.20257421;0.0;0.0083453869;148.22453
  1.9994639E-01;  9.9999998E-03;  2.0000175E-02;1355;-0.030107675;0.0;0.00013412091;1000.4218;  4.0000001E-01;349.42215;3;-12.569952;0.0;0.084285073;0;-0.19442903;  1.0008691E+04;  0.0000000E+00; -3.8673761E-10;  1.0000000E+04;  0.0000000E+00;  9.9997441E+03;-0.20280601;0.0;0.0083769793;150.30421
  1.9994618E-01;  9.9999998E-03;  4.0000357E-02;1356;-0.030204611;0.0;0.00026940304;1000.4232;  4.0000001E-01;350.60733;3;-12.577424;0.0;0.16698259;0;-0.19502762;  1.0008732E+04;  0.0000000E+00; -8.3015572E-10;  1.0000000E+04;  0.0000000E+00;  9.9997305E+03;-0.2034875;0.0;0.0084598865;156.32211
  1.9994582E-01;  9.9999998E-03;  6.0000550E-02;1357;-0.030356623;0.0;0.00040669722;1000.4255;  4.0000001E-01;352.58258;3;-12.586617;0.0;0.24599092;0;-0.19601984;  1.0008800E+04;  0.0000000E+00; -1.9331581E-09;  1.0000000E+04;  0.0000000E+00;  9.9997119E+03;-0.20457892;0.0;0.008559077;165.6116
  1.9994538E-01;  9.9999998E-03;  8.0000773E-02;1358;-0.030548876;0.0;0.00054733211;1000.4287;  4.0000001E-01;355.15039;3;-12.592123;0.0;0.32234156;0;-0.19739455;  1.0008890E+04;  0.0000000E+00;  8.2847895E-11;  1.0000000E+04;  0.0000000E+00;  9.9996895E+03;-0.20601334;0.0;0.0086187907;177.07628
  1.9994485E-01;  9.9999998E-03;  1.0000101E-01;1359;-0.030759459;0.0;0.00069122028;1000.4327;  4.0000001E-01;358.50833;3;-12.587022;0.0;0.39333144;0;-0.1991258;  1.0008990E+04;  0.0000000E+00;  2.3269504E-08;  1.0000000E+04;  0.0000000E+00;  9.9996670E+03;-0.20769766;0.0;0.0085718688;189.30481
  1.9994432E-01;  9.9999998E-03;  1.2000129E-01;1360;-0.030957527;0.0;0.00083520875;1000.4376;  4.0000001E-01;362.55759;3;-12.561644;0.0;0.45589432;0;-0.20114131;  1.0009106E+04;  0.0000000E+00;  8.3059369E-08;  1.0000000E+04;  0.0000000E+00;  9.9996445E+03;-0.20951132;0.0;0.0083700093;200.99744
  1.9994387E-01;  9.9999998E-03;  1.4000158E-01;1361;-0.031100586;0.0;0.00097154186;1000.4423;  4.0000001E-01;366.40933;3;-12.502809;0.0;0.50439799;0;-0.2032579;  1.0009224E+04;  0.0000000E+00;  1.4414879E-07;  1.0000000E+04;  0.0000000E+00;  9.9996250E+03;-0.21130526;0.0;0.0080473535;212.0076
  2.1993765E-01;  9.9999998E-03; -1.1217496E-12;1385;-0.034389731;0.0;3.179794e-09;1000.4763;  4.0000001E-01;394.55667;3;-14.091491;0.0;5.0371204e-06;0;-0.21345782;  1.0009875E+04;  0.0000000E+00;  2.0442022E-15;  1.0000000E+04;  0.0000000E+00;  9.9996533E+03;-0.22483499;0.0;0.011377167;195.14868
  2.1993756E-01;  9.9999998E-03;  2.0000257E-02;1386;-0.034428623;0.0;0.00019388163;1000.4767;  4.0000001E-01;394.95172;3;-14.094245;0.0;0.11269917;0;-0.21367353;  1.0009890E+04;  0.0000000E+00; -3.6842612E-11;  1.0000000E+04;  0.0000000E+00;  9.9996494E+03;-0.22508232;0.0;0.011408796;197.72598
  2.1993729E-01;  9.9999998E-03;  4.0000524E-02;1387;-0.034542225;0.0;0.00038918472;1000.4783;  4.0000001E-01;396.23566;3;-14.101375;0.0;0.22412387;0;-0.21431988;  1.0009935E+04;  0.0000000E+00;  1.8104507E-10;  1.0000000E+04;  0.0000000E+00;  9.9996328E+03;-0.22581035;0.0;0.011490465;205.19597
  2.1993688E-01;  9.9999998E-03;  6.0000811E-02;1388;-0.034721084;0.0;0.00058753684;1000.481;  4.0000001E-01;398.5072;3;-14.109553;0.0;0.33295015;0;-0.21539508;  1.0010013E+04;  0.0000000E+00; -4.4736898E-10;  1.0000000E+04;  0.0000000E+00;  9.9996123E+03;-0.22697884;0.0;0.01158376;216.78168
  2.1993631E-01;  9.9999998E-03;  8.0001123E-02;1389;-0.034948897;0.0;0.00078961649;1000.4844;  4.0000001E-01;401.37131;3;-14.113228;0.0;0.43726233;0;-0.21689221;  1.0010112E+04;  0.0000000E+00;  4.9995430E-09;  1.0000000E+04;  0.0000000E+00;  9.9995840E+03;-0.22852163;0.0;0.011629421;231.24315
  2.1993567E-01;  9.9999998E-03;  1.0000147E-01;1390;-0.035201576;0.0;0.0009955283;1000.4891;  4.0000001E-01;405.22305;3;-14.104675;0.0;0.53539562;0;-0.21879031;  1.0010235E+04;  0.0000000E+00;  2.9288126E-08;  1.0000000E+04;  0.0000000E+00;  9.9995518E+03;-0.23035212;0.0;0.011561809;247.08305
  2.1993500E-01;  9.9999998E-03;  1.2000185E-01;1391;-0.0354455;0.0;0.0012000281;1000.4945;  4.0000001E-01;409.66736;3;-14.074249;0.0;0.61995345;0;-0.22101653;  1.0010373E+04;  0.0000000E+00;  9.8872071E-08;  1.0000000E+04;  0.0000000E+00;  9.9995195E+03;-0.23236635;0.0;0.011349822;263.18539
  2.1993440E-01;  9.9999998E-03;  1.4000225E-01;1392;-0.035634588;0.0;0.0013939338;1000.5002;  4.0000001E-01;414.40796;3;-14.006878;0.0;0.69268733;0;-0.2233739;  1.0010521E+04;  0.0000000E+00;  1.6783932E-07;  1.0000000E+04;  0.0000000E+00;  9.9994912E+03;-0.23444997;0.0;0.011076059;280.21118
  2.3992762E-01;  9.9999998E-03; -2.8256426E-13;1416;-0.039174221;0.0;1.5942543e-09;1000.5381;  4.0000001E-01;445.81448;3;-15.722232;0.0;-1.8180435e-07;0;-0.23433459;  1.0011233E+04;  0.0000000E+00; -1.7606110E-15;  1.0000000E+04;  0.0000000E+00;  9.9995352E+03;-0.24957684;0.0;0.015242243;254.27242
  2.3992752E-01;  9.9999998E-03;  2.0000368E-02;1417;-0.039219145;0.0;0.00027407901;1000.5387;  4.0000001E-01;446.30829;3;-15.724674;0.0;0.15111862;0;-0.2345577;  1.0011247E+04;  0.0000000E+00;  1.1716729E-09;  1.0000000E+04;  0.0000000E+00;  9.9995273E+03;-0.24983442;0.0;0.015276714;257.54752
  2.3992719E-01;  9.9999998E-03;  4.0000752E-02;1418;-0.039350759;0.0;0.00054928602;1000.5405;  4.0000001E-01;447.78973;3;-15.731678;0.0;0.29698357;0;-0.23522688;  1.0011306E+04;  0.0000000E+00;  1.9968971E-09;  1.0000000E+04;  0.0000000E+00;  9.9995098E+03;-0.2505936;0.0;0.015366714;267.08044
  2.3992668E-01;  9.9999998E-03;  6.0001157E-02;1419;-0.039558452;0.0;0.00082856353;1000.5433;  4.0000001E-01;450.16003;3;-15.737904;0.0;0.44216433;0;-0.23634107;  1.0011389E+04;  0.0000000E+00;  1.2655417E-09;  1.0000000E+04;  0.0000000E+00;  9.9994795E+03;-0.25181511;0.0;0.01547404;282.02032
  2.3992601E-01;  9.9999998E-03;  8.0001600E-02;1420;-0.039824191;0.0;0.0011122522;1000.5473;  4.0000001E-01;453.41922;3;-15.738001;0.0;0.58233523;0;-0.23789373;  1.0011506E+04;  0.0000000E+00;  4.1010675E-09;  1.0000000E+04;  0.0000000E+00;  9.9994424E+03;-0.25343588;0.0;0.015542148;301.05811
  2.3992522E-01;  9.9999998E-03;  1.0000209E-01;1421;-0.040121421;0.0;0.001400059;1000.5521;  4.0000001E-01;457.46848;3;-15.723625;0.0;0.71548182;0;-0.23986003;  1.0011648E+04;  0.0000000E+00;  2.6738423E-08;  1.0000000E+04;  0.0000000E+00;  9.9993994E+03;-0.25537595;0.0;0.015515924;322.73376
  2.3992440E-01;  9.9999998E-03;  1.2000261E-01;1422;-0.040413145;0.0;0.001687981;1000.558;  4.0000001E-01;462.30783;3;-15.683346;0.0;0.83894676;0;-0.24215694;  1.0011810E+04;  0.0000000E+00;  8.0426659E-08;  1.0000000E+04;  0.0000000E+00;  9.9993545E+03;-0.25754887;0.0;0.015391937;346.2894
  2.3992363E-01;  9.9999998E-03;  1.4000317E-01;1423;-0.040649936;0.0;0.0019653332;1000.5641;  4.0000001E-01;467.34473;3;-15.604367;0.0;0.94087833;0;-0.24456644;  1.0011987E+04;  0.0000000E+00;  1.3603865E-07;  1.0000000E+04;  0.0000000E+00;  9.9993027E+03;-0.25987318;0.0;0.015306739;373.34561
  2.5991619E-01;  9.9999998E-03; -1.7605207E-12;1447;-0.044483233;0.0;-1.3631722e-09;1000.6079;  4.0000001E-01;503.68933;3;-17.470592;0.0;-9.7790689e-07;0;-0.25697872;  1.0012773E+04;  0.0000000E+00; -8.3729313E-17;  1.0000000E+04;  0.0000000E+00;  9.9993906E+03;-0.27693909;0.0;0.019960368;325.91418
  2.5991607E-01;  9.9999998E-03;  2.0000508E-02;1448;-0.04453446;0.0;0.00037377511;1000.6085;  4.0000001E-01;504.08438;3;-17.472322;0.0;0.19595338;0;-0.25720018;  1.0012793E+04;  0.0000000E+00; -9.0313687E-11;  1.0000000E+04;  0.0000000E+00;  9.9993809E+03;-0.27719986;0.0;0.019999685;330.10867
  2.5991568E-01;  9.9999998E-03;  4.0001031E-02;1449;-0.044684358;0.0;0.00074997946;1000.6103;  4.0000001E-01;505.56583;3;-17.476372;0.0;0.39015606;0;-0.25786448;  1.0012854E+04;  0.0000000E+00;  1.6903996E-09;  1.0000000E+04;  0.0000000E+00;  9.9993555E+03;-0.27797002;0.0;0.020105539;342.38522
  2.5991508E-01;  9.9999998E-03;  6.0001589E-02;1450;-0.044921622;0.0;0.0011311929;1000.6132;  4.0000001E-01;508.03491;3;-17.478746;0.0;0.58170277;0;-0.25896892;  1.0012954E+04;  0.0000000E+00;  3.5794645E-09;  1.0000000E+04;  0.0000000E+00;  9.9993184E+03;-0.27921301;0.0;0.020244082;361.86667
  2.5991428E-01;  9.9999998E-03;  8.0002196E-02;1451;-0.045226619;0.0;0.0015193477;1000.6173;  4.0000001E-01;511.39282;3;-17.473045;0.0;0.76736367;0;-0.26050273;  1.0013084E+04;  0.0000000E+00;  2.0812170E-09;  1.0000000E+04;  0.0000000E+00;  9.9992666E+03;-0.28087097;0.0;0.020368256;387.25513
  2.5991333E-01;  9.9999998E-03;  1.0000286E-01;1452;-0.045569547;0.0;0.0019114831;1000.6225;  4.0000001E-01;515.7384;3;-17.448809;0.0;0.94282746;0;-0.26243103;  1.0013249E+04;  0.0000000E+00;  5.6353087E-09;  1.0000000E+04;  0.0000000E+00;  9.9992090E+03;-0.28287232;0.0;0.020441283;417.22806
  2.5991231E-01;  9.9999998E-03;  1.2000358E-01;1453;-0.045909695;0.0;0.0023068641;1000.6287;  4.0000001E-01;520.87402;3;-17.39378;0.0;1.1123493;0;-0.26465172;  1.0013436E+04;  0.0000000E+00;  2.2744494E-08;  1.0000000E+04;  0.0000000E+00;  9.9991436E+03;-0.28514412;0.0;0.020492395;451.45059
  2.5991133E-01;  9.9999998E-03;  1.4000435E-01;1454;-0.046197403;0.0;0.0026846568;1000.6348;  4.0000001E-01;525.91095;3;-17.299896;0.0;1.2429813;0;-0.26692411;  1.0013642E+04;  0.0000000E+00;  5.0670568E-08;  1.0000000E+04;  0.0000000E+00;  9.9990605E+03;-0.2876296;0.0;0.020705504;492.40073
  2.7990320E-01;  9.9999998E-03; -1.3865633E-12;1478;-0.050371241;0.0;1.7152775e-09;1000.686;  4.0000001E-01;568.28009;3;-19.337687;0.0;1.3073275e-05;0;-0.28155628;  1.0014506E+04;  0.0000000E+00; -1.4286017E-15;  1.0000000E+04;  0.0000000E+00;  9.9992188E+03;-0.30705816;0.0;0.025501877;409.78696
  2.7990305E-01;  9.9999998E-03;  2.0000676E-02;1479;-0.050428715;0.0;0.00049540139;1000.6865;  4.0000001E-01;568.77393;3;-19.338488;0.0;0.25223181;0;-0.28176695;  1.0014528E+04;  0.0000000E+00;  2.9787088E-09;  1.0000000E+04;  0.0000000E+00;  9.9992080E+03;-0.30731362;0.0;0.025546666;415.1322
  2.7990261E-01;  9.9999998E-03;  4.0001370E-02;1480;-0.050597124;0.0;0.00099368964;1000.6882;  4.0000001E-01;570.15656;3;-19.339378;0.0;0.50282776;0;-0.28239778;  1.0014596E+04;  0.0000000E+00;  6.3383303E-09;  1.0000000E+04;  0.0000000E+00;  9.9991768E+03;-0.30806926;0.0;0.025671488;430.86121
  2.7990189E-01;  9.9999998E-03;  6.0002111E-02;1481;-0.050864242;0.0;0.0014977489;1000.6914;  4.0000001E-01;572.82318;3;-19.336311;0.0;0.74797809;0;-0.28344285;  1.0014709E+04;  0.0000000E+00;  4.4335291E-09;  1.0000000E+04;  0.0000000E+00;  9.9991260E+03;-0.30929339;0.0;0.025850521;456.1095
  2.7990094E-01;  9.9999998E-03;  8.0002911E-02;1482;-0.051208064;0.0;0.0020083962;1000.6953;  4.0000001E-01;576.08234;3;-19.320625;0.0;0.98641402;0;-0.28488535;  1.0014861E+04;  0.0000000E+00; -2.4040916E-09;  1.0000000E+04;  0.0000000E+00;  9.9990586E+03;-0.31093651;0.0;0.026051158;489.63937
  2.7989981E-01;  9.9999998E-03;  1.0000379E-01;1483;-0.051597163;0.0;0.0025275876;1000.701;  4.0000001E-01;580.72418;3;-19.284082;0.0;1.2135139;0;-0.2866765;  1.0015045E+04;  0.0000000E+00; -2.0066736E-08;  1.0000000E+04;  0.0000000E+00;  9.9989795E+03;-0.31293505;0.0;0.026258562;530.2876
  2.7989858E-01;  9.9999998E-03;  1.2000474E-01;1484;-0.051989086;0.0;0.0030449263;1000.707;  4.0000001E-01;585.76111;3;-19.214571;0.0;1.4128399;0;-0.28869382;  1.0015262E+04;  0.0000000E+00; -4.3829221E-08;  1.0000000E+04;  0.0000000E+00;  9.9988838E+03;-0.31522498;0.0;0.026531147;578.03485
  2.7989736E-01;  9.9999998E-03;  1.4000578E-01;1485;-0.052328542;0.0;0.0035554185;1000.7133;  4.0000001E-01;590.89673;3;-19.095465;0.0;1.6054988;0;-0.29067802;  1.0015501E+04;  0.0000000E+00; -4.4068766E-08;  1.0000000E+04;  0.0000000E+00;  9.9987705E+03;-0.31775886;0.0;0.027080821;635.83435
  2.9988843E-01;  9.9999998E-03; -1.2890097E-12;1509;-0.056896787;0.0;-8.1352414e-10;1000.7736;  4.0000001E-01;640.87054;3;-21.332867;0.0;5.0552153e-06;0;-0.30826819;  1.0016452E+04;  0.0000000E+00; -1.6696834E-15;  1.0000000E+04;  0.0000000E+00;  9.9990264E+03;-0.34005544;0.0;0.031787258;505.13742
  2.9988825E-01;  9.9999998E-03;  2.0000866E-02;1510;-0.056960192;0.0;0.00063582498;1000.7742;  4.0000001E-01;641.46307;3;-21.332159;0.0;0.31444219;0;-0.30845848;  1.0016479E+04;  0.0000000E+00;  3.9647223E-09;  1.0000000E+04;  0.0000000E+00;  9.9990107E+03;-0.34029502;0.0;0.031836532;511.86111
  2.9988775E-01;  9.9999998E-03;  4.0001757E-02;1511;-0.057146117;0.0;0.0012738726;1000.7759;  4.0000001E-01;642.84576;3;-21.328239;0.0;0.62487942;0;-0.30902731;  1.0016553E+04;  0.0000000E+00;  1.0943048E-08;  1.0000000E+04;  0.0000000E+00;  9.9989717E+03;-0.34100562;0.0;0.031978298;531.73376
  2.9988688E-01;  9.9999998E-03;  6.0002703E-02;1512;-0.057441287;0.0;0.0019173214;1000.779;  4.0000001E-01;645.41357;3;-21.315578;0.0;0.93044913;0;-0.30996644;  1.0016680E+04;  0.0000000E+00;  1.2147075E-08;  1.0000000E+04;  0.0000000E+00;  9.9989102E+03;-0.34216288;0.0;0.032196447;563.91766
  2.9988578E-01;  9.9999998E-03;  8.0003724E-02;1513;-0.057823457;0.0;0.0025673979;1000.7834;  4.0000001E-01;649.06781;3;-21.289351;0.0;1.2194802;0;-0.31125218;  1.0016854E+04;  0.0000000E+00; -4.8936695E-09;  1.0000000E+04;  0.0000000E+00;  9.9988223E+03;-0.34372634;0.0;0.032474164;607.22791
  2.9988444E-01;  9.9999998E-03;  1.0000485E-01;1514;-0.058258202;0.0;0.0032260439;1000.7888;  4.0000001E-01;653.51215;3;-21.233665;0.0;1.4963895;0;-0.31282589;  1.0017063E+04;  0.0000000E+00; -4.1823363E-08;  1.0000000E+04;  0.0000000E+00;  9.9987158E+03;-0.34564251;0.0;0.032816611;660.57739
  2.9988295E-01;  9.9999998E-03;  1.2000608E-01;1515;-0.058700807;0.0;0.003887098;1000.7945;  4.0000001E-01;658.25275;3;-21.140715;0.0;1.7573414;0;-0.31454995;  1.0017310E+04;  0.0000000E+00; -1.0051319E-07;  1.0000000E+04;  0.0000000E+00;  9.9985889E+03;-0.34785017;0.0;0.033300221;723.9986
  2.9988149E-01;  9.9999998E-03;  1.4000744E-01;1516;-0.059094407;0.0;0.004553746;1000.8004;  4.0000001E-01;663.0921;3;-20.994455;0.0;2.0087495;0;-0.31615844;  1.0017582E+04;  0.0000000E+00; -1.2448743E-07;  1.0000000E+04;  0.0000000E+00;  9.9984336E+03;-0.35029671;0.0;0.03413827;800.34766
  3.1987166E-01;  9.9999998E-03; -5.9988325E-12;1540;-0.06412217;0.0;-1.7007857e-09;1000.8715;  4.0000001E-01;722.05341;3;-23.46076;0.0;8.0653172e-06;0;-0.33732507;  1.0018631E+04;  0.0000000E+00; -3.7502662E-16;  1.0000000E+04;  0.0000000E+00;  9.9988096E+03;-0.37601662;0.0;0.03869155;611.0683
  3.1987146E-01;  9.9999998E-03;  2.0001078E-02;1541;-0.064190716;0.0;0.0007924118;1000.8722;  4.0000001E-01;722.54718;3;-23.457273;0.0;0.38275325;0;-0.33748573;  1.0018662E+04;  0.0000000E+00;  5.3000053E-09;  1.0000000E+04;  0.0000000E+00;  9.9987930E+03;-0.37622917;0.0;0.038743448;619.37885
  3.1987086E-01;  9.9999998E-03;  4.0002186E-02;1542;-0.064392194;0.0;0.0015853602;1000.8738;  4.0000001E-01;723.92987;3;-23.446249;0.0;0.75684607;0;-0.33796507;  1.0018745E+04;  0.0000000E+00;  1.7978438E-08;  1.0000000E+04;  0.0000000E+00;  9.9987432E+03;-0.37686142;0.0;0.038896345;644.02026
  3.1986988E-01;  9.9999998E-03;  6.0003363E-02;1543;-0.064712889;0.0;0.0023809061;1000.8769;  4.0000001E-01;726.49768;3;-23.422949;0.0;1.116207;0;-0.33875418;  1.0018885E+04;  0.0000000E+00;  2.5829859E-08;  1.0000000E+04;  0.0000000E+00;  9.9986650E+03;-0.37789741;0.0;0.039143227;684.16852
  3.1986856E-01;  9.9999998E-03;  8.0004632E-02;1544;-0.065128878;0.0;0.0031824955;1000.8813;  4.0000001E-01;730.15192;3;-23.375641;0.0;1.4687418;0;-0.3398287;  1.0019076E+04;  0.0000000E+00;  4.8702473E-09;  1.0000000E+04;  0.0000000E+00;  9.9985566E+03;-0.37930891;0.0;0.039480217;738.6275
  3.1986701E-01;  9.9999998E-03;  1.0000603E-01;1545;-0.065605424;0.0;0.0039937068;1000.8864;  4.0000001E-01;734.29993;3;-23.296799;0.0;1.8084607;0;-0.34112623;  1.0019316E+04;  0.0000000E+00; -5.5209473E-08;  1.0000000E+04;  0.0000000E+00;  9.9984199E+03;-0.38105166;0.0;0.039925419;806.22412
  3.1986526E-01;  9.9999998E-03;  1.2000757E-01;1546;-0.06609761;0.0;0.0048135421;1000.8922;  4.0000001E-01;739.13928;3;-23.176092;0.0;2.1273596;0;-0.34250933;  1.0019596E+04;  0.0000000E+00; -1.3265368E-07;  1.0000000E+04;  0.0000000E+00;  9.9982617E+03;-0.38306707;0.0;0.040557735;886.69604
  3.1986347E-01;  9.9999998E-03;  1.4000928E-01;1547;-0.066545092;0.0;0.0056484998;1000.898;  4.0000001E-01;743.9787;3;-22.993502;0.0;2.4405606;0;-0.34371728;  1.0019903E+04;  0.0000000E+00; -1.7191967E-07;  1.0000000E+04;  0.0000000E+00;  9.9980664E+03;-0.38528574;0.0;0.041568454;982.21143
  3.3985266E-01;  9.9999998E-03;  3.6250148E-13;1571;-0.072114803;0.0;-2.7099398e-09;1000.981;  4.0000001E-01;812.71741;3;-25.732119;0.0;-1.4259836e-05;0;-0.3689169;  1.0021052E+04;  0.0000000E+00; -3.0575557E-16;  1.0000000E+04;  0.0000000E+00;  9.9985762E+03;-0.41497177;0.0;0.046054862;727.0957
  3.3985242E-01;  9.9999998E-03;  2.0001302E-02;1572;-0.072187439;0.0;0.00095982529;1000.9815;  4.0000001E-01;813.11243;3;-25.725212;0.0;0.45280862;0;-0.36903813;  1.0021083E+04;  0.0000000E+00;  9.1096988E-09;  1.0000000E+04;  0.0000000E+00;  9.9985566E+03;-0.41514575;0.0;0.046107616;737.16119
  3.3985174E-01;  9.9999998E-03;  4.0002644E-02;1573;-0.07240095;0.0;0.0019198259;1000.9832;  4.0000001E-01;814.59387;3;-25.70216;0.0;0.89801383;0;-0.36940107;  1.0021180E+04;  0.0000000E+00;  3.2117885E-08;  1.0000000E+04;  0.0000000E+00;  9.9984932E+03;-0.4156664;0.0;0.046265326;767.07086
  3.3985060E-01;  9.9999998E-03;  6.0004063E-02;1574;-0.072741635;0.0;0.0028806212;1000.9863;  4.0000001E-01;817.16168;3;-25.657768;0.0;1.3309221;0;-0.37000018;  1.0021337E+04;  0.0000000E+00;  4.8828600E-08;  1.0000000E+04;  0.0000000E+00;  9.9983965E+03;-0.41652757;0.0;0.046527382;815.98718
  3.3984908E-01;  9.9999998E-03;  8.0005601E-02;1575;-0.07318522;0.0;0.0038454491;1000.9907;  4.0000001E-01;820.71716;3;-25.585804;0.0;1.7435784;0;-0.37081581;  1.0021556E+04;  0.0000000E+00;  2.9942882E-08;  1.0000000E+04;  0.0000000E+00;  9.9982656E+03;-0.41771257;0.0;0.046896756;882.61774
  3.3984727E-01;  9.9999998E-03;  1.0000730E-01;1576;-0.073696956;0.0;0.0048182728;1000.9955;  4.0000001E-01;824.76642;3;-25.473808;0.0;2.1390619;0;-0.37179753;  1.0021825E+04;  0.0000000E+00; -3.8813422E-08;  1.0000000E+04;  0.0000000E+00;  9.9981006E+03;-0.41919139;0.0;0.047393851;965.51337
  3.3984521E-01;  9.9999998E-03;  1.2000918E-01;1577;-0.074231923;0.0;0.0058017047;1001.0016;  4.0000001E-01;829.80334;3;-25.314512;0.0;2.5150871;0;-0.37282059;  1.0022140E+04;  0.0000000E+00; -1.4480933E-07;  1.0000000E+04;  0.0000000E+00;  9.9979033E+03;-0.42090672;0.0;0.048086125;1063.7911
  3.3984306E-01;  9.9999998E-03;  1.4001127E-01;1578;-0.07472951;0.0;0.0068023056;1001.0071;  4.0000001E-01;834.34637;3;-25.092968;0.0;2.8726945;0;-0.37364388;  1.0022484E+04;  0.0000000E+00; -2.0042981E-07;  1.0000000E+04;  0.0000000E+00;  9.9976709E+03;-0.42277235;0.0;0.049128458;1178.4893
  3.5983115E-01;  9.9999998E-03; -2.3650381E-12;1602;-0.080939129;0.0;5.7561322e-10;1001.1021;  4.0000001E-01;913.06012;3;-28.13364;0.0;-6.7576511e-06;0;-0.40317386;  1.0023737E+04;  0.0000000E+00;  1.2892436E-15;  1.0000000E+04;  0.0000000E+00;  9.9983213E+03;-0.45687309;0.0;0.053699225;853.99194
  3.5983089E-01;  9.9999998E-03;  2.0001536E-02;1603;-0.081014745;0.0;0.0011356059;1001.1028;  4.0000001E-01;913.65271;3;-28.121506;0.0;0.53510046;0;-0.40324682;  1.0023772E+04;  0.0000000E+00;  1.3110506E-08;  1.0000000E+04;  0.0000000E+00;  9.9982969E+03;-0.456999;0.0;0.05375218;865.91071
  3.5983011E-01;  9.9999998E-03;  4.0003121E-02;1604;-0.081236884;0.0;0.0022714634;1001.1047;  4.0000001E-01;915.23291;3;-28.084707;0.0;1.0608972;0;-0.40346798;  1.0023880E+04;  0.0000000E+00;  4.6748010E-08;  1.0000000E+04;  0.0000000E+00;  9.9982275E+03;-0.45737982;0.0;0.053911828;901.38086
  3.5982880E-01;  9.9999998E-03;  6.0004801E-02;1605;-0.081591025;0.0;0.0034062159;1001.1077;  4.0000001E-01;917.70197;3;-28.017393;0.0;1.5641298;0;-0.40383813;  1.0024058E+04;  0.0000000E+00;  7.5958283E-08;  1.0000000E+04;  0.0000000E+00;  9.9981094E+03;-0.458018;0.0;0.054179873;959.53125
  3.5982707E-01;  9.9999998E-03;  8.0006622E-02;1606;-0.082054377;0.0;0.0045420849;1001.1119;  4.0000001E-01;921.15863;3;-27.912575;0.0;2.042187;0;-0.4043543;  1.0024300E+04;  0.0000000E+00;  6.6812902E-08;  1.0000000E+04;  0.0000000E+00;  9.9979521E+03;-0.45891333;0.0;0.054559026;1038.9064
  3.5982493E-01;  9.9999998E-03;  1.0000863E-01;1607;-0.082592845;0.0;0.0056832419;1001.1171;  4.0000001E-01;925.50421;3;-27.762323;0.0;2.4907322;0;-0.40498739;  1.0024604E+04;  0.0000000E+00; -2.8318803E-08;  1.0000000E+04;  0.0000000E+00;  9.9977520E+03;-0.46004862;0.0;0.055061221;1137.6277
  3.5982251E-01;  9.9999998E-03;  1.2001087E-01;1608;-0.083161153;0.0;0.0068305489;1001.1232;  4.0000001E-01;930.54108;3;-27.558451;0.0;2.8981304;0;-0.40564299;  1.0024957E+04;  0.0000000E+00; -1.5259634E-07;  1.0000000E+04;  0.0000000E+00;  9.9975225E+03;-0.46137428;0.0;0.055731311;1253.9698
  3.5981998E-01;  9.9999998E-03;  1.4001335E-01;1609;-0.083698787;0.0;0.0079893125;1001.1293;  4.0000001E-01;935.578;3;-27.283104;0.0;3.2809854;0;-0.40610999;  1.0025346E+04;  0.0000000E+00; -2.1703276E-07;  1.0000000E+04;  0.0000000E+00;  9.9972510E+03;-0.46279287;0.0;0.056682881;1387.6458
  3.7980688E-01;  9.9999998E-03; -3.7703356E-12;1633;-0.090660453;0.0;-8.3635143e-09;1001.2357;  4.0000001E-01;1023.7728;3;-30.682659;0.0;-1.5503092e-05;0;-0.44012988;  1.0026691E+04;  0.0000000E+00;  1.3131658E-15;  1.0000000E+04;  0.0000000E+00;  9.9980381E+03;-0.50158393;0.0;0.061454073;994.92194
  3.7980658E-01;  9.9999998E-03;  2.0001778E-02;1634;-0.090737127;0.0;0.0013111302;1001.2365;  4.0000001E-01;1024.3654;3;-30.664581;0.0;0.61337292;0;-0.44014707;  1.0026732E+04;  0.0000000E+00;  1.4474350E-08;  1.0000000E+04;  0.0000000E+00;  9.9980098E+03;-0.501656;0.0;0.061508935;1008.6863
  3.7980565E-01;  9.9999998E-03;  4.0003613E-02;1635;-0.090962715;0.0;0.0026212181;1001.2385;  4.0000001E-01;1026.0443;3;-30.608824;0.0;1.2137525;0;-0.44020233;  1.0026855E+04;  0.0000000E+00;  5.0586710E-08;  1.0000000E+04;  0.0000000E+00;  9.9979297E+03;-0.50187653;0.0;0.061674207;1049.696
  3.7980419E-01;  9.9999998E-03;  6.0005561E-02;1636;-0.091324165;0.0;0.0039303526;1001.2416;  4.0000001E-01;1028.7108;3;-30.51;0.0;1.7883495;0;-0.44030982;  1.0027057E+04;  0.0000000E+00;  8.3962810E-08;  1.0000000E+04;  0.0000000E+00;  9.9977930E+03;-0.50226003;0.0;0.06195021;1117.0452
  3.7980217E-01;  9.9999998E-03;  8.0007672E-02;1637;-0.091797791;0.0;0.005240581;1001.2462;  4.0000001E-01;1032.4639;3;-30.364929;0.0;2.327168;0;-0.44048807;  1.0027327E+04;  0.0000000E+00;  7.2106317E-08;  1.0000000E+04;  0.0000000E+00;  9.9976133E+03;-0.50282061;0.0;0.062332548;1209.0852
  3.7979972E-01;  9.9999998E-03;  1.0001001E-01;1638;-0.092350967;0.0;0.0065520587;1001.2518;  4.0000001E-01;1037.1057;3;-30.162468;0.0;2.8178973;0;-0.44074279;  1.0027669E+04;  0.0000000E+00; -3.7489787E-08;  1.0000000E+04;  0.0000000E+00;  9.9973838E+03;-0.50355828;0.0;0.062815495;1323.4286
  3.7979692E-01;  9.9999998E-03;  1.2001262E-01;1639;-0.092939459;0.0;0.0078629339;1001.2584;  4.0000001E-01;1042.5376;3;-29.898203;0.0;3.2559762;0;-0.44102228;  1.0028071E+04;  0.0000000E+00; -1.8823950E-07;  1.0000000E+04;  0.0000000E+00;  9.9971172E+03;-0.50443518;0.0;0.06341292;1457.4285
  3.7979394E-01;  9.9999998E-03;  1.4001553E-01;1640;-0.093503065;0.0;0.0091794524;1001.2651;  4.0000001E-01;1048.1671;3;-29.557512;0.0;3.6574814;0;-0.44115359;  1.0028511E+04;  0.0000000E+00; -2.4420387E-07;  1.0000000E+04;  0.0000000E+00;  9.9968125E+03;-0.50535101;0.0;0.064197406;1609.5638
  3.9977956E-01;  9.9999998E-03; -2.5677520E-12;1664;-0.10133746;0.0;-4.8876303e-09;1001.3819;  4.0000001E-01;1144.8553;3;-33.380383;0.0;-2.2215037e-05;0;-0.47968125;  1.0029940E+04;  0.0000000E+00;  4.5959320E-16;  1.0000000E+04;  0.0000000E+00;  9.9977168E+03;-0.54887277;0.0;0.06919153;1156.8019
  3.9977920E-01;  9.9999998E-03;  2.0002032E-02;1665;-0.1014139;0.0;0.0014803737;1001.3826;  4.0000001E-01;1145.448;3;-33.353706;0.0;0.68952322;0;-0.4796353;  1.0029984E+04;  0.0000000E+00;  9.0644452E-09;  1.0000000E+04;  0.0000000E+00;  9.9976865E+03;-0.54888815;0.0;0.069252864;1172.2612
  3.9977819E-01;  9.9999998E-03;  4.0004127E-02;1666;-0.10163837;0.0;0.0029598773;1001.3846;  4.0000001E-01;1147.127;3;-33.273129;0.0;1.3599006;0;-0.47950613;  1.0030122E+04;  0.0000000E+00;  2.8397572E-08;  1.0000000E+04;  0.0000000E+00;  9.9975957E+03;-0.54894263;0.0;0.069436476;1218.3633
  3.9977649E-01;  9.9999998E-03;  6.0006350E-02;1667;-0.10199787;0.0;0.0044374401;1001.3884;  4.0000001E-01;1150.1886;3;-33.135315;0.0;1.9968953;0;-0.47932258;  1.0030344E+04;  0.0000000E+00;  3.7734104E-08;  1.0000000E+04;  0.0000000E+00;  9.9974443E+03;-0.54905981;0.0;0.069737226;1294.1677
  3.9977419E-01;  9.9999998E-03;  8.0008768E-02;1668;-0.10247007;0.0;0.0059137545;1001.3936;  4.0000001E-01;1154.5341;3;-32.935791;0.0;2.5851483;0;-0.47913241;  1.0030655E+04;  0.0000000E+00; -7.9449833E-09;  1.0000000E+04;  0.0000000E+00;  9.9972363E+03;-0.54926956;0.0;0.070137136;1397.8132
  3.9977139E-01;  9.9999998E-03;  1.0001145E-01;1669;-0.1030239;0.0;0.0073910211;1001.4;  4.0000001E-01;1159.8673;3;-32.668911;0.0;3.1188641;0;-0.47898507;  1.0031042E+04;  0.0000000E+00; -1.5366653E-07;  1.0000000E+04;  0.0000000E+00;  9.9969814E+03;-0.54958928;0.0;0.070604213;1526.3789
  3.9976814E-01;  9.9999998E-03;  1.2001445E-01;1670;-0.1036167;0.0;0.0088675823;1001.4078;  4.0000001E-01;1166.3856;3;-32.328445;0.0;3.57619;0;-0.47888196;  1.0031497E+04;  0.0000000E+00; -3.1616673E-07;  1.0000000E+04;  0.0000000E+00;  9.9966826E+03;-0.54999626;0.0;0.071114287;1676.3726
  3.9976466E-01;  9.9999998E-03;  1.4001781E-01;1671;-0.10418936;0.0;0.010340269;1001.4158;  4.0000001E-01;1173.0027;3;-31.907082;0.0;3.9835091;0;-0.47869599;  1.0031998E+04;  0.0000000E+00; -3.2828027E-07;  1.0000000E+04;  0.0000000E+00;  9.9963457E+03;-0.55039698;0.0;0.071700975;1845.4204
  4.1974896E-01;  9.9999998E-03; -4.1243723E-12;1695;-0.11301791;0.0;1.7337284e-10;1001.5395;  4.0000001E-01;1275.4191;3;-36.224045;0.0;3.611287e-06;0;-0.52153516;  1.0033485E+04;  0.0000000E+00; -4.2432907E-15;  1.0000000E+04;  0.0000000E+00;  9.9973320E+03;-0.59840256;0.0;0.076867409;1351.6884
  4.1974854E-01;  9.9999998E-03;  2.0002315E-02;1696;-0.11309199;0.0;0.0016409652;1001.5403;  4.0000001E-01;1276.1105;3;-36.187126;0.0;0.75600785;0;-0.52142102;  1.0033538E+04;  0.0000000E+00; -9.4901997E-09;  1.0000000E+04;  0.0000000E+00;  9.9972979E+03;-0.59836435;0.0;0.076943338;1368.5233
  4.1974738E-01;  9.9999998E-03;  4.0004700E-02;1697;-0.11331012;0.0;0.0032796343;1001.543;  4.0000001E-01;1278.382;3;-36.074852;0.0;1.4894025;0;-0.52109373;  1.0033688E+04;  0.0000000E+00; -2.9611382E-08;  1.0000000E+04;  0.0000000E+00;  9.9971953E+03;-0.59826183;0.0;0.077168077;1418.7493
  4.1974548E-01;  9.9999998E-03;  6.0007226E-02;1698;-0.11365855;0.0;0.0049154949;1001.5474;  4.0000001E-01;1282.0361;3;-35.887512;0.0;2.1779683;0;-0.52060074;  1.0033944E+04;  0.0000000E+00; -7.6497756E-08;  1.0000000E+04;  0.0000000E+00;  9.9970322E+03;-0.59812617;0.0;0.077525437;1501.3544
  4.1974285E-01;  9.9999998E-03;  8.0009967E-02;1699;-0.11411704;0.0;0.0065493444;1001.5536;  4.0000001E-01;1287.1719;3;-35.621105;0.0;2.8065748;0;-0.52002645;  1.0034292E+04;  0.0000000E+00; -2.0355581E-07;  1.0000000E+04;  0.0000000E+00;  9.9968086E+03;-0.598001;0.0;0.077974565;1614.1869
  4.1973963E-01;  9.9999998E-03;  1.0001301E-01;1700;-0.11465624;0.0;0.0081834905;1001.5616;  4.0000001E-01;1293.7889;3;-35.27314;0.0;3.3629451;0;-0.51947159;  1.0034732E+04;  0.0000000E+00; -4.3009558E-07;  1.0000000E+04;  0.0000000E+00;  9.9965322E+03;-0.59791833;0.0;0.078446738;1753.7531
  4.1973591E-01;  9.9999998E-03;  1.2001642E-01;1701;-0.11523741;0.0;0.0098190932;1001.5711;  4.0000001E-01;1301.5912;3;-34.84433;0.0;3.8409424;0;-0.51900113;  1.0035246E+04;  0.0000000E+00; -5.6918321E-07;  1.0000000E+04;  0.0000000E+00;  9.9962109E+03;-0.59787333;0.0;0.078872219;1915.8859
  4.1973186E-01;  9.9999998E-03;  1.4002024E-01;1702;-0.11580268;0.0;0.011451072;1001.5816;  4.0000001E-01;1310.2822;3;-34.322884;0.0;4.2407498;0;-0.51853734;  1.0035817E+04;  0.0000000E+00; -4.0343514E-07;  1.0000000E+04;  0.0000000E+00;  9.9958467E+03;-0.597785;0.0;0.079247661;2097.9978
  4.3971479E-01;  9.9999998E-03;  2.9922694E-12;1726;-0.12573998;0.0;4.0936223e-09;1001.7074;  4.0000001E-01;1414.575;3;-39.207676;0.0;-1.0148879e-05;0;-0.56510204;  1.0037340E+04;  0.0000000E+00;  2.8470111E-16;  1.0000000E+04;  0.0000000E+00;  9.9968457E+03;-0.6496619;0.0;0.084559843;1597.873
  4.3971434E-01;  9.9999998E-03;  2.0002661E-02;1727;-0.12581009;0.0;0.0017906775;1001.7084;  4.0000001E-01;1415.365;3;-39.157646;0.0;0.80927932;0;-0.56491685;  1.0037395E+04;  0.0000000E+00; -2.7473664E-08;  1.0000000E+04;  0.0000000E+00;  9.9968115E+03;-0.64957935;0.0;0.084662475;1615.5907
  4.3971300E-01;  9.9999998E-03;  4.0005393E-02;1728;-0.12601608;0.0;0.0035780203;1001.7119;  4.0000001E-01;1418.3279;3;-39.00721;0.0;1.5906768;0;-0.56438333;  1.0037569E+04;  0.0000000E+00; -1.0684774E-07;  1.0000000E+04;  0.0000000E+00;  9.9967061E+03;-0.64934421;0.0;0.084960893;1668.4225
  4.3971083E-01;  9.9999998E-03;  6.0008280E-02;1729;-0.12634446;0.0;0.0053613246;1001.7175;  4.0000001E-01;1422.9697;3;-38.758739;0.0;2.3165119;0;-0.5635739;  1.0037851E+04;  0.0000000E+00; -2.4250926E-07;  1.0000000E+04;  0.0000000E+00;  9.9965371E+03;-0.64899302;0.0;0.085419096;1755.1473
  4.3970788E-01;  9.9999998E-03;  8.0011398E-02;1730;-0.12677705;0.0;0.007141822;1001.7253;  4.0000001E-01;1429.3893;3;-38.410782;0.0;2.9693389;0;-0.56261736;  1.0038243E+04;  0.0000000E+00; -4.7454208E-07;  1.0000000E+04;  0.0000000E+00;  9.9963008E+03;-0.64857548;0.0;0.085958101;1873.1151
  4.3970418E-01;  9.9999998E-03;  1.0001484E-01;1731;-0.12728775;0.0;0.0089247841;1001.7354;  4.0000001E-01;1437.6853;3;-37.966042;0.0;3.5363069;0;-0.56168091;  1.0038736E+04;  0.0000000E+00; -7.7120126E-07;  1.0000000E+04;  0.0000000E+00;  9.9960098E+03;-0.64813608;0.0;0.086455159;2018.084
  4.3969989E-01;  9.9999998E-03;  1.2001868E-01;1732;-0.12784208;0.0;0.01071234;1001.7479;  4.0000001E-01;1448.1542;3;-37.429173;0.0;4.013401;0;-0.56090075;  1.0039320E+04;  0.0000000E+00; -8.6201567E-07;  1.0000000E+04;  0.0000000E+00;  9.9956797E+03;-0.64768368;0.0;0.086782932;2185.3379
  4.3969518E-01;  9.9999998E-03;  1.4002298E-01;1733;-0.12838665;0.0;0.012505137;1001.7616;  4.0000001E-01;1459.4131;3;-36.796932;0.0;4.4138918;0;-0.56025231;  1.0039970E+04;  0.0000000E+00; -3.1694918E-07;  1.0000000E+04;  0.0000000E+00;  9.9953076E+03;-0.64715672;0.0;0.086904377;2372.8843
  4.5967674E-01;  9.9999998E-03;  9.4577462E-12;1757;-0.13953745;0.0;-4.6145061e-09;1001.8837;  4.0000081E-01;1560.5449;3;-42.319588;0.0;-2.1492489e-05;0;-0.60923326;  1.0041471E+04;  0.0000000E+00;  3.0093880E-15;  1.0000000E+04;  0.0000000E+00;  9.9962090E+03;-0.70172846;0.0;0.092495225;1920.1873
  4.5967624E-01;  9.9999998E-03;  2.0003125E-02;1758;-0.13960172;0.0;0.0019317586;1001.8851;  4.0000072E-01;1561.7301;3;-42.254101;0.0;0.84284192;0;-0.60897404;  1.0041536E+04;  0.0000000E+00; -4.0339380E-08;  1.0000000E+04;  0.0000000E+00;  9.9961748E+03;-0.7016142;0.0;0.092640184;1938.1542
  4.5967472E-01;  9.9999998E-03;  4.0006321E-02;1759;-0.13979033;0.0;0.0038595719;1001.8891;  4.0000072E-01;1565.088;3;-42.058105;0.0;1.6516509;0;-0.60822994;  1.0041727E+04;  0.0000000E+00; -1.5292783E-07;  1.0000000E+04;  0.0000000E+00;  9.9960703E+03;-0.70128435;0.0;0.093054414;1991.6007
  4.5967224E-01;  9.9999998E-03;  6.0009666E-02;1760;-0.14009111;0.0;0.0057818475;1001.8964;  4.0000072E-01;1571.1125;3;-41.735508;0.0;2.39728;0;-0.60710448;  1.0042041E+04;  0.0000000E+00; -3.4618199E-07;  1.0000000E+04;  0.0000000E+00;  9.9958945E+03;-0.70077091;0.0;0.093666457;2078.825
  4.5966887E-01;  9.9999998E-03;  8.0013253E-02;1761;-0.14048727;0.0;0.0077029956;1001.9064;  4.0000075E-01;1579.4086;3;-41.291241;0.0;3.0548658;0;-0.60578626;  1.0042477E+04;  0.0000000E+00; -6.3514733E-07;  1.0000000E+04;  0.0000000E+00;  9.9956650E+03;-0.700122;0.0;0.09433572;2196.2581
  4.5966464E-01;  9.9999998E-03;  1.0001717E-01;1762;-0.14095779;0.0;0.0096306875;1001.9198;  4.0000078E-01;1590.47;3;-40.733418;0.0;3.6170728;0;-0.60452461;  1.0043028E+04;  0.0000000E+00; -9.0630618E-07;  1.0000000E+04;  0.0000000E+00;  9.9953799E+03;-0.69938231;0.0;0.094857693;2338.4766
  4.5965973E-01;  9.9999998E-03;  1.2002151E-01;1763;-0.14147386;0.0;0.011569257;1001.9362;  4.0000084E-01;1604.0991;3;-40.071774;0.0;4.0786185;0;-0.60354412;  1.0043679E+04;  0.0000000E+00; -6.9334158E-07;  1.0000000E+04;  0.0000000E+00;  9.9950596E+03;-0.69857103;0.0;0.095026933;2500.1025
  4.5965427E-01;  9.9999998E-03;  1.4002632E-01;1764;-0.1419872;0.0;0.013522256;1001.9548;  4.0000084E-01;1619.5061;3;-39.314312;0.0;4.4660568;0;-0.60287803;  1.0044412E+04;  0.0000000E+00;  6.4129125E-07;  1.0000000E+04;  0.0000000E+00;  9.9947061E+03;-0.69765329;0.0;0.094775245;2680.5549
  4.7963437E-01;  9.9999998E-03; -1.2585952E-12;1788;-0.15444158;0.0;-1.3520457e-09;1002.0604;  4.0000236E-01;1707.0083;3;-45.543579;0.0;-1.1108414e-06;0;-0.65173483;  1.0045790E+04;  0.0000000E+00; -2.8737464E-16;  1.0000000E+04;  0.0000000E+00;  9.9953594E+03;-0.75278223;0.0;0.10104741;2349.1272
  4.7963381E-01;  9.9999998E-03;  2.0003779E-02;1789;-0.15449859;0.0;0.0020708479;1002.062;  4.0000224E-01;1708.2922;3;-45.460136;0.0;0.84903449;0;-0.65139884;  1.0045860E+04;  0.0000000E+00; -3.7176004E-08;  1.0000000E+04;  0.0000000E+00;  9.9953271E+03;-0.75265276;0.0;0.10125393;2366.635
  4.7963208E-01;  9.9999998E-03;  4.0007621E-02;1790;-0.15466635;0.0;0.0041368208;1002.0673;  4.0000230E-01;1712.6377;3;-45.209763;0.0;1.6615136;0;-0.65043628;  1.0046072E+04;  0.0000000E+00; -1.4112952E-07;  1.0000000E+04;  0.0000000E+00;  9.9952227E+03;-0.7522707;0.0;0.10183442;2418.4241
  4.7962928E-01;  9.9999998E-03;  6.0011607E-02;1791;-0.15493356;0.0;0.0061993599;1002.0763;  4.0000242E-01;1720.1437;3;-44.800575;0.0;2.3993347;0;-0.64899451;  1.0046418E+04;  0.0000000E+00; -2.8333980E-07;  1.0000000E+04;  0.0000000E+00;  9.9950547E+03;-0.75165457;0.0;0.10266007;2501.8962
  4.7962546E-01;  9.9999998E-03;  8.0015816E-02;1792;-0.15528615;0.0;0.0082645062;1002.0892;  4.0000218E-01;1730.9088;3;-44.244698;0.0;3.0415187;0;-0.64733851;  1.0046896E+04;  0.0000000E+00; -4.4413716E-07;  1.0000000E+04;  0.0000000E+00;  9.9948359E+03;-0.75083303;0.0;0.10349452;2611.8884
  4.7962064E-01;  9.9999998E-03;  1.0002036E-01;1793;-0.15570894;0.0;0.010343606;1002.1064;  4.0000242E-01;1745.1306;3;-43.557194;0.0;3.5782769;0;-0.64582682;  1.0047498E+04;  0.0000000E+00; -2.9573897E-07;  1.0000000E+04;  0.0000000E+00;  9.9945820E+03;-0.74983859;0.0;0.10401177;2741.0137
  4.7961497E-01;  9.9999998E-03;  1.2002531E-01;1794;-0.15617928;0.0;0.012443652;1002.1283;  4.0000233E-01;1763.2041;3;-42.755947;0.0;4.0107498;0;-0.64479899;  1.0048212E+04;  0.0000000E+00;  1.0129143E-06;  1.0000000E+04;  0.0000000E+00;  9.9943057E+03;-0.74869543;0.0;0.10389645;2882.7522
  4.7960865E-01;  9.9999998E-03;  1.4003073E-01;1795;-0.15665454;0.0;0.014562251;1002.1538;  4.0000236E-01;1784.3392;3;-41.856541;0.0;4.3651242;0;-0.64435852;  1.0049024E+04;  0.0000000E+00;  4.3563373E-06;  1.0000000E+04;  0.0000000E+00;  9.9940010E+03;-0.74740809;0.0;0.1030496;3038.6184
  4.9958724E-01;  9.9999998E-03; -5.6951856E-12;1819;-0.17047855;0.0;-6.6276664e-09;1002.2249;  4.0000546E-01;1843.2;3;-48.858425;0.0;-1.7999701e-06;0;-0.68875873;  1.0050073E+04;  0.0000000E+00; -2.0902454E-15;  1.0000000E+04;  0.0000000E+00;  9.9942227E+03;-0.79946512;0.0;0.11070637;2918.5776
  4.9958658E-01;  9.9999998E-03;  2.0004708E-02;1820;-0.17052853;0.0;0.0022171133;1002.2272;  4.0000540E-01;1845.1752;3;-48.752186;0.0;0.8226307;0;-0.68833876;  1.0050142E+04;  0.0000000E+00; -1.0949088E-08;  1.0000000E+04;  0.0000000E+00;  9.9941904E+03;-0.79933476;0.0;0.110996;2934.9026
  4.9958465E-01;  9.9999998E-03;  4.0009473E-02;1821;-0.17067377;0.0;0.0044326205;1002.2332;  4.0000540E-01;1850.212;3;-48.439598;0.0;1.6023631;0;-0.68714255;  1.0050371E+04;  0.0000000E+00; -2.3588733E-08;  1.0000000E+04;  0.0000000E+00;  9.9940977E+03;-0.79894054;0.0;0.11179801;2982.6958
  4.9958149E-01;  9.9999998E-03;  6.0014356E-02;1822;-0.17090556;0.0;0.0066480297;1002.2446;  4.0000525E-01;1859.5945;3;-47.933533;0.0;2.3000767;0;-0.68537313;  1.0050743E+04;  0.0000000E+00;  2.6404976E-08;  1.0000000E+04;  0.0000000E+00;  9.9939453E+03;-0.79827207;0.0;0.11289892;3057.9275
  4.9957713E-01;  9.9999998E-03;  8.0019452E-02;1823;-0.17121288;0.0;0.0088754613;1002.2604;  4.0000531E-01;1872.6311;3;-47.250648;0.0;2.9015872;0;-0.6833967;  1.0051257E+04;  0.0000000E+00;  4.6258512E-07;  1.0000000E+04;  0.0000000E+00;  9.9937549E+03;-0.7973215;0.0;0.11392481;3152.9648
  4.9957165E-01;  9.9999998E-03;  1.0002487E-01;1824;-0.17158493;0.0;0.011132721;1002.2824;  4.0000528E-01;1890.9021;3;-46.418983;0.0;3.3959632;0;-0.68171299;  1.0051902E+04;  0.0000000E+00;  2.1198755E-06;  1.0000000E+04;  0.0000000E+00;  9.9935537E+03;-0.79609114;0.0;0.11437815;3257.3818
  4.9956518E-01;  9.9999998E-03;  1.2003067E-01;1825;-0.1720062;0.0;0.013423375;1002.3107;  4.0000525E-01;1914.4075;3;-45.464439;0.0;3.787118;0;-0.68081129;  1.0052668E+04;  0.0000000E+00;  6.6144239E-06;  1.0000000E+04;  0.0000000E+00;  9.9933486E+03;-0.79460609;0.0;0.11379477;3362.7402
  4.9955788E-01;  9.9999998E-03;  1.4003685E-01;1826;-0.17243946;0.0;0.015728785;1002.3437;  4.0000531E-01;1941.6659;3;-44.411995;0.0;4.0963883;0;-0.68087995;  1.0053546E+04;  0.0000000E+00;  1.4900704E-05;  1.0000000E+04;  0.0000000E+00;  9.9931387E+03;-0.79292506;0.0;0.11204514;3473.2581
  5.1953489E-01;  9.9999998E-03; -6.7676511E-12;1850;-0.18765272;0.0;-1.8110395e-08;1002.3654;  4.0001476E-01;1959.7366;3;-52.23444;0.0;-2.7688591e-05;0;-0.71441084;  1.0053901E+04;  0.0000000E+00; -5.5746821E-15;  1.0000000E+04;  0.0000000E+00;  9.9927285E+03;-0.83642006;0.0;0.1220092;3662.0188
  5.1953417E-01;  9.9999998E-03;  2.0006012E-02;1851;-0.18769594;0.0;0.0023846969;1002.3682;  4.0001476E-01;1962.0081;3;-52.105305;0.0;0.74583256;0;-0.71389771;  1.0053980E+04;  0.0000000E+00;  3.6320753E-08;  1.0000000E+04;  0.0000000E+00;  9.9927012E+03;-0.83629948;0.0;0.12240175;3676.4546
  5.1953202E-01;  9.9999998E-03;  4.0012065E-02;1852;-0.18782173;0.0;0.0047693523;1002.3755;  4.0001479E-01;1968.0326;3;-51.722385;0.0;1.4508924;0;-0.71244502;  1.0054220E+04;  0.0000000E+00;  2.1839831E-07;  1.0000000E+04;  0.0000000E+00;  9.9926172E+03;-0.83591974;0.0;0.12347471;3717.9702
  5.1952839E-01;  9.9999998E-03;  6.0018223E-02;1853;-0.18802103;0.0;0.0071687074;1002.3887;  4.0001485E-01;1978.9954;3;-51.106224;0.0;2.0801435;0;-0.71032619;  1.0054610E+04;  0.0000000E+00;  8.5755880E-07;  1.0000000E+04;  0.0000000E+00;  9.9924932E+03;-0.83522838;0.0;0.12490216;3780.5735
  5.1952350E-01;  9.9999998E-03;  8.0024585E-02;1854;-0.18828541;0.0;0.0096024815;1002.4083;  4.0001470E-01;1995.1923;3;-50.28656;0.0;2.6136212;0;-0.70803279;  1.0055146E+04;  0.0000000E+00;  2.9046398E-06;  1.0000000E+04;  0.0000000E+00;  9.9923496E+03;-0.83416337;0.0;0.1261306;3853.2681
  5.1951730E-01;  9.9999998E-03;  1.0003124E-01;1855;-0.18860911;0.0;0.012087939;1002.4351;  4.0001476E-01;2017.4138;3;-49.299728;0.0;3.0457873;0;-0.70623988;  1.0055817E+04;  0.0000000E+00;  8.4274525E-06;  1.0000000E+04;  0.0000000E+00;  9.9922148E+03;-0.83268422;0.0;0.12644432;3921.5181
  5.1950991E-01;  9.9999998E-03;  1.2003823E-01;1856;-0.18898094;0.0;0.014618311;1002.4702;  4.0001473E-01;2046.5486;3;-48.181946;0.0;3.3798068;0;-0.70561874;  1.0056615E+04;  0.0000000E+00;  2.0065070E-05;  1.0000000E+04;  0.0000000E+00;  9.9921182E+03;-0.83081406;0.0;0.12519535;3974.2998
  5.1950163E-01;  9.9999998E-03;  1.4004545E-01;1857;-0.18936498;0.0;0.01714365;1002.5126;  4.0001482E-01;2081.6091;3;-46.959736;0.0;3.6123471;0;-0.70645058;  1.0057539E+04;  0.0000000E+00;  3.7750084E-05;  1.0000000E+04;  0.0000000E+00;  9.9920449E+03;-0.82868189;0.0;0.12223129;4019.5168
  5.3947741E-01;  9.9999998E-03;  3.5826472E-12;1881;-0.20588772;0.0;-6.8816499e-09;1002.4733;  4.0003973E-01;2049.1125;3;-55.634895;0.0;-1.974302e-05;0;-0.72097141;  1.0056704E+04;  0.0000000E+00; -2.2955738E-15;  1.0000000E+04;  0.0000000E+00;  9.9908154E+03;-0.85642427;0.0;0.13545287;4608.7129
  5.3947657E-01;  9.9999998E-03;  2.0007774E-02;1882;-0.20592511;0.0;0.0025826166;1002.4763;  4.0003964E-01;2051.4829;3;-55.478668;0.0;0.61306018;0;-0.72035539;  1.0056787E+04;  0.0000000E+00;  1.6547119E-07;  1.0000000E+04;  0.0000000E+00;  9.9907900E+03;-0.85631347;0.0;0.13595806;4620.499
  5.3947413E-01;  9.9999998E-03;  4.0015586E-02;1883;-0.20603503;0.0;0.0051824544;1002.4848;  4.0003976E-01;2058.5938;3;-55.02121;0.0;1.1932524;0;-0.71861851;  1.0057031E+04;  0.0000000E+00;  8.1980153E-07;  1.0000000E+04;  0.0000000E+00;  9.9907197E+03;-0.85594308;0.0;0.13732456;4653.3774
  5.3947008E-01;  9.9999998E-03;  6.0023498E-02;1884;-0.20620891;0.0;0.0078186179;1002.5;  4.0003973E-01;2071.2351;3;-54.289677;0.0;1.7053063;0;-0.7161181;  1.0057425E+04;  0.0000000E+00;  2.8097672E-06;  1.0000000E+04;  0.0000000E+00;  9.9906318E+03;-0.85521448;0.0;0.13909635;4699.1255
  5.3946453E-01;  9.9999998E-03;  8.0031596E-02;1885;-0.20643848;0.0;0.01051736;1002.5225;  4.0003973E-01;2089.8025;3;-53.32555;0.0;2.1383083;0;-0.71348786;  1.0057967E+04;  0.0000000E+00;  8.4307958E-06;  1.0000000E+04;  0.0000000E+00;  9.9905449E+03;-0.8540042;0.0;0.14051637;4742.8584
  5.3945756E-01;  9.9999998E-03;  1.0003997E-01;1886;-0.20671862;0.0;0.01329574;1002.5541;  4.0003970E-01;2115.9744;3;-52.174877;0.0;2.487427;0;-0.71159542;  1.0058643E+04;  0.0000000E+00;  2.1415479E-05;  1.0000000E+04;  0.0000000E+00;  9.9905039E+03;-0.85222203;0.0;0.14062662;4765.4478
  5.3944927E-01;  9.9999998E-03;  1.2004860E-01;1887;-0.20703879;0.0;0.016133158;1002.5959;  4.0003958E-01;2150.6399;3;-50.886356;0.0;2.7590914;0;-0.71130264;  1.0059445E+04;  0.0000000E+00;  4.4668152E-05;  1.0000000E+04;  0.0000000E+00;  9.9905381E+03;-0.84989047;0.0;0.13858782;4753.6982
  5.3943992E-01;  9.9999998E-03;  1.4005728E-01;1888;-0.20735958;0.0;0.018928695;1002.6468;  4.0003937E-01;2192.811;3;-49.493858;0.0;2.929143;0;-0.71295446;  1.0060380E+04;  0.0000000E+00;  7.3380950E-05;  1.0000000E+04;  0.0000000E+00;  9.9906260E+03;-0.84721476;0.0;0.1342603;4721.6963
  5.5941552E-01;  9.9999998E-03; -8.5343364E-12;1912;-0.22490476;0.0;-1.2266913e-08;1002.5756;  4.0010688E-01;2133.7463;3;-58.997311;0.0;-2.3252331e-05;0;-0.69971073;  1.0057760E+04;  0.0000000E+00; -8.2451331E-15;  1.0000000E+04;  0.0000000E+00;  9.9884219E+03;-0.85122079;0.0;0.15151006;5783.437
  5.5941457E-01;  9.9999998E-03;  2.0010106E-02;1913;-0.22493915;0.0;0.0028445828;1002.5788;  4.0010694E-01;2136.5117;3;-58.812462;0.0;0.41088995;0;-0.69898236;  1.0057839E+04;  0.0000000E+00;  4.3003013E-07;  1.0000000E+04;  0.0000000E+00;  9.9884063E+03;-0.8510952;0.0;0.15211284;5791.5361
  5.5941182E-01;  9.9999998E-03;  4.0020254E-02;1914;-0.22503841;0.0;0.0057168044;1002.5883;  4.0010706E-01;2144.314;3;-58.275227;0.0;0.7919668;0;-0.69693571;  1.0058074E+04;  0.0000000E+00;  2.0311766E-06;  1.0000000E+04;  0.0000000E+00;  9.9883555E+03;-0.85066736;0.0;0.15373166;5812.8257
  5.5940735E-01;  9.9999998E-03;  6.0030494E-02;1915;-0.22519241;0.0;0.0086518172;1002.6047;  4.0010694E-01;2157.9429;3;-57.423046;0.0;1.137682;0;-0.69400311;  1.0058455E+04;  0.0000000E+00;  6.5114868E-06;  1.0000000E+04;  0.0000000E+00;  9.9883057E+03;-0.84979427;0.0;0.15579119;5837.1943
  5.5940115E-01;  9.9999998E-03;  8.0040909E-02;1916;-0.22539552;0.0;0.011674713;1002.6296;  4.0010682E-01;2178.4854;3;-56.307747;0.0;1.4360858;0;-0.69094861;  1.0058973E+04;  0.0000000E+00;  1.7917720E-05;  1.0000000E+04;  0.0000000E+00;  9.9882891E+03;-0.8482995;0.0;0.15735091;5846.3799
  5.5939341E-01;  9.9999998E-03;  1.0005154E-01;1917;-0.22563277;0.0;0.014814761;1002.665;  4.0010682E-01;2207.8176;3;-54.990273;0.0;1.6793435;0;-0.68881196;  1.0059614E+04;  0.0000000E+00;  4.0943341E-05;  1.0000000E+04;  0.0000000E+00;  9.9883516E+03;-0.84605622;0.0;0.15724425;5817.8062
  5.5938423E-01;  9.9999998E-03;  1.2006235E-01;1918;-0.22588642;0.0;0.018038549;1002.7117;  4.0010682E-01;2246.5322;3;-53.524406;0.0;1.8843681;0;-0.68858856;  1.0060380E+04;  0.0000000E+00;  7.4505726E-05;  1.0000000E+04;  0.0000000E+00;  9.9885254E+03;-0.84308654;0.0;0.15449798;5739.1011
  5.5937386E-01;  9.9999998E-03;  1.4007302E-01;1919;-0.22610821;0.0;0.021194113;1002.768;  4.0010676E-01;2293.2466;3;-51.953342;0.0;2.0101197;0;-0.69061393;  1.0061282E+04;  0.0000000E+00;  1.0349551E-04;  1.0000000E+04;  0.0000000E+00;  9.9887578E+03;-0.83965808;0.0;0.14904414;5635.1313
  5.7935166E-01;  9.9999998E-03; -4.4248511E-12;1943;-0.24402095;0.0;-6.9497812e-09;1002.7954;  4.0028501E-01;2315.9541;3;-62.204735;0.0;-7.4527343e-06;0;-0.64049506;  1.0056151E+04;  0.0000000E+00; -6.6364936E-16;  1.0000000E+04;  0.0000000E+00;  9.9854883E+03;-0.81141132;0.0;0.17091623;7211.3442
  5.7935065E-01;  9.9999998E-03;  2.0012990E-02;1944;-0.24405746;0.0;0.0031653822;1002.7988;  4.0028495E-01;2318.7192;3;-61.99519;0.0;0.13779932;0;-0.63966405;  1.0056222E+04;  0.0000000E+00;  8.6421005E-07;  1.0000000E+04;  0.0000000E+00;  9.9854824E+03;-0.81122136;0.0;0.17155728;7214.2202
  5.7934755E-01;  9.9999998E-03;  4.0025994E-02;1945;-0.24415562;0.0;0.0063701952;1002.8088;  4.0028507E-01;2327.0154;3;-61.379761;0.0;0.25525215;0;-0.63731396;  1.0056437E+04;  0.0000000E+00;  3.9036963E-06;  1.0000000E+04;  0.0000000E+00;  9.9854668E+03;-0.81058639;0.0;0.17327246;7219.8369
  5.7934260E-01;  9.9999998E-03;  6.0039077E-02;1946;-0.24430113;0.0;0.0096621886;1002.8256;  4.0028498E-01;2340.9409;3;-60.388504;0.0;0.40660429;0;-0.63390017;  1.0056775E+04;  0.0000000E+00;  1.1666891E-05;  1.0000000E+04;  0.0000000E+00;  9.9854668E+03;-0.80933189;0.0;0.17543171;7217.6162
  5.7933581E-01;  9.9999998E-03;  8.0052353E-02;1947;-0.24448992;0.0;0.013060899;1002.8511;  4.0028489E-01;2362.0759;3;-59.13485;0.0;0.50065899;0;-0.63023704;  1.0057238E+04;  0.0000000E+00;  2.9374201E-05;  1.0000000E+04;  0.0000000E+00;  9.9855244E+03;-0.80724508;0.0;0.17700802;7188.1777
  5.7932729E-01;  9.9999998E-03;  1.0006586E-01;1948;-0.24467947;0.0;0.016626971;1002.8876;  4.0028486E-01;2392.2969;3;-57.654835;0.0;0.61477762;0;-0.62742341;  1.0057801E+04;  0.0000000E+00;  5.9318128E-05;  1.0000000E+04;  0.0000000E+00;  9.9856875E+03;-0.80417615;0.0;0.17675272;7109.2813
  5.7931727E-01;  9.9999998E-03;  1.2007946E-01;1949;-0.24483947;0.0;0.020305548;1002.9354;  4.0028480E-01;2431.9001;3;-56.01115;0.0;0.74005669;0;-0.62646163;  1.0058476E+04;  0.0000000E+00;  8.8373519E-05;  1.0000000E+04;  0.0000000E+00;  9.9859736E+03;-0.80015475;0.0;0.17369314;6975.4023
  5.7930601E-01;  9.9999998E-03;  1.4009272E-01;1950;-0.2449176;0.0;0.023899535;1002.9907;  4.0028477E-01;2477.7256;3;-54.247101;0.0;0.8186782;0;-0.6276198;  1.0059272E+04;  0.0000000E+00;  8.7536268E-05;  1.0000000E+04;  0.0000000E+00;  9.9862939E+03;-0.79547906;0.0;0.16785927;6826.9233
  5.9928995E-01;  9.9999998E-03;  8.0929412E-12;1974;-0.26202282;0.0;-2.5001863e-09;1003.4686;  4.0073767E-01;2873.647;3;-64.996422;0.0;-3.0505034e-06;0;-0.52666616;  1.0050558E+04;  0.0000000E+00; -1.2192552E-14;  1.0000000E+04;  0.0000000E+00;  9.9819385E+03;-0.72189075;0.0;0.19522461;8924.8955
  5.9928882E-01;  9.9999998E-03;  2.0016501E-02;1975;-0.26206502;0.0;0.0035199074;1003.4719;  4.0073758E-01;2876.4121;3;-64.766731;0.0;-0.28063604;0;-0.52577883;  1.0050615E+04;  0.0000000E+00;  1.3133737E-06;  1.0000000E+04;  0.0000000E+00;  9.9819463E+03;-0.72156173;0.0;0.19578288;8920.5547
  5.9928542E-01;  9.9999998E-03;  4.0032960E-02;1976;-0.26217908;0.0;0.0071056997;1003.4818;  4.0073746E-01;2884.6094;3;-64.112495;0.0;-0.50830144;0;-0.52321684;  1.0050785E+04;  0.0000000E+00;  5.5105188E-06;  1.0000000E+04;  0.0000000E+00;  9.9819717E+03;-0.72049892;0.0;0.19728211;8905.4805
  5.9928000E-01;  9.9999998E-03;  6.0049448E-02;1977;-0.26233575;0.0;0.010815995;1003.4984;  4.0073755E-01;2898.3372;3;-63.035812;0.0;-0.67883188;0;-0.51933247;  1.0051060E+04;  0.0000000E+00;  1.5277654E-05;  1.0000000E+04;  0.0000000E+00;  9.9820322E+03;-0.71850353;0.0;0.19917105;8871.3135
  5.9927261E-01;  9.9999998E-03;  8.0066137E-02;1978;-0.26250017;0.0;0.014687243;1003.5229;  4.0073743E-01;2918.583;3;-61.61895;0.0;-0.73898268;0;-0.51481616;  1.0051419E+04;  0.0000000E+00;  3.5093344E-05;  1.0000000E+04;  0.0000000E+00;  9.9821729E+03;-0.71534342;0.0;0.20052727;8801.7061
  5.9926349E-01;  9.9999998E-03;  1.0008308E-01;1979;-0.26264489;0.0;0.018730817;1003.557;  4.0073714E-01;2946.8286;3;-60.004658;0.0;-0.82901555;0;-0.51062632;  1.0051854E+04;  0.0000000E+00;  5.8122892E-05;  1.0000000E+04;  0.0000000E+00;  9.9824209E+03;-0.71086526;0.0;0.20023897;8680.9424
  5.9925276E-01;  9.9999998E-03;  1.2010004E-01;1980;-0.26269004;0.0;0.02292843;1003.5991;  4.0073702E-01;2981.6914;3;-58.18187;0.0;-0.7755183;0;-0.50761378;  1.0052364E+04;  0.0000000E+00;  5.0955699E-05;  1.0000000E+04;  0.0000000E+00;  9.9827588E+03;-0.7050975;0.0;0.19748369;8517.1885
  5.9924072E-01;  9.9999998E-03;  1.4011639E-01;1981;-0.26259515;0.0;0.027045192;1003.6444;  4.0073693E-01;3019.3196;3;-56.239849;0.0;-0.71425343;0;-0.50605679;  1.0052959E+04;  0.0000000E+00; -2.3217155E-05;  1.0000000E+04;  0.0000000E+00;  9.9830801E+03;-0.69833547;0.0;0.19227865;8367.0566
  6.1923420E-01;  9.9999998E-03; -3.4058245E-12;2005;-0.27776447;0.0;-2.2462934e-09;1005.2722;  4.0177557E-01;4367.7749;3;-67.056381;0.0;-9.1557376e-07;0;-0.32930225;  1.0039092E+04;  0.0000000E+00; -2.5941358E-15;  1.0000000E+04;  0.0000000E+00;  9.9776650E+03;-0.55637693;0.0;0.22707467;10963.144
  6.1923295E-01;  9.9999998E-03;  2.0020695E-02;2006;-0.27781314;0.0;0.003947231;1005.2755;  4.0177560E-01;4370.54;3;-66.863052;0.0;-0.89233392;0;-0.32845718;  1.0039131E+04;  0.0000000E+00;  1.0373095E-06;  1.0000000E+04;  0.0000000E+00;  9.9776924E+03;-0.55581689;0.0;0.2273597;10949.362
  6.1922932E-01;  9.9999998E-03;  4.0041234E-02;2007;-0.27793428;0.0;0.0079544978;1005.2847;  4.0177548E-01;4378.145;3;-66.157028;0.0;-1.6345434;0;-0.32591021;  1.0039239E+04;  0.0000000E+00;  3.4989898E-06;  1.0000000E+04;  0.0000000E+00;  9.9777725E+03;-0.55405456;0.0;0.22814435;10908.264
  6.1922348E-01;  9.9999998E-03;  6.0061723E-02;2008;-0.27810436;0.0;0.012116712;1005.2999;  4.0177542E-01;4390.7861;3;-65.055534;0.0;-2.1653695;0;-0.32172543;  1.0039410E+04;  0.0000000E+00;  8.4433350E-06;  1.0000000E+04;  0.0000000E+00;  9.9779082E+03;-0.55088603;0.0;0.22916062;10837.286
  6.1921555E-01;  9.9999998E-03;  8.0082297E-02;2009;-0.27825549;0.0;0.016478151;1005.3208;  4.0177521E-01;4408.0693;3;-63.580681;0.0;-2.5028496;0;-0.31621778;  1.0039622E+04;  0.0000000E+00;  1.6646542E-05;  1.0000000E+04;  0.0000000E+00;  9.9781270E+03;-0.54608387;0.0;0.2298661;10728.44
  6.1920589E-01;  9.9999998E-03;  1.0010293E-01;2010;-0.27832681;0.0;0.021043403;1005.3475;  4.0177497E-01;4430.1914;3;-61.863415;0.0;-2.6806922;0;-0.30996028;  1.0039862E+04;  0.0000000E+00;  6.4894271E-06;  1.0000000E+04;  0.0000000E+00;  9.9784287E+03;-0.53949612;0.0;0.22953585;10578.976
  6.1919469E-01;  9.9999998E-03;  1.2012349E-01;2011;-0.27827013;0.0;0.0257008;1005.3771;  4.0177456E-01;4454.7827;3;-59.917542;0.0;-2.7019408;0;-0.30358675;  1.0040132E+04;  0.0000000E+00; -7.5642834E-05;  1.0000000E+04;  0.0000000E+00;  9.9787637E+03;-0.53113729;0.0;0.22755054;10414.102
  6.1918199E-01;  9.9999998E-03;  1.4014329E-01;2012;-0.27800968;0.0;0.030273044;1005.4024;  4.0177444E-01;4475.7202;3;-57.821701;0.0;-2.6614306;0;-0.29755813;  1.0040418E+04;  0.0000000E+00; -2.6039116E-04;  1.0000000E+04;  0.0000000E+00;  9.9790010E+03;-0.52122629;0.0;0.22366816;10301.581
  6.3918704E-01;  9.9999998E-03;  2.8189930E-11;2036;-0.2905817;0.0;-5.2378063e-10;1008.8167;  4.0368596E-01;7304.2559;3;-68.609375;0.0;-2.6093039e-07;0;-0.011780143;  1.0019815E+04;  0.0000000E+00; -1.2633629E-15;  1.0000000E+04;  0.0000000E+00;  9.9725889E+03;-0.28145066;0.0;0.26967052;13356.324
  6.3918579E-01;  9.9999998E-03;  2.0024970E-02;2037;-0.2906478;0.0;0.0044333865;1008.8197;  4.0368572E-01;7306.7251;3;-68.258743;0.0;-1.2819674;0;-0.011153281;  1.0019825E+04;  0.0000000E+00; -1.5343913E-06;  1.0000000E+04;  0.0000000E+00;  9.9726426E+03;-0.28057349;0.0;0.26942021;13330.764
  6.3918191E-01;  9.9999998E-03;  4.0049747E-02;2038;-0.29080337;0.0;0.0089199152;1008.828;  4.0368563E-01;7313.6382;3;-67.537819;0.0;-2.6099865;0;-0.0090739429;  1.0019850E+04;  0.0000000E+00; -8.7277358E-06;  1.0000000E+04;  0.0000000E+00;  9.9727871E+03;-0.2778708;0.0;0.26879686;13258.055
  6.3917571E-01;  9.9999998E-03;  6.0074329E-02;2039;-0.29097524;0.0;0.013522561;1008.8401;  4.0368539E-01;7323.6128;3;-66.383957;0.0;-3.7196975;0;-0.0051012337;  1.0019878E+04;  0.0000000E+00; -2.3600469E-05;  1.0000000E+04;  0.0000000E+00;  9.9730098E+03;-0.27316526;0.0;0.26806402;13145.324
  6.3916737E-01;  9.9999998E-03;  8.0098994E-02;2040;-0.29111442;0.0;0.018313365;1008.8552;  4.0368512E-01;7336.1553;3;-64.925293;0.0;-4.4132552;0;0.0011135638;  1.0019894E+04;  0.0000000E+00; -5.0434151E-05;  1.0000000E+04;  0.0000000E+00;  9.9733027E+03;-0.26625842;0.0;0.26737198;12997.979
  6.3915706E-01;  9.9999998E-03;  1.0012377E-01;2041;-0.2911185;0.0;0.023303796;1008.8701;  4.0368474E-01;7348.4014;3;-63.124969;0.0;-4.8035216;0;0.0095678866;  1.0019874E+04;  0.0000000E+00; -1.2112414E-04;  1.0000000E+04;  0.0000000E+00;  9.9736387E+03;-0.25701374;0.0;0.26658162;12829.404
  6.3914531E-01;  9.9999998E-03;  1.2014844E-01;2042;-0.2909469;0.0;0.028309735;1008.8805;  4.0368420E-01;7357.0923;3;-61.099022;0.0;-4.9679723;0;0.019794166;  1.0019807E+04;  0.0000000E+00; -2.9378294E-04;  1.0000000E+04;  0.0000000E+00;  9.9739434E+03;-0.24540323;0.0;0.2651974;12678.999
  6.3913238E-01;  9.9999998E-03;  1.4017205E-01;2043;-0.29051378;0.0;0.033179451;1008.8786;  4.0368366E-01;7355.5127;3;-58.922104;0.0;-5.0142961;0;0.030957267;  1.0019665E+04;  0.0000000E+00; -5.7271711E-04;  1.0000000E+04;  0.0000000E+00;  9.9740762E+03;-0.23145582;0.0;0.26241308;12616.269
  6.5915084E-01;  9.9999998E-03; -1.1010354E-11;2067;-0.30003136;0.0;-1.2328184e-09;1013.1386;  4.0610370E-01;10884.665;3;-68.940956;0.0;5.6991703e-06;0;0.45377505;  9.9917891E+03;  0.0000000E+00;  1.0545209E-14;  1.0000000E+04;  0.0000000E+00;  9.9667158E+03;0.12841745;0.0;0.32535762;16093.588
  6.5914959E-01;  9.9999998E-03;  2.0029996E-02;2068;-0.30014834;0.0;0.0047427244;1013.1412;  4.0610361E-01;10886.838;3;-68.836655;0.0;-2.149338;0;0.45388398;  9.9917617E+03;  0.0000000E+00; -7.8817511E-06;  1.0000000E+04;  0.0000000E+00;  9.9667959E+03;0.12963459;0.0;0.32424939;16053.724
  6.5914571E-01;  9.9999998E-03;  4.0059716E-02;2069;-0.30032155;0.0;0.0096300449;1013.1484;  4.0610364E-01;10892.764;3;-68.209877;0.0;-4.117795;0;0.45468447;  9.9916807E+03;  0.0000000E+00; -3.6017740E-05;  1.0000000E+04;  0.0000000E+00;  9.9670225E+03;0.13332948;0.0;0.32135499;15943.208
  6.5913934E-01;  9.9999998E-03;  6.0088888E-02;2070;-0.30047527;0.0;0.014605612;1013.1569;  4.0610337E-01;10899.775;3;-67.118515;0.0;-5.7357402;0;0.45734814;  9.9915303E+03;  0.0000000E+00; -8.9435205E-05;  1.0000000E+04;  0.0000000E+00;  9.9673486E+03;0.13961923;0.0;0.31772891;15782.11
  6.5913075E-01;  9.9999998E-03;  8.0117829E-02;2071;-0.3005591;0.0;0.019743549;1013.1634;  4.0610313E-01;10905.207;3;-65.679855;0.0;-6.7541494;0;0.46313658;  9.9912920E+03;  0.0000000E+00; -1.7087755E-04;  1.0000000E+04;  0.0000000E+00;  9.9677324E+03;0.14864433;0.0;0.31449226;15591.959
  6.5912038E-01;  9.9999998E-03;  1.0014711E-01;2072;-0.30048028;0.0;0.025114374;1013.1642;  4.0610269E-01;10905.898;3;-63.878689;0.0;-7.4041624;0;0.47270584;  9.9909453E+03;  0.0000000E+00; -3.0277102E-04;  1.0000000E+04;  0.0000000E+00;  9.9681143E+03;0.16050968;0.0;0.31219617;15400.437
  6.5910870E-01;  9.9999998E-03;  1.2017660E-01;2073;-0.30011636;0.0;0.030580558;1013.1539;  4.0610224E-01;10897.307;3;-61.810921;0.0;-7.7275743;0;0.4855985;  9.9904648E+03;  0.0000000E+00; -5.1942532E-04;  1.0000000E+04;  0.0000000E+00;  9.9684092E+03;0.17528868;0.0;0.31030983;15252.604
  6.5909582E-01;  9.9999998E-03;  1.4020509E-01;2074;-0.29951912;0.0;0.03599463;1013.1243;  4.0610200E-01;10872.814;3;-59.580338;0.0;-7.8103781;0;0.50032556;  9.9898105E+03;  0.0000000E+00; -7.8183535E-04;  1.0000000E+04;  0.0000000E+00;  9.9684971E+03;0.19316269;0.0;0.30716288;15208.195
  6.7913270E-01;  9.9999998E-03;  4.5160264E-12;2098;-0.30565992;0.0;4.5183737e-09;1015.8625;  4.0804896E-01;13141.102;3;-69.436745;0.0;6.4690321e-06;0;1.0627615;  9.9563652E+03;  0.0000000E+00;  4.5050542E-14;  1.0000000E+04;  0.0000000E+00;  9.9602441E+03;0.66929287;0.0;0.39346862;19079.982
  6.7913151E-01;  9.9999998E-03;  2.0038893E-02;2099;-0.30562037;0.0;0.0061798422;1015.8647;  4.0804875E-01;13142.88;3;-69.254524;0.0;-3.5559189;0;1.0619196;  9.9562988E+03;  0.0000000E+00; -1.6472797E-05;  1.0000000E+04;  0.0000000E+00;  9.9603643E+03;0.6707468;0.0;0.39117274;19023.43
  6.7912787E-01;  9.9999998E-03;  4.0076520E-02;2100;-0.30555421;0.0;0.012156967;1015.8706;  4.0804878E-01;13147.72;3;-68.678162;0.0;-6.5581388;0;1.0602357;  9.9560957E+03;  0.0000000E+00; -7.1622708E-05;  1.0000000E+04;  0.0000000E+00;  9.9606836E+03;0.67512685;0.0;0.38510895;18868.855
  6.7912191E-01;  9.9999998E-03;  6.0112491E-02;2101;-0.30546355;0.0;0.017969506;1015.8754;  4.0804881E-01;13151.67;3;-67.697189;0.0;-8.8367538;0;1.0598122;  9.9557344E+03;  0.0000000E+00; -1.6928572E-04;  1.0000000E+04;  0.0000000E+00;  9.9611348E+03;0.68247813;0.0;0.37733403;18650.793
  6.7911386E-01;  9.9999998E-03;  8.0147602E-02;2102;-0.30528602;0.0;0.023732632;1015.8738;  4.0804872E-01;13150.386;3;-66.278732;0.0;-10.212852;0;1.0629665;  9.9552090E+03;  0.0000000E+00; -2.9923554E-04;  1.0000000E+04;  0.0000000E+00;  9.9616328E+03;0.69285047;0.0;0.37011603;18405.848
  6.7910409E-01;  9.9999998E-03;  1.0018267E-01;2103;-0.30492979;0.0;0.029602388;1015.8618;  4.0804869E-01;13140.412;3;-64.429558;0.0;-10.976774;0;1.0709722;  9.9544980E+03;  0.0000000E+00; -4.5030919E-04;  1.0000000E+04;  0.0000000E+00;  9.9621064E+03;0.70626026;0.0;0.36471197;18169.678
  6.7909312E-01;  9.9999998E-03;  1.2021800E-01;2104;-0.30422512;0.0;0.035666302;1015.8332;  4.0804863E-01;13116.71;3;-62.288433;0.0;-11.305022;0;1.0831485;  9.9535713E+03;  0.0000000E+00; -6.0586754E-04;  1.0000000E+04;  0.0000000E+00;  9.9624854E+03;0.72275364;0.0;0.36039481;17981.709
  6.7908114E-01;  9.9999998E-03;  1.4025232E-01;2105;-0.30316374;0.0;0.041886888;1015.7828;  4.0804866E-01;13075.034;3;-59.89658;0.0;-11.159462;0;1.0970117;  9.9523740E+03;  0.0000000E+00; -6.8951602E-04;  1.0000000E+04;  0.0000000E+00;  9.9626855E+03;0.74259079;0.0;0.35442087;17881.482
  6.9914460E-01;  9.9999998E-03;  2.6045614E-11;2129;-0.30529875;0.0;5.160719e-09;1016.2427;  4.0912142E-01;13455.771;3;-69.798424;0.0;2.0023435e-06;0;1.7567178;  9.9180830E+03;  0.0000000E+00;  2.5861349E-14;  1.0000000E+04;  0.0000000E+00;  9.9536367E+03;1.2883327;0.0;0.46838513;22114.307
  6.9914365E-01;  9.9999998E-03;  2.0049240E-02;2130;-0.30515066;0.0;0.0090397941;1016.2449;  4.0912130E-01;13457.549;3;-69.662674;0.0;-4.251163;0;1.7544837;  9.9179678E+03;  0.0000000E+00; -2.1708978E-05;  1.0000000E+04;  0.0000000E+00;  9.9537900E+03;1.2898139;0.0;0.46466982;22039.27
  6.9914067E-01;  9.9999998E-03;  4.0096924E-02;2131;-0.30467692;0.0;0.017743405;1016.2491;  4.0912154E-01;13461.005;3;-68.962975;0.0;-7.9761329;0;1.7490175;  9.9176191E+03;  0.0000000E+00; -9.1961672E-05;  1.0000000E+04;  0.0000000E+00;  9.9542207E+03;1.2942444;0.0;0.45477301;21835.096
  6.9913554E-01;  9.9999998E-03;  6.0142476E-02;2132;-0.30395898;0.0;0.025731817;1016.25;  4.0912163E-01;13461.795;3;-67.761703;0.0;-10.896846;0;1.7434151;  9.9170371E+03;  0.0000000E+00; -2.1021074E-04;  1.0000000E+04;  0.0000000E+00;  9.9548125E+03;1.3015803;0.0;0.44183478;21549.771
  6.9912869E-01;  9.9999998E-03;  8.0186665E-02;2133;-0.30304939;0.0;0.033065092;1016.2417;  4.0912190E-01;13454.883;3;-66.194565;0.0;-12.858421;0;1.7410433;  9.9162100E+03;  0.0000000E+00; -3.4913493E-04;  1.0000000E+04;  0.0000000E+00;  9.9554707E+03;1.3117276;0.0;0.42931572;21231.297
  6.9912064E-01;  9.9999998E-03;  1.0023060E-01;2134;-0.30188951;0.0;0.040032897;1016.2197;  4.0912196E-01;13436.613;3;-64.320473;0.0;-13.937635;0;1.7436494;  9.9151250E+03;  0.0000000E+00; -4.5894322E-04;  1.0000000E+04;  0.0000000E+00;  9.9561143E+03;1.3245268;0.0;0.41912255;20915.27
  6.9911236E-01;  9.9999998E-03;  1.2027534E-01;2135;-0.30025578;0.0;0.047300238;1016.181;  4.0912244E-01;13404.617;3;-62.133327;0.0;-14.334811;0;1.7500898;  9.9137695E+03;  0.0000000E+00; -4.7811380E-04;  1.0000000E+04;  0.0000000E+00;  9.9567021E+03;1.3398479;0.0;0.41024187;20625.457
  6.9910425E-01;  9.9999998E-03;  1.4032003E-01;2136;-0.29783383;0.0;0.055292722;1016.1226;  4.0912279E-01;13356.228;3;-59.496674;0.0;-13.967064;0;1.756601;  9.9120986E+03;  0.0000000E+00; -3.2298951E-04;  1.0000000E+04;  0.0000000E+00;  9.9572119E+03;1.357762;0.0;0.398839;20375.563
  7.1928281E-01;  9.9999998E-03; -2.3756707E-11;2160;-0.27460805;0.0;-9.4094466e-09;1015.3672;  4.0959466E-01;12730.07;3;-70.44062;0.0;-4.244037e-06;0;2.4221838;  9.8841240E+03;  0.0000000E+00;  5.7981418E-14;  1.0000000E+04;  0.0000000E+00;  9.9474980E+03;1.8820097;0.0;0.54017395;24930.48
  7.1928138E-01;  9.9999998E-03;  2.0060726E-02;2161;-0.27461022;0.0;0.013682733;1015.3692;  4.0959448E-01;12731.749;3;-70.059441;0.0;-3.5952671;0;2.4182487;  9.8839619E+03;  0.0000000E+00; -1.7440660E-05;  1.0000000E+04;  0.0000000E+00;  9.9477002E+03;1.8832968;0.0;0.53495175;24834.828
  7.1927708E-01;  9.9999998E-03;  4.0119652E-02;2162;-0.27457955;0.0;0.026736945;1015.3721;  4.0959463E-01;12734.218;3;-68.936333;0.0;-6.7845125;0;2.4080479;  9.8834688E+03;  0.0000000E+00; -7.3909388E-05;  1.0000000E+04;  0.0000000E+00;  9.9482500E+03;1.8870902;0.0;0.52095777;24574.063
  7.1927035E-01;  9.9999998E-03;  6.0176447E-02;2163;-0.27434483;0.0;0.038875483;1015.3701;  4.0959498E-01;12732.539;3;-67.033546;0.0;-9.3474779;0;2.3955765;  9.8826523E+03;  0.0000000E+00; -1.6622362E-04;  1.0000000E+04;  0.0000000E+00;  9.9490186E+03;1.8931948;0.0;0.50238174;24207.775
  7.1926188E-01;  9.9999998E-03;  8.0232501E-02;2164;-0.27363759;0.0;0.050284632;1015.3569;  4.0959552E-01;12721.58;3;-64.490501;0.0;-11.128939;0;2.3850689;  9.8815244E+03;  0.0000000E+00; -2.6186960E-04;  1.0000000E+04;  0.0000000E+00;  9.9498828E+03;1.9012665;0.0;0.48380247;23791.701
  7.1925229E-01;  9.9999998E-03;  1.0028988E-01;2165;-0.27227122;0.0;0.061544262;1015.3297;  4.0959564E-01;12699.064;3;-61.44936;0.0;-12.1267;0;2.3785362;  9.8800889E+03;  0.0000000E+00; -2.9992184E-04;  1.0000000E+04;  0.0000000E+00;  9.9507783E+03;1.9108298;0.0;0.46770641;23356.006
  7.1924233E-01;  9.9999998E-03;  1.2034938E-01;2166;-0.26981843;0.0;0.073021673;1015.2892;  4.0959626E-01;12665.488;3;-57.891247;0.0;-12.430243;0;2.3742447;  9.8783691E+03;  0.0000000E+00; -2.1388185E-04;  1.0000000E+04;  0.0000000E+00;  9.9516943E+03;1.9213943;0.0;0.45285031;22905.082
  7.1923274E-01;  9.9999998E-03;  1.4040892E-01;2167;-0.26623547;0.0;0.084689341;1015.2366;  4.0959689E-01;12621.938;3;-53.985256;0.0;-11.979566;0;2.3671236;  9.8763545E+03;  0.0000000E+00;  5.1350798E-05;  1.0000000E+04;  0.0000000E+00;  9.9526738E+03;1.9325696;0.0;0.43455389;22430.129
  7.3953491E-01;  9.9999998E-03;  5.2999372E-11;2191;-0.18448655;0.0;2.5271776e-09;1014.4153;  4.0978214E-01;11941.191;3;-49.486118;0.0;2.3116881e-06;0;2.9201176;  9.8615850E+03;  0.0000000E+00;  2.0394915E-14;  1.0000000E+04;  0.0000000E+00;  9.9424541E+03;2.3224211;0.0;0.59769648;27262.344
  7.3953384E-01;  9.9999998E-03;  2.0065755E-02;2192;-0.18439895;0.0;0.014498571;1014.4175;  4.0978232E-01;11942.97;3;-49.128059;0.0;-4.3033543;0;2.914432;  9.8613760E+03;  0.0000000E+00; -5.9921399E-06;  1.0000000E+04;  0.0000000E+00;  9.9427002E+03;2.3233621;0.0;0.59107006;27144.109
  7.3953092E-01;  9.9999998E-03;  4.0129293E-02;2193;-0.18409328;0.0;0.028208664;1014.4208;  4.0978241E-01;11945.636;3;-48.074871;0.0;-8.1765432;0;2.8992672;  9.8607539E+03;  0.0000000E+00; -2.7341965E-05;  1.0000000E+04;  0.0000000E+00;  9.9433906E+03;2.3260446;0.0;0.57322258;26820.078
  7.3952639E-01;  9.9999998E-03;  6.0189988E-02;2194;-0.18345508;0.0;0.040736601;1014.4186;  4.0978271E-01;11943.859;3;-46.383553;0.0;-11.323011;0;2.8792901;  9.8597393E+03;  0.0000000E+00; -6.3100488E-05;  1.0000000E+04;  0.0000000E+00;  9.9443584E+03;2.3300436;0.0;0.54924661;26359.523
  7.3952079E-01;  9.9999998E-03;  8.0249175E-02;2195;-0.18233824;0.0;0.052248199;1014.4053;  4.0978324E-01;11932.898;3;-44.13673;0.0;-13.630132;0;2.8594334;  9.8583525E+03;  0.0000000E+00; -9.1688555E-05;  1.0000000E+04;  0.0000000E+00;  9.9454736E+03;2.3347223;0.0;0.52471107;25824.34
  7.3951453E-01;  9.9999998E-03;  1.0030904E-01;2196;-0.18061964;0.0;0.063343942;1014.3798;  4.0978372E-01;11911.767;3;-41.433064;0.0;-15.09989;0;2.8419895;  9.8566484E+03;  0.0000000E+00; -7.3336843E-05;  1.0000000E+04;  0.0000000E+00;  9.9466777E+03;2.3392754;0.0;0.50271404;25240.092
  7.3950797E-01;  9.9999998E-03;  1.2037080E-01;2197;-0.1782465;0.0;0.074737348;1014.3456;  4.0978432E-01;11883.327;3;-38.386314;0.0;-15.731302;0;2.8248744;  9.8546592E+03;  0.0000000E+00;  2.8616494E-05;  1.0000000E+04;  0.0000000E+00;  9.9479980E+03;2.3428066;0.0;0.48206776;24597.65
  7.3950136E-01;  9.9999998E-03;  1.4043275E-01;2198;-0.17526433;0.0;0.086630955;1014.3091;  4.0978494E-01;11853.208;3;-35.13723;0.0;-15.470435;0;2.802053;  9.8524502E+03;  0.0000000E+00;  2.2660078E-04;  1.0000000E+04;  0.0000000E+00;  9.9494766E+03;2.3443489;0.0;0.45770401;23878.107
  7.5972861E-01;  9.9999998E-03;  1.4380667E-10;2222;-0.11455322;0.0;1.652516e-08;1013.9504;  4.0985271E-01;11555.499;3;-33.089897;0.0;-7.1200775e-06;0;3.1781757;  9.8527656E+03;  0.0000000E+00; -2.4732967E-14;  1.0000000E+04;  0.0000000E+00;  9.9388770E+03;2.5438519;0.0;0.63432378;28937.932
  7.5972801E-01;  9.9999998E-03;  2.0068904E-02;2223;-0.11437489;0.0;0.014699421;1013.9536;  4.0985301E-01;11558.066;3;-32.787121;0.0;-5.0342441;0;3.1708081;  9.8525303E+03;  0.0000000E+00;  2.8210957E-06;  1.0000000E+04;  0.0000000E+00;  9.9391787E+03;2.5442393;0.0;0.62656873;28797.047
  7.5972652E-01;  9.9999998E-03;  4.0135220E-02;2224;-0.11381388;0.0;0.028485449;1013.9601;  4.0985325E-01;11563.497;3;-31.900297;0.0;-9.5989399;0;3.1508222;  9.8518340E+03;  0.0000000E+00;  8.3389987E-06;  1.0000000E+04;  0.0000000E+00;  9.9400000E+03;2.5452096;0.0;0.60561264;28408.928
  7.5972426E-01;  9.9999998E-03;  6.0198043E-02;2225;-0.1128035;0.0;0.040863879;1013.9628;  4.0985349E-01;11565.67;3;-30.489082;0.0;-13.373806;0;3.1234903;  9.8507070E+03;  0.0000000E+00;  1.4149741E-05;  1.0000000E+04;  0.0000000E+00;  9.9411738E+03;2.546242;0.0;0.57724833;27851.303
  7.5972170E-01;  9.9999998E-03;  8.0258600E-02;2226;-0.1112701;0.0;0.051944815;1013.9557;  4.0985402E-01;11559.844;3;-28.64267;0.0;-16.243601;0;3.0944562;  9.8491914E+03;  0.0000000E+00;  2.6890257E-05;  1.0000000E+04;  0.0000000E+00;  9.9425498E+03;2.5465748;0.0;0.54788136;27192.684
  7.5971913E-01;  9.9999998E-03;  1.0031907E-01;2227;-0.10917484;0.0;0.06231932;1013.9392;  4.0985453E-01;11546.217;3;-26.469437;0.0;-18.223969;0;3.0665851;  9.8473477E+03;  0.0000000E+00;  5.9314942E-05;  1.0000000E+04;  0.0000000E+00;  9.9440635E+03;2.5453117;0.0;0.52127326;26458.996
  7.5971675E-01;  9.9999998E-03;  1.2038067E-01;2228;-0.10654106;0.0;0.072716847;1013.9185;  4.0985519E-01;11529.035;3;-24.089602;0.0;-19.330284;0;3.0379753;  9.8452520E+03;  0.0000000E+00;  1.1837608E-04;  1.0000000E+04;  0.0000000E+00;  9.9457461E+03;2.5413852;0.0;0.49659014;25637.896
  7.5971466E-01;  9.9999998E-03;  1.4044154E-01;2229;-0.1034589;0.0;0.083394058;1013.9024;  4.0985587E-01;11515.705;3;-21.638025;0.0;-19.495808;0;3.0021904;  9.8430293E+03;  0.0000000E+00;  1.9370737E-04;  1.0000000E+04;  0.0000000E+00;  9.9476465E+03;2.5333688;0.0;0.46882156;24714.883
  7.7987355E-01;  9.9999998E-03; -4.2329494E-11;2253;-0.060832419;0.0;-3.7062815e-08;1013.9963;  4.0987828E-01;11592.736;3;-20.192404;0.0;-2.9831892e-05;0;3.2331028;  9.8544932E+03;  0.0000000E+00;  9.2484427E-15;  1.0000000E+04;  0.0000000E+00;  9.9368281E+03;2.5827811;0.0;0.65032172;29914.236
  7.7987337E-01;  9.9999998E-03;  2.0070383E-02;2254;-0.060625512;0.0;0.014496033;1014.0015;  4.0987831E-01;11596.982;3;-19.977419;0.0;-5.6401129;0;3.2243795;  9.8542559E+03;  0.0000000E+00;  4.1251433E-06;  1.0000000E+04;  0.0000000E+00;  9.9371699E+03;2.582536;0.0;0.6418435;29753.842
  7.7987301E-01;  9.9999998E-03;  4.0137909E-02;2255;-0.059995927;0.0;0.028011823;1014.0138;  4.0987867E-01;11607.152;3;-19.352396;0.0;-10.765803;0;3.2005291;  9.8535488E+03;  0.0000000E+00;  1.4621285E-05;  1.0000000E+04;  0.0000000E+00;  9.9381074E+03;2.5816255;0.0;0.61890358;29310.566
  7.7987266E-01;  9.9999998E-03;  6.0201492E-02;2256;-0.058926098;0.0;0.040004101;1014.0245;  4.0987885E-01;11616.039;3;-18.372837;0.0;-15.024712;0;3.1673832;  9.8524111E+03;  0.0000000E+00;  2.8509261E-05;  1.0000000E+04;  0.0000000E+00;  9.9394561E+03;2.5796044;0.0;0.58777887;28669.709
  7.7987242E-01;  9.9999998E-03;  8.0262288E-02;2257;-0.057411768;0.0;0.05056531;1014.0281;  4.0987933E-01;11619.001;3;-17.12237;0.0;-18.288879;0;3.1313758;  9.8508877E+03;  0.0000000E+00;  4.4639804E-05;  1.0000000E+04;  0.0000000E+00;  9.9410439E+03;2.5758605;0.0;0.55551541;27907.598
  7.7987260E-01;  9.9999998E-03;  1.0032251E-01;2258;-0.055489209;0.0;0.060295735;1014.0242;  4.0987992E-01;11615.742;3;-15.703175;0.0;-20.580763;0;3.0961828;  9.8490439E+03;  0.0000000E+00;  6.2562838E-05;  1.0000000E+04;  0.0000000E+00;  9.9428047E+03;2.5696876;0.0;0.52649522;27055.83
  7.7987313E-01;  9.9999998E-03;  1.2038336E-01;2259;-0.05324835;0.0;0.06993477;1014.0184;  4.0988040E-01;11611.003;3;-14.225083;0.0;-21.936234;0;3.0605264;  9.8469766E+03;  0.0000000E+00;  7.8574420E-05;  1.0000000E+04;  0.0000000E+00;  9.9447480E+03;2.5601697;0.0;0.50035661;26107.418
  7.7987403E-01;  9.9999998E-03;  1.4044291E-01;2260;-0.050820515;0.0;0.079754338;1014.0197;  4.0988114E-01;11612.089;3;-12.799042;0.0;-22.299429;0;3.0180545;  9.8448486E+03;  0.0000000E+00;  8.2736267E-05;  1.0000000E+04;  0.0000000E+00;  9.9468926E+03;2.5457153;0.0;0.47233924;25060.992
  7.9999483E-01;  9.9999998E-03; -1.8063691E-10;2284;-0.01394855;0.0;-4.8813742e-08;1014.36;  4.0988538E-01;11892.808;3;-8.2840137;0.0;-3.0906958e-05;0;3.1626554;  9.8618545E+03;  0.0000000E+00; -1.3512231E-14;  1.0000000E+04;  0.0000000E+00;  9.9361416E+03;2.5124936;0.0;0.65016186;30242.818
  7.9999501E-01;  9.9999998E-03;  2.0070475E-02;2285;-0.013765804;0.0;0.014061173;1014.3671;  4.0988538E-01;11898.731;3;-8.1764154;0.0;-6.0414915;0;3.1531808;  9.8616299E+03;  0.0000000E+00;  1.3166235E-06;  1.0000000E+04;  0.0000000E+00;  9.9365117E+03;2.511764;0.0;0.64141685;30069.148
  7.9999554E-01;  9.9999998E-03;  4.0137947E-02;2286;-0.013222926;0.0;0.027133528;1014.3848;  4.0988567E-01;11913.441;3;-7.8683038;0.0;-11.523088;0;3.12726;  9.8609561E+03;  0.0000000E+00;  4.7783515E-06;  1.0000000E+04;  0.0000000E+00;  9.9375254E+03;2.5094812;0.0;0.61777884;29588.783
  7.9999650E-01;  9.9999998E-03;  6.0201243E-02;2287;-0.012337949;0.0;0.038674701;1014.4043;  4.0988603E-01;11929.534;3;-7.4012313;0.0;-16.056635;0;3.0912035;  9.8598682E+03;  0.0000000E+00;  9.3451254E-06;  1.0000000E+04;  0.0000000E+00;  9.9389873E+03;2.5054152;0.0;0.58578831;28893.484
  7.9999804E-01;  9.9999998E-03;  8.0261514E-02;2288;-0.011153474;0.0;0.048793599;1014.4181;  4.0988645E-01;11940.986;3;-6.8378425;0.0;-19.495651;0;3.0521989;  9.8584121E+03;  0.0000000E+00;  1.3909880E-05;  1.0000000E+04;  0.0000000E+00;  9.9407100E+03;2.4993191;0.0;0.55287975;28067.561
  8.0000013E-01;  9.9999998E-03;  1.0032102E-01;2289;-0.0097472183;0.0;0.058118004;1014.4244;  4.0988687E-01;11946.219;3;-6.252903;0.0;-21.863609;0;3.0148175;  9.8566387E+03;  0.0000000E+00;  1.7059838E-05;  1.0000000E+04;  0.0000000E+00;  9.9425996E+03;2.4909332;0.0;0.5238843;27151.139
  8.0000269E-01;  9.9999998E-03;  1.2038103E-01;2290;-0.0082375063;0.0;0.067400768;1014.4283;  4.0988740E-01;11949.378;3;-5.7242665;0.0;-23.217422;0;2.9785249;  9.8546465E+03;  0.0000000E+00;  1.6785169E-05;  1.0000000E+04;  0.0000000E+00;  9.9446563E+03;2.4797277;0.0;0.49879727;26146.367
  8.0000561E-01;  9.9999998E-03;  1.4043956E-01;2291;-0.0067617879;0.0;0.076903209;1014.4376;  4.0988818E-01;11957.078;3;-5.3197641;0.0;-23.532326;0;2.9373045;  9.8526094E+03;  0.0000000E+00;  1.0265046E-05;  1.0000000E+04;  0.0000000E+00;  9.9468701E+03;2.464277;0.0;0.47302741;25065.623
  8.2011402E-01;  9.9999998E-03;  2.9776976E-11;2315;0.033306573;0.0;-2.3076416e-09;1014.8347;  4.0987182E-01;12284.438;3;4.1568632;0.0;-3.1309639e-05;0;3.0299428;  9.8712510E+03;  0.0000000E+00;  1.8769396E-14;  1.0000000E+04;  0.0000000E+00;  9.9365645E+03;2.3902731;0.0;0.63966972;30025.316
  8.2011443E-01;  9.9999998E-03;  2.0069495E-02;2316;0.033432886;0.0;0.013553773;1014.8433;  4.0987197E-01;12291.645;3;4.1535778;0.0;-6.191525;0;3.0204802;  9.8710410E+03;  0.0000000E+00; -8.0001792E-07;  1.0000000E+04;  0.0000000E+00;  9.9369443E+03;2.389405;0.0;0.63107502;29846.361
  8.2011563E-01;  9.9999998E-03;  4.0135961E-02;2317;0.033800308;0.0;0.026155023;1014.8649;  4.0987214E-01;12309.513;3;4.1372151;0.0;-11.785216;0;2.9947224;  9.8704170E+03;  0.0000000E+00; -2.7947631E-06;  1.0000000E+04;  0.0000000E+00;  9.9379893E+03;2.3868086;0.0;0.60791367;29351.986
  8.2011765E-01;  9.9999998E-03;  6.0198218E-02;2318;0.034373928;0.0;0.037297439;1014.8896;  4.0987250E-01;12329.945;3;4.0895309;0.0;-16.362211;0;2.9593418;  9.8693955E+03;  0.0000000E+00; -5.0342232E-06;  1.0000000E+04;  0.0000000E+00;  9.9394883E+03;2.3825517;0.0;0.57679003;28638.607
  8.2012045E-01;  9.9999998E-03;  8.0257446E-02;2319;0.035098769;0.0;0.047127381;1014.9091;  4.0987289E-01;12346.135;3;3.9838414;0.0;-19.757948;0;2.9220753;  9.8680137E+03;  0.0000000E+00; -6.5280842E-06;  1.0000000E+04;  0.0000000E+00;  9.9412412E+03;2.3768246;0.0;0.54525054;27796.957
  8.2012403E-01;  9.9999998E-03;  1.0031599E-01;2320;0.035899062;0.0;0.056309283;1014.9194;  4.0987328E-01;12354.625;3;3.7909675;0.0;-21.993877;0;2.8881946;  9.8663066E+03;  0.0000000E+00; -6.6940993E-06;  1.0000000E+04;  0.0000000E+00;  9.9431416E+03;2.3699031;0.0;0.51829135;26874.949
  8.2012820E-01;  9.9999998E-03;  1.2037519E-01;2321;0.036681097;0.0;0.06561204;1014.924;  4.0987393E-01;12358.376;3;3.4855461;0.0;-23.145966;0;2.8577402;  9.8643564E+03;  0.0000000E+00; -5.5587952E-06;  1.0000000E+04;  0.0000000E+00;  9.9451670E+03;2.3617406;0.0;0.49599957;25882.504
  8.2013291E-01;  9.9999998E-03;  1.4043312E-01;2322;0.037352279;0.0;0.075270697;1014.9289;  4.0987450E-01;12362.521;3;3.0585029;0.0;-23.231937;0;2.8249373;  9.8623145E+03;  0.0000000E+00; -2.1414403E-06;  1.0000000E+04;  0.0000000E+00;  9.9472998E+03;2.3512108;0.0;0.47372642;24840.547
  8.4023941E-01;  9.9999998E-03;  1.6823090E-10;2346;0.083009541;0.0;5.1090563e-08;1015.0386;  4.0971085E-01;12451.278;3;17.230455;0.0;4.6649773e-05;0;2.8581831;  9.8816699E+03;  0.0000000E+00;  2.2798176E-15;  1.0000000E+04;  0.0000000E+00;  9.9378535E+03;2.2344742;0.0;0.62370896;29370.875
  8.4024000E-01;  9.9999998E-03;  2.0067723E-02;2347;0.083071657;0.0;0.013079808;1015.0474;  4.0971103E-01;12458.483;3;17.126509;0.0;-6.0848484;0;2.8494697;  9.8814736E+03;  0.0000000E+00; -7.6143789E-07;  1.0000000E+04;  0.0000000E+00;  9.9382305E+03;2.2338989;0.0;0.6155709;29194.664
  8.4024179E-01;  9.9999998E-03;  4.0132485E-02;2348;0.083245799;0.0;0.025266936;1015.0701;  4.0971118E-01;12477.336;3;16.818466;0.0;-11.550568;0;2.8260257;  9.8808877E+03;  0.0000000E+00; -2.5539607E-06;  1.0000000E+04;  0.0000000E+00;  9.9392529E+03;2.2322798;0.0;0.59374595;28709.334
  8.4024459E-01;  9.9999998E-03;  6.0193148E-02;2349;0.083501004;0.0;0.036106881;1015.0956;  4.0971145E-01;12498.457;3;16.31654;0.0;-15.96058;0;2.7946799;  9.8799180E+03;  0.0000000E+00; -4.0281129E-06;  1.0000000E+04;  0.0000000E+00;  9.9407129E+03;2.2299409;0.0;0.56473893;28013.396
  8.4024847E-01;  9.9999998E-03;  8.0250941E-02;2350;0.083799548;0.0;0.045787714;1015.114;  4.0971202E-01;12513.656;3;15.639406;0.0;-19.13917;0;2.763418;  9.8785771E+03;  0.0000000E+00; -3.7456355E-06;  1.0000000E+04;  0.0000000E+00;  9.9424072E+03;2.2274561;0.0;0.53596193;27200.998
  8.4025335E-01;  9.9999998E-03;  1.0030828E-01;2351;0.084107943;0.0;0.055006564;1015.1204;  4.0971234E-01;12518.986;3;14.814741;0.0;-21.106112;0;2.7377908;  9.8768867E+03;  0.0000000E+00; -1.0923585E-06;  1.0000000E+04;  0.0000000E+00;  9.9442119E+03;2.225527;0.0;0.51226383;26324.098
  8.4025919E-01;  9.9999998E-03;  1.2036659E-01;2352;0.084403202;0.0;0.064545169;1015.1161;  4.0971294E-01;12515.432;3;13.881483;0.0;-21.951759;0;2.7180171;  9.8749023E+03;  0.0000000E+00;  3.7699524E-06;  1.0000000E+04;  0.0000000E+00;  9.9461064E+03;2.2244949;0.0;0.49352214;25395.578
  8.4026587E-01;  9.9999998E-03;  1.4042401E-01;2353;0.084683441;0.0;0.074606828;1015.1066;  4.0971336E-01;12507.635;3;12.896654;0.0;-21.73489;0;2.6983237;  9.8727451E+03;  0.0000000E+00;  1.3396283E-05;  1.0000000E+04;  0.0000000E+00;  9.9480586E+03;2.2235181;0.0;0.4748055;24437.568
  8.6036718E-01;  9.9999998E-03;  1.1317817E-10;2377;0.13314304;0.0;4.2080316e-08;1014.9955;  4.0939522E-01;12412.771;3;30.21344;0.0;1.7791433e-05;0;2.6357789;  9.8941514E+03;  0.0000000E+00;  2.4541164E-14;  1.0000000E+04;  0.0000000E+00;  9.9398213E+03;2.0307314;0.0;0.60504735;28370.803
  8.6036795E-01;  9.9999998E-03;  2.0065330E-02;2378;0.13315167;0.0;0.012672882;1015.0037;  4.0939528E-01;12419.579;3;30.027763;0.0;-5.7523193;0;2.6283817;  9.8939600E+03;  0.0000000E+00;  1.8961228E-07;  1.0000000E+04;  0.0000000E+00;  9.9401748E+03;2.0308449;0.0;0.59753686;28203.982
  8.6037016E-01;  9.9999998E-03;  4.0127821E-02;2379;0.1331698;0.0;0.024516623;1015.0243;  4.0939528E-01;12436.65;3;29.484358;0.0;-10.887209;0;2.6088519;  9.8933916E+03;  0.0000000E+00;  8.9944479E-07;  1.0000000E+04;  0.0000000E+00;  9.9411436E+03;2.0313346;0.0;0.57751733;27746.541
  8.6037374E-01;  9.9999998E-03;  6.0186412E-02;2380;0.13318293;0.0;0.035126146;1015.0457;  4.0939564E-01;12454.313;3;28.623495;0.0;-14.969254;0;2.5839491;  9.8924385E+03;  0.0000000E+00;  2.6784498E-06;  1.0000000E+04;  0.0000000E+00;  9.9425088E+03;2.0326684;0.0;0.55128068;27096.459
  8.6037868E-01;  9.9999998E-03;  8.0242373E-02;2381;0.13319029;0.0;0.044721641;1015.0577;  4.0939593E-01;12464.278;3;27.509724;0.0;-17.822584;0;2.5615468;  9.8911055E+03;  0.0000000E+00;  5.8714513E-06;  1.0000000E+04;  0.0000000E+00;  9.9440693E+03;2.0356197;0.0;0.52592701;26347.428
  8.6038488E-01;  9.9999998E-03;  1.0029816E-01;2382;0.13322285;0.0;0.054019388;1015.0539;  4.0939632E-01;12461.12;3;26.228611;0.0;-19.467148;0;2.546999;  9.8893818E+03;  0.0000000E+00;  9.7533621E-06;  1.0000000E+04;  0.0000000E+00;  9.9457070E+03;2.0410855;0.0;0.50591338;25550.416
  8.6039251E-01;  9.9999998E-03;  1.2035526E-01;2383;0.13335289;0.0;0.063804425;1015.0352;  4.0939671E-01;12445.627;3;24.883623;0.0;-20.000793;0;2.5402915;  9.8873057E+03;  0.0000000E+00;  1.4093257E-05;  1.0000000E+04;  0.0000000E+00;  9.9474043E+03;2.0496101;0.0;0.4906815;24715.703
  8.6040151E-01;  9.9999998E-03;  1.4041190E-01;2384;0.13369249;0.0;0.074253529;1015.0048;  4.0939718E-01;12420.463;3;23.595037;0.0;-19.509727;0;2.5354218;  9.8849619E+03;  0.0000000E+00;  2.3422015E-05;  1.0000000E+04;  0.0000000E+00;  9.9491533E+03;2.0605342;0.0;0.47488758;23860.055
  8.8048846E-01;  9.9999998E-03; -1.2095711E-10;2408;0.18053742;0.0;-3.1543816e-09;1014.8179;  4.0894213E-01;12262.031;3;42.456474;0.0;1.726058e-05;0;2.3408628;  9.9101680E+03;  0.0000000E+00;  1.1271784E-14;  1.0000000E+04;  0.0000000E+00;  9.9423379E+03;1.7563205;0.0;0.58454216;27093.887
  8.8048935E-01;  9.9999998E-03;  2.0062393E-02;2409;0.18051414;0.0;0.012306649;1014.8248;  4.0894210E-01;12267.852;3;42.210911;0.0;-5.2511573;0;2.3350654;  9.9099766E+03;  0.0000000E+00;  5.1749657E-07;  1.0000000E+04;  0.0000000E+00;  9.9426611E+03;1.7573557;0.0;0.57770956;26940.965
  8.8049203E-01;  9.9999998E-03;  4.0122095E-02;2410;0.18044297;0.0;0.023836892;1014.8412;  4.0894228E-01;12281.366;3;41.496689;0.0;-9.912076;0;2.3202336;  9.9094141E+03;  0.0000000E+00;  1.8445954E-06;  1.0000000E+04;  0.0000000E+00;  9.9435469E+03;1.7606128;0.0;0.5596208;26524.025
  8.8049632E-01;  9.9999998E-03;  6.0178149E-02;2411;0.18033113;0.0;0.03422251;1014.8564;  4.0894243E-01;12293.992;3;40.38097;0.0;-13.568563;0;2.3028398;  9.9084639E+03;  0.0000000E+00;  3.8834132E-06;  1.0000000E+04;  0.0000000E+00;  9.9447832E+03;1.7665488;0.0;0.536291;25938.191
  8.8050228E-01;  9.9999998E-03;  8.0231830E-02;2412;0.18021847;0.0;0.043699473;1014.8589;  4.0894270E-01;12296.063;3;38.967781;0.0;-16.056118;0;2.2902963;  9.9071230E+03;  0.0000000E+00;  6.0075486E-06;  1.0000000E+04;  0.0000000E+00;  9.9461699E+03;1.7758936;0.0;0.51440275;25272.947
  8.8050997E-01;  9.9999998E-03;  1.0028557E-01;2413;0.18020162;0.0;0.052986056;1014.8431;  4.0894306E-01;12282.94;3;37.39193;0.0;-17.396217;0;2.2874031;  9.9053613E+03;  0.0000000E+00;  6.6752291E-06;  1.0000000E+04;  0.0000000E+00;  9.9476045E+03;1.789495;0.0;0.49790823;24573.803
  8.8051945E-01;  9.9999998E-03;  1.2034091E-01;2414;0.18044402;0.0;0.062861107;1014.8087;  4.0894344E-01;12254.431;3;35.810047;0.0;-17.684305;0;2.2936404;  9.9031943E+03;  0.0000000E+00;  5.8927285E-06;  1.0000000E+04;  0.0000000E+00;  9.9490908E+03;1.8079102;0.0;0.48573023;23844.018
  8.8053107E-01;  9.9999998E-03;  1.4039618E-01;2415;0.18116485;0.0;0.07348711;1014.7581;  4.0894398E-01;12212.6;3;34.392258;0.0;-17.012852;0;2.3027627;  9.9006572E+03;  0.0000000E+00;  8.8655243E-06;  1.0000000E+04;  0.0000000E+00;  9.9506279E+03;1.8306534;0.0;0.47210926;23091.113
  9.0059423E-01;  9.9999998E-03; -1.3209069E-10;2439;0.22262548;0.0;4.1801158e-09;1014.571;  4.0837684E-01;12052.812;3;53.762249;0.0;3.3953067e-05;0;1.9701201;  9.9299092E+03;  0.0000000E+00;  2.2453951E-14;  1.0000000E+04;  0.0000000E+00;  9.9452959E+03;1.4079795;0.0;0.56214058;25593.959
  9.0059531E-01;  9.9999998E-03;  2.0058943E-02;2440;0.22259979;0.0;0.011922829;1014.577;  4.0837681E-01;12057.741;3;53.478569;0.0;-4.6496682;0;1.9658945;  9.9297314E+03;  0.0000000E+00; -1.7513945E-07;  1.0000000E+04;  0.0000000E+00;  9.9455879E+03;1.4099351;0.0;0.5559594;25457.459
  9.0059847E-01;  9.9999998E-03;  4.0115368E-02;2441;0.22252762;0.0;0.023105476;1014.5895;  4.0837678E-01;12068.095;3;52.657532;0.0;-8.7598553;0;1.9556179;  9.9291855E+03;  0.0000000E+00; -1.0253557E-06;  1.0000000E+04;  0.0000000E+00;  9.9463740E+03;1.4159061;0.0;0.53971189;25087.891
  9.0060365E-01;  9.9999998E-03;  6.0168389E-02;2442;0.2224341;0.0;0.033199362;1014.5977;  4.0837690E-01;12074.896;3;51.386242;0.0;-11.955655;0;1.9453127;  9.9282607E+03;  0.0000000E+00; -2.6652801E-06;  1.0000000E+04;  0.0000000E+00;  9.9474619E+03;1.426212;0.0;0.51910079;24575.482
  9.0061080E-01;  9.9999998E-03;  8.0219284E-02;2443;0.22238953;0.0;0.042441595;1014.5923;  4.0837705E-01;12070.459;3;49.798672;0.0;-14.092358;0;1.9417164;  9.9269453E+03;  0.0000000E+00; -5.2946934E-06;  1.0000000E+04;  0.0000000E+00;  9.9486592E+03;1.4413658;0.0;0.50035065;24002.559
  9.0061998E-01;  9.9999998E-03;  1.0027044E-01;2444;0.22253504;0.0;0.051539931;1014.5671;  4.0837732E-01;12049.648;3;48.062031;0.0;-15.191231;0;1.9488859;  9.9252070E+03;  0.0000000E+00; -1.0068181E-05;  1.0000000E+04;  0.0000000E+00;  9.9498896E+03;1.4619862;0.0;0.48689979;23406.057
  9.0063149E-01;  9.9999998E-03;  1.2032338E-01;2445;0.22309339;0.0;0.06126203;1014.5211;  4.0837783E-01;12011.583;3;46.366497;0.0;-15.333039;0;1.9657679;  9.9230254E+03;  0.0000000E+00; -1.7417449E-05;  1.0000000E+04;  0.0000000E+00;  9.9511592E+03;1.4885534;0.0;0.47721446;22779.918
  9.0064567E-01;  9.9999998E-03;  1.4037652E-01;2446;0.22435541;0.0;0.071770318;1014.4565;  4.0837812E-01;11958.134;3;44.91008;0.0;-14.593347;0;1.9860985;  9.9203994E+03;  0.0000000E+00; -2.5580999E-05;  1.0000000E+04;  0.0000000E+00;  9.9525117E+03;1.5208589;0.0;0.46523961;22121.281
  9.2065305E-01;  9.9999998E-03; -1.0266961E-11;2470;0.25083068;0.0;8.4417691e-09;1014.2279;  4.0772849E-01;11762.553;3;63.939426;0.0;1.2387172e-06;0;1.5556383;  9.9515283E+03;  0.0000000E+00; -3.7452971E-14;  1.0000000E+04;  0.0000000E+00;  9.9485801E+03;1.0178057;0.0;0.53783268;23919.076
  9.2065448E-01;  9.9999998E-03;  2.0055175E-02;2471;0.25090101;0.0;0.011467606;1014.2326;  4.0772846E-01;11766.495;3;63.656456;0.0;-4.0111227;0;1.5526724;  9.9513633E+03;  0.0000000E+00; -1.0858793E-06;  1.0000000E+04;  0.0000000E+00;  9.9488359E+03;1.0204133;0.0;0.53225917;23800.332
  9.2065871E-01;  9.9999998E-03;  4.0107962E-02;2472;0.25112262;0.0;0.022216575;1014.2424;  4.0772858E-01;11774.574;3;62.842136;0.0;-7.5521207;0;1.5459814;  9.9508672E+03;  0.0000000E+00; -4.5479924E-06;  1.0000000E+04;  0.0000000E+00;  9.9495225E+03;1.0282769;0.0;0.51770455;23481.328
  9.2066574E-01;  9.9999998E-03;  6.0157530E-02;2473;0.25153905;0.0;0.03190124;1014.2474;  4.0772855E-01;11778.711;3;61.574955;0.0;-10.303263;0;1.5410465;  9.9500264E+03;  0.0000000E+00; -1.0036631E-05;  1.0000000E+04;  0.0000000E+00;  9.9504561E+03;1.0415195;0.0;0.49952698;23045.385
  9.2067552E-01;  9.9999998E-03;  8.0205098E-02;2474;0.25221795;0.0;0.040743615;1014.2379;  4.0772885E-01;11770.823;3;59.974007;0.0;-12.141514;0;1.543844;  9.9488242E+03;  0.0000000E+00; -1.6379989E-05;  1.0000000E+04;  0.0000000E+00;  9.9514619E+03;1.060365;0.0;0.48347905;22565.539
  9.2068815E-01;  9.9999998E-03;  1.0025302E-01;2475;0.25328642;0.0;0.049437225;1014.2094;  4.0772900E-01;11747.264;3;58.212276;0.0;-13.081103;0;1.5576878;  9.9472266E+03;  0.0000000E+00; -2.3199991E-05;  1.0000000E+04;  0.0000000E+00;  9.9524922E+03;1.0851611;0.0;0.4725267;22068.408
  9.2070377E-01;  9.9999998E-03;  1.2030283E-01;2476;0.25494331;0.0;0.058747958;1014.1605;  4.0772918E-01;11706.851;3;56.505795;0.0;-13.174959;0;1.5811445;  9.9451816E+03;  0.0000000E+00; -3.1692896E-05;  1.0000000E+04;  0.0000000E+00;  9.9535781E+03;1.1163357;0.0;0.46480867;21538.053
  9.2072260E-01;  9.9999998E-03;  1.4035311E-01;2477;0.25748277;0.0;0.068864599;1014.0921;  4.0772936E-01;11650.275;3;55.054031;0.0;-12.46137;0;1.6083107;  9.9426426E+03;  0.0000000E+00; -4.7582831E-05;  1.0000000E+04;  0.0000000E+00;  9.9547637E+03;1.154139;0.0;0.45417172;20962.029
  9.4066554E-01;  9.9999998E-03;  1.0793251E-10;2501;0.25950277;0.0;2.9875139e-08;1013.707;  4.0702915E-01;11323.601;3;69.087791;0.0;6.8684603e-06;0;1.1523337;  9.9720176E+03;  0.0000000E+00; -1.5463601E-14;  1.0000000E+04;  0.0000000E+00;  9.9520742E+03;0.64034784;0.0;0.51198584;22115.721
  9.4066709E-01;  9.9999998E-03;  2.0050976E-02;2502;0.25971046;0.0;0.010850353;1013.7112;  4.0702918E-01;11327.047;3;68.946594;0.0;-3.3659995;0;1.1502042;  9.9718838E+03;  0.0000000E+00; -1.2280125E-06;  1.0000000E+04;  0.0000000E+00;  9.9522939E+03;0.64320743;0.0;0.50699681;22015.561
  9.4067180E-01;  9.9999998E-03;  4.0099785E-02;2503;0.26035243;0.0;0.021040989;1013.72;  4.0702921E-01;11334.332;3;68.52594;0.0;-6.3333087;0;1.1458018;  9.9714678E+03;  0.0000000E+00; -5.1548841E-06;  1.0000000E+04;  0.0000000E+00;  9.9528770E+03;0.65176123;0.0;0.49404058;21748.652
  9.4067961E-01;  9.9999998E-03;  6.0145624E-02;2504;0.26146561;0.0;0.03023459;1013.7236;  4.0702915E-01;11337.282;3;67.773895;0.0;-8.6434126;0;1.1440233;  9.9707637E+03;  0.0000000E+00; -1.0950672E-05;  1.0000000E+04;  0.0000000E+00;  9.9536533E+03;0.66594732;0.0;0.47807598;21389.158
  9.4069070E-01;  9.9999998E-03;  8.0189645E-02;2505;0.26311746;0.0;0.038624398;1013.715;  4.0702927E-01;11330.188;3;66.79966;0.0;-10.202698;0;1.1500804;  9.9697549E+03;  0.0000000E+00; -1.6005084E-05;  1.0000000E+04;  0.0000000E+00;  9.9544814E+03;0.68572634;0.0;0.46435413;20998.957
  9.4070506E-01;  9.9999998E-03;  1.0023403E-01;2506;0.26539677;0.0;0.046841256;1013.6893;  4.0702939E-01;11308.908;3;65.764992;0.0;-11.030554;0;1.1666255;  9.9684004E+03;  0.0000000E+00; -1.8104311E-05;  1.0000000E+04;  0.0000000E+00;  9.9553301E+03;0.71121943;0.0;0.4554061;20593.51
  9.4072288E-01;  9.9999998E-03;  1.2028033E-01;2507;0.26842761;0.0;0.055626217;1013.6465;  4.0702936E-01;11273.545;3;64.649673;0.0;-11.156675;0;1.1920558;  9.9666387E+03;  0.0000000E+00; -1.7696890E-05;  1.0000000E+04;  0.0000000E+00;  9.9562451E+03;0.74288315;0.0;0.44917271;20147.637
  9.4074446E-01;  9.9999998E-03;  1.4032736E-01;2508;0.27243283;0.0;0.065215938;1013.5847;  4.0702954E-01;11222.424;3;63.703487;0.0;-10.55574;0;1.2211565;  9.9643594E+03;  0.0000000E+00; -2.6185158E-05;  1.0000000E+04;  0.0000000E+00;  9.9572998E+03;0.78155184;0.0;0.43960467;19641.324
  9.6066338E-01;  9.9999998E-03;  3.3048366E-11;2532;0.26062223;0.0;1.3820131e-08;1012.9537;  4.0630871E-01;10690.567;3;70.549515;0.0;-2.89132e-06;0;0.80807757;  9.9889551E+03;  0.0000000E+00;  2.3610201E-14;  1.0000000E+04;  0.0000000E+00;  9.9556484E+03;0.32273582;0.0;0.48534173;20234.137
  9.6066499E-01;  9.9999998E-03;  2.0046530E-02;2533;0.26089793;0.0;0.010207437;1012.9575;  4.0630865E-01;10693.813;3;70.446053;0.0;-2.7393777;0;0.80643696;  9.9888467E+03;  0.0000000E+00; -7.9249588E-07;  1.0000000E+04;  0.0000000E+00;  9.9558271E+03;0.32549772;0.0;0.48093924;20152.969
  9.6066982E-01;  9.9999998E-03;  4.0091075E-02;2534;0.26173365;0.0;0.019770343;1012.9655;  4.0630877E-01;10700.303;3;70.157066;0.0;-5.1495771;0;0.80326521;  9.9885264E+03;  0.0000000E+00; -3.3239626E-06;  1.0000000E+04;  0.0000000E+00;  9.9563047E+03;0.33371004;0.0;0.4695552;19938.311
  9.6067798E-01;  9.9999998E-03;  6.0133077E-02;2535;0.26318368;0.0;0.028434029;1012.9695;  4.0630871E-01;10703.644;3;69.711594;0.0;-7.0109782;0;0.80283964;  9.9879785E+03;  0.0000000E+00; -6.5273430E-06;  1.0000000E+04;  0.0000000E+00;  9.9569297E+03;0.34717429;0.0;0.45566532;19652.813
  9.6068954E-01;  9.9999998E-03;  8.0173612E-02;2536;0.265306;0.0;0.036397818;1012.9638;  4.0630874E-01;10698.914;3;69.148605;0.0;-8.2675619;0;0.80962217;  9.9871885E+03;  0.0000000E+00; -7.0747533E-06;  1.0000000E+04;  0.0000000E+00;  9.9575947E+03;0.36566466;0.0;0.44395748;19345.354
  9.6070457E-01;  9.9999998E-03;  1.0021467E-01;2537;0.26819023;0.0;0.044215534;1012.9445;  4.0630874E-01;10682.967;3;68.627235;0.0;-8.9453783;0;0.82569087;  9.9861221E+03;  0.0000000E+00; -1.1685186E-06;  1.0000000E+04;  0.0000000E+00;  9.9582822E+03;0.38915423;0.0;0.43653664;19020.119
  9.6072322E-01;  9.9999998E-03;  1.2025756E-01;2538;0.27197191;0.0;0.052546985;1012.912;  4.0630874E-01;10656.196;3;68.135811;0.0;-9.0442104;0;0.84941018;  9.9846953E+03;  0.0000000E+00;  1.3143263E-05;  1.0000000E+04;  0.0000000E+00;  9.9590703E+03;0.41817215;0.0;0.431238;18644.203
  9.6074575E-01;  9.9999998E-03;  1.4030129E-01;2539;0.27678168;0.0;0.061657891;1012.8632;  4.0630877E-01;10615.943;3;67.79493;0.0;-8.4973526;0;0.87640971;  9.9827813E+03;  0.0000000E+00;  2.5440586E-05;  1.0000000E+04;  0.0000000E+00;  9.9600176E+03;0.45411438;0.0;0.42229533;18192.861
  9.8065460E-01;  9.9999998E-03; -3.3914586E-11;2563;0.25917938;0.0;-7.2778934e-09;1011.983;  4.0559509E-01;9876.3223;3;71.171196;0.0;-2.3275352e-06;0;0.54520893;  1.0001382E+04;  0.0000000E+00;  2.4857444E-14;  1.0000000E+04;  0.0000000E+00;  9.9591738E+03;0.086411655;0.0;0.45879731;18327.629
  9.8065627E-01;  9.9999998E-03;  2.0042131E-02;2564;0.25950253;0.0;0.0095355529;1011.9861;  4.0559512E-01;9878.876;3;71.088455;0.0;-2.1570535;0;0.54388762;  1.0001299E+04;  0.0000000E+00; -5.5615573E-07;  1.0000000E+04;  0.0000000E+00;  9.9593145E+03;0.088892646;0.0;0.45499498;18265.098
  9.8066127E-01;  9.9999998E-03;  4.0082686E-02;2565;0.26047623;0.0;0.018549288;1011.9929;  4.0559503E-01;9884.4727;3;70.829453;0.0;-4.03513;0;0.54141468;  1.0001057E+04;  0.0000000E+00; -2.0476555E-06;  1.0000000E+04;  0.0000000E+00;  9.9596904E+03;0.096237294;0.0;0.44517741;18100.576
  9.8066968E-01;  9.9999998E-03;  6.0121104E-02;2566;0.26215088;0.0;0.026783641;1011.9973;  4.0559503E-01;9888.0029;3;70.529373;0.0;-5.462718;0;0.54141724;  1.0000646E+04;  0.0000000E+00; -2.9432897E-06;  1.0000000E+04;  0.0000000E+00;  9.9601787E+03;0.10818174;0.0;0.43323547;17883.078
  9.8068142E-01;  9.9999998E-03;  8.0158338E-02;2567;0.26456958;0.0;0.034413449;1011.9933;  4.0559512E-01;9884.752;3;70.177322;0.0;-6.3738074;0;0.54760969;  1.0000050E+04;  0.0000000E+00; -4.8740123E-08;  1.0000000E+04;  0.0000000E+00;  9.9607002E+03;0.12440981;0.0;0.42319986;17646.963
  9.8069674E-01;  9.9999998E-03;  1.0019623E-01;2568;0.26776636;0.0;0.041943476;1011.98;  4.0559500E-01;9873.835;3;69.737595;0.0;-6.8823905;0;0.56155664;  9.9992285E+03;  0.0000000E+00;  1.0082498E-05;  1.0000000E+04;  0.0000000E+00;  9.9612598E+03;0.14481689;0.0;0.41673973;17386.031
  9.8071581E-01;  9.9999998E-03;  1.2023603E-01;2569;0.27185354;0.0;0.04995336;1011.958;  4.0559494E-01;9855.6436;3;69.418434;0.0;-6.9251957;0;0.58162504;  9.9981016E+03;  0.0000000E+00;  3.0536645E-05;  1.0000000E+04;  0.0000000E+00;  9.9619551E+03;0.16997027;0.0;0.41165477;17062.344
  9.8073888E-01;  9.9999998E-03;  1.4027676E-01;2570;0.27702788;0.0;0.058719262;1011.9226;  4.0559492E-01;9826.4453;3;69.281013;0.0;-6.3422351;0;0.60423136;  9.9965117E+03;  0.0000000E+00;  5.7021207E-05;  1.0000000E+04;  0.0000000E+00;  9.9628408E+03;0.20162791;0.0;0.40260342;16649.666
  1.0006416E+00;  9.9999998E-03;  9.7416528E-12;2594;0.25609696;0.0;4.0897628e-09;1010.8669;  4.0491152E-01;8940.4287;3;71.467773;0.0;-2.4834153e-06;0;0.36053893;  1.0009650E+04;  0.0000000E+00;  5.1118959E-15;  1.0000000E+04;  0.0000000E+00;  9.9625537E+03;-0.072496109;0.0;0.43303505;16443.082
  1.0006434E+00;  9.9999998E-03;  2.0038240E-02;2595;0.25647503;0.0;0.0090207001;1010.8694;  4.0491161E-01;8942.4873;3;71.400322;0.0;-1.588272;0;0.35951224;  1.0009590E+04;  0.0000000E+00; -8.3474288E-07;  1.0000000E+04;  0.0000000E+00;  9.9626592E+03;-0.070317805;0.0;0.42983004;16397.557
  1.0006485E+00;  9.9999998E-03;  4.0075261E-02;2596;0.25761697;0.0;0.017605782;1010.8745;  4.0491146E-01;8946.6006;3;71.224686;0.0;-3.0010629;0;0.35765073;  1.0009401E+04;  0.0000000E+00; -2.4341234E-06;  1.0000000E+04;  0.0000000E+00;  9.9629395E+03;-0.063879855;0.0;0.42153057;16277.742
  1.0006572E+00;  9.9999998E-03;  6.0110707E-02;2597;0.25953129;0.0;0.025556019;1010.8773;  4.0491143E-01;8948.8486;3;70.969078;0.0;-4.1161776;0;0.35790297;  1.0009080E+04;  0.0000000E+00; -2.3329706E-06;  1.0000000E+04;  0.0000000E+00;  9.9633096E+03;-0.053436052;0.0;0.41133901;16117.677
  1.0006692E+00;  9.9999998E-03;  8.0145359E-02;2598;0.2622017;0.0;0.032950379;1010.874;  4.0491137E-01;8946.1895;3;70.685127;0.0;-4.8650556;0;0.36324099;  1.0008608E+04;  0.0000000E+00;  1.5447913E-06;  1.0000000E+04;  0.0000000E+00;  9.9637236E+03;-0.039286111;0.0;0.40252709;15936.637
  1.0006846E+00;  9.9999998E-03;  1.0018057E-01;2599;0.26568469;0.0;0.040238518;1010.8644;  4.0491140E-01;8938.3291;3;70.397423;0.0;-5.1768351;0;0.37477252;  1.0007941E+04;  0.0000000E+00;  8.0169430E-06;  1.0000000E+04;  0.0000000E+00;  9.9642021E+03;-0.021541743;0.0;0.39631426;15720.282
  1.0007039E+00;  9.9999998E-03;  1.2021748E-01;2600;0.27009675;0.0;0.047990967;1010.8487;  4.0491116E-01;8925.2676;3;70.200211;0.0;-5.0862355;0;0.39086613;  1.0006996E+04;  0.0000000E+00;  1.5861831E-05;  1.0000000E+04;  0.0000000E+00;  9.9648398E+03;0.00032102969;0.0;0.3905451;15429.663
  1.0007277E+00;  9.9999998E-03;  1.4025494E-01;2601;0.27557093;0.0;0.056266464;1010.8227;  4.0491119E-01;8903.8652;3;70.102478;0.0;-4.4871435;0;0.40853918;  1.0005615E+04;  0.0000000E+00;  2.7269649E-05;  1.0000000E+04;  0.0000000E+00;  9.9657002E+03;0.028102033;0.0;0.38043714;15040.909
  1.0206261E+00;  9.9999998E-03;  2.5876877E-11;2625;0.2522625;0.0;4.4638346e-09;1009.7028;  4.0427628E-01;7963.4355;3;71.601685;0.0;-6.5111053e-06;0;0.23586565;  1.0014806E+04;  0.0000000E+00;  1.8088793E-14;  1.0000000E+04;  0.0000000E+00;  9.9657275E+03;-0.172445;0.0;0.40831065;14613.377
  1.0206279E+00;  9.9999998E-03;  2.0034719E-02;2626;0.25270408;0.0;0.0085112778;1009.7042;  4.0427637E-01;7964.5103;3;71.554321;0.0;-1.1949821;0;0.23517947;  1.0014752E+04;  0.0000000E+00; -1.0238601E-06;  1.0000000E+04;  0.0000000E+00;  9.9658018E+03;-0.17048763;0.0;0.4056671;14581.826
  1.0206332E+00;  9.9999998E-03;  4.0068492E-02;2627;0.25400686;0.0;0.016641809;1009.7065;  4.0427634E-01;7966.4609;3;71.403427;0.0;-2.25703;0;0.23406154;  1.0014592E+04;  0.0000000E+00; -2.1611861E-06;  1.0000000E+04;  0.0000000E+00;  9.9660098E+03;-0.16468436;0.0;0.39874589;14497.553
  1.0206422E+00;  9.9999998E-03;  6.0101006E-02;2628;0.25612625;0.0;0.024185065;1009.7068;  4.0427634E-01;7966.7446;3;71.158371;0.0;-3.0951777;0;0.23477614;  1.0014313E+04;  0.0000000E+00;  3.1360106E-08;  1.0000000E+04;  0.0000000E+00;  9.9662910E+03;-0.15520856;0.0;0.3899847;14379.762
  1.0206543E+00;  9.9999998E-03;  8.0132969E-02;2629;0.25902447;0.0;0.031287827;1009.7023;  4.0427634E-01;7963.0132;3;70.866249;0.0;-3.6561756;0;0.23957521;  1.0013884E+04;  0.0000000E+00;  4.2088668E-06;  1.0000000E+04;  0.0000000E+00;  9.9666348E+03;-0.14224535;0.0;0.38182056;14234.086
  1.0206701E+00;  9.9999998E-03;  1.0016572E-01;2630;0.26268905;0.0;0.0383236;1009.6931;  4.0427619E-01;7955.4624;3;70.55764;0.0;-3.9388187;0;0.24917698;  1.0013257E+04;  0.0000000E+00; -5.6190805E-07;  1.0000000E+04;  0.0000000E+00;  9.9670771E+03;-0.1258446;0.0;0.37502158;14041.522
  1.0206897E+00;  9.9999998E-03;  1.2019999E-01;2631;0.26730099;0.0;0.045775;1009.6788;  4.0427607E-01;7943.6997;3;70.434303;0.0;-3.6973817;0;0.26198947;  1.0012350E+04;  0.0000000E+00; -2.7042497E-05;  1.0000000E+04;  0.0000000E+00;  9.9676992E+03;-0.10560523;0.0;0.36759472;13767.252
  1.0207140E+00;  9.9999998E-03;  1.4023434E-01;2632;0.27304938;0.0;0.053662218;1009.6546;  4.0427592E-01;7923.812;3;70.362778;0.0;-2.9288948;0;0.27545571;  1.0011019E+04;  0.0000000E+00; -6.9408947E-05;  1.0000000E+04;  0.0000000E+00;  9.9685557E+03;-0.080028549;0.0;0.35548425;13393.983
  1.0406075E+00;  9.9999998E-03;  1.8573074E-11;2656;0.24740554;0.0;3.2775689e-09;1008.5759;  4.0370223E-01;7015.9341;3;71.536057;0.0;-4.6647074e-06;0;0.14994219;  1.0017931E+04;  0.0000000E+00; -8.7834106E-15;  1.0000000E+04;  0.0000000E+00;  9.9686768E+03;-0.23454836;0.0;0.38449055;12856.159
  1.0406094E+00;  9.9999998E-03;  2.0031380E-02;2657;0.24789992;0.0;0.0079099219;1008.5762;  4.0370223E-01;7016.1265;3;71.468742;0.0;-0.92980319;0;0.14964058;  1.0017880E+04;  0.0000000E+00; -7.2316951E-08;  1.0000000E+04;  0.0000000E+00;  9.9687334E+03;-0.23268519;0.0;0.38232577;12834.335
  1.0406150E+00;  9.9999998E-03;  4.0062103E-02;2658;0.24935001;0.0;0.015520823;1008.5762;  4.0370223E-01;7016.2168;3;71.323387;0.0;-1.727221;0;0.14940113;  1.0017718E+04;  0.0000000E+00;  2.2566146E-06;  1.0000000E+04;  0.0000000E+00;  9.9688906E+03;-0.22711664;0.0;0.37651777;12773.456
  1.0406240E+00;  9.9999998E-03;  6.0092065E-02;2659;0.25167236;0.0;0.022721952;1008.5732;  4.0370229E-01;7013.7671;3;71.105904;0.0;-2.3152287;0;0.15083177;  1.0017431E+04;  0.0000000E+00;  9.5656096E-06;  1.0000000E+04;  0.0000000E+00;  9.9691201E+03;-0.21788098;0.0;0.36871275;12679.978
  1.0406364E+00;  9.9999998E-03;  8.0121771E-02;2660;0.25477356;0.0;0.029669432;1008.5663;  4.0370214E-01;7008.0942;3;70.829643;0.0;-2.5344021;0;0.15552035;  1.0016974E+04;  0.0000000E+00;  1.3516668E-05;  1.0000000E+04;  0.0000000E+00;  9.9694375E+03;-0.20498741;0.0;0.36050776;12549.457
  1.0406524E+00;  9.9999998E-03;  1.0015232E-01;2661;0.25869116;0.0;0.036700103;1008.5545;  4.0370208E-01;6998.3208;3;70.61216;0.0;-2.516624;0;0.1638808;  1.0016292E+04;  0.0000000E+00; -1.0703221E-05;  1.0000000E+04;  0.0000000E+00;  9.9698848E+03;-0.1883806;0.0;0.35226139;12362.804
  1.0406727E+00;  9.9999998E-03;  1.2018391E-01;2662;0.26356056;0.0;0.04392672;1008.5365;  4.0370196E-01;6983.5688;3;70.508156;0.0;-2.2345979;0;0.17446919;  1.0015292E+04;  0.0000000E+00; -9.0261688E-05;  1.0000000E+04;  0.0000000E+00;  9.9705234E+03;-0.16782562;0.0;0.34229481;12094.878
  1.0406978E+00;  9.9999998E-03;  1.4021537E-01;2663;0.26968393;0.0;0.051438648;1008.5074;  4.0370193E-01;6959.7397;3;70.548409;0.0;-1.4419941;0;0.185093;  1.0013861E+04;  0.0000000E+00; -2.1484768E-04;  1.0000000E+04;  0.0000000E+00;  9.9713779E+03;-0.14239378;0.0;0.32748678;11738.893
  1.0605865E+00;  9.9999998E-03;  4.4887837E-11;2687;0.24163176;0.0;9.7369348e-09;1007.5449;  4.0319681E-01;6145.9917;3;71.186035;0.0;-3.1968775e-06;0;0.086696565;  1.0019772E+04;  0.0000000E+00;  5.1006245E-15;  1.0000000E+04;  0.0000000E+00;  9.9714141E+03;-0.27445212;0.0;0.36114869;11177.078
  1.0605884E+00;  9.9999998E-03;  2.0028219E-02;2688;0.24217264;0.0;0.0072629494;1007.5443;  4.0319684E-01;6145.5034;3;71.161484;0.0;-0.67502791;0;0.086762488;  1.0019716E+04;  0.0000000E+00;  2.3960440E-06;  1.0000000E+04;  0.0000000E+00;  9.9714590E+03;-0.27255607;0.0;0.35931855;11160.05
  1.0605941E+00;  9.9999998E-03;  4.0056158E-02;2689;0.24370582;0.0;0.014414239;1007.5421;  4.0319684E-01;6143.7466;3;70.953751;0.0;-1.0792234;0;0.087385386;  1.0019539E+04;  0.0000000E+00;  1.1073501E-05;  1.0000000E+04;  0.0000000E+00;  9.9715947E+03;-0.26682636;0.0;0.35421175;11109.314
  1.0606033E+00;  9.9999998E-03;  6.0083821E-02;2690;0.24617498;0.0;0.021418782;1007.5365;  4.0319681E-01;6139.1689;3;70.820213;0.0;-1.3323367;0;0.089599192;  1.0019202E+04;  0.0000000E+00;  2.3616218E-05;  1.0000000E+04;  0.0000000E+00;  9.9718203E+03;-0.25714314;0.0;0.34674233;11022.709
  1.0606159E+00;  9.9999998E-03;  8.0111705E-02;2691;0.24952309;0.0;0.028316576;1007.5263;  4.0319684E-01;6130.7983;3;70.665077;0.0;-1.4847707;0;0.094438255;  1.0018657E+04;  0.0000000E+00;  2.0036954E-05;  1.0000000E+04;  0.0000000E+00;  9.9721592E+03;-0.24333432;0.0;0.33777258;10891.292
  1.0606323E+00;  9.9999998E-03;  1.0014015E-01;2692;0.25377023;0.0;0.035190884;1007.5093;  4.0319663E-01;6116.8872;3;70.561478;0.0;-1.4335349;0;0.10211365;  1.0017835E+04;  0.0000000E+00; -3.9005434E-05;  1.0000000E+04;  0.0000000E+00;  9.9726416E+03;-0.22525765;0.0;0.3273713;10701.016
  1.0606532E+00;  9.9999998E-03;  1.2016909E-01;2693;0.25905165;0.0;0.042082429;1007.4826;  4.0319669E-01;6095.2012;3;70.46241;0.0;-1.102005;0;0.11146931;  1.0016650E+04;  0.0000000E+00; -1.8670499E-04;  1.0000000E+04;  0.0000000E+00;  9.9732949E+03;-0.2028624;0.0;0.31433171;10440.313
  1.0606796E+00;  9.9999998E-03;  1.4019684E-01;2694;0.26558033;0.0;0.048803028;1007.4409;  4.0319660E-01;6061.0776;3;70.485329;0.0;-0.38195565;0;0.12075195;  1.0015000E+04;  0.0000000E+00; -5.9006282E-04;  1.0000000E+04;  0.0000000E+00;  9.9741133E+03;-0.17592961;0.0;0.29668155;10115.68
  1.0805639E+00;  9.9999998E-03;  1.5767552E-11;2718;0.23504061;0.0;6.7363857e-09;1006.6361;  4.0276295E-01;5374.9937;3;70.521629;0.0;2.3432322e-06;0;0.037750155;  1.0020680E+04;  0.0000000E+00; -4.8515104E-15;  1.0000000E+04;  0.0000000E+00;  9.9739863E+03;-0.29984659;0.0;0.33759674;9575.5303
  1.0805658E+00;  9.9999998E-03;  2.0025533E-02;2719;0.23557052;0.0;0.0067770435;1006.635;  4.0276280E-01;5374.0249;3;70.438171;0.0;-0.2964097;0;0.038103402;  1.0020612E+04;  0.0000000E+00;  5.0273043E-06;  1.0000000E+04;  0.0000000E+00;  9.9740332E+03;-0.29781035;0.0;0.33591375;9558.8945
  1.0805715E+00;  9.9999998E-03;  4.0051062E-02;2720;0.23721613;0.0;0.013530696;1006.631;  4.0276289E-01;5370.8276;3;70.389084;0.0;-0.61001927;0;0.0394063;  1.0020387E+04;  0.0000000E+00;  1.7955817E-05;  1.0000000E+04;  0.0000000E+00;  9.9741787E+03;-0.29159781;0.0;0.33100411;9507.3174
  1.0805808E+00;  9.9999998E-03;  6.0076747E-02;2721;0.23988213;0.0;0.020228716;1006.6224;  4.0276271E-01;5363.8594;3;70.304764;0.0;-0.81001365;0;0.042286754;  1.0019967E+04;  0.0000000E+00;  2.5650379E-05;  1.0000000E+04;  0.0000000E+00;  9.9744307E+03;-0.28093767;0.0;0.32322443;9415.6768
  1.0805938E+00;  9.9999998E-03;  8.0102727E-02;2722;0.24351121;0.0;0.026902474;1006.6072;  4.0276277E-01;5351.478;3;70.220207;0.0;-0.80787122;0;0.047408372;  1.0019289E+04;  0.0000000E+00; -6.2084068E-06;  1.0000000E+04;  0.0000000E+00;  9.9748066E+03;-0.2655122;0.0;0.31292057;9276.9512
  1.0806109E+00;  9.9999998E-03;  1.0012892E-01;2723;0.24811263;0.0;0.033466287;1006.5814;  4.0276262E-01;5330.5923;3;70.153313;0.0;-0.5924899;0;0.054887816;  1.0018263E+04;  0.0000000E+00; -1.2380363E-04;  1.0000000E+04;  0.0000000E+00;  9.9753193E+03;-0.24516793;0.0;0.30005574;9086.334
  1.0806328E+00;  9.9999998E-03;  1.2015477E-01;2724;0.25385463;0.0;0.039855562;1006.5407;  4.0276271E-01;5297.5332;3;70.138062;0.0;-0.14085521;0;0.063918278;  1.0016813E+04;  0.0000000E+00; -3.4518668E-04;  1.0000000E+04;  0.0000000E+00;  9.9759561E+03;-0.22010948;0.0;0.28402776;8846.7148
  1.0806602E+00;  9.9999998E-03;  1.4017867E-01;2725;0.26088741;0.0;0.045854546;1006.4811;  4.0276274E-01;5249.2104;3;70.274696;0.0;0.61976105;0;0.073101729;  1.0014912E+04;  0.0000000E+00; -4.2966008E-03;  1.0000000E+04;  0.0000000E+00;  9.9766641E+03;-0.19116542;0.0;0.26426715;8579.9121
  1.1005408E+00;  9.9999998E-03; -5.8960345E-12;2748;0.22793587;0.0;1.2801795e-09;1005.8521;  4.0239850E-01;4704.3491;3;69.594009;0.0;7.1199493e-06;0;0.00042274594;  1.0020721E+04;  0.0000000E+00; -3.0991120E-16;  1.0000000E+04;  0.0000000E+00;  9.9764521E+03;-0.31252682;0.0;0.31294957;8053.1016
  1.1005427E+00;  9.9999998E-03;  2.0023184E-02;2749;0.2285012;0.0;0.006265068;1005.8503;  4.0239877E-01;4702.9082;3;69.540581;0.0;-0.22565293;0;0.00097984076;  1.0020629E+04;  0.0000000E+00;  4.2358474E-06;  1.0000000E+04;  0.0000000E+00;  9.9765039E+03;-0.31026188;0.0;0.31124172;8034.6372
  1.1005484E+00;  9.9999998E-03;  4.0046599E-02;2750;0.23022951;0.0;0.012600849;1005.8442;  4.0239865E-01;4698.0093;3;69.471931;0.0;-0.35192186;0;0.0028048158;  1.0020333E+04;  0.0000000E+00;  8.9455598E-06;  1.0000000E+04;  0.0000000E+00;  9.9766709E+03;-0.30330834;0.0;0.30611315;7977.8291
  1.1005580E+00;  9.9999998E-03;  6.0070347E-02;2751;0.23307073;0.0;0.01900667;1005.8309;  4.0239856E-01;4687.2568;3;69.437614;0.0;-0.32651082;0;0.006318897;  1.0019790E+04;  0.0000000E+00; -1.2171997E-05;  1.0000000E+04;  0.0000000E+00;  9.9769541E+03;-0.29127321;0.0;0.2975921;7879.8848
  1.1005714E+00;  9.9999998E-03;  8.0094248E-02;2752;0.23697582;0.0;0.025383297;1005.807;  4.0239862E-01;4668.064;3;69.446922;0.0;-0.12657042;0;0.011991382;  1.0018903E+04;  0.0000000E+00; -1.0164019E-04;  1.0000000E+04;  0.0000000E+00;  9.9773604E+03;-0.2737796;0.0;0.28577098;7740.4009
  1.1005894E+00;  9.9999998E-03;  1.0011805E-01;2753;0.24201734;0.0;0.031620197;1005.767;  4.0239850E-01;4635.8301;3;69.476776;0.0;0.22252677;0;0.019919783;  1.0017610E+04;  0.0000000E+00; -2.9350034E-04;  1.0000000E+04;  0.0000000E+00;  9.9778564E+03;-0.25080588;0.0;0.27072567;7565.3628
  1.1006122E+00;  9.9999998E-03;  1.2014013E-01;2754;0.2482578;0.0;0.037347201;1005.707;  4.0239850E-01;4587.584;3;69.587753;0.0;0.77749234;0;0.029499173;  1.0015865E+04;  0.0000000E+00; -1.9022198E-03;  1.0000000E+04;  0.0000000E+00;  9.9784043E+03;-0.22310394;0.0;0.25260311;7370.6665
  1.1006416E+00;  9.9999998E-03;  1.4016069E-01;2755;0.25604844;0.0;0.042447831;1005.6289;  4.0239862E-01;4524.7603;3;69.876701;0.0;1.4098125;0;0.038977921;  1.0013819E+04;  0.0000000E+00; -2.6026066E-02;  1.0000000E+04;  0.0000000E+00;  9.9788896E+03;-0.19356632;0.0;0.23254424;7194.8057
  1.1205181E+00;  9.9999998E-03; -1.7923706E-11;2777;0.22068247;0.0;9.6442321e-10;1005.1826;  4.0210015E-01;4125.1416;3;68.370354;0.0;8.6916152e-06;0;-0.025588065;  1.0019848E+04;  0.0000000E+00;  4.1716868E-16;  1.0000000E+04;  0.0000000E+00;  9.9788379E+03;-0.31197947;0.0;0.28639141;6623.8198
  1.1205201E+00;  9.9999998E-03;  2.0021122E-02;2778;0.22126921;0.0;0.0058109192;1005.1793;  4.0210012E-01;4122.4805;3;68.4076;0.0;0.05264055;0;-0.024817348;  1.0019722E+04;  0.0000000E+00; -4.4757994E-06;  1.0000000E+04;  0.0000000E+00;  9.9788994E+03;-0.3093949;0.0;0.28457755;6604.4814
  1.1205260E+00;  9.9999998E-03;  4.0042546E-02;2779;0.22303684;0.0;0.011707222;1005.1683;  4.0210018E-01;4113.7373;3;68.295517;0.0;-0.068322003;0;-0.022376925;  1.0019318E+04;  0.0000000E+00; -3.0001942E-05;  1.0000000E+04;  0.0000000E+00;  9.9790791E+03;-0.30145639;0.0;0.27907947;6546.6045
  1.1205357E+00;  9.9999998E-03;  6.0064193E-02;2780;0.22607137;0.0;0.017788718;1005.1461;  4.0210029E-01;4095.9712;3;68.357933;0.0;0.16624069;0;-0.017942101;  1.0018583E+04;  0.0000000E+00; -1.0827982E-04;  1.0000000E+04;  0.0000000E+00;  9.9793711E+03;-0.28775319;0.0;0.26981109;6452.2432
  1.1205498E+00;  9.9999998E-03;  8.0085941E-02;2781;0.23032047;0.0;0.023804935;1005.1076;  4.0210024E-01;4065.3857;3;68.448341;0.0;0.45795327;0;-0.011163861;  1.0017438E+04;  0.0000000E+00; -2.7217704E-04;  1.0000000E+04;  0.0000000E+00;  9.9797451E+03;-0.2680195;0.0;0.25685564;6328.8608
  1.1205685E+00;  9.9999998E-03;  1.0010627E-01;2782;0.23583448;0.0;0.029405987;1005.048;  4.0210012E-01;4017.8071;3;68.653732;0.0;0.9564271;0;-0.0020718724;  1.0015844E+04;  0.0000000E+00; -1.7442905E-03;  1.0000000E+04;  0.0000000E+00;  9.9801465E+03;-0.24271485;0.0;0.24064298;6192.3218
  1.1205931E+00;  9.9999998E-03;  1.2012497E-01;2783;0.24276647;0.0;0.034202658;1004.9685;  4.0210027E-01;3954.5601;3;68.889946;0.0;1.4063122;0;0.0081464052;  1.0013910E+04;  0.0000000E+00; -1.9141143E-02;  1.0000000E+04;  0.0000000E+00;  9.9804961E+03;-0.21421759;0.0;0.22236399;6070.7656
  1.1206239E+00;  9.9999998E-03;  1.4014073E-01;2784;0.25134116;0.0;0.038173676;1004.8814;  4.0210003E-01;3885.1343;3;69.578217;0.0;2.0165541;0;0.01687479;  1.0012007E+04;  0.0000000E+00; -1.0581578E-01;  1.0000000E+04;  0.0000000E+00;  9.9806641E+03;-0.18751499;0.0;0.20438978;6013.3438
  1.1404970E+00;  9.9999998E-03;  9.8916682E-12;2805;0.21355166;0.0;2.9996874e-10;1004.6029;  4.0186077E-01;3616.8411;3;66.991493;0.0;-3.3782089e-06;0;-0.040137231;  1.0017923E+04;  0.0000000E+00; -7.5607254E-15;  1.0000000E+04;  0.0000000E+00;  9.9811279E+03;-0.29769167;0.0;0.25755444;5318.1929
  1.1404990E+00;  9.9999998E-03;  2.0019162E-02;2806;0.21417513;0.0;0.005418615;1004.5967;  4.0186065E-01;3611.9651;3;67.031555;0.0;0.24490398;0;-0.039049059;  1.0017745E+04;  0.0000000E+00; -2.1421080E-05;  1.0000000E+04;  0.0000000E+00;  9.9811865E+03;-0.29472369;0.0;0.25567463;5301.0957
  1.1405050E+00;  9.9999998E-03;  4.0038440E-02;2807;0.21602552;0.0;0.010862381;1004.5775;  4.0186074E-01;3596.8682;3;67.07251;0.0;0.35376623;0;-0.035687655;  1.0017203E+04;  0.0000000E+00; -9.5477786E-05;  1.0000000E+04;  0.0000000E+00;  9.9813457E+03;-0.28568107;0.0;0.24999341;5251.5532
  1.1405151E+00;  9.9999998E-03;  6.0057931E-02;2808;0.21925899;0.0;0.016456114;1004.5414;  4.0186074E-01;3568.4595;3;67.105438;0.0;0.51087248;0;-0.029854789;  1.0016237E+04;  0.0000000E+00; -3.6934603E-04;  1.0000000E+04;  0.0000000E+00;  9.9815859E+03;-0.2703431;0.0;0.24048831;5176.0186
  1.1405298E+00;  9.9999998E-03;  8.0076516E-02;2809;0.22389388;0.0;0.021831017;1004.4849;  4.0186074E-01;3524.022;3;67.39814;0.0;0.98471022;0;-0.021574616;  1.0014842E+04;  0.0000000E+00; -3.3142162E-03;  1.0000000E+04;  0.0000000E+00;  9.9818506E+03;-0.24907474;0.0;0.22750013;5088.9419
  1.1405499E+00;  9.9999998E-03;  1.0009372E-01;2810;0.22999121;0.0;0.026473457;1004.4083;  4.0186065E-01;3463.7415;3;67.685379;0.0;1.3710235;0;-0.011719257;  1.0013107E+04;  0.0000000E+00; -2.2871548E-02;  1.0000000E+04;  0.0000000E+00;  9.9820566E+03;-0.22381009;0.0;0.21209083;5014.4863
  1.1405758E+00;  9.9999998E-03;  1.2010793E-01;2811;0.23771134;0.0;0.030240634;1004.3213;  4.0186077E-01;3395.3936;3;68.413498;0.0;1.9199523;0;-0.0023878515;  1.0011320E+04;  0.0000000E+00; -1.0150068E-01;  1.0000000E+04;  0.0000000E+00;  9.9821045E+03;-0.19857848;0.0;0.19619063;4989.4907
  1.1406091E+00;  9.9999998E-03;  1.4012049E-01;2812;0.24706648;0.0;0.032913491;1004.2431;  4.0186071E-01;3333.8677;3;69.410591;0.0;2.2070856;0;0.0032004118;  1.0009918E+04;  0.0000000E+00; -3.1667629E-01;  1.0000000E+04;  0.0000000E+00;  9.9819473E+03;-0.17885497;0.0;0.18205538;5096.9961
  1.1604780E+00;  9.9999998E-03;  1.3148429E-11;2832;0.20689394;0.0;7.18201e-10;1004.0829;  4.0167290E-01;3155.5586;3;65.589973;0.0;-6.3042535e-06;0;-0.043815911;  1.0014804E+04;  0.0000000E+00; -8.0947280E-15;  1.0000000E+04;  0.0000000E+00;  9.9832314E+03;-0.27054888;0.0;0.22673297;4173.8481
  1.1604800E+00;  9.9999998E-03;  2.0017033E-02;2833;0.20754005;0.0;0.0049542016;1004.0736;  4.0167281E-01;3148.3665;3;65.650536;0.0;0.38781437;0;-0.042321712;  1.0014585E+04;  0.0000000E+00; -8.3609659E-05;  1.0000000E+04;  0.0000000E+00;  9.9832656E+03;-0.26726985;0.0;0.22494814;4162.1626
  1.1604861E+00;  9.9999998E-03;  4.0033951E-02;2834;0.20951806;0.0;0.0098642474;1004.045;  4.0167284E-01;3126.2368;3;65.754547;0.0;0.60052562;0;-0.037918031;  1.0013916E+04;  0.0000000E+00; -1.2630298E-03;  1.0000000E+04;  0.0000000E+00;  9.9833643E+03;-0.25756156;0.0;0.21964353;4130.0947
  1.1604967E+00;  9.9999998E-03;  6.0050569E-02;2835;0.21296106;0.0;0.014729361;1003.9965;  4.0167281E-01;3088.7085;3;65.902863;0.0;0.85175318;0;-0.030919388;  1.0012829E+04;  0.0000000E+00; -8.2011512E-03;  1.0000000E+04;  0.0000000E+00;  9.9834785E+03;-0.24198137;0.0;0.21106198;4087.5791
  1.1605124E+00;  9.9999998E-03;  8.0066256E-02;2836;0.21810228;0.0;0.01916511;1003.9292;  4.0167293E-01;3036.7014;3;66.309677;0.0;1.185375;0;-0.022238016;  1.0011425E+04;  0.0000000E+00; -3.6930159E-02;  1.0000000E+04;  0.0000000E+00;  9.9835391E+03;-0.22221316;0.0;0.19997515;4053.8914
  1.1605337E+00;  9.9999998E-03;  1.0007924E-01;2837;0.22485113;0.0;0.022739954;1003.8505;  4.0167287E-01;2975.8367;3;67.137741;0.0;1.7181482;0;-0.013608709;  1.0009922E+04;  0.0000000E+00; -1.2398834E-01;  1.0000000E+04;  0.0000000E+00;  9.9834746E+03;-0.20132396;0.0;0.18771525;4060.3604
  1.1605618E+00;  9.9999998E-03;  1.2009050E-01;2838;0.23322433;0.0;0.025273977;1003.7761;  4.0167293E-01;2918.1797;3;68.088943;0.0;1.9636678;0;-0.007864818;  1.0008682E+04;  0.0000000E+00; -3.3456632E-01;  1.0000000E+04;  0.0000000E+00;  9.9832324E+03;-0.18381725;0.0;0.17595243;4178.7158
  1.1605983E+00;  9.9999998E-03;  1.4010212E-01;2839;0.24373725;0.0;0.027546708;1003.7272;  4.0167305E-01;2880.3101;3;70.22422;0.0;2.184212;0;-0.0077298284;  1.0008106E+04;  0.0000000E+00; -7.3837876E-01;  1.0000000E+04;  0.0000000E+00;  9.9828330E+03;-0.17388588;0.0;0.16615605;4586.9912
  1.1804614E+00;  9.9999998E-03;  8.0746599E-12;2858;0.20104411;0.0;3.0944183e-09;1003.6047;  4.0152848E-01;2728.0791;3;64.391586;0.0;-7.7746954e-06;0;-0.040041924;  1.0010691E+04;  0.0000000E+00; -5.5147257E-15;  1.0000000E+04;  0.0000000E+00;  9.9849971E+03;-0.23502237;0.0;0.19498044;3221.7441
  1.1804634E+00;  9.9999998E-03;  2.0014478E-02;2859;0.20175548;0.0;0.0043316572;1003.5936;  4.0152854E-01;2719.7717;3;64.471008;0.0;0.44744864;0;-0.038326472;  1.0010465E+04;  0.0000000E+00; -1.9130958E-03;  1.0000000E+04;  0.0000000E+00;  9.9849980E+03;-0.23195137;0.0;0.1936249;3217.4988
  1.1804699E+00;  9.9999998E-03;  4.0028807E-02;2860;0.20384398;0.0;0.008506244;1003.5609;  4.0152863E-01;2694.9412;3;64.653748;0.0;0.78827137;0;-0.033567101;  1.0009824E+04;  0.0000000E+00; -1.3993578E-02;  1.0000000E+04;  0.0000000E+00;  9.9849893E+03;-0.22327082;0.0;0.18970372;3208.3921
  1.1804811E+00;  9.9999998E-03;  6.0042452E-02;2861;0.20764509;0.0;0.012454337;1003.5107;  4.0152851E-01;2656.9238;3;64.953125;0.0;0.91381484;0;-0.026815608;  1.0008882E+04;  0.0000000E+00; -5.5517159E-02;  1.0000000E+04;  0.0000000E+00;  9.9849287E+03;-0.2105193;0.0;0.18370369;3206.728
  1.1804978E+00;  9.9999998E-03;  8.0054395E-02;2862;0.21313156;0.0;0.015708223;1003.4498;  4.0152860E-01;2610.7715;3;65.749947;0.0;1.3217658;0;-0.019905165;  1.0007832E+04;  0.0000000E+00; -1.6331954E-01;  1.0000000E+04;  0.0000000E+00;  9.9847637E+03;-0.19632447;0.0;0.1764193;3240.5383
  1.1805211E+00;  9.9999998E-03;  1.0006487E-01;2863;0.22049242;0.0;0.018175459;1003.3911;  4.0152860E-01;2566.2246;3;66.953514;0.0;1.5744984;0;-0.015347183;  1.0006972E+04;  0.0000000E+00; -3.9069843E-01;  1.0000000E+04;  0.0000000E+00;  9.9844521E+03;-0.1840754;0.0;0.16872822;3378.4543
  1.1805520E+00;  9.9999998E-03;  1.2007541E-01;2864;0.22984669;0.0;0.020443747;1003.352;  4.0152863E-01;2536.6326;3;69.075592;0.0;1.8388501;0;-0.01556313;  1.0006633E+04;  0.0000000E+00; -7.9534221E-01;  1.0000000E+04;  0.0000000E+00;  9.9840127E+03;-0.17716411;0.0;0.16160098;3771.7231
  1.1805927E+00;  9.9999998E-03;  1.4008826E-01;2865;0.24116556;0.0;0.022595102;1003.3458;  4.0152863E-01;2531.7305;3;72.250572;0.0;2.0210583;0;-0.021512911;  1.0007019E+04;  0.0000000E+00; -1.3952329E+00;  1.0000000E+04;  0.0000000E+00;  9.9835068E+03;-0.1769083;0.0;0.15539539;4596.4565
  1.2004477E+00;  9.9999998E-03;  1.3532199E-11;2882;0.19621447;0.0;2.4174396e-09;1003.1751;  4.0141991E-01;2341.1284;3;63.808685;0.0;-1.3412588e-05;0;-0.03538768;  1.0006256E+04;  0.0000000E+00; -1.6347089E-14;  1.0000000E+04;  0.0000000E+00;  9.9862695E+03;-0.19968766;0.0;0.16429998;2474.927
  1.2004498E+00;  9.9999998E-03;  2.0011781E-02;2883;0.19695458;0.0;0.0034647388;1003.1655;  4.0141991E-01;2334.0015;3;63.878468;0.0;0.41892108;0;-0.03386195;  1.0006102E+04;  0.0000000E+00; -1.0773318E-02;  1.0000000E+04;  0.0000000E+00;  9.9862393E+03;-0.19761235;0.0;0.1637504;2477.8809
  1.2004567E+00;  9.9999998E-03;  4.0023256E-02;2884;0.19930139;0.0;0.0067675365;1003.1387;  4.0141991E-01;2314.2017;3;64.302551;0.0;0.72670162;0;-0.029874265;  1.0005679E+04;  0.0000000E+00; -5.7603147E-02;  1.0000000E+04;  0.0000000E+00;  9.9861221E+03;-0.19207679;0.0;0.16220252;2491.3477
  1.2004689E+00;  9.9999998E-03;  6.0033955E-02;2885;0.20323518;0.0;0.0095030544;1003.1025;  4.0142003E-01;2287.5295;3;64.836494;0.0;0.88290668;0;-0.025289401;  1.0005170E+04;  0.0000000E+00; -1.8002449E-01;  1.0000000E+04;  0.0000000E+00;  9.9859063E+03;-0.18523762;0.0;0.15994821;2537.0364
  1.2004874E+00;  9.9999998E-03;  8.0043688E-02;2886;0.20918025;0.0;0.011762652;1003.0688;  4.0141997E-01;2262.5947;3;66.032166;0.0;1.0727175;0;-0.022715151;  1.0004827E+04;  0.0000000E+00; -4.2999038E-01;  1.0000000E+04;  0.0000000E+00;  9.9855771E+03;-0.17995892;0.0;0.15724377;2680.1301
  1.2005130E+00;  9.9999998E-03;  1.0005362E-01;2887;0.21722217;0.0;0.01400904;1003.0518;  4.0142000E-01;2250.031;3;68.476334;0.0;1.3678367;0;-0.024311066;  1.0004926E+04;  0.0000000E+00; -8.5142976E-01;  1.0000000E+04;  0.0000000E+00;  9.9851426E+03;-0.17864794;0.0;0.15433687;3052.0864
  1.2005484E+00;  9.9999998E-03;  1.2006638E-01;2888;0.227284;0.0;0.016283143;1003.0588;  4.0141994E-01;2255.0132;3;71.578957;0.0;1.3872569;0;-0.030613109;  1.0005592E+04;  0.0000000E+00; -1.4537152E+00;  1.0000000E+04;  0.0000000E+00;  9.9846211E+03;-0.18191886;0.0;0.15130575;3783.0129
  1.2005972E+00;  9.9999998E-03;  1.4008412E-01;2889;0.23973621;0.0;0.018971762;1003.0664;  4.0141988E-01;2260.4785;3;76.350021;0.0;1.5214814;0;-0.036448464;  1.0006411E+04;  0.0000000E+00; -2.1870716E+00;  1.0000000E+04;  0.0000000E+00;  9.9839629E+03;-0.18504056;0.0;0.1485921;4854.0806
  1.2204373E+00;  9.9999998E-03;  1.2352572E-11;2905;0.19222973;0.0;1.7455219e-10;1002.8183;  4.0133986E-01;2013.1982;3;64.341072;0.0;-1.1971562e-05;0;-0.036543459;  1.0002404E+04;  0.0000000E+00; -3.3193483E-15;  1.0000000E+04;  0.0000000E+00;  9.9869932E+03;-0.17342183;0.0;0.13687837;1922.3486
  1.2204399E+00;  9.9999998E-03;  2.0009682E-02;2906;0.19303142;0.0;0.0024533246;1002.8138;  4.0133995E-01;2009.9535;3;64.495667;0.0;0.32715851;0;-0.035589203;  1.0002372E+04;  0.0000000E+00; -2.9306866E-02;  1.0000000E+04;  0.0000000E+00;  9.9869355E+03;-0.17286952;0.0;0.13728032;1930.6687
  1.2204477E+00;  9.9999998E-03;  4.0018957E-02;2907;0.19553603;0.0;0.0046041277;1002.8035;  4.0133995E-01;2002.5181;3;64.995522;0.0;0.42500606;0;-0.033660591;  1.0002346E+04;  0.0000000E+00; -1.3825887E-01;  1.0000000E+04;  0.0000000E+00;  9.9867607E+03;-0.1720401;0.0;0.13837951;1965.3225
  1.2204615E+00;  9.9999998E-03;  6.0027752E-02;2908;0.19994545;0.0;0.0064598615;1002.7975;  4.0133989E-01;1998.2126;3;66.133751;0.0;0.50903177;0;-0.032985568;  1.0002504E+04;  0.0000000E+00; -3.7715334E-01;  1.0000000E+04;  0.0000000E+00;  9.9864785E+03;-0.17287342;0.0;0.13988785;2072.9087
  1.2204827E+00;  9.9999998E-03;  8.0037802E-02;2909;0.20630735;0.0;0.0085090566;1002.806;  4.0133992E-01;2004.27;3;68.378853;0.0;0.6769532;0;-0.035922259;  1.0003057E+04;  0.0000000E+00; -7.9436785E-01;  1.0000000E+04;  0.0000000E+00;  9.9860996E+03;-0.1774447;0.0;0.14152244;2366.0815
  1.2205141E+00;  9.9999998E-03;  1.0005143E-01;2910;0.21493174;0.0;0.011014889;1002.8264;  4.0133998E-01;2018.6354;3;71.560722;0.0;0.71710533;0;-0.041718885;  1.0003981E+04;  0.0000000E+00; -1.3993576E+00;  1.0000000E+04;  0.0000000E+00;  9.9855869E+03;-0.18485221;0.0;0.14313333;2964.313
  1.2205595E+00;  9.9999998E-03;  1.2007020E-01;2911;0.2263906;0.0;0.014056577;1002.8195;  4.0133989E-01;2013.6239;3;76.19313;0.0;0.49046713;0;-0.043158263;  1.0004618E+04;  0.0000000E+00; -2.1462135E+00;  1.0000000E+04;  0.0000000E+00;  9.9848223E+03;-0.18836117;0.0;0.1452029;3860.2612
  1.2206173E+00;  9.9999998E-03;  1.4009175E-01;2912;0.2402422;0.0;0.017463615;1002.7333;  4.0133977E-01;1951.7903;3;82.856445;0.0;0.53985631;0;-0.027192503;  1.0003963E+04;  0.0000000E+00; -2.8841777E+00;  1.0000000E+04;  0.0000000E+00;  9.9837676E+03;-0.17516579;0.0;0.14797328;4831.5532
  1.2404337E+00;  9.9999998E-03;  1.7465397E-11;2926;0.1890737;0.0;5.2008748e-09;1002.5678;  4.0128225E-01;1766.7303;3;66.644257;0.0;-9.3187555e-06;0;-0.047444694;  1.0000065E+04;  0.0000000E+00;  4.0163721E-14;  1.0000000E+04;  0.0000000E+00;  9.9872119E+03;-0.16138831;0.0;0.11394361;1540.3888
  1.2404368E+00;  9.9999998E-03;  2.0009348E-02;2927;0.19002594;0.0;0.0014629415;1002.5697;  4.0128222E-01;1768.0316;3;67.031128;0.0;-0.14019583;0;-0.047221467;  1.0000170E+04;  0.0000000E+00; -5.1065121E-02;  1.0000000E+04;  0.0000000E+00;  9.9871455E+03;-0.16238542;0.0;0.11516395;1552.0498
  1.2404467E+00;  9.9999998E-03;  4.0018559E-02;2928;0.19282733;0.0;0.0028816282;1002.5772;  4.0128207E-01;1773.1638;3;67.928238;0.0;-0.077511951;0;-0.047303498;  1.0000516E+04;  0.0000000E+00; -2.2600053E-01;  1.0000000E+04;  0.0000000E+00;  9.9869551E+03;-0.16577066;0.0;0.11846717;1603.431
  1.2404648E+00;  9.9999998E-03;  6.0029712E-02;2929;0.19763938;0.0;0.004664666;1002.5915;  4.0128210E-01;1782.9409;3;69.927795;0.0;-0.064163387;0;-0.049393483;  1.0001113E+04;  0.0000000E+00; -5.7351911E-01;  1.0000000E+04;  0.0000000E+00;  9.9866455E+03;-0.17272165;0.0;0.12332817;1763.4161
  1.2404941E+00;  9.9999998E-03;  8.0044970E-02;2930;0.20479761;0.0;0.0072077415;1002.5939;  4.0128213E-01;1784.4758;3;72.612968;0.0;-0.39278877;0;-0.050872266;  1.0001681E+04;  0.0000000E+00; -1.1317644E+00;  1.0000000E+04;  0.0000000E+00;  9.9861289E+03;-0.18058547;0.0;0.12971321;2153.2749
  1.2405355E+00;  9.9999998E-03;  1.0006336E-01;2931;0.21483226;0.0;0.010436162;1002.5491;  4.0128219E-01;1753.4935;3;77.168495;0.0;-0.60258293;0;-0.043188602;  1.0001603E+04;  0.0000000E+00; -1.8623476E+00;  1.0000000E+04;  0.0000000E+00;  9.9853242E+03;-0.18081054;0.0;0.13762194;2810.0056
  1.2405849E+00;  9.9999998E-03;  1.2008196E-01;2932;0.22673406;0.0;0.013350572;1002.4431;  4.0128219E-01;1680.4246;3;83.46035;0.0;-0.6225996;0;-0.022963151;  1.0000491E+04;  0.0000000E+00; -2.5527446E+00;  1.0000000E+04;  0.0000000E+00;  9.9843242E+03;-0.1668724;0.0;0.14390925;3511.2339
  1.2406350E+00;  9.9999998E-03;  1.4009884E-01;2933;0.23909569;0.0;0.015877908;1002.3018;  4.0128225E-01;1583.099;3;92.424728;0.0;0.090582579;0;0.010427862;  9.9985908E+03;  0.0000000E+00; -2.7671845E+00;  1.0000000E+04;  0.0000000E+00;  9.9834111E+03;-0.1347301;0.0;0.14515796;3757.5505
  1.2604553E+00;  9.9999998E-03;  1.2915274E-11;2944;0.18649994;0.0;5.9075705e-10;1002.3032;  4.0124130E-01;1518.0594;3;71.972427;0.0;-9.8467572e-06;0;-0.064566843;  9.9969600E+03;  0.0000000E+00;  5.2129851E-15;  1.0000000E+04;  0.0000000E+00;  9.9870830E+03;-0.15998881;0.0;0.095421962;1222.1122
  1.2604595E+00;  9.9999998E-03;  2.0012589E-02;2945;0.18766063;0.0;0.0011576825;1002.2993;  4.0124136E-01;1515.5303;3;72.041542;0.0;-0.86705118;0;-0.062978856;  9.9969727E+03;  0.0000000E+00; -6.4549774E-02;  1.0000000E+04;  0.0000000E+00;  9.9869980E+03;-0.16030942;0.0;0.097330563;1232.0082
  1.2604723E+00;  9.9999998E-03;  4.0026110E-02;2946;0.190983;0.0;0.0028162925;1002.2885;  4.0124145E-01;1508.3364;3;73.046082;0.0;-1.409457;0;-0.059335604;  9.9970146E+03;  0.0000000E+00; -2.7924243E-01;  1.0000000E+04;  0.0000000E+00;  9.9867344E+03;-0.16233912;0.0;0.10300352;1282.6686
  1.2604939E+00;  9.9999998E-03;  6.0041651E-02;2947;0.19651963;0.0;0.0049396399;1002.262;  4.0124139E-01;1490.8208;3;75.304741;0.0;-1.8228639;0;-0.052893154;  9.9969756E+03;  0.0000000E+00; -6.8108678E-01;  1.0000000E+04;  0.0000000E+00;  9.9862549E+03;-0.16481774;0.0;0.11192458;1444.0657
  1.2605227E+00;  9.9999998E-03;  8.0057591E-02;2948;0.20384161;0.0;0.0069984207;1002.2197;  4.0124124E-01;1462.8337;3;79.349083;0.0;-1.9602375;0;-0.043936305;  9.9968320E+03;  0.0000000E+00; -1.2322730E+00;  1.0000000E+04;  0.0000000E+00;  9.9855605E+03;-0.16578184;0.0;0.12184554;1772.3044
  1.2605569E+00;  9.9999998E-03;  1.0007282E-01;2949;0.21330532;0.0;0.0093096485;1002.1592;  4.0124139E-01;1422.892;3;85.655624;0.0;-1.4419854;0;-0.022163972;  9.9964082E+03;  0.0000000E+00; -1.7237788E+00;  1.0000000E+04;  0.0000000E+00;  9.9847783E+03;-0.15280259;0.0;0.13063861;2132.4556
  1.2605933E+00;  9.9999998E-03;  1.2008535E-01;2950;0.22307459;0.0;0.010942163;1002.1116;  4.0124136E-01;1391.4333;3;93.946121;0.0;-0.80425096;0;-0.0035756528;  9.9959648E+03;  0.0000000E+00; -1.7541916E+00;  1.0000000E+04;  0.0000000E+00;  9.9842715E+03;-0.13481705;0.0;0.1312414;2181.2771
  1.2606301E+00;  9.9999998E-03;  1.4009804E-01;2951;0.23328476;0.0;0.013503562;1002.0635;  4.0124130E-01;1359.5856;3;104.59091;0.0;0.57552505;0;0.027429603;  9.9953369E+03;  0.0000000E+00; -9.6971780E-01;  1.0000000E+04;  0.0000000E+00;  9.9839443E+03;-0.10338833;0.0;0.13081793;1739.6193
  1.2804781E+00;  9.9999998E-03;  1.8235524E-11;2959;0.18276636;0.0;-3.9205023e-10;1001.9717;  4.0121305E-01;1239.5552;3;80.326881;0.0;-7.292896e-06;0;-0.088654287;  9.9920723E+03;  0.0000000E+00; -1.5222614E-14;  1.0000000E+04;  0.0000000E+00;  9.9867842E+03;-0.16910467;0.0;0.080450378;900.74371
  1.2804811E+00;  9.9999998E-03;  2.0013742E-02;2960;0.18383697;0.0;0.00060192309;1001.9785;  4.0121299E-01;1243.8179;3;80.41745;0.0;-1.5870878;0;-0.086128496;  9.9922891E+03;  0.0000000E+00; -4.4974439E-02;  1.0000000E+04;  0.0000000E+00;  9.9866973E+03;-0.16873179;0.0;0.082603298;914.55652
  1.2804900E+00;  9.9999998E-03;  4.0028803E-02;2961;0.18726476;0.0;0.0019006977;1001.9963;  4.0121305E-01;1254.9568;3;81.855957;0.0;-2.322691;0;-0.077070259;  9.9929326E+03;  0.0000000E+00; -1.8446094E-01;  1.0000000E+04;  0.0000000E+00;  9.9864170E+03;-0.16605981;0.0;0.088989548;964.3418
  1.2805049E+00;  9.9999998E-03;  6.0044538E-02;2962;0.19251546;0.0;0.0032088244;1002.0183;  4.0121302E-01;1268.7747;3;84.830101;0.0;-2.5951939;0;-0.065026067;  9.9938564E+03;  0.0000000E+00; -3.9592716E-01;  1.0000000E+04;  0.0000000E+00;  9.9859326E+03;-0.1627048;0.0;0.097678728;1061.1654
  1.2805250E+00;  9.9999998E-03;  8.0059111E-02;2963;0.19909635;0.0;0.0044894926;1002.0466;  4.0121290E-01;1286.4714;3;89.730209;0.0;-2.4798651;0;-0.054900371;  9.9949873E+03;  0.0000000E+00; -5.4929537E-01;  1.0000000E+04;  0.0000000E+00;  9.9853613E+03;-0.16001686;0.0;0.10511649;1171.6061
  1.2805511E+00;  9.9999998E-03;  1.0007250E-01;2964;0.20731916;0.0;0.0065609212;1002.0491;  4.0121296E-01;1287.963;3;97.040649;0.0;-1.608802;0;-0.032707244;  9.9955410E+03;  0.0000000E+00; -3.8774380E-01;  1.0000000E+04;  0.0000000E+00;  9.9848623E+03;-0.14418325;0.0;0.111476;1195.5765
  1.2805771E+00;  9.9999998E-03;  1.2008207E-01;2965;0.21530615;0.0;0.0082754381;1002.1272;  4.0121296E-01;1336.9569;3;105.81967;0.0;-0.58040148;0;-0.028585598;  9.9969844E+03;  0.0000000E+00;  3.3242297E-01;  1.0000000E+04;  0.0000000E+00;  9.9849805E+03;-0.13817745;0.0;0.10959186;1218.8397
  1.3004663E+00;  9.9999998E-03;  1.4532263E-11;2970;0.17767601;0.0;-2.0981301e-09;1002.1422;  4.0119371E-01;1281.0487;3;91.465004;0.0;-1.3371828e-05;0;-0.12659004;  9.9967529E+03;  0.0000000E+00; -1.0423913E-14;  1.0000000E+04;  0.0000000E+00;  9.9864600E+03;-0.19489685;0.0;0.068306811;889.22644
  1.3004688E+00;  9.9999998E-03;  2.0012466E-02;2971;0.17851172;0.0;-0.00048328986;1002.1533;  4.0119365E-01;1287.6704;3;91.834229;0.0;-0.99759847;0;-0.12573969;  9.9970244E+03;  0.0000000E+00;  8.2770232E-03;  1.0000000E+04;  0.0000000E+00;  9.9864092E+03;-0.19544381;0.0;0.069704108;900.77209
  1.3004764E+00;  9.9999998E-03;  4.0026587E-02;2972;0.18107863;0.0;-0.00063948828;1002.1794;  4.0119377E-01;1303.2572;3;92.80896;0.0;-2.7460477;0;-0.12167342;  9.9977354E+03;  0.0000000E+00;  5.4589655E-02;  1.0000000E+04;  0.0000000E+00;  9.9862236E+03;-0.19500118;0.0;0.073327765;934.96777
  1.3004893E+00;  9.9999998E-03;  6.0042065E-02;2973;0.18552388;0.0;0.00024302234;1002.2081;  4.0119359E-01;1320.3943;3;95.426773;0.0;-3.3814232;0;-0.1131323;  9.9986787E+03;  0.0000000E+00;  2.1108116E-01;  1.0000000E+04;  0.0000000E+00;  9.9858525E+03;-0.19161706;0.0;0.078484759;996.11243
  1.3005062E+00;  9.9999998E-03;  8.0057010E-02;2974;0.19114223;0.0;0.0020136698;1002.2416;  4.0119350E-01;1340.3674;3;100.22282;0.0;-2.8124838;0;-0.10591285;  9.9998467E+03;  0.0000000E+00;  5.9558618E-01;  1.0000000E+04;  0.0000000E+00;  9.9853506E+03;-0.19057876;0.0;0.084665909;1110.818
 -5.8478149E-06;  9.9999998E-03;  1.6000050E-01;1053;-0.0037124979;0.0;0.00033769096;1000.1223;  4.0000001E-01;101.33045;3;-2.4070091;0.0;0.24190861;0;-0.070969991;  1.0002543E+04;  0.0000000E+00; -1.2611247E-08;  1.0000000E+04;  0.0000000E+00;  9.9999072E+03;-0.073645353;0.0;0.002675365;52.814808
 -5.6893750E-06;  9.9999998E-03;  1.8000065E-01;1054;-0.0036078054;0.0;0.00042641303;1000.1183;  4.0000001E-01;98.071289;3;-2.3349991;0.0;0.2967971;0;-0.068682171;  1.0002464E+04;  0.0000000E+00; -1.2097649E-08;  1.0000000E+04;  0.0000000E+00;  9.9999023E+03;-0.071386628;0.0;0.0027044588;53.660683
 -5.4465472E-06;  9.9999998E-03;  2.0000079E-01;1055;-0.0034489899;0.0;0.00052041118;1000.1132;  4.0000001E-01;93.725731;3;-2.2333937;0.0;0.35459101;0;-0.065556549;  1.0002351E+04;  0.0000000E+00;  1.4966993E-08;  1.0000000E+04;  0.0000000E+00;  9.9999150E+03;-0.067949779;0.0;0.0023932308;48.832634
 -5.0951885E-06;  9.9999998E-03;  2.2000097E-01;1056;-0.0032208718;0.0;0.0006188894;1000.1062;  4.0000001E-01;87.997498;3;-2.0989561;0.0;0.41734064;0;-0.061414372;  1.0002184E+04;  0.0000000E+00;  3.6636102E-08;  1.0000000E+04;  0.0000000E+00;  9.9999404E+03;-0.06300842;0.0;0.001594049;35.840065
 -4.6192645E-06;  9.9999998E-03;  2.4000111E-01;1057;-0.0029123479;0.0;0.00071031554;1000.097;  4.0000001E-01;80.392776;3;-1.9289932;0.0;0.48246706;0;-0.056053031;  1.0001955E+04;  0.0000000E+00; -4.4370228E-08;  1.0000000E+04;  0.0000000E+00;  9.9999873E+03;-0.056317285;0.0;0.00026425463;13.903392
 -4.0104360E-06;  9.9999998E-03;  2.6000121E-01;1058;-0.0025211794;0.0;0.00077954982;1000.0854;  4.0000001E-01;70.714035;3;-1.7220774;0.0;0.54231787;0;-0.049318913;  1.0001667E+04;  0.0000000E+00; -3.5376274E-07;  1.0000000E+04;  0.0000000E+00;  1.0000046E+04;-0.047870945;0.0;-0.0014479674;14.611712
 -3.2911705E-06;  9.9999998E-03;  2.8000128E-01;1059;-0.0020615663;0.0;0.00080606737;1000.0716;  4.0000001E-01;59.356339;3;-1.4732637;0.0;0.58551598;0;-0.041214835;  1.0001326E+04;  0.0000000E+00; -9.0615896E-07;  1.0000000E+04;  0.0000000E+00;  1.0000106E+04;-0.038078208;0.0;-0.0031366269;43.134258
  1.9991683E-02;  9.9999998E-03;  1.6000068E-01;1083;-0.0052364813;0.0;0.00045368355;1000.1447;  4.0000001E-01;119.79906;3;-3.0059319;0.0;0.2947163;0;-0.082764454;  1.0003019E+04;  0.0000000E+00;  5.9498880E-08;  1.0000000E+04;  0.0000000E+00;  9.9998760E+03;-0.086238272;0.0;0.0034738183;68.562531
  1.9991888E-02;  9.9999998E-03;  1.8000087E-01;1084;-0.0051016156;0.0;0.00056684599;1000.1404;  4.0000001E-01;116.34237;3;-2.9217176;0.0;0.35559738;0;-0.080323547;  1.0002938E+04;  0.0000000E+00;  1.2792995E-07;  1.0000000E+04;  0.0000000E+00;  9.9998740E+03;-0.08383321;0.0;0.0035096661;69.86161
  1.9992217E-02;  9.9999998E-03;  2.0000106E-01;1085;-0.0048864479;0.0;0.0006896542;1000.1348;  4.0000001E-01;111.60177;3;-2.8005066;0.0;0.42168707;0;-0.076960534;  1.0002813E+04;  0.0000000E+00;  2.5759195E-07;  1.0000000E+04;  0.0000000E+00;  9.9998848E+03;-0.080079287;0.0;0.0031187504;63.907349
  1.9992709E-02;  9.9999998E-03;  2.2000127E-01;1086;-0.0045690616;0.0;0.0008089341;1000.1271;  4.0000001E-01;105.28096;3;-2.6415634;0.0;0.48836911;0;-0.072454274;  1.0002623E+04;  0.0000000E+00;  4.1985066E-07;  1.0000000E+04;  0.0000000E+00;  9.9999180E+03;-0.074568063;0.0;0.002113793;47.449154
  1.9993396E-02;  9.9999998E-03;  2.4000144E-01;1087;-0.0041272142;0.0;0.0009087082;1000.1168;  4.0000001E-01;96.688606;3;-2.4409399;0.0;0.5534966;0;-0.066541865;  1.0002359E+04;  0.0000000E+00;  4.7812415E-07;  1.0000000E+04;  0.0000000E+00;  9.9999795E+03;-0.066975884;0.0;0.00043402077;19.350233
  1.9994307E-02;  9.9999998E-03;  2.6000154E-01;1088;-0.0035467981;0.0;0.00096946408;1000.1038;  4.0000001E-01;85.923485;3;-2.1882048;0.0;0.60922837;0;-0.059011687;  1.0002021E+04;  0.0000000E+00;  2.1724175E-07;  1.0000000E+04;  0.0000000E+00;  1.0000056E+04;-0.057260666;0.0;-0.0017510201;17.625278
  1.9995432E-02;  9.9999998E-03;  2.8000155E-01;1089;-0.0028324062;0.0;0.00097275892;1000.0879;  4.0000001E-01;72.788055;3;-1.8579955;0.0;0.64739633;0;-0.049835235;  1.0001622E+04;  0.0000000E+00; -3.8949693E-07;  1.0000000E+04;  0.0000000E+00;  1.0000133E+04;-0.045876723;0.0;-0.003958513;55.466167
  1.9996747E-02;  9.9999998E-03;  3.0000168E-01;1090;-0.0020023461;0.0;0.0010482728;1000.0693;  4.0000001E-01;57.381084;3;-1.4119778;0.0;0.75519943;0;-0.039294124;  1.0001197E+04;  0.0000000E+00; -1.0912538E-06;  1.0000000E+04;  0.0000000E+00;  1.0000190E+04;-0.033873767;0.0;-0.0054203584;81.625885
  3.9988525E-02;  9.9999998E-03;  1.6000080E-01;1114;-0.0071675265;0.0;0.00052665221;1000.1641;  4.0000001E-01;135.89737;3;-3.7072029;0.0;0.31501535;0;-0.092249319;  1.0003434E+04;  0.0000000E+00;  1.1760702E-07;  1.0000000E+04;  0.0000000E+00;  9.9998506E+03;-0.096339405;0.0;0.0040900828;82.02784
  3.9988779E-02;  9.9999998E-03;  1.8000101E-01;1115;-0.0069990726;0.0;0.0006498142;1000.16;  4.0000001E-01;132.53944;3;-3.608779;0.0;0.37290785;0;-0.089852035;  1.0003356E+04;  0.0000000E+00;  2.2317131E-07;  1.0000000E+04;  0.0000000E+00;  9.9998477E+03;-0.093984082;0.0;0.0041320468;83.885239
  3.9989207E-02;  9.9999998E-03;  2.0000122E-01;1116;-0.0067211557;0.0;0.00077931676;1000.1542;  4.0000001E-01;127.79884;3;-3.467576;0.0;0.43239179;0;-0.086470269;  1.0003225E+04;  0.0000000E+00;  3.8363646E-07;  1.0000000E+04;  0.0000000E+00;  9.9998604E+03;-0.090162933;0.0;0.0036926635;77.312637
  3.9989866E-02;  9.9999998E-03;  2.2000144E-01;1117;-0.0062969509;0.0;0.00090509228;1000.1461;  4.0000001E-01;120.98421;3;-3.2825918;0.0;0.49382371;0;-0.081827946;  1.0003025E+04;  0.0000000E+00;  5.5807703E-07;  1.0000000E+04;  0.0000000E+00;  9.9998994E+03;-0.084377624;0.0;0.0025496809;58.31337
  3.9990809E-02;  9.9999998E-03;  2.4000162E-01;1118;-0.0056968303;0.0;0.0009997075;1000.1352;  4.0000001E-01;111.99682;3;-3.0542784;0.0;0.54936945;0;-0.075582802;  1.0002736E+04;  0.0000000E+00;  5.9118423E-07;  1.0000000E+04;  0.0000000E+00;  9.9999697E+03;-0.076201871;0.0;0.00061906665;25.280458
  3.9992075E-02;  9.9999998E-03;  2.6000175E-01;1119;-0.004894448;0.0;0.0010622385;1000.1208;  4.0000001E-01;100.1453;3;-2.7648206;0.0;0.60591602;0;-0.067441106;  1.0002356E+04;  0.0000000E+00;  2.7839073E-07;  1.0000000E+04;  0.0000000E+00;  1.0000061E+04;-0.065515339;0.0;-0.0019257679;18.873587
  3.9993636E-02;  9.9999998E-03;  2.8000179E-01;1120;-0.0039108912;0.0;0.0010796705;1000.1028;  4.0000001E-01;85.232147;3;-2.3835473;0.0;0.66122818;0;-0.057327088;  1.0001899E+04;  0.0000000E+00; -3.8373136E-07;  1.0000000E+04;  0.0000000E+00;  1.0000158E+04;-0.052765779;0.0;-0.0045613097;65.149139
  3.9995454E-02;  9.9999998E-03;  3.0000186E-01;1121;-0.0027717522;0.0;0.0011323449;1000.082;  4.0000001E-01;67.948685;3;-1.8473368;0.0;0.76568794;0;-0.045589764;  1.0001411E+04;  0.0000000E+00; -9.7469115E-07;  1.0000000E+04;  0.0000000E+00;  1.0000230E+04;-0.03913812;0.0;-0.0064516435;99.4179
  5.9984904E-02;  9.9999998E-03;  1.6000086E-01;1145;-0.0093353316;0.0;0.00055957754;1000.1837;  4.0000001E-01;152.19321;3;-4.4694471;0.0;0.31741312;0;-0.10104233;  1.0003847E+04;  0.0000000E+00;  1.2971718E-07;  1.0000000E+04;  0.0000000E+00;  9.9998320E+03;-0.10549816;0.0;0.0044558309;92.43042
  5.9985202E-02;  9.9999998E-03;  1.8000108E-01;1146;-0.0091362996;0.0;0.00068396993;1000.1799;  4.0000001E-01;149.03281;3;-4.3567591;0.0;0.36880633;0;-0.098827526;  1.0003772E+04;  0.0000000E+00;  2.0289910E-07;  1.0000000E+04;  0.0000000E+00;  9.9998271E+03;-0.10333183;0.0;0.0045043044;94.957001
  5.9985723E-02;  9.9999998E-03;  2.0000131E-01;1147;-0.0087966919;0.0;0.00081621204;1000.1741;  4.0000001E-01;144.29219;3;-4.1947966;0.0;0.42175353;0;-0.095556699;  1.0003646E+04;  0.0000000E+00;  2.4029580E-07;  1.0000000E+04;  0.0000000E+00;  9.9998389E+03;-0.099615119;0.0;0.0040584235;88.425079
  5.9986554E-02;  9.9999998E-03;  2.2000155E-01;1148;-0.0082671642;0.0;0.00094163208;1000.166;  4.0000001E-01;137.47757;3;-3.9860063;0.0;0.47447759;0;-0.090884805;  1.0003438E+04;  0.0000000E+00;  1.5846672E-07;  1.0000000E+04;  0.0000000E+00;  9.9998818E+03;-0.093749382;0.0;0.0028645755;68.086136
  5.9987761E-02;  9.9999998E-03;  2.4000172E-01;1149;-0.0075039449;0.0;0.0010341948;1000.1542;  4.0000001E-01;127.79884;3;-3.7342916;0.0;0.52144229;0;-0.084373675;  1.0003128E+04;  0.0000000E+00; -1.7585916E-07;  1.0000000E+04;  0.0000000E+00;  9.9999600E+03;-0.08517988;0.0;0.00080620777;31.682224
  5.9989400E-02;  9.9999998E-03;  2.6000184E-01;1150;-0.0064787492;0.0;0.0010906578;1000.1385;  4.0000001E-01;114.76217;3;-3.4229398;0.0;0.57145143;0;-0.075634129;  1.0002708E+04;  0.0000000E+00; -8.5009975E-07;  1.0000000E+04;  0.0000000E+00;  1.0000063E+04;-0.07367231;0.0;-0.0019618191;18.053976
  5.9991438E-02;  9.9999998E-03;  2.8000188E-01;1151;-0.0052106022;0.0;0.0011031691;1000.1187;  4.0000001E-01;98.268814;3;-3.0047569;0.0;0.62532854;0;-0.064553976;  1.0002195E+04;  0.0000000E+00; -5.1842999E-06;  1.0000000E+04;  0.0000000E+00;  1.0000173E+04;-0.05964857;0.0;-0.0049054027;71.49395
  5.9993852E-02;  9.9999998E-03;  3.0000198E-01;1152;-0.0037150672;0.0;0.0011727076;1000.0948;  4.0000001E-01;78.615051;3;-2.3748255;0.0;0.74771309;0;-0.051561952;  1.0001636E+04;  0.0000000E+00; -1.5776544E-05;  1.0000000E+04;  0.0000000E+00;  1.0000261E+04;-0.044435911;0.0;-0.0071260422;112.82317
  7.9980902E-02;  9.9999998E-03;  1.6000088E-01;1176;-0.011666442;0.0;0.0005592347;1000.2058;  4.0000001E-01;170.46429;3;-5.3109646;0.0;0.30859387;0;-0.1105901;  1.0004297E+04;  0.0000000E+00;  9.7708543E-08;  1.0000000E+04;  0.0000000E+00;  9.9998203E+03;-0.11517086;0.0;0.0045807622;100.13994
  7.9981230E-02;  9.9999998E-03;  1.8000109E-01;1177;-0.011443642;0.0;0.00068184041;1000.2025;  4.0000001E-01;167.69893;3;-5.1842871;0.0;0.35442096;0;-0.10865081;  1.0004238E+04;  0.0000000E+00;  5.3837201E-08;  1.0000000E+04;  0.0000000E+00;  9.9998105E+03;-0.11328245;0.0;0.0046316353;103.37464
  7.9981834E-02;  9.9999998E-03;  2.0000134E-01;1178;-0.01105237;0.0;0.00080966047;1000.1969;  4.0000001E-01;163.15585;3;-5.0030227;0.0;0.39893192;0;-0.10556069;  1.0004114E+04;  0.0000000E+00; -2.3404904E-07;  1.0000000E+04;  0.0000000E+00;  9.9998262E+03;-0.10977571;0.0;0.0042150272;97.448837
  7.9982817E-02;  9.9999998E-03;  2.2000158E-01;1179;-0.010427277;0.0;0.00093123864;1000.1888;  4.0000001E-01;156.44;3;-4.7718916;0.0;0.44232237;0;-0.10089074;  1.0003906E+04;  0.0000000E+00; -9.5461871E-07;  1.0000000E+04;  0.0000000E+00;  9.9998672E+03;-0.10394081;0.0;0.0030500679;76.86274
  7.9984285E-02;  9.9999998E-03;  2.4000177E-01;1180;-0.0095135327;0.0;0.0010157347;1000.1763;  4.0000001E-01;146.06992;3;-4.502593;0.0;0.47805858;0;-0.094096363;  1.0003579E+04;  0.0000000E+00; -3.3196637E-05;  1.0000000E+04;  0.0000000E+00;  9.9999492E+03;-0.095077008;0.0;0.00098064356;38.555622
  7.9986297E-02;  9.9999998E-03;  2.6000190E-01;1181;-0.0082660057;0.0;0.0010686963;1000.1591;  4.0000001E-01;131.74934;3;-4.172195;0.0;0.52070904;0;-0.084724568;  1.0003122E+04;  0.0000000E+00; -2.9334793E-04;  1.0000000E+04;  0.0000000E+00;  1.0000059E+04;-0.082847513;0.0;-0.0018770557;15.295685
  7.9988852E-02;  9.9999998E-03;  2.8000194E-01;1182;-0.0066992305;0.0;0.0010848072;1000.1369;  4.0000001E-01;113.37949;3;-3.7185798;0.0;0.57388973;0;-0.072637498;  1.0002555E+04;  0.0000000E+00; -8.4350043E-04;  1.0000000E+04;  0.0000000E+00;  1.0000184E+04;-0.067630641;0.0;-0.0050068577;74.680077
  7.9991944E-02;  9.9999998E-03;  3.0000213E-01;1183;-0.0048126462;0.0;0.0012036158;1000.1102;  4.0000001E-01;91.256668;3;-2.9888391;0.0;0.72897577;0;-0.058290139;  1.0001918E+04;  0.0000000E+00; -1.5049410E-03;  1.0000000E+04;  0.0000000E+00;  1.0000283E+04;-0.050826471;0.0;-0.0074636675;122.2699
  9.9976480E-02;  9.9999998E-03;  1.6000086E-01;1207;-0.014164612;0.0;0.00054070092;1000.2325;  4.0000001E-01;192.58711;3;-6.2498326;0.0;0.29610625;0;-0.12184998;  1.0004840E+04;  0.0000000E+00;  2.7435341E-08;  1.0000000E+04;  0.0000000E+00;  9.9998125E+03;-0.12638867;0.0;0.0045386911;106.47518
  9.9976815E-02;  9.9999998E-03;  1.8000109E-01;1208;-0.01392751;0.0;0.00065697776;1000.2297;  4.0000001E-01;190.31558;3;-6.1108441;0.0;0.33509544;0;-0.12026564;  1.0004795E+04;  0.0000000E+00; -2.1157504E-07;  1.0000000E+04;  0.0000000E+00;  9.9998037E+03;-0.12483975;0.0;0.0045741131;110.26416
  9.9977478E-02;  9.9999998E-03;  2.0000133E-01;1209;-0.01349673;0.0;0.00077365787;1000.2247;  4.0000001E-01;186.16754;3;-5.912241;0.0;0.36971214;0;-0.11741805;  1.0004683E+04;  0.0000000E+00; -1.0407631E-06;  1.0000000E+04;  0.0000000E+00;  9.9998145E+03;-0.12161718;0.0;0.0041991286;105.18229
  9.9978603E-02;  9.9999998E-03;  2.2000156E-01;1210;-0.012790532;0.0;0.00088440982;1000.2164;  4.0000001E-01;179.35292;3;-5.6629667;0.0;0.40051794;0;-0.11280219;  1.0004470E+04;  0.0000000E+00; -1.2054518E-04;  1.0000000E+04;  0.0000000E+00;  9.9998564E+03;-0.11591868;0.0;0.0031164966;85.091057
  9.9980310E-02;  9.9999998E-03;  2.4000175E-01;1211;-0.011738076;0.0;0.00095659256;1000.2035;  4.0000001E-01;168.5878;3;-5.3778291;0.0;0.42341757;0;-0.10587213;  1.0004137E+04;  0.0000000E+00; -1.0739041E-03;  1.0000000E+04;  0.0000000E+00;  9.9999375E+03;-0.10699982;0.0;0.0011276929;46.37965
  9.9982716E-02;  9.9999998E-03;  2.6000190E-01;1212;-0.010274932;0.0;0.0010078514;1000.1854;  4.0000001E-01;153.57588;3;-5.0328755;0.0;0.45809174;0;-0.096153677;  1.0003655E+04;  0.0000000E+00; -3.9045385E-03;  1.0000000E+04;  0.0000000E+00;  1.0000054E+04;-0.094438389;0.0;-0.0017152878;23.030149
  9.9985816E-02;  9.9999998E-03;  2.8000200E-01;1213;-0.0084016416;0.0;0.001042595;1000.1613;  4.0000001E-01;133.62582;3;-4.5459304;0.0;0.51584911;0;-0.083379164;  1.0003033E+04;  0.0000000E+00; -8.4786341E-03;  1.0000000E+04;  0.0000000E+00;  1.0000189E+04;-0.078432418;0.0;-0.0049467478;87.254181
  9.9989668E-02;  9.9999998E-03;  3.0000231E-01;1214;-0.0060883914;0.0;0.0012471364;1000.1312;  4.0000001E-01;108.63889;3;-3.7063475;0.0;0.72302437;0;-0.067788251;  1.0002327E+04;  0.0000000E+00; -1.3400971E-02;  1.0000000E+04;  0.0000000E+00;  1.0000299E+04;-0.060215052;0.0;-0.0075731967;146.20662
  1.1997151E-01;  9.9999998E-03;  1.6000086E-01;1238;-0.016885437;0.0;0.00052474911;1000.2646;  4.0000001E-01;219.25302;3;-7.2909036;0.0;0.28667799;0;-0.13518725;  1.0005490E+04;  0.0000000E+00; -6.3214166E-08;  1.0000000E+04;  0.0000000E+00;  9.9998018E+03;-0.13963655;0.0;0.0044492995;113.48533
  1.1997185E-01;  9.9999998E-03;  1.8000108E-01;1239;-0.016644603;0.0;0.00062960561;1000.2627;  4.0000001E-01;217.67282;3;-7.1417418;0.0;0.31692433;0;-0.13404764;  1.0005460E+04;  0.0000000E+00; -5.8653927E-07;  1.0000000E+04;  0.0000000E+00;  9.9997949E+03;-0.13848448;0.0;0.0044368394;117.51957
  1.1997255E-01;  9.9999998E-03;  2.0000131E-01;1240;-0.016185815;0.0;0.00072807324;1000.2584;  4.0000001E-01;214.0186;3;-6.9291964;0.0;0.33884871;0;-0.13156141;  1.0005361E+04;  0.0000000E+00; -9.5012161E-05;  1.0000000E+04;  0.0000000E+00;  9.9998027E+03;-0.13565648;0.0;0.0040950561;113.31614
  1.1997379E-01;  9.9999998E-03;  2.2000155E-01;1241;-0.015410469;0.0;0.00082046085;1000.2502;  4.0000001E-01;207.30275;3;-6.6650772;0.0;0.35426962;0;-0.12729427;  1.0005166E+04;  0.0000000E+00; -1.3472037E-03;  1.0000000E+04;  0.0000000E+00;  9.9998418E+03;-0.13041939;0.0;0.0031251139;94.549988
  1.1997573E-01;  9.9999998E-03;  2.4000172E-01;1242;-0.014227702;0.0;0.00087930879;1000.2382;  4.0000001E-01;197.32773;3;-6.3678226;0.0;0.365098;0;-0.12085135;  1.0004841E+04;  0.0000000E+00; -6.7646671E-03;  1.0000000E+04;  0.0000000E+00;  9.9999238E+03;-0.12211749;0.0;0.0012661465;65.596939
  1.1997852E-01;  9.9999998E-03;  2.6000187E-01;1243;-0.01255597;0.0;0.00093239127;1000.2211;  4.0000001E-01;183.10591;3;-6.0178471;0.0;0.39293575;0;-0.11174771;  1.0004370E+04;  0.0000000E+00; -1.9506732E-02;  1.0000000E+04;  0.0000000E+00;  1.0000045E+04;-0.11021994;0.0;-0.0015277676;102.33421
  1.1998221E-01;  9.9999998E-03;  2.8000206E-01;1244;-0.010370233;0.0;0.0010075374;1000.1967;  4.0000001E-01;162.95833;3;-5.5054336;0.0;0.46760845;0;-0.099378951;  1.0003744E+04;  0.0000000E+00; -3.8837180E-02;  1.0000000E+04;  0.0000000E+00;  1.0000190E+04;-0.094523601;0.0;-0.0048553473;216.72594
  1.1998691E-01;  9.9999998E-03;  3.0000257E-01;1245;-0.0075895386;0.0;0.0013421336;1000.1647;  4.0000001E-01;136.48994;3;-4.5471525;0.0;0.75635529;0;-0.083053797;  1.0002981E+04;  0.0000000E+00; -5.6763925E-02;  1.0000000E+04;  0.0000000E+00;  1.0000313E+04;-0.075443052;0.0;-0.0076107471;326.03476
  1.3996588E-01;  9.9999998E-03;  1.6000091E-01;1269;-0.019898957;0.0;0.00053627661;1000.3022;  4.0000001E-01;250.36325;3;-8.4301424;0.0;0.29043365;0;-0.15048048;  1.0006259E+04;  0.0000000E+00; -1.4079590E-07;  1.0000000E+04;  0.0000000E+00;  9.9997861E+03;-0.1549547;0.0;0.0044742292;124.00719
  1.3996617E-01;  9.9999998E-03;  1.8000112E-01;1270;-0.019665159;0.0;0.00062625285;1000.3015;  4.0000001E-01;249.77068;3;-8.2727709;0.0;0.31008077;0;-0.1498788;  1.0006251E+04;  0.0000000E+00; -1.6596694E-05;  1.0000000E+04;  0.0000000E+00;  9.9997793E+03;-0.15426816;0.0;0.004389368;128.27715
  1.3996689E-01;  9.9999998E-03;  2.0000133E-01;1271;-0.019188998;0.0;0.00070369581;1000.2979;  4.0000001E-01;246.8078;3;-8.0489874;0.0;0.31786281;0;-0.14800853;  1.0006176E+04;  0.0000000E+00; -7.2185398E-04;  1.0000000E+04;  0.0000000E+00;  9.9997861E+03;-0.15208994;0.0;0.0040814057;125.484
  1.3996823E-01;  9.9999998E-03;  2.2000155E-01;1272;-0.018353049;0.0;0.00077643874;1000.2919;  4.0000001E-01;241.86966;3;-7.7743893;0.0;0.31817687;0;-0.14471859;  1.0006016E+04;  0.0000000E+00; -5.7305163E-03;  1.0000000E+04;  0.0000000E+00;  9.9998213E+03;-0.14795145;0.0;0.0032328591;112.1731
  1.3997039E-01;  9.9999998E-03;  2.4000171E-01;1273;-0.017052149;0.0;0.00081503397;1000.2828;  4.0000001E-01;234.26494;3;-7.4754753;0.0;0.31732702;0;-0.139963;  1.0005753E+04;  0.0000000E+00; -2.3132605E-02;  1.0000000E+04;  0.0000000E+00;  9.9999033E+03;-0.14144033;0.0;0.0014773256;139.49858
  1.3997360E-01;  9.9999998E-03;  2.6000193E-01;1274;-0.015164144;0.0;0.00088977139;1000.2696;  4.0000001E-01;223.40106;3;-7.1276264;0.0;0.34832478;0;-0.13333127;  1.0005360E+04;  0.0000000E+00; -6.1083123E-02;  1.0000000E+04;  0.0000000E+00;  1.0000035E+04;-0.13197771;0.0;-0.001353564;320.65601
  1.3997789E-01;  9.9999998E-03;  2.8000221E-01;1275;-0.012665207;0.0;0.0010244563;1000.25;  4.0000001E-01;207.10522;3;-6.6082735;0.0;0.45366573;0;-0.12357805;  1.0004802E+04;  0.0000000E+00; -1.1700771E-01;  1.0000000E+04;  0.0000000E+00;  1.0000200E+04;-0.11868232;0.0;-0.0048957211;618.54724
  1.3998353E-01;  9.9999998E-03;  3.0000299E-01;1276;-0.0093829334;0.0;0.0015328468;1000.2183;  4.0000001E-01;180.83437;3;-5.5369978;0.0;0.85631657;0;-0.10786855;  1.0004034E+04;  0.0000000E+00; -1.6653526E-01;  1.0000000E+04;  0.0000000E+00;  1.0000335E+04;-0.10013755;0.0;-0.0077310009;884.99182
  1.5995941E-01;  9.9999998E-03;  1.6000105E-01;1300;-0.023258248;0.0;0.00060782302;1000.3452;  4.0000001E-01;286.01657;3;-9.6627913;0.0;0.32134524;0;-0.16739164;  1.0007145E+04;  0.0000000E+00; -2.0022878E-07;  1.0000000E+04;  0.0000000E+00;  9.9997568E+03;-0.17222914;0.0;0.0048374929;142.13658
  1.5995966E-01;  9.9999998E-03;  1.8000126E-01;1301;-0.023042079;0.0;0.0006848601;1000.3453;  4.0000001E-01;286.11533;3;-9.4987993;0.0;0.33107275;0;-0.16742145;  1.0007162E+04;  0.0000000E+00; -1.3864090E-04;  1.0000000E+04;  0.0000000E+00;  9.9997480E+03;-0.17211914;0.0;0.0046976972;147.65819
  1.5996037E-01;  9.9999998E-03;  2.0000146E-01;1302;-0.022559594;0.0;0.00074605265;1000.3441;  4.0000001E-01;285.02893;3;-9.2668457;0.0;0.32600662;0;-0.16648757;  1.0007132E+04;  0.0000000E+00; -2.4331266E-03;  1.0000000E+04;  0.0000000E+00;  9.9997451E+03;-0.17094406;0.0;0.0044564903;148.2058
  1.5996179E-01;  9.9999998E-03;  2.2000167E-01;1303;-0.021674694;0.0;0.00079975417;1000.3411;  4.0000001E-01;282.65863;3;-8.986414;0.0;0.31585133;0;-0.16496204;  1.0007046E+04;  0.0000000E+00; -1.5057325E-02;  1.0000000E+04;  0.0000000E+00;  9.9997764E+03;-0.1686801;0.0;0.0037180693;154.5457
  1.5996417E-01;  9.9999998E-03;  2.4000184E-01;1304;-0.020252457;0.0;0.00082538975;1000.3381;  4.0000001E-01;280.09079;3;-8.6916008;0.0;0.3031702;0;-0.16342111;  1.0006895E+04;  0.0000000E+00; -5.4928556E-02;  1.0000000E+04;  0.0000000E+00;  9.9998643E+03;-0.16536498;0.0;0.0019438697;302.87817
  1.5996777E-01;  9.9999998E-03;  2.6000211E-01;1305;-0.018145027;0.0;0.00092678948;1000.3342;  4.0000001E-01;276.83163;3;-8.3551559;0.0;0.34832764;0;-0.16177031;  1.0006672E+04;  0.0000000E+00; -1.4016148E-01;  1.0000000E+04;  0.0000000E+00;  1.0000015E+04;-0.16060092;0.0;-0.0011694029;737.01996
  1.5997267E-01;  9.9999998E-03;  2.8000247E-01;1306;-0.015348161;0.0;0.0011086101;1000.3258;  4.0000001E-01;269.91824;3;-7.8657026;0.0;0.47877979;0;-0.15803888;  1.0006302E+04;  0.0000000E+00; -2.6672417E-01;  1.0000000E+04;  0.0000000E+00;  1.0000210E+04;-0.15280721;0.0;-0.0052316757;1404.1315
  1.5997925E-01;  9.9999998E-03;  3.0000350E-01;1307;-0.011597214;0.0;0.0017586442;1000.3001;  4.0000001E-01;248.68428;3;-6.7425575;0.0;0.97418213;0;-0.14587642;  1.0005640E+04;  0.0000000E+00; -3.8259807E-01;  1.0000000E+04;  0.0000000E+00;  1.0000364E+04;-0.13772145;0.0;-0.008154978;2016.4877
  1.7995203E-01;  9.9999998E-03;  1.6000135E-01;1331;-0.026993614;0.0;0.00077927025;1000.3933;  4.0000001E-01;325.8179;3;-10.985146;0.0;0.39653257;0;-0.18566874;  1.0008164E+04;  0.0000000E+00; -1.5216451E-06;  1.0000000E+04;  0.0000000E+00;  9.9996992E+03;-0.19150515;0.0;0.0058364114;173.54613
  1.7995219E-01;  9.9999998E-03;  1.8000157E-01;1332;-0.026804484;0.0;0.00085564522;1000.395;  4.0000001E-01;327.29935;3;-10.814599;0.0;0.40236682;0;-0.18636255;  1.0008219E+04;  0.0000000E+00; -4.1303539E-04;  1.0000000E+04;  0.0000000E+00;  9.9996816E+03;-0.19208778;0.0;0.0057252343;182.92383
  1.7995286E-01;  9.9999998E-03;  2.0000179E-01;1333;-0.026329543;0.0;0.00090694003;1000.3956;  4.0000001E-01;327.79315;3;-10.578058;0.0;0.38706744;0;-0.18657325;  1.0008242E+04;  0.0000000E+00; -5.1865540E-03;  1.0000000E+04;  0.0000000E+00;  9.9996699E+03;-0.19220145;0.0;0.005628204;190.56064
  1.7995432E-01;  9.9999998E-03;  2.2000200E-01;1334;-0.025408702;0.0;0.00094096246;1000.3972;  4.0000001E-01;329.07706;3;-10.298074;0.0;0.36401236;0;-0.18735623;  1.0008254E+04;  0.0000000E+00; -2.8425185E-02;  1.0000000E+04;  0.0000000E+00;  9.9996943E+03;-0.19235134;0.0;0.0049951151;232.25026
  1.7995693E-01;  9.9999998E-03;  2.4000217E-01;1335;-0.023867067;0.0;0.00095033005;1000.4025;  4.0000001E-01;333.42261;3;-10.015863;0.0;0.3385663;0;-0.19018967;  1.0008264E+04;  0.0000000E+00; -9.8945960E-02;  1.0000000E+04;  0.0000000E+00;  9.9997861E+03;-0.19320308;0.0;0.0030133952;537.4231
  1.7996091E-01;  9.9999998E-03;  2.6000240E-01;1336;-0.021567244;0.0;0.0010319577;1000.4128;  4.0000001E-01;342.01495;3;-9.7166185;0.0;0.38344955;0;-0.19573121;  1.0008282E+04;  0.0000000E+00; -2.5045976E-01;  1.0000000E+04;  0.0000000E+00;  9.9999775E+03;-0.19488838;0.0;-0.00084282923;1319.3776
  1.7996638E-01;  9.9999998E-03;  2.8000280E-01;1337;-0.018505597;0.0;0.0012053108;1000.423;  4.0000001E-01;350.40979;3;-9.3083506;0.0;0.50518322;0;-0.2017343;  1.0008230E+04;  0.0000000E+00; -4.8238418E-01;  1.0000000E+04;  0.0000000E+00;  1.0000233E+04;-0.1956186;0.0;-0.0061157099;2541.5085
  1.7997365E-01;  9.9999998E-03;  3.0000377E-01;1338;-0.014483289;0.0;0.0017599359;1000.4141;  4.0000001E-01;343.00259;3;-8.3180809;0.0;0.92143059;0;-0.19841617;  1.0007839E+04;  0.0000000E+00; -7.0644099E-01;  1.0000000E+04;  0.0000000E+00;  1.0000443E+04;-0.18847349;0.0;-0.0099426769;3724.2847
  1.9994359E-01;  9.9999998E-03;  1.6000187E-01;1362;-0.031132609;0.0;0.0010888883;1000.4467;  4.0000001E-01;370.06354;3;-12.393782;0.0;0.53216976;0;-0.20509759;  1.0009335E+04;  0.0000000E+00; -5.9750182E-06;  1.0000000E+04;  0.0000000E+00;  9.9996006E+03;-0.21290214;0.0;0.007804553;224.91417
  1.9994365E-01;  9.9999998E-03;  1.8000215E-01;1363;-0.030978907;0.0;0.0011806287;1000.4496;  4.0000001E-01;372.53262;3;-12.217252;0.0;0.53896844;0;-0.2063532;  1.0009430E+04;  0.0000000E+00; -7.2087441E-04;  1.0000000E+04;  0.0000000E+00;  9.9995654E+03;-0.21422897;0.0;0.0078757768;242.45082
  1.9994424E-01;  9.9999998E-03;  2.0000240E-01;1364;-0.030523604;0.0;0.0012328316;1000.4523;  4.0000001E-01;374.70538;3;-11.975992;0.0;0.51932442;0;-0.20761244;  1.0009516E+04;  0.0000000E+00; -7.8849280E-03;  1.0000000E+04;  0.0000000E+00;  9.9995313E+03;-0.21567954;0.0;0.0080671003;261.68692
  1.9994572E-01;  9.9999998E-03;  2.2000261E-01;1365;-0.02958546;0.0;0.0012430898;1000.4579;  4.0000001E-01;379.44601;3;-11.708472;0.0;0.47681034;0;-0.21060343;  1.0009623E+04;  0.0000000E+00; -4.0869068E-02;  1.0000000E+04;  0.0000000E+00;  9.9995391E+03;-0.21820295;0.0;0.0075995247;333.68808
  1.9994847E-01;  9.9999998E-03;  2.4000272E-01;1366;-0.027959689;0.0;0.0012002628;1000.4719;  4.0000001E-01;391.00122;3;-11.458046;0.0;0.43559742;0;-0.21782048;  1.0009797E+04;  0.0000000E+00; -1.3971214E-01;  1.0000000E+04;  0.0000000E+00;  9.9996504E+03;-0.22304171;0.0;0.0052212309;764.40509
  1.9995278E-01;  9.9999998E-03;  2.6000285E-01;1367;-0.025515825;0.0;0.0011891618;1000.4977;  4.0000001E-01;412.33395;3;-11.247741;0.0;0.43181515;0;-0.23114932;  1.0010063E+04;  0.0000000E+00; -3.5510427E-01;  1.0000000E+04;  0.0000000E+00;  9.9998975E+03;-0.23100954;0.0;-0.00013977685;1874.7998
  1.9995867E-01;  9.9999998E-03;  2.8000313E-01;1368;-0.022288451;0.0;0.0012770819;1000.5313;  4.0000001E-01;440.08624;3;-11.006843;0.0;0.50721169;0;-0.24882239;  1.0010354E+04;  0.0000000E+00; -6.9467497E-01;  1.0000000E+04;  0.0000000E+00;  1.0000276E+04;-0.24077006;0.0;-0.0080523351;3666.4717
  1.9996630E-01;  9.9999998E-03;  3.0000371E-01;1369;-0.018257719;0.0;0.0015053485;1000.549;  4.0000001E-01;454.80188;3;-10.387777;0.0;0.68089867;0;-0.25990874;  1.0010351E+04;  0.0000000E+00; -1.0300103E+00;  1.0000000E+04;  0.0000000E+00;  1.0000626E+04;-0.24460959;0.0;-0.015299136;5442.7642
  2.1993397E-01;  9.9999998E-03;  1.6000265E-01;1393;-0.035711151;0.0;0.0015602144;1000.5053;  4.0000001E-01;418.65475;3;-13.887811;0.0;0.73907387;0;-0.2254649;  1.0010665E+04;  0.0000000E+00; -6.7671658E-06;  1.0000000E+04;  0.0000000E+00;  9.9994434E+03;-0.23648714;0.0;0.011022236;302.37671
  2.1993390E-01;  9.9999998E-03;  1.8000305E-01;1394;-0.035597593;0.0;0.0016907116;1000.5091;  4.0000001E-01;421.81516;3;-13.703849;0.0;0.74927884;0;-0.22703256;  1.0010801E+04;  0.0000000E+00; -8.2227949E-04;  1.0000000E+04;  0.0000000E+00;  9.9993857E+03;-0.2385083;0.0;0.011475745;333.5705
  2.1993437E-01;  9.9999998E-03;  2.0000336E-01;1395;-0.035173021;0.0;0.0017602361;1000.513;  4.0000001E-01;424.97559;3;-13.457785;0.0;0.72989333;0;-0.2288935;  1.0010946E+04;  0.0000000E+00; -8.8732317E-03;  1.0000000E+04;  0.0000000E+00;  9.9993164E+03;-0.24106124;0.0;0.012167734;368.92642
  2.1993580E-01;  9.9999998E-03;  2.2000359E-01;1396;-0.034252442;0.0;0.0017396047;1000.5214;  4.0000001E-01;431.98773;3;-13.218534;0.0;0.67090142;0;-0.23324494;  1.0011136E+04;  0.0000000E+00; -4.5587808E-02;  1.0000000E+04;  0.0000000E+00;  9.9992969E+03;-0.24528839;0.0;0.01204344;446.49289
  2.1993864E-01;  9.9999998E-03;  2.4000368E-01;1397;-0.032573827;0.0;0.001677939;1000.5411;  4.0000001E-01;448.28354;3;-13.017323;0.0;0.63491249;0;-0.24336953;  1.0011419E+04;  0.0000000E+00; -1.5610416E-01;  1.0000000E+04;  0.0000000E+00;  9.9994082E+03;-0.25266367;0.0;0.0092941374;885.74445
  2.1994321E-01;  9.9999998E-03;  2.6000383E-01;1398;-0.030032489;0.0;0.0016265861;1000.5783;  4.0000001E-01;479.0975;3;-12.946523;0.0;0.60880947;0;-0.26237461;  1.0011831E+04;  0.0000000E+00; -4.0100372E-01;  1.0000000E+04;  0.0000000E+00;  9.9997354E+03;-0.26431981;0.0;0.0019452018;2125.6941
  2.1994941E-01;  9.9999998E-03;  2.8000429E-01;1399;-0.02672646;0.0;0.0017584608;1000.6291;  4.0000001E-01;521.17035;3;-12.952107;0.0;0.71938515;0;-0.28866938;  1.0012328E+04;  0.0000000E+00; -7.9465711E-01;  1.0000000E+04;  0.0000000E+00;  1.0000254E+04;-0.27928489;0.0;-0.0093844915;4202.6367
  2.1995784E-01;  9.9999998E-03;  3.0000561E-01;1400;-0.022451013;0.0;0.0022481338;1000.6584;  4.0000001E-01;545.46594;3;-12.615604;0.0;1.0158367;0;-0.30686662;  1.0012509E+04;  0.0000000E+00; -1.1958859E+00;  1.0000000E+04;  0.0000000E+00;  1.0000659E+04;-0.28875011;0.0;-0.018116502;6334.8335
  2.3992303E-01;  9.9999998E-03;  1.6000375E-01;1424;-0.040771823;0.0;0.0022090853;1000.5696;  4.0000001E-01;471.88782;3;-15.470584;0.0;1.0116923;0;-0.24667673;  1.0012168E+04;  0.0000000E+00; -1.8916988E-06;  1.0000000E+04;  0.0000000E+00;  9.9992295E+03;-0.26228952;0.0;0.015612796;409.68713
  2.3992278E-01;  9.9999998E-03;  1.8000428E-01;1425;-0.040703423;0.0;0.0024019671;1000.5736;  4.0000001E-01;475.24576;3;-15.273416;0.0;1.044644;0;-0.24823433;  1.0012349E+04;  0.0000000E+00; -6.0693501E-04;  1.0000000E+04;  0.0000000E+00;  9.9991221E+03;-0.26486427;0.0;0.016629936;459.98792
  2.3992310E-01;  9.9999998E-03;  2.0000479E-01;1426;-0.040317394;0.0;0.002558955;1000.5775;  4.0000001E-01;478.40616;3;-15.025107;0.0;1.0680658;0;-0.2500653;  1.0012546E+04;  0.0000000E+00; -7.3488234E-03;  1.0000000E+04;  0.0000000E+00;  9.9990107E+03;-0.26811254;0.0;0.018047232;516.80676
  2.3992442E-01;  9.9999998E-03;  2.2000520E-01;1427;-0.039445169;0.0;0.0026017174;1000.5861;  4.0000001E-01;485.51706;3;-14.821503;0.0;1.0231556;0;-0.25444129;  1.0012781E+04;  0.0000000E+00; -3.9306019E-02;  1.0000000E+04;  0.0000000E+00;  9.9989463E+03;-0.27307281;0.0;0.018631531;586.64221
  2.3992717E-01;  9.9999998E-03;  2.4000563E-01;1428;-0.037804641;0.0;0.0026852731;1000.6062;  4.0000001E-01;502.20795;3;-14.722855;0.0;1.0523422;0;-0.26477402;  1.0013103E+04;  0.0000000E+00; -1.3762414E-01;  1.0000000E+04;  0.0000000E+00;  9.9990254E+03;-0.28105393;0.0;0.016279913;890.22784
  2.3993185E-01;  9.9999998E-03;  2.6000664E-01;1429;-0.03523672;0.0;0.0030442271;1000.6428;  4.0000001E-01;532.52808;3;-14.834849;0.0;1.2277889;0;-0.28352255;  1.0013541E+04;  0.0000000E+00; -3.6079371E-01;  1.0000000E+04;  0.0000000E+00;  9.9993232E+03;-0.29299346;0.0;0.0094709229;1946.1133
  2.3993830E-01;  9.9999998E-03;  2.8000891E-01;1430;-0.031834241;0.0;0.0041114511;1000.6848;  4.0000001E-01;567.29254;3;-15.079025;0.0;1.8961897;0;-0.30445677;  1.0014032E+04;  0.0000000E+00; -7.3094797E-01;  1.0000000E+04;  0.0000000E+00;  9.9996650E+03;-0.30775213;0.0;0.003295349;3879.2043
  2.3994730E-01;  9.9999998E-03;  3.0001307E-01;1431;-0.027327038;0.0;0.005914134;1000.6824;  4.0000001E-01;565.31726;3;-15.019096;0.0;2.9872379;0;-0.30781958;  1.0014192E+04;  0.0000000E+00; -1.1349164E+00;  1.0000000E+04;  0.0000000E+00;  9.9994619E+03;-0.3168754;0.0;0.0090558138;6028.2539
  2.5991055E-01;  9.9999998E-03;  1.6000515E-01;1455;-0.04636715;0.0;0.003040886;1000.6401;  4.0000001E-01;530.35522;3;-17.144583;0.0;1.3647481;0;-0.26883128;  1.0013858E+04;  0.0000000E+00;  2.0222735E-07;  1.0000000E+04;  0.0000000E+00;  9.9989502E+03;-0.29030859;0.0;0.021477301;546.99445
  2.5991008E-01;  9.9999998E-03;  1.8000597E-01;1456;-0.046346493;0.0;0.0033666864;1000.644;  4.0000001E-01;533.51563;3;-16.92981;0.0;1.4464126;0;-0.27010259;  1.0014081E+04;  0.0000000E+00; -2.5371736E-04;  1.0000000E+04;  0.0000000E+00;  9.9987998E+03;-0.29323697;0.0;0.023134394;620.12799
  2.5991023E-01;  9.9999998E-03;  2.0000683E-01;1457;-0.046021666;0.0;0.0036698116;1000.647;  4.0000001E-01;535.98474;3;-16.686138;0.0;1.5031213;0;-0.27137825;  1.0014317E+04;  0.0000000E+00; -4.2665424E-03;  1.0000000E+04;  0.0000000E+00;  9.9986260E+03;-0.29676005;0.0;0.025381804;703.15155
  2.5991130E-01;  9.9999998E-03;  2.2000772E-01;1458;-0.045225799;0.0;0.0039517633;1000.653;  4.0000001E-01;541.02161;3;-16.522301;0.0;1.5704613;0;-0.27452531;  1.0014578E+04;  0.0000000E+00; -2.5527149E-02;  1.0000000E+04;  0.0000000E+00;  9.9984922E+03;-0.30161422;0.0;0.027088922;780.53979
  2.5991377E-01;  9.9999998E-03;  2.4000885E-01;1459;-0.043722592;0.0;0.0043689269;1000.668;  4.0000001E-01;553.4657;3;-16.569172;0.0;1.749655;0;-0.28225213;  1.0014887E+04;  0.0000000E+00; -9.4139330E-02;  1.0000000E+04;  0.0000000E+00;  9.9984805E+03;-0.30873123;0.0;0.026479099;921.4679
  2.5991818E-01;  9.9999998E-03;  2.6001111E-01;1460;-0.041288737;0.0;0.0053451802;1000.6932;  4.0000001E-01;574.30463;3;-16.924377;0.0;2.2566905;0;-0.29469851;  1.0015264E+04;  0.0000000E+00; -2.5487575E-01;  1.0000000E+04;  0.0000000E+00;  9.9986055E+03;-0.31872275;0.0;0.024024254;1530.1735
  2.5992453E-01;  9.9999998E-03;  2.8001514E-01;1461;-0.037972268;0.0;0.0071325032;1000.7089;  4.0000001E-01;587.34131;3;-17.563993;0.0;3.2740507;0;-0.30299437;  1.0015652E+04;  0.0000000E+00; -5.2781028E-01;  1.0000000E+04;  0.0000000E+00;  9.9985303E+03;-0.33065754;0.0;0.027663166;2902.4919
  2.5993326E-01;  9.9999998E-03;  3.0002037E-01;1462;-0.03363961;0.0;0.0091387499;1000.6825;  4.0000001E-01;565.41595;3;-18.046209;0.0;4.5824099;0;-0.2974517;  1.0015784E+04;  0.0000000E+00; -8.2914060E-01;  1.0000000E+04;  0.0000000E+00;  9.9978730E+03;-0.33883029;0.0;0.041378587;4535.3599
  2.7989632E-01;  9.9999998E-03;  1.6000688E-01;1486;-0.052550141;0.0;0.0040594642;1000.7184;  4.0000001E-01;595.24231;3;-18.915546;0.0;1.7784326;0;-0.29221785;  1.0015755E+04;  0.0000000E+00;  1.5000819E-07;  1.0000000E+04;  0.0000000E+00;  9.9986172E+03;-0.32052889;0.0;0.028311037;710.98962
  2.7989563E-01;  9.9999998E-03;  1.8000807E-01;1487;-0.05258349;0.0;0.0045579351;1000.7213;  4.0000001E-01;597.61261;3;-18.678556;0.0;1.9281474;0;-0.29304767;  1.0016019E+04;  0.0000000E+00; -3.2599346E-05;  1.0000000E+04;  0.0000000E+00;  9.9984170E+03;-0.3235693;0.0;0.030521635;807.7793
  2.7989548E-01;  9.9999998E-03;  2.0000939E-01;1488;-0.05233011;0.0;0.0050736088;1000.7232;  4.0000001E-01;599.19281;3;-18.430851;0.0;2.0678658;0;-0.29354042;  1.0016279E+04;  0.0000000E+00; -1.5200264E-03;  1.0000000E+04;  0.0000000E+00;  9.9981885E+03;-0.32701686;0.0;0.033476453;917.47565
  2.7989626E-01;  9.9999998E-03;  2.2001095E-01;1489;-0.051636077;0.0;0.0056729033;1000.7262;  4.0000001E-01;601.66187;3;-18.314241;0.0;2.2488756;0;-0.29489264;  1.0016548E+04;  0.0000000E+00; -1.1715316E-02;  1.0000000E+04;  0.0000000E+00;  9.9979785E+03;-0.3312546;0.0;0.03636197;1020.2799
  2.7989835E-01;  9.9999998E-03;  2.4001294E-01;1490;-0.050302915;0.0;0.0064581819;1000.7335;  4.0000001E-01;607.6864;3;-18.520002;0.0;2.5891852;0;-0.29870173;  1.0016827E+04;  0.0000000E+00; -4.8133198E-02;  1.0000000E+04;  0.0000000E+00;  9.9978525E+03;-0.33681321;0.0;0.038111471;1109.3376
  2.7990225E-01;  9.9999998E-03;  2.6001608E-01;1491;-0.048139755;0.0;0.0077535557;1000.7444;  4.0000001E-01;616.67377;3;-19.219208;0.0;3.2364938;0;-0.30393249;  1.0017120E+04;  0.0000000E+00; -1.3761987E-01;  1.0000000E+04;  0.0000000E+00;  9.9977734E+03;-0.34406874;0.0;0.040136237;1334.9003
  2.7990809E-01;  9.9999998E-03;  2.8002077E-01;1492;-0.045116693;0.0;0.0095797768;1000.7402;  4.0000001E-01;613.2171;3;-20.37966;0.0;4.280231;0;-0.30406165;  1.0017399E+04;  0.0000000E+00; -2.9232830E-01;  1.0000000E+04;  0.0000000E+00;  9.9974160E+03;-0.35255456;0.0;0.048492905;2017.0391
  2.7991617E-01;  9.9999998E-03;  3.0002588E-01;1493;-0.041136928;0.0;0.011339361;1000.7106;  4.0000001E-01;588.72394;3;-21.547707;0.0;5.605392;0;-0.29826429;  1.0017507E+04;  0.0000000E+00; -4.6304324E-01;  1.0000000E+04;  0.0000000E+00;  9.9967148E+03;-0.35934991;0.0;0.061085623;2950.73
  2.9988015E-01;  9.9999998E-03;  1.6000891E-01;1517;-0.059372764;0.0;0.0052303537;1000.8049;  4.0000001E-01;666.84509;3;-20.783943;0.0;2.244539;0;-0.31725356;  1.0017872E+04;  0.0000000E+00;  8.4883268E-08;  1.0000000E+04;  0.0000000E+00;  9.9982412E+03;-0.35295689;0.0;0.035703324;896.44
  2.9987916E-01;  9.9999998E-03;  1.8001054E-01;1518;-0.059465159;0.0;0.0059284791;1000.8076;  4.0000001E-01;669.11664;3;-20.514734;0.0;2.4633148;0;-0.31758922;  1.0018167E+04;  0.0000000E+00;  2.7076178E-06;  1.0000000E+04;  0.0000000E+00;  9.9979922E+03;-0.35583344;0.0;0.038244214;1015.1736
  2.9987872E-01;  9.9999998E-03;  2.0001239E-01;1519;-0.059280585;0.0;0.0066674026;1000.8082;  4.0000001E-01;669.51166;3;-20.260387;0.0;2.6713543;0;-0.31734589;  1.0018452E+04;  0.0000000E+00; -2.1909014E-04;  1.0000000E+04;  0.0000000E+00;  9.9977207E+03;-0.35891727;0.0;0.041571379;1147.4014
  2.9987916E-01;  9.9999998E-03;  2.2001459E-01;1520;-0.058671523;0.0;0.0075207851;1000.8083;  4.0000001E-01;669.70923;3;-20.180225;0.0;2.9467056;0;-0.31713733;  1.0018723E+04;  0.0000000E+00; -3.2410880E-03;  1.0000000E+04;  0.0000000E+00;  9.9974570E+03;-0.3622973;0.0;0.045159962;1276.0204
  2.9988089E-01;  9.9999998E-03;  2.4001729E-01;1521;-0.05746986;0.0;0.0085740667;1000.8097;  4.0000001E-01;670.79559;3;-20.528992;0.0;3.3725455;0;-0.31763181;  1.0018972E+04;  0.0000000E+00; -1.6869385E-02;  1.0000000E+04;  0.0000000E+00;  9.9972344E+03;-0.36618721;0.0;0.048555415;1383.6023
  2.9988432E-01;  9.9999998E-03;  2.6002097E-01;1522;-0.055516686;0.0;0.0099691441;1000.8102;  4.0000001E-01;671.28943;3;-21.543871;0.0;4.0675573;0;-0.31768006;  1.0019198E+04;  0.0000000E+00; -5.3836182E-02;  1.0000000E+04;  0.0000000E+00;  9.9970205E+03;-0.37077254;0.0;0.05309248;1508.457
  2.9988962E-01;  9.9999998E-03;  2.8002578E-01;1523;-0.052760098;0.0;0.011630449;1000.7979;  4.0000001E-01;661.01807;3;-23.23241;0.0;5.0908847;0;-0.31418404;  1.0019379E+04;  0.0000000E+00; -1.2110901E-01;  1.0000000E+04;  0.0000000E+00;  9.9965850E+03;-0.37593269;0.0;0.06174865;1804.2163
  2.9989704E-01;  9.9999998E-03;  3.0003071E-01;1524;-0.049178936;0.0;0.01314915;1000.7719;  4.0000001E-01;639.48785;3;-25.197121;0.0;6.405169;0;-0.31023827;  1.0019459E+04;  0.0000000E+00; -1.9657232E-01;  1.0000000E+04;  0.0000000E+00;  9.9959912E+03;-0.38057387;0.0;0.070335597;2231.0315
  3.1986180E-01;  9.9999998E-03;  1.6001116E-01;1548;-0.066881187;0.0;0.0065062996;1000.9022;  4.0000001E-01;747.43536;3;-22.746351;0.0;2.7339606;0;-0.34436956;  1.0020228E+04;  0.0000000E+00; -3.4539327E-09;  1.0000000E+04;  0.0000000E+00;  9.9978301E+03;-0.38764316;0.0;0.043273594;1098.3562
  3.1986046E-01;  9.9999998E-03;  1.8001327E-01;1549;-0.067032866;0.0;0.0073980903;1000.9041;  4.0000001E-01;749.01556;3;-22.442589;0.0;3.0107353;0;-0.34421709;  1.0020549E+04;  0.0000000E+00;  2.2235174E-06;  1.0000000E+04;  0.0000000E+00;  9.9975508E+03;-0.39008573;0.0;0.045868635;1236.2861
  3.1985968E-01;  9.9999998E-03;  2.0001565E-01;1550;-0.066902988;0.0;0.0083271973;1000.9041;  4.0000001E-01;749.01556;3;-22.15992;0.0;3.2565312;0;-0.34336388;  1.0020856E+04;  0.0000000E+00;  1.4789690E-05;  1.0000000E+04;  0.0000000E+00;  9.9972402E+03;-0.39254218;0.0;0.049178317;1385.5631
  3.1985980E-01;  9.9999998E-03;  2.2001839E-01;1551;-0.066352516;0.0;0.0093621025;1000.9026;  4.0000001E-01;747.83044;3;-22.099144;0.0;3.5907431;0;-0.34209386;  1.0021130E+04;  0.0000000E+00; -2.9128141E-04;  1.0000000E+04;  0.0000000E+00;  9.9969375E+03;-0.39494172;0.0;0.052847851;1530.7642
  3.1986129E-01;  9.9999998E-03;  2.4002165E-01;1552;-0.065194681;0.0;0.010565239;1000.9006;  4.0000001E-01;746.15143;3;-22.563993;0.0;4.0532918;0;-0.34061408;  1.0021355E+04;  0.0000000E+00; -3.1210040E-03;  1.0000000E+04;  0.0000000E+00;  9.9966719E+03;-0.39730418;0.0;0.056690082;1657.0442
  3.1986448E-01;  9.9999998E-03;  2.6002565E-01;1553;-0.063319057;0.0;0.011962404;1000.8969;  4.0000001E-01;742.99103;3;-23.858765;0.0;4.7787633;0;-0.33812714;  1.0021533E+04;  0.0000000E+00; -1.3091614E-02;  1.0000000E+04;  0.0000000E+00;  9.9964180E+03;-0.39970371;0.0;0.061576586;1778.3198
  3.1986955E-01;  9.9999998E-03;  2.8003052E-01;1554;-0.060690533;0.0;0.013472903;1000.8832;  4.0000001E-01;731.73212;3;-26.03673;0.0;5.7963901;0;-0.33357829;  1.0021654E+04;  0.0000000E+00; -3.3588979E-02;  1.0000000E+04;  0.0000000E+00;  9.9960166E+03;-0.40214798;0.0;0.068569705;1974.223
  3.1987667E-01;  9.9999998E-03;  3.0003551E-01;1555;-0.057336818;0.0;0.01487396;1000.8615;  4.0000001E-01;713.65857;3;-28.723961;0.0;7.1555161;0;-0.33044261;  1.0021709E+04;  0.0000000E+00; -5.8965731E-02;  1.0000000E+04;  0.0000000E+00;  9.9955361E+03;-0.40438333;0.0;0.073940739;2219.9766
  3.3984101E-01;  9.9999998E-03;  1.6001357E-01;1579;-0.075119652;0.0;0.0078295292;1001.0114;  4.0000001E-01;837.90186;3;-24.798542;0.0;3.2072275;0;-0.37390345;  1.0022844E+04;  0.0000000E+00; -7.3157892E-08;  1.0000000E+04;  0.0000000E+00;  9.9973984E+03;-0.42467627;0.0;0.05077282;1313.5505
  3.3983925E-01;  9.9999998E-03;  1.8001617E-01;1580;-0.075323991;0.0;0.0088919988;1001.0132;  4.0000001E-01;839.3833;3;-24.44401;0.0;3.5098748;0;-0.37332478;  1.0023195E+04;  0.0000000E+00;  1.7362742E-06;  1.0000000E+04;  0.0000000E+00;  9.9970801E+03;-0.42649454;0.0;0.053169768;1468.267
  3.3983812E-01;  9.9999998E-03;  2.0001908E-01;1581;-0.075236209;0.0;0.0099905664;1001.0126;  4.0000001E-01;838.98822;3;-24.125301;0.0;3.791245;0;-0.37193659;  1.0023517E+04;  0.0000000E+00;  1.3420489E-05;  1.0000000E+04;  0.0000000E+00;  9.9967432E+03;-0.42810705;0.0;0.056170464;1630.8938
  3.3983797E-01;  9.9999998E-03;  2.2002229E-01;1582;-0.0747061;0.0;0.011148789;1001.0101;  4.0000001E-01;836.91425;3;-24.070839;0.0;4.1525927;0;-0.36995289;  1.0023791E+04;  0.0000000E+00;  5.0151459E-05;  1.0000000E+04;  0.0000000E+00;  9.9964297E+03;-0.42942023;0.0;0.059467349;1785.4995
  3.3983931E-01;  9.9999998E-03;  2.4002600E-01;1583;-0.073526822;0.0;0.012425302;1001.007;  4.0000001E-01;834.24762;3;-24.631536;0.0;4.6388545;0;-0.36750522;  1.0024000E+04;  0.0000000E+00;  7.7934701E-06;  1.0000000E+04;  0.0000000E+00;  9.9961582E+03;-0.43039855;0.0;0.062893324;1916.7964
  3.3984247E-01;  9.9999998E-03;  2.6003027E-01;1584;-0.071603239;0.0;0.013807428;1001.0025;  4.0000001E-01;830.59344;3;-26.174023;0.0;5.3878951;0;-0.36419344;  1.0024147E+04;  0.0000000E+00; -1.0182135E-03;  1.0000000E+04;  0.0000000E+00;  9.9959219E+03;-0.43108726;0.0;0.066893816;2027.6987
  3.3984774E-01;  9.9999998E-03;  2.8003535E-01;1585;-0.0689108;0.0;0.015255488;1000.9902;  4.0000001E-01;820.32208;3;-28.788311;0.0;6.4376655;0;-0.35963649;  1.0024231E+04;  0.0000000E+00; -4.1506435E-03;  1.0000000E+04;  0.0000000E+00;  9.9955879E+03;-0.43156648;0.0;0.071929991;2186.5667
  3.3985510E-01;  9.9999998E-03;  3.0004063E-01;1586;-0.065494701;0.0;0.016628668;1000.9717;  4.0000001E-01;805.01392;3;-32.072407;0.0;7.8705678;0;-0.3565779;  1.0024269E+04;  0.0000000E+00; -8.8843899E-03;  1.0000000E+04;  0.0000000E+00;  9.9951826E+03;-0.43189356;0.0;0.075315647;2380.2014
  3.5981750E-01;  9.9999998E-03;  1.6001612E-01;1610;-0.08413294;0.0;0.0091700498;1001.1337;  4.0000001E-01;939.23218;3;-26.931309;0.0;3.638463;0;-0.40603852;  1.0025750E+04;  0.0000000E+00; -1.9419488E-07;  1.0000000E+04;  0.0000000E+00;  9.9969434E+03;-0.46415004;0.0;0.058111522;1540.9445
  3.5981533E-01;  9.9999998E-03;  1.8001920E-01;1611;-0.08437933;0.0;0.01038218;1001.1357;  4.0000001E-01;940.91119;3;-26.515074;0.0;3.9635527;0;-0.40511349;  1.0026139E+04;  0.0000000E+00;  1.2745144E-06;  1.0000000E+04;  0.0000000E+00;  9.9965957E+03;-0.46525487;0.0;0.060141396;1711.4625
  3.5981378E-01;  9.9999998E-03;  2.0002261E-01;1612;-0.084318593;0.0;0.011620264;1001.135;  4.0000001E-01;940.3186;3;-26.146053;0.0;4.2668219;0;-0.40327317;  1.0026480E+04;  0.0000000E+00;  1.2680731E-05;  1.0000000E+04;  0.0000000E+00;  9.9962402E+03;-0.46593899;0.0;0.062665828;1886.2838
  3.5981336E-01;  9.9999998E-03;  2.2002633E-01;1613;-0.083788373;0.0;0.01287844;1001.1324;  4.0000001E-01;938.14581;3;-26.094919;0.0;4.6342373;0;-0.40070218;  1.0026758E+04;  0.0000000E+00;  5.1280971E-05;  1.0000000E+04;  0.0000000E+00;  9.9959082E+03;-0.46611384;0.0;0.06541165;2048.6064
  3.5981458E-01;  9.9999998E-03;  2.4003045E-01;1614;-0.08255177;0.0;0.014202608;1001.1288;  4.0000001E-01;935.18292;3;-26.7453;0.0;5.1358309;0;-0.39767411;  1.0026959E+04;  0.0000000E+00;  1.3247877E-04;  1.0000000E+04;  0.0000000E+00;  9.9956357E+03;-0.46578988;0.0;0.068115778;2179.7761
  3.5981789E-01;  9.9999998E-03;  2.6003504E-01;1615;-0.080504715;0.0;0.015585798;1001.1249;  4.0000001E-01;932.02252;3;-28.52915;0.0;5.9208655;0;-0.39414191;  1.0027078E+04;  0.0000000E+00;  2.4552649E-04;  1.0000000E+04;  0.0000000E+00;  9.9954395E+03;-0.46505868;0.0;0.070916787;2272.9731
  3.5982358E-01;  9.9999998E-03;  2.8004053E-01;1616;-0.077601619;0.0;0.017061604;1001.1138;  4.0000001E-01;922.73883;3;-31.549862;0.0;7.0335917;0;-0.38942799;  1.0027137E+04;  0.0000000E+00;  2.8977144E-04;  1.0000000E+04;  0.0000000E+00;  9.9951650E+03;-0.4640708;0.0;0.074642815;2403.2424
  3.5983172E-01;  9.9999998E-03;  3.0004624E-01;1617;-0.07389538;0.0;0.018458841;1001.0964;  4.0000001E-01;908.41827;3;-35.349373;0.0;8.5766973;0;-0.38599098;  1.0027146E+04;  0.0000000E+00;  7.4695708E-05;  1.0000000E+04;  0.0000000E+00;  9.9948057E+03;-0.46302423;0.0;0.077033252;2576.4358
  3.7979096E-01;  9.9999998E-03;  1.6001877E-01;1641;-0.093966633;0.0;0.010506494;1001.2705;  4.0000001E-01;1052.6115;3;-29.133926;0.0;4.0186257;0;-0.44080254;  1.0028965E+04;  0.0000000E+00; -3.1853858E-07;  1.0000000E+04;  0.0000000E+00;  9.9964688E+03;-0.50612634;0.0;0.065323792;1780.8875
  3.7978831E-01;  9.9999998E-03;  1.8002236E-01;1642;-0.094240293;0.0;0.011852072;1001.2734;  4.0000001E-01;1054.9817;3;-28.645729;0.0;4.3570967;0;-0.43960229;  1.0029399E+04;  0.0000000E+00;  7.2248855E-07;  1.0000000E+04;  0.0000000E+00;  9.9960898E+03;-0.50651634;0.0;0.066914044;1967.7845
  3.7978637E-01;  9.9999998E-03;  2.0002630E-01;1643;-0.094192937;0.0;0.013212177;1001.2731;  4.0000001E-01;1054.7842;3;-28.214918;0.0;4.676033;0;-0.43739873;  1.0029780E+04;  0.0000000E+00;  1.2333206E-05;  1.0000000E+04;  0.0000000E+00;  9.9957051E+03;-0.50631344;0.0;0.068914704;2156.228
  3.7978563E-01;  9.9999998E-03;  2.2003055E-01;1644;-0.093645103;0.0;0.014568293;1001.2707;  4.0000001E-01;1052.7102;3;-28.1647;0.0;5.0357857;0;-0.43433964;  1.0030081E+04;  0.0000000E+00;  5.5149081E-05;  1.0000000E+04;  0.0000000E+00;  9.9953564E+03;-0.50543779;0.0;0.071098134;2328.345
  3.7978673E-01;  9.9999998E-03;  2.4003513E-01;1645;-0.092336595;0.0;0.015939834;1001.2672;  4.0000001E-01;1049.8461;3;-28.905025;0.0;5.5569634;0;-0.43084735;  1.0030288E+04;  0.0000000E+00;  1.4940588E-04;  1.0000000E+04;  0.0000000E+00;  9.9950801E+03;-0.50395095;0.0;0.073103599;2461.8755
  3.7979022E-01;  9.9999998E-03;  2.6004013E-01;1646;-0.090133019;0.0;0.017349275;1001.2645;  4.0000001E-01;1047.5745;3;-30.947912;0.0;6.384727;0;-0.42711872;  1.0030403E+04;  0.0000000E+00;  2.8599141E-04;  1.0000000E+04;  0.0000000E+00;  9.9949141E+03;-0.50201505;0.0;0.074896351;2541.677
  3.7979648E-01;  9.9999998E-03;  2.8004614E-01;1647;-0.086963296;0.0;0.018893983;1001.2546;  4.0000001E-01;1039.3772;3;-34.387383;0.0;7.5925193;0;-0.42194515;  1.0030439E+04;  0.0000000E+00;  3.7857599E-04;  1.0000000E+04;  0.0000000E+00;  9.9946797E+03;-0.49984953;0.0;0.077904359;2652.7458
  3.7980562E-01;  9.9999998E-03;  3.0005243E-01;1648;-0.082873225;0.0;0.02035738;1001.2365;  4.0000001E-01;1024.4641;3;-38.715332;0.0;9.2468281;0;-0.41764259;  1.0030425E+04;  0.0000000E+00;  2.6042634E-04;  1.0000000E+04;  0.0000000E+00;  9.9943330E+03;-0.49771461;0.0;0.080072023;2821.1189
  3.9976117E-01;  9.9999998E-03;  1.6002153E-01;1672;-0.10466593;0.0;0.011815996;1001.4227;  4.0000001E-01;1178.731;3;-31.399502;0.0;4.3445077;0;-0.47810543;  1.0032514E+04;  0.0000000E+00; -4.4880713E-07;  1.0000000E+04;  0.0000000E+00;  9.9959678E+03;-0.55060184;0.0;0.072496407;2034.1802
  3.9975795E-01;  9.9999998E-03;  1.8002565E-01;1673;-0.10495121;0.0;0.013296337;1001.4271;  4.0000001E-01;1182.2864;3;-30.825668;0.0;4.6669497;0;-0.47669154;  1.0033013E+04;  0.0000000E+00;  1.2523010E-07;  1.0000000E+04;  0.0000000E+00;  9.9955566E+03;-0.55033767;0.0;0.073646113;2238.6926
  3.9975551E-01;  9.9999998E-03;  2.0003018E-01;1674;-0.10490272;0.0;0.014777591;1001.4281;  4.0000001E-01;1183.1753;3;-30.332102;0.0;4.9896803;0;-0.47420913;  1.0033452E+04;  0.0000000E+00;  1.2173962E-05;  1.0000000E+04;  0.0000000E+00;  9.9951426E+03;-0.54937285;0.0;0.075163707;2443.9563
  3.9975443E-01;  9.9999998E-03;  2.2003502E-01;1675;-0.10431969;0.0;0.016242748;1001.4266;  4.0000001E-01;1181.8914;3;-30.270618;0.0;5.3566351;0;-0.47075957;  1.0033802E+04;  0.0000000E+00;  6.1189770E-05;  1.0000000E+04;  0.0000000E+00;  9.9947607E+03;-0.54763836;0.0;0.076878771;2630.6321
  3.9975542E-01;  9.9999998E-03;  2.4004015E-01;1676;-0.10292311;0.0;0.017675392;1001.4239;  4.0000001E-01;1179.6198;3;-31.119514;0.0;5.8783531;0;-0.46686733;  1.0034040E+04;  0.0000000E+00;  1.7414473E-04;  1.0000000E+04;  0.0000000E+00;  9.9944697E+03;-0.54523957;0.0;0.078372225;2772.8267
  3.9975911E-01;  9.9999998E-03;  2.6004571E-01;1677;-0.10053833;0.0;0.019129766;1001.4227;  4.0000001E-01;1178.731;3;-33.426876;0.0;6.7711468;0;-0.46297011;  1.0034176E+04;  0.0000000E+00;  3.4292365E-04;  1.0000000E+04;  0.0000000E+00;  9.9943145E+03;-0.54239321;0.0;0.079423107;2848.1565
  3.9976600E-01;  9.9999998E-03;  2.8005233E-01;1678;-0.097073331;0.0;0.020759786;1001.4143;  4.0000001E-01;1171.7188;3;-37.311962;0.0;8.0872231;0;-0.45733559;  1.0034218E+04;  0.0000000E+00;  4.6265475E-04;  1.0000000E+04;  0.0000000E+00;  9.9940967E+03;-0.53936666;0.0;0.082031071;2950.3662
  3.9977622E-01;  9.9999998E-03;  3.0005935E-01;1679;-0.092572749;0.0;0.022305578;1001.3954;  4.0000001E-01;1156.0155;3;-42.214378;0.0;9.8558884;0;-0.4522419;  1.0034206E+04;  0.0000000E+00;  3.2048387E-04;  1.0000000E+04;  0.0000000E+00;  9.9937344E+03;-0.53645343;0.0;0.084211528;3124.7622
  4.1972771E-01;  9.9999998E-03;  1.6002448E-01;1703;-0.11627576;0.0;0.013080995;1001.5909;  4.0000001E-01;1318.0845;3;-33.716564;0.0;4.5934772;0;-0.51776731;  1.0036409E+04;  0.0000000E+00; -4.0369204E-07;  1.0000000E+04;  0.0000000E+00;  9.9954443E+03;-0.59746987;0.0;0.079702526;2301.6626
  4.1972390E-01;  9.9999998E-03;  1.8002917E-01;1704;-0.11655737;0.0;0.014709956;1001.5978;  4.0000001E-01;1323.714;3;-33.046783;0.0;4.9039612;0;-0.51621819;  1.0036994E+04;  0.0000000E+00; -2.5386578E-07;  1.0000000E+04;  0.0000000E+00;  9.9949951E+03;-0.59665281;0.0;0.080434598;2523.9863
  4.1972089E-01;  9.9999998E-03;  2.0003429E-01;1705;-0.11649124;0.0;0.016325273;1001.601;  4.0000001E-01;1326.3805;3;-32.476051;0.0;5.2088985;0;-0.5135594;  1.0037518E+04;  0.0000000E+00;  1.2534074E-05;  1.0000000E+04;  0.0000000E+00;  9.9945430E+03;-0.59510481;0.0;0.081545413;2749.3652
  4.1971943E-01;  9.9999998E-03;  2.2003978E-01;1706;-0.11585647;0.0;0.017914917;1001.6014;  4.0000001E-01;1326.7756;3;-32.401672;0.0;5.5893292;0;-0.50984061;  1.0037943E+04;  0.0000000E+00;  6.9739384E-05;  1.0000000E+04;  0.0000000E+00;  9.9941250E+03;-0.59277368;0.0;0.082933038;2956.4167
  4.1972026E-01;  9.9999998E-03;  2.4004559E-01;1707;-0.11434845;0.0;0.019435959;1001.6006;  4.0000001E-01;1326.0842;3;-33.357231;0.0;6.1336522;0;-0.50563705;  1.0038259E+04;  0.0000000E+00;  2.0689327E-04;  1.0000000E+04;  0.0000000E+00;  9.9937998E+03;-0.58979487;0.0;0.084157817;3115.1572
  4.1972417E-01;  9.9999998E-03;  2.6005182E-01;1708;-0.11175996;0.0;0.0209508;1001.6019;  4.0000001E-01;1327.1707;3;-35.952599;0.0;7.06954;0;-0.50160825;  1.0038448E+04;  0.0000000E+00;  4.1648129E-04;  1.0000000E+04;  0.0000000E+00;  9.9936328E+03;-0.58641011;0.0;0.084801853;3197.6724
  4.1973168E-01;  9.9999998E-03;  2.8005925E-01;1709;-0.10797285;0.0;0.022667427;1001.5956;  4.0000001E-01;1321.9363;3;-40.311436;0.0;8.498826;0;-0.49576303;  1.0038545E+04;  0.0000000E+00;  5.6653138E-04;  1.0000000E+04;  0.0000000E+00;  9.9934102E+03;-0.58290732;0.0;0.087144293;3303.1272
  4.1974309E-01;  9.9999998E-03;  3.0006716E-01;1710;-0.10302768;0.0;0.024310108;1001.5771;  4.0000001E-01;1306.6281;3;-45.839111;0.0;10.371401;0;-0.49010462;  1.0038564E+04;  0.0000000E+00;  3.8100814E-04;  1.0000000E+04;  0.0000000E+00;  9.9930205E+03;-0.57959008;0.0;0.089485466;3491.9294
  4.3969035E-01;  9.9999998E-03;  1.6002774E-01;1734;-0.12884276;0.0;0.014295056;1001.7748;  4.0000001E-01;1470.3757;3;-36.074951;0.0;4.7422419;0;-0.55942327;  1.0040658E+04;  0.0000000E+00;  9.6336031E-08;  1.0000000E+04;  0.0000000E+00;  9.9948867E+03;-0.64639539;0.0;0.08697214;2585.043
  4.3968579E-01;  9.9999998E-03;  1.8003301E-01;1735;-0.1291078;0.0;0.016083099;1001.7851;  4.0000001E-01;1478.8693;3;-35.295731;0.0;5.0380917;0;-0.55788094;  1.0041341E+04;  0.0000000E+00;  2.3964242E-07;  1.0000000E+04;  0.0000000E+00;  9.9944160E+03;-0.64515668;0.0;0.087275736;2822.1802
  4.3968213E-01;  9.9999998E-03;  2.0003876E-01;1736;-0.12901019;0.0;0.017847573;1001.7921;  4.0000001E-01;1484.6963;3;-34.63718;0.0;5.3249278;0;-0.55521697;  1.0041978E+04;  0.0000000E+00;  1.4871341E-05;  1.0000000E+04;  0.0000000E+00;  9.9939189E+03;-0.64324939;0.0;0.08803241;3068.9011
  4.3968013E-01;  9.9999998E-03;  2.2004494E-01;1737;-0.12830622;0.0;0.019576158;1001.7963;  4.0000001E-01;1488.153;3;-34.545929;0.0;5.7193007;0;-0.55143452;  1.0042524E+04;  0.0000000E+00;  8.3408821E-05;  1.0000000E+04;  0.0000000E+00;  9.9934502E+03;-0.64065212;0.0;0.089217618;3300.7991
  4.3968076E-01;  9.9999998E-03;  2.4005149E-01;1738;-0.12666452;0.0;0.021210143;1001.7992;  4.0000001E-01;1490.6221;3;-35.609642;0.0;6.2856874;0;-0.54711145;  1.0042956E+04;  0.0000000E+00;  2.5142869E-04;  1.0000000E+04;  0.0000000E+00;  9.9930811E+03;-0.63751078;0.0;0.09039931;3482.3833
  4.3968484E-01;  9.9999998E-03;  2.6005861E-01;1739;-0.12384515;0.0;0.022818781;1001.8044;  4.0000001E-01;1494.8688;3;-38.504868;0.0;7.2748256;0;-0.54303044;  1.0043262E+04;  0.0000000E+00;  5.1046954E-04;  1.0000000E+04;  0.0000000E+00;  9.9928740E+03;-0.63405788;0.0;0.091027446;3583.563
  4.3969300E-01;  9.9999998E-03;  2.8006706E-01;1740;-0.11970922;0.0;0.024623614;1001.8007;  4.0000001E-01;1491.8071;3;-43.372677;0.0;8.803874;0;-0.53731388;  1.0043457E+04;  0.0000000E+00;  6.8999152E-04;  1.0000000E+04;  0.0000000E+00;  9.9926104E+03;-0.63056099;0.0;0.093247093;3710.8999
  4.3970567E-01;  9.9999998E-03;  3.0007598E-01;1741;-0.1142763;0.0;0.026381345;1001.7838;  4.0000001E-01;1477.8817;3;-49.556911;0.0;10.80591;0;-0.53152448;  1.0043559E+04;  0.0000000E+00;  4.2685107E-04;  1.0000000E+04;  0.0000000E+00;  9.9921680E+03;-0.6273101;0.0;0.095785625;3924.4521
  4.5964858E-01;  9.9999998E-03;  1.6003162E-01;1765;-0.14241825;0.0;0.015475014;1001.9736;  4.0000078E-01;1635.1106;3;-38.461674;0.0;4.7639346;0;-0.6022051;  1.0045200E+04;  0.0000000E+00;  2.0995542E-06;  1.0000000E+04;  0.0000000E+00;  9.9942910E+03;-0.6965211;0.0;0.094315998;2889.2397
  4.5964316E-01;  9.9999998E-03;  1.8003744E-01;1766;-0.14265804;0.0;0.017421123;1001.9896;  4.0000081E-01;1648.3447;3;-37.561535;0.0;5.0410523;0;-0.60091877;  1.0046004E+04;  0.0000000E+00;  3.2848088E-06;  1.0000000E+04;  0.0000000E+00;  9.9938076E+03;-0.69500786;0.0;0.094089106;3132.9736
  4.5963868E-01;  9.9999998E-03;  2.0004375E-01;1767;-0.14251967;0.0;0.019334614;1002.0018;  4.0000084E-01;1658.4185;3;-36.806194;0.0;5.3154716;0;-0.59854037;  1.0046787E+04;  0.0000000E+00;  2.2420105E-05;  1.0000000E+04;  0.0000000E+00;  9.9932793E+03;-0.69300675;0.0;0.094466411;3398.0403
  4.5963606E-01;  9.9999998E-03;  2.2005059E-01;1768;-0.14173289;0.0;0.021204172;1002.0115;  4.0000081E-01;1666.517;3;-36.688992;0.0;5.7138352;0;-0.59504223;  1.0047501E+04;  0.0000000E+00;  1.0826196E-04;  1.0000000E+04;  0.0000000E+00;  9.9927607E+03;-0.69054514;0.0;0.095502928;3655.2876
  4.5963633E-01;  9.9999998E-03;  2.4005792E-01;1769;-0.13993853;0.0;0.022967219;1002.0212;  4.0000072E-01;1674.5167;3;-37.86483;0.0;6.3038187;0;-0.59099716;  1.0048107E+04;  0.0000000E+00;  3.1731004E-04;  1.0000000E+04;  0.0000000E+00;  9.9923457E+03;-0.68776244;0.0;0.09676528;3860.4177
  4.5964053E-01;  9.9999998E-03;  2.6006615E-01;1770;-0.13686195;0.0;0.024716832;1002.0324;  4.0000084E-01;1683.8004;3;-41.075516;0.0;7.3498969;0;-0.58709967;  1.0048591E+04;  0.0000000E+00;  6.3662085E-04;  1.0000000E+04;  0.0000000E+00;  9.9920889E+03;-0.6848408;0.0;0.097741105;3986.0452
  4.5964932E-01;  9.9999998E-03;  2.8007591E-01;1771;-0.13235119;0.0;0.026637521;1002.0321;  4.0000084E-01;1683.6029;3;-46.485382;0.0;8.9784098;0;-0.5817824;  1.0048945E+04;  0.0000000E+00;  8.3960639E-04;  1.0000000E+04;  0.0000000E+00;  9.9917266E+03;-0.68198133;0.0;0.10019891;4161.6743
  4.5966327E-01;  9.9999998E-03;  3.0008614E-01;1772;-0.12639053;0.0;0.028523736;1002.0181;  4.0000072E-01;1671.949;3;-53.366886;0.0;11.124748;0;-0.57644892;  1.0049200E+04;  0.0000000E+00;  4.4182368E-04;  1.0000000E+04;  0.0000000E+00;  9.9911904E+03;-0.67942154;0.0;0.1029726;4423.3623
  4.7960201E-01;  9.9999998E-03;  1.6003658E-01;1796;-0.15705593;0.0;0.016674297;1002.1796;  4.0000239E-01;1805.7706;3;-40.865032;0.0;4.6320009;0;-0.64415741;  1.0049914E+04;  0.0000000E+00;  8.1984399E-06;  1.0000000E+04;  0.0000000E+00;  9.9936357E+03;-0.74595368;0.0;0.10179626;3225.8621
  4.7959557E-01;  9.9999998E-03;  1.8004289E-01;1797;-0.15726726;0.0;0.018761801;1002.2029;  4.0000230E-01;1825.0293;3;-39.833275;0.0;4.8801093;0;-0.64349419;  1.0050853E+04;  0.0000000E+00;  1.2440679E-05;  1.0000000E+04;  0.0000000E+00;  9.9931660E+03;-0.74430579;0.0;0.10081162;3461.9526
  4.7959009E-01;  9.9999998E-03;  2.0004964E-01;1798;-0.15708479;0.0;0.020795129;1002.2232;  4.0000227E-01;1841.9176;3;-38.971977;0.0;5.1352372;0;-0.64182365;  1.0051806E+04;  0.0000000E+00;  4.1149873E-05;  1.0000000E+04;  0.0000000E+00;  9.9926182E+03;-0.74249679;0.0;0.10067314;3737.0168
  4.7958663E-01;  9.9999998E-03;  2.2005694E-01;1799;-0.15621056;0.0;0.022781989;1002.2413;  4.0000230E-01;1856.9296;3;-38.823723;0.0;5.5371275;0;-0.63913286;  1.0052729E+04;  0.0000000E+00;  1.5505370E-04;  1.0000000E+04;  0.0000000E+00;  9.9920645E+03;-0.74062377;0.0;0.10149094;4014.2051
  4.7958639E-01;  9.9999998E-03;  2.4006496E-01;1800;-0.15425722;0.0;0.024661744;1002.2614;  4.0000218E-01;1873.5216;3;-40.116791;0.0;6.144814;0;-0.63606834;  1.0053574E+04;  0.0000000E+00;  4.2292362E-04;  1.0000000E+04;  0.0000000E+00;  9.9916230E+03;-0.73880208;0.0;0.10273372;4232.9229
  4.7959051E-01;  9.9999998E-03;  2.6007444E-01;1801;-0.1509061;0.0;0.026609618;1002.2836;  4.0000236E-01;1891.8914;3;-43.659531;0.0;7.2537355;0;-0.63290942;  1.0054304E+04;  0.0000000E+00;  8.2022260E-04;  1.0000000E+04;  0.0000000E+00;  9.9913408E+03;-0.7371273;0.0;0.10421789;4372.9512
  4.7959977E-01;  9.9999998E-03;  2.8008607E-01;1802;-0.14600867;0.0;0.028711544;1002.2877;  4.0000224E-01;1895.2493;3;-49.649902;0.0;8.986167;0;-0.62818682;  1.0054902E+04;  0.0000000E+00;  1.0352430E-03;  1.0000000E+04;  0.0000000E+00;  9.9908232E+03;-0.7356829;0.0;0.10749611;4625.022
  4.7961491E-01;  9.9999998E-03;  3.0009797E-01;1803;-0.13950039;0.0;0.030757245;1002.2762;  4.0000227E-01;1885.7682;3;-57.282997;0.0;11.304631;0;-0.62383866;  1.0055383E+04;  0.0000000E+00;  4.1507842E-04;  1.0000000E+04;  0.0000000E+00;  9.9901113E+03;-0.7345956;0.0;0.11075692;4973.0684
  4.9955016E-01;  9.9999998E-03;  1.6004333E-01;1827;-0.17280626;0.0;0.017995121;1002.3788;  4.0000522E-01;1970.8008;3;-43.272072;0.0;4.3164444;0;-0.68153095;  1.0054528E+04;  0.0000000E+00;  2.3666762E-05;  1.0000000E+04;  0.0000000E+00;  9.9928662E+03;-0.7911579;0.0;0.10962694;3617.0774
  4.9954256E-01;  9.9999998E-03;  1.8005008E-01;1828;-0.17298704;0.0;0.020193344;1002.412;  4.0000540E-01;1998.2566;3;-42.101112;0.0;4.5252247;0;-0.68192911;  1.0055599E+04;  0.0000000E+00;  3.3570199E-05;  1.0000000E+04;  0.0000000E+00;  9.9924570E+03;-0.78948265;0.0;0.10755357;3827.2346
  4.9953592E-01;  9.9999998E-03;  2.0005707E-01;1829;-0.17276546;0.0;0.022296688;1002.4417;  4.0000546E-01;2022.8484;3;-41.13559;0.0;4.7734814;0;-0.68145597;  1.0056740E+04;  0.0000000E+00;  7.9271755E-05;  1.0000000E+04;  0.0000000E+00;  9.9919141E+03;-0.78812349;0.0;0.10666749;4100.3027
  4.9953139E-01;  9.9999998E-03;  2.2006455E-01;1830;-0.17181027;0.0;0.024336426;1002.4712;  4.0000534E-01;2047.3414;3;-40.946232;0.0;5.1444287;0;-0.68019605;  1.0057906E+04;  0.0000000E+00;  2.4069693E-04;  1.0000000E+04;  0.0000000E+00;  9.9913398E+03;-0.7872647;0.0;0.10706869;4387.0059
  4.9953032E-01;  9.9999998E-03;  2.4007297E-01;1831;-0.16971451;0.0;0.026269283;1002.5065;  4.0000540E-01;2076.5752;3;-42.370621;0.0;5.7515421;0;-0.67911506;  1.0059037E+04;  0.0000000E+00;  6.0126750E-04;  1.0000000E+04;  0.0000000E+00;  9.9909238E+03;-0.7869876;0.0;0.10787252;4596.0801
  4.9953398E-01;  9.9999998E-03;  2.6008371E-01;1832;-0.16610189;0.0;0.028454073;1002.5465;  4.0000537E-01;2109.7593;3;-46.263573;0.0;6.9368901;0;-0.67778796;  1.0060073E+04;  0.0000000E+00;  1.1108234E-03;  1.0000000E+04;  0.0000000E+00;  9.9906963E+03;-0.78727758;0.0;0.10948961;4710.0605
  4.9954334E-01;  9.9999998E-03;  2.8009781E-01;1833;-0.16084842;0.0;0.030850738;1002.5573;  4.0000543E-01;2118.6477;3;-52.887665;0.0;8.7892942;0;-0.67382157;  1.0060986E+04;  0.0000000E+00;  1.3225435E-03;  1.0000000E+04;  0.0000000E+00;  9.9899932E+03;-0.78805339;0.0;0.1142318;5051.2192
  4.9955916E-01;  9.9999998E-03;  3.0011192E-01;1834;-0.15384182;0.0;0.033112295;1002.5471;  4.0000534E-01;2110.2529;3;-61.356991;0.0;11.324204;0;-0.67081237;  1.0061769E+04;  0.0000000E+00;  3.5172628E-04;  1.0000000E+04;  0.0000000E+00;  9.9890078E+03;-0.78925037;0.0;0.11843799;5536.0396
  5.1949275E-01;  9.9999998E-03;  1.6005275E-01;1858;-0.18968783;0.0;0.019577088;1002.5579;  4.0001482E-01;2119.1387;3;-45.670403;0.0;3.7972579;0;-0.70827723;  1.0058592E+04;  0.0000000E+00;  5.3594886E-05;  1.0000000E+04;  0.0000000E+00;  9.9919053E+03;-0.82656544;0.0;0.11828819;4099.6816
  5.1948386E-01;  9.9999998E-03;  1.8005995E-01;1859;-0.18983111;0.0;0.021861592;1002.6011;  4.0001476E-01;2154.9895;3;-44.355339;0.0;3.9527075;0;-0.71008217;  1.0059783E+04;  0.0000000E+00;  7.0173977E-05;  1.0000000E+04;  0.0000000E+00;  9.9915830E+03;-0.82489628;0.0;0.11481411;4268.2051
  5.1947588E-01;  9.9999998E-03;  2.0006707E-01;1860;-0.1895753;0.0;0.023979869;1002.6412;  4.0001470E-01;2188.1736;3;-43.274551;0.0;4.1595788;0;-0.71115595;  1.0061105E+04;  0.0000000E+00;  1.4447686E-04;  1.0000000E+04;  0.0000000E+00;  9.9910654E+03;-0.824117;0.0;0.11296104;4529.75
  5.1947004E-01;  9.9999998E-03;  2.2007440E-01;1861;-0.18856734;0.0;0.025961472;1002.6828;  4.0001467E-01;2222.6414;3;-43.049366;0.0;4.4939332;0;-0.71184397;  1.0062513E+04;  0.0000000E+00;  3.9146579E-04;  1.0000000E+04;  0.0000000E+00;  9.9905059E+03;-0.82450897;0.0;0.11266499;4815.6514
  5.1946771E-01;  9.9999998E-03;  2.4008273E-01;1862;-0.1863663;0.0;0.027838724;1002.7374;  4.0001473E-01;2267.8745;3;-44.615536;0.0;5.080513;0;-0.7138679;  1.0063940E+04;  0.0000000E+00;  9.1400748E-04;  1.0000000E+04;  0.0000000E+00;  9.9901768E+03;-0.82613134;0.0;0.11226343;4981.5088
  5.1947033E-01;  9.9999998E-03;  2.6009437E-01;1863;-0.18256582;0.0;0.030242302;1002.8055;  4.0001458E-01;2324.3665;3;-48.903347;0.0;6.3424549;0;-0.71605068;  1.0065311E+04;  0.0000000E+00;  1.6040863E-03;  1.0000000E+04;  0.0000000E+00;  9.9901631E+03;-0.82886255;0.0;0.11281189;4990.0264
  5.1947886E-01;  9.9999998E-03;  2.8011158E-01;1864;-0.17707093;0.0;0.033080086;1002.8278;  4.0001476E-01;2342.7361;3;-56.237549;0.0;8.350522;0;-0.71314174;  1.0066584E+04;  0.0000000E+00;  1.7889887E-03;  1.0000000E+04;  0.0000000E+00;  9.9893340E+03;-0.83242923;0.0;0.11928749;5392.6899
  5.1949424E-01;  9.9999998E-03;  3.0012861E-01;1865;-0.16976318;0.0;0.035642426;1002.8165;  4.0001476E-01;2333.3538;3;-65.68679;0.0;11.17302;0;-0.7115823;  1.0067712E+04;  0.0000000E+00;  2.8519536E-04;  1.0000000E+04;  0.0000000E+00;  9.9879883E+03;-0.8364867;0.0;0.12490438;6056.6343
  5.3942984E-01;  9.9999998E-03;  1.6006570E-01;1889;-0.20761566;0.0;0.0215727;1002.701;  4.0003976E-01;2237.7478;3;-48.038094;0.0;3.069541;0;-0.71597642;  1.0061463E+04;  0.0000000E+00;  9.1681490E-05;  1.0000000E+04;  0.0000000E+00;  9.9906309E+03;-0.84464484;0.0;0.12866841;4730.0166
  5.3941971E-01;  9.9999998E-03;  1.8007365E-01;1890;-0.20769599;0.0;0.023965087;1002.7526;  4.0003952E-01;2280.5117;3;-46.573944;0.0;3.1527328;0;-0.71914101;  1.0062734E+04;  0.0000000E+00;  1.1245900E-04;  1.0000000E+04;  0.0000000E+00;  9.9904033E+03;-0.84286195;0.0;0.12372093;4854.5239
  5.3941035E-01;  9.9999998E-03;  2.0008102E-01;1891;-0.20739681;0.0;0.02606483;1002.8006;  4.0003970E-01;2320.2141;3;-45.378994;0.0;3.2836432;0;-0.72166467;  1.0064188E+04;  0.0000000E+00;  2.4057252E-04;  1.0000000E+04;  0.0000000E+00;  9.9899121E+03;-0.84251666;0.0;0.12085202;5106.2251
  5.3940290E-01;  9.9999998E-03;  2.2008801E-01;1892;-0.20636585;0.0;0.027877139;1002.8526;  4.0003973E-01;2363.2742;3;-45.135468;0.0;3.5246103;0;-0.72435284;  1.0065793E+04;  0.0000000E+00;  6.5418810E-04;  1.0000000E+04;  0.0000000E+00;  9.9893584E+03;-0.8439852;0.0;0.11963237;5387.4668
  5.3939885E-01;  9.9999998E-03;  2.4009563E-01;1893;-0.20413458;0.0;0.029537391;1002.9284;  4.0003964E-01;2426.0869;3;-46.853054;0.0;4.0903487;0;-0.73034555;  1.0067466E+04;  0.0000000E+00;  1.4760691E-03;  1.0000000E+04;  0.0000000E+00;  9.9892070E+03;-0.84733027;0.0;0.11698472;5470.9688
  5.3939956E-01;  9.9999998E-03;  2.6010764E-01;1894;-0.20028301;0.0;0.032049969;1003.0343;  4.0003964E-01;2513.8862;3;-51.585045;0.0;5.420547;0;-0.7381897;  1.0069138E+04;  0.0000000E+00;  2.4690400E-03;  1.0000000E+04;  0.0000000E+00;  9.9896475E+03;-0.85236621;0.0;0.11417654;5258.9409
  5.3940582E-01;  9.9999998E-03;  2.8012821E-01;1895;-0.19478956;0.0;0.035470765;1003.0768;  4.0003958E-01;2549.0454;3;-59.728523;0.0;7.6370306;0;-0.737001;  1.0070734E+04;  0.0000000E+00;  2.5733272E-03;  1.0000000E+04;  0.0000000E+00;  9.9889033E+03;-0.8586477;0.0;0.12164672;5621.1782
  5.3941840E-01;  9.9999998E-03;  3.0014887E-01;1896;-0.18759581;0.0;0.038431726;1003.0636;  4.0003961E-01;2538.0828;3;-70.371262;0.0;10.841103;0;-0.7368691;  1.0072187E+04;  0.0000000E+00;  2.7782412E-04;  1.0000000E+04;  0.0000000E+00;  9.9871836E+03;-0.86551207;0.0;0.12864295;6468.0127
  5.5936271E-01;  9.9999998E-03;  1.6008312E-01;1920;-0.22625066;0.0;0.024136374;1002.827;  4.0010685E-01;2342.1338;3;-50.337635;0.0;2.0856295;0;-0.69418418;  1.0062342E+04;  0.0000000E+00;  1.0640510E-04;  1.0000000E+04;  0.0000000E+00;  9.9888789E+03;-0.83635342;0.0;0.14216922;5586.2671
  5.5935144E-01;  9.9999998E-03;  1.8009226E-01;1921;-0.22620548;0.0;0.026723972;1002.8811;  4.0010667E-01;2386.8728;3;-48.696159;0.0;2.1324797;0;-0.69793475;  1.0063608E+04;  0.0000000E+00;  1.2949301E-04;  1.0000000E+04;  0.0000000E+00;  9.9887031E+03;-0.83404762;0.0;0.1361129;5686.623
  5.5934066E-01;  9.9999998E-03;  2.0010027E-01;1922;-0.22583063;0.0;0.028819477;1002.9301;  4.0010673E-01;2427.5625;3;-47.391205;0.0;2.1512847;0;-0.70108569;  1.0065104E+04;  0.0000000E+00;  3.7029845E-04;  1.0000000E+04;  0.0000000E+00;  9.9882002E+03;-0.83353007;0.0;0.13244441;5946.0767
  5.5933154E-01;  9.9999998E-03;  2.2010717E-01;1923;-0.22476937;0.0;0.030454308;1002.9855;  4.0010682E-01;2473.3879;3;-47.140388;0.0;2.2585571;0;-0.70500821;  1.0066775E+04;  0.0000000E+00;  1.1063290E-03;  1.0000000E+04;  0.0000000E+00;  9.9876475E+03;-0.83522511;0.0;0.1302169;6228.8115
  5.5932528E-01;  9.9999998E-03;  2.4011368E-01;1924;-0.22258539;0.0;0.031746898;1003.0793;  4.0010661E-01;2551.1135;3;-49.026474;0.0;2.8007541;0;-0.71491253;  1.0068560E+04;  0.0000000E+00;  2.4645331E-03;  1.0000000E+04;  0.0000000E+00;  9.9877441E+03;-0.83916527;0.0;0.12425276;6192.4185
  5.5932295E-01;  9.9999998E-03;  2.6012534E-01;1925;-0.21892262;0.0;0.03415513;1003.2284;  4.0010658E-01;2674.6643;3;-54.253456;0.0;4.2026443;0;-0.73024714;  1.0070373E+04;  0.0000000E+00;  3.9484724E-03;  1.0000000E+04;  0.0000000E+00;  9.9889033E+03;-0.84518886;0.0;0.11494174;5632.4858
  5.5932510E-01;  9.9999998E-03;  2.8014931E-01;1926;-0.21377632;0.0;0.038194243;1003.3016;  4.0010661E-01;2735.304;3;-63.322113;0.0;6.6361399;0;-0.73190999;  1.0072154E+04;  0.0000000E+00;  3.8521059E-03;  1.0000000E+04;  0.0000000E+00;  9.9885840E+03;-0.85283941;0.0;0.12092944;5785.8369
  5.5933172E-01;  9.9999998E-03;  3.0017403E-01;1927;-0.20731395;0.0;0.041633721;1003.2875;  4.0010655E-01;2723.5515;3;-75.417465;0.0;10.319358;0;-0.73276353;  1.0073803E+04;  0.0000000E+00;  4.1398191E-04;  1.0000000E+04;  0.0000000E+00;  9.9866494E+03;-0.86126024;0.0;0.12849668;6739.4907
  5.7929397E-01;  9.9999998E-03;  1.6010520E-01;1951;-0.24485278;0.0;0.027251294;1003.0455;  4.0028462E-01;2523.1558;3;-52.418957;0.0;0.84986436;0;-0.63020241;  1.0060215E+04;  0.0000000E+00;  4.4785589E-05;  1.0000000E+04;  0.0000000E+00;  9.9864531E+03;-0.79080468;0.0;0.16060226;6760.5483
  5.7928175E-01;  9.9999998E-03;  1.8011642E-01;1952;-0.24458288;0.0;0.030157717;1003.0922;  4.0028471E-01;2561.7715;3;-50.603638;0.0;0.83335757;0;-0.63291436;  1.0061367E+04;  0.0000000E+00;  7.9401034E-05;  1.0000000E+04;  0.0000000E+00;  9.9862441E+03;-0.78707278;0.0;0.15415843;6876.7837
  5.7926989E-01;  9.9999998E-03;  2.0012577E-01;1953;-0.2440068;0.0;0.032464288;1003.1305;  4.0028465E-01;2593.4739;3;-49.167835;0.0;0.80589628;0;-0.63498276;  1.0062726E+04;  0.0000000E+00;  5.3501985E-04;  1.0000000E+04;  0.0000000E+00;  9.9856680E+03;-0.78498638;0.0;0.15000363;7171.1816
  5.7925916E-01;  9.9999998E-03;  2.2013320E-01;1954;-0.24284449;0.0;0.034026209;1003.1779;  4.0028447E-01;2632.7808;3;-48.86758;0.0;0.83828634;0;-0.63819951;  1.0064240E+04;  0.0000000E+00;  1.8335345E-03;  1.0000000E+04;  0.0000000E+00;  9.9851025E+03;-0.7847544;0.0;0.14655489;7459.9907
  5.7925034E-01;  9.9999998E-03;  2.4013907E-01;1955;-0.24086843;0.0;0.034896206;1003.2778;  4.0028441E-01;2715.543;3;-51.014713;0.0;1.1792533;0;-0.64998996;  1.0065847E+04;  0.0000000E+00;  4.0943054E-03;  1.0000000E+04;  0.0000000E+00;  9.9854932E+03;-0.78641385;0.0;0.13642389;7281.3047
  5.7924420E-01;  9.9999998E-03;  2.6015061E-01;1956;-0.23760647;0.0;0.037019923;1003.4626;  4.0028438E-01;2868.7217;3;-56.784451;0.0;2.6129115;0;-0.67240572;  1.0067499E+04;  0.0000000E+00;  6.3642152E-03;  1.0000000E+04;  0.0000000E+00;  9.9875264E+03;-0.79012787;0.0;0.11772215;6298.686
  5.7924038E-01;  9.9999998E-03;  2.8017762E-01;1957;-0.23316231;0.0;0.041608937;1003.5692;  4.0028432E-01;2957.0144;3;-66.863304;0.0;5.3709288;0;-0.67750221;  1.0069155E+04;  0.0000000E+00;  5.8905222E-03;  1.0000000E+04;  0.0000000E+00;  9.9879893E+03;-0.79583216;0.0;0.11832996;6068.3247
  5.7923764E-01;  9.9999998E-03;  3.0020621E-01;1958;-0.2280751;0.0;0.04553597;1003.5574;  4.0028414E-01;2947.1384;3;-80.572952;0.0;9.6177874;0;-0.67812604;  1.0070722E+04;  0.0000000E+00;  8.6103269E-04;  1.0000000E+04;  0.0000000E+00;  9.9861855E+03;-0.80281377;0.0;0.12468772;6956.7881
  5.9922779E-01;  9.9999998E-03;  1.6013147E-01;1982;-0.26229528;0.0;0.030845981;1003.6839;  4.0073678E-01;3052.0093;3;-54.202705;0.0;-0.69651216;0;-0.50551611;  1.0053668E+04;  0.0000000E+00; -1.4453748E-04;  1.0000000E+04;  0.0000000E+00;  9.9831670E+03;-0.69118428;0.0;0.18566816;8334.0488
  5.9921443E-01;  9.9999998E-03;  1.8014491E-01;1983;-0.26182395;0.0;0.034068946;1003.709;  4.0073651E-01;3072.749;3;-52.184353;0.0;-0.74634975;0;-0.50489235;  1.0054517E+04;  0.0000000E+00; -7.7800163E-05;  1.0000000E+04;  0.0000000E+00;  9.9828398E+03;-0.68431634;0.0;0.17942402;8507.5996
  5.9920150E-01;  9.9999998E-03;  2.0015652E-01;1984;-0.26103872;0.0;0.036609098;1003.7224;  4.0073636E-01;3083.8103;3;-50.577;0.0;-0.8357901;0;-0.50332958;  1.0055479E+04;  0.0000000E+00;  7.3679560E-04;  1.0000000E+04;  0.0000000E+00;  9.9821602E+03;-0.67789066;0.0;0.17456107;8851.5811
  5.9918940E-01;  9.9999998E-03;  2.2016592E-01;1985;-0.25976777;0.0;0.038289495;1003.7451;  4.0073642E-01;3102.6736;3;-50.263023;0.0;-0.94744259;0;-0.50301647;  1.0056485E+04;  0.0000000E+00;  2.9488478E-03;  1.0000000E+04;  0.0000000E+00;  9.9816172E+03;-0.67182791;0.0;0.16881144;9128.9629
  5.9917849E-01;  9.9999998E-03;  2.4017353E-01;1986;-0.25773284;0.0;0.039358746;1003.8319;  4.0073606E-01;3174.5718;3;-52.590977;0.0;-0.59276038;0;-0.51274854;  1.0057508E+04;  0.0000000E+00;  6.6500050E-03;  1.0000000E+04;  0.0000000E+00;  9.9823369E+03;-0.6665315;0.0;0.15378298;8791.3613
  5.9916866E-01;  9.9999998E-03;  2.6018786E-01;1987;-0.2549001;0.0;0.041622002;1004.0195;  4.0073574E-01;3330.0215;3;-58.982269;0.0;0.67430699;0;-0.53556573;  1.0058559E+04;  0.0000000E+00;  1.0154969E-02;  1.0000000E+04;  0.0000000E+00;  9.9850166E+03;-0.66292191;0.0;0.12735616;7496.6084
  5.9915799E-01;  9.9999998E-03;  2.8021762E-01;1988;-0.2515136;0.0;0.046336904;1004.1394;  4.0073544E-01;3429.375;3;-70.068489;0.0;3.9389689;0;-0.54414648;  1.0059647E+04;  0.0000000E+00;  9.1012483E-03;  1.0000000E+04;  0.0000000E+00;  9.9863115E+03;-0.66166818;0.0;0.11752172;6863.0781
  5.9914422E-01;  9.9999998E-03;  3.0024883E-01;1989;-0.24825791;0.0;0.050658587;1004.1319;  4.0073517E-01;3423.1528;3;-85.519089;0.0;8.9523029;0;-0.54148847;  1.0060721E+04;  0.0000000E+00;  1.8566316E-03;  1.0000000E+04;  0.0000000E+00;  9.9850928E+03;-0.66249901;0.0;0.12101052;7459.5044
  6.1916822E-01;  9.9999998E-03;  1.6016130E-01;2013;-0.27751729;0.0;0.034476139;1005.4138;  4.0177396E-01;4485.1021;3;-55.627026;0.0;-2.6489997;0;-0.29187095;  1.0040729E+04;  0.0000000E+00; -4.7382325E-04;  1.0000000E+04;  0.0000000E+00;  9.9789424E+03;-0.51005965;0.0;0.2181887;10338.72
  6.1915356E-01;  9.9999998E-03;  1.8017709E-01;2014;-0.27691153;0.0;0.038054645;1005.4041;  4.0177336E-01;4477.1025;3;-53.399487;0.0;-2.7150304;0;-0.28564826;  1.0041044E+04;  0.0000000E+00; -3.2221383E-04;  1.0000000E+04;  0.0000000E+00;  9.9784600E+03;-0.49758974;0.0;0.21194148;10586.15
  6.1913902E-01;  9.9999998E-03;  2.0019154E-01;2015;-0.27610031;0.0;0.040955663;1005.3777;  4.0177307E-01;4455.1777;3;-51.668446;0.0;-2.9072044;0;-0.27812031;  1.0041283E+04;  0.0000000E+00;  1.0659052E-03;  1.0000000E+04;  0.0000000E+00;  9.9777227E+03;-0.48323724;0.0;0.20511693;10959.134
  6.1912549E-01;  9.9999998E-03;  2.2020529E-01;2016;-0.2747356;0.0;0.043331228;1005.3614;  4.0177280E-01;4441.7466;3;-51.319508;0.0;-3.054086;0;-0.27194813;  1.0041392E+04;  0.0000000E+00;  4.6415138E-03;  1.0000000E+04;  0.0000000E+00;  9.9773135E+03;-0.46693462;0.0;0.19498649;11172.482
  6.1911207E-01;  9.9999998E-03;  2.4021834E-01;2017;-0.27286923;0.0;0.045029301;1005.4143;  4.0177220E-01;4485.4971;3;-53.819527;0.0;-2.6345766;0;-0.27685106;  1.0041389E+04;  0.0000000E+00;  1.0359134E-02;  1.0000000E+04;  0.0000000E+00;  9.9783750E+03;-0.44986597;0.0;0.17301489;10669.543
  6.1909926E-01;  9.9999998E-03;  2.6024047E-01;2018;-0.27015254;0.0;0.048637521;1005.5519;  4.0177161E-01;4599.5654;3;-60.708809;0.0;-1.1085767;0;-0.29016444;  1.0041390E+04;  0.0000000E+00;  1.5414388E-02;  1.0000000E+04;  0.0000000E+00;  9.9811143E+03;-0.43392038;0.0;0.14375594;9341.877
  6.1908489E-01;  9.9999998E-03;  2.8027594E-01;2019;-0.26721722;0.0;0.053544689;1005.604;  4.0177086E-01;4642.7241;3;-72.804665;0.0;2.243721;0;-0.29114109;  1.0041464E+04;  0.0000000E+00;  1.3624741E-02;  1.0000000E+04;  0.0000000E+00;  9.9820732E+03;-0.42055249;0.0;0.12941138;8875.3428
  6.1906195E-01;  9.9999998E-03;  3.0030704E-01;2020;-0.26557538;0.0;0.057617016;1005.5922;  4.0177003E-01;4632.9468;3;-89.494728;0.0;8.3066301;0;-0.28536877;  1.0041597E+04;  0.0000000E+00;  3.4785254E-03;  1.0000000E+04;  0.0000000E+00;  9.9817480E+03;-0.4099808;0.0;0.12461203;9031.6328
  6.3911813E-01;  9.9999998E-03;  1.6019365E-01;2044;-0.2898441;0.0;0.03782196;1008.8544;  4.0368310E-01;7335.4648;3;-56.595863;0.0;-4.9998441;0;0.042453587;  1.0019421E+04;  0.0000000E+00; -8.2088762E-04;  1.0000000E+04;  0.0000000E+00;  9.9738701E+03;-0.21493536;0.0;0.25738895;12720.08
  6.3910246E-01;  9.9999998E-03;  1.8021283E-01;2045;-0.28910643;0.0;0.041912485;1008.8016;  4.0368259E-01;7291.7144;3;-54.248531;0.0;-5.0947886;0;0.054736137;  1.0018975E+04;  0.0000000E+00; -4.5510658E-04;  1.0000000E+04;  0.0000000E+00;  9.9733027E+03;-0.19489761;0.0;0.24963374;13009.896
  6.3908589E-01;  9.9999998E-03;  2.0023149E-01;2046;-0.28834701;0.0;0.045596734;1008.7284;  4.0368184E-01;7231.0757;3;-52.349861;0.0;-5.3016191;0;0.068039685;  1.0018228E+04;  0.0000000E+00;  1.7609319E-03;  1.0000000E+04;  0.0000000E+00;  9.9726436E+03;-0.17025544;0.0;0.23829512;13345.344
  6.3907015E-01;  9.9999998E-03;  2.2025259E-01;2047;-0.28724939;0.0;0.049207229;1008.6667;  4.0368131E-01;7179.9185;3;-52.101261;0.0;-5.2888436;0;0.079239815;  1.0017142E+04;  0.0000000E+00;  7.0172609E-03;  1.0000000E+04;  0.0000000E+00;  9.9725322E+03;-0.14126752;0.0;0.22050734;13415.573
  6.3905579E-01;  9.9999998E-03;  2.4028119E-01;2048;-0.28543696;0.0;0.053505156;1008.6473;  4.0368047E-01;7163.9194;3;-54.747364;0.0;-4.7640128;0;0.084107392;  1.0015839E+04;  0.0000000E+00;  1.4883392E-02;  1.0000000E+04;  0.0000000E+00;  9.9734727E+03;-0.10991257;0.0;0.19401996;12972.62
  6.3904250E-01;  9.9999998E-03;  2.6031896E-01;2049;-0.28268331;0.0;0.059244748;1008.6323;  4.0367967E-01;7151.4756;3;-62.098579;0.0;-2.7778656;0;0.092640221;  1.0014489E+04;  0.0000000E+00;  2.1195242E-02;  1.0000000E+04;  0.0000000E+00;  9.9745283E+03;-0.078862071;0.0;0.17150229;12465.199
  6.3902658E-01;  9.9999998E-03;  2.8035635E-01;2050;-0.27970824;0.0;0.063840002;1008.5569;  4.0367869E-01;7088.9609;3;-74.93502;0.0;0.5766564;0;0.10892558;  1.0013221E+04;  0.0000000E+00;  1.8123794E-02;  1.0000000E+04;  0.0000000E+00;  9.9743154E+03;-0.05013077;0.0;0.15905635;12572.154
  6.3900131E-01;  9.9999998E-03;  3.0038425E-01;2051;-0.27811098;0.0;0.067004569;1008.5139;  4.0367714E-01;7053.3086;3;-92.592255;0.0;8.2512121;0;0.11963982;  1.0012066E+04;  0.0000000E+00;  5.1288246E-03;  1.0000000E+04;  0.0000000E+00;  9.9746865E+03;-0.024362469;0.0;0.14400229;12382.791
  6.5908158E-01;  9.9999998E-03;  1.6023108E-01;2075;-0.29864877;0.0;0.041239019;1013.0657;  4.0610158E-01;10824.225;3;-57.18853;0.0;-7.7976022;0;0.51536542;  9.9888994E+03;  0.0000000E+00; -8.9965761E-04;  1.0000000E+04;  0.0000000E+00;  9.9682783E+03;0.21486899;0.0;0.30049643;15319.513
  6.5906578E-01;  9.9999998E-03;  1.8025556E-01;2076;-0.29766494;0.0;0.046384744;1012.9742;  4.0610096E-01;10748.379;3;-54.710678;0.0;-7.6983042;0;0.53032213;  9.9875967E+03;  0.0000000E+00; -1.3488391E-04;  1.0000000E+04;  0.0000000E+00;  9.9678047E+03;0.24197885;0.0;0.28834328;15564.2
  6.5904921E-01;  9.9999998E-03;  2.0028339E-01;2077;-0.29661891;0.0;0.051966518;1012.8614;  4.0610066E-01;10654.953;3;-52.685646;0.0;-7.6604443;0;0.54491246;  9.9857891E+03;  0.0000000E+00;  3.0032957E-03;  1.0000000E+04;  0.0000000E+00;  9.9674102E+03;0.2756899;0.0;0.26922256;15772.119
  6.5903413E-01;  9.9999998E-03;  2.2032166E-01;2078;-0.29499418;0.0;0.059003968;1012.7485;  4.0610015E-01;10561.429;3;-52.237362;0.0;-7.3620591;0;0.55886042;  9.9835039E+03;  0.0000000E+00;  9.6919760E-03;  1.0000000E+04;  0.0000000E+00;  9.9674854E+03;0.31542549;0.0;0.24343497;15755.469
  6.5902221E-01;  9.9999998E-03;  2.4037459E-01;2079;-0.29237741;0.0;0.067966677;1012.6048;  4.0609980E-01;10442.425;3;-54.971901;0.0;-6.2712088;0;0.58096814;  9.9808965E+03;  0.0000000E+00;  1.8876353E-02;  1.0000000E+04;  0.0000000E+00;  9.9672510E+03;0.35893312;0.0;0.22203504;15881.906
  6.5900940E-01;  9.9999998E-03;  2.6042259E-01;2080;-0.28937176;0.0;0.074013919;1012.386;  4.0609962E-01;10261.203;3;-62.396057;0.0;-4.0097466;0;0.61408269;  9.9781865E+03;  0.0000000E+00;  2.5107563E-02;  1.0000000E+04;  0.0000000E+00;  9.9656338E+03;0.40337777;0.0;0.21070491;16684.127
  6.5899283E-01;  9.9999998E-03;  2.8045186E-01;2081;-0.28609321;0.0;0.077054724;1012.2004;  4.0609914E-01;10107.437;3;-75.729347;0.0;-0.83986104;0;0.64995474;  9.9755283E+03;  0.0000000E+00;  1.9893195E-02;  1.0000000E+04;  0.0000000E+00;  9.9646367E+03;0.44666696;0.0;0.2032878;17167.398
  6.5896952E-01;  9.9999998E-03;  3.0047408E-01;2082;-0.28386167;0.0;0.077833124;1012.1147;  4.0609765E-01;10036.43;3;-93.246506;0.0;8.5624695;0;0.65109742;  9.9730068E+03;  0.0000000E+00;  4.8395456E-03;  1.0000000E+04;  0.0000000E+00;  9.9655322E+03;0.48742375;0.0;0.16367364;16739.803
  6.7906779E-01;  9.9999998E-03;  1.6028440E-01;2106;-0.30183852;0.0;0.048249166;1015.7028;  4.0804872E-01;13008.769;3;-57.263187;0.0;-10.729314;0;1.1096433;  9.9508135E+03;  0.0000000E+00; -4.9897860E-04;  1.0000000E+04;  0.0000000E+00;  9.9626748E+03;0.76665491;0.0;0.3429884;17892.301
  6.7905265E-01;  9.9999998E-03;  1.8031666E-01;2107;-0.30044836;0.0;0.055180516;1015.5917;  4.0804884E-01;12916.628;3;-54.582882;0.0;-10.269551;0;1.119462;  9.9487559E+03;  0.0000000E+00;  7.2419248E-04;  1.0000000E+04;  0.0000000E+00;  9.9625508E+03;0.79653215;0.0;0.3229298;17967.541
  6.7903721E-01;  9.9999998E-03;  2.0035663E-01;2108;-0.29887322;0.0;0.063458502;1015.46;  4.0804899E-01;12807.601;3;-52.367809;0.0;-9.7185125;0;1.126636;  9.9461182E+03;  0.0000000E+00;  4.4312440E-03;  1.0000000E+04;  0.0000000E+00;  9.9626064E+03;0.83315486;0.0;0.29348114;17964.543
  6.7902535E-01;  9.9999998E-03;  2.2041444E-01;2109;-0.29618269;0.0;0.074658781;1015.3052;  4.0804920E-01;12679.315;3;-51.565968;0.0;-8.8331223;0;1.1372445;  9.9429590E+03;  0.0000000E+00;  1.1450208E-02;  1.0000000E+04;  0.0000000E+00;  9.9627129E+03;0.87602663;0.0;0.26121783;17934.061
  6.7901814E-01;  9.9999998E-03;  2.4048457E-01;2110;-0.29219455;0.0;0.085966997;1015.0444;  4.0804994E-01;12463.234;3;-53.847561;0.0;-7.8215895;0;1.1698064;  9.9394414E+03;  0.0000000E+00;  2.0062724E-02;  1.0000000E+04;  0.0000000E+00;  9.9610752E+03;0.92351937;0.0;0.24628697;18749.477
  6.7900610E-01;  9.9999998E-03;  2.6052436E-01;2111;-0.28904057;0.0;0.089084275;1014.7212;  4.0805084E-01;12195.507;3;-61.075901;0.0;-5.2168136;0;1.2064838;  9.9357510E+03;  0.0000000E+00;  2.4093639E-02;  1.0000000E+04;  0.0000000E+00;  9.9583643E+03;0.97348583;0.0;0.23299795;20092.639
  6.7899173E-01;  9.9999998E-03;  2.8054067E-01;2112;-0.28425995;0.0;0.089279398;1014.5094;  4.0805104E-01;12020.114;3;-74.148628;0.0;-2.1794217;0;1.2411761;  9.9320488E+03;  0.0000000E+00;  1.6092228E-02;  1.0000000E+04;  0.0000000E+00;  9.9578809E+03;1.0242233;0.0;0.21695276;20327.625
  6.7898405E-01;  9.9999998E-03;  3.0055633E-01;2113;-0.27727318;0.0;0.086593501;1014.4174;  4.0805060E-01;11943.873;3;-89.331779;0.0;9.4492159;0;1.2088261;  9.9285430E+03;  0.0000000E+00;  1.6672412E-03;  1.0000000E+04;  0.0000000E+00;  9.9595938E+03;1.0728018;0.0;0.13602421;19533.914
  6.9909441E-01;  9.9999998E-03;  1.6036268E-01;2137;-0.29512113;0.0;0.064116985;1016.0419;  4.0912318E-01;13289.37;3;-56.390247;0.0;-12.988205;0;1.7584393;  9.9100479E+03;  0.0000000E+00;  1.6297078E-04;  1.0000000E+04;  0.0000000E+00;  9.9576602E+03;1.3787621;0.0;0.37967715;20165.117
  6.9908202E-01;  9.9999998E-03;  1.8040514E-01;2138;-0.29246002;0.0;0.073931798;1015.9376;  4.0912393E-01;13202.959;3;-53.088242;0.0;-11.639812;0;1.75302;  9.9075244E+03;  0.0000000E+00;  1.5843386E-03;  1.0000000E+04;  0.0000000E+00;  9.9581289E+03;1.4037519;0.0;0.3492682;19958.414
  6.9907027E-01;  9.9999998E-03;  2.0045732E-01;2139;-0.28942034;0.0;0.08551842;1015.813;  4.0912452E-01;13099.76;3;-50.182537;0.0;-10.357846;0;1.7434762;  9.9045342E+03;  0.0000000E+00;  5.0511621E-03;  1.0000000E+04;  0.0000000E+00;  9.9586699E+03;1.4331094;0.0;0.31036678;19722.451
  6.9906437E-01;  9.9999998E-03;  2.2052513E-01;2140;-0.28468287;0.0;0.098095901;1015.6401;  4.0912530E-01;12956.565;3;-48.314751;0.0;-9.7555971;0;1.7434816;  9.9011445E+03;  0.0000000E+00;  1.0934905E-02;  1.0000000E+04;  0.0000000E+00;  9.9586436E+03;1.4667361;0.0;0.27674559;19758.416
  6.9906300E-01;  9.9999998E-03;  2.4058825E-01;2141;-0.27983019;0.0;0.10457188;1015.3397;  4.0912682E-01;12707.702;3;-50.423065;0.0;-9.9063616;0;1.7650532;  9.8974697E+03;  0.0000000E+00;  1.7254710E-02;  1.0000000E+04;  0.0000000E+00;  9.9563799E+03;1.5043826;0.0;0.26067054;20886.453
  6.9905281E-01;  9.9999998E-03;  2.6060766E-01;2142;-0.27718428;0.0;0.10094642;1015.0399;  4.0912825E-01;12459.234;3;-56.994724;0.0;-6.6082087;0;1.7698021;  9.8936318E+03;  0.0000000E+00;  1.8088575E-02;  1.0000000E+04;  0.0000000E+00;  9.9542822E+03;1.5453112;0.0;0.22449087;21953.119
  6.9906294E-01;  9.9999998E-03;  2.8061011E-01;2143;-0.26416349;0.0;0.099342898;1014.9095;  4.0912896E-01;12351.296;3;-65.393929;0.0;-3.8119779;0;1.7945619;  9.8897881E+03;  0.0000000E+00;  1.0439536E-02;  1.0000000E+04;  0.0000000E+00;  9.9555205E+03;1.588231;0.0;0.20633094;21328.127
  6.9913310E-01;  9.9999998E-03;  3.0062199E-01;2144;-0.23144345;0.0;0.095682047;1014.8567;  4.0912944E-01;12307.546;3;-69.188995;0.0;9.5781775;0;1.7514992;  9.8862852E+03;  0.0000000E+00;  6.6166455E-03;  1.0000000E+04;  0.0000000E+00;  9.9579111E+03;1.6283445;0.0;0.1231546;20197.131
  7.1922266E-01;  9.9999998E-03;  1.6046308E-01;2168;-0.26239881;0.0;0.096136153;1015.1739;  4.0959749E-01;12569.995;3;-50.048656;0.0;-10.668822;0;2.3506899;  9.8740430E+03;  0.0000000E+00;  5.7655835E-04;  1.0000000E+04;  0.0000000E+00;  9.9537480E+03;1.9441254;0.0;0.40656438;21920.686
  7.1921152E-01;  9.9999998E-03;  1.8051231E-01;2169;-0.25882638;0.0;0.10720185;1015.1005;  4.0959844E-01;12509.163;3;-46.205944;0.0;-9.1066761;0;2.3222389;  9.8714482E+03;  0.0000000E+00;  1.7233532E-03;  1.0000000E+04;  0.0000000E+00;  9.9548887E+03;1.9557559;0.0;0.36648306;21389.252
  7.1920300E-01;  9.9999998E-03;  2.0056818E-01;2170;-0.25418305;0.0;0.11683176;1015.0081;  4.0959930E-01;12432.63;3;-42.533779;0.0;-10.6781;0;2.2891304;  9.8686729E+03;  0.0000000E+00;  4.1694883E-03;  1.0000000E+04;  0.0000000E+00;  9.9558428E+03;1.966906;0.0;0.32222447;20954.955
  7.1920186E-01;  9.9999998E-03;  2.2062223E-01;2171;-0.24835904;0.0;0.12030534;1014.8658;  4.0960008E-01;12314.721;3;-40.797935;0.0;-12.731651;0;2.2636096;  9.8658320E+03;  0.0000000E+00;  8.0876155E-03;  1.0000000E+04;  0.0000000E+00;  9.9558691E+03;1.977618;0.0;0.28599161;20970.42
  7.1921831E-01;  9.9999998E-03;  2.4066080E-01;2172;-0.23749742;0.0;0.1176239;1014.6304;  4.0960154E-01;12119.782;3;-40.927452;0.0;-12.647456;0;2.248019;  9.8629863E+03;  0.0000000E+00;  1.2342627E-02;  1.0000000E+04;  0.0000000E+00;  9.9540615E+03;1.9890852;0.0;0.25893375;21887.451
  7.1925980E-01;  9.9999998E-03;  2.6066265E-01;2173;-0.2153956;0.0;0.10975323;1014.4601;  4.0960327E-01;11978.665;3;-40.82243;0.0;-9.2766047;0;2.2094646;  9.8601641E+03;  0.0000000E+00;  1.5344354E-02;  1.0000000E+04;  0.0000000E+00;  9.9534688E+03;2.0021656;0.0;0.20729907;22228.854
  7.1932745E-01;  9.9999998E-03;  2.8065851E-01;2174;-0.18369184;0.0;0.10599884;1014.4779;  4.0960366E-01;11993.377;3;-40.636047;0.0;-4.3825226;0;2.1815789;  9.8575117E+03;  0.0000000E+00;  1.6753256E-02;  1.0000000E+04;  0.0000000E+00;  9.9564102E+03;2.0154123;0.0;0.16616662;20788.51
  7.1940958E-01;  9.9999998E-03;  3.0067042E-01;2175;-0.15103689;0.0;0.10240075;1014.4966;  4.0960369E-01;12008.979;3;-41.273396;0.0;10.178116;0;2.1161807;  9.8552979E+03;  0.0000000E+00;  1.2655647E-02;  1.0000000E+04;  0.0000000E+00;  9.9589473E+03;2.0252447;0.0;0.090935893;19579.639
  7.3949492E-01;  9.9999998E-03;  1.6048826E-01;2199;-0.17183727;0.0;0.097995318;1014.2757;  4.0978587E-01;11825.46;3;-31.875574;0.0;-14.285056;0;2.7655067;  9.8501133E+03;  0.0000000E+00;  5.3954340E-04;  1.0000000E+04;  0.0000000E+00;  9.9511504E+03;2.3426635;0.0;0.42284334;23077.133
  7.3948920E-01;  9.9999998E-03;  1.8053648E-01;2200;-0.16815865;0.0;0.10845315;1014.25;  4.0978652E-01;11804.229;3;-28.834261;0.0;-12.522215;0;2.7106814;  9.8477881E+03;  0.0000000E+00;  1.1367822E-03;  1.0000000E+04;  0.0000000E+00;  9.9529463E+03;2.335979;0.0;0.37470251;22228.848
  7.3948610E-01;  9.9999998E-03;  2.0058934E-01;2201;-0.16381726;0.0;0.11836634;1014.2291;  4.0978751E-01;11786.949;3;-26.168993;0.0;-12.30461;0;2.6432502;  9.8456865E+03;  0.0000000E+00;  2.3956199E-03;  1.0000000E+04;  0.0000000E+00;  9.9546318E+03;2.3225644;0.0;0.32068592;21447.293
  7.3949122E-01;  9.9999998E-03;  2.2063878E-01;2202;-0.1569417;0.0;0.12084731;1014.194;  4.0978831E-01;11757.817;3;-24.107883;0.0;-14.5924;0;2.5732644;  9.8439678E+03;  0.0000000E+00;  4.6266699E-03;  1.0000000E+04;  0.0000000E+00;  9.9556436E+03;2.3022847;0.0;0.27097967;20996.063
  7.3951072E-01;  9.9999998E-03;  2.4067366E-01;2203;-0.14549693;0.0;0.11777022;1014.122;  4.0978935E-01;11698.173;3;-22.876926;0.0;-14.442852;0;2.5010448;  9.8426865E+03;  0.0000000E+00;  7.7549815E-03;  1.0000000E+04;  0.0000000E+00;  9.9554736E+03;2.2768254;0.0;0.22421938;21128.816
  7.3954487E-01;  9.9999998E-03;  2.6068091E-01;2204;-0.12941431;0.0;0.11264267;1014.1252;  4.0979043E-01;11700.837;3;-22.706942;0.0;-10.18658;0;2.4157805;  9.8417734E+03;  0.0000000E+00;  1.1035061E-02;  1.0000000E+04;  0.0000000E+00;  9.9563975E+03;2.2486839;0.0;0.16709656;20729.326
  7.3959059E-01;  9.9999998E-03;  2.8069130E-01;2205;-0.10953693;0.0;0.10997685;1014.1743;  4.0979049E-01;11741.521;3;-22.75816;0.0;-7.5183754;0;2.3481593;  9.8411709E+03;  0.0000000E+00;  1.1546044E-02;  1.0000000E+04;  0.0000000E+00;  9.9579326E+03;2.2201228;0.0;0.12803645;20005.48
  7.3964399E-01;  9.9999998E-03;  3.0070481E-01;2206;-0.089600079;0.0;0.1055828;1014.2822;  4.0979025E-01;11830.888;3;-23.359539;0.0;10.950486;0;2.2267926;  9.8408066E+03;  0.0000000E+00;  2.4386439E-03;  1.0000000E+04;  0.0000000E+00;  9.9603906E+03;2.1934655;0.0;0.033327106;18857.068
  7.5971311E-01;  9.9999998E-03;  1.6049489E-01;2230;-0.10008871;0.0;0.093415618;1013.8994;  4.0985650E-01;11513.138;3;-19.272087;0.0;-18.647718;0;2.9500957;  9.8408604E+03;  0.0000000E+00;  2.7607701E-04;  1.0000000E+04;  0.0000000E+00;  9.9497471E+03;2.5190325;0.0;0.43106312;23705.428
  7.5971258E-01;  9.9999998E-03;  1.8053962E-01;2231;-0.096598946;0.0;0.10240674;1013.9175;  4.0985727E-01;11528.146;3;-17.162115;0.0;-17.117851;0;2.8751683;  9.8389941E+03;  0.0000000E+00;  4.2908330E-04;  1.0000000E+04;  0.0000000E+00;  9.9519395E+03;2.4952288;0.0;0.37993962;22665.594
  7.5971389E-01;  9.9999998E-03;  2.0058803E-01;2232;-0.092863999;0.0;0.11162462;1013.962;  4.0985817E-01;11565.077;3;-15.456961;0.0;-15.66137;0;2.7798212;  9.8377246E+03;  0.0000000E+00;  8.0894999E-04;  1.0000000E+04;  0.0000000E+00;  9.9540596E+03;2.4593461;0.0;0.32047519;21677.459
  7.5972015E-01;  9.9999998E-03;  2.2063628E-01;2233;-0.087927051;0.0;0.11668538;1014.0251;  4.0985885E-01;11617.313;3;-14.216176;0.0;-15.604925;0;2.6731312;  9.8372461E+03;  0.0000000E+00;  1.5889517E-03;  1.0000000E+04;  0.0000000E+00;  9.9557500E+03;2.4111092;0.0;0.26202199;20905.078
  7.5973392E-01;  9.9999998E-03;  2.4067220E-01;2234;-0.080977559;0.0;0.11567817;1014.0944;  4.0985948E-01;11674.779;3;-13.646106;0.0;-15.14803;0;2.5559249;  9.8375566E+03;  0.0000000E+00;  2.7915025E-03;  1.0000000E+04;  0.0000000E+00;  9.9567549E+03;2.3531153;0.0;0.20280947;20477.563
  7.5975478E-01;  9.9999998E-03;  2.6068825E-01;2235;-0.072065838;0.0;0.11385922;1014.235;  4.0986010E-01;11791.198;3;-13.820929;0.0;-10.942247;0;2.4346325;  9.8384980E+03;  0.0000000E+00;  3.8181990E-03;  1.0000000E+04;  0.0000000E+00;  9.9585273E+03;2.290041;0.0;0.14459148;19665.289
  7.5977981E-01;  9.9999998E-03;  2.8071544E-01;2236;-0.061928686;0.0;0.11244934;1014.2642;  4.0985993E-01;11815.39;3;-14.351918;0.0;-12.786463;0;2.3408792;  9.8397871E+03;  0.0000000E+00;  2.1929643E-03;  1.0000000E+04;  0.0000000E+00;  9.9577744E+03;2.2274492;0.0;0.11343004;20090.535
  7.5980955E-01;  9.9999998E-03;  3.0072954E-01;2237;-0.051532596;0.0;0.10748614;1014.4732;  4.0985954E-01;11988.487;3;-14.994255;0.0;10.963011;0;2.1668169;  9.8410947E+03;  0.0000000E+00; -6.2164622E-03;  1.0000000E+04;  0.0000000E+00;  9.9605508E+03;2.1717792;0.0;-0.0049621109;18808.949
  7.7987540E-01;  9.9999998E-03;  1.6049421E-01;2261;-0.048366528;0.0;0.088857934;1014.038;  4.0988180E-01;11627.196;3;-11.536294;0.0;-21.594608;0;2.9590127;  9.8429033E+03;  0.0000000E+00;  6.5428896E-05;  1.0000000E+04;  0.0000000E+00;  9.9491846E+03;2.5234697;0.0;0.43554315;23956.693
  7.7987736E-01;  9.9999998E-03;  1.8053609E-01;2262;-0.046026886;0.0;0.096903078;1014.083;  4.0988258E-01;11664.519;3;-10.531933;0.0;-20.166513;0;2.8752694;  9.8414668E+03;  0.0000000E+00;  4.1867959E-05;  1.0000000E+04;  0.0000000E+00;  9.9514814E+03;2.4892817;0.0;0.38598773;22868.973
  7.7988034E-01;  9.9999998E-03;  2.0058176E-01;2263;-0.043789759;0.0;0.10552241;1014.1663;  4.0988326E-01;11733.536;3;-9.849041;0.0;-18.691853;0;2.7663431;  9.8408789E+03;  0.0000000E+00;  5.4439930E-05;  1.0000000E+04;  0.0000000E+00;  9.9536699E+03;2.4398861;0.0;0.32645708;21848.693
  7.7988535E-01;  9.9999998E-03;  2.2063039E-01;2264;-0.041340772;0.0;0.11220523;1014.2873;  4.0988374E-01;11833.655;3;-9.5338192;0.0;-17.362703;0;2.6394911;  9.8413252E+03;  0.0000000E+00;  1.4041072E-04;  1.0000000E+04;  0.0000000E+00;  9.9555625E+03;2.3750021;0.0;0.26448905;20985.498
  7.7989280E-01;  9.9999998E-03;  2.4066976E-01;2265;-0.038491502;0.0;0.11431398;1014.4352;  4.0988412E-01;11956.286;3;-9.6187019;0.0;-15.879756;0;2.5003052;  9.8427764E+03;  0.0000000E+00;  2.6930630E-04;  1.0000000E+04;  0.0000000E+00;  9.9569688E+03;2.2979481;0.0;0.20235695;20365.545
  7.7990174E-01;  9.9999998E-03;  2.6069471E-01;2266;-0.03534811;0.0;0.11674853;1014.6359;  4.0988451E-01;12122.461;3;-10.086061;0.0;-11.02491;0;2.3738256;  9.8449736E+03;  0.0000000E+00;  1.3434647E-04;  1.0000000E+04;  0.0000000E+00;  9.9586553E+03;2.214741;0.0;0.15908457;19586.045
  7.7991056E-01;  9.9999998E-03;  2.8073126E-01;2267;-0.032177441;0.0;0.11445814;1014.6585;  4.0988445E-01;12141.12;3;-10.841537;0.0;-14.999053;0;2.2520139;  9.8475391E+03;  0.0000000E+00; -1.1951036E-03;  1.0000000E+04;  0.0000000E+00;  9.9564922E+03;2.1326251;0.0;0.11938891;20732.703
  7.7992171E-01;  9.9999998E-03;  3.0074614E-01;2268;-0.028625015;0.0;0.10934856;1014.9407;  4.0988383E-01;12374.831;3;-11.580254;0.0;11.298522;0;2.0456626;  9.8500146E+03;  0.0000000E+00; -4.8311171E-03;  1.0000000E+04;  0.0000000E+00;  9.9595332E+03;2.0595436;0.0;-0.013881069;19341.787
  8.0000883E-01;  9.9999998E-03;  1.6048960E-01;2292;-0.0054542515;0.0;0.085719138;1014.4615;  4.0988883E-01;11976.923;3;-5.0893688;0.0;-22.760767;0;2.8810568;  9.8507871E+03;  0.0000000E+00; -4.4688472E-06;  1.0000000E+04;  0.0000000E+00;  9.9491377E+03;2.4414568;0.0;0.4395999;23969.367
  8.0001217E-01;  9.9999998E-03;  1.8053009E-01;2293;-0.0044187866;0.0;0.093553983;1014.511;  4.0988958E-01;12017.896;3;-5.0537286;0.0;-21.258707;0;2.8003676;  9.8495635E+03;  0.0000000E+00; -2.4149958E-05;  1.0000000E+04;  0.0000000E+00;  9.9513027E+03;2.4064467;0.0;0.39392099;22941.961
  8.0001557E-01;  9.9999998E-03;  2.0057522E-01;2294;-0.0037276172;0.0;0.10242604;1014.6016;  4.0989020E-01;12092.928;3;-5.1958289;0.0;-19.661726;0;2.6925454;  9.8492900E+03;  0.0000000E+00; -4.3491978E-05;  1.0000000E+04;  0.0000000E+00;  9.9533203E+03;2.3552392;0.0;0.33730632;22008.748
  8.0001855E-01;  9.9999998E-03;  2.2062719E-01;2295;-0.0034901674;0.0;0.11080042;1014.7348;  4.0989071E-01;12203.207;3;-5.4923859;0.0;-18.073769;0;2.5641932;  9.8501602E+03;  0.0000000E+00; -6.6898487E-05;  1.0000000E+04;  0.0000000E+00;  9.9550244E+03;2.2872057;0.0;0.27698767;21239.012
  8.0002010E-01;  9.9999998E-03;  2.4067035E-01;2296;-0.0039925301;0.0;0.11496119;1014.8978;  4.0989095E-01;12338.268;3;-5.931406;0.0;-16.041246;0;2.4237304;  9.8521143E+03;  0.0000000E+00; -1.1277606E-04;  1.0000000E+04;  0.0000000E+00;  9.9562324E+03;2.205812;0.0;0.21791832;20717.779
  8.0001885E-01;  9.9999998E-03;  2.6070023E-01;2297;-0.0054174513;0.0;0.11888437;1015.1013;  4.0989125E-01;12506.797;3;-6.4856572;0.0;-11.848642;0;2.3011091;  9.8548564E+03;  0.0000000E+00; -2.1770230E-04;  1.0000000E+04;  0.0000000E+00;  9.9574248E+03;2.117502;0.0;0.18360712;20173.803
  8.0001521E-01;  9.9999998E-03;  2.8073928E-01;2298;-0.0073513673;0.0;0.11516592;1015.1309;  4.0989128E-01;12531.282;3;-7.1037765;0.0;-15.998384;0;2.1554031;  9.8579824E+03;  0.0000000E+00; -4.0771073E-04;  1.0000000E+04;  0.0000000E+00;  9.9548457E+03;2.0298772;0.0;0.12552588;21553.748
  8.0001116E-01;  9.9999998E-03;  3.0075470E-01;2299;-0.0089902552;0.0;0.11055651;1015.4529;  4.0989065E-01;12797.947;3;-7.6566048;0.0;11.479425;0;1.942763;  9.8610225E+03;  0.0000000E+00; -6.0161698E-04;  1.0000000E+04;  0.0000000E+00;  9.9581055E+03;1.9506724;0.0;-0.0079094693;20057.547
  8.2013786E-01;  9.9999998E-03;  1.6048273E-01;2323;0.037845515;0.0;0.084331885;1014.942;  4.0987512E-01;12373.38;3;2.5287378;0.0;-22.253736;0;2.7794514;  9.8604473E+03;  0.0000000E+00;  9.2771807E-06;  1.0000000E+04;  0.0000000E+00;  9.9494072E+03;2.3351731;0.0;0.44427824;23820.1
  8.2014287E-01;  9.9999998E-03;  1.8052310E-01;2324;0.038105492;0.0;0.09253715;1014.9752;  4.0987596E-01;12400.823;3;1.9433879;0.0;-20.580605;0;2.7108874;  9.8591416E+03;  0.0000000E+00;  4.2103737E-05;  1.0000000E+04;  0.0000000E+00;  9.9513350E+03;2.3083289;0.0;0.40255845;22906.807
  8.2014722E-01;  9.9999998E-03;  2.0056911E-01;2325;0.037940092;0.0;0.10214853;1015.0463;  4.0987647E-01;12459.756;3;1.3716686;0.0;-18.80121;0;2.6150289;  9.8587734E+03;  0.0000000E+00;  1.0939047E-04;  1.0000000E+04;  0.0000000E+00;  9.9530713E+03;2.2657442;0.0;0.34928459;22109.139
  8.2014906E-01;  9.9999998E-03;  2.2062655E-01;2326;0.036768321;0.0;0.11261252;1015.1548;  4.0987700E-01;12549.587;3;0.87282991;0.0;-17.046583;0;2.4992421;  9.8595439E+03;  0.0000000E+00;  2.0940290E-04;  1.0000000E+04;  0.0000000E+00;  9.9543867E+03;2.2058918;0.0;0.29335013;21526.477
  8.2014567E-01;  9.9999998E-03;  2.4067342E-01;2327;0.033749316;0.0;0.1174899;1015.2839;  4.0987751E-01;12656.398;3;0.47794333;0.0;-15.589134;0;2.3721132;  9.8614053E+03;  0.0000000E+00;  3.2227824E-04;  1.0000000E+04;  0.0000000E+00;  9.9550244E+03;2.1317818;0.0;0.24033141;21282.908
  8.2013607E-01;  9.9999998E-03;  2.6070318E-01;2328;0.028669646;0.0;0.1196842;1015.4584;  4.0987781E-01;12801.019;3;0.19956224;0.0;-12.994232;0;2.2509069;  9.8640566E+03;  0.0000000E+00;  4.2639280E-04;  1.0000000E+04;  0.0000000E+00;  9.9557480E+03;2.0497222;0.0;0.2011847;20979.119
  8.2012272E-01;  9.9999998E-03;  2.8073984E-01;2329;0.022440735;0.0;0.11488733;1015.5002;  4.0987775E-01;12835.57;3;0.023123879;0.0;-16.062592;0;2.094389;  9.8671172E+03;  0.0000000E+00;  4.5046202E-04;  1.0000000E+04;  0.0000000E+00;  9.9534775E+03;1.9670826;0.0;0.12730646;22223.492
  8.2010484E-01;  9.9999998E-03;  3.0075541E-01;2330;0.015932934;0.0;0.11094733;1015.832;  4.0987706E-01;13110.298;3;-0.10378578;0.0;11.580334;0;1.8904096;  9.8701621E+03;  0.0000000E+00;  2.4183255E-04;  1.0000000E+04;  0.0000000E+00;  9.9569199E+03;1.8908728;0.0;-0.00046320865;20630.162
  8.4027326E-01;  9.9999998E-03;  1.6047359E-01;2354;0.084978931;0.0;0.084172323;1015.0974;  4.0971407E-01;12499.935;3;11.943998;0.0;-20.514372;0;2.6681488;  9.8706572E+03;  0.0000000E+00;  3.9802140E-05;  1.0000000E+04;  0.0000000E+00;  9.9499521E+03;2.2195377;0.0;0.44861099;23521.285
  8.4028095E-01;  9.9999998E-03;  1.8051438E-01;2355;0.085285902;0.0;0.092948698;1015.1;  4.0971482E-01;12502.104;3;11.124729;0.0;-18.681992;0;2.6165469;  9.8690088E+03;  0.0000000E+00;  1.1827060E-04;  1.0000000E+04;  0.0000000E+00;  9.9516357E+03;2.20698;0.0;0.40956697;22727.871
  8.4028769E-01;  9.9999998E-03;  2.0056133E-01;2356;0.085235797;0.0;0.10324098;1015.1348;  4.0971532E-01;12530.924;3;10.531205;0.0;-16.818182;0;2.5384614;  9.8681875E+03;  0.0000000E+00;  3.0890325E-04;  1.0000000E+04;  0.0000000E+00;  9.9531084E+03;2.1799843;0.0;0.35847721;22057.008
  8.4029007E-01;  9.9999998E-03;  2.2062190E-01;2357;0.083654821;0.0;0.11473902;1015.1996;  4.0971589E-01;12584.518;3;10.206431;0.0;-15.283453;0;2.441498;  9.8684443E+03;  0.0000000E+00;  6.5087405E-04;  1.0000000E+04;  0.0000000E+00;  9.9540996E+03;2.1357973;0.0;0.30570072;21631.844
  8.4028298E-01;  9.9999998E-03;  2.4067017E-01;2358;0.078727901;0.0;0.11870247;1015.2786;  4.0971649E-01;12649.957;3;10.055232;0.0;-15.459802;0;2.3310893;  9.8697529E+03;  0.0000000E+00;  1.0910156E-03;  1.0000000E+04;  0.0000000E+00;  9.9543018E+03;2.0764728;0.0;0.25461659;21596.639
  8.4026659E-01;  9.9999998E-03;  2.6069731E-01;2359;0.070551388;0.0;0.11873217;1015.4215;  4.0971693E-01;12768.301;3;10.425634;0.0;-13.470399;0;2.2120614;  9.8718516E+03;  0.0000000E+00;  1.4284881E-03;  1.0000000E+04;  0.0000000E+00;  9.9549580E+03;2.0078139;0.0;0.20424753;21341.313
  8.4024453E-01;  9.9999998E-03;  2.8073090E-01;2360;0.060103055;0.0;0.11367592;1015.4692;  4.0971705E-01;12807.782;3;10.820891;0.0;-15.237781;0;2.0579948;  9.8743857E+03;  0.0000000E+00;  1.1208184E-03;  1.0000000E+04;  0.0000000E+00;  9.9533281E+03;1.9368415;0.0;0.12115344;22272.344
  8.4021354E-01;  9.9999998E-03;  3.0074671E-01;2361;0.048366558;0.0;0.11030414;1015.7855;  4.0971643E-01;13069.637;3;11.213543;0.0;11.529379;0;1.8721306;  9.8770010E+03;  0.0000000E+00; -7.4836577E-04;  1.0000000E+04;  0.0000000E+00;  9.9568984E+03;1.8700169;0.0;0.0021137143;20604.637
  8.6041200E-01;  9.9999998E-03;  1.6046125E-01;2385;0.13438031;0.0;0.084290735;1014.9678;  4.0939781E-01;12389.87;3;22.499718;0.0;-18.098114;0;2.5217221;  9.8825420E+03;  0.0000000E+00;  5.5330507E-05;  1.0000000E+04;  0.0000000E+00;  9.9508330E+03;2.0709774;0.0;0.45074469;23047.684
  8.6042339E-01;  9.9999998E-03;  1.8050228E-01;2386;0.1354529;0.0;0.093548216;1014.9343;  4.0939859E-01;12362.141;3;21.731987;0.0;-16.175407;0;2.4882636;  9.8803838E+03;  0.0000000E+00;  1.7587078E-04;  1.0000000E+04;  0.0000000E+00;  9.9523135E+03;2.0753825;0.0;0.41288102;22353.109
  8.6043388E-01;  9.9999998E-03;  2.0054950E-01;2387;0.13631819;0.0;0.10422781;1014.9241;  4.0939921E-01;12353.75;3;21.385227;0.0;-14.325986;0;2.429965;  9.8788799E+03;  0.0000000E+00;  5.3895905E-04;  1.0000000E+04;  0.0000000E+00;  9.9535947E+03;2.0673215;0.0;0.3626436;21774.814
  8.6043853E-01;  9.9999998E-03;  2.2061040E-01;2388;0.13506643;0.0;0.11558621;1014.9368;  4.0939969E-01;12364.21;3;21.381264;0.0;-13.505639;0;2.354053;  9.8783262E+03;  0.0000000E+00;  1.2893068E-03;  1.0000000E+04;  0.0000000E+00;  9.9543877E+03;2.0428638;0.0;0.31118926;21445.576
  8.6042893E-01;  9.9999998E-03;  2.4065788E-01;2389;0.12874189;0.0;0.11828218;1014.9617;  4.0940037E-01;12384.835;3;21.643536;0.0;-15.118372;0;2.2622356;  9.8787578E+03;  0.0000000E+00;  2.3359943E-03;  1.0000000E+04;  0.0000000E+00;  9.9544072E+03;2.002779;0.0;0.25945663;21498.666
  8.6040670E-01;  9.9999998E-03;  2.6068220E-01;2390;0.11750628;0.0;0.11656751;1015.0687;  4.0940094E-01;12473.451;3;22.477501;0.0;-13.230121;0;2.1502695;  9.8799805E+03;  0.0000000E+00;  3.2122289E-03;  1.0000000E+04;  0.0000000E+00;  9.9552334E+03;1.9519202;0.0;0.19834931;21169.732
  8.6037666E-01;  9.9999998E-03;  2.8071353E-01;2391;0.10282683;0.0;0.11192105;1015.1061;  4.0940109E-01;12504.342;3;23.632837;0.0;-13.772264;0;2.0094416;  9.8816934E+03;  0.0000000E+00;  2.8830548E-03;  1.0000000E+04;  0.0000000E+00;  9.9542197E+03;1.896759;0.0;0.11268252;21790.82
  8.6033261E-01;  9.9999998E-03;  3.0072978E-01;2392;0.085612595;0.0;0.10920961;1015.3866;  4.0940070E-01;12736.538;3;24.630157;0.0;11.600327;0;1.8497558;  9.8835850E+03;  0.0000000E+00; -2.1509912E-04;  1.0000000E+04;  0.0000000E+00;  9.9578145E+03;1.8433936;0.0;0.006362238;20099.912
  8.8054490E-01;  9.9999998E-03;  1.6044471E-01;2416;0.18260022;0.0;0.083763078;1014.694;  4.0894422E-01;12159.525;3;33.311653;0.0;-15.505239;0;2.3043454;  9.8978945E+03;  0.0000000E+00;  3.7306647E-05;  1.0000000E+04;  0.0000000E+00;  9.9521270E+03;1.8552436;0.0;0.44910172;22369.195
  8.8056058E-01;  9.9999998E-03;  1.8048534E-01;2417;0.18481335;0.0;0.093253404;1014.6241;  4.0894505E-01;12101.714;3;32.719639;0.0;-13.565825;0;2.2882106;  9.8951758E+03;  0.0000000E+00;  1.9830168E-04;  1.0000000E+04;  0.0000000E+00;  9.9534619E+03;1.8766419;0.0;0.41156885;21747.141
  8.8057548E-01;  9.9999998E-03;  2.0053186E-01;2418;0.18697129;0.0;0.10400995;1014.5667;  4.0894559E-01;12054.162;3;32.696636;0.0;-11.761928;0;2.2500265;  9.8928740E+03;  0.0000000E+00;  7.8466104E-04;  1.0000000E+04;  0.0000000E+00;  9.9546201E+03;1.8884478;0.0;0.36157864;21227.836
  8.8058305E-01;  9.9999998E-03;  2.2059104E-01;2419;0.1862894;0.0;0.11466397;1014.5231;  4.0894619E-01;12018.155;3;32.863838;0.0;-11.920761;0;2.1964016;  9.8913164E+03;  0.0000000E+00;  2.1075676E-03;  1.0000000E+04;  0.0000000E+00;  9.9553066E+03;1.8858761;0.0;0.31052557;20943.049
  8.8057166E-01;  9.9999998E-03;  2.4063648E-01;2420;0.17880297;0.0;0.11644196;1014.491;  4.0894699E-01;11991.62;3;33.48671;0.0;-14.195559;0;2.1259921;  9.8906357E+03;  0.0000000E+00;  4.0344698E-03;  1.0000000E+04;  0.0000000E+00;  9.9553281E+03;1.8682117;0.0;0.25778034;20996.203
  8.8054401E-01;  9.9999998E-03;  2.6065907E-01;2421;0.16450374;0.0;0.11397228;1014.5501;  4.0894768E-01;12040.458;3;34.669712;0.0;-12.052347;0;2.0307946;  9.8907510E+03;  0.0000000E+00;  5.7860217E-03;  1.0000000E+04;  0.0000000E+00;  9.9563330E+03;1.8387272;0.0;0.19206746;20581.576
  8.8050687E-01;  9.9999998E-03;  2.8068915E-01;2422;0.14557263;0.0;0.10991554;1014.5574;  4.0894794E-01;12046.482;3;36.560951;0.0;-11.816779;0;1.9119028;  9.8914199E+03;  0.0000000E+00;  5.8951499E-03;  1.0000000E+04;  0.0000000E+00;  9.9557529E+03;1.8027573;0.0;0.10914557;20974.67
  8.8045096E-01;  9.9999998E-03;  3.0070603E-01;2423;0.12328629;0.0;0.10791143;1014.7855;  4.0894786E-01;12235.208;3;38.35614;0.0;12.202845;0;1.7817756;  9.8924131E+03;  0.0000000E+00;  2.4966763E-03;  1.0000000E+04;  0.0000000E+00;  9.9592051E+03;1.7658901;0.0;0.015885441;19344.475
  9.0066278E-01;  9.9999998E-03;  1.6042344E-01;2447;0.22662278;0.0;0.081978962;1014.372;  4.0837839E-01;11888.217;3;43.883675;0.0;-13.084787;0;2.0002632;  9.9173857E+03;  0.0000000E+00; -1.6899619E-05;  1.0000000E+04;  0.0000000E+00;  9.9538574E+03;1.5572218;0.0;0.44304141;21474.299
  9.0068245E-01;  9.9999998E-03;  1.8046288E-01;2448;0.22996986;0.0;0.091417842;1014.2711;  4.0837908E-01;11804.69;3;43.443466;0.0;-11.176898;0;1.9996643;  9.9141660E+03;  0.0000000E+00;  1.5088741E-04;  1.0000000E+04;  0.0000000E+00;  9.9550879E+03;1.5938307;0.0;0.40583363;20904.357
  9.0070158E-01;  9.9999998E-03;  2.0050772E-01;2449;0.23334233;0.0;0.10198122;1014.1683;  4.0837967E-01;11719.686;3;43.633583;0.0;-9.4689493;0;1.9814694;  9.9110498E+03;  0.0000000E+00;  9.2264038E-04;  1.0000000E+04;  0.0000000E+00;  9.9561729E+03;1.6251701;0.0;0.35629922;20421.01
  9.0071076E-01;  9.9999998E-03;  2.2056243E-01;2450;0.23267798;0.0;0.11128614;1014.0682;  4.0838009E-01;11636.853;3;43.672066;0.0;-10.41341;0;1.9511306;  9.9083857E+03;  0.0000000E+00;  2.8145076E-03;  1.0000000E+04;  0.0000000E+00;  9.9568721E+03;1.6460547;0.0;0.30507588;20128.732
  9.0069735E-01;  9.9999998E-03;  2.4060613E-01;2451;0.22357245;0.0;0.11286133;1013.9756;  4.0838096E-01;11560.337;3;43.973392;0.0;-12.815486;0;1.9059011;  9.9064180E+03;  0.0000000E+00;  5.6881788E-03;  1.0000000E+04;  0.0000000E+00;  9.9569834E+03;1.6539482;0.0;0.25195292;20129.529
  9.0066582E-01;  9.9999998E-03;  2.6062936E-01;2452;0.2071638;0.0;0.11131629;1013.9691;  4.0838179E-01;11554.922;3;46.001465;0.0;-10.343973;0;1.8403958;  9.9052197E+03;  0.0000000E+00;  8.4344745E-03;  1.0000000E+04;  0.0000000E+00;  9.9580049E+03;1.6496882;0.0;0.19070752;19698.541
  9.0062290E-01;  9.9999998E-03;  2.8065893E-01;2453;0.18395722;0.0;0.107759;1013.9253;  4.0838221E-01;11518.745;3;48.706898;0.0;-8.7599411;0;1.7489053;  9.9046826E+03;  0.0000000E+00;  9.2429584E-03;  1.0000000E+04;  0.0000000E+00;  9.9576338E+03;1.6367326;0.0;0.11217276;19971.965
  9.0055817E-01;  9.9999998E-03;  3.0067667E-01;2454;0.15793861;0.0;0.10609638;1014.0831;  4.0838239E-01;11649.221;3;51.022739;0.0;12.723466;0;1.6481414;  9.9046123E+03;  0.0000000E+00;  5.9676366E-03;  1.0000000E+04;  0.0000000E+00;  9.9607461E+03;1.6197209;0.0;0.028420495;18505.83
  9.2074537E-01;  9.9999998E-03;  1.6039783E-01;2478;0.26126477;0.0;0.078762852;1013.999;  4.0772974E-01;11573.296;3;54.055508;0.0;-11.019032;0;1.6309594;  9.9395771E+03;  0.0000000E+00; -6.9607755E-05;  1.0000000E+04;  0.0000000E+00;  9.9559893E+03;1.1980923;0.0;0.43286702;20376.488
  9.2077219E-01;  9.9999998E-03;  1.8043552E-01;2479;0.26644322;0.0;0.08795853;1013.8779;  4.0773004E-01;11473.255;3;53.662537;0.0;-9.1612463;0;1.6428049;  9.9360459E+03;  0.0000000E+00;  4.3435146E-05;  1.0000000E+04;  0.0000000E+00;  9.9571426E+03;1.2463362;0.0;0.39646867;19845.135
  9.2079937E-01;  9.9999998E-03;  2.0047770E-01;2480;0.27173844;0.0;0.09801171;1013.7368;  4.0773043E-01;11356.559;3;53.824211;0.0;-7.6165051;0;1.6431473;  9.9322393E+03;  0.0000000E+00;  8.3513663E-04;  1.0000000E+04;  0.0000000E+00;  9.9581816E+03;1.2952132;0.0;0.34793413;19383.051
  9.2081201E-01;  9.9999998E-03;  2.2052537E-01;2481;0.27112347;0.0;0.10552616;1013.5876;  4.0773106E-01;11233.166;3;53.361298;0.0;-9.0600615;0;1.635832;  9.9284814E+03;  0.0000000E+00;  3.0159019E-03;  1.0000000E+04;  0.0000000E+00;  9.9589844E+03;1.3398807;0.0;0.29595125;19037.537
  9.2079628E-01;  9.9999998E-03;  2.4056813E-01;2482;0.26019517;0.0;0.10800879;1013.4338;  4.0773186E-01;11106.038;3;53.364563;0.0;-10.42249;0;1.6194541;  9.9251494E+03;  0.0000000E+00;  6.5775658E-03;  1.0000000E+04;  0.0000000E+00;  9.9592646E+03;1.3757149;0.0;0.24373931;18947.939
  9.2076319E-01;  9.9999998E-03;  2.6059404E-01;2483;0.24173474;0.0;0.10796618;1013.3469;  4.0773270E-01;11034.204;3;55.128674;0.0;-7.9457603;0;1.5895033;  9.9224932E+03;  0.0000000E+00;  1.0203279E-02;  1.0000000E+04;  0.0000000E+00;  9.9601563E+03;1.4000926;0.0;0.18941066;18571.154
  9.2071575E-01;  9.9999998E-03;  2.8062436E-01;2484;0.21575907;0.0;0.10564435;1013.2274;  4.0773341E-01;10935.47;3;59.144974;0.0;-5.8484397;0;1.5387789;  9.9205918E+03;  0.0000000E+00;  1.1853139E-02;  1.0000000E+04;  0.0000000E+00;  9.9596426E+03;1.4138268;0.0;0.12495213;18883.873
  9.2064679E-01;  9.9999998E-03;  3.0064300E-01;2485;0.18790866;0.0;0.10368566;1013.3005;  4.0773380E-01;10995.907;3;62.236225;0.0;12.530496;0;1.4657815;  9.9193320E+03;  0.0000000E+00;  8.5547650E-03;  1.0000000E+04;  0.0000000E+00;  9.9622734E+03;1.4199517;0.0;0.045829792;17653.939
  9.4077033E-01;  9.9999998E-03;  1.6036968E-01;2509;0.27764109;0.0;0.074755989;1013.4954;  4.0702969E-01;11148.748;3;63.012661;0.0;-9.2415018;0;1.247502;  9.9614658E+03;  0.0000000E+00; -6.4676598E-05;  1.0000000E+04;  0.0000000E+00;  9.9584365E+03;0.82818496;0.0;0.41931701;19105.379
  9.4080091E-01;  9.9999998E-03;  1.8040593E-01;2510;0.28418216;0.0;0.083835438;1013.3682;  4.0702990E-01;11043.556;3;62.74913;0.0;-7.45438;0;1.2675188;  9.9578652E+03;  0.0000000E+00; -3.8109094E-05;  1.0000000E+04;  0.0000000E+00;  9.9595313E+03;0.8832584;0.0;0.38426036;18603.932
  9.4083542E-01;  9.9999998E-03;  2.0044544E-01;2511;0.29164234;0.0;0.093572743;1013.2028;  4.0703022E-01;10906.949;3;62.992565;0.0;-5.7910633;0;1.2830113;  9.9536182E+03;  0.0000000E+00;  5.9354171E-04;  1.0000000E+04;  0.0000000E+00;  9.9605273E+03;0.94543582;0.0;0.33757553;18159.973
  9.4086593E-01;  9.9999998E-03;  2.2048773E-01;2512;0.29604465;0.0;0.10009633;1013.0104;  4.0703058E-01;10747.987;3;62.332508;0.0;-7.2637968;0;1.2974979;  9.9489902E+03;  0.0000000E+00;  2.6690685E-03;  1.0000000E+04;  0.0000000E+00;  9.9613799E+03;1.0107176;0.0;0.28678021;17788.934
  9.4086611E-01;  9.9999998E-03;  2.4052522E-01;2513;0.28800946;0.0;0.10196904;1012.8115;  4.0703106E-01;10583.724;3;61.67057;0.0;-8.1076994;0;1.3060132;  9.9444004E+03;  0.0000000E+00;  6.3007558E-03;  1.0000000E+04;  0.0000000E+00;  9.9620234E+03;1.0732477;0.0;0.23276559;17521.322
  9.4083375E-01;  9.9999998E-03;  2.6055479E-01;2514;0.26794803;0.0;0.10400242;1012.6411;  4.0703204E-01;10442.911;3;63.076958;0.0;-4.9383378;0;1.3151363;  9.9403125E+03;  0.0000000E+00;  1.0543693E-02;  1.0000000E+04;  0.0000000E+00;  9.9626934E+03;1.1270269;0.0;0.18810938;17231.031
  9.4078332E-01;  9.9999998E-03;  2.8058633E-01;2515;0.24048132;0.0;0.10367848;1012.4343;  4.0703270E-01;10272.169;3;68.128151;0.0;-2.5614533;0;1.3171335;  9.9369902E+03;  0.0000000E+00;  1.3280876E-02;  1.0000000E+04;  0.0000000E+00;  9.9618730E+03;1.1690837;0.0;0.14804985;17648.398
  9.4071287E-01;  9.9999998E-03;  3.0060613E-01;2516;0.21263728;0.0;0.10138945;1012.4095;  4.0703338E-01;10251.716;3;72.964134;0.0;12.850307;0;1.2714258;  9.9344521E+03;  0.0000000E+00;  9.4077876E-03;  1.0000000E+04;  0.0000000E+00;  9.9638389E+03;1.2001171;0.0;0.07130871;16746.338
  9.6077275E-01;  9.9999998E-03;  1.6034119E-01;2540;0.28277141;0.0;0.070927888;1012.786;  4.0630877E-01;10552.175;3;67.595764;0.0;-7.2352796;0;0.90215641;  9.9801836E+03;  0.0000000E+00;  9.3230284E-07;  1.0000000E+04;  0.0000000E+00;  9.9610918E+03;0.49929971;0.0;0.40285671;17694.193
  9.6080458E-01;  9.9999998E-03;  1.8037596E-01;2541;0.29003578;0.0;0.079963088;1012.6635;  4.0630901E-01;10451.02;3;67.74881;0.0;-5.4607301;0;0.92573369;  9.9767100E+03;  0.0000000E+00; -3.2618562E-05;  1.0000000E+04;  0.0000000E+00;  9.9621494E+03;0.55638832;0.0;0.36934537;17214.623
  9.6084076E-01;  9.9999998E-03;  2.0041253E-01;2542;0.29843166;0.0;0.089419208;1012.4876;  4.0630919E-01;10305.885;3;68.504913;0.0;-3.6151755;0;0.95145011;  9.9722822E+03;  0.0000000E+00;  3.5194797E-04;  1.0000000E+04;  0.0000000E+00;  9.9631211E+03;0.62631536;0.0;0.32513472;16785.738
  9.6087760E-01;  9.9999998E-03;  2.2045393E-01;2543;0.30586639;0.0;0.096976124;1012.2624;  4.0630943E-01;10119.921;3;69.32666;0.0;-4.0085139;0;0.98550159;  9.9670898E+03;  0.0000000E+00;  2.3204766E-03;  1.0000000E+04;  0.0000000E+00;  9.9638770E+03;0.70632839;0.0;0.2791732;16451.887
  9.6090037E-01;  9.9999998E-03;  2.4048559E-01;2544;0.30542096;0.0;0.097371437;1012.0225;  4.0630978E-01;9921.9648;3;69.335258;0.0;-5.6052446;0;1.0166401;  9.9615547E+03;  0.0000000E+00;  8.1698177E-03;  1.0000000E+04;  0.0000000E+00;  9.9646719E+03;0.79015899;0.0;0.22648105;16108.86
  9.6088254E-01;  9.9999998E-03;  2.6051310E-01;2545;0.28836;0.0;0.099639997;1011.798;  4.0631050E-01;9736.7217;3;70.599632;0.0;-1.8752633;0;1.0555673;  9.9562275E+03;  0.0000000E+00;  1.6789161E-02;  1.0000000E+04;  0.0000000E+00;  9.9655254E+03;0.86984122;0.0;0.18572599;15720.92
  9.6083230E-01;  9.9999998E-03;  2.8054586E-01;2546;0.26054358;0.0;0.10126068;1011.5063;  4.0631118E-01;9496.0107;3;76.647789;0.0;0.49882594;0;1.109917;  9.9515752E+03;  0.0000000E+00;  2.1641612E-02;  1.0000000E+04;  0.0000000E+00;  9.9643467E+03;0.93844503;0.0;0.17147201;16258.328
  9.6076268E-01;  9.9999998E-03;  3.0056646E-01;2547;0.23334385;0.0;0.098721616;1011.3868;  4.0631199E-01;9397.3711;3;83.281372;0.0;13.235275;0;1.0901928;  9.9477891E+03;  0.0000000E+00;  8.2151694E-03;  1.0000000E+04;  0.0000000E+00;  9.9656885E+03;0.99340564;0.0;0.096787103;15662.174
  9.8076659E-01;  9.9999998E-03;  1.6031432E-01;2571;0.2834073;0.0;0.067731909;1011.8592;  4.0559489E-01;9774.1553;3;69.314041;0.0;-5.098176;0;0.62650979;  9.9942236E+03;  0.0000000E+00;  5.9283731E-05;  1.0000000E+04;  0.0000000E+00;  9.9638799E+03;0.24307226;0.0;0.38343751;16175.672
  9.8079932E-01;  9.9999998E-03;  1.8034714E-01;2572;0.2910679;0.0;0.076483063;1011.7465;  4.0559494E-01;9681.1855;3;69.648933;0.0;-3.3265998;0;0.64980924;  9.9909453E+03;  0.0000000E+00;  1.0063964E-05;  1.0000000E+04;  0.0000000E+00;  9.9649238E+03;0.29858974;0.0;0.35121951;15710.09
  9.8083669E-01;  9.9999998E-03;  2.0038007E-01;2573;0.29991877;0.0;0.085198633;1011.5697;  4.0559492E-01;9535.5518;3;70.610832;0.0;-1.4169234;0;0.68036091;  9.9865244E+03;  0.0000000E+00;  5.6911854E-04;  1.0000000E+04;  0.0000000E+00;  9.9658672E+03;0.37082586;0.0;0.30953506;15293.827
  9.8087656E-01;  9.9999998E-03;  2.2041918E-01;2574;0.30892271;0.0;0.093324587;1011.3279;  4.0559524E-01;9336.1729;3;72.876053;0.0;-0.45576909;0;0.72661;  9.9810654E+03;  0.0000000E+00;  6.5275896E-03;  1.0000000E+04;  0.0000000E+00;  9.9665508E+03;0.45835328;0.0;0.26825672;14991.496
  9.8090875E-01;  9.9999998E-03;  2.4044932E-01;2575;0.31353936;0.0;0.094687916;1011.0499;  4.0559542E-01;9107.1309;3;75.507828;0.0;-2.0625713;0;0.78082466;  9.9749609E+03;  0.0000000E+00;  2.3817679E-02;  1.0000000E+04;  0.0000000E+00;  9.9671699E+03;0.5556742;0.0;0.22515048;14718.404
  9.8091394E-01;  9.9999998E-03;  2.6047122E-01;2576;0.30436328;0.0;0.094919167;1010.7997;  4.0559590E-01;8900.9014;3;77.894119;0.0;0.44227129;0;0.83503604;  9.9687412E+03;  0.0000000E+00;  4.4911638E-02;  1.0000000E+04;  0.0000000E+00;  9.9684219E+03;0.65402508;0.0;0.18101093;14152.115
  9.8087245E-01;  9.9999998E-03;  2.8050345E-01;2577;0.27863878;0.0;0.097687073;1010.4523;  4.0559646E-01;8614.6299;3;85.038467;0.0;2.9741583;0;0.92497754;  9.9630205E+03;  0.0000000E+00;  5.2524455E-02;  1.0000000E+04;  0.0000000E+00;  9.9672031E+03;0.74309766;0.0;0.18187988;14670.043
  9.8080701E-01;  9.9999998E-03;  3.0052426E-01;2578;0.25254002;0.0;0.094939388;1010.26;  4.0559736E-01;8456.0986;3;93.472275;0.0;13.955009;0;0.92486608;  9.9582100E+03;  0.0000000E+00;  5.0131790E-03;  1.0000000E+04;  0.0000000E+00;  9.9681250E+03;0.81711876;0.0;0.10774735;14273.101
  1.0007564E+00;  9.9999998E-03;  1.6028963E-01;2602;0.2823014;0.0;0.06470643;1010.7696;  4.0491113E-01;8860.1953;3;70.171196;0.0;-3.2393005;0;0.42618468;  1.0003538E+04;  0.0000000E+00;  3.3610766E-05;  1.0000000E+04;  0.0000000E+00;  9.9667305E+03;0.065453909;0.0;0.36073077;14583.014
  1.0007900E+00;  9.9999998E-03;  1.8031952E-01;2603;0.29027742;0.0;0.072769016;1010.6656;  4.0491107E-01;8774.5469;3;70.467819;0.0;-1.5346208;0;0.44676474;  1.0000444E+04;  0.0000000E+00; -2.3516743E-04;  1.0000000E+04;  0.0000000E+00;  9.9677666E+03;0.11742438;0.0;0.32934037;14130.248
  1.0008283E+00;  9.9999998E-03;  2.0034975E-01;2604;0.29956442;0.0;0.080987595;1010.4931;  4.0491107E-01;8632.6982;3;71.702454;0.0;0.22246;0;0.47778407;  9.9961406E+03;  0.0000000E+00;  2.8862408E-04;  1.0000000E+04;  0.0000000E+00;  9.9686572E+03;0.18737215;0.0;0.29041192;13742.399
  1.0008701E+00;  9.9999998E-03;  2.2038336E-01;2605;0.30934006;0.0;0.088290915;1010.2498;  4.0491122E-01;8432.4932;3;74.462112;0.0;1.7428257;0;0.52806562;  9.9907178E+03;  0.0000000E+00;  1.3657523E-02;  1.0000000E+04;  0.0000000E+00;  9.9692822E+03;0.27508321;0.0;0.25298241;13464.864
  1.0009086E+00;  9.9999998E-03;  2.4041210E-01;2606;0.31671578;0.0;0.090709299;1009.9551;  4.0491131E-01;8189.9268;3;79.135651;0.0;1.8542312;0;0.5948984;  9.9844297E+03;  0.0000000E+00;  5.2704543E-02;  1.0000000E+04;  0.0000000E+00;  9.9697402E+03;0.37696478;0.0;0.21793361;13256.773
  1.0009298E+00;  9.9999998E-03;  2.6042986E-01;2607;0.31574699;0.0;0.090003967;1009.6923;  4.0491152E-01;7973.7573;3;85.641785;0.0;3.0675294;0;0.65992182;  9.9777129E+03;  0.0000000E+00;  9.5512636E-02;  1.0000000E+04;  0.0000000E+00;  9.9712520E+03;0.48540998;0.0;0.17451185;12583.868
  1.0009084E+00;  9.9999998E-03;  2.8045964E-01;2608;0.29540965;0.0;0.092617638;1009.3329;  4.0491208E-01;7678.0874;3;93.414032;0.0;4.8175216;0;0.76341867;  9.9712900E+03;  0.0000000E+00;  1.0244571E-01;  1.0000000E+04;  0.0000000E+00;  9.9705176E+03;0.58626932;0.0;0.17714933;12862.072
  1.0008546E+00;  9.9999998E-03;  3.0048054E-01;2609;0.27208635;0.0;0.089876242;1009.0974;  4.0491271E-01;7484.3379;3;103.78982;0.0;14.673427;0;0.7751379;  9.9658359E+03;  0.0000000E+00; -9.4578005E-03;  1.0000000E+04;  0.0000000E+00;  9.9712285E+03;0.67109782;0.0;0.10404011;12554.349
  1.0207437E+00;  9.9999998E-03;  1.6026612E-01;2633;0.280092;0.0;0.061638441;1009.6053;  4.0427589E-01;7883.2739;3;70.591583;0.0;-1.6583956;0;0.28876308;  1.0009015E+04;  0.0000000E+00; -2.1973721E-04;  1.0000000E+04;  0.0000000E+00;  9.9695820E+03;-0.045755476;0.0;0.33451855;12953.745
  1.0207783E+00;  9.9999998E-03;  1.8029405E-01;2634;0.28852874;0.0;0.06946265;1009.5056;  4.0427586E-01;7801.4443;3;71.12838;0.0;0.0077586975;0;0.30567813;  1.0006055E+04;  0.0000000E+00; -4.0046028E-03;  1.0000000E+04;  0.0000000E+00;  9.9705693E+03;0.0017390475;0.0;0.30393907;12532.392
  1.0208182E+00;  9.9999998E-03;  2.0032194E-01;2635;0.29831401;0.0;0.076973863;1009.3403;  4.0427583E-01;7665.7012;3;72.325325;0.0;1.6952872;0;0.33412537;  1.0002021E+04;  0.0000000E+00; -1.2272085E-02;  1.0000000E+04;  0.0000000E+00;  9.9713301E+03;0.065507732;0.0;0.26861763;12208.208
  1.0208620E+00;  9.9999998E-03;  2.2034980E-01;2636;0.30865872;0.0;0.082909659;1009.1073;  4.0427575E-01;7474.4829;3;75.443199;0.0;3.2292223;0;0.38266522;  9.9969336E+03;  0.0000000E+00;  2.1205035E-04;  1.0000000E+04;  0.0000000E+00;  9.9718086E+03;0.14665031;0.0;0.2360149;11994.043
  1.0209059E+00;  9.9999998E-03;  2.4037468E-01;2637;0.31760183;0.0;0.084954768;1008.8201;  4.0427592E-01;7238.751;3;81.554726;0.0;4.2081571;0;0.45002156;  9.9908789E+03;  0.0000000E+00;  6.0143918E-02;  1.0000000E+04;  0.0000000E+00;  9.9721885E+03;0.24430189;0.0;0.20571966;11819.076
  1.0209383E+00;  9.9999998E-03;  2.6038936E-01;2638;0.32187369;0.0;0.084265545;1008.5667;  4.0427598E-01;7030.6235;3;91.3461;0.0;5.9465861;0;0.51887774;  9.9840957E+03;  0.0000000E+00;  1.2861584E-01;  1.0000000E+04;  0.0000000E+00;  9.9739512E+03;0.35395181;0.0;0.16492592;11055.278
  1.0209441E+00;  9.9999998E-03;  2.8041592E-01;2639;0.31246474;0.0;0.086284809;1008.2264;  4.0427604E-01;6751.3965;3;102.22974;0.0;5.985424;0;0.62072265;  9.9772373E+03;  0.0000000E+00;  1.2253927E-01;  1.0000000E+04;  0.0000000E+00;  9.9740576E+03;0.46035376;0.0;0.16036887;10958.489
  1.0209123E+00;  9.9999998E-03;  3.0043647E-01;2640;0.29319778;0.0;0.083770745;1007.9822;  4.0427631E-01;6551.0601;3;114.9494;0.0;15.756685;0;0.63388872;  9.9714053E+03;  0.0000000E+00; -3.7139494E-02;  1.0000000E+04;  0.0000000E+00;  9.9750049E+03;0.54719567;0.0;0.086693048;10542.636
  1.0407284E+00;  9.9999998E-03;  1.6024382E-01;2664;0.27709553;0.0;0.058693498;1008.4528;  4.0370193E-01;6915.0352;3;70.684914;0.0;-0.32335877;0;0.19529369;  1.0011796E+04;  0.0000000E+00; -2.3536745E-03;  1.0000000E+04;  0.0000000E+00;  9.9723545E+03;-0.10979126;0.0;0.30508494;11334.496
  1.0407649E+00;  9.9999998E-03;  1.8026984E-01;2665;0.28609389;0.0;0.065704696;1008.3539;  4.0370193E-01;6834.1426;3;71.41671;0.0;1.1301178;0;0.20863232;  1.0008984E+04;  0.0000000E+00; -2.1822646E-02;  1.0000000E+04;  0.0000000E+00;  9.9732100E+03;-0.067434661;0.0;0.27606699;10982.833
  1.0408067E+00;  9.9999998E-03;  2.0029370E-01;2666;0.29656392;0.0;0.072005227;1008.2009;  4.0370172E-01;6708.8726;3;73.044624;0.0;2.6796968;0;0.23238382;  1.0005406E+04;  0.0000000E+00; -6.3769847E-02;  1.0000000E+04;  0.0000000E+00;  9.9737529E+03;-0.013084423;0.0;0.24546824;10760.015
  1.0408540E+00;  9.9999998E-03;  2.2031820E-01;2667;0.30770069;0.0;0.076934911;1007.9886;  4.0370166E-01;6535.2275;3;76.488846;0.0;4.1276684;0;0.27505961;  1.0000995E+04;  0.0000000E+00; -8.2064822E-02;  1.0000000E+04;  0.0000000E+00;  9.9739707E+03;0.055868134;0.0;0.21919148;10659.134
  1.0409027E+00;  9.9999998E-03;  2.4033928E-01;2668;0.31757525;0.0;0.078376114;1007.7288;  4.0370163E-01;6322.5752;3;83.349106;0.0;5.3465919;0;0.33521959;  9.9956035E+03;  0.0000000E+00; -2.5157625E-02;  1.0000000E+04;  0.0000000E+00;  9.9742246E+03;0.14159639;0.0;0.1936232;10526.938
  1.0409460E+00;  9.9999998E-03;  2.6035240E-01;2669;0.32518473;0.0;0.078352511;1007.4964;  4.0370148E-01;6132.3633;3;95.322319;0.0;8.0296497;0;0.40317076;  9.9891631E+03;  0.0000000E+00;  5.3929310E-02;  1.0000000E+04;  0.0000000E+00;  9.9760654E+03;0.24414256;0.0;0.15902822;9737.7998
  1.0409832E+00;  9.9999998E-03;  2.8037429E-01;2670;0.32894859;0.0;0.079246961;1007.1889;  4.0370134E-01;5880.8213;3;111.33051;0.0;8.1593609;0;0.49458885;  9.9817832E+03;  0.0000000E+00;  9.8885894E-03;  1.0000000E+04;  0.0000000E+00;  9.9773721E+03;0.35768911;0.0;0.13689975;9148.1836
  1.0409889E+00;  9.9999998E-03;  3.0039299E-01;2671;0.31743285;0.0;0.076252759;1006.9374;  4.0370136E-01;5675.0527;3;126.69595;0.0;16.619961;0;0.4972887;  9.9748779E+03;  0.0000000E+00;  5.8754701E-03;  1.0000000E+04;  0.0000000E+00;  9.9792813E+03;0.44769913;0.0;0.049589589;8357.6533
  1.0607117E+00;  9.9999998E-03;  1.6022217E-01;2695;0.27354607;0.0;0.055251803;1007.3748;  4.0319651E-01;6007.2339;3;70.798042;0.0;0.68941486;0;0.12937275;  1.0012844E+04;  0.0000000E+00; -1.2237658E-02;  1.0000000E+04;  0.0000000E+00;  9.9749570E+03;-0.14420196;0.0;0.27357471;9781.2842
  1.0607504E+00;  9.9999998E-03;  1.8024538E-01;2696;0.28325114;0.0;0.061314858;1007.2764;  4.0319645E-01;5927.0669;3;71.58123;0.0;1.924095;0;0.13968569;  1.0010287E+04;  0.0000000E+00; -7.3395789E-02;  1.0000000E+04;  0.0000000E+00;  9.9755596E+03;-0.10792258;0.0;0.24760826;9546.1982
  1.0607951E+00;  9.9999998E-03;  2.0026612E-01;2697;0.29450053;0.0;0.066557035;1007.1422;  4.0319636E-01;5817.6641;3;73.762146;0.0;3.3732719;0;0.15785815;  1.0007399E+04;  0.0000000E+00; -1.9065155E-01;  1.0000000E+04;  0.0000000E+00;  9.9757900E+03;-0.065511033;0.0;0.22336918;9480.8232
  1.0608470E+00;  9.9999998E-03;  2.2028807E-01;2698;0.30655426;0.0;0.070433334;1006.9629;  4.0319616E-01;5671.5503;3;77.986;0.0;4.6583176;0;0.19206713;  1.0003970E+04;  0.0000000E+00; -2.8735796E-01;  1.0000000E+04;  0.0000000E+00;  9.9756797E+03;-0.012535395;0.0;0.20460252;9553.8379
  1.0609007E+00;  9.9999998E-03;  2.4030735E-01;2699;0.3172392;0.0;0.071448073;1006.741;  4.0319598E-01;5490.7729;3;85.717049;0.0;5.9264059;0;0.24073991;  9.9995928E+03;  0.0000000E+00; -2.7938637E-01;  1.0000000E+04;  0.0000000E+00;  9.9756738E+03;0.05607174;0.0;0.18466817;9527.3203
  1.0609571E+00;  9.9999998E-03;  2.6032016E-01;2700;0.32777363;0.0;0.071607798;1006.5266;  4.0319571E-01;5316.0166;3;99.422829;0.0;8.7154369;0;0.30085972;  9.9936650E+03;  0.0000000E+00; -2.4269138E-01;  1.0000000E+04;  0.0000000E+00;  9.9773623E+03;0.14692083;0.0;0.15393889;8811.8096
  1.0610151E+00;  9.9999998E-03;  2.8033903E-01;2701;0.33710235;0.0;0.073441029;1006.2165;  4.0319553E-01;5063.3916;3;118.09256;0.0;11.498108;0;0.39952993;  9.9855605E+03;  0.0000000E+00; -2.7624744E-01;  1.0000000E+04;  0.0000000E+00;  9.9793486E+03;0.26355585;0.0;0.13597408;7987.2007
  1.0610628E+00;  9.9999998E-03;  3.0035540E-01;2702;0.34031612;0.0;0.072552294;1005.8609;  4.0319544E-01;4773.6963;3;140.24323;0.0;17.480255;0;0.46168971;  9.9756143E+03;  0.0000000E+00;  3.7860772E-01;  1.0000000E+04;  0.0000000E+00;  9.9822842E+03;0.38653371;0.0;0.075156003;6889.2725
  1.0806946E+00;  9.9999998E-03;  1.6020107E-01;2726;0.26961794;0.0;0.0514367;1006.4023;  4.0276265E-01;5185.4277;3;70.693512;0.0;1.4713082;0;0.081068486;  1.0012755E+04;  0.0000000E+00; -4.6880644E-02;  1.0000000E+04;  0.0000000E+00;  9.9772559E+03;-0.16104169;0.0;0.24211018;8356.1348
  1.0807352E+00;  9.9999998E-03;  1.8021992E-01;2727;0.28007174;0.0;0.056108847;1006.3104;  4.0276250E-01;5110.9194;3;72.055214;0.0;2.5722942;0;0.08848995;  1.0010656E+04;  0.0000000E+00; -1.8996756E-01;  1.0000000E+04;  0.0000000E+00;  9.9775264E+03;-0.13230346;0.0;0.22079341;8285.2363
  1.0807844E+00;  9.9999998E-03;  2.0023897E-01;2728;0.29235005;0.0;0.060303491;1006.2038;  4.0276235E-01;5024.4268;3;74.791374;0.0;3.7379177;0;0.10056052;  1.0008676E+04;  0.0000000E+00; -4.2928892E-01;  1.0000000E+04;  0.0000000E+00;  9.9774063E+03;-0.10327609;0.0;0.2038366;8468.2637
  1.0808412E+00;  9.9999998E-03;  2.2026002E-01;2729;0.30524686;0.0;0.063515611;1006.0655;  4.0276200E-01;4912.3398;3;80.126785;0.0;4.7437925;0;0.12562022;  1.0006421E+04;  0.0000000E+00; -6.4997190E-01;  1.0000000E+04;  0.0000000E+00;  9.9769346E+03;-0.06754221;0.0;0.19316243;8846.9746
  1.0808996E+00;  9.9999998E-03;  2.4027669E-01;2730;0.31641939;0.0;0.063769557;1005.899;  4.0276188E-01;4777.3745;3;89.09523;0.0;6.1170425;0;0.1576369;  1.0003199E+04;  0.0000000E+00; -7.2942358E-01;  1.0000000E+04;  0.0000000E+00;  9.9768711E+03;-0.017689398;0.0;0.17532629;8951.7129
  1.0809652E+00;  9.9999998E-03;  2.6028976E-01;2731;0.32812715;0.0;0.064153716;1005.7075;  4.0276149E-01;4622.2246;3;104.18205;0.0;8.9901266;0;0.20412603;  9.9977148E+03;  0.0000000E+00; -7.4860716E-01;  1.0000000E+04;  0.0000000E+00;  9.9785762E+03;0.059419949;0.0;0.14470609;8351.7217
  1.0810349E+00;  9.9999998E-03;  2.8030813E-01;2732;0.34053057;0.0;0.066502012;1005.3557;  4.0276152E-01;4337.2305;3;125.7541;0.0;12.802032;0;0.30563438;  9.9886025E+03;  0.0000000E+00; -5.7087547E-01;  1.0000000E+04;  0.0000000E+00;  9.9807275E+03;0.17936242;0.0;0.12627195;7270.6953
  1.0810958E+00;  9.9999998E-03;  3.0032235E-01;2733;0.34702805;0.0;0.067061953;1004.8958;  4.0276128E-01;3964.7014;3;150.1066;0.0;18.614035;0;0.39770845;  9.9757979E+03;  0.0000000E+00;  1.3116429E+00;  1.0000000E+04;  0.0000000E+00;  9.9844463E+03;0.31807163;0.0;0.079636805;7604.0542
  1.1006774E+00;  9.9999998E-03;  1.6017808E-01;2756;0.26551199;0.0;0.046714682;1005.5452;  4.0239859E-01;4457.4219;3;70.711708;0.0;2.1648631;0;0.045946345;  1.0011897E+04;  0.0000000E+00; -1.3923666E-01;  1.0000000E+04;  0.0000000E+00;  9.9791494E+03;-0.16731729;0.0;0.21326363;7115.0981
  1.1007218E+00;  9.9999998E-03;  1.8019488E-01;2757;0.2769416;0.0;0.05029681;1005.4694;  4.0239832E-01;4396.2979;3;72.522194;0.0;2.9144866;0;0.049864218;  1.0010483E+04;  0.0000000E+00; -4.1108906E-01;  1.0000000E+04;  0.0000000E+00;  9.9790664E+03;-0.14771977;0.0;0.19758399;7282.4634
  1.1007758E+00;  9.9999998E-03;  2.0021315E-01;2758;0.29026303;0.0;0.053611975;1005.3992;  4.0239820E-01;4339.8535;3;76.301804;0.0;3.8084917;0;0.055769295;  1.0009531E+04;  0.0000000E+00; -8.0546993E-01;  1.0000000E+04;  0.0000000E+00;  9.9786348E+03;-0.13192995;0.0;0.18769924;7858.6572
  1.1008365E+00;  9.9999998E-03;  2.2023205E-01;2759;0.30349886;0.0;0.055549935;1005.3112;  4.0239802E-01;4269.0264;3;82.916168;0.0;4.7525101;0;0.068999961;  1.0008408E+04;  0.0000000E+00; -1.1619068E+00;  1.0000000E+04;  0.0000000E+00;  9.9780322E+03;-0.11183429;0.0;0.18083425;8627.6973
  1.1008991E+00;  9.9999998E-03;  2.4024630E-01;2760;0.31473684;0.0;0.055116627;1005.2093;  4.0239775E-01;4186.9893;3;93.863991;0.0;6.3559809;0;0.079274759;  1.0006098E+04;  0.0000000E+00; -1.3126075E+00;  1.0000000E+04;  0.0000000E+00;  9.9783418E+03;-0.078457758;0.0;0.15773252;8829.6123
  1.1009672E+00;  9.9999998E-03;  2.6025975E-01;2761;0.32653189;0.0;0.056430224;1005.0515;  4.0239742E-01;4060.0115;3;110.7768;0.0;9.7769318;0;0.11458859;  1.0000842E+04;  0.0000000E+00; -1.2504950E+00;  1.0000000E+04;  0.0000000E+00;  9.9804766E+03;-0.012683156;0.0;0.12727174;8062.1606
  1.1010406E+00;  9.9999998E-03;  2.8027973E-01;2762;0.33992541;0.0;0.059765343;1004.6306;  4.0239745E-01;3721.582;3;134.35367;0.0;14.096256;0;0.22628443;  9.9905879E+03;  0.0000000E+00; -4.6186724E-01;  1.0000000E+04;  0.0000000E+00;  9.9823955E+03;0.11147167;0.0;0.11481276;6035.4453
  1.1206628E+00;  9.9999998E-03;  1.6015519E-01;2785;0.26169091;0.0;0.041165069;1004.8071;  4.0210015E-01;3825.9402;3;70.793144;0.0;2.4487228;0;0.0210879;  1.0010617E+04;  0.0000000E+00; -3.4616435E-01;  1.0000000E+04;  0.0000000E+00;  9.9805762E+03;-0.16822672;0.0;0.18931462;6131.6802
  1.1207113E+00;  9.9999998E-03;  1.8017091E-01;2786;0.2742531;0.0;0.043993816;1004.7601;  4.0209985E-01;3788.4546;3;73.549675;0.0;3.0330496;0;0.020474747;  1.0010051E+04;  0.0000000E+00; -7.8367764E-01;  1.0000000E+04;  0.0000000E+00;  9.9802217E+03;-0.1585197;0.0;0.17899445;6671.8076
  1.1207695E+00;  9.9999998E-03;  2.0018828E-01;2787;0.28827575;0.0;0.046425391;1004.7315;  4.0209967E-01;3765.5603;3;78.713936;0.0;3.9017804;0;0.01992473;  1.0010048E+04;  0.0000000E+00; -1.3278700E+00;  1.0000000E+04;  0.0000000E+00;  9.9796738E+03;-0.15357028;0.0;0.17349501;7724.1743
  1.1208339E+00;  9.9999998E-03;  2.2020540E-01;2788;0.30125204;0.0;0.047264498;1004.6921;  4.0209940E-01;3734.0217;3;86.927055;0.0;4.8430462;0;0.019719079;  1.0009672E+04;  0.0000000E+00; -1.7691659E+00;  1.0000000E+04;  0.0000000E+00;  9.9792842E+03;-0.14443862;0.0;0.1641577;8758.9482
  1.1208985E+00;  9.9999998E-03;  2.4021840E-01;2789;0.31218171;0.0;0.046952825;1004.6426;  4.0209928E-01;3694.5161;3;100.14758;0.0;6.89992;0;0.01198636;  1.0007628E+04;  0.0000000E+00; -1.8680879E+00;  1.0000000E+04;  0.0000000E+00;  9.9803633E+03;-0.12053742;0.0;0.13252378;8756.4355
  1.1209664E+00;  9.9999998E-03;  2.6023543E-01;2790;0.32423052;0.0;0.05000424;1004.4534;  4.0209916E-01;3543.8284;3;119.52052;0.0;10.612411;0;0.057875097;  1.0001912E+04;  0.0000000E+00; -1.4604511E+00;  1.0000000E+04;  0.0000000E+00;  9.9823311E+03;-0.055004105;0.0;0.1128792;7308.9019
  1.1210326E+00;  9.9999998E-03;  2.8025535E-01;2791;0.33627233;0.0;0.053636339;1004.0087;  4.0209904E-01;3189.7813;3;144.15428;0.0;15.124053;0;0.16962023;  9.9912754E+03;  0.0000000E+00;  4.4635159E-01;  1.0000000E+04;  0.0000000E+00;  9.9841396E+03;0.066731945;0.0;0.10288829;4921.5845
  1.1406516E+00;  9.9999998E-03;  1.6013385E-01;2813;0.25859466;0.0;0.035332959;1004.1951;  4.0186056E-01;3296.0186;3;71.584305;0.0;2.5101814;0;0.0026578903;  1.0009321E+04;  0.0000000E+00; -7.3578757E-01;  1.0000000E+04;  0.0000000E+00;  9.9815967E+03;-0.16872488;0.0;0.17138277;5549.3794
  1.1407044E+00;  9.9999998E-03;  1.8014942E-01;2814;0.27208489;0.0;0.037662845;1004.1851;  4.0186062E-01;3288.0239;3;75.793365;0.0;3.1153343;0;-0.00283508;  1.0009599E+04;  0.0000000E+00; -1.3380586E+00;  1.0000000E+04;  0.0000000E+00;  9.9811309E+03;-0.16755155;0.0;0.16471647;6572.6821
  1.1407669E+00;  9.9999998E-03;  2.0016734E-01;2815;0.28638545;0.0;0.03955669;1004.1869;  4.0186030E-01;3289.2781;3;82.674271;0.0;3.9234343;0;-0.0083094239;  1.0010144E+04;  0.0000000E+00; -1.9712337E+00;  1.0000000E+04;  0.0000000E+00;  9.9806396E+03;-0.16825002;0.0;0.1599406;7950.6104
  1.1408342E+00;  9.9999998E-03;  2.2018419E-01;2816;0.29856136;0.0;0.03964052;1004.1637;  4.0186009E-01;3270.9478;3;92.702065;0.0;4.7875385;0;-0.021501884;  1.0009693E+04;  0.0000000E+00; -2.3697720E+00;  1.0000000E+04;  0.0000000E+00;  9.9806475E+03;-0.1629491;0.0;0.14144722;8866.9873
  1.1408976E+00;  9.9999998E-03;  2.4019842E-01;2817;0.3092773;0.0;0.04073796;1004.1082;  4.0185988E-01;3227.1577;3;108.50172;0.0;7.446836;0;-0.026246093;  1.0007026E+04;  0.0000000E+00; -2.1503153E+00;  1.0000000E+04;  0.0000000E+00;  9.9822207E+03;-0.13595946;0.0;0.10971337;8078.1387
  1.1409627E+00;  9.9999998E-03;  2.6021892E-01;2818;0.3215245;0.0;0.045057591;1003.8214;  4.0185988E-01;3001.7068;3;129.95636;0.0;11.289945;0;0.0488283;  1.0000177E+04;  0.0000000E+00; -9.2703849E-01;  1.0000000E+04;  0.0000000E+00;  9.9833721E+03;-0.056865688;0.0;0.10569399;5275.9873
  1.1606450E+00;  9.9999998E-03;  1.6011599E-01;2840;0.25623107;0.0;0.029704522;1003.718;  4.0167290E-01;2872.999;3;73.775093;0.0;2.5053;0;-0.013804838;  1.0008393E+04;  0.0000000E+00; -1.3448884E+00;  1.0000000E+04;  0.0000000E+00;  9.9823711E+03;-0.1726355;0.0;0.15883066;5507.4136
  1.1607029E+00;  9.9999998E-03;  1.8013339E-01;2841;0.27027801;0.0;0.031917151;1003.7323;  4.0167266E-01;2883.989;3;79.527725;0.0;3.034399;0;-0.021704629;  1.0009163E+04;  0.0000000E+00; -2.0456488E+00;  1.0000000E+04;  0.0000000E+00;  9.9818994E+03;-0.17526314;0.0;0.15355851;6856.6895
  1.1607703E+00;  9.9999998E-03;  2.0015326E-01;2842;0.2842887;0.0;0.033306945;1003.7168;  4.0167254E-01;2871.833;3;88.397469;0.0;3.5847988;0;-0.029041052;  1.0009303E+04;  0.0000000E+00; -2.6356432E+00;  1.0000000E+04;  0.0000000E+00;  9.9814756E+03;-0.17329124;0.0;0.14425018;8134.1846
  1.1608369E+00;  9.9999998E-03;  2.2017008E-01;2843;0.29562804;0.0;0.033518504;1003.6609;  4.0167236E-01;2828.458;3;100.59628;0.0;4.5677304;0;-0.045622475;  1.0007768E+04;  0.0000000E+00; -2.7138078E+00;  1.0000000E+04;  0.0000000E+00;  9.9819102E+03;-0.16151017;0.0;0.11588769;8250.9629
  1.1608986E+00;  9.9999998E-03;  2.4018875E-01;2844;0.30681843;0.0;0.036818422;1003.4863;  4.0167230E-01;2693.3723;3;118.75568;0.0;7.6929493;0;-0.01290895;  1.0003415E+04;  0.0000000E+00; -1.7742666E+00;  1.0000000E+04;  0.0000000E+00;  9.9827871E+03;-0.11387229;0.0;0.10096334;6154.0176
  1.1609508E+00;  9.9999998E-03;  2.6020634E-01;2845;0.31691051;0.0;0.04096365;1003.2126;  4.0167227E-01;2481.7966;3;141.17056;0.0;11.861096;0;0.067558721;  9.9965635E+03;  0.0000000E+00;  8.3429652E-01;  1.0000000E+04;  0.0000000E+00;  9.9841895E+03;-0.032954372;0.0;0.10051309;4247.499
  1.1806458E+00;  9.9999998E-03;  1.6010539E-01;2866;0.25458285;0.0;0.024984032;1003.3585;  4.0152836E-01;2541.2241;3;77.286659;0.0;2.2696373;0;-0.029087275;  1.0007817E+04;  0.0000000E+00; -2.1189339E+00;  1.0000000E+04;  0.0000000E+00;  9.9829717E+03;-0.17941199;0.0;0.15032472;5821.6704
  1.1807114E+00;  9.9999998E-03;  1.8012701E-01;2867;0.26904508;0.0;0.02729609;1003.3286;  4.0152842E-01;2518.3896;3;84.749466;0.0;2.450264;0;-0.030403972;  1.0007914E+04;  0.0000000E+00; -2.7913120E+00;  1.0000000E+04;  0.0000000E+00;  9.9822998E+03;-0.17520258;0.0;0.14479861;7097.3477
  1.1807787E+00;  9.9999998E-03;  2.0014735E-01;2868;0.2822206;0.0;0.028707873;1003.2331;  4.0152827E-01;2445.9507;3;95.791412;0.0;3.0568678;0;-0.028920844;  1.0006438E+04;  0.0000000E+00; -3.0416763E+00;  1.0000000E+04;  0.0000000E+00;  9.9818809E+03;-0.15862286;0.0;0.12970202;7602.7681
  1.1808401E+00;  9.9999998E-03;  2.2016485E-01;2869;0.29304141;0.0;0.030346675;1003.0874;  4.0152824E-01;2335.5737;3;110.80042;0.0;4.7640915;0;-0.021801554;  1.0003133E+04;  0.0000000E+00; -2.2971535E+00;  1.0000000E+04;  0.0000000E+00;  9.9822900E+03;-0.12742929;0.0;0.10562774;6184.3359
  1.1808923E+00;  9.9999998E-03;  2.4018353E-01;2870;0.3034302;0.0;0.034651667;1002.8473;  4.0152818E-01;2153.8188;3;130.8811;0.0;8.4457455;0;0.046202544;  9.9978877E+03;  0.0000000E+00; -1.6961051E-02;  1.0000000E+04;  0.0000000E+00;  9.9827490E+03;-0.061827194;0.0;0.10802974;3464.937
  1.2006601E+00;  9.9999998E-03;  1.6010648E-01;2890;0.25440529;0.0;0.02195264;1003.0093;  4.0141988E-01;2218.1831;3;83.071678;0.0;1.4189626;0;-0.029677749;  1.0006194E+04;  0.0000000E+00; -2.9101353E+00;  1.0000000E+04;  0.0000000E+00;  9.9830518E+03;-0.176442;0.0;0.14676425;6019.8428
  1.2007262E+00;  9.9999998E-03;  1.8012774E-01;2891;0.26833454;0.0;0.024137823;1002.8722;  4.0141976E-01;2116.9312;3;92.610001;0.0;1.706018;0;-0.0123633;  1.0004310E+04;  0.0000000E+00; -3.2313888E+00;  1.0000000E+04;  0.0000000E+00;  9.9822158E+03;-0.15173484;0.0;0.13937154;6578.478
  1.2007880E+00;  9.9999998E-03;  2.0014799E-01;2892;0.28065521;0.0;0.026698127;1002.6526;  4.0141982E-01;1954.9155;3;105.90123;0.0;3.1210122;0;0.022303574;  1.0000531E+04;  0.0000000E+00; -2.5579753E+00;  1.0000000E+04;  0.0000000E+00;  9.9816201E+03;-0.10622842;0.0;0.12853199;5571.8848
  1.2008362E+00;  9.9999998E-03;  2.2016348E-01;2893;0.28960615;0.0;0.029205937;1002.4883;  4.0141991E-01;1833.7255;3;123.30426;0.0;5.7453232;0;0.048733301;  9.9967363E+03;  0.0000000E+00; -3.3161673E-01;  1.0000000E+04;  0.0000000E+00;  9.9821377E+03;-0.064651504;0.0;0.11338481;3067.2642
  1.2206786E+00;  9.9999998E-03;  1.6011195E-01;2913;0.25389054;0.0;0.019843709;1002.5681;  4.0133989E-01;1833.6946;3;91.687103;0.0;0.65595502;0;-0.00060452521;  1.0001713E+04;  0.0000000E+00; -3.2192230E+00;  1.0000000E+04;  0.0000000E+00;  9.9827324E+03;-0.14552824;0.0;0.14492372;5308.5864
  1.2207351E+00;  9.9999998E-03;  1.8013087E-01;2914;0.26602155;0.0;0.022568416;1002.3544;  4.0133989E-01;1680.9135;3;103.64328;0.0;2.0234146;0;0.040411621;  9.9982578E+03;  0.0000000E+00; -2.5514431E+00;  1.0000000E+04;  0.0000000E+00;  9.9819229E+03;-0.098351404;0.0;0.13876303;4506.9082
  1.2207845E+00;  9.9999998E-03;  2.0014894E-01;2915;0.27649891;0.0;0.025915466;1002.1115;  4.0134007E-01;1507.4156;3;119.27818;0.0;4.2711649;0;0.095000096;  9.9939863E+03;  0.0000000E+00; -3.4777692E-01;  1.0000000E+04;  0.0000000E+00;  9.9813525E+03;-0.041156583;0.0;0.13615668;2603.4292
  1.2208092E+00;  9.9999998E-03;  2.2015373E-01;2916;0.27974325;0.0;0.026636725;1002.2764;  4.0133983E-01;1625.0425;3;134.52132;0.0;6.9539218;0;0.042118844;  9.9944951E+03;  0.0000000E+00;  2.9463789E+00;  1.0000000E+04;  0.0000000E+00;  9.9841270E+03;-0.059853207;0.0;0.10197205;4795.8442
  1.2406819E+00;  9.9999998E-03;  1.6011360E-01;2934;0.24989624;0.0;0.017932897;1002.1686;  4.0128213E-01;1491.2957;3;103.37988;0.0;1.2338926;0;0.038539186;  9.9964385E+03;  0.0000000E+00; -2.0158777E+00;  1.0000000E+04;  0.0000000E+00;  9.9829063E+03;-0.099117965;0.0;0.13765715;3058.2166
  1.2407235E+00;  9.9999998E-03;  1.8012850E-01;2935;0.25969937;0.0;0.021062996;1002.05;  4.0128234E-01;1409.6897;3;117.31815;0.0;3.3728895;0;0.074761994;  9.9943682E+03;  0.0000000E+00; -1.8191859E-02;  1.0000000E+04;  0.0000000E+00;  9.9826152E+03;-0.059895657;0.0;0.13465765;1958.479
  1.2606624E+00;  9.9999998E-03;  1.6010900E-01;2952;0.24157079;0.0;0.015840145;1002.0959;  4.0124139E-01;1380.8484;3;116.25464;0.0;2.2674088;0;0.031143025;  9.9958096E+03;  0.0000000E+00;  7.5602460E-01;  1.0000000E+04;  0.0000000E+00;  9.9841250E+03;-0.092727683;0.0;0.12387071;1646.2577
