Pos.x;Pos.y;Pos.z;Idp;Vel.x;Vel.y;Vel.z;Rhop;Mass;Press;Type;Acec.x;Acec.y;Acec.z;CellOffSpring;GradVel;Qfxx;Qfxy;Qfxz;Qfyy;Qfyz;Qfzz;StrainDot.x;StrainDot.y;StrainDot.z;VonMises3D
 -2.2000000E-01;  9.9999998E-03; -3.8000000E-01;0;0.0;0.0;0.0;1000.0;  4.0000001E-01;0.0;0;0.0;0.0;0.0;0;0.0;  1.0000000E+04;  0.0000000E+00;  0.0000000E+00;  1.0000000E+04;  0.0000000E+00;  1.0000000E+04;0.0;0.0;0.0;0.0
 -2.2000000E-01;  9.9999998E-03; -3.6000001E-01;1;0.0;0.0;0.0;1000.0;  4.0000001E-01;0.0;0;0.0;0.0;0.0;0;0.0;  1.0000000E+04;  0.0000000E+00;  0.0000000E+00;  1.0000000E+04;  0.0000000E+00;  1.0000000E+04;0.0;0.0;0.0;0.0
 -2.0000000E-01;  9.9999998E-03; -4.0000001E-01;39;0.0;0.0;0.0;1000.0;  4.0000001E-01;0.0;0;0.0;0.0;0.0;0;0.0;  1.0000000E+04;  0.0000000E+00;  0.0000000E+00;  1.0000000E+04;  0.0000000E+00;  1.0000000E+04;0.0;0.0;0.0;0.0
 -2.0000000E-01;  9.9999998E-03; -3.8000000E-01;40;0.0;0.0;0.0;1000.0;  4.0000001E-01;0.0;0;0.0;0.0;0.0;0;0.0;  1.0000000E+04;  0.0000000E+00;  0.0000000E+00;  1.0000000E+04;  0.0000000E+00;  1.0000000E+04;0.0;0.0;0.0;0.0
 -2.0000000E-01;  9.9999998E-03; -3.6000001E-01;41;0.0;0.0;0.0;1000.0;  4.0000001E-01;0.0;0;0.0;0.0;0.0;0;0.0;  1.0000000E+04;  0.0000000E+00;  0.0000000E+00;  1.0000000E+04;  0.0000000E+00;  1.0000000E+04;0.0;0.0;0.0;0.0
 -1.8000001E-01;  9.9999998E-03; -4.0000001E-01;80;0.0;0.0;0.0;1000.0;  4.0000001E-01;0.0;0;0.0;0.0;0.0;0;0.0;  1.0000000E+04;  0.0000000E+00;  0.0000000E+00;  1.0000000E+04;  0.0000000E+00;  1.0000000E+04;0.0;0.0;0.0;0.0
 -1.8000001E-01;  9.9999998E-03; -3.8000000E-01;81;0.0;0.0;0.0;1000.0;  4.0000001E-01;0.0;0;0.0;0.0;0.0;0;0.0;  1.0000000E+04;  0.0000000E+00;  0.0000000E+00;  1.0000000E+04;  0.0000000E+00;  1.0000000E+04;0.0;0.0;0.0;0.0
 -1.8000001E-01;  9.9999998E-03; -3.6000001E-01;82;0.0;0.0;0.0;1000.0;  4.0000001E-01;0.0;0;0.0;0.0;0.0;0;0.0;  1.0000000E+04;  0.0000000E+00;  0.0000000E+00;  1.0000000E+04;  0.0000000E+00;  1.0000000E+04;0.0;0.0;0.0;0.0
 -1.6000000E-01;  9.9999998E-03; -4.0000001E-01;121;0.0;0.0;0.0;1000.0;  4.0000001E-01;0.0;0;0.0;0.0;0.0;0;0.0;  1.0000000E+04;  0.0000000E+00;  0.0000000E+00;  1.0000000E+04;  0.0000000E+00;  1.0000000E+04;0.0;0.0;0.0;0.0
 -1.6000000E-01;  9.9999998E-03; -3.8000000E-01;122;0.0;0.0;0.0;1000.0;  4.0000001E-01;0.0;0;0.0;0.0;0.0;0;0.0;  1.0000000E+04;  0.0000000E+00;  0.0000000E+00;  1.0000000E+04;  0.0000000E+00;  1.0000000E+04;0.0;0.0;0.0;0.0
 -1.6000000E-01;  9.9999998E-03; -3.6000001E-01;123;0.0;0.0;0.0;1000.0;  4.0000001E-01;0.0;0;0.0;0.0;0.0;0;0.0;  1.0000000E+04;  0.0000000E+00;  0.0000000E+00;  1.0000000E+04;  0.0000000E+00;  1.0000000E+04;0.0;0.0;0.0;0.0
 -1.4000000E-01;  9.9999998E-03; -4.0000001E-01;162;0.0;0.0;0.0;1000.0;  4.0000001E-01;0.0;0;0.0;0.0;0.0;0;0.0;  1.0000000E+04;  0.0000000E+00;  0.0000000E+00;  1.0000000E+04;  0.0000000E+00;  1.0000000E+04;0.0;0.0;0.0;0.0
 -1.4000000E-01;  9.9999998E-03; -3.8000000E-01;163;0.0;0.0;0.0;1000.0;  4.0000001E-01;0.0;0;0.0;0.0;0.0;0;0.0;  1.0000000E+04;  0.0000000E+00;  0.0000000E+00;  1.0000000E+04;  0.0000000E+00;  1.0000000E+04;0.0;0.0;0.0;0.0
 -1.4000000E-01;  9.9999998E-03; -3.6000001E-01;164;0.0;0.0;0.0;1000.0;  4.0000001E-01;0.0;0;0.0;0.0;0.0;0;-8.8372059e-07;  1.0000000E+04;  0.0000000E+00;  0.0000000E+00;  1.0000000E+04;  0.0000000E+00;  1.0000000E+04;-6.9617698e-07;0.0;-1.8754359e-07;0.0023859802
 -1.2000000E-01;  9.9999998E-03; -4.0000001E-01;203;0.0;0.0;0.0;1000.0;  4.0000001E-01;0.0;0;0.0;0.0;0.0;0;-9.2714233e-18;  1.0000000E+04;  0.0000000E+00;  0.0000000E+00;  1.0000000E+04;  0.0000000E+00;  1.0000000E+04;-6.5142769e-18;0.0;-2.7571466e-18;8.5864501e-15
 -1.2000000E-01;  9.9999998E-03; -3.8000000E-01;204;0.0;0.0;0.0;1000.0;  4.0000001E-01;0.0;0;0.0;0.0;0.0;0;-4.6434889e-06;  1.0000000E+04;  0.0000000E+00;  0.0000000E+00;  1.0000000E+04;  0.0000000E+00;  1.0000000E+04;-3.276446e-06;0.0;-1.3670431e-06;0.017586581
 -1.2000000E-01;  9.9999998E-03; -3.6000001E-01;205;0.0;0.0;0.0;1000.0;  4.0000001E-01;0.0;0;0.0;0.0;0.0;0;-3.1312342e-05;  1.0000000E+04;  0.0000000E+00;  0.0000000E+00;  1.0000000E+04;  0.0000000E+00;  1.0000000E+04;-2.3602073e-05;0.0;-7.7102686e-06;0.098646112
 -1.0000000E-01;  9.9999998E-03; -4.0000001E-01;244;0.0;0.0;0.0;1000.0;  4.0000001E-01;0.0;0;0.0;0.0;0.0;0;-8.4808107e-06;  1.0000000E+04;  0.0000000E+00;  0.0000000E+00;  1.0000000E+04;  0.0000000E+00;  1.0000000E+04;-5.600351e-06;0.0;-2.8804602e-06;0.037312444
 -1.0000000E-01;  9.9999998E-03; -3.8000000E-01;245;0.0;0.0;0.0;1000.0;  4.0000001E-01;0.0;0;0.0;0.0;0.0;0;-6.1700543e-05;  1.0000000E+04;  0.0000000E+00;  0.0000000E+00;  1.0000000E+04;  0.0000000E+00;  1.0000000E+04;-4.1275085e-05;0.0;-2.0425459e-05;0.26434055
 -1.0000000E-01;  9.9999998E-03; -3.6000001E-01;246;0.0;0.0;0.0;1000.0002;  4.0000001E-01;0.19752525;0;0.0;0.0;0.0;0;-0.0001942183;  1.0000000E+04;  0.0000000E+00;  0.0000000E+00;  1.0000000E+04;  0.0000000E+00;  1.0000000E+04;-0.00014087031;0.0;-5.3347991e-05;0.68760401
 -7.9999998E-02;  9.9999998E-03; -4.0000001E-01;285;0.0;0.0;0.0;1000.0;  4.0000001E-01;0.0;0;0.0;0.0;0.0;0;-7.1222959e-05;  1.0000000E+04;  0.0000000E+00;  0.0000000E+00;  1.0000000E+04;  0.0000000E+00;  1.0000000E+04;-4.4457305e-05;0.0;-2.6765652e-05;0.34872872
 -7.9999998E-02;  9.9999998E-03; -3.8000000E-01;286;0.0;0.0;0.0;1000.0004;  4.0000001E-01;0.29628786;0;0.0;0.0;0.0;0;-0.00027029062;  1.0000000E+04;  0.0000000E+00;  0.0000000E+00;  1.0000000E+04;  0.0000000E+00;  1.0000000E+04;-0.00017294601;0.0;-9.7344622e-05;1.2686222
 -7.9999998E-02;  9.9999998E-03; -3.6000001E-01;287;0.0;0.0;0.0;1000.0009;  4.0000001E-01;0.69133836;0;0.0;0.0;0.0;0;-0.00064925011;  1.0000000E+04;  0.0000000E+00;  0.0000000E+00;  1.0000000E+04;  0.0000000E+00;  1.0000000E+04;-0.00045530373;0.0;-0.0001939464;2.5174539
 -5.9999999E-02;  9.9999998E-03; -4.0000001E-01;326;0.0;0.0;0.0;1000.0003;  4.0000001E-01;0.29628786;0;0.0;0.0;0.0;0;-0.00025289916;  1.0000000E+04;  0.0000000E+00;  0.0000000E+00;  1.0000000E+04;  0.0000000E+00;  1.0000000E+04;-0.00014997696;0.0;-0.00010292221;1.3508996
 -5.9999999E-02;  9.9999998E-03; -3.8000000E-01;327;0.0;0.0;0.0;1000.001;  4.0000001E-01;0.88886362;0;0.0;0.0;0.0;0;-0.00073830341;  1.0000000E+04;  0.0000000E+00;  0.0000000E+00;  1.0000000E+04;  0.0000000E+00;  1.0000000E+04;-0.00045235647;0.0;-0.00028594697;3.7566421
 -5.9999999E-02;  9.9999998E-03; -3.6000001E-01;328;0.0;0.0;0.0;1000.0023;  4.0000001E-01;1.8764899;0;0.0;0.0;0.0;0;-0.0015509247;  1.0000000E+04;  0.0000000E+00;  0.0000000E+00;  1.0000000E+04;  0.0000000E+00;  1.0000000E+04;-0.0010516408;0.0;-0.00049928389;6.5378952
 -3.9999999E-02;  9.9999998E-03; -4.0000001E-01;367;0.0;0.0;0.0;1000.0009;  4.0000001E-01;0.69133836;0;0.0;0.0;0.0;0;-0.00059518137;  1.0000000E+04;  0.0000000E+00;  0.0000000E+00;  1.0000000E+04;  0.0000000E+00;  1.0000000E+04;-0.00033423581;0.0;-0.00026094556;3.4563117
 -3.9999999E-02;  9.9999998E-03; -3.8000000E-01;368;0.0;0.0;0.0;1000.0022;  4.0000001E-01;1.7777272;0;0.0;0.0;0.0;0;-0.0015209297;  1.0000000E+04;  0.0000000E+00;  0.0000000E+00;  1.0000000E+04;  0.0000000E+00;  1.0000000E+04;-0.00088928634;0.0;-0.0006316434;8.3793116
 -3.9999999E-02;  9.9999998E-03; -3.6000001E-01;369;0.0;0.0;0.0;1000.0045;  4.0000001E-01;3.654217;0;0.0;0.0;0.0;0;-0.0029610461;  1.0000000E+04;  0.0000000E+00;  0.0000000E+00;  1.0000000E+04;  0.0000000E+00;  1.0000000E+04;-0.0019349932;0.0;-0.0010260527;13.576193
 -2.0000000E-02;  9.9999998E-03; -4.0000001E-01;408;0.0;0.0;0.0;1000.0015;  4.0000001E-01;1.2839141;0;0.0;0.0;0.0;0;-0.0010865282;  1.0000000E+04;  0.0000000E+00;  0.0000000E+00;  1.0000000E+04;  0.0000000E+00;  1.0000000E+04;-0.00057489378;0.0;-0.00051163434;6.8541083
 -2.0000000E-02;  9.9999998E-03; -3.8000000E-01;409;0.0;0.0;0.0;1000.0039;  4.0000001E-01;3.2591665;0;0.0;0.0;0.0;0;-0.0025800825;  1.0000000E+04;  0.0000000E+00;  0.0000000E+00;  1.0000000E+04;  0.0000000E+00;  1.0000000E+04;-0.0014342018;0.0;-0.0011458808;15.383693
 -2.0000000E-02;  9.9999998E-03; -3.6000001E-01;410;0.0;0.0;0.0;1000.0072;  4.0000001E-01;5.9257574;0;0.0;0.0;0.0;0;-0.004798674;  1.0000000E+04;  0.0000000E+00;  0.0000000E+00;  1.0000000E+04;  0.0000000E+00;  1.0000000E+04;-0.0030126674;0.0;-0.0017860065;23.929487
  0.0000000E+00;  9.9999998E-03; -4.0000001E-01;449;0.0;0.0;0.0;1000.0025;  4.0000001E-01;2.0740151;0;0.0;0.0;0.0;0;-0.0016627752;  1.0000000E+04;  0.0000000E+00;  0.0000000E+00;  1.0000000E+04;  0.0000000E+00;  1.0000000E+04;-0.00082677428;0.0;-0.00083600084;11.361248
  0.0000000E+00;  9.9999998E-03; -3.8000000E-01;450;0.0;0.0;0.0;1000.0057;  4.0000001E-01;4.7406058;0;0.0;0.0;0.0;0;-0.0037905048;  1.0000000E+04;  0.0000000E+00;  0.0000000E+00;  1.0000000E+04;  0.0000000E+00;  1.0000000E+04;-0.0020014232;0.0;-0.0017890816;24.379444
  0.0000000E+00;  9.9999998E-03; -3.6000001E-01;451;0.0;0.0;0.0;1000.0105;  4.0000001E-01;8.6911106;0;0.0;0.0;0.0;0;-0.0068528051;  1.0000000E+04;  0.0000000E+00;  0.0000000E+00;  1.0000000E+04;  0.0000000E+00;  1.0000000E+04;-0.0041314992;0.0;-0.0027213059;37.027279
  2.0000000E-02;  9.9999998E-03; -4.0000001E-01;461;0.0;0.0;0.0;1000.0034;  4.0000001E-01;2.7653534;0;0.0;0.0;0.0;0;-0.0022398797;  1.0000000E+04;  0.0000000E+00;  0.0000000E+00;  1.0000000E+04;  0.0000000E+00;  1.0000000E+04;-0.0010506515;0.0;-0.0011892283;16.459955
  2.0000000E-02;  9.9999998E-03; -3.8000000E-01;462;0.0;0.0;0.0;1000.0078;  4.0000001E-01;6.4195704;0;0.0;0.0;0.0;0;-0.0049975086;  1.0000000E+04;  0.0000000E+00;  0.0000000E+00;  1.0000000E+04;  0.0000000E+00;  1.0000000E+04;-0.002520215;0.0;-0.0024772936;34.399654
  2.0000000E-02;  9.9999998E-03; -3.6000001E-01;463;0.0;0.0;0.0;1000.0137;  4.0000001E-01;11.357701;0;0.0;0.0;0.0;0;-0.0088760704;  1.0000000E+04;  0.0000000E+00;  0.0000000E+00;  1.0000000E+04;  0.0000000E+00;  1.0000000E+04;-0.0051667523;0.0;-0.0037093179;51.455765
  3.9999999E-02;  9.9999998E-03; -4.0000001E-01;471;0.0;0.0;0.0;1000.0043;  4.0000001E-01;3.5554545;0;0.0;0.0;0.0;0;-0.0027599777;  1.0000000E+04;  0.0000000E+00;  0.0000000E+00;  1.0000000E+04;  0.0000000E+00;  1.0000000E+04;-0.0012392291;0.0;-0.0015207486;21.54393
  3.9999999E-02;  9.9999998E-03; -3.8000000E-01;472;0.0;0.0;0.0;1000.0096;  4.0000001E-01;7.90101;0;0.0;0.0;0.0;0;-0.0060991333;  1.0000000E+04;  0.0000000E+00;  0.0000000E+00;  1.0000000E+04;  0.0000000E+00;  1.0000000E+04;-0.0029815044;0.0;-0.0031176289;44.335835
  3.9999999E-02;  9.9999998E-03; -3.6000001E-01;473;0.0;0.0;0.0;1000.017;  4.0000001E-01;14.123055;0;0.0;0.0;0.0;0;-0.010722142;  1.0000000E+04;  0.0000000E+00;  0.0000000E+00;  1.0000000E+04;  0.0000000E+00;  1.0000000E+04;-0.0061086458;0.0;-0.0046134964;65.580437
  5.9999999E-02;  9.9999998E-03; -4.0000001E-01;481;0.0;0.0;0.0;1000.0052;  4.0000001E-01;4.3455553;0;0.0;0.0;0.0;0;-0.0032241126;  1.0000000E+04;  0.0000000E+00;  0.0000000E+00;  1.0000000E+04;  0.0000000E+00;  1.0000000E+04;-0.001425489;0.0;-0.0017986237;26.229506
  5.9999999E-02;  9.9999998E-03; -3.8000000E-01;482;0.0;0.0;0.0;1000.0115;  4.0000001E-01;9.4812117;0;0.0;0.0;0.0;0;-0.0071039367;  1.0000000E+04;  0.0000000E+00;  0.0000000E+00;  1.0000000E+04;  0.0000000E+00;  1.0000000E+04;-0.00345205;0.0;-0.0036518867;53.499714
  5.9999999E-02;  9.9999998E-03; -3.6000001E-01;483;0.0;0.0;0.0;1000.0201;  4.0000001E-01;16.690884;0;0.0;0.0;0.0;0;-0.012431633;  1.0000000E+04;  0.0000000E+00;  0.0000000E+00;  1.0000000E+04;  0.0000000E+00;  1.0000000E+04;-0.0070795515;0.0;-0.0053520813;78.43515
  7.9999998E-02;  9.9999998E-03; -4.0000001E-01;491;0.0;0.0;0.0;1000.0061;  4.0000001E-01;5.0368938;0;0.0;0.0;0.0;0;-0.0036993069;  1.0000000E+04;  0.0000000E+00;  0.0000000E+00;  1.0000000E+04;  0.0000000E+00;  1.0000000E+04;-0.0016777155;0.0;-0.0020215914;30.548161
  7.9999998E-02;  9.9999998E-03; -3.8000000E-01;492;0.0;0.0;0.0;1000.0135;  4.0000001E-01;11.258939;0;0.0;0.0;0.0;0;-0.0081534926;  1.0000000E+04;  0.0000000E+00;  0.0000000E+00;  1.0000000E+04;  0.0000000E+00;  1.0000000E+04;-0.0040756813;0.0;-0.0040778113;61.928665
  7.9999998E-02;  9.9999998E-03; -3.6000001E-01;493;0.0;0.0;0.0;1000.0239;  4.0000001E-01;19.752525;0;0.0;0.0;0.0;0;-0.014271178;  1.0000000E+04;  0.0000000E+00;  0.0000000E+00;  1.0000000E+04;  0.0000000E+00;  1.0000000E+04;-0.0083415993;0.0;-0.005929579;90.342102
  1.0000000E-01;  9.9999998E-03; -4.0000001E-01;501;0.0;0.0;0.0;1000.0076;  4.0000001E-01;6.2220454;0;0.0;0.0;0.0;0;-0.0043149125;  1.0000000E+04;  0.0000000E+00;  0.0000000E+00;  1.0000000E+04;  0.0000000E+00;  1.0000000E+04;-0.0020975703;0.0;-0.0022173419;36.672886
  1.0000000E-01;  9.9999998E-03; -3.8000000E-01;502;0.0;0.0;0.0;1000.0164;  4.0000001E-01;13.530479;0;0.0;0.0;0.0;0;-0.0095189353;  1.0000000E+04;  0.0000000E+00;  0.0000000E+00;  1.0000000E+04;  0.0000000E+00;  1.0000000E+04;-0.0050694323;0.0;-0.004449503;70.47377
  1.0000000E-01;  9.9999998E-03; -3.6000001E-01;503;0.0;0.0;0.0;1000.0287;  4.0000001E-01;23.801792;0;0.0;0.0;0.0;0;-0.01671958;  1.0000000E+04;  0.0000000E+00;  0.0000000E+00;  1.0000000E+04;  0.0000000E+00;  1.0000000E+04;-0.010284591;0.0;-0.0064349873;103.98637
  1.2000000E-01;  9.9999998E-03; -4.0000001E-01;511;0.0;0.0;0.0;1000.0094;  4.0000001E-01;7.8022475;0;0.0;0.0;0.0;0;-0.0052696341;  1.0000000E+04;  0.0000000E+00;  0.0000000E+00;  1.0000000E+04;  0.0000000E+00;  1.0000000E+04;-0.0028252234;0.0;-0.0024444107;67.475883
  1.2000000E-01;  9.9999998E-03; -3.8000000E-01;512;0.0;0.0;0.0;1000.0206;  4.0000001E-01;17.085934;0;0.0;0.0;0.0;0;-0.01160989;  1.0000000E+04;  0.0000000E+00;  0.0000000E+00;  1.0000000E+04;  0.0000000E+00;  1.0000000E+04;-0.006720467;0.0;-0.0048894226;88.123657
  1.2000000E-01;  9.9999998E-03; -3.6000001E-01;513;0.0;0.0;0.0;1000.0362;  4.0000001E-01;30.023838;0;0.0;0.0;0.0;0;-0.020462789;  1.0000000E+04;  0.0000000E+00;  0.0000000E+00;  1.0000000E+04;  0.0000000E+00;  1.0000000E+04;-0.013406393;0.0;-0.0070563965;126.77867
  1.4000000E-01;  9.9999998E-03; -4.0000001E-01;521;0.0;0.0;0.0;1000.0125;  4.0000001E-01;10.370075;0;0.0;0.0;0.0;0;-0.0068978174;  1.0000000E+04;  0.0000000E+00;  0.0000000E+00;  1.0000000E+04;  0.0000000E+00;  1.0000000E+04;-0.0040624877;0.0;-0.0028353299;194.97234
  1.4000000E-01;  9.9999998E-03; -3.8000000E-01;522;0.0;0.0;0.0;1000.0275;  4.0000001E-01;22.814167;0;0.0;0.0;0.0;0;-0.01504093;  1.0000000E+04;  0.0000000E+00;  0.0000000E+00;  1.0000000E+04;  0.0000000E+00;  1.0000000E+04;-0.0094027482;0.0;-0.0056381822;175.02975
  1.4000000E-01;  9.9999998E-03; -3.6000001E-01;523;0.0;0.0;0.0;1000.0483;  4.0000001E-01;39.998863;0;0.0;0.0;0.0;0;-0.026429888;  1.0000000E+04;  0.0000000E+00;  0.0000000E+00;  1.0000000E+04;  0.0000000E+00;  1.0000000E+04;-0.018306492;0.0;-0.008123395;170.44612
  1.6000000E-01;  9.9999998E-03; -4.0000001E-01;531;0.0;0.0;0.0;1000.0182;  4.0000001E-01;15.110682;0;0.0;0.0;0.0;0;-0.0097515387;  1.0000000E+04;  0.0000000E+00;  0.0000000E+00;  1.0000000E+04;  0.0000000E+00;  1.0000000E+04;-0.0060586082;0.0;-0.0036929303;550.77374
  1.6000000E-01;  9.9999998E-03; -3.8000000E-01;532;0.0;0.0;0.0;1000.0386;  4.0000001E-01;31.99909;0;0.0;0.0;0.0;0;-0.020577561;  1.0000000E+04;  0.0000000E+00;  0.0000000E+00;  1.0000000E+04;  0.0000000E+00;  1.0000000E+04;-0.013439965;0.0;-0.0071375971;460.96704
  1.6000000E-01;  9.9999998E-03; -3.6000001E-01;533;0.0;0.0;0.0;1000.0666;  4.0000001E-01;55.208305;0;0.0;0.0;0.0;0;-0.035566445;  1.0000000E+04;  0.0000000E+00;  0.0000000E+00;  1.0000000E+04;  0.0000000E+00;  1.0000000E+04;-0.025394574;0.0;-0.010171873;236.73233
  1.8000001E-01;  9.9999998E-03; -4.0000001E-01;541;0.0;0.0;0.0;1000.0279;  4.0000001E-01;23.110455;0;0.0;0.0;0.0;0;-0.014588585;  1.0000000E+04;  0.0000000E+00;  0.0000000E+00;  1.0000000E+04;  0.0000000E+00;  1.0000000E+04;-0.0089173475;0.0;-0.0056712381;1346.6656
  1.8000001E-01;  9.9999998E-03; -3.8000000E-01;542;0.0;0.0;0.0;1000.0553;  4.0000001E-01;45.825859;0;0.0;0.0;0.0;0;-0.028740142;  1.0000000E+04;  0.0000000E+00;  0.0000000E+00;  1.0000000E+04;  0.0000000E+00;  1.0000000E+04;-0.018586144;0.0;-0.010153998;1090.7864
  1.8000001E-01;  9.9999998E-03; -3.6000001E-01;543;0.0;0.0;0.0;1000.0922;  4.0000001E-01;76.343506;0;0.0;0.0;0.0;0;-0.048062071;  1.0000000E+04;  0.0000000E+00;  0.0000000E+00;  1.0000000E+04;  0.0000000E+00;  1.0000000E+04;-0.034034062;0.0;-0.014028008;299.62997
  2.0000000E-01;  9.9999998E-03; -3.8000000E-01;551;0.0;0.0;0.0;1000.0784;  4.0000001E-01;64.985809;0;0.0;0.0;0.0;0;-0.039734777;  1.0000000E+04;  0.0000000E+00;  0.0000000E+00;  1.0000000E+04;  0.0000000E+00;  1.0000000E+04;-0.023864495;0.0;-0.015870282;2100.7637
  2.0000000E-01;  9.9999998E-03; -3.6000001E-01;552;0.0;0.0;0.0;1000.1245;  4.0000001E-01;103.10818;0;0.0;0.0;0.0;0;-0.063319229;  1.0000000E+04;  0.0000000E+00;  0.0000000E+00;  1.0000000E+04;  0.0000000E+00;  1.0000000E+04;-0.042479951;0.0;-0.020839276;390.81805
 -2.2000000E-01;  9.9999998E-03; -3.4000000E-01;2;0.0;0.0;0.0;1000.0;  4.0000001E-01;0.0;0;0.0;0.0;0.0;0;0.0;  1.0000000E+04;  0.0000000E+00;  0.0000000E+00;  1.0000000E+04;  0.0000000E+00;  1.0000000E+04;0.0;0.0;0.0;0.0
 -2.2000000E-01;  9.9999998E-03; -3.1999999E-01;3;0.0;0.0;0.0;1000.0;  4.0000001E-01;0.0;0;0.0;0.0;0.0;0;0.0;  1.0000000E+04;  0.0000000E+00;  0.0000000E+00;  1.0000000E+04;  0.0000000E+00;  1.0000000E+04;0.0;0.0;0.0;0.0
 -2.2000000E-01;  9.9999998E-03; -3.0000001E-01;4;0.0;0.0;0.0;1000.0;  4.0000001E-01;0.0;0;0.0;0.0;0.0;0;0.0;  1.0000000E+04;  0.0000000E+00;  0.0000000E+00;  1.0000000E+04;  0.0000000E+00;  1.0000000E+04;0.0;0.0;0.0;0.0
 -2.2000000E-01;  9.9999998E-03; -2.8000000E-01;5;0.0;0.0;0.0;1000.0;  4.0000001E-01;0.0;0;0.0;0.0;0.0;0;0.0;  1.0000000E+04;  0.0000000E+00;  0.0000000E+00;  1.0000000E+04;  0.0000000E+00;  1.0000000E+04;0.0;0.0;0.0;0.0
 -2.2000000E-01;  9.9999998E-03; -2.5999999E-01;6;0.0;0.0;0.0;1000.0;  4.0000001E-01;0.0;0;0.0;0.0;0.0;0;0.0;  1.0000000E+04;  0.0000000E+00;  0.0000000E+00;  1.0000000E+04;  0.0000000E+00;  1.0000000E+04;0.0;0.0;0.0;0.0
 -2.2000000E-01;  9.9999998E-03; -2.3999999E-01;7;0.0;0.0;0.0;1000.0;  4.0000001E-01;0.0;0;0.0;0.0;0.0;0;0.0;  1.0000000E+04;  0.0000000E+00;  0.0000000E+00;  1.0000000E+04;  0.0000000E+00;  1.0000000E+04;0.0;0.0;0.0;0.0
 -2.2000000E-01;  9.9999998E-03; -2.2000000E-01;8;0.0;0.0;0.0;1000.0;  4.0000001E-01;0.0;0;0.0;0.0;0.0;0;0.0;  1.0000000E+04;  0.0000000E+00;  0.0000000E+00;  1.0000000E+04;  0.0000000E+00;  1.0000000E+04;0.0;0.0;0.0;0.0
 -2.2000000E-01;  9.9999998E-03; -2.0000000E-01;9;0.0;0.0;0.0;1000.0;  4.0000001E-01;0.0;0;0.0;0.0;0.0;0;0.0;  1.0000000E+04;  0.0000000E+00;  0.0000000E+00;  1.0000000E+04;  0.0000000E+00;  1.0000000E+04;0.0;0.0;0.0;0.0
 -2.0000000E-01;  9.9999998E-03; -3.4000000E-01;42;0.0;0.0;0.0;1000.0;  4.0000001E-01;0.0;0;0.0;0.0;0.0;0;0.0;  1.0000000E+04;  0.0000000E+00;  0.0000000E+00;  1.0000000E+04;  0.0000000E+00;  1.0000000E+04;0.0;0.0;0.0;0.0
 -2.0000000E-01;  9.9999998E-03; -3.1999999E-01;43;0.0;0.0;0.0;1000.0;  4.0000001E-01;0.0;0;0.0;0.0;0.0;0;0.0;  1.0000000E+04;  0.0000000E+00;  0.0000000E+00;  1.0000000E+04;  0.0000000E+00;  1.0000000E+04;0.0;0.0;0.0;0.0
 -2.0000000E-01;  9.9999998E-03; -3.0000001E-01;44;0.0;0.0;0.0;1000.0;  4.0000001E-01;0.0;0;0.0;0.0;0.0;0;0.0;  1.0000000E+04;  0.0000000E+00;  0.0000000E+00;  1.0000000E+04;  0.0000000E+00;  1.0000000E+04;0.0;0.0;0.0;0.0
 -2.0000000E-01;  9.9999998E-03; -2.8000000E-01;45;0.0;0.0;0.0;1000.0;  4.0000001E-01;0.0;0;0.0;0.0;0.0;0;0.0;  1.0000000E+04;  0.0000000E+00;  0.0000000E+00;  1.0000000E+04;  0.0000000E+00;  1.0000000E+04;0.0;0.0;0.0;0.0
 -2.0000000E-01;  9.9999998E-03; -2.5999999E-01;46;0.0;0.0;0.0;1000.0;  4.0000001E-01;0.0;0;0.0;0.0;0.0;0;0.0;  1.0000000E+04;  0.0000000E+00;  0.0000000E+00;  1.0000000E+04;  0.0000000E+00;  1.0000000E+04;0.0;0.0;0.0;0.0
 -2.0000000E-01;  9.9999998E-03; -2.3999999E-01;47;0.0;0.0;0.0;1000.0;  4.0000001E-01;0.0;0;0.0;0.0;0.0;0;0.0;  1.0000000E+04;  0.0000000E+00;  0.0000000E+00;  1.0000000E+04;  0.0000000E+00;  1.0000000E+04;0.0;0.0;0.0;0.0
 -2.0000000E-01;  9.9999998E-03; -2.2000000E-01;48;0.0;0.0;0.0;1000.0;  4.0000001E-01;0.0;0;0.0;0.0;0.0;0;0.0;  1.0000000E+04;  0.0000000E+00;  0.0000000E+00;  1.0000000E+04;  0.0000000E+00;  1.0000000E+04;0.0;0.0;0.0;0.0
 -2.0000000E-01;  9.9999998E-03; -2.0000000E-01;49;0.0;0.0;0.0;1000.0;  4.0000001E-01;0.0;0;0.0;0.0;0.0;0;0.0;  1.0000000E+04;  0.0000000E+00;  0.0000000E+00;  1.0000000E+04;  0.0000000E+00;  1.0000000E+04;0.0;0.0;0.0;0.0
 -1.8000001E-01;  9.9999998E-03; -3.4000000E-01;83;0.0;0.0;0.0;1000.0;  4.0000001E-01;0.0;0;0.0;0.0;0.0;0;0.0;  1.0000000E+04;  0.0000000E+00;  0.0000000E+00;  1.0000000E+04;  0.0000000E+00;  1.0000000E+04;0.0;0.0;0.0;0.0
 -1.8000001E-01;  9.9999998E-03; -3.1999999E-01;84;0.0;0.0;0.0;1000.0;  4.0000001E-01;0.0;0;0.0;0.0;0.0;0;0.0;  1.0000000E+04;  0.0000000E+00;  0.0000000E+00;  1.0000000E+04;  0.0000000E+00;  1.0000000E+04;0.0;0.0;0.0;0.0
 -1.8000001E-01;  9.9999998E-03; -3.0000001E-01;85;0.0;0.0;0.0;1000.0;  4.0000001E-01;0.0;0;0.0;0.0;0.0;0;0.0;  1.0000000E+04;  0.0000000E+00;  0.0000000E+00;  1.0000000E+04;  0.0000000E+00;  1.0000000E+04;0.0;0.0;0.0;0.0
 -1.8000001E-01;  9.9999998E-03; -2.8000000E-01;86;0.0;0.0;0.0;1000.0;  4.0000001E-01;0.0;0;0.0;0.0;0.0;0;0.0;  1.0000000E+04;  0.0000000E+00;  0.0000000E+00;  1.0000000E+04;  0.0000000E+00;  1.0000000E+04;0.0;0.0;0.0;0.0
 -1.8000001E-01;  9.9999998E-03; -2.5999999E-01;87;0.0;0.0;0.0;1000.0;  4.0000001E-01;0.0;0;0.0;0.0;0.0;0;0.0;  1.0000000E+04;  0.0000000E+00;  0.0000000E+00;  1.0000000E+04;  0.0000000E+00;  1.0000000E+04;0.0;0.0;0.0;0.0
 -1.8000001E-01;  9.9999998E-03; -2.3999999E-01;88;0.0;0.0;0.0;1000.0;  4.0000001E-01;0.0;0;0.0;0.0;0.0;0;0.0;  1.0000000E+04;  0.0000000E+00;  0.0000000E+00;  1.0000000E+04;  0.0000000E+00;  1.0000000E+04;0.0;0.0;0.0;0.0
 -1.8000001E-01;  9.9999998E-03; -2.2000000E-01;89;0.0;0.0;0.0;1000.0;  4.0000001E-01;0.0;0;0.0;0.0;0.0;0;0.0;  1.0000000E+04;  0.0000000E+00;  0.0000000E+00;  1.0000000E+04;  0.0000000E+00;  1.0000000E+04;0.0;0.0;0.0;0.0
 -1.8000001E-01;  9.9999998E-03; -2.0000000E-01;90;0.0;0.0;0.0;1000.0;  4.0000001E-01;0.0;0;0.0;0.0;0.0;0;0.0;  1.0000000E+04;  0.0000000E+00;  0.0000000E+00;  1.0000000E+04;  0.0000000E+00;  1.0000000E+04;0.0;0.0;0.0;0.0
 -1.6000000E-01;  9.9999998E-03; -3.4000000E-01;124;0.0;0.0;0.0;1000.0;  4.0000001E-01;0.0;0;0.0;0.0;0.0;0;0.0;  1.0000000E+04;  0.0000000E+00;  0.0000000E+00;  1.0000000E+04;  0.0000000E+00;  1.0000000E+04;0.0;0.0;0.0;0.0
 -1.6000000E-01;  9.9999998E-03; -3.1999999E-01;125;0.0;0.0;0.0;1000.0;  4.0000001E-01;0.0;0;0.0;0.0;0.0;0;-1.5818813e-07;  1.0000000E+04;  0.0000000E+00;  0.0000000E+00;  1.0000000E+04;  0.0000000E+00;  1.0000000E+04;-1.4546947e-07;0.0;-1.2718664e-08;0.00015168902
 -1.6000000E-01;  9.9999998E-03; -3.0000001E-01;126;0.0;0.0;0.0;1000.0;  4.0000001E-01;0.0;0;0.0;0.0;0.0;0;-1.0053141e-06;  1.0000000E+04;  0.0000000E+00;  0.0000000E+00;  1.0000000E+04;  0.0000000E+00;  1.0000000E+04;-9.6237773e-07;0.0;-4.29363e-08;0.00047199501
 -1.6000000E-01;  9.9999998E-03; -2.8000000E-01;127;0.0;0.0;0.0;1000.0;  4.0000001E-01;0.0;0;0.0;0.0;0.0;0;-2.3744401e-06;  1.0000000E+04;  0.0000000E+00;  0.0000000E+00;  1.0000000E+04;  0.0000000E+00;  1.0000000E+04;-2.3357763e-06;0.0;-3.8663696e-08;0.00026670741
 -1.6000000E-01;  9.9999998E-03; -2.5999999E-01;128;0.0;0.0;0.0;1000.0;  4.0000001E-01;0.0;0;0.0;0.0;0.0;0;-3.5428254e-06;  1.0000000E+04;  0.0000000E+00;  0.0000000E+00;  1.0000000E+04;  0.0000000E+00;  1.0000000E+04;-3.5388532e-06;0.0;-3.9721204e-09;0.00034465338
 -1.6000000E-01;  9.9999998E-03; -2.3999999E-01;129;0.0;0.0;0.0;1000.0;  4.0000001E-01;0.0;0;0.0;0.0;0.0;0;-4.1885978e-06;  1.0000000E+04;  0.0000000E+00;  0.0000000E+00;  1.0000000E+04;  0.0000000E+00;  1.0000000E+04;-4.1992243e-06;0.0;1.0626588e-08;0.00060770649
 -1.6000000E-01;  9.9999998E-03; -2.2000000E-01;130;0.0;0.0;0.0;1000.0;  4.0000001E-01;0.0;0;0.0;0.0;0.0;0;-4.6292926e-06;  1.0000000E+04;  0.0000000E+00;  0.0000000E+00;  1.0000000E+04;  0.0000000E+00;  1.0000000E+04;-4.6418018e-06;0.0;1.2509265e-08;0.00068077788
 -1.6000000E-01;  9.9999998E-03; -2.0000000E-01;131;0.0;0.0;0.0;1000.0;  4.0000001E-01;0.0;0;0.0;0.0;0.0;0;-4.9608248e-06;  1.0000000E+04;  0.0000000E+00;  0.0000000E+00;  1.0000000E+04;  0.0000000E+00;  1.0000000E+04;-4.9735731e-06;0.0;1.2748524e-08;0.00072062097
 -1.4000000E-01;  9.9999998E-03; -3.4000000E-01;165;0.0;0.0;0.0;1000.0;  4.0000001E-01;0.0;0;0.0;0.0;0.0;0;-7.6001434e-06;  1.0000000E+04;  0.0000000E+00;  0.0000000E+00;  1.0000000E+04;  0.0000000E+00;  1.0000000E+04;-6.413537e-06;0.0;-1.1866061e-06;0.014872346
 -1.4000000E-01;  9.9999998E-03; -3.1999999E-01;166;0.0;0.0;0.0;1000.0;  4.0000001E-01;0.0;0;0.0;0.0;0.0;0;-2.4657391e-05;  1.0000000E+04;  0.0000000E+00;  0.0000000E+00;  1.0000000E+04;  0.0000000E+00;  1.0000000E+04;-2.2092428e-05;0.0;-2.5649617e-06;0.031516902
 -1.4000000E-01;  9.9999998E-03; -3.0000001E-01;167;0.0;0.0;0.0;1000.0;  4.0000001E-01;0.0;0;0.0;0.0;0.0;0;-5.2449104e-05;  1.0000000E+04;  0.0000000E+00;  0.0000000E+00;  1.0000000E+04;  0.0000000E+00;  1.0000000E+04;-4.9134909e-05;0.0;-3.3141964e-06;0.038233582
 -1.4000000E-01;  9.9999998E-03; -2.8000000E-01;168;0.0;0.0;0.0;1000.0;  4.0000001E-01;0.0;0;0.0;0.0;0.0;0;-8.6619104e-05;  1.0000000E+04;  0.0000000E+00;  0.0000000E+00;  1.0000000E+04;  0.0000000E+00;  1.0000000E+04;-8.3768005e-05;0.0;-2.8510963e-06;0.027965123
 -1.4000000E-01;  9.9999998E-03; -2.5999999E-01;169;0.0;0.0;0.0;1000.0001;  4.0000001E-01;0.098762624;0;0.0;0.0;0.0;0;-0.00012015709;  1.0000000E+04;  0.0000000E+00;  0.0000000E+00;  1.0000000E+04;  0.0000000E+00;  1.0000000E+04;-0.00011880156;0.0;-1.3555314e-06;0.00440539
 -1.4000000E-01;  9.9999998E-03; -2.3999999E-01;170;0.0;0.0;0.0;1000.0001;  4.0000001E-01;0.098762624;0;0.0;0.0;0.0;0;-0.00014735591;  1.0000000E+04;  0.0000000E+00;  0.0000000E+00;  1.0000000E+04;  0.0000000E+00;  1.0000000E+04;-0.00014769749;0.0;3.4157759e-07;0.021010475
 -1.4000000E-01;  9.9999998E-03; -2.2000000E-01;171;0.0;0.0;0.0;1000.0002;  4.0000001E-01;0.19752525;0;0.0;0.0;0.0;0;-0.00016639785;  1.0000000E+04;  0.0000000E+00;  0.0000000E+00;  1.0000000E+04;  0.0000000E+00;  1.0000000E+04;-0.00016773096;0.0;1.3331158e-06;0.036200266
 -1.4000000E-01;  9.9999998E-03; -2.0000000E-01;172;0.0;0.0;0.0;1000.0002;  4.0000001E-01;0.19752525;0;0.0;0.0;0.0;0;-0.00017918585;  1.0000000E+04;  0.0000000E+00;  0.0000000E+00;  1.0000000E+04;  0.0000000E+00;  1.0000000E+04;-0.00018070638;0.0;1.5205258e-06;0.040083949
 -1.2000000E-01;  9.9999998E-03; -3.4000000E-01;206;0.0;0.0;0.0;1000.0;  4.0000001E-01;0.0;0;0.0;0.0;0.0;0;-9.3633884e-05;  1.0000000E+04;  0.0000000E+00;  0.0000000E+00;  1.0000000E+04;  0.0000000E+00;  1.0000000E+04;-7.6710043e-05;0.0;-1.6923841e-05;0.21453725
 -1.2000000E-01;  9.9999998E-03; -3.1999999E-01;207;0.0;0.0;0.0;1000.0002;  4.0000001E-01;0.19752525;0;0.0;0.0;0.0;0;-0.00019800116;  1.0000000E+04;  0.0000000E+00;  0.0000000E+00;  1.0000000E+04;  0.0000000E+00;  1.0000000E+04;-0.00017394288;0.0;-2.4058272e-05;0.29735962
 -1.2000000E-01;  9.9999998E-03; -3.0000001E-01;208;0.0;0.0;0.0;1000.0004;  4.0000001E-01;0.3950505;0;0.0;0.0;0.0;0;-0.00034061444;  1.0000000E+04;  0.0000000E+00;  0.0000000E+00;  1.0000000E+04;  0.0000000E+00;  1.0000000E+04;-0.0003149265;0.0;-2.5687945e-05;0.30180988
 -1.2000000E-01;  9.9999998E-03; -2.8000000E-01;209;0.0;0.0;0.0;1000.0007;  4.0000001E-01;0.59257573;0;0.0;0.0;0.0;0;-0.0005045663;  1.0000000E+04;  0.0000000E+00;  0.0000000E+00;  1.0000000E+04;  0.0000000E+00;  1.0000000E+04;-0.00048384038;0.0;-2.0725915e-05;0.21707202
 -1.2000000E-01;  9.9999998E-03; -2.5999999E-01;210;0.0;0.0;0.0;1000.0009;  4.0000001E-01;0.69133836;0;0.0;0.0;0.0;0;-0.00066509651;  1.0000000E+04;  0.0000000E+00;  0.0000000E+00;  1.0000000E+04;  0.0000000E+00;  1.0000000E+04;-0.00065447309;0.0;-1.0623417e-05;0.065203272
 -1.2000000E-01;  9.9999998E-03; -2.3999999E-01;211;0.0;0.0;0.0;1000.0011;  4.0000001E-01;0.88886362;0;0.0;0.0;0.0;0;-0.00080186303;  1.0000000E+04;  0.0000000E+00;  0.0000000E+00;  1.0000000E+04;  0.0000000E+00;  1.0000000E+04;-0.0008026585;0.0;7.9549113e-07;0.10114185
 -1.2000000E-01;  9.9999998E-03; -2.2000000E-01;212;0.0;0.0;0.0;1000.0012;  4.0000001E-01;0.98762625;0;0.0;0.0;0.0;0;-0.00090692763;  1.0000000E+04;  0.0000000E+00;  0.0000000E+00;  1.0000000E+04;  0.0000000E+00;  1.0000000E+04;-0.00091629464;0.0;9.366986e-06;0.22606087
 -1.2000000E-01;  9.9999998E-03; -2.0000000E-01;213;0.0;0.0;0.0;1000.0014;  4.0000001E-01;1.1851515;0;0.0;0.0;0.0;0;-0.00098251284;  1.0000000E+04;  0.0000000E+00;  0.0000000E+00;  1.0000000E+04;  0.0000000E+00;  1.0000000E+04;-0.00099587103;0.0;1.335825e-05;0.28706324
 -1.0000000E-01;  9.9999998E-03; -3.4000000E-01;247;0.0;0.0;0.0;1000.0006;  4.0000001E-01;0.49381313;0;0.0;0.0;0.0;0;-0.00042449209;  1.0000000E+04;  0.0000000E+00;  0.0000000E+00;  1.0000000E+04;  0.0000000E+00;  1.0000000E+04;-0.0003387114;0.0;-8.5780681e-05;1.0932002
 -1.0000000E-01;  9.9999998E-03; -3.1999999E-01;248;0.0;0.0;0.0;1000.001;  4.0000001E-01;0.88886362;0;0.0;0.0;0.0;0;-0.00076201506;  1.0000000E+04;  0.0000000E+00;  0.0000000E+00;  1.0000000E+04;  0.0000000E+00;  1.0000000E+04;-0.00065781269;0.0;-0.00010420237;1.2989795
 -1.0000000E-01;  9.9999998E-03; -3.0000001E-01;249;0.0;0.0;0.0;1000.0016;  4.0000001E-01;1.3826767;0;0.0;0.0;0.0;0;-0.0011948926;  1.0000000E+04;  0.0000000E+00;  0.0000000E+00;  1.0000000E+04;  0.0000000E+00;  1.0000000E+04;-0.0010924471;0.0;-0.00010244545;1.2251661
 -1.0000000E-01;  9.9999998E-03; -2.8000000E-01;250;0.0;0.0;0.0;1000.0024;  4.0000001E-01;1.9752525;0;0.0;0.0;0.0;0;-0.0016781028;  1.0000000E+04;  0.0000000E+00;  0.0000000E+00;  1.0000000E+04;  0.0000000E+00;  1.0000000E+04;-0.0015985705;0.0;-7.9532227e-05;0.86445326
 -1.0000000E-01;  9.9999998E-03; -2.5999999E-01;251;0.0;0.0;0.0;1000.0032;  4.0000001E-01;2.6665909;0;0.0;0.0;0.0;0;-0.0021473244;  1.0000000E+04;  0.0000000E+00;  0.0000000E+00;  1.0000000E+04;  0.0000000E+00;  1.0000000E+04;-0.0021067704;0.0;-4.0553889e-05;0.29238921
 -1.0000000E-01;  9.9999998E-03; -2.3999999E-01;252;0.0;0.0;0.0;1000.0038;  4.0000001E-01;3.160404;0;0.0;0.0;0.0;0;-0.0025519622;  1.0000000E+04;  0.0000000E+00;  0.0000000E+00;  1.0000000E+04;  0.0000000E+00;  1.0000000E+04;-0.0025544697;0.0;2.5076406e-06;0.32530239
 -1.0000000E-01;  9.9999998E-03; -2.2000000E-01;253;0.0;0.0;0.0;1000.0042;  4.0000001E-01;3.4566917;0;0.0;0.0;0.0;0;-0.0028724223;  1.0000000E+04;  0.0000000E+00;  0.0000000E+00;  1.0000000E+04;  0.0000000E+00;  1.0000000E+04;-0.0029087742;0.0;3.6351896e-05;0.80972397
 -1.0000000E-01;  9.9999998E-03; -2.0000000E-01;254;0.0;0.0;0.0;1000.0046;  4.0000001E-01;3.8517423;0;0.0;0.0;0.0;0;-0.0031122025;  1.0000000E+04;  0.0000000E+00;  0.0000000E+00;  1.0000000E+04;  0.0000000E+00;  1.0000000E+04;-0.0031669771;0.0;5.4774657e-05;1.0796626
 -7.9999998E-02;  9.9999998E-03; -3.4000000E-01;288;0.0;0.0;0.0;1000.0018;  4.0000001E-01;1.4814394;0;0.0;0.0;0.0;0;-0.0012311328;  1.0000000E+04;  0.0000000E+00;  0.0000000E+00;  1.0000000E+04;  0.0000000E+00;  1.0000000E+04;-0.00095944491;0.0;-0.00027168781;3.4911127
 -7.9999998E-02;  9.9999998E-03; -3.1999999E-01;289;0.0;0.0;0.0;1000.003;  4.0000001E-01;2.4690657;0;0.0;0.0;0.0;0;-0.0020353326;  1.0000000E+04;  0.0000000E+00;  0.0000000E+00;  1.0000000E+04;  0.0000000E+00;  1.0000000E+04;-0.0017295879;0.0;-0.0003057447;3.8534114
 -7.9999998E-02;  9.9999998E-03; -3.0000001E-01;290;0.0;0.0;0.0;1000.0045;  4.0000001E-01;3.7529798;0;0.0;0.0;0.0;0;-0.0030357679;  1.0000000E+04;  0.0000000E+00;  0.0000000E+00;  1.0000000E+04;  0.0000000E+00;  1.0000000E+04;-0.0027479352;0.0;-0.00028783272;3.4959862
 -7.9999998E-02;  9.9999998E-03; -2.8000000E-01;291;0.0;0.0;0.0;1000.006;  4.0000001E-01;5.0368938;0;0.0;0.0;0.0;0;-0.0041325209;  1.0000000E+04;  0.0000000E+00;  0.0000000E+00;  1.0000000E+04;  0.0000000E+00;  1.0000000E+04;-0.0039145085;0.0;-0.00021801234;2.4325054
 -7.9999998E-02;  9.9999998E-03; -2.5999999E-01;292;0.0;0.0;0.0;1000.0078;  4.0000001E-01;6.4195704;0;0.0;0.0;0.0;0;-0.0051881834;  1.0000000E+04;  0.0000000E+00;  0.0000000E+00;  1.0000000E+04;  0.0000000E+00;  1.0000000E+04;-0.0050788568;0.0;-0.00010932669;0.85596848
 -7.9999998E-02;  9.9999998E-03; -2.3999999E-01;293;0.0;0.0;0.0;1000.0089;  4.0000001E-01;7.407197;0;0.0;0.0;0.0;0;-0.0060990793;  1.0000000E+04;  0.0000000E+00;  0.0000000E+00;  1.0000000E+04;  0.0000000E+00;  1.0000000E+04;-0.0061077769;0.0;8.6975706e-06;0.82447809
 -7.9999998E-02;  9.9999998E-03; -2.2000000E-01;294;0.0;0.0;0.0;1000.01;  4.0000001E-01;8.2960606;0;0.0;0.0;0.0;0;-0.0068283649;  1.0000000E+04;  0.0000000E+00;  0.0000000E+00;  1.0000000E+04;  0.0000000E+00;  1.0000000E+04;-0.0069313501;0.0;0.00010298511;2.1623623
 -7.9999998E-02;  9.9999998E-03; -2.0000000E-01;295;0.0;0.0;0.0;1000.0109;  4.0000001E-01;8.9873991;0;0.0;0.0;0.0;0;-0.0073842835;  1.0000000E+04;  0.0000000E+00;  0.0000000E+00;  1.0000000E+04;  0.0000000E+00;  1.0000000E+04;-0.0075414269;0.0;0.00015714344;2.941915
 -5.9999999E-02;  9.9999998E-03; -3.4000000E-01;329;0.0;0.0;0.0;1000.004;  4.0000001E-01;3.3579292;0;0.0;0.0;0.0;0;-0.0027199553;  1.0000000E+04;  0.0000000E+00;  0.0000000E+00;  1.0000000E+04;  0.0000000E+00;  1.0000000E+04;-0.0020692102;0.0;-0.00065074518;8.4448709
 -5.9999999E-02;  9.9999998E-03; -3.1999999E-01;330;0.0;0.0;0.0;1000.0064;  4.0000001E-01;5.3331819;0;0.0;0.0;0.0;0;-0.0042850468;  1.0000000E+04;  0.0000000E+00;  0.0000000E+00;  1.0000000E+04;  0.0000000E+00;  1.0000000E+04;-0.0035823998;0.0;-0.00070264703;8.9595785
 -5.9999999E-02;  9.9999998E-03; -3.0000001E-01;331;0.0;0.0;0.0;1000.0093;  4.0000001E-01;7.7034845;0;0.0;0.0;0.0;0;-0.0061974316;  1.0000000E+04;  0.0000000E+00;  0.0000000E+00;  1.0000000E+04;  0.0000000E+00;  1.0000000E+04;-0.0055523911;0.0;-0.00064504053;7.9530058
 -5.9999999E-02;  9.9999998E-03; -2.8000000E-01;332;0.0;0.0;0.0;1000.0123;  4.0000001E-01;10.17255;0;0.0;0.0;0.0;0;-0.0082663959;  1.0000000E+04;  0.0000000E+00;  0.0000000E+00;  1.0000000E+04;  0.0000000E+00;  1.0000000E+04;-0.0077866893;0.0;-0.00047970624;5.4756994
 -5.9999999E-02;  9.9999998E-03; -2.5999999E-01;333;0.0;0.0;0.0;1000.0152;  4.0000001E-01;12.542853;0;0.0;0.0;0.0;0;-0.010235769;  1.0000000E+04;  0.0000000E+00;  0.0000000E+00;  1.0000000E+04;  0.0000000E+00;  1.0000000E+04;-0.010000656;0.0;-0.00023511225;1.9476861
 -5.9999999E-02;  9.9999998E-03; -2.3999999E-01;334;0.0;0.0;0.0;1000.0178;  4.0000001E-01;14.715631;0;0.0;0.0;0.0;0;-0.011924609;  1.0000000E+04;  0.0000000E+00;  0.0000000E+00;  1.0000000E+04;  0.0000000E+00;  1.0000000E+04;-0.011950553;0.0;2.594451e-05;1.7585442
 -5.9999999E-02;  9.9999998E-03; -2.2000000E-01;335;0.0;0.0;0.0;1000.0198;  4.0000001E-01;16.394596;0;0.0;0.0;0.0;0;-0.013279199;  1.0000000E+04;  0.0000000E+00;  0.0000000E+00;  1.0000000E+04;  0.0000000E+00;  1.0000000E+04;-0.013514168;0.0;0.00023496924;4.7137737
 -5.9999999E-02;  9.9999998E-03; -2.0000000E-01;336;0.0;0.0;0.0;1000.0212;  4.0000001E-01;17.579746;0;0.0;0.0;0.0;0;-0.014320761;  1.0000000E+04;  0.0000000E+00;  0.0000000E+00;  1.0000000E+04;  0.0000000E+00;  1.0000000E+04;-0.014678709;0.0;0.0003579483;6.4676991
 -3.9999999E-02;  9.9999998E-03; -3.4000000E-01;370;0.0;0.0;0.0;1000.0074;  4.0000001E-01;6.1232829;0;0.0;0.0;0.0;0;-0.0049515208;  1.0000000E+04;  0.0000000E+00;  0.0000000E+00;  1.0000000E+04;  0.0000000E+00;  1.0000000E+04;-0.0036664435;0.0;-0.0012850775;16.867052
 -3.9999999E-02;  9.9999998E-03; -3.1999999E-01;371;0.0;0.0;0.0;1000.0112;  4.0000001E-01;9.2836866;0;0.0;0.0;0.0;0;-0.007563957;  1.0000000E+04;  0.0000000E+00;  0.0000000E+00;  1.0000000E+04;  0.0000000E+00;  1.0000000E+04;-0.0062075662;0.0;-0.001356391;17.520065
 -3.9999999E-02;  9.9999998E-03; -3.0000001E-01;372;0.0;0.0;0.0;1000.016;  4.0000001E-01;13.234192;0;0.0;0.0;0.0;0;-0.010715679;  1.0000000E+04;  0.0000000E+00;  0.0000000E+00;  1.0000000E+04;  0.0000000E+00;  1.0000000E+04;-0.0094894366;0.0;-0.0012262424;15.359371
 -3.9999999E-02;  9.9999998E-03; -2.8000000E-01;373;0.0;0.0;0.0;1000.021;  4.0000001E-01;17.382221;0;0.0;0.0;0.0;0;-0.014078774;  1.0000000E+04;  0.0000000E+00;  0.0000000E+00;  1.0000000E+04;  0.0000000E+00;  1.0000000E+04;-0.013182072;0.0;-0.00089670147;10.463864
 -3.9999999E-02;  9.9999998E-03; -2.5999999E-01;374;0.0;0.0;0.0;1000.0258;  4.0000001E-01;21.332727;0;0.0;0.0;0.0;0;-0.017230116;  1.0000000E+04;  0.0000000E+00;  0.0000000E+00;  1.0000000E+04;  0.0000000E+00;  1.0000000E+04;-0.016804617;0.0;-0.00042549983;3.6810966
 -3.9999999E-02;  9.9999998E-03; -2.3999999E-01;375;0.0;0.0;0.0;1000.0296;  4.0000001E-01;24.493132;0;0.0;0.0;0.0;0;-0.019903457;  1.0000000E+04;  0.0000000E+00;  0.0000000E+00;  1.0000000E+04;  0.0000000E+00;  1.0000000E+04;-0.019969599;0.0;6.6143024e-05;3.301152
 -3.9999999E-02;  9.9999998E-03; -2.2000000E-01;376;0.0;0.0;0.0;1000.0328;  4.0000001E-01;27.159721;0;0.0;0.0;0.0;0;-0.022041986;  1.0000000E+04;  0.0000000E+00;  0.0000000E+00;  1.0000000E+04;  0.0000000E+00;  1.0000000E+04;-0.022498297;0.0;0.00045631008;8.8177948
 -3.9999999E-02;  9.9999998E-03; -2.0000000E-01;377;0.0;0.0;0.0;1000.0353;  4.0000001E-01;29.233736;0;0.0;0.0;0.0;0;-0.02369206;  1.0000000E+04;  0.0000000E+00;  0.0000000E+00;  1.0000000E+04;  0.0000000E+00;  1.0000000E+04;-0.02437965;0.0;0.0006875908;12.103004
 -2.0000000E-02;  9.9999998E-03; -3.4000000E-01;411;0.0;0.0;0.0;1000.0118;  4.0000001E-01;9.7775002;0;0.0;0.0;0.0;0;-0.007781419;  1.0000000E+04;  0.0000000E+00;  0.0000000E+00;  1.0000000E+04;  0.0000000E+00;  1.0000000E+04;-0.0055932719;0.0;-0.0021881473;29.105156
 -2.0000000E-02;  9.9999998E-03; -3.1999999E-01;412;0.0;0.0;0.0;1000.0177;  4.0000001E-01;14.616868;0;0.0;0.0;0.0;0;-0.011633512;  1.0000000E+04;  0.0000000E+00;  0.0000000E+00;  1.0000000E+04;  0.0000000E+00;  1.0000000E+04;-0.0093525993;0.0;-0.0022809124;29.895708
 -2.0000000E-02;  9.9999998E-03; -3.0000001E-01;413;0.0;0.0;0.0;1000.0245;  4.0000001E-01;20.3451;0;0.0;0.0;0.0;0;-0.016213091;  1.0000000E+04;  0.0000000E+00;  0.0000000E+00;  1.0000000E+04;  0.0000000E+00;  1.0000000E+04;-0.014173394;0.0;-0.0020396963;25.987875
 -2.0000000E-02;  9.9999998E-03; -2.8000000E-01;414;0.0;0.0;0.0;1000.0316;  4.0000001E-01;26.172096;0;0.0;0.0;0.0;0;-0.021009119;  1.0000000E+04;  0.0000000E+00;  0.0000000E+00;  1.0000000E+04;  0.0000000E+00;  1.0000000E+04;-0.019546434;0.0;-0.0014626841;17.448021
 -2.0000000E-02;  9.9999998E-03; -2.5999999E-01;415;0.0;0.0;0.0;1000.0383;  4.0000001E-01;31.702803;0;0.0;0.0;0.0;0;-0.025408087;  1.0000000E+04;  0.0000000E+00;  0.0000000E+00;  1.0000000E+04;  0.0000000E+00;  1.0000000E+04;-0.024745047;0.0;-0.00066304108;5.9231405
 -2.0000000E-02;  9.9999998E-03; -2.3999999E-01;416;0.0;0.0;0.0;1000.0438;  4.0000001E-01;36.245884;0;0.0;0.0;0.0;0;-0.029096104;  1.0000000E+04;  0.0000000E+00;  0.0000000E+00;  1.0000000E+04;  0.0000000E+00;  1.0000000E+04;-0.029241282;0.0;0.0001451789;5.6001244
 -2.0000000E-02;  9.9999998E-03; -2.2000000E-01;417;0.0;0.0;0.0;1000.0482;  4.0000001E-01;39.900101;0;0.0;0.0;0.0;0;-0.032034133;  1.0000000E+04;  0.0000000E+00;  0.0000000E+00;  1.0000000E+04;  0.0000000E+00;  1.0000000E+04;-0.032810442;0.0;0.00077630818;14.558495
 -2.0000000E-02;  9.9999998E-03; -2.0000000E-01;418;0.0;0.0;0.0;1000.0515;  4.0000001E-01;42.665455;0;0.0;0.0;0.0;0;-0.034300897;  1.0000000E+04;  0.0000000E+00;  0.0000000E+00;  1.0000000E+04;  0.0000000E+00;  1.0000000E+04;-0.03545047;0.0;0.0011495741;19.86195
  0.0000000E+00;  9.9999998E-03; -3.4000000E-01;452;0.0;0.0;0.0;1000.0167;  4.0000001E-01;13.826767;0;0.0;0.0;0.0;0;-0.010879239;  1.0000000E+04;  0.0000000E+00;  0.0000000E+00;  1.0000000E+04;  0.0000000E+00;  1.0000000E+04;-0.007586774;0.0;-0.0032924649;44.502316
  0.0000000E+00;  9.9999998E-03; -3.1999999E-01;453;0.0;0.0;0.0;1000.0244;  4.0000001E-01;20.246338;0;0.0;0.0;0.0;0;-0.01599142;  1.0000000E+04;  0.0000000E+00;  0.0000000E+00;  1.0000000E+04;  0.0000000E+00;  1.0000000E+04;-0.012586954;0.0;-0.003404465;45.391453
  0.0000000E+00;  9.9999998E-03; -3.0000001E-01;454;0.0;0.0;0.0;1000.0334;  4.0000001E-01;27.653534;0;0.0;0.0;0.0;0;-0.021918071;  1.0000000E+04;  0.0000000E+00;  0.0000000E+00;  1.0000000E+04;  0.0000000E+00;  1.0000000E+04;-0.018917371;0.0;-0.0030007008;38.965946
  2.0000000E-02;  9.9999998E-03; -3.4000000E-01;464;0.0;0.0;0.0;1000.0215;  4.0000001E-01;17.777273;0;0.0;0.0;0.0;0;-0.013874595;  1.0000000E+04;  0.0000000E+00;  0.0000000E+00;  1.0000000E+04;  0.0000000E+00;  1.0000000E+04;-0.0094289733;0.0;-0.0044456217;61.295338
  2.0000000E-02;  9.9999998E-03; -3.1999999E-01;465;0.0;0.0;0.0;1000.0312;  4.0000001E-01;25.875807;0;0.0;0.0;0.0;0;-0.02009986;  1.0000000E+04;  0.0000000E+00;  0.0000000E+00;  1.0000000E+04;  0.0000000E+00;  1.0000000E+04;-0.015540509;0.0;-0.0045593497;62.062092
  3.9999999E-02;  9.9999998E-03; -3.4000000E-01;474;0.0;0.0;0.0;1000.0263;  4.0000001E-01;21.82654;0;0.0;0.0;0.0;0;-0.016587434;  1.0000000E+04;  0.0000000E+00;  0.0000000E+00;  1.0000000E+04;  0.0000000E+00;  1.0000000E+04;-0.011114286;0.0;-0.0054731476;77.375435
  3.9999999E-02;  9.9999998E-03; -3.1999999E-01;475;0.0;0.0;0.0;1000.0377;  4.0000001E-01;31.20899;0;0.0;0.0;0.0;0;-0.023775952;  1.0000000E+04;  0.0000000E+00;  0.0000000E+00;  1.0000000E+04;  0.0000000E+00;  1.0000000E+04;-0.01823058;0.0;-0.0055453726;77.454498
  5.9999999E-02;  9.9999998E-03; -3.4000000E-01;484;0.0;0.0;0.0;1000.0311;  4.0000001E-01;25.777044;0;0.0;0.0;0.0;0;-0.019137114;  1.0000000E+04;  0.0000000E+00;  0.0000000E+00;  1.0000000E+04;  0.0000000E+00;  1.0000000E+04;-0.012855945;0.0;-0.0062811696;91.6147
  5.9999999E-02;  9.9999998E-03; -3.1999999E-01;485;0.0;0.0;0.0;1000.0443;  4.0000001E-01;36.640934;0;0.0;0.0;0.0;0;-0.027298298;  1.0000000E+04;  0.0000000E+00;  0.0000000E+00;  1.0000000E+04;  0.0000000E+00;  1.0000000E+04;-0.021019084;0.0;-0.0062792134;90.544205
  7.9999998E-02;  9.9999998E-03; -3.4000000E-01;494;0.0;0.0;0.0;1000.0366;  4.0000001E-01;30.320126;0;0.0;0.0;0.0;0;-0.021958068;  1.0000000E+04;  0.0000000E+00;  0.0000000E+00;  1.0000000E+04;  0.0000000E+00;  1.0000000E+04;-0.015068829;0.0;-0.0068892399;104.66801
  7.9999998E-02;  9.9999998E-03; -3.1999999E-01;495;0.0;0.0;0.0;1000.0521;  4.0000001E-01;43.159267;0;0.0;0.0;0.0;0;-0.031263843;  1.0000000E+04;  0.0000000E+00;  0.0000000E+00;  1.0000000E+04;  0.0000000E+00;  1.0000000E+04;-0.024467874;0.0;-0.0067959675;102.07978
  1.0000000E-01;  9.9999998E-03; -3.4000000E-01;504;0.0;0.0;0.0;1000.0443;  4.0000001E-01;36.640934;0;0.0;0.0;0.0;0;-0.025774669;  1.0000000E+04;  0.0000000E+00;  0.0000000E+00;  1.0000000E+04;  0.0000000E+00;  1.0000000E+04;-0.018356161;0.0;-0.0074185072;124.97812
  1.0000000E-01;  9.9999998E-03; -3.1999999E-01;505;0.0;0.0;0.0;1000.0629;  4.0000001E-01;52.047901;0;0.0;0.0;0.0;0;-0.036608174;  1.0000000E+04;  0.0000000E+00;  0.0000000E+00;  1.0000000E+04;  0.0000000E+00;  1.0000000E+04;-0.029379021;0.0;-0.0072291531;124.44051
  1.2000000E-01;  9.9999998E-03; -3.4000000E-01;514;0.0;0.0;0.0;1000.0559;  4.0000001E-01;46.319672;0;0.0;0.0;0.0;0;-0.031562053;  1.0000000E+04;  0.0000000E+00;  0.0000000E+00;  1.0000000E+04;  0.0000000E+00;  1.0000000E+04;-0.023460886;0.0;-0.008101169;199.40202
  1.2000000E-01;  9.9999998E-03; -3.1999999E-01;515;0.0;0.0;0.0;1000.0784;  4.0000001E-01;64.985809;0;0.0;0.0;0.0;0;-0.044516355;  1.0000000E+04;  0.0000000E+00;  0.0000000E+00;  1.0000000E+04;  0.0000000E+00;  1.0000000E+04;-0.036698315;0.0;-0.0078180386;239.46532
  1.4000000E-01;  9.9999998E-03; -3.4000000E-01;524;0.0;0.0;0.0;1000.0737;  4.0000001E-01;61.035301;0;0.0;0.0;0.0;0;-0.04054714;  1.0000000E+04;  0.0000000E+00;  0.0000000E+00;  1.0000000E+04;  0.0000000E+00;  1.0000000E+04;-0.031228203;0.0;-0.0093189348;431.83673
  1.4000000E-01;  9.9999998E-03; -3.1999999E-01;525;0.0;0.0;0.0;1000.102;  4.0000001E-01;84.54081;0;0.0;0.0;0.0;0;-0.056359276;  1.0000000E+04;  0.0000000E+00;  0.0000000E+00;  1.0000000E+04;  0.0000000E+00;  1.0000000E+04;-0.047418479;0.0;-0.0089407964;606.70032
  1.6000000E-01;  9.9999998E-03; -3.4000000E-01;534;0.0;0.0;0.0;1000.1003;  4.0000001E-01;83.158127;0;0.0;0.0;0.0;0;-0.053880908;  1.0000000E+04;  0.0000000E+00;  0.0000000E+00;  1.0000000E+04;  0.0000000E+00;  1.0000000E+04;-0.042206381;0.0;-0.011674526;936.47504
  1.6000000E-01;  9.9999998E-03; -3.1999999E-01;535;0.0;0.0;0.0;1000.1361;  4.0000001E-01;112.78692;0;0.0;0.0;0.0;0;-0.0733383;  1.0000000E+04;  0.0000000E+00;  0.0000000E+00;  1.0000000E+04;  0.0000000E+00;  1.0000000E+04;-0.062146861;0.0;-0.011191438;1410.4482
  1.8000001E-01;  9.9999998E-03; -3.4000000E-01;544;0.0;0.0;0.0;1000.137;  4.0000001E-01;113.47826;0;0.0;0.0;0.0;0;-0.071642362;  1.0000000E+04;  0.0000000E+00;  0.0000000E+00;  1.0000000E+04;  0.0000000E+00;  1.0000000E+04;-0.055553354;0.0;-0.016089009;1755.9347
  1.8000001E-01;  9.9999998E-03; -3.1999999E-01;545;0.0;0.0;0.0;1000.1818;  4.0000001E-01;150.61301;0;0.0;0.0;0.0;0;-0.09555997;  1.0000000E+04;  0.0000000E+00;  0.0000000E+00;  1.0000000E+04;  0.0000000E+00;  1.0000000E+04;-0.080048807;0.0;-0.015511164;2786.6768
  2.0000000E-01;  9.9999998E-03; -3.4000000E-01;553;0.0;0.0;0.0;1000.1814;  4.0000001E-01;150.31671;0;0.0;0.0;0.0;0;-0.092569306;  1.0000000E+04;  0.0000000E+00;  0.0000000E+00;  1.0000000E+04;  0.0000000E+00;  1.0000000E+04;-0.068762131;0.0;-0.023807174;2687.7209
  2.0000000E-01;  9.9999998E-03; -3.1999999E-01;554;0.0;0.0;0.0;1000.2374;  4.0000001E-01;196.63638;0;0.0;0.0;0.0;0;-0.12164528;  1.0000000E+04;  0.0000000E+00;  0.0000000E+00;  1.0000000E+04;  0.0000000E+00;  1.0000000E+04;-0.098399274;0.0;-0.023246007;4529.8428
 -2.2000000E-01;  9.9999998E-03; -1.8000001E-01;10;0.0;0.0;0.0;1000.0;  4.0000001E-01;0.0;0;0.0;0.0;0.0;0;0.0;  1.0000000E+04;  0.0000000E+00;  0.0000000E+00;  1.0000000E+04;  0.0000000E+00;  1.0000000E+04;0.0;0.0;0.0;0.0
 -2.2000000E-01;  9.9999998E-03; -1.6000000E-01;11;0.0;0.0;0.0;1000.0;  4.0000001E-01;0.0;0;0.0;0.0;0.0;0;0.0;  1.0000000E+04;  0.0000000E+00;  0.0000000E+00;  1.0000000E+04;  0.0000000E+00;  1.0000000E+04;0.0;0.0;0.0;0.0
 -2.2000000E-01;  9.9999998E-03; -1.4000000E-01;12;0.0;0.0;0.0;1000.0;  4.0000001E-01;0.0;0;0.0;0.0;0.0;0;0.0;  1.0000000E+04;  0.0000000E+00;  0.0000000E+00;  1.0000000E+04;  0.0000000E+00;  1.0000000E+04;0.0;0.0;0.0;0.0
 -2.2000000E-01;  9.9999998E-03; -1.2000000E-01;13;0.0;0.0;0.0;1000.0;  4.0000001E-01;0.0;0;0.0;0.0;0.0;0;0.0;  1.0000000E+04;  0.0000000E+00;  0.0000000E+00;  1.0000000E+04;  0.0000000E+00;  1.0000000E+04;0.0;0.0;0.0;0.0
 -2.2000000E-01;  9.9999998E-03; -1.0000000E-01;14;0.0;0.0;0.0;1000.0;  4.0000001E-01;0.0;0;0.0;0.0;0.0;0;0.0;  1.0000000E+04;  0.0000000E+00;  0.0000000E+00;  1.0000000E+04;  0.0000000E+00;  1.0000000E+04;0.0;0.0;0.0;0.0
 -2.2000000E-01;  9.9999998E-03; -7.9999998E-02;15;0.0;0.0;0.0;1000.0;  4.0000001E-01;0.0;0;0.0;0.0;0.0;0;0.0;  1.0000000E+04;  0.0000000E+00;  0.0000000E+00;  1.0000000E+04;  0.0000000E+00;  1.0000000E+04;0.0;0.0;0.0;0.0
 -2.2000000E-01;  9.9999998E-03; -5.9999999E-02;16;0.0;0.0;0.0;1000.0;  4.0000001E-01;0.0;0;0.0;0.0;0.0;0;0.0;  1.0000000E+04;  0.0000000E+00;  0.0000000E+00;  1.0000000E+04;  0.0000000E+00;  1.0000000E+04;0.0;0.0;0.0;0.0
 -2.2000000E-01;  9.9999998E-03; -3.9999999E-02;17;0.0;0.0;0.0;1000.0;  4.0000001E-01;0.0;0;0.0;0.0;0.0;0;0.0;  1.0000000E+04;  0.0000000E+00;  0.0000000E+00;  1.0000000E+04;  0.0000000E+00;  1.0000000E+04;0.0;0.0;0.0;0.0
 -2.2000000E-01;  9.9999998E-03; -2.0000000E-02;18;0.0;0.0;0.0;1000.0;  4.0000001E-01;0.0;0;0.0;0.0;0.0;0;0.0;  1.0000000E+04;  0.0000000E+00;  0.0000000E+00;  1.0000000E+04;  0.0000000E+00;  1.0000000E+04;0.0;0.0;0.0;0.0
 -2.0000000E-01;  9.9999998E-03; -1.8000001E-01;50;0.0;0.0;0.0;1000.0;  4.0000001E-01;0.0;0;0.0;0.0;0.0;0;0.0;  1.0000000E+04;  0.0000000E+00;  0.0000000E+00;  1.0000000E+04;  0.0000000E+00;  1.0000000E+04;0.0;0.0;0.0;0.0
 -2.0000000E-01;  9.9999998E-03; -1.6000000E-01;51;0.0;0.0;0.0;1000.0;  4.0000001E-01;0.0;0;0.0;0.0;0.0;0;0.0;  1.0000000E+04;  0.0000000E+00;  0.0000000E+00;  1.0000000E+04;  0.0000000E+00;  1.0000000E+04;0.0;0.0;0.0;0.0
 -2.0000000E-01;  9.9999998E-03; -1.4000000E-01;52;0.0;0.0;0.0;1000.0;  4.0000001E-01;0.0;0;0.0;0.0;0.0;0;0.0;  1.0000000E+04;  0.0000000E+00;  0.0000000E+00;  1.0000000E+04;  0.0000000E+00;  1.0000000E+04;0.0;0.0;0.0;0.0
 -2.0000000E-01;  9.9999998E-03; -1.2000000E-01;53;0.0;0.0;0.0;1000.0;  4.0000001E-01;0.0;0;0.0;0.0;0.0;0;0.0;  1.0000000E+04;  0.0000000E+00;  0.0000000E+00;  1.0000000E+04;  0.0000000E+00;  1.0000000E+04;0.0;0.0;0.0;0.0
 -2.0000000E-01;  9.9999998E-03; -1.0000000E-01;54;0.0;0.0;0.0;1000.0;  4.0000001E-01;0.0;0;0.0;0.0;0.0;0;0.0;  1.0000000E+04;  0.0000000E+00;  0.0000000E+00;  1.0000000E+04;  0.0000000E+00;  1.0000000E+04;0.0;0.0;0.0;0.0
 -2.0000000E-01;  9.9999998E-03; -7.9999998E-02;55;0.0;0.0;0.0;1000.0;  4.0000001E-01;0.0;0;0.0;0.0;0.0;0;0.0;  1.0000000E+04;  0.0000000E+00;  0.0000000E+00;  1.0000000E+04;  0.0000000E+00;  1.0000000E+04;0.0;0.0;0.0;0.0
 -2.0000000E-01;  9.9999998E-03; -5.9999999E-02;56;0.0;0.0;0.0;1000.0;  4.0000001E-01;0.0;0;0.0;0.0;0.0;0;0.0;  1.0000000E+04;  0.0000000E+00;  0.0000000E+00;  1.0000000E+04;  0.0000000E+00;  1.0000000E+04;0.0;0.0;0.0;0.0
 -2.0000000E-01;  9.9999998E-03; -3.9999999E-02;57;0.0;0.0;0.0;1000.0;  4.0000001E-01;0.0;0;0.0;0.0;0.0;0;0.0;  1.0000000E+04;  0.0000000E+00;  0.0000000E+00;  1.0000000E+04;  0.0000000E+00;  1.0000000E+04;0.0;0.0;0.0;0.0
 -2.0000000E-01;  9.9999998E-03; -2.0000000E-02;58;0.0;0.0;0.0;1000.0;  4.0000001E-01;0.0;0;0.0;0.0;0.0;0;0.0;  1.0000000E+04;  0.0000000E+00;  0.0000000E+00;  1.0000000E+04;  0.0000000E+00;  1.0000000E+04;0.0;0.0;0.0;0.0
 -1.8000001E-01;  9.9999998E-03; -1.8000001E-01;91;0.0;0.0;0.0;1000.0;  4.0000001E-01;0.0;0;0.0;0.0;0.0;0;0.0;  1.0000000E+04;  0.0000000E+00;  0.0000000E+00;  1.0000000E+04;  0.0000000E+00;  1.0000000E+04;0.0;0.0;0.0;0.0
 -1.8000001E-01;  9.9999998E-03; -1.6000000E-01;92;0.0;0.0;0.0;1000.0;  4.0000001E-01;0.0;0;0.0;0.0;0.0;0;0.0;  1.0000000E+04;  0.0000000E+00;  0.0000000E+00;  1.0000000E+04;  0.0000000E+00;  1.0000000E+04;0.0;0.0;0.0;0.0
 -1.8000001E-01;  9.9999998E-03; -1.4000000E-01;93;0.0;0.0;0.0;1000.0;  4.0000001E-01;0.0;0;0.0;0.0;0.0;0;0.0;  1.0000000E+04;  0.0000000E+00;  0.0000000E+00;  1.0000000E+04;  0.0000000E+00;  1.0000000E+04;0.0;0.0;0.0;0.0
 -1.8000001E-01;  9.9999998E-03; -1.2000000E-01;94;0.0;0.0;0.0;1000.0;  4.0000001E-01;0.0;0;0.0;0.0;0.0;0;0.0;  1.0000000E+04;  0.0000000E+00;  0.0000000E+00;  1.0000000E+04;  0.0000000E+00;  1.0000000E+04;0.0;0.0;0.0;0.0
 -1.8000001E-01;  9.9999998E-03; -1.0000000E-01;95;0.0;0.0;0.0;1000.0;  4.0000001E-01;0.0;0;0.0;0.0;0.0;0;0.0;  1.0000000E+04;  0.0000000E+00;  0.0000000E+00;  1.0000000E+04;  0.0000000E+00;  1.0000000E+04;0.0;0.0;0.0;0.0
 -1.8000001E-01;  9.9999998E-03; -7.9999998E-02;96;0.0;0.0;0.0;1000.0;  4.0000001E-01;0.0;0;0.0;0.0;0.0;0;0.0;  1.0000000E+04;  0.0000000E+00;  0.0000000E+00;  1.0000000E+04;  0.0000000E+00;  1.0000000E+04;0.0;0.0;0.0;0.0
 -1.8000001E-01;  9.9999998E-03; -5.9999999E-02;97;0.0;0.0;0.0;1000.0;  4.0000001E-01;0.0;0;0.0;0.0;0.0;0;0.0;  1.0000000E+04;  0.0000000E+00;  0.0000000E+00;  1.0000000E+04;  0.0000000E+00;  1.0000000E+04;0.0;0.0;0.0;0.0
 -1.8000001E-01;  9.9999998E-03; -3.9999999E-02;98;0.0;0.0;0.0;1000.0;  4.0000001E-01;0.0;0;0.0;0.0;0.0;0;0.0;  1.0000000E+04;  0.0000000E+00;  0.0000000E+00;  1.0000000E+04;  0.0000000E+00;  1.0000000E+04;0.0;0.0;0.0;0.0
 -1.8000001E-01;  9.9999998E-03; -2.0000000E-02;99;0.0;0.0;0.0;1000.0;  4.0000001E-01;0.0;0;0.0;0.0;0.0;0;0.0;  1.0000000E+04;  0.0000000E+00;  0.0000000E+00;  1.0000000E+04;  0.0000000E+00;  1.0000000E+04;0.0;0.0;0.0;0.0
 -1.6000000E-01;  9.9999998E-03; -1.8000001E-01;132;0.0;0.0;0.0;1000.0;  4.0000001E-01;0.0;0;0.0;0.0;0.0;0;-5.1950396e-06;  1.0000000E+04;  0.0000000E+00;  0.0000000E+00;  1.0000000E+04;  0.0000000E+00;  1.0000000E+04;-5.2069699e-06;0.0;1.1930203e-08;0.00073559745
 -1.6000000E-01;  9.9999998E-03; -1.6000000E-01;133;0.0;0.0;0.0;1000.0;  4.0000001E-01;0.0;0;0.0;0.0;0.0;0;-5.3487338e-06;  1.0000000E+04;  0.0000000E+00;  0.0000000E+00;  1.0000000E+04;  0.0000000E+00;  1.0000000E+04;-5.3592298e-06;0.0;1.049592e-08;0.00073338073
 -1.6000000E-01;  9.9999998E-03; -1.4000000E-01;134;0.0;0.0;0.0;1000.0;  4.0000001E-01;0.0;0;0.0;0.0;0.0;0;-5.4399893e-06;  1.0000000E+04;  0.0000000E+00;  0.0000000E+00;  1.0000000E+04;  0.0000000E+00;  1.0000000E+04;-5.4488187e-06;0.0;8.8294145e-09;0.00072140875
 -1.6000000E-01;  9.9999998E-03; -1.2000000E-01;135;0.0;0.0;0.0;1000.0;  4.0000001E-01;0.0;0;0.0;0.0;0.0;0;-5.4859797e-06;  1.0000000E+04;  0.0000000E+00;  0.0000000E+00;  1.0000000E+04;  0.0000000E+00;  1.0000000E+04;-5.4932066e-06;0.0;7.2269093e-09;0.00070541468
 -1.6000000E-01;  9.9999998E-03; -1.0000000E-01;136;0.0;0.0;0.0;1000.0;  4.0000001E-01;0.0;0;0.0;0.0;0.0;0;-5.5018809e-06;  1.0000000E+04;  0.0000000E+00;  0.0000000E+00;  1.0000000E+04;  0.0000000E+00;  1.0000000E+04;-5.5076102e-06;0.0;5.729357e-09;0.00068761385
 -1.6000000E-01;  9.9999998E-03; -7.9999998E-02;137;0.0;0.0;0.0;1000.0;  4.0000001E-01;0.0;0;0.0;0.0;0.0;0;-5.4998777e-06;  1.0000000E+04;  0.0000000E+00;  0.0000000E+00;  1.0000000E+04;  0.0000000E+00;  1.0000000E+04;-5.5042915e-06;0.0;4.4136912e-09;0.00067040522
 -1.6000000E-01;  9.9999998E-03; -5.9999999E-02;138;0.0;0.0;0.0;1000.0;  4.0000001E-01;0.0;0;0.0;0.0;0.0;0;-5.4893967e-06;  1.0000000E+04;  0.0000000E+00;  0.0000000E+00;  1.0000000E+04;  0.0000000E+00;  1.0000000E+04;-5.4927355e-06;0.0;3.338682e-09;0.00065549935
 -1.6000000E-01;  9.9999998E-03; -3.9999999E-02;139;0.0;0.0;0.0;1000.0;  4.0000001E-01;0.0;0;0.0;0.0;0.0;0;-5.4773318e-06;  1.0000000E+04;  0.0000000E+00;  0.0000000E+00;  1.0000000E+04;  0.0000000E+00;  1.0000000E+04;-5.479867e-06;0.0;2.5352158e-09;0.00064396206
 -1.6000000E-01;  9.9999998E-03; -2.0000000E-02;140;0.0;0.0;0.0;1000.0;  4.0000001E-01;0.0;0;0.0;0.0;0.0;0;-5.4683082e-06;  1.0000000E+04;  0.0000000E+00;  0.0000000E+00;  1.0000000E+04;  0.0000000E+00;  1.0000000E+04;-5.4703514e-06;0.0;2.0433901e-09;0.00063674821
 -1.4000000E-01;  9.9999998E-03; -1.8000001E-01;173;0.0;0.0;0.0;1000.0002;  4.0000001E-01;0.19752525;0;0.0;0.0;0.0;0;-0.00018829986;  1.0000000E+04;  0.0000000E+00;  0.0000000E+00;  1.0000000E+04;  0.0000000E+00;  1.0000000E+04;-0.00018975363;0.0;1.453766e-06;0.040201362
 -1.4000000E-01;  9.9999998E-03; -1.6000000E-01;174;0.0;0.0;0.0;1000.0002;  4.0000001E-01;0.19752525;0;0.0;0.0;0.0;0;-0.00019454505;  1.0000000E+04;  0.0000000E+00;  0.0000000E+00;  1.0000000E+04;  0.0000000E+00;  1.0000000E+04;-0.00019584842;0.0;1.3033732e-06;0.038885139
 -1.4000000E-01;  9.9999998E-03; -1.4000000E-01;175;0.0;0.0;0.0;1000.0002;  4.0000001E-01;0.19752525;0;0.0;0.0;0.0;0;-0.00019849636;  1.0000000E+04;  0.0000000E+00;  0.0000000E+00;  1.0000000E+04;  0.0000000E+00;  1.0000000E+04;-0.00019961131;0.0;1.114949e-06;0.036805358
 -1.4000000E-01;  9.9999998E-03; -1.2000000E-01;176;0.0;0.0;0.0;1000.0002;  4.0000001E-01;0.19752525;0;0.0;0.0;0.0;0;-0.00020073108;  1.0000000E+04;  0.0000000E+00;  0.0000000E+00;  1.0000000E+04;  0.0000000E+00;  1.0000000E+04;-0.0002016509;0.0;9.1981923e-07;0.034453556
 -1.4000000E-01;  9.9999998E-03; -1.0000000E-01;177;0.0;0.0;0.0;1000.0002;  4.0000001E-01;0.19752525;0;0.0;0.0;0.0;0;-0.00020177435;  1.0000000E+04;  0.0000000E+00;  0.0000000E+00;  1.0000000E+04;  0.0000000E+00;  1.0000000E+04;-0.0002025108;0.0;7.3643685e-07;0.032138769
 -1.4000000E-01;  9.9999998E-03; -7.9999998E-02;178;0.0;0.0;0.0;1000.0002;  4.0000001E-01;0.19752525;0;0.0;0.0;0.0;0;-0.00020206794;  1.0000000E+04;  0.0000000E+00;  0.0000000E+00;  1.0000000E+04;  0.0000000E+00;  1.0000000E+04;-0.00020264325;0.0;5.75314e-07;0.030048573
 -1.4000000E-01;  9.9999998E-03; -5.9999999E-02;179;0.0;0.0;0.0;1000.0002;  4.0000001E-01;0.19752525;0;0.0;0.0;0.0;0;-0.00020196129;  1.0000000E+04;  0.0000000E+00;  0.0000000E+00;  1.0000000E+04;  0.0000000E+00;  1.0000000E+04;-0.00020240404;0.0;4.4275026e-07;0.028301463
 -1.4000000E-01;  9.9999998E-03; -3.9999999E-02;180;0.0;0.0;0.0;1000.0002;  4.0000001E-01;0.19752525;0;0.0;0.0;0.0;0;-0.00020171155;  1.0000000E+04;  0.0000000E+00;  0.0000000E+00;  1.0000000E+04;  0.0000000E+00;  1.0000000E+04;-0.00020205583;0.0;3.442801e-07;0.026992198
 -1.4000000E-01;  9.9999998E-03; -2.0000000E-02;181;0.0;0.0;0.0;1000.0002;  4.0000001E-01;0.19752525;0;0.0;0.0;0.0;0;-0.00020149413;  1.0000000E+04;  0.0000000E+00;  0.0000000E+00;  1.0000000E+04;  0.0000000E+00;  1.0000000E+04;-0.0002017778;0.0;2.8367916e-07;0.026182326
 -1.2000000E-01;  9.9999998E-03; -1.8000001E-01;214;0.0;0.0;0.0;1000.0015;  4.0000001E-01;1.1851515;0;0.0;0.0;0.0;0;-0.0010351808;  1.0000000E+04;  0.0000000E+00;  0.0000000E+00;  1.0000000E+04;  0.0000000E+00;  1.0000000E+04;-0.0010487704;0.0;1.3589579e-05;0.29578564
 -1.2000000E-01;  9.9999998E-03; -1.6000000E-01;215;0.0;0.0;0.0;1000.0015;  4.0000001E-01;1.2839141;0;0.0;0.0;0.0;0;-0.0010715752;  1.0000000E+04;  0.0000000E+00;  0.0000000E+00;  1.0000000E+04;  0.0000000E+00;  1.0000000E+04;-0.0010839497;0.0;1.2374519e-05;0.28351286
 -1.2000000E-01;  9.9999998E-03; -1.4000000E-01;216;0.0;0.0;0.0;1000.0015;  4.0000001E-01;1.2839141;0;0.0;0.0;0.0;0;-0.0010953892;  1.0000000E+04;  0.0000000E+00;  0.0000000E+00;  1.0000000E+04;  0.0000000E+00;  1.0000000E+04;-0.001106103;0.0;1.0713655e-05;0.26390001
 -1.2000000E-01;  9.9999998E-03; -1.2000000E-01;217;0.0;0.0;0.0;1000.0016;  4.0000001E-01;1.2839141;0;0.0;0.0;0.0;0;-0.0011096011;  1.0000000E+04;  0.0000000E+00;  0.0000000E+00;  1.0000000E+04;  0.0000000E+00;  1.0000000E+04;-0.001118526;0.0;8.9248388e-06;0.2415532
 -1.2000000E-01;  9.9999998E-03; -1.0000000E-01;218;0.0;0.0;0.0;1000.0016;  4.0000001E-01;1.2839141;0;0.0;0.0;0.0;0;-0.0011169908;  1.0000000E+04;  0.0000000E+00;  0.0000000E+00;  1.0000000E+04;  0.0000000E+00;  1.0000000E+04;-0.001124201;0.0;7.2101684e-06;0.21952711
 -1.2000000E-01;  9.9999998E-03; -7.9999998E-02;219;0.0;0.0;0.0;1000.0016;  4.0000001E-01;1.2839141;0;0.0;0.0;0.0;0;-0.0011199448;  1.0000000E+04;  0.0000000E+00;  0.0000000E+00;  1.0000000E+04;  0.0000000E+00;  1.0000000E+04;-0.0011256351;0.0;5.690209e-06;0.1997052
 -1.2000000E-01;  9.9999998E-03; -5.9999999E-02;220;0.0;0.0;0.0;1000.0016;  4.0000001E-01;1.2839141;0;0.0;0.0;0.0;0;-0.0011203757;  1.0000000E+04;  0.0000000E+00;  0.0000000E+00;  1.0000000E+04;  0.0000000E+00;  1.0000000E+04;-0.001124816;0.0;4.4402682e-06;0.18326929
 -1.2000000E-01;  9.9999998E-03; -3.9999999E-02;221;0.0;0.0;0.0;1000.0016;  4.0000001E-01;1.2839141;0;0.0;0.0;0.0;0;-0.0011197153;  1.0000000E+04;  0.0000000E+00;  0.0000000E+00;  1.0000000E+04;  0.0000000E+00;  1.0000000E+04;-0.0011232262;0.0;3.5109776e-06;0.17099909
 -1.2000000E-01;  9.9999998E-03; -2.0000000E-02;222;0.0;0.0;0.0;1000.0016;  4.0000001E-01;1.2839141;0;0.0;0.0;0.0;0;-0.0011189418;  1.0000000E+04;  0.0000000E+00;  0.0000000E+00;  1.0000000E+04;  0.0000000E+00;  1.0000000E+04;-0.0011218806;0.0;2.9388052e-06;0.16343051
 -1.0000000E-01;  9.9999998E-03; -1.8000001E-01;255;0.0;0.0;0.0;1000.0047;  4.0000001E-01;3.8517423;0;0.0;0.0;0.0;0;-0.0032845284;  1.0000000E+04;  0.0000000E+00;  0.0000000E+00;  1.0000000E+04;  0.0000000E+00;  1.0000000E+04;-0.0033439053;0.0;5.9376955e-05;1.1585042
 -1.0000000E-01;  9.9999998E-03; -1.6000000E-01;256;0.0;0.0;0.0;1000.0049;  4.0000001E-01;4.0492678;0;0.0;0.0;0.0;0;-0.0034042932;  1.0000000E+04;  0.0000000E+00;  0.0000000E+00;  1.0000000E+04;  0.0000000E+00;  1.0000000E+04;-0.0034597423;0.0;5.5449134e-05;1.1182989
 -1.0000000E-01;  9.9999998E-03; -1.4000000E-01;257;0.0;0.0;0.0;1000.005;  4.0000001E-01;4.1480303;0;0.0;0.0;0.0;0;-0.0034840761;  1.0000000E+04;  0.0000000E+00;  0.0000000E+00;  1.0000000E+04;  0.0000000E+00;  1.0000000E+04;-0.0035326038;0.0;4.8527836e-05;1.0338658
 -1.0000000E-01;  9.9999998E-03; -1.2000000E-01;258;0.0;0.0;0.0;1000.005;  4.0000001E-01;4.1480303;0;0.0;0.0;0.0;0;-0.0035332823;  1.0000000E+04;  0.0000000E+00;  0.0000000E+00;  1.0000000E+04;  0.0000000E+00;  1.0000000E+04;-0.0035740605;0.0;4.0778163e-05;0.93518108
 -1.0000000E-01;  9.9999998E-03; -1.0000000E-01;259;0.0;0.0;0.0;1000.0051;  4.0000001E-01;4.2467928;0;0.0;0.0;0.0;0;-0.0035604038;  1.0000000E+04;  0.0000000E+00;  0.0000000E+00;  1.0000000E+04;  0.0000000E+00;  1.0000000E+04;-0.0035936104;0.0;3.3206503e-05;0.83679062
 -1.0000000E-01;  9.9999998E-03; -7.9999998E-02;260;0.0;0.0;0.0;1000.0052;  4.0000001E-01;4.3455553;0;0.0;0.0;0.0;0;-0.0035728388;  1.0000000E+04;  0.0000000E+00;  0.0000000E+00;  1.0000000E+04;  0.0000000E+00;  1.0000000E+04;-0.0035992751;0.0;2.6436248e-05;0.74790442
 -1.0000000E-01;  9.9999998E-03; -5.9999999E-02;261;0.0;0.0;0.0;1000.0052;  4.0000001E-01;4.3455553;0;0.0;0.0;0.0;0;-0.0035765942;  1.0000000E+04;  0.0000000E+00;  0.0000000E+00;  1.0000000E+04;  0.0000000E+00;  1.0000000E+04;-0.0035974435;0.0;2.0849346e-05;0.67418426
 -1.0000000E-01;  9.9999998E-03; -3.9999999E-02;262;0.0;0.0;0.0;1000.0052;  4.0000001E-01;4.3455553;0;0.0;0.0;0.0;0;-0.0035761921;  1.0000000E+04;  0.0000000E+00;  0.0000000E+00;  1.0000000E+04;  0.0000000E+00;  1.0000000E+04;-0.003592886;0.0;1.6693897e-05;0.61923236
 -1.0000000E-01;  9.9999998E-03; -2.0000000E-02;263;0.0;0.0;0.0;1000.0052;  4.0000001E-01;4.3455553;0;0.0;0.0;0.0;0;-0.003574746;  1.0000000E+04;  0.0000000E+00;  0.0000000E+00;  1.0000000E+04;  0.0000000E+00;  1.0000000E+04;-0.0035888806;0.0;1.4134736e-05;0.5853675
 -7.9999998E-02;  9.9999998E-03; -1.8000001E-01;296;0.0;0.0;0.0;1000.0114;  4.0000001E-01;9.4812117;0;0.0;0.0;0.0;0;-0.0077924533;  1.0000000E+04;  0.0000000E+00;  0.0000000E+00;  1.0000000E+04;  0.0000000E+00;  1.0000000E+04;-0.0079666907;0.0;0.00017423762;3.2094805
 -7.9999998E-02;  9.9999998E-03; -1.6000000E-01;297;0.0;0.0;0.0;1000.012;  4.0000001E-01;9.8762627;0;0.0;0.0;0.0;0;-0.0080809016;  1.0000000E+04;  0.0000000E+00;  0.0000000E+00;  1.0000000E+04;  0.0000000E+00;  1.0000000E+04;-0.0082477294;0.0;0.00016682774;3.1371081
 -7.9999998E-02;  9.9999998E-03; -1.4000000E-01;298;0.0;0.0;0.0;1000.0121;  4.0000001E-01;9.9750252;0;0.0;0.0;0.0;0;-0.0082752649;  1.0000000E+04;  0.0000000E+00;  0.0000000E+00;  1.0000000E+04;  0.0000000E+00;  1.0000000E+04;-0.0084228171;0.0;0.00014755221;2.8965185
 -7.9999998E-02;  9.9999998E-03; -1.2000000E-01;299;0.0;0.0;0.0;1000.0124;  4.0000001E-01;10.271313;0;0.0;0.0;0.0;0;-0.0083975261;  1.0000000E+04;  0.0000000E+00;  0.0000000E+00;  1.0000000E+04;  0.0000000E+00;  1.0000000E+04;-0.0085224733;0.0;0.00012494704;2.6042118
 -7.9999998E-02;  9.9999998E-03; -1.0000000E-01;300;0.0;0.0;0.0;1000.0126;  4.0000001E-01;10.468838;0;0.0;0.0;0.0;0;-0.0084671816;  1.0000000E+04;  0.0000000E+00;  0.0000000E+00;  1.0000000E+04;  0.0000000E+00;  1.0000000E+04;-0.0085696336;0.0;0.00010245198;2.3087862
 -7.9999998E-02;  9.9999998E-03; -7.9999998E-02;301;0.0;0.0;0.0;1000.0126;  4.0000001E-01;10.468838;0;0.0;0.0;0.0;0;-0.0085013518;  1.0000000E+04;  0.0000000E+00;  0.0000000E+00;  1.0000000E+04;  0.0000000E+00;  1.0000000E+04;-0.0085835028;0.0;8.2151419e-05;2.0401978
 -7.9999998E-02;  9.9999998E-03; -5.9999999E-02;302;0.0;0.0;0.0;1000.0126;  4.0000001E-01;10.468838;0;0.0;0.0;0.0;0;-0.0085140234;  1.0000000E+04;  0.0000000E+00;  0.0000000E+00;  1.0000000E+04;  0.0000000E+00;  1.0000000E+04;-0.0085793547;0.0;6.5331049e-05;1.8169426
 -7.9999998E-02;  9.9999998E-03; -3.9999999E-02;303;0.0;0.0;0.0;1000.0127;  4.0000001E-01;10.468838;0;0.0;0.0;0.0;0;-0.0085158125;  1.0000000E+04;  0.0000000E+00;  0.0000000E+00;  1.0000000E+04;  0.0000000E+00;  1.0000000E+04;-0.0085686138;0.0;5.2801213e-05;1.6504679
 -7.9999998E-02;  9.9999998E-03; -2.0000000E-02;304;0.0;0.0;0.0;1000.0127;  4.0000001E-01;10.468838;0;0.0;0.0;0.0;0;-0.0085140457;  1.0000000E+04;  0.0000000E+00;  0.0000000E+00;  1.0000000E+04;  0.0000000E+00;  1.0000000E+04;-0.0085591273;0.0;4.5081993e-05;1.5479032
 -5.9999999E-02;  9.9999998E-03; -1.8000001E-01;337;0.0;0.0;0.0;1000.0223;  4.0000001E-01;18.468611;0;0.0;0.0;0.0;0;-0.015095371;  1.0000000E+04;  0.0000000E+00;  0.0000000E+00;  1.0000000E+04;  0.0000000E+00;  1.0000000E+04;-0.015495569;0.0;0.0004001976;7.103745
 -5.9999999E-02;  9.9999998E-03; -1.6000000E-01;338;0.0;0.0;0.0;1000.0233;  4.0000001E-01;19.258711;0;0.0;0.0;0.0;0;-0.015650107;  1.0000000E+04;  0.0000000E+00;  0.0000000E+00;  1.0000000E+04;  0.0000000E+00;  1.0000000E+04;-0.016037893;0.0;0.0003877868;6.9819994
 -5.9999999E-02;  9.9999998E-03; -1.4000000E-01;339;0.0;0.0;0.0;1000.0238;  4.0000001E-01;19.752525;0;0.0;0.0;0.0;0;-0.016027804;  1.0000000E+04;  0.0000000E+00;  0.0000000E+00;  1.0000000E+04;  0.0000000E+00;  1.0000000E+04;-0.016374461;0.0;0.00034665744;6.4572563
 -5.9999999E-02;  9.9999998E-03; -1.2000000E-01;340;0.0;0.0;0.0;1000.0243;  4.0000001E-01;20.147575;0;0.0;0.0;0.0;0;-0.016268153;  1.0000000E+04;  0.0000000E+00;  0.0000000E+00;  1.0000000E+04;  0.0000000E+00;  1.0000000E+04;-0.016563622;0.0;0.00029546939;5.7849321
 -5.9999999E-02;  9.9999998E-03; -1.0000000E-01;341;0.0;0.0;0.0;1000.0244;  4.0000001E-01;20.147575;0;0.0;0.0;0.0;0;-0.016407626;  1.0000000E+04;  0.0000000E+00;  0.0000000E+00;  1.0000000E+04;  0.0000000E+00;  1.0000000E+04;-0.016651319;0.0;0.00024369417;5.0970278
 -5.9999999E-02;  9.9999998E-03; -7.9999998E-02;342;0.0;0.0;0.0;1000.0244;  4.0000001E-01;20.246338;0;0.0;0.0;0.0;0;-0.016478468;  1.0000000E+04;  0.0000000E+00;  0.0000000E+00;  1.0000000E+04;  0.0000000E+00;  1.0000000E+04;-0.016675021;0.0;0.00019655449;4.4675698
 -5.9999999E-02;  9.9999998E-03; -5.9999999E-02;343;0.0;0.0;0.0;1000.0245;  4.0000001E-01;20.3451;0;0.0;0.0;0.0;0;-0.016507147;  1.0000000E+04;  0.0000000E+00;  0.0000000E+00;  1.0000000E+04;  0.0000000E+00;  1.0000000E+04;-0.01666447;0.0;0.00015732345;3.9428432
 -5.9999999E-02;  9.9999998E-03; -3.9999999E-02;344;0.0;0.0;0.0;1000.0245;  4.0000001E-01;20.3451;0;0.0;0.0;0.0;0;-0.016513811;  1.0000000E+04;  0.0000000E+00;  0.0000000E+00;  1.0000000E+04;  0.0000000E+00;  1.0000000E+04;-0.016641853;0.0;0.00012804252;3.5511773
 -5.9999999E-02;  9.9999998E-03; -2.0000000E-02;345;0.0;0.0;0.0;1000.0245;  4.0000001E-01;20.3451;0;0.0;0.0;0.0;0;-0.016512396;  1.0000000E+04;  0.0000000E+00;  0.0000000E+00;  1.0000000E+04;  0.0000000E+00;  1.0000000E+04;-0.016622387;0.0;0.00010999087;3.3098333
 -3.9999999E-02;  9.9999998E-03; -1.8000001E-01;378;0.0;0.0;0.0;1000.037;  4.0000001E-01;30.616413;0;0.0;0.0;0.0;0;-0.024928089;  1.0000000E+04;  0.0000000E+00;  0.0000000E+00;  1.0000000E+04;  0.0000000E+00;  1.0000000E+04;-0.025697991;0.0;0.00076990167;13.313686
 -3.9999999E-02;  9.9999998E-03; -1.6000000E-01;379;0.0;0.0;0.0;1000.0385;  4.0000001E-01;31.900328;0;0.0;0.0;0.0;0;-0.025821069;  1.0000000E+04;  0.0000000E+00;  0.0000000E+00;  1.0000000E+04;  0.0000000E+00;  1.0000000E+04;-0.026570771;0.0;0.00074970216;13.09894
 -3.9999999E-02;  9.9999998E-03; -1.4000000E-01;380;0.0;0.0;0.0;1000.0394;  4.0000001E-01;32.591667;0;0.0;0.0;0.0;0;-0.026433436;  1.0000000E+04;  0.0000000E+00;  0.0000000E+00;  1.0000000E+04;  0.0000000E+00;  1.0000000E+04;-0.027108321;0.0;0.00067488541;12.119444
 -3.9999999E-02;  9.9999998E-03; -1.2000000E-01;381;0.0;0.0;0.0;1000.04;  4.0000001E-01;33.184242;0;0.0;0.0;0.0;0;-0.026825525;  1.0000000E+04;  0.0000000E+00;  0.0000000E+00;  1.0000000E+04;  0.0000000E+00;  1.0000000E+04;-0.027403755;0.0;0.0005782299;10.827435
 -3.9999999E-02;  9.9999998E-03; -1.0000000E-01;382;0.0;0.0;0.0;1000.0405;  4.0000001E-01;33.48053;0;0.0;0.0;0.0;0;-0.027054919;  1.0000000E+04;  0.0000000E+00;  0.0000000E+00;  1.0000000E+04;  0.0000000E+00;  1.0000000E+04;-0.027534064;0.0;0.00047914436;9.4929218
 -3.9999999E-02;  9.9999998E-03; -7.9999998E-02;383;0.0;0.0;0.0;1000.0406;  4.0000001E-01;33.579292;0;0.0;0.0;0.0;0;-0.027173273;  1.0000000E+04;  0.0000000E+00;  0.0000000E+00;  1.0000000E+04;  0.0000000E+00;  1.0000000E+04;-0.027561506;0.0;0.00038823369;8.2653179
 -3.9999999E-02;  9.9999998E-03; -5.9999999E-02;384;0.0;0.0;0.0;1000.0407;  4.0000001E-01;33.776817;0;0.0;0.0;0.0;0;-0.027222956;  1.0000000E+04;  0.0000000E+00;  0.0000000E+00;  1.0000000E+04;  0.0000000E+00;  1.0000000E+04;-0.027535215;0.0;0.00031226015;7.2392521
 -3.9999999E-02;  9.9999998E-03; -3.9999999E-02;385;0.0;0.0;0.0;1000.0407;  4.0000001E-01;33.776817;0;0.0;0.0;0.0;0;-0.027236264;  1.0000000E+04;  0.0000000E+00;  0.0000000E+00;  1.0000000E+04;  0.0000000E+00;  1.0000000E+04;-0.027491702;0.0;0.00025543739;6.4725199
 -3.9999999E-02;  9.9999998E-03; -2.0000000E-02;386;0.0;0.0;0.0;1000.0408;  4.0000001E-01;33.776817;0;0.0;0.0;0.0;0;-0.027235562;  1.0000000E+04;  0.0000000E+00;  0.0000000E+00;  1.0000000E+04;  0.0000000E+00;  1.0000000E+04;-0.027455937;0.0;0.00022037482;5.9999032
 -2.0000000E-02;  9.9999998E-03; -1.8000001E-01;419;0.0;0.0;0.0;1000.0541;  4.0000001E-01;44.83823;0;0.0;0.0;0.0;0;-0.036003422;  1.0000000E+04;  0.0000000E+00;  0.0000000E+00;  1.0000000E+04;  0.0000000E+00;  1.0000000E+04;-0.037287049;0.0;0.0012836268;21.80286
 -2.0000000E-02;  9.9999998E-03; -1.6000000E-01;420;0.0;0.0;0.0;1000.0559;  4.0000001E-01;46.319672;0;0.0;0.0;0.0;0;-0.037238732;  1.0000000E+04;  0.0000000E+00;  0.0000000E+00;  1.0000000E+04;  0.0000000E+00;  1.0000000E+04;-0.038490359;0.0;0.0012516259;21.418703
 -2.0000000E-02;  9.9999998E-03; -1.4000000E-01;421;0.0;0.0;0.0;1000.057;  4.0000001E-01;47.208534;0;0.0;0.0;0.0;0;-0.038088348;  1.0000000E+04;  0.0000000E+00;  0.0000000E+00;  1.0000000E+04;  0.0000000E+00;  1.0000000E+04;-0.039219171;0.0;0.0011308229;19.788708
 -2.0000000E-02;  9.9999998E-03; -1.2000000E-01;422;0.0;0.0;0.0;1000.0579;  4.0000001E-01;47.899872;0;0.0;0.0;0.0;0;-0.038632616;  1.0000000E+04;  0.0000000E+00;  0.0000000E+00;  1.0000000E+04;  0.0000000E+00;  1.0000000E+04;-0.039605472;0.0;0.00097285514;17.632933
 -2.0000000E-02;  9.9999998E-03; -1.0000000E-01;423;0.0;0.0;0.0;1000.0585;  4.0000001E-01;48.393684;0;0.0;0.0;0.0;0;-0.038950976;  1.0000000E+04;  0.0000000E+00;  0.0000000E+00;  1.0000000E+04;  0.0000000E+00;  1.0000000E+04;-0.039760105;0.0;0.00080913078;15.391253
 -2.0000000E-02;  9.9999998E-03; -7.9999998E-02;424;0.0;0.0;0.0;1000.0588;  4.0000001E-01;48.689972;0;0.0;0.0;0.0;0;-0.03911531;  1.0000000E+04;  0.0000000E+00;  0.0000000E+00;  1.0000000E+04;  0.0000000E+00;  1.0000000E+04;-0.039773267;0.0;0.00065795705;13.321303
 -2.0000000E-02;  9.9999998E-03; -5.9999999E-02;425;0.0;0.0;0.0;1000.0589;  4.0000001E-01;48.788734;0;0.0;0.0;0.0;0;-0.039184503;  1.0000000E+04;  0.0000000E+00;  0.0000000E+00;  1.0000000E+04;  0.0000000E+00;  1.0000000E+04;-0.039715655;0.0;0.00053115207;11.587551
 -2.0000000E-02;  9.9999998E-03; -3.9999999E-02;426;0.0;0.0;0.0;1000.059;  4.0000001E-01;48.887501;0;0.0;0.0;0.0;0;-0.039203241;  1.0000000E+04;  0.0000000E+00;  0.0000000E+00;  1.0000000E+04;  0.0000000E+00;  1.0000000E+04;-0.039639361;0.0;0.00043612142;10.290759
 -2.0000000E-02;  9.9999998E-03; -2.0000000E-02;427;0.0;0.0;0.0;1000.059;  4.0000001E-01;48.887501;0;0.0;0.0;0.0;0;-0.039202433;  1.0000000E+04;  0.0000000E+00;  0.0000000E+00;  1.0000000E+04;  0.0000000E+00;  1.0000000E+04;-0.039579861;0.0;0.00037742674;9.4911518
 -2.2000000E-01;  9.9999998E-03;  0.0000000E+00;19;0.0;0.0;0.0;1000.0;  4.0000001E-01;0.0;0;0.0;0.0;0.0;0;0.0;  1.0000000E+04;  0.0000000E+00;  0.0000000E+00;  1.0000000E+04;  0.0000000E+00;  1.0000000E+04;0.0;0.0;0.0;0.0
 -2.2000000E-01;  9.9999998E-03;  2.0000000E-02;20;0.0;0.0;0.0;1000.0;  4.0000001E-01;0.0;0;0.0;0.0;0.0;0;0.0;  1.0000000E+04;  0.0000000E+00;  0.0000000E+00;  1.0000000E+04;  0.0000000E+00;  1.0000000E+04;0.0;0.0;0.0;0.0
 -2.2000000E-01;  9.9999998E-03;  3.9999999E-02;21;0.0;0.0;0.0;1000.0;  4.0000001E-01;0.0;0;0.0;0.0;0.0;0;0.0;  1.0000000E+04;  0.0000000E+00;  0.0000000E+00;  1.0000000E+04;  0.0000000E+00;  1.0000000E+04;0.0;0.0;0.0;0.0
 -2.2000000E-01;  9.9999998E-03;  5.9999999E-02;22;0.0;0.0;0.0;1000.0;  4.0000001E-01;0.0;0;0.0;0.0;0.0;0;0.0;  1.0000000E+04;  0.0000000E+00;  0.0000000E+00;  1.0000000E+04;  0.0000000E+00;  1.0000000E+04;0.0;0.0;0.0;0.0
 -2.2000000E-01;  9.9999998E-03;  7.9999998E-02;23;0.0;0.0;0.0;1000.0;  4.0000001E-01;0.0;0;0.0;0.0;0.0;0;0.0;  1.0000000E+04;  0.0000000E+00;  0.0000000E+00;  1.0000000E+04;  0.0000000E+00;  1.0000000E+04;0.0;0.0;0.0;0.0
 -2.2000000E-01;  9.9999998E-03;  1.0000000E-01;24;0.0;0.0;0.0;1000.0;  4.0000001E-01;0.0;0;0.0;0.0;0.0;0;0.0;  1.0000000E+04;  0.0000000E+00;  0.0000000E+00;  1.0000000E+04;  0.0000000E+00;  1.0000000E+04;0.0;0.0;0.0;0.0
 -2.2000000E-01;  9.9999998E-03;  1.2000000E-01;25;0.0;0.0;0.0;1000.0;  4.0000001E-01;0.0;0;0.0;0.0;0.0;0;0.0;  1.0000000E+04;  0.0000000E+00;  0.0000000E+00;  1.0000000E+04;  0.0000000E+00;  1.0000000E+04;0.0;0.0;0.0;0.0
 -2.2000000E-01;  9.9999998E-03;  1.4000000E-01;26;0.0;0.0;0.0;1000.0;  4.0000001E-01;0.0;0;0.0;0.0;0.0;0;0.0;  1.0000000E+04;  0.0000000E+00;  0.0000000E+00;  1.0000000E+04;  0.0000000E+00;  1.0000000E+04;0.0;0.0;0.0;0.0
 -2.0000000E-01;  9.9999998E-03;  0.0000000E+00;59;0.0;0.0;0.0;1000.0;  4.0000001E-01;0.0;0;0.0;0.0;0.0;0;0.0;  1.0000000E+04;  0.0000000E+00;  0.0000000E+00;  1.0000000E+04;  0.0000000E+00;  1.0000000E+04;0.0;0.0;0.0;0.0
 -2.0000000E-01;  9.9999998E-03;  2.0000000E-02;60;0.0;0.0;0.0;1000.0;  4.0000001E-01;0.0;0;0.0;0.0;0.0;0;0.0;  1.0000000E+04;  0.0000000E+00;  0.0000000E+00;  1.0000000E+04;  0.0000000E+00;  1.0000000E+04;0.0;0.0;0.0;0.0
 -2.0000000E-01;  9.9999998E-03;  3.9999999E-02;61;0.0;0.0;0.0;1000.0;  4.0000001E-01;0.0;0;0.0;0.0;0.0;0;0.0;  1.0000000E+04;  0.0000000E+00;  0.0000000E+00;  1.0000000E+04;  0.0000000E+00;  1.0000000E+04;0.0;0.0;0.0;0.0
 -2.0000000E-01;  9.9999998E-03;  5.9999999E-02;62;0.0;0.0;0.0;1000.0;  4.0000001E-01;0.0;0;0.0;0.0;0.0;0;0.0;  1.0000000E+04;  0.0000000E+00;  0.0000000E+00;  1.0000000E+04;  0.0000000E+00;  1.0000000E+04;0.0;0.0;0.0;0.0
 -2.0000000E-01;  9.9999998E-03;  7.9999998E-02;63;0.0;0.0;0.0;1000.0;  4.0000001E-01;0.0;0;0.0;0.0;0.0;0;0.0;  1.0000000E+04;  0.0000000E+00;  0.0000000E+00;  1.0000000E+04;  0.0000000E+00;  1.0000000E+04;0.0;0.0;0.0;0.0
 -2.0000000E-01;  9.9999998E-03;  1.0000000E-01;64;0.0;0.0;0.0;1000.0;  4.0000001E-01;0.0;0;0.0;0.0;0.0;0;0.0;  1.0000000E+04;  0.0000000E+00;  0.0000000E+00;  1.0000000E+04;  0.0000000E+00;  1.0000000E+04;0.0;0.0;0.0;0.0
 -2.0000000E-01;  9.9999998E-03;  1.2000000E-01;65;0.0;0.0;0.0;1000.0;  4.0000001E-01;0.0;0;0.0;0.0;0.0;0;0.0;  1.0000000E+04;  0.0000000E+00;  0.0000000E+00;  1.0000000E+04;  0.0000000E+00;  1.0000000E+04;0.0;0.0;0.0;0.0
 -2.0000000E-01;  9.9999998E-03;  1.4000000E-01;66;0.0;0.0;0.0;1000.0;  4.0000001E-01;0.0;0;0.0;0.0;0.0;0;0.0;  1.0000000E+04;  0.0000000E+00;  0.0000000E+00;  1.0000000E+04;  0.0000000E+00;  1.0000000E+04;0.0;0.0;0.0;0.0
 -1.8000001E-01;  9.9999998E-03;  0.0000000E+00;100;0.0;0.0;0.0;1000.0;  4.0000001E-01;0.0;0;0.0;0.0;0.0;0;0.0;  1.0000000E+04;  0.0000000E+00;  0.0000000E+00;  1.0000000E+04;  0.0000000E+00;  1.0000000E+04;0.0;0.0;0.0;0.0
 -1.8000001E-01;  9.9999998E-03;  2.0000000E-02;101;0.0;0.0;0.0;1000.0;  4.0000001E-01;0.0;0;0.0;0.0;0.0;0;0.0;  1.0000000E+04;  0.0000000E+00;  0.0000000E+00;  1.0000000E+04;  0.0000000E+00;  1.0000000E+04;0.0;0.0;0.0;0.0
 -1.8000001E-01;  9.9999998E-03;  3.9999999E-02;102;0.0;0.0;0.0;1000.0;  4.0000001E-01;0.0;0;0.0;0.0;0.0;0;0.0;  1.0000000E+04;  0.0000000E+00;  0.0000000E+00;  1.0000000E+04;  0.0000000E+00;  1.0000000E+04;0.0;0.0;0.0;0.0
 -1.8000001E-01;  9.9999998E-03;  5.9999999E-02;103;0.0;0.0;0.0;1000.0;  4.0000001E-01;0.0;0;0.0;0.0;0.0;0;0.0;  1.0000000E+04;  0.0000000E+00;  0.0000000E+00;  1.0000000E+04;  0.0000000E+00;  1.0000000E+04;0.0;0.0;0.0;0.0
 -1.8000001E-01;  9.9999998E-03;  7.9999998E-02;104;0.0;0.0;0.0;1000.0;  4.0000001E-01;0.0;0;0.0;0.0;0.0;0;0.0;  1.0000000E+04;  0.0000000E+00;  0.0000000E+00;  1.0000000E+04;  0.0000000E+00;  1.0000000E+04;0.0;0.0;0.0;0.0
 -1.8000001E-01;  9.9999998E-03;  1.0000000E-01;105;0.0;0.0;0.0;1000.0;  4.0000001E-01;0.0;0;0.0;0.0;0.0;0;0.0;  1.0000000E+04;  0.0000000E+00;  0.0000000E+00;  1.0000000E+04;  0.0000000E+00;  1.0000000E+04;0.0;0.0;0.0;0.0
 -1.8000001E-01;  9.9999998E-03;  1.2000000E-01;106;0.0;0.0;0.0;1000.0;  4.0000001E-01;0.0;0;0.0;0.0;0.0;0;0.0;  1.0000000E+04;  0.0000000E+00;  0.0000000E+00;  1.0000000E+04;  0.0000000E+00;  1.0000000E+04;0.0;0.0;0.0;0.0
 -1.8000001E-01;  9.9999998E-03;  1.4000000E-01;107;0.0;0.0;0.0;1000.0;  4.0000001E-01;0.0;0;0.0;0.0;0.0;0;0.0;  1.0000000E+04;  0.0000000E+00;  0.0000000E+00;  1.0000000E+04;  0.0000000E+00;  1.0000000E+04;0.0;0.0;0.0;0.0
 -1.6000000E-01;  9.9999998E-03;  0.0000000E+00;141;0.0;0.0;0.0;1000.0;  4.0000001E-01;0.0;0;0.0;0.0;0.0;0;-5.4650068e-06;  1.0000000E+04;  0.0000000E+00;  0.0000000E+00;  1.0000000E+04;  0.0000000E+00;  1.0000000E+04;-5.4668835e-06;0.0;1.8766779e-09;0.0006342869
 -1.6000000E-01;  9.9999998E-03;  2.0000000E-02;142;0.0;0.0;0.0;1000.0;  4.0000001E-01;0.0;0;0.0;0.0;0.0;0;-5.4683078e-06;  1.0000000E+04;  0.0000000E+00;  0.0000000E+00;  1.0000000E+04;  0.0000000E+00;  1.0000000E+04;-5.470351e-06;0.0;2.0434032e-09;0.00063674827
 -1.6000000E-01;  9.9999998E-03;  3.9999999E-02;143;0.0;0.0;0.0;1000.0;  4.0000001E-01;0.0;0;0.0;0.0;0.0;0;-5.4773304e-06;  1.0000000E+04;  0.0000000E+00;  0.0000000E+00;  1.0000000E+04;  0.0000000E+00;  1.0000000E+04;-5.4798656e-06;0.0;2.5352178e-09;0.00064396206
 -1.6000000E-01;  9.9999998E-03;  5.9999999E-02;144;0.0;0.0;0.0;1000.0;  4.0000001E-01;0.0;0;0.0;0.0;0.0;0;-5.4893962e-06;  1.0000000E+04;  0.0000000E+00;  0.0000000E+00;  1.0000000E+04;  0.0000000E+00;  1.0000000E+04;-5.492735e-06;0.0;3.3386807e-09;0.00065549935
 -1.6000000E-01;  9.9999998E-03;  7.9999998E-02;145;0.0;0.0;0.0;1000.0;  4.0000001E-01;0.0;0;0.0;0.0;0.0;0;-5.4998786e-06;  1.0000000E+04;  0.0000000E+00;  0.0000000E+00;  1.0000000E+04;  0.0000000E+00;  1.0000000E+04;-5.5042924e-06;0.0;4.4136987e-09;0.00067040534
 -1.6000000E-01;  9.9999998E-03;  1.0000000E-01;146;0.0;0.0;0.0;1000.0;  4.0000001E-01;0.0;0;0.0;0.0;0.0;0;-5.5018822e-06;  1.0000000E+04;  0.0000000E+00;  0.0000000E+00;  1.0000000E+04;  0.0000000E+00;  1.0000000E+04;-5.5076116e-06;0.0;5.729361e-09;0.00068761397
 -1.6000000E-01;  9.9999998E-03;  1.2000000E-01;147;0.0;0.0;0.0;1000.0;  4.0000001E-01;0.0;0;0.0;0.0;0.0;0;-5.4859802e-06;  1.0000000E+04;  0.0000000E+00;  0.0000000E+00;  1.0000000E+04;  0.0000000E+00;  1.0000000E+04;-5.493207e-06;0.0;7.2269084e-09;0.0007054148
 -1.6000000E-01;  9.9999998E-03;  1.4000000E-01;148;0.0;0.0;0.0;1000.0;  4.0000001E-01;0.0;0;0.0;0.0;0.0;0;-5.4399907e-06;  1.0000000E+04;  0.0000000E+00;  0.0000000E+00;  1.0000000E+04;  0.0000000E+00;  1.0000000E+04;-5.44882e-06;0.0;8.8294119e-09;0.00072140852
 -1.4000000E-01;  9.9999998E-03;  0.0000000E+00;182;0.0;0.0;0.0;1000.0002;  4.0000001E-01;0.19752525;0;0.0;0.0;0.0;0;-0.00020141072;  1.0000000E+04;  0.0000000E+00;  0.0000000E+00;  1.0000000E+04;  0.0000000E+00;  1.0000000E+04;-0.00020167389;0.0;2.631713e-07;0.02590772
 -1.4000000E-01;  9.9999998E-03;  2.0000000E-02;183;0.0;0.0;0.0;1000.0002;  4.0000001E-01;0.19752525;0;0.0;0.0;0.0;0;-0.00020149416;  1.0000000E+04;  0.0000000E+00;  0.0000000E+00;  1.0000000E+04;  0.0000000E+00;  1.0000000E+04;-0.00020177783;0.0;2.8367955e-07;0.026182331
 -1.4000000E-01;  9.9999998E-03;  3.9999999E-02;184;0.0;0.0;0.0;1000.0002;  4.0000001E-01;0.19752525;0;0.0;0.0;0.0;0;-0.00020171152;  1.0000000E+04;  0.0000000E+00;  0.0000000E+00;  1.0000000E+04;  0.0000000E+00;  1.0000000E+04;-0.0002020558;0.0;3.4428061e-07;0.0269922
 -1.4000000E-01;  9.9999998E-03;  5.9999999E-02;185;0.0;0.0;0.0;1000.0002;  4.0000001E-01;0.19752525;0;0.0;0.0;0.0;0;-0.00020196129;  1.0000000E+04;  0.0000000E+00;  0.0000000E+00;  1.0000000E+04;  0.0000000E+00;  1.0000000E+04;-0.00020240404;0.0;4.4275083e-07;0.028301466
 -1.4000000E-01;  9.9999998E-03;  7.9999998E-02;186;0.0;0.0;0.0;1000.0002;  4.0000001E-01;0.19752525;0;0.0;0.0;0.0;0;-0.00020206791;  1.0000000E+04;  0.0000000E+00;  0.0000000E+00;  1.0000000E+04;  0.0000000E+00;  1.0000000E+04;-0.00020264322;0.0;5.7531435e-07;0.030048583
 -1.4000000E-01;  9.9999998E-03;  1.0000000E-01;187;0.0;0.0;0.0;1000.0002;  4.0000001E-01;0.19752525;0;0.0;0.0;0.0;0;-0.00020177431;  1.0000000E+04;  0.0000000E+00;  0.0000000E+00;  1.0000000E+04;  0.0000000E+00;  1.0000000E+04;-0.00020251075;0.0;7.3643696e-07;0.032138772
 -1.4000000E-01;  9.9999998E-03;  1.2000000E-01;188;0.0;0.0;0.0;1000.0002;  4.0000001E-01;0.19752525;0;0.0;0.0;0.0;0;-0.00020073107;  1.0000000E+04;  0.0000000E+00;  0.0000000E+00;  1.0000000E+04;  0.0000000E+00;  1.0000000E+04;-0.00020165088;0.0;9.1981894e-07;0.034453556
 -1.4000000E-01;  9.9999998E-03;  1.4000000E-01;189;0.0;0.0;0.0;1000.0002;  4.0000001E-01;0.19752525;0;0.0;0.0;0.0;0;-0.00019849632;  1.0000000E+04;  0.0000000E+00;  0.0000000E+00;  1.0000000E+04;  0.0000000E+00;  1.0000000E+04;-0.00019961127;0.0;1.1149482e-06;0.036805358
 -1.2000000E-01;  9.9999998E-03;  0.0000000E+00;223;0.0;0.0;0.0;1000.0016;  4.0000001E-01;1.2839141;0;0.0;0.0;0.0;0;-0.0011186218;  1.0000000E+04;  0.0000000E+00;  0.0000000E+00;  1.0000000E+04;  0.0000000E+00;  1.0000000E+04;-0.0011213676;0.0;2.7457975e-06;0.16087534
 -1.2000000E-01;  9.9999998E-03;  2.0000000E-02;224;0.0;0.0;0.0;1000.0016;  4.0000001E-01;1.2839141;0;0.0;0.0;0.0;0;-0.0011189418;  1.0000000E+04;  0.0000000E+00;  0.0000000E+00;  1.0000000E+04;  0.0000000E+00;  1.0000000E+04;-0.0011218806;0.0;2.9388066e-06;0.16343051
 -1.2000000E-01;  9.9999998E-03;  3.9999999E-02;225;0.0;0.0;0.0;1000.0016;  4.0000001E-01;1.2839141;0;0.0;0.0;0.0;0;-0.0011197157;  1.0000000E+04;  0.0000000E+00;  0.0000000E+00;  1.0000000E+04;  0.0000000E+00;  1.0000000E+04;-0.0011232267;0.0;3.5109811e-06;0.17099914
 -1.2000000E-01;  9.9999998E-03;  5.9999999E-02;226;0.0;0.0;0.0;1000.0016;  4.0000001E-01;1.2839141;0;0.0;0.0;0.0;0;-0.0011203757;  1.0000000E+04;  0.0000000E+00;  0.0000000E+00;  1.0000000E+04;  0.0000000E+00;  1.0000000E+04;-0.001124816;0.0;4.4402714e-06;0.18326931
 -1.2000000E-01;  9.9999998E-03;  7.9999998E-02;227;0.0;0.0;0.0;1000.0016;  4.0000001E-01;1.2839141;0;0.0;0.0;0.0;0;-0.0011199448;  1.0000000E+04;  0.0000000E+00;  0.0000000E+00;  1.0000000E+04;  0.0000000E+00;  1.0000000E+04;-0.0011256351;0.0;5.6902136e-06;0.19970523
 -1.2000000E-01;  9.9999998E-03;  1.0000000E-01;228;0.0;0.0;0.0;1000.0016;  4.0000001E-01;1.2839141;0;0.0;0.0;0.0;0;-0.0011169906;  1.0000000E+04;  0.0000000E+00;  0.0000000E+00;  1.0000000E+04;  0.0000000E+00;  1.0000000E+04;-0.0011242008;0.0;7.2101689e-06;0.21952711
 -1.2000000E-01;  9.9999998E-03;  1.2000000E-01;229;0.0;0.0;0.0;1000.0016;  4.0000001E-01;1.2839141;0;0.0;0.0;0.0;0;-0.0011096011;  1.0000000E+04;  0.0000000E+00;  0.0000000E+00;  1.0000000E+04;  0.0000000E+00;  1.0000000E+04;-0.001118526;0.0;8.9248351e-06;0.24155317
 -1.2000000E-01;  9.9999998E-03;  1.4000000E-01;230;0.0;0.0;0.0;1000.0015;  4.0000001E-01;1.2839141;0;0.0;0.0;0.0;0;-0.0010953891;  1.0000000E+04;  0.0000000E+00;  0.0000000E+00;  1.0000000E+04;  0.0000000E+00;  1.0000000E+04;-0.0011061028;0.0;1.0713647e-05;0.26389995
 -1.0000000E-01;  9.9999998E-03;  0.0000000E+00;264;0.0;0.0;0.0;1000.0052;  4.0000001E-01;4.3455553;0;0.0;0.0;0.0;0;-0.0035740661;  1.0000000E+04;  0.0000000E+00;  0.0000000E+00;  1.0000000E+04;  0.0000000E+00;  1.0000000E+04;-0.003587337;0.0;1.3270866e-05;0.57393551
 -1.0000000E-01;  9.9999998E-03;  2.0000000E-02;265;0.0;0.0;0.0;1000.0052;  4.0000001E-01;4.3455553;0;0.0;0.0;0.0;0;-0.003574746;  1.0000000E+04;  0.0000000E+00;  0.0000000E+00;  1.0000000E+04;  0.0000000E+00;  1.0000000E+04;-0.0035888806;0.0;1.4134745e-05;0.58536738
 -1.0000000E-01;  9.9999998E-03;  3.9999999E-02;266;0.0;0.0;0.0;1000.0052;  4.0000001E-01;4.3455553;0;0.0;0.0;0.0;0;-0.0035761914;  1.0000000E+04;  0.0000000E+00;  0.0000000E+00;  1.0000000E+04;  0.0000000E+00;  1.0000000E+04;-0.0035928853;0.0;1.6693906e-05;0.61923254
 -1.0000000E-01;  9.9999998E-03;  5.9999999E-02;267;0.0;0.0;0.0;1000.0052;  4.0000001E-01;4.3455553;0;0.0;0.0;0.0;0;-0.0035765937;  1.0000000E+04;  0.0000000E+00;  0.0000000E+00;  1.0000000E+04;  0.0000000E+00;  1.0000000E+04;-0.003597443;0.0;2.0849368e-05;0.6741845
 -1.0000000E-01;  9.9999998E-03;  7.9999998E-02;268;0.0;0.0;0.0;1000.0052;  4.0000001E-01;4.3455553;0;0.0;0.0;0.0;0;-0.0035728395;  1.0000000E+04;  0.0000000E+00;  0.0000000E+00;  1.0000000E+04;  0.0000000E+00;  1.0000000E+04;-0.0035992758;0.0;2.6436273e-05;0.74790466
 -1.0000000E-01;  9.9999998E-03;  1.0000000E-01;269;0.0;0.0;0.0;1000.0051;  4.0000001E-01;4.2467928;0;0.0;0.0;0.0;0;-0.0035604045;  1.0000000E+04;  0.0000000E+00;  0.0000000E+00;  1.0000000E+04;  0.0000000E+00;  1.0000000E+04;-0.0035936111;0.0;3.3206517e-05;0.83679068
 -1.0000000E-01;  9.9999998E-03;  1.2000000E-01;270;0.0;0.0;0.0;1000.005;  4.0000001E-01;4.1480303;0;0.0;0.0;0.0;0;-0.0035332832;  1.0000000E+04;  0.0000000E+00;  0.0000000E+00;  1.0000000E+04;  0.0000000E+00;  1.0000000E+04;-0.0035740614;0.0;4.0778166e-05;0.93518108
 -1.0000000E-01;  9.9999998E-03;  1.4000000E-01;271;0.0;0.0;0.0;1000.005;  4.0000001E-01;4.1480303;0;0.0;0.0;0.0;0;-0.0034840761;  1.0000000E+04;  0.0000000E+00;  0.0000000E+00;  1.0000000E+04;  0.0000000E+00;  1.0000000E+04;-0.0035326038;0.0;4.8527821e-05;1.0338658
 -7.9999998E-02;  9.9999998E-03;  0.0000000E+00;305;0.0;0.0;0.0;1000.0127;  4.0000001E-01;10.468838;0;0.0;0.0;0.0;0;-0.0085129878;  1.0000000E+04;  0.0000000E+00;  0.0000000E+00;  1.0000000E+04;  0.0000000E+00;  1.0000000E+04;-0.0085554626;0.0;4.2475232e-05;1.5132747
 -7.9999998E-02;  9.9999998E-03;  2.0000000E-02;306;0.0;0.0;0.0;1000.0127;  4.0000001E-01;10.468838;0;0.0;0.0;0.0;0;-0.0085140495;  1.0000000E+04;  0.0000000E+00;  0.0000000E+00;  1.0000000E+04;  0.0000000E+00;  1.0000000E+04;-0.0085591311;0.0;4.5082012e-05;1.5479037
 -7.9999998E-02;  9.9999998E-03;  3.9999999E-02;307;0.0;0.0;0.0;1000.0127;  4.0000001E-01;10.468838;0;0.0;0.0;0.0;0;-0.0085158134;  1.0000000E+04;  0.0000000E+00;  0.0000000E+00;  1.0000000E+04;  0.0000000E+00;  1.0000000E+04;-0.0085686147;0.0;5.2801246e-05;1.6504682
 -7.9999998E-02;  9.9999998E-03;  5.9999999E-02;308;0.0;0.0;0.0;1000.0126;  4.0000001E-01;10.468838;0;0.0;0.0;0.0;0;-0.0085140262;  1.0000000E+04;  0.0000000E+00;  0.0000000E+00;  1.0000000E+04;  0.0000000E+00;  1.0000000E+04;-0.0085793575;0.0;6.5331071e-05;1.816943
 -7.9999998E-02;  9.9999998E-03;  7.9999998E-02;309;0.0;0.0;0.0;1000.0126;  4.0000001E-01;10.468838;0;0.0;0.0;0.0;0;-0.0085013546;  1.0000000E+04;  0.0000000E+00;  0.0000000E+00;  1.0000000E+04;  0.0000000E+00;  1.0000000E+04;-0.0085835056;0.0;8.2151462e-05;2.0401986
 -7.9999998E-02;  9.9999998E-03;  1.0000000E-01;310;0.0;0.0;0.0;1000.0126;  4.0000001E-01;10.468838;0;0.0;0.0;0.0;0;-0.0084671844;  1.0000000E+04;  0.0000000E+00;  0.0000000E+00;  1.0000000E+04;  0.0000000E+00;  1.0000000E+04;-0.0085696364;0.0;0.00010245201;2.3087871
 -7.9999998E-02;  9.9999998E-03;  1.2000000E-01;311;0.0;0.0;0.0;1000.0124;  4.0000001E-01;10.271313;0;0.0;0.0;0.0;0;-0.0083975242;  1.0000000E+04;  0.0000000E+00;  0.0000000E+00;  1.0000000E+04;  0.0000000E+00;  1.0000000E+04;-0.0085224714;0.0;0.00012494704;2.6042125
 -7.9999998E-02;  9.9999998E-03;  1.4000000E-01;312;0.0;0.0;0.0;1000.0121;  4.0000001E-01;9.9750252;0;0.0;0.0;0.0;0;-0.0082752667;  1.0000000E+04;  0.0000000E+00;  0.0000000E+00;  1.0000000E+04;  0.0000000E+00;  1.0000000E+04;-0.008422819;0.0;0.00014755213;2.8965187
 -5.9999999E-02;  9.9999998E-03;  0.0000000E+00;346;0.0;0.0;0.0;1000.0245;  4.0000001E-01;20.3451;0;0.0;0.0;0.0;0;-0.016511034;  1.0000000E+04;  0.0000000E+00;  0.0000000E+00;  1.0000000E+04;  0.0000000E+00;  1.0000000E+04;-0.016614927;0.0;0.00010389297;3.228339
 -5.9999999E-02;  9.9999998E-03;  2.0000000E-02;347;0.0;0.0;0.0;1000.0245;  4.0000001E-01;20.3451;0;0.0;0.0;0.0;0;-0.016512392;  1.0000000E+04;  0.0000000E+00;  0.0000000E+00;  1.0000000E+04;  0.0000000E+00;  1.0000000E+04;-0.016622383;0.0;0.00010999089;3.3098333
 -5.9999999E-02;  9.9999998E-03;  3.9999999E-02;348;0.0;0.0;0.0;1000.0245;  4.0000001E-01;20.3451;0;0.0;0.0;0.0;0;-0.016513817;  1.0000000E+04;  0.0000000E+00;  0.0000000E+00;  1.0000000E+04;  0.0000000E+00;  1.0000000E+04;-0.016641859;0.0;0.00012804258;3.5511777
 -5.9999999E-02;  9.9999998E-03;  5.9999999E-02;349;0.0;0.0;0.0;1000.0245;  4.0000001E-01;20.3451;0;0.0;0.0;0.0;0;-0.016507147;  1.0000000E+04;  0.0000000E+00;  0.0000000E+00;  1.0000000E+04;  0.0000000E+00;  1.0000000E+04;-0.01666447;0.0;0.00015732351;3.9428434
 -5.9999999E-02;  9.9999998E-03;  7.9999998E-02;350;0.0;0.0;0.0;1000.0244;  4.0000001E-01;20.246338;0;0.0;0.0;0.0;0;-0.016478468;  1.0000000E+04;  0.0000000E+00;  0.0000000E+00;  1.0000000E+04;  0.0000000E+00;  1.0000000E+04;-0.016675021;0.0;0.00019655457;4.4675703
 -5.9999999E-02;  9.9999998E-03;  1.0000000E-01;351;0.0;0.0;0.0;1000.0244;  4.0000001E-01;20.147575;0;0.0;0.0;0.0;0;-0.016407624;  1.0000000E+04;  0.0000000E+00;  0.0000000E+00;  1.0000000E+04;  0.0000000E+00;  1.0000000E+04;-0.016651317;0.0;0.0002436943;5.0970287
 -5.9999999E-02;  9.9999998E-03;  1.2000000E-01;352;0.0;0.0;0.0;1000.0243;  4.0000001E-01;20.147575;0;0.0;0.0;0.0;0;-0.016268156;  1.0000000E+04;  0.0000000E+00;  0.0000000E+00;  1.0000000E+04;  0.0000000E+00;  1.0000000E+04;-0.016563626;0.0;0.00029546948;5.7849326
 -5.9999999E-02;  9.9999998E-03;  1.4000000E-01;353;0.0;0.0;0.0;1000.0238;  4.0000001E-01;19.752525;0;0.0;0.0;0.0;0;-0.016027808;  1.0000000E+04;  0.0000000E+00;  0.0000000E+00;  1.0000000E+04;  0.0000000E+00;  1.0000000E+04;-0.016374465;0.0;0.0003466575;6.4572568
 -3.9999999E-02;  9.9999998E-03;  0.0000000E+00;387;0.0;0.0;0.0;1000.0408;  4.0000001E-01;33.776817;0;0.0;0.0;0.0;0;-0.02723391;  1.0000000E+04;  0.0000000E+00;  0.0000000E+00;  1.0000000E+04;  0.0000000E+00;  1.0000000E+04;-0.027442439;0.0;0.00020852778;5.8403182
 -3.9999999E-02;  9.9999998E-03;  2.0000000E-02;388;0.0;0.0;0.0;1000.0408;  4.0000001E-01;33.776817;0;0.0;0.0;0.0;0;-0.027235558;  1.0000000E+04;  0.0000000E+00;  0.0000000E+00;  1.0000000E+04;  0.0000000E+00;  1.0000000E+04;-0.027455933;0.0;0.00022037484;5.9999037
 -3.9999999E-02;  9.9999998E-03;  3.9999999E-02;389;0.0;0.0;0.0;1000.0407;  4.0000001E-01;33.776817;0;0.0;0.0;0.0;0;-0.027236262;  1.0000000E+04;  0.0000000E+00;  0.0000000E+00;  1.0000000E+04;  0.0000000E+00;  1.0000000E+04;-0.0274917;0.0;0.00025543754;6.4725199
 -3.9999999E-02;  9.9999998E-03;  5.9999999E-02;390;0.0;0.0;0.0;1000.0407;  4.0000001E-01;33.776817;0;0.0;0.0;0.0;0;-0.027222959;  1.0000000E+04;  0.0000000E+00;  0.0000000E+00;  1.0000000E+04;  0.0000000E+00;  1.0000000E+04;-0.027535219;0.0;0.00031226032;7.239253
 -3.9999999E-02;  9.9999998E-03;  7.9999998E-02;391;0.0;0.0;0.0;1000.0406;  4.0000001E-01;33.579292;0;0.0;0.0;0.0;0;-0.027173273;  1.0000000E+04;  0.0000000E+00;  0.0000000E+00;  1.0000000E+04;  0.0000000E+00;  1.0000000E+04;-0.027561506;0.0;0.00038823378;8.2653189
 -3.9999999E-02;  9.9999998E-03;  1.0000000E-01;392;0.0;0.0;0.0;1000.0405;  4.0000001E-01;33.48053;0;0.0;0.0;0.0;0;-0.027054913;  1.0000000E+04;  0.0000000E+00;  0.0000000E+00;  1.0000000E+04;  0.0000000E+00;  1.0000000E+04;-0.027534058;0.0;0.00047914428;9.4929218
 -3.9999999E-02;  9.9999998E-03;  1.2000000E-01;393;0.0;0.0;0.0;1000.04;  4.0000001E-01;33.184242;0;0.0;0.0;0.0;0;-0.02682551;  1.0000000E+04;  0.0000000E+00;  0.0000000E+00;  1.0000000E+04;  0.0000000E+00;  1.0000000E+04;-0.02740374;0.0;0.00057822978;10.827435
 -3.9999999E-02;  9.9999998E-03;  1.4000000E-01;394;0.0;0.0;0.0;1000.0394;  4.0000001E-01;32.591667;0;0.0;0.0;0.0;0;-0.026433427;  1.0000000E+04;  0.0000000E+00;  0.0000000E+00;  1.0000000E+04;  0.0000000E+00;  1.0000000E+04;-0.027108312;0.0;0.00067488529;12.119449
 -2.0000000E-02;  9.9999998E-03;  0.0000000E+00;428;0.0;0.0;0.0;1000.059;  4.0000001E-01;48.887501;0;0.0;0.0;0.0;0;-0.03920022;  1.0000000E+04;  0.0000000E+00;  0.0000000E+00;  1.0000000E+04;  0.0000000E+00;  1.0000000E+04;-0.039557811;0.0;0.00035758916;9.2211542
 -2.0000000E-02;  9.9999998E-03;  2.0000000E-02;429;0.0;0.0;0.0;1000.059;  4.0000001E-01;48.887501;0;0.0;0.0;0.0;0;-0.039202441;  1.0000000E+04;  0.0000000E+00;  0.0000000E+00;  1.0000000E+04;  0.0000000E+00;  1.0000000E+04;-0.039579868;0.0;0.00037742686;9.4911528
 -2.0000000E-02;  9.9999998E-03;  3.9999999E-02;430;0.0;0.0;0.0;1000.059;  4.0000001E-01;48.887501;0;0.0;0.0;0.0;0;-0.039203223;  1.0000000E+04;  0.0000000E+00;  0.0000000E+00;  1.0000000E+04;  0.0000000E+00;  1.0000000E+04;-0.039639343;0.0;0.00043612137;10.290761
 -2.0000000E-02;  9.9999998E-03;  5.9999999E-02;431;0.0;0.0;0.0;1000.0589;  4.0000001E-01;48.788734;0;0.0;0.0;0.0;0;-0.039184503;  1.0000000E+04;  0.0000000E+00;  0.0000000E+00;  1.0000000E+04;  0.0000000E+00;  1.0000000E+04;-0.039715655;0.0;0.00053115212;11.587552
 -2.0000000E-02;  9.9999998E-03;  7.9999998E-02;432;0.0;0.0;0.0;1000.0588;  4.0000001E-01;48.689972;0;0.0;0.0;0.0;0;-0.039115328;  1.0000000E+04;  0.0000000E+00;  0.0000000E+00;  1.0000000E+04;  0.0000000E+00;  1.0000000E+04;-0.039773285;0.0;0.00065795681;13.321305
 -2.0000000E-02;  9.9999998E-03;  1.0000000E-01;433;0.0;0.0;0.0;1000.0585;  4.0000001E-01;48.393684;0;0.0;0.0;0.0;0;-0.038950976;  1.0000000E+04;  0.0000000E+00;  0.0000000E+00;  1.0000000E+04;  0.0000000E+00;  1.0000000E+04;-0.039760105;0.0;0.00080913072;15.391255
 -2.0000000E-02;  9.9999998E-03;  1.2000000E-01;434;0.0;0.0;0.0;1000.0579;  4.0000001E-01;47.899872;0;0.0;0.0;0.0;0;-0.038632609;  1.0000000E+04;  0.0000000E+00;  0.0000000E+00;  1.0000000E+04;  0.0000000E+00;  1.0000000E+04;-0.039605465;0.0;0.0009728552;17.632935
 -2.0000000E-02;  9.9999998E-03;  1.4000000E-01;435;0.0;0.0;0.0;1000.057;  4.0000001E-01;47.208534;0;0.0;0.0;0.0;0;-0.038088344;  1.0000000E+04;  0.0000000E+00;  0.0000000E+00;  1.0000000E+04;  0.0000000E+00;  1.0000000E+04;-0.039219167;0.0;0.0011308229;19.788708
 -2.2000000E-01;  9.9999998E-03;  1.6000000E-01;27;0.0;0.0;0.0;1000.0;  4.0000001E-01;0.0;0;0.0;0.0;0.0;0;0.0;  1.0000000E+04;  0.0000000E+00;  0.0000000E+00;  1.0000000E+04;  0.0000000E+00;  1.0000000E+04;0.0;0.0;0.0;0.0
 -2.2000000E-01;  9.9999998E-03;  1.8000001E-01;28;0.0;0.0;0.0;1000.0;  4.0000001E-01;0.0;0;0.0;0.0;0.0;0;0.0;  1.0000000E+04;  0.0000000E+00;  0.0000000E+00;  1.0000000E+04;  0.0000000E+00;  1.0000000E+04;0.0;0.0;0.0;0.0
 -2.2000000E-01;  9.9999998E-03;  2.0000000E-01;29;0.0;0.0;0.0;1000.0;  4.0000001E-01;0.0;0;0.0;0.0;0.0;0;0.0;  1.0000000E+04;  0.0000000E+00;  0.0000000E+00;  1.0000000E+04;  0.0000000E+00;  1.0000000E+04;0.0;0.0;0.0;0.0
 -2.2000000E-01;  9.9999998E-03;  2.2000000E-01;30;0.0;0.0;0.0;1000.0;  4.0000001E-01;0.0;0;0.0;0.0;0.0;0;0.0;  1.0000000E+04;  0.0000000E+00;  0.0000000E+00;  1.0000000E+04;  0.0000000E+00;  1.0000000E+04;0.0;0.0;0.0;0.0
 -2.2000000E-01;  9.9999998E-03;  2.3999999E-01;31;0.0;0.0;0.0;1000.0;  4.0000001E-01;0.0;0;0.0;0.0;0.0;0;0.0;  1.0000000E+04;  0.0000000E+00;  0.0000000E+00;  1.0000000E+04;  0.0000000E+00;  1.0000000E+04;0.0;0.0;0.0;0.0
 -2.2000000E-01;  9.9999998E-03;  2.5999999E-01;32;0.0;0.0;0.0;1000.0;  4.0000001E-01;0.0;0;0.0;0.0;0.0;0;0.0;  1.0000000E+04;  0.0000000E+00;  0.0000000E+00;  1.0000000E+04;  0.0000000E+00;  1.0000000E+04;0.0;0.0;0.0;0.0
 -2.2000000E-01;  9.9999998E-03;  2.8000000E-01;33;0.0;0.0;0.0;1000.0;  4.0000001E-01;0.0;0;0.0;0.0;0.0;0;0.0;  1.0000000E+04;  0.0000000E+00;  0.0000000E+00;  1.0000000E+04;  0.0000000E+00;  1.0000000E+04;0.0;0.0;0.0;0.0
 -2.2000000E-01;  9.9999998E-03;  3.0000001E-01;34;0.0;0.0;0.0;1000.0;  4.0000001E-01;0.0;0;0.0;0.0;0.0;0;0.0;  1.0000000E+04;  0.0000000E+00;  0.0000000E+00;  1.0000000E+04;  0.0000000E+00;  1.0000000E+04;0.0;0.0;0.0;0.0
 -2.2000000E-01;  9.9999998E-03;  3.1999999E-01;35;0.0;0.0;0.0;1000.0;  4.0000001E-01;0.0;0;0.0;0.0;0.0;0;0.0;  1.0000000E+04;  0.0000000E+00;  0.0000000E+00;  1.0000000E+04;  0.0000000E+00;  1.0000000E+04;0.0;0.0;0.0;0.0
 -2.0000000E-01;  9.9999998E-03;  1.6000000E-01;67;0.0;0.0;0.0;1000.0;  4.0000001E-01;0.0;0;0.0;0.0;0.0;0;0.0;  1.0000000E+04;  0.0000000E+00;  0.0000000E+00;  1.0000000E+04;  0.0000000E+00;  1.0000000E+04;0.0;0.0;0.0;0.0
 -2.0000000E-01;  9.9999998E-03;  1.8000001E-01;68;0.0;0.0;0.0;1000.0;  4.0000001E-01;0.0;0;0.0;0.0;0.0;0;0.0;  1.0000000E+04;  0.0000000E+00;  0.0000000E+00;  1.0000000E+04;  0.0000000E+00;  1.0000000E+04;0.0;0.0;0.0;0.0
 -2.0000000E-01;  9.9999998E-03;  2.0000000E-01;69;0.0;0.0;0.0;1000.0;  4.0000001E-01;0.0;0;0.0;0.0;0.0;0;0.0;  1.0000000E+04;  0.0000000E+00;  0.0000000E+00;  1.0000000E+04;  0.0000000E+00;  1.0000000E+04;0.0;0.0;0.0;0.0
 -2.0000000E-01;  9.9999998E-03;  2.2000000E-01;70;0.0;0.0;0.0;1000.0;  4.0000001E-01;0.0;0;0.0;0.0;0.0;0;0.0;  1.0000000E+04;  0.0000000E+00;  0.0000000E+00;  1.0000000E+04;  0.0000000E+00;  1.0000000E+04;0.0;0.0;0.0;0.0
 -2.0000000E-01;  9.9999998E-03;  2.3999999E-01;71;0.0;0.0;0.0;1000.0;  4.0000001E-01;0.0;0;0.0;0.0;0.0;0;0.0;  1.0000000E+04;  0.0000000E+00;  0.0000000E+00;  1.0000000E+04;  0.0000000E+00;  1.0000000E+04;0.0;0.0;0.0;0.0
 -2.0000000E-01;  9.9999998E-03;  2.5999999E-01;72;0.0;0.0;0.0;1000.0;  4.0000001E-01;0.0;0;0.0;0.0;0.0;0;0.0;  1.0000000E+04;  0.0000000E+00;  0.0000000E+00;  1.0000000E+04;  0.0000000E+00;  1.0000000E+04;0.0;0.0;0.0;0.0
 -2.0000000E-01;  9.9999998E-03;  2.8000000E-01;73;0.0;0.0;0.0;1000.0;  4.0000001E-01;0.0;0;0.0;0.0;0.0;0;0.0;  1.0000000E+04;  0.0000000E+00;  0.0000000E+00;  1.0000000E+04;  0.0000000E+00;  1.0000000E+04;0.0;0.0;0.0;0.0
 -2.0000000E-01;  9.9999998E-03;  3.0000001E-01;74;0.0;0.0;0.0;1000.0;  4.0000001E-01;0.0;0;0.0;0.0;0.0;0;0.0;  1.0000000E+04;  0.0000000E+00;  0.0000000E+00;  1.0000000E+04;  0.0000000E+00;  1.0000000E+04;0.0;0.0;0.0;0.0
 -2.0000000E-01;  9.9999998E-03;  3.1999999E-01;75;0.0;0.0;0.0;1000.0;  4.0000001E-01;0.0;0;0.0;0.0;0.0;0;0.0;  1.0000000E+04;  0.0000000E+00;  0.0000000E+00;  1.0000000E+04;  0.0000000E+00;  1.0000000E+04;0.0;0.0;0.0;0.0
 -1.8000001E-01;  9.9999998E-03;  1.6000000E-01;108;0.0;0.0;0.0;1000.0;  4.0000001E-01;0.0;0;0.0;0.0;0.0;0;0.0;  1.0000000E+04;  0.0000000E+00;  0.0000000E+00;  1.0000000E+04;  0.0000000E+00;  1.0000000E+04;0.0;0.0;0.0;0.0
 -1.8000001E-01;  9.9999998E-03;  1.8000001E-01;109;0.0;0.0;0.0;1000.0;  4.0000001E-01;0.0;0;0.0;0.0;0.0;0;0.0;  1.0000000E+04;  0.0000000E+00;  0.0000000E+00;  1.0000000E+04;  0.0000000E+00;  1.0000000E+04;0.0;0.0;0.0;0.0
 -1.8000001E-01;  9.9999998E-03;  2.0000000E-01;110;0.0;0.0;0.0;1000.0;  4.0000001E-01;0.0;0;0.0;0.0;0.0;0;0.0;  1.0000000E+04;  0.0000000E+00;  0.0000000E+00;  1.0000000E+04;  0.0000000E+00;  1.0000000E+04;0.0;0.0;0.0;0.0
 -1.8000001E-01;  9.9999998E-03;  2.2000000E-01;111;0.0;0.0;0.0;1000.0;  4.0000001E-01;0.0;0;0.0;0.0;0.0;0;0.0;  1.0000000E+04;  0.0000000E+00;  0.0000000E+00;  1.0000000E+04;  0.0000000E+00;  1.0000000E+04;0.0;0.0;0.0;0.0
 -1.8000001E-01;  9.9999998E-03;  2.3999999E-01;112;0.0;0.0;0.0;1000.0;  4.0000001E-01;0.0;0;0.0;0.0;0.0;0;0.0;  1.0000000E+04;  0.0000000E+00;  0.0000000E+00;  1.0000000E+04;  0.0000000E+00;  1.0000000E+04;0.0;0.0;0.0;0.0
 -1.8000001E-01;  9.9999998E-03;  2.5999999E-01;113;0.0;0.0;0.0;1000.0;  4.0000001E-01;0.0;0;0.0;0.0;0.0;0;0.0;  1.0000000E+04;  0.0000000E+00;  0.0000000E+00;  1.0000000E+04;  0.0000000E+00;  1.0000000E+04;0.0;0.0;0.0;0.0
 -1.8000001E-01;  9.9999998E-03;  2.8000000E-01;114;0.0;0.0;0.0;1000.0;  4.0000001E-01;0.0;0;0.0;0.0;0.0;0;0.0;  1.0000000E+04;  0.0000000E+00;  0.0000000E+00;  1.0000000E+04;  0.0000000E+00;  1.0000000E+04;0.0;0.0;0.0;0.0
 -1.8000001E-01;  9.9999998E-03;  3.0000001E-01;115;0.0;0.0;0.0;1000.0;  4.0000001E-01;0.0;0;0.0;0.0;0.0;0;0.0;  1.0000000E+04;  0.0000000E+00;  0.0000000E+00;  1.0000000E+04;  0.0000000E+00;  1.0000000E+04;0.0;0.0;0.0;0.0
 -1.8000001E-01;  9.9999998E-03;  3.1999999E-01;116;0.0;0.0;0.0;1000.0;  4.0000001E-01;0.0;0;0.0;0.0;0.0;0;0.0;  1.0000000E+04;  0.0000000E+00;  0.0000000E+00;  1.0000000E+04;  0.0000000E+00;  1.0000000E+04;0.0;0.0;0.0;0.0
 -1.6000000E-01;  9.9999998E-03;  1.6000000E-01;149;0.0;0.0;0.0;1000.0;  4.0000001E-01;0.0;0;0.0;0.0;0.0;0;-5.3487333e-06;  1.0000000E+04;  0.0000000E+00;  0.0000000E+00;  1.0000000E+04;  0.0000000E+00;  1.0000000E+04;-5.3592294e-06;0.0;1.0495911e-08;0.00073338067
 -1.6000000E-01;  9.9999998E-03;  1.8000001E-01;150;0.0;0.0;0.0;1000.0;  4.0000001E-01;0.0;0;0.0;0.0;0.0;0;-5.1950396e-06;  1.0000000E+04;  0.0000000E+00;  0.0000000E+00;  1.0000000E+04;  0.0000000E+00;  1.0000000E+04;-5.2069699e-06;0.0;1.1930203e-08;0.00073559757
 -1.6000000E-01;  9.9999998E-03;  2.0000000E-01;151;0.0;0.0;0.0;1000.0;  4.0000001E-01;0.0;0;0.0;0.0;0.0;0;-4.9608243e-06;  1.0000000E+04;  0.0000000E+00;  0.0000000E+00;  1.0000000E+04;  0.0000000E+00;  1.0000000E+04;-4.9735727e-06;0.0;1.2748526e-08;0.00072062109
 -1.6000000E-01;  9.9999998E-03;  2.2000000E-01;152;0.0;0.0;0.0;1000.0;  4.0000001E-01;0.0;0;0.0;0.0;0.0;0;-4.6292921e-06;  1.0000000E+04;  0.0000000E+00;  0.0000000E+00;  1.0000000E+04;  0.0000000E+00;  1.0000000E+04;-4.6418013e-06;0.0;1.2509259e-08;0.00068077783
 -1.6000000E-01;  9.9999998E-03;  2.3999999E-01;153;0.0;0.0;0.0;1000.0;  4.0000001E-01;0.0;0;0.0;0.0;0.0;0;-4.1885974e-06;  1.0000000E+04;  0.0000000E+00;  0.0000000E+00;  1.0000000E+04;  0.0000000E+00;  1.0000000E+04;-4.1992239e-06;0.0;1.0626594e-08;0.00060770649
 -1.6000000E-01;  9.9999998E-03;  2.5999999E-01;154;0.0;0.0;0.0;1000.0;  4.0000001E-01;0.0;0;0.0;0.0;0.0;0;-3.5428254e-06;  1.0000000E+04;  0.0000000E+00;  0.0000000E+00;  1.0000000E+04;  0.0000000E+00;  1.0000000E+04;-3.5388532e-06;0.0;-3.9721115e-09;0.00034465347
 -1.6000000E-01;  9.9999998E-03;  2.8000000E-01;155;0.0;0.0;0.0;1000.0;  4.0000001E-01;0.0;0;0.0;0.0;0.0;0;-2.3744403e-06;  1.0000000E+04;  0.0000000E+00;  0.0000000E+00;  1.0000000E+04;  0.0000000E+00;  1.0000000E+04;-2.3357766e-06;0.0;-3.86637e-08;0.0002667073
 -1.6000000E-01;  9.9999998E-03;  3.0000001E-01;156;0.0;0.0;0.0;1000.0;  4.0000001E-01;0.0;0;0.0;0.0;0.0;0;-1.0053143e-06;  1.0000000E+04;  0.0000000E+00;  0.0000000E+00;  1.0000000E+04;  0.0000000E+00;  1.0000000E+04;-9.6237795e-07;0.0;-4.2936307e-08;0.00047199489
 -1.6000000E-01;  9.9999998E-03;  3.1999999E-01;157;0.0;0.0;0.0;1000.0;  4.0000001E-01;0.0;0;0.0;0.0;0.0;0;-1.5818813e-07;  1.0000000E+04;  0.0000000E+00;  0.0000000E+00;  1.0000000E+04;  0.0000000E+00;  1.0000000E+04;-1.4546947e-07;0.0;-1.2718661e-08;0.00015168895
 -1.4000000E-01;  9.9999998E-03;  1.6000000E-01;190;0.0;0.0;0.0;1000.0002;  4.0000001E-01;0.19752525;0;0.0;0.0;0.0;0;-0.00019454501;  1.0000000E+04;  0.0000000E+00;  0.0000000E+00;  1.0000000E+04;  0.0000000E+00;  1.0000000E+04;-0.00019584838;0.0;1.3033724e-06;0.038885128
 -1.4000000E-01;  9.9999998E-03;  1.8000001E-01;191;0.0;0.0;0.0;1000.0002;  4.0000001E-01;0.19752525;0;0.0;0.0;0.0;0;-0.00018829985;  1.0000000E+04;  0.0000000E+00;  0.0000000E+00;  1.0000000E+04;  0.0000000E+00;  1.0000000E+04;-0.00018975361;0.0;1.4537655e-06;0.04020137
 -1.4000000E-01;  9.9999998E-03;  2.0000000E-01;192;0.0;0.0;0.0;1000.0002;  4.0000001E-01;0.19752525;0;0.0;0.0;0.0;0;-0.00017918587;  1.0000000E+04;  0.0000000E+00;  0.0000000E+00;  1.0000000E+04;  0.0000000E+00;  1.0000000E+04;-0.0001807064;0.0;1.5205255e-06;0.040083963
 -1.4000000E-01;  9.9999998E-03;  2.2000000E-01;193;0.0;0.0;0.0;1000.0002;  4.0000001E-01;0.19752525;0;0.0;0.0;0.0;0;-0.0001663978;  1.0000000E+04;  0.0000000E+00;  0.0000000E+00;  1.0000000E+04;  0.0000000E+00;  1.0000000E+04;-0.00016773092;0.0;1.3331154e-06;0.036200274
 -1.4000000E-01;  9.9999998E-03;  2.3999999E-01;194;0.0;0.0;0.0;1000.0001;  4.0000001E-01;0.098762624;0;0.0;0.0;0.0;0;-0.00014735592;  1.0000000E+04;  0.0000000E+00;  0.0000000E+00;  1.0000000E+04;  0.0000000E+00;  1.0000000E+04;-0.0001476975;0.0;3.4157802e-07;0.021010481
 -1.4000000E-01;  9.9999998E-03;  2.5999999E-01;195;0.0;0.0;0.0;1000.0001;  4.0000001E-01;0.098762624;0;0.0;0.0;0.0;0;-0.00012015706;  1.0000000E+04;  0.0000000E+00;  0.0000000E+00;  1.0000000E+04;  0.0000000E+00;  1.0000000E+04;-0.00011880153;0.0;-1.3555308e-06;0.0044053886
 -1.4000000E-01;  9.9999998E-03;  2.8000000E-01;196;0.0;0.0;0.0;1000.0;  4.0000001E-01;0.0;0;0.0;0.0;0.0;0;-8.6619111e-05;  1.0000000E+04;  0.0000000E+00;  0.0000000E+00;  1.0000000E+04;  0.0000000E+00;  1.0000000E+04;-8.3768013e-05;0.0;-2.851096e-06;0.027965128
 -1.4000000E-01;  9.9999998E-03;  3.0000001E-01;197;0.0;0.0;0.0;1000.0;  4.0000001E-01;0.0;0;0.0;0.0;0.0;0;-5.2449119e-05;  1.0000000E+04;  0.0000000E+00;  0.0000000E+00;  1.0000000E+04;  0.0000000E+00;  1.0000000E+04;-4.9134924e-05;0.0;-3.3141953e-06;0.038233582
 -1.4000000E-01;  9.9999998E-03;  3.1999999E-01;198;0.0;0.0;0.0;1000.0;  4.0000001E-01;0.0;0;0.0;0.0;0.0;0;-2.4657387e-05;  1.0000000E+04;  0.0000000E+00;  0.0000000E+00;  1.0000000E+04;  0.0000000E+00;  1.0000000E+04;-2.2092427e-05;0.0;-2.5649613e-06;0.031516895
 -1.2000000E-01;  9.9999998E-03;  1.6000000E-01;231;0.0;0.0;0.0;1000.0015;  4.0000001E-01;1.2839141;0;0.0;0.0;0.0;0;-0.0010715751;  1.0000000E+04;  0.0000000E+00;  0.0000000E+00;  1.0000000E+04;  0.0000000E+00;  1.0000000E+04;-0.0010839496;0.0;1.2374509e-05;0.28351286
 -1.2000000E-01;  9.9999998E-03;  1.8000001E-01;232;0.0;0.0;0.0;1000.0015;  4.0000001E-01;1.1851515;0;0.0;0.0;0.0;0;-0.0010351809;  1.0000000E+04;  0.0000000E+00;  0.0000000E+00;  1.0000000E+04;  0.0000000E+00;  1.0000000E+04;-0.0010487704;0.0;1.3589566e-05;0.29578567
 -1.2000000E-01;  9.9999998E-03;  2.0000000E-01;233;0.0;0.0;0.0;1000.0014;  4.0000001E-01;1.1851515;0;0.0;0.0;0.0;0;-0.00098251295;  1.0000000E+04;  0.0000000E+00;  0.0000000E+00;  1.0000000E+04;  0.0000000E+00;  1.0000000E+04;-0.00099587115;0.0;1.3358243e-05;0.28706327
 -1.2000000E-01;  9.9999998E-03;  2.2000000E-01;234;0.0;0.0;0.0;1000.0012;  4.0000001E-01;0.98762625;0;0.0;0.0;0.0;0;-0.00090692739;  1.0000000E+04;  0.0000000E+00;  0.0000000E+00;  1.0000000E+04;  0.0000000E+00;  1.0000000E+04;-0.0009162944;0.0;9.3669869e-06;0.22606096
 -1.2000000E-01;  9.9999998E-03;  2.3999999E-01;235;0.0;0.0;0.0;1000.0011;  4.0000001E-01;0.88886362;0;0.0;0.0;0.0;0;-0.00080186297;  1.0000000E+04;  0.0000000E+00;  0.0000000E+00;  1.0000000E+04;  0.0000000E+00;  1.0000000E+04;-0.00080265844;0.0;7.9549358e-07;0.1011419
 -1.2000000E-01;  9.9999998E-03;  2.5999999E-01;236;0.0;0.0;0.0;1000.0009;  4.0000001E-01;0.69133836;0;0.0;0.0;0.0;0;-0.00066509645;  1.0000000E+04;  0.0000000E+00;  0.0000000E+00;  1.0000000E+04;  0.0000000E+00;  1.0000000E+04;-0.00065447303;0.0;-1.0623414e-05;0.065203264
 -1.2000000E-01;  9.9999998E-03;  2.8000000E-01;237;0.0;0.0;0.0;1000.0007;  4.0000001E-01;0.59257573;0;0.0;0.0;0.0;0;-0.00050456647;  1.0000000E+04;  0.0000000E+00;  0.0000000E+00;  1.0000000E+04;  0.0000000E+00;  1.0000000E+04;-0.00048384056;0.0;-2.0725909e-05;0.21707207
 -1.2000000E-01;  9.9999998E-03;  3.0000001E-01;238;0.0;0.0;0.0;1000.0004;  4.0000001E-01;0.3950505;0;0.0;0.0;0.0;0;-0.00034061438;  1.0000000E+04;  0.0000000E+00;  0.0000000E+00;  1.0000000E+04;  0.0000000E+00;  1.0000000E+04;-0.00031492644;0.0;-2.5687943e-05;0.30180988
 -1.2000000E-01;  9.9999998E-03;  3.1999999E-01;239;0.0;0.0;0.0;1000.0002;  4.0000001E-01;0.19752525;0;0.0;0.0;0.0;0;-0.00019800119;  1.0000000E+04;  0.0000000E+00;  0.0000000E+00;  1.0000000E+04;  0.0000000E+00;  1.0000000E+04;-0.00017394291;0.0;-2.4058272e-05;0.29735965
 -1.0000000E-01;  9.9999998E-03;  1.6000000E-01;272;0.0;0.0;0.0;1000.0049;  4.0000001E-01;4.0492678;0;0.0;0.0;0.0;0;-0.0034042925;  1.0000000E+04;  0.0000000E+00;  0.0000000E+00;  1.0000000E+04;  0.0000000E+00;  1.0000000E+04;-0.0034597416;0.0;5.5449123e-05;1.118299
 -1.0000000E-01;  9.9999998E-03;  1.8000001E-01;273;0.0;0.0;0.0;1000.0047;  4.0000001E-01;3.8517423;0;0.0;0.0;0.0;0;-0.0032845279;  1.0000000E+04;  0.0000000E+00;  0.0000000E+00;  1.0000000E+04;  0.0000000E+00;  1.0000000E+04;-0.0033439049;0.0;5.9376896e-05;1.1585044
 -1.0000000E-01;  9.9999998E-03;  2.0000000E-01;274;0.0;0.0;0.0;1000.0046;  4.0000001E-01;3.8517423;0;0.0;0.0;0.0;0;-0.003112203;  1.0000000E+04;  0.0000000E+00;  0.0000000E+00;  1.0000000E+04;  0.0000000E+00;  1.0000000E+04;-0.0031669775;0.0;5.477466e-05;1.0796624
 -1.0000000E-01;  9.9999998E-03;  2.2000000E-01;275;0.0;0.0;0.0;1000.0042;  4.0000001E-01;3.4566917;0;0.0;0.0;0.0;0;-0.0028724223;  1.0000000E+04;  0.0000000E+00;  0.0000000E+00;  1.0000000E+04;  0.0000000E+00;  1.0000000E+04;-0.0029087742;0.0;3.6351896e-05;0.80972415
 -1.0000000E-01;  9.9999998E-03;  2.3999999E-01;276;0.0;0.0;0.0;1000.0038;  4.0000001E-01;3.160404;0;0.0;0.0;0.0;0;-0.0025519619;  1.0000000E+04;  0.0000000E+00;  0.0000000E+00;  1.0000000E+04;  0.0000000E+00;  1.0000000E+04;-0.0025544695;0.0;2.5076451e-06;0.3253026
 -1.0000000E-01;  9.9999998E-03;  2.5999999E-01;277;0.0;0.0;0.0;1000.0032;  4.0000001E-01;2.6665909;0;0.0;0.0;0.0;0;-0.0021473239;  1.0000000E+04;  0.0000000E+00;  0.0000000E+00;  1.0000000E+04;  0.0000000E+00;  1.0000000E+04;-0.0021067702;0.0;-4.0553859e-05;0.29238904
 -1.0000000E-01;  9.9999998E-03;  2.8000000E-01;278;0.0;0.0;0.0;1000.0024;  4.0000001E-01;1.9752525;0;0.0;0.0;0.0;0;-0.0016781026;  1.0000000E+04;  0.0000000E+00;  0.0000000E+00;  1.0000000E+04;  0.0000000E+00;  1.0000000E+04;-0.0015985705;0.0;-7.953219e-05;0.86445349
 -1.0000000E-01;  9.9999998E-03;  3.0000001E-01;279;0.0;0.0;0.0;1000.0016;  4.0000001E-01;1.3826767;0;0.0;0.0;0.0;0;-0.0011948928;  1.0000000E+04;  0.0000000E+00;  0.0000000E+00;  1.0000000E+04;  0.0000000E+00;  1.0000000E+04;-0.0010924473;0.0;-0.00010244545;1.2251662
 -1.0000000E-01;  9.9999998E-03;  3.1999999E-01;280;0.0;0.0;0.0;1000.001;  4.0000001E-01;0.88886362;0;0.0;0.0;0.0;0;-0.00076201512;  1.0000000E+04;  0.0000000E+00;  0.0000000E+00;  1.0000000E+04;  0.0000000E+00;  1.0000000E+04;-0.00065781275;0.0;-0.00010420234;1.2989796
 -7.9999998E-02;  9.9999998E-03;  1.6000000E-01;313;0.0;0.0;0.0;1000.012;  4.0000001E-01;9.8762627;0;0.0;0.0;0.0;0;-0.0080809025;  1.0000000E+04;  0.0000000E+00;  0.0000000E+00;  1.0000000E+04;  0.0000000E+00;  1.0000000E+04;-0.0082477303;0.0;0.00016682774;3.1371083
 -7.9999998E-02;  9.9999998E-03;  1.8000001E-01;314;0.0;0.0;0.0;1000.0114;  4.0000001E-01;9.4812117;0;0.0;0.0;0.0;0;-0.0077924561;  1.0000000E+04;  0.0000000E+00;  0.0000000E+00;  1.0000000E+04;  0.0000000E+00;  1.0000000E+04;-0.0079666935;0.0;0.0001742376;3.209481
 -7.9999998E-02;  9.9999998E-03;  2.0000000E-01;315;0.0;0.0;0.0;1000.0109;  4.0000001E-01;8.9873991;0;0.0;0.0;0.0;0;-0.0073842825;  1.0000000E+04;  0.0000000E+00;  0.0000000E+00;  1.0000000E+04;  0.0000000E+00;  1.0000000E+04;-0.007541426;0.0;0.00015714332;2.9419148
 -7.9999998E-02;  9.9999998E-03;  2.2000000E-01;316;0.0;0.0;0.0;1000.01;  4.0000001E-01;8.2960606;0;0.0;0.0;0.0;0;-0.006828364;  1.0000000E+04;  0.0000000E+00;  0.0000000E+00;  1.0000000E+04;  0.0000000E+00;  1.0000000E+04;-0.0069313492;0.0;0.00010298503;2.1623631
 -7.9999998E-02;  9.9999998E-03;  2.3999999E-01;317;0.0;0.0;0.0;1000.0089;  4.0000001E-01;7.407197;0;0.0;0.0;0.0;0;-0.0060990811;  1.0000000E+04;  0.0000000E+00;  0.0000000E+00;  1.0000000E+04;  0.0000000E+00;  1.0000000E+04;-0.0061077788;0.0;8.697597e-06;0.82447863
 -7.9999998E-02;  9.9999998E-03;  2.5999999E-01;318;0.0;0.0;0.0;1000.0078;  4.0000001E-01;6.4195704;0;0.0;0.0;0.0;0;-0.0051881834;  1.0000000E+04;  0.0000000E+00;  0.0000000E+00;  1.0000000E+04;  0.0000000E+00;  1.0000000E+04;-0.0050788568;0.0;-0.00010932665;0.85596812
 -7.9999998E-02;  9.9999998E-03;  2.8000000E-01;319;0.0;0.0;0.0;1000.006;  4.0000001E-01;5.0368938;0;0.0;0.0;0.0;0;-0.0041325213;  1.0000000E+04;  0.0000000E+00;  0.0000000E+00;  1.0000000E+04;  0.0000000E+00;  1.0000000E+04;-0.003914509;0.0;-0.00021801228;2.4325054
 -7.9999998E-02;  9.9999998E-03;  3.0000001E-01;320;0.0;0.0;0.0;1000.0045;  4.0000001E-01;3.7529798;0;0.0;0.0;0.0;0;-0.0030357682;  1.0000000E+04;  0.0000000E+00;  0.0000000E+00;  1.0000000E+04;  0.0000000E+00;  1.0000000E+04;-0.0027479355;0.0;-0.00028783269;3.4959855
 -7.9999998E-02;  9.9999998E-03;  3.1999999E-01;321;0.0;0.0;0.0;1000.003;  4.0000001E-01;2.4690657;0;0.0;0.0;0.0;0;-0.0020353331;  1.0000000E+04;  0.0000000E+00;  0.0000000E+00;  1.0000000E+04;  0.0000000E+00;  1.0000000E+04;-0.0017295884;0.0;-0.00030574473;3.8534114
 -5.9999999E-02;  9.9999998E-03;  1.6000000E-01;354;0.0;0.0;0.0;1000.0233;  4.0000001E-01;19.258711;0;0.0;0.0;0.0;0;-0.015650105;  1.0000000E+04;  0.0000000E+00;  0.0000000E+00;  1.0000000E+04;  0.0000000E+00;  1.0000000E+04;-0.016037891;0.0;0.00038778674;6.9820013
 -5.9999999E-02;  9.9999998E-03;  1.8000001E-01;355;0.0;0.0;0.0;1000.0223;  4.0000001E-01;18.468611;0;0.0;0.0;0.0;0;-0.015095373;  1.0000000E+04;  0.0000000E+00;  0.0000000E+00;  1.0000000E+04;  0.0000000E+00;  1.0000000E+04;-0.01549557;0.0;0.00040019752;7.103745
 -5.9999999E-02;  9.9999998E-03;  2.0000000E-01;356;0.0;0.0;0.0;1000.0212;  4.0000001E-01;17.579746;0;0.0;0.0;0.0;0;-0.014320756;  1.0000000E+04;  0.0000000E+00;  0.0000000E+00;  1.0000000E+04;  0.0000000E+00;  1.0000000E+04;-0.014678705;0.0;0.00035794807;6.4676995
 -5.9999999E-02;  9.9999998E-03;  2.2000000E-01;357;0.0;0.0;0.0;1000.0198;  4.0000001E-01;16.394596;0;0.0;0.0;0.0;0;-0.013279197;  1.0000000E+04;  0.0000000E+00;  0.0000000E+00;  1.0000000E+04;  0.0000000E+00;  1.0000000E+04;-0.013514166;0.0;0.00023496927;4.7137752
 -5.9999999E-02;  9.9999998E-03;  2.3999999E-01;358;0.0;0.0;0.0;1000.0178;  4.0000001E-01;14.715631;0;0.0;0.0;0.0;0;-0.01192461;  1.0000000E+04;  0.0000000E+00;  0.0000000E+00;  1.0000000E+04;  0.0000000E+00;  1.0000000E+04;-0.011950555;0.0;2.5944597e-05;1.7585459
 -5.9999999E-02;  9.9999998E-03;  2.5999999E-01;359;0.0;0.0;0.0;1000.0152;  4.0000001E-01;12.542853;0;0.0;0.0;0.0;0;-0.010235769;  1.0000000E+04;  0.0000000E+00;  0.0000000E+00;  1.0000000E+04;  0.0000000E+00;  1.0000000E+04;-0.010000656;0.0;-0.00023511227;1.947685
 -5.9999999E-02;  9.9999998E-03;  2.8000000E-01;360;0.0;0.0;0.0;1000.0123;  4.0000001E-01;10.17255;0;0.0;0.0;0.0;0;-0.0082663959;  1.0000000E+04;  0.0000000E+00;  0.0000000E+00;  1.0000000E+04;  0.0000000E+00;  1.0000000E+04;-0.0077866898;0.0;-0.00047970653;5.4756999
 -5.9999999E-02;  9.9999998E-03;  3.0000001E-01;361;0.0;0.0;0.0;1000.0093;  4.0000001E-01;7.7034845;0;0.0;0.0;0.0;0;-0.0061974321;  1.0000000E+04;  0.0000000E+00;  0.0000000E+00;  1.0000000E+04;  0.0000000E+00;  1.0000000E+04;-0.0055523915;0.0;-0.00064504059;7.9530077
 -5.9999999E-02;  9.9999998E-03;  3.1999999E-01;362;0.0;0.0;0.0;1000.0064;  4.0000001E-01;5.3331819;0;0.0;0.0;0.0;0;-0.0042850482;  1.0000000E+04;  0.0000000E+00;  0.0000000E+00;  1.0000000E+04;  0.0000000E+00;  1.0000000E+04;-0.0035824012;0.0;-0.00070264691;8.9595795
 -3.9999999E-02;  9.9999998E-03;  1.6000000E-01;395;0.0;0.0;0.0;1000.0385;  4.0000001E-01;31.900328;0;0.0;0.0;0.0;0;-0.025821071;  1.0000000E+04;  0.0000000E+00;  0.0000000E+00;  1.0000000E+04;  0.0000000E+00;  1.0000000E+04;-0.026570773;0.0;0.00074970227;13.09894
 -3.9999999E-02;  9.9999998E-03;  1.8000001E-01;396;0.0;0.0;0.0;1000.037;  4.0000001E-01;30.616413;0;0.0;0.0;0.0;0;-0.024928095;  1.0000000E+04;  0.0000000E+00;  0.0000000E+00;  1.0000000E+04;  0.0000000E+00;  1.0000000E+04;-0.025697997;0.0;0.00076990161;13.313687
 -3.9999999E-02;  9.9999998E-03;  2.0000000E-01;397;0.0;0.0;0.0;1000.0353;  4.0000001E-01;29.233736;0;0.0;0.0;0.0;0;-0.023692055;  1.0000000E+04;  0.0000000E+00;  0.0000000E+00;  1.0000000E+04;  0.0000000E+00;  1.0000000E+04;-0.024379645;0.0;0.00068759022;12.103006
 -3.9999999E-02;  9.9999998E-03;  2.2000000E-01;398;0.0;0.0;0.0;1000.0328;  4.0000001E-01;27.159721;0;0.0;0.0;0.0;0;-0.022041988;  1.0000000E+04;  0.0000000E+00;  0.0000000E+00;  1.0000000E+04;  0.0000000E+00;  1.0000000E+04;-0.022498298;0.0;0.00045630999;8.8177977
 -3.9999999E-02;  9.9999998E-03;  2.3999999E-01;399;0.0;0.0;0.0;1000.0296;  4.0000001E-01;24.493132;0;0.0;0.0;0.0;0;-0.019903453;  1.0000000E+04;  0.0000000E+00;  0.0000000E+00;  1.0000000E+04;  0.0000000E+00;  1.0000000E+04;-0.019969596;0.0;6.6143075e-05;3.3011546
 -3.9999999E-02;  9.9999998E-03;  2.5999999E-01;400;0.0;0.0;0.0;1000.0258;  4.0000001E-01;21.332727;0;0.0;0.0;0.0;0;-0.017230118;  1.0000000E+04;  0.0000000E+00;  0.0000000E+00;  1.0000000E+04;  0.0000000E+00;  1.0000000E+04;-0.016804617;0.0;-0.00042549989;3.6810951
 -3.9999999E-02;  9.9999998E-03;  2.8000000E-01;401;0.0;0.0;0.0;1000.021;  4.0000001E-01;17.382221;0;0.0;0.0;0.0;0;-0.014078777;  1.0000000E+04;  0.0000000E+00;  0.0000000E+00;  1.0000000E+04;  0.0000000E+00;  1.0000000E+04;-0.013182076;0.0;-0.00089670153;10.463865
 -3.9999999E-02;  9.9999998E-03;  3.0000001E-01;402;0.0;0.0;0.0;1000.016;  4.0000001E-01;13.234192;0;0.0;0.0;0.0;0;-0.010715678;  1.0000000E+04;  0.0000000E+00;  0.0000000E+00;  1.0000000E+04;  0.0000000E+00;  1.0000000E+04;-0.0094894366;0.0;-0.0012262422;15.359374
 -3.9999999E-02;  9.9999998E-03;  3.1999999E-01;403;0.0;0.0;0.0;1000.0112;  4.0000001E-01;9.2836866;0;0.0;0.0;0.0;0;-0.0075639589;  1.0000000E+04;  0.0000000E+00;  0.0000000E+00;  1.0000000E+04;  0.0000000E+00;  1.0000000E+04;-0.0062075681;0.0;-0.0013563907;17.520067
 -2.0000000E-02;  9.9999998E-03;  1.6000000E-01;436;0.0;0.0;0.0;1000.0559;  4.0000001E-01;46.319672;0;0.0;0.0;0.0;0;-0.037238732;  1.0000000E+04;  0.0000000E+00;  0.0000000E+00;  1.0000000E+04;  0.0000000E+00;  1.0000000E+04;-0.038490359;0.0;0.0012516261;21.418709
 -2.0000000E-02;  9.9999998E-03;  1.8000001E-01;437;0.0;0.0;0.0;1000.0541;  4.0000001E-01;44.83823;0;0.0;0.0;0.0;0;-0.036003426;  1.0000000E+04;  0.0000000E+00;  0.0000000E+00;  1.0000000E+04;  0.0000000E+00;  1.0000000E+04;-0.037287053;0.0;0.001283627;21.802862
 -2.0000000E-02;  9.9999998E-03;  2.0000000E-01;438;0.0;0.0;0.0;1000.0515;  4.0000001E-01;42.665455;0;0.0;0.0;0.0;0;-0.034300897;  1.0000000E+04;  0.0000000E+00;  0.0000000E+00;  1.0000000E+04;  0.0000000E+00;  1.0000000E+04;-0.03545047;0.0;0.0011495737;19.861956
 -2.0000000E-02;  9.9999998E-03;  2.2000000E-01;439;0.0;0.0;0.0;1000.0482;  4.0000001E-01;39.900101;0;0.0;0.0;0.0;0;-0.032034133;  1.0000000E+04;  0.0000000E+00;  0.0000000E+00;  1.0000000E+04;  0.0000000E+00;  1.0000000E+04;-0.032810442;0.0;0.00077630806;14.558501
 -2.0000000E-02;  9.9999998E-03;  2.3999999E-01;440;0.0;0.0;0.0;1000.0438;  4.0000001E-01;36.245884;0;0.0;0.0;0.0;0;-0.029096102;  1.0000000E+04;  0.0000000E+00;  0.0000000E+00;  1.0000000E+04;  0.0000000E+00;  1.0000000E+04;-0.029241281;0.0;0.00014517887;5.6001287
 -2.0000000E-02;  9.9999998E-03;  2.5999999E-01;441;0.0;0.0;0.0;1000.0383;  4.0000001E-01;31.702803;0;0.0;0.0;0.0;0;-0.025408087;  1.0000000E+04;  0.0000000E+00;  0.0000000E+00;  1.0000000E+04;  0.0000000E+00;  1.0000000E+04;-0.024745047;0.0;-0.00066304056;5.9231381
 -2.0000000E-02;  9.9999998E-03;  2.8000000E-01;442;0.0;0.0;0.0;1000.0316;  4.0000001E-01;26.172096;0;0.0;0.0;0.0;0;-0.021009125;  1.0000000E+04;  0.0000000E+00;  0.0000000E+00;  1.0000000E+04;  0.0000000E+00;  1.0000000E+04;-0.019546442;0.0;-0.0014626835;17.448021
 -2.0000000E-02;  9.9999998E-03;  3.0000001E-01;443;0.0;0.0;0.0;1000.0245;  4.0000001E-01;20.3451;0;0.0;0.0;0.0;0;-0.016213091;  1.0000000E+04;  0.0000000E+00;  0.0000000E+00;  1.0000000E+04;  0.0000000E+00;  1.0000000E+04;-0.014173395;0.0;-0.0020396968;25.987879
 -2.0000000E-02;  9.9999998E-03;  3.1999999E-01;444;0.0;0.0;0.0;1000.0177;  4.0000001E-01;14.616868;0;0.0;0.0;0.0;0;-0.011633513;  1.0000000E+04;  0.0000000E+00;  0.0000000E+00;  1.0000000E+04;  0.0000000E+00;  1.0000000E+04;-0.0093526002;0.0;-0.0022809133;29.895708
  0.0000000E+00;  9.9999998E-03;  3.0000001E-01;455;0.0;0.0;0.0;1000.0334;  4.0000001E-01;27.653534;0;0.0;0.0;0.0;0;-0.02191807;  1.0000000E+04;  0.0000000E+00;  0.0000000E+00;  1.0000000E+04;  0.0000000E+00;  1.0000000E+04;-0.018917369;0.0;-0.0030006999;38.965954
  0.0000000E+00;  9.9999998E-03;  3.1999999E-01;456;0.0;0.0;0.0;1000.0244;  4.0000001E-01;20.246338;0;0.0;0.0;0.0;0;-0.015991421;  1.0000000E+04;  0.0000000E+00;  0.0000000E+00;  1.0000000E+04;  0.0000000E+00;  1.0000000E+04;-0.012586956;0.0;-0.0034044648;45.391453
  2.0000000E-02;  9.9999998E-03;  3.1999999E-01;466;0.0;0.0;0.0;1000.0312;  4.0000001E-01;25.875807;0;0.0;0.0;0.0;0;-0.020099865;  1.0000000E+04;  0.0000000E+00;  0.0000000E+00;  1.0000000E+04;  0.0000000E+00;  1.0000000E+04;-0.015540515;0.0;-0.0045593497;62.062099
  3.9999999E-02;  9.9999998E-03;  3.1999999E-01;476;0.0;0.0;0.0;1000.0377;  4.0000001E-01;31.20899;0;0.0;0.0;0.0;0;-0.023775958;  1.0000000E+04;  0.0000000E+00;  0.0000000E+00;  1.0000000E+04;  0.0000000E+00;  1.0000000E+04;-0.018230585;0.0;-0.0055453721;77.454498
  5.9999999E-02;  9.9999998E-03;  3.1999999E-01;486;0.0;0.0;0.0;1000.0443;  4.0000001E-01;36.640934;0;0.0;0.0;0.0;0;-0.027298296;  1.0000000E+04;  0.0000000E+00;  0.0000000E+00;  1.0000000E+04;  0.0000000E+00;  1.0000000E+04;-0.021019083;0.0;-0.0062792138;90.544197
  7.9999998E-02;  9.9999998E-03;  3.1999999E-01;496;0.0;0.0;0.0;1000.0521;  4.0000001E-01;43.159267;0;0.0;0.0;0.0;0;-0.031263843;  1.0000000E+04;  0.0000000E+00;  0.0000000E+00;  1.0000000E+04;  0.0000000E+00;  1.0000000E+04;-0.024467876;0.0;-0.0067959656;102.07978
  1.0000000E-01;  9.9999998E-03;  3.1999999E-01;506;0.0;0.0;0.0;1000.0629;  4.0000001E-01;52.047901;0;0.0;0.0;0.0;0;-0.036608171;  1.0000000E+04;  0.0000000E+00;  0.0000000E+00;  1.0000000E+04;  0.0000000E+00;  1.0000000E+04;-0.029379021;0.0;-0.0072291507;124.44051
  1.2000000E-01;  9.9999998E-03;  3.1999999E-01;516;0.0;0.0;0.0;1000.0784;  4.0000001E-01;64.985809;0;0.0;0.0;0.0;0;-0.044516355;  1.0000000E+04;  0.0000000E+00;  0.0000000E+00;  1.0000000E+04;  0.0000000E+00;  1.0000000E+04;-0.036698315;0.0;-0.0078180386;239.46533
  1.4000000E-01;  9.9999998E-03;  3.1999999E-01;526;0.0;0.0;0.0;1000.102;  4.0000001E-01;84.54081;0;0.0;0.0;0.0;0;-0.05635928;  1.0000000E+04;  0.0000000E+00;  0.0000000E+00;  1.0000000E+04;  0.0000000E+00;  1.0000000E+04;-0.047418486;0.0;-0.0089407936;606.70032
  1.6000000E-01;  9.9999998E-03;  3.1999999E-01;536;0.0;0.0;0.0;1000.1361;  4.0000001E-01;112.78692;0;0.0;0.0;0.0;0;-0.073338315;  1.0000000E+04;  0.0000000E+00;  0.0000000E+00;  1.0000000E+04;  0.0000000E+00;  1.0000000E+04;-0.062146876;0.0;-0.01119144;1410.4487
  1.8000001E-01;  9.9999998E-03;  3.1999999E-01;546;0.0;0.0;0.0;1000.1818;  4.0000001E-01;150.61301;0;0.0;0.0;0.0;0;-0.095559984;  1.0000000E+04;  0.0000000E+00;  0.0000000E+00;  1.0000000E+04;  0.0000000E+00;  1.0000000E+04;-0.080048822;0.0;-0.015511164;2786.6772
  2.0000000E-01;  9.9999998E-03;  3.1999999E-01;555;0.0;0.0;0.0;1000.2374;  4.0000001E-01;196.63638;0;0.0;0.0;0.0;0;-0.12164527;  1.0000000E+04;  0.0000000E+00;  0.0000000E+00;  1.0000000E+04;  0.0000000E+00;  1.0000000E+04;-0.098399274;0.0;-0.023246001;4529.8433
 -2.2000000E-01;  9.9999998E-03;  3.4000000E-01;36;0.0;0.0;0.0;1000.0;  4.0000001E-01;0.0;0;0.0;0.0;0.0;0;0.0;  1.0000000E+04;  0.0000000E+00;  0.0000000E+00;  1.0000000E+04;  0.0000000E+00;  1.0000000E+04;0.0;0.0;0.0;0.0
 -2.2000000E-01;  9.9999998E-03;  3.6000001E-01;37;0.0;0.0;0.0;1000.0;  4.0000001E-01;0.0;0;0.0;0.0;0.0;0;0.0;  1.0000000E+04;  0.0000000E+00;  0.0000000E+00;  1.0000000E+04;  0.0000000E+00;  1.0000000E+04;0.0;0.0;0.0;0.0
 -2.2000000E-01;  9.9999998E-03;  3.8000000E-01;38;0.0;0.0;0.0;1000.0;  4.0000001E-01;0.0;0;0.0;0.0;0.0;0;0.0;  1.0000000E+04;  0.0000000E+00;  0.0000000E+00;  1.0000000E+04;  0.0000000E+00;  1.0000000E+04;0.0;0.0;0.0;0.0
 -2.0000000E-01;  9.9999998E-03;  3.4000000E-01;76;0.0;0.0;0.0;1000.0;  4.0000001E-01;0.0;0;0.0;0.0;0.0;0;0.0;  1.0000000E+04;  0.0000000E+00;  0.0000000E+00;  1.0000000E+04;  0.0000000E+00;  1.0000000E+04;0.0;0.0;0.0;0.0
 -2.0000000E-01;  9.9999998E-03;  3.6000001E-01;77;0.0;0.0;0.0;1000.0;  4.0000001E-01;0.0;0;0.0;0.0;0.0;0;0.0;  1.0000000E+04;  0.0000000E+00;  0.0000000E+00;  1.0000000E+04;  0.0000000E+00;  1.0000000E+04;0.0;0.0;0.0;0.0
 -2.0000000E-01;  9.9999998E-03;  3.8000000E-01;78;0.0;0.0;0.0;1000.0;  4.0000001E-01;0.0;0;0.0;0.0;0.0;0;0.0;  1.0000000E+04;  0.0000000E+00;  0.0000000E+00;  1.0000000E+04;  0.0000000E+00;  1.0000000E+04;0.0;0.0;0.0;0.0
 -2.0000000E-01;  9.9999998E-03;  4.0000001E-01;79;0.0;0.0;0.0;1000.0;  4.0000001E-01;0.0;0;0.0;0.0;0.0;0;0.0;  1.0000000E+04;  0.0000000E+00;  0.0000000E+00;  1.0000000E+04;  0.0000000E+00;  1.0000000E+04;0.0;0.0;0.0;0.0
 -1.8000001E-01;  9.9999998E-03;  3.4000000E-01;117;0.0;0.0;0.0;1000.0;  4.0000001E-01;0.0;0;0.0;0.0;0.0;0;0.0;  1.0000000E+04;  0.0000000E+00;  0.0000000E+00;  1.0000000E+04;  0.0000000E+00;  1.0000000E+04;0.0;0.0;0.0;0.0
 -1.8000001E-01;  9.9999998E-03;  3.6000001E-01;118;0.0;0.0;0.0;1000.0;  4.0000001E-01;0.0;0;0.0;0.0;0.0;0;0.0;  1.0000000E+04;  0.0000000E+00;  0.0000000E+00;  1.0000000E+04;  0.0000000E+00;  1.0000000E+04;0.0;0.0;0.0;0.0
 -1.8000001E-01;  9.9999998E-03;  3.8000000E-01;119;0.0;0.0;0.0;1000.0;  4.0000001E-01;0.0;0;0.0;0.0;0.0;0;0.0;  1.0000000E+04;  0.0000000E+00;  0.0000000E+00;  1.0000000E+04;  0.0000000E+00;  1.0000000E+04;0.0;0.0;0.0;0.0
 -1.8000001E-01;  9.9999998E-03;  4.0000001E-01;120;0.0;0.0;0.0;1000.0;  4.0000001E-01;0.0;0;0.0;0.0;0.0;0;0.0;  1.0000000E+04;  0.0000000E+00;  0.0000000E+00;  1.0000000E+04;  0.0000000E+00;  1.0000000E+04;0.0;0.0;0.0;0.0
 -1.6000000E-01;  9.9999998E-03;  3.4000000E-01;158;0.0;0.0;0.0;1000.0;  4.0000001E-01;0.0;0;0.0;0.0;0.0;0;0.0;  1.0000000E+04;  0.0000000E+00;  0.0000000E+00;  1.0000000E+04;  0.0000000E+00;  1.0000000E+04;0.0;0.0;0.0;0.0
 -1.6000000E-01;  9.9999998E-03;  3.6000001E-01;159;0.0;0.0;0.0;1000.0;  4.0000001E-01;0.0;0;0.0;0.0;0.0;0;0.0;  1.0000000E+04;  0.0000000E+00;  0.0000000E+00;  1.0000000E+04;  0.0000000E+00;  1.0000000E+04;0.0;0.0;0.0;0.0
 -1.6000000E-01;  9.9999998E-03;  3.8000000E-01;160;0.0;0.0;0.0;1000.0;  4.0000001E-01;0.0;0;0.0;0.0;0.0;0;0.0;  1.0000000E+04;  0.0000000E+00;  0.0000000E+00;  1.0000000E+04;  0.0000000E+00;  1.0000000E+04;0.0;0.0;0.0;0.0
 -1.6000000E-01;  9.9999998E-03;  4.0000001E-01;161;0.0;0.0;0.0;1000.0;  4.0000001E-01;0.0;0;0.0;0.0;0.0;0;0.0;  1.0000000E+04;  0.0000000E+00;  0.0000000E+00;  1.0000000E+04;  0.0000000E+00;  1.0000000E+04;0.0;0.0;0.0;0.0
 -1.4000000E-01;  9.9999998E-03;  3.4000000E-01;199;0.0;0.0;0.0;1000.0;  4.0000001E-01;0.0;0;0.0;0.0;0.0;0;-7.6001434e-06;  1.0000000E+04;  0.0000000E+00;  0.0000000E+00;  1.0000000E+04;  0.0000000E+00;  1.0000000E+04;-6.4135374e-06;0.0;-1.1866058e-06;0.01487234
 -1.4000000E-01;  9.9999998E-03;  3.6000001E-01;200;0.0;0.0;0.0;1000.0;  4.0000001E-01;0.0;0;0.0;0.0;0.0;0;-8.8372059e-07;  1.0000000E+04;  0.0000000E+00;  0.0000000E+00;  1.0000000E+04;  0.0000000E+00;  1.0000000E+04;-6.9617704e-07;0.0;-1.8754353e-07;0.0023859793
 -1.4000000E-01;  9.9999998E-03;  3.8000000E-01;201;0.0;0.0;0.0;1000.0;  4.0000001E-01;0.0;0;0.0;0.0;0.0;0;0.0;  1.0000000E+04;  0.0000000E+00;  0.0000000E+00;  1.0000000E+04;  0.0000000E+00;  1.0000000E+04;0.0;0.0;0.0;0.0
 -1.4000000E-01;  9.9999998E-03;  4.0000001E-01;202;0.0;0.0;0.0;1000.0;  4.0000001E-01;0.0;0;0.0;0.0;0.0;0;0.0;  1.0000000E+04;  0.0000000E+00;  0.0000000E+00;  1.0000000E+04;  0.0000000E+00;  1.0000000E+04;0.0;0.0;0.0;0.0
 -1.2000000E-01;  9.9999998E-03;  3.4000000E-01;240;0.0;0.0;0.0;1000.0;  4.0000001E-01;0.0;0;0.0;0.0;0.0;0;-9.3633891e-05;  1.0000000E+04;  0.0000000E+00;  0.0000000E+00;  1.0000000E+04;  0.0000000E+00;  1.0000000E+04;-7.6710057e-05;0.0;-1.6923836e-05;0.2145372
 -1.2000000E-01;  9.9999998E-03;  3.6000001E-01;241;0.0;0.0;0.0;1000.0;  4.0000001E-01;0.0;0;0.0;0.0;0.0;0;-3.1312331e-05;  1.0000000E+04;  0.0000000E+00;  0.0000000E+00;  1.0000000E+04;  0.0000000E+00;  1.0000000E+04;-2.3602068e-05;0.0;-7.710265e-06;0.098646075
 -1.2000000E-01;  9.9999998E-03;  3.8000000E-01;242;0.0;0.0;0.0;1000.0;  4.0000001E-01;0.0;0;0.0;0.0;0.0;0;-4.6434893e-06;  1.0000000E+04;  0.0000000E+00;  0.0000000E+00;  1.0000000E+04;  0.0000000E+00;  1.0000000E+04;-3.2764465e-06;0.0;-1.3670427e-06;0.01758658
 -1.2000000E-01;  9.9999998E-03;  4.0000001E-01;243;0.0;0.0;0.0;1000.0;  4.0000001E-01;0.0;0;0.0;0.0;0.0;0;-9.2714216e-18;  1.0000000E+04;  0.0000000E+00;  0.0000000E+00;  1.0000000E+04;  0.0000000E+00;  1.0000000E+04;-6.5142765e-18;0.0;-2.7571454e-18;8.5864467e-15
 -1.0000000E-01;  9.9999998E-03;  3.4000000E-01;281;0.0;0.0;0.0;1000.0006;  4.0000001E-01;0.49381313;0;0.0;0.0;0.0;0;-0.00042449211;  1.0000000E+04;  0.0000000E+00;  0.0000000E+00;  1.0000000E+04;  0.0000000E+00;  1.0000000E+04;-0.0003387114;0.0;-8.5780717e-05;1.0932
 -1.0000000E-01;  9.9999998E-03;  3.6000001E-01;282;0.0;0.0;0.0;1000.0002;  4.0000001E-01;0.19752525;0;0.0;0.0;0.0;0;-0.00019421827;  1.0000000E+04;  0.0000000E+00;  0.0000000E+00;  1.0000000E+04;  0.0000000E+00;  1.0000000E+04;-0.0001408703;0.0;-5.3347969e-05;0.68760389
 -1.0000000E-01;  9.9999998E-03;  3.8000000E-01;283;0.0;0.0;0.0;1000.0;  4.0000001E-01;0.0;0;0.0;0.0;0.0;0;-6.1700535e-05;  1.0000000E+04;  0.0000000E+00;  0.0000000E+00;  1.0000000E+04;  0.0000000E+00;  1.0000000E+04;-4.1275081e-05;0.0;-2.0425456e-05;0.26434055
 -1.0000000E-01;  9.9999998E-03;  4.0000001E-01;284;0.0;0.0;0.0;1000.0;  4.0000001E-01;0.0;0;0.0;0.0;0.0;0;-8.4808125e-06;  1.0000000E+04;  0.0000000E+00;  0.0000000E+00;  1.0000000E+04;  0.0000000E+00;  1.0000000E+04;-5.6003519e-06;0.0;-2.8804602e-06;0.037312437
 -7.9999998E-02;  9.9999998E-03;  3.4000000E-01;322;0.0;0.0;0.0;1000.0018;  4.0000001E-01;1.4814394;0;0.0;0.0;0.0;0;-0.001231133;  1.0000000E+04;  0.0000000E+00;  0.0000000E+00;  1.0000000E+04;  0.0000000E+00;  1.0000000E+04;-0.00095944526;0.0;-0.00027168775;3.4911122
 -7.9999998E-02;  9.9999998E-03;  3.6000001E-01;323;0.0;0.0;0.0;1000.0009;  4.0000001E-01;0.69133836;0;0.0;0.0;0.0;0;-0.00064925005;  1.0000000E+04;  0.0000000E+00;  0.0000000E+00;  1.0000000E+04;  0.0000000E+00;  1.0000000E+04;-0.0004553037;0.0;-0.00019394637;2.5174534
 -7.9999998E-02;  9.9999998E-03;  3.8000000E-01;324;0.0;0.0;0.0;1000.0004;  4.0000001E-01;0.29628786;0;0.0;0.0;0.0;0;-0.00027029056;  1.0000000E+04;  0.0000000E+00;  0.0000000E+00;  1.0000000E+04;  0.0000000E+00;  1.0000000E+04;-0.00017294596;0.0;-9.73446e-05;1.2686219
 -7.9999998E-02;  9.9999998E-03;  4.0000001E-01;325;0.0;0.0;0.0;1000.0;  4.0000001E-01;0.0;0;0.0;0.0;0.0;0;-7.1222967e-05;  1.0000000E+04;  0.0000000E+00;  0.0000000E+00;  1.0000000E+04;  0.0000000E+00;  1.0000000E+04;-4.4457309e-05;0.0;-2.6765654e-05;0.34872866
 -5.9999999E-02;  9.9999998E-03;  3.4000000E-01;363;0.0;0.0;0.0;1000.004;  4.0000001E-01;3.3579292;0;0.0;0.0;0.0;0;-0.0027199565;  1.0000000E+04;  0.0000000E+00;  0.0000000E+00;  1.0000000E+04;  0.0000000E+00;  1.0000000E+04;-0.0020692111;0.0;-0.00065074535;8.4448719
 -5.9999999E-02;  9.9999998E-03;  3.6000001E-01;364;0.0;0.0;0.0;1000.0023;  4.0000001E-01;1.8764899;0;0.0;0.0;0.0;0;-0.0015509245;  1.0000000E+04;  0.0000000E+00;  0.0000000E+00;  1.0000000E+04;  0.0000000E+00;  1.0000000E+04;-0.0010516408;0.0;-0.00049928366;6.5378938
 -5.9999999E-02;  9.9999998E-03;  3.8000000E-01;365;0.0;0.0;0.0;1000.001;  4.0000001E-01;0.88886362;0;0.0;0.0;0.0;0;-0.00073830341;  1.0000000E+04;  0.0000000E+00;  0.0000000E+00;  1.0000000E+04;  0.0000000E+00;  1.0000000E+04;-0.00045235647;0.0;-0.00028594691;3.7566414
 -5.9999999E-02;  9.9999998E-03;  4.0000001E-01;366;0.0;0.0;0.0;1000.0003;  4.0000001E-01;0.29628786;0;0.0;0.0;0.0;0;-0.00025289913;  1.0000000E+04;  0.0000000E+00;  0.0000000E+00;  1.0000000E+04;  0.0000000E+00;  1.0000000E+04;-0.00014997693;0.0;-0.00010292221;1.3508998
 -3.9999999E-02;  9.9999998E-03;  3.4000000E-01;404;0.0;0.0;0.0;1000.0074;  4.0000001E-01;6.1232829;0;0.0;0.0;0.0;0;-0.0049515213;  1.0000000E+04;  0.0000000E+00;  0.0000000E+00;  1.0000000E+04;  0.0000000E+00;  1.0000000E+04;-0.0036664438;0.0;-0.0012850774;16.867054
 -3.9999999E-02;  9.9999998E-03;  3.6000001E-01;405;0.0;0.0;0.0;1000.0045;  4.0000001E-01;3.654217;0;0.0;0.0;0.0;0;-0.0029610461;  1.0000000E+04;  0.0000000E+00;  0.0000000E+00;  1.0000000E+04;  0.0000000E+00;  1.0000000E+04;-0.0019349935;0.0;-0.0010260525;13.576191
 -3.9999999E-02;  9.9999998E-03;  3.8000000E-01;406;0.0;0.0;0.0;1000.0022;  4.0000001E-01;1.7777272;0;0.0;0.0;0.0;0;-0.0015209299;  1.0000000E+04;  0.0000000E+00;  0.0000000E+00;  1.0000000E+04;  0.0000000E+00;  1.0000000E+04;-0.00088928646;0.0;-0.00063164334;8.3793097
 -3.9999999E-02;  9.9999998E-03;  4.0000001E-01;407;0.0;0.0;0.0;1000.0009;  4.0000001E-01;0.69133836;0;0.0;0.0;0.0;0;-0.00059518137;  1.0000000E+04;  0.0000000E+00;  0.0000000E+00;  1.0000000E+04;  0.0000000E+00;  1.0000000E+04;-0.00033423587;0.0;-0.00026094553;3.4563112
 -2.0000000E-02;  9.9999998E-03;  3.4000000E-01;445;0.0;0.0;0.0;1000.0118;  4.0000001E-01;9.7775002;0;0.0;0.0;0.0;0;-0.0077814218;  1.0000000E+04;  0.0000000E+00;  0.0000000E+00;  1.0000000E+04;  0.0000000E+00;  1.0000000E+04;-0.0055932747;0.0;-0.0021881473;29.105156
 -2.0000000E-02;  9.9999998E-03;  3.6000001E-01;446;0.0;0.0;0.0;1000.0072;  4.0000001E-01;5.9257574;0;0.0;0.0;0.0;0;-0.004798674;  1.0000000E+04;  0.0000000E+00;  0.0000000E+00;  1.0000000E+04;  0.0000000E+00;  1.0000000E+04;-0.0030126676;0.0;-0.0017860064;23.929489
 -2.0000000E-02;  9.9999998E-03;  3.8000000E-01;447;0.0;0.0;0.0;1000.0039;  4.0000001E-01;3.2591665;0;0.0;0.0;0.0;0;-0.0025800818;  1.0000000E+04;  0.0000000E+00;  0.0000000E+00;  1.0000000E+04;  0.0000000E+00;  1.0000000E+04;-0.0014342013;0.0;-0.0011458806;15.383694
 -2.0000000E-02;  9.9999998E-03;  4.0000001E-01;448;0.0;0.0;0.0;1000.0015;  4.0000001E-01;1.2839141;0;0.0;0.0;0.0;0;-0.0010865282;  1.0000000E+04;  0.0000000E+00;  0.0000000E+00;  1.0000000E+04;  0.0000000E+00;  1.0000000E+04;-0.00057489378;0.0;-0.0005116344;6.8541093
  0.0000000E+00;  9.9999998E-03;  3.4000000E-01;457;0.0;0.0;0.0;1000.0167;  4.0000001E-01;13.826767;0;0.0;0.0;0.0;0;-0.010879238;  1.0000000E+04;  0.0000000E+00;  0.0000000E+00;  1.0000000E+04;  0.0000000E+00;  1.0000000E+04;-0.0075867726;0.0;-0.0032924656;44.502319
  0.0000000E+00;  9.9999998E-03;  3.6000001E-01;458;0.0;0.0;0.0;1000.0105;  4.0000001E-01;8.6911106;0;0.0;0.0;0.0;0;-0.0068528065;  1.0000000E+04;  0.0000000E+00;  0.0000000E+00;  1.0000000E+04;  0.0000000E+00;  1.0000000E+04;-0.0041315006;0.0;-0.0027213057;37.027279
  0.0000000E+00;  9.9999998E-03;  3.8000000E-01;459;0.0;0.0;0.0;1000.0057;  4.0000001E-01;4.7406058;0;0.0;0.0;0.0;0;-0.0037905043;  1.0000000E+04;  0.0000000E+00;  0.0000000E+00;  1.0000000E+04;  0.0000000E+00;  1.0000000E+04;-0.0020014225;0.0;-0.0017890818;24.379442
  0.0000000E+00;  9.9999998E-03;  4.0000001E-01;460;0.0;0.0;0.0;1000.0025;  4.0000001E-01;2.0740151;0;0.0;0.0;0.0;0;-0.0016627755;  1.0000000E+04;  0.0000000E+00;  0.0000000E+00;  1.0000000E+04;  0.0000000E+00;  1.0000000E+04;-0.00082677451;0.0;-0.00083600101;11.361249
  2.0000000E-02;  9.9999998E-03;  3.4000000E-01;467;0.0;0.0;0.0;1000.0215;  4.0000001E-01;17.777273;0;0.0;0.0;0.0;0;-0.013874597;  1.0000000E+04;  0.0000000E+00;  0.0000000E+00;  1.0000000E+04;  0.0000000E+00;  1.0000000E+04;-0.0094289752;0.0;-0.0044456217;61.295349
  2.0000000E-02;  9.9999998E-03;  3.6000001E-01;468;0.0;0.0;0.0;1000.0137;  4.0000001E-01;11.357701;0;0.0;0.0;0.0;0;-0.0088760704;  1.0000000E+04;  0.0000000E+00;  0.0000000E+00;  1.0000000E+04;  0.0000000E+00;  1.0000000E+04;-0.0051667518;0.0;-0.0037093181;51.455772
  2.0000000E-02;  9.9999998E-03;  3.8000000E-01;469;0.0;0.0;0.0;1000.0078;  4.0000001E-01;6.4195704;0;0.0;0.0;0.0;0;-0.0049975091;  1.0000000E+04;  0.0000000E+00;  0.0000000E+00;  1.0000000E+04;  0.0000000E+00;  1.0000000E+04;-0.0025202152;0.0;-0.0024772938;34.399658
  2.0000000E-02;  9.9999998E-03;  4.0000001E-01;470;0.0;0.0;0.0;1000.0034;  4.0000001E-01;2.7653534;0;0.0;0.0;0.0;0;-0.0022398797;  1.0000000E+04;  0.0000000E+00;  0.0000000E+00;  1.0000000E+04;  0.0000000E+00;  1.0000000E+04;-0.0010506514;0.0;-0.0011892284;16.459957
  3.9999999E-02;  9.9999998E-03;  3.4000000E-01;477;0.0;0.0;0.0;1000.0263;  4.0000001E-01;21.82654;0;0.0;0.0;0.0;0;-0.016587432;  1.0000000E+04;  0.0000000E+00;  0.0000000E+00;  1.0000000E+04;  0.0000000E+00;  1.0000000E+04;-0.011114285;0.0;-0.0054731471;77.37545
  3.9999999E-02;  9.9999998E-03;  3.6000001E-01;478;0.0;0.0;0.0;1000.017;  4.0000001E-01;14.123055;0;0.0;0.0;0.0;0;-0.010722142;  1.0000000E+04;  0.0000000E+00;  0.0000000E+00;  1.0000000E+04;  0.0000000E+00;  1.0000000E+04;-0.0061086453;0.0;-0.0046134968;65.580437
  3.9999999E-02;  9.9999998E-03;  3.8000000E-01;479;0.0;0.0;0.0;1000.0096;  4.0000001E-01;7.90101;0;0.0;0.0;0.0;0;-0.0060991338;  1.0000000E+04;  0.0000000E+00;  0.0000000E+00;  1.0000000E+04;  0.0000000E+00;  1.0000000E+04;-0.0029815047;0.0;-0.0031176293;44.335835
  3.9999999E-02;  9.9999998E-03;  4.0000001E-01;480;0.0;0.0;0.0;1000.0043;  4.0000001E-01;3.5554545;0;0.0;0.0;0.0;0;-0.0027599782;  1.0000000E+04;  0.0000000E+00;  0.0000000E+00;  1.0000000E+04;  0.0000000E+00;  1.0000000E+04;-0.0012392292;0.0;-0.0015207488;21.54393
  5.9999999E-02;  9.9999998E-03;  3.4000000E-01;487;0.0;0.0;0.0;1000.0311;  4.0000001E-01;25.777044;0;0.0;0.0;0.0;0;-0.019137112;  1.0000000E+04;  0.0000000E+00;  0.0000000E+00;  1.0000000E+04;  0.0000000E+00;  1.0000000E+04;-0.012855944;0.0;-0.0062811687;91.614723
  5.9999999E-02;  9.9999998E-03;  3.6000001E-01;488;0.0;0.0;0.0;1000.0201;  4.0000001E-01;16.690884;0;0.0;0.0;0.0;0;-0.012431631;  1.0000000E+04;  0.0000000E+00;  0.0000000E+00;  1.0000000E+04;  0.0000000E+00;  1.0000000E+04;-0.0070795505;0.0;-0.0053520808;78.43515
  5.9999999E-02;  9.9999998E-03;  3.8000000E-01;489;0.0;0.0;0.0;1000.0115;  4.0000001E-01;9.4812117;0;0.0;0.0;0.0;0;-0.0071039349;  1.0000000E+04;  0.0000000E+00;  0.0000000E+00;  1.0000000E+04;  0.0000000E+00;  1.0000000E+04;-0.0034520479;0.0;-0.0036518872;53.499718
  5.9999999E-02;  9.9999998E-03;  4.0000001E-01;490;0.0;0.0;0.0;1000.0052;  4.0000001E-01;4.3455553;0;0.0;0.0;0.0;0;-0.0032241123;  1.0000000E+04;  0.0000000E+00;  0.0000000E+00;  1.0000000E+04;  0.0000000E+00;  1.0000000E+04;-0.0014254885;0.0;-0.0017986238;26.229507
  7.9999998E-02;  9.9999998E-03;  3.4000000E-01;497;0.0;0.0;0.0;1000.0366;  4.0000001E-01;30.320126;0;0.0;0.0;0.0;0;-0.021958068;  1.0000000E+04;  0.0000000E+00;  0.0000000E+00;  1.0000000E+04;  0.0000000E+00;  1.0000000E+04;-0.015068827;0.0;-0.0068892417;104.66801
  7.9999998E-02;  9.9999998E-03;  3.6000001E-01;498;0.0;0.0;0.0;1000.0239;  4.0000001E-01;19.752525;0;0.0;0.0;0.0;0;-0.014271179;  1.0000000E+04;  0.0000000E+00;  0.0000000E+00;  1.0000000E+04;  0.0000000E+00;  1.0000000E+04;-0.0083415993;0.0;-0.0059295795;90.342102
  7.9999998E-02;  9.9999998E-03;  3.8000000E-01;499;0.0;0.0;0.0;1000.0135;  4.0000001E-01;11.258939;0;0.0;0.0;0.0;0;-0.0081534935;  1.0000000E+04;  0.0000000E+00;  0.0000000E+00;  1.0000000E+04;  0.0000000E+00;  1.0000000E+04;-0.0040756813;0.0;-0.0040778122;61.928669
  7.9999998E-02;  9.9999998E-03;  4.0000001E-01;500;0.0;0.0;0.0;1000.0061;  4.0000001E-01;5.0368938;0;0.0;0.0;0.0;0;-0.0036993069;  1.0000000E+04;  0.0000000E+00;  0.0000000E+00;  1.0000000E+04;  0.0000000E+00;  1.0000000E+04;-0.0016777158;0.0;-0.0020215912;30.548161
  1.0000000E-01;  9.9999998E-03;  3.4000000E-01;507;0.0;0.0;0.0;1000.0443;  4.0000001E-01;36.640934;0;0.0;0.0;0.0;0;-0.025774667;  1.0000000E+04;  0.0000000E+00;  0.0000000E+00;  1.0000000E+04;  0.0000000E+00;  1.0000000E+04;-0.018356159;0.0;-0.0074185077;124.97814
  1.0000000E-01;  9.9999998E-03;  3.6000001E-01;508;0.0;0.0;0.0;1000.0287;  4.0000001E-01;23.801792;0;0.0;0.0;0.0;0;-0.01671958;  1.0000000E+04;  0.0000000E+00;  0.0000000E+00;  1.0000000E+04;  0.0000000E+00;  1.0000000E+04;-0.010284593;0.0;-0.0064349868;103.98637
  1.0000000E-01;  9.9999998E-03;  3.8000000E-01;509;0.0;0.0;0.0;1000.0164;  4.0000001E-01;13.530479;0;0.0;0.0;0.0;0;-0.0095189363;  1.0000000E+04;  0.0000000E+00;  0.0000000E+00;  1.0000000E+04;  0.0000000E+00;  1.0000000E+04;-0.0050694323;0.0;-0.0044495035;70.47377
  1.0000000E-01;  9.9999998E-03;  4.0000001E-01;510;0.0;0.0;0.0;1000.0076;  4.0000001E-01;6.2220454;0;0.0;0.0;0.0;0;-0.0043149134;  1.0000000E+04;  0.0000000E+00;  0.0000000E+00;  1.0000000E+04;  0.0000000E+00;  1.0000000E+04;-0.002097571;0.0;-0.0022173421;36.67289
  1.2000000E-01;  9.9999998E-03;  3.4000000E-01;517;0.0;0.0;0.0;1000.0559;  4.0000001E-01;46.319672;0;0.0;0.0;0.0;0;-0.031562056;  1.0000000E+04;  0.0000000E+00;  0.0000000E+00;  1.0000000E+04;  0.0000000E+00;  1.0000000E+04;-0.023460887;0.0;-0.0081011681;199.40204
  1.2000000E-01;  9.9999998E-03;  3.6000001E-01;518;0.0;0.0;0.0;1000.0362;  4.0000001E-01;30.023838;0;0.0;0.0;0.0;0;-0.020462789;  1.0000000E+04;  0.0000000E+00;  0.0000000E+00;  1.0000000E+04;  0.0000000E+00;  1.0000000E+04;-0.013406392;0.0;-0.0070563969;126.77866
  1.2000000E-01;  9.9999998E-03;  3.8000000E-01;519;0.0;0.0;0.0;1000.0206;  4.0000001E-01;17.085934;0;0.0;0.0;0.0;0;-0.01160989;  1.0000000E+04;  0.0000000E+00;  0.0000000E+00;  1.0000000E+04;  0.0000000E+00;  1.0000000E+04;-0.006720467;0.0;-0.0048894221;88.123672
  1.2000000E-01;  9.9999998E-03;  4.0000001E-01;520;0.0;0.0;0.0;1000.0094;  4.0000001E-01;7.8022475;0;0.0;0.0;0.0;0;-0.0052696345;  1.0000000E+04;  0.0000000E+00;  0.0000000E+00;  1.0000000E+04;  0.0000000E+00;  1.0000000E+04;-0.0028252236;0.0;-0.0024444112;67.475876
  1.4000000E-01;  9.9999998E-03;  3.4000000E-01;527;0.0;0.0;0.0;1000.0737;  4.0000001E-01;61.035301;0;0.0;0.0;0.0;0;-0.040547147;  1.0000000E+04;  0.0000000E+00;  0.0000000E+00;  1.0000000E+04;  0.0000000E+00;  1.0000000E+04;-0.031228211;0.0;-0.0093189357;431.83682
  1.4000000E-01;  9.9999998E-03;  3.6000001E-01;528;0.0;0.0;0.0;1000.0483;  4.0000001E-01;39.998863;0;0.0;0.0;0.0;0;-0.026429895;  1.0000000E+04;  0.0000000E+00;  0.0000000E+00;  1.0000000E+04;  0.0000000E+00;  1.0000000E+04;-0.018306497;0.0;-0.0081233969;170.44615
  1.4000000E-01;  9.9999998E-03;  3.8000000E-01;529;0.0;0.0;0.0;1000.0275;  4.0000001E-01;22.814167;0;0.0;0.0;0.0;0;-0.01504093;  1.0000000E+04;  0.0000000E+00;  0.0000000E+00;  1.0000000E+04;  0.0000000E+00;  1.0000000E+04;-0.0094027491;0.0;-0.0056381817;175.02974
  1.4000000E-01;  9.9999998E-03;  4.0000001E-01;530;0.0;0.0;0.0;1000.0125;  4.0000001E-01;10.370075;0;0.0;0.0;0.0;0;-0.0068978178;  1.0000000E+04;  0.0000000E+00;  0.0000000E+00;  1.0000000E+04;  0.0000000E+00;  1.0000000E+04;-0.0040624877;0.0;-0.0028353301;194.97232
  1.6000000E-01;  9.9999998E-03;  3.4000000E-01;537;0.0;0.0;0.0;1000.1003;  4.0000001E-01;83.158127;0;0.0;0.0;0.0;0;-0.053880908;  1.0000000E+04;  0.0000000E+00;  0.0000000E+00;  1.0000000E+04;  0.0000000E+00;  1.0000000E+04;-0.042206384;0.0;-0.011674524;936.47522
  1.6000000E-01;  9.9999998E-03;  3.6000001E-01;538;0.0;0.0;0.0;1000.0666;  4.0000001E-01;55.208305;0;0.0;0.0;0.0;0;-0.035566445;  1.0000000E+04;  0.0000000E+00;  0.0000000E+00;  1.0000000E+04;  0.0000000E+00;  1.0000000E+04;-0.025394572;0.0;-0.010171873;236.73241
  1.6000000E-01;  9.9999998E-03;  3.8000000E-01;539;0.0;0.0;0.0;1000.0386;  4.0000001E-01;31.99909;0;0.0;0.0;0.0;0;-0.020577567;  1.0000000E+04;  0.0000000E+00;  0.0000000E+00;  1.0000000E+04;  0.0000000E+00;  1.0000000E+04;-0.013439969;0.0;-0.0071375975;460.96713
  1.6000000E-01;  9.9999998E-03;  4.0000001E-01;540;0.0;0.0;0.0;1000.0182;  4.0000001E-01;15.110682;0;0.0;0.0;0.0;0;-0.0097515378;  1.0000000E+04;  0.0000000E+00;  0.0000000E+00;  1.0000000E+04;  0.0000000E+00;  1.0000000E+04;-0.0060586077;0.0;-0.0036929303;550.77374
  1.8000001E-01;  9.9999998E-03;  3.4000000E-01;547;0.0;0.0;0.0;1000.137;  4.0000001E-01;113.47826;0;0.0;0.0;0.0;0;-0.071642369;  1.0000000E+04;  0.0000000E+00;  0.0000000E+00;  1.0000000E+04;  0.0000000E+00;  1.0000000E+04;-0.055553362;0.0;-0.016089007;1755.9347
  1.8000001E-01;  9.9999998E-03;  3.6000001E-01;548;0.0;0.0;0.0;1000.0922;  4.0000001E-01;76.343506;0;0.0;0.0;0.0;0;-0.048062075;  1.0000000E+04;  0.0000000E+00;  0.0000000E+00;  1.0000000E+04;  0.0000000E+00;  1.0000000E+04;-0.034034066;0.0;-0.014028008;299.63004
  1.8000001E-01;  9.9999998E-03;  3.8000000E-01;549;0.0;0.0;0.0;1000.0553;  4.0000001E-01;45.825859;0;0.0;0.0;0.0;0;-0.028740138;  1.0000000E+04;  0.0000000E+00;  0.0000000E+00;  1.0000000E+04;  0.0000000E+00;  1.0000000E+04;-0.018586142;0.0;-0.010153995;1090.7861
  1.8000001E-01;  9.9999998E-03;  4.0000001E-01;550;0.0;0.0;0.0;1000.0279;  4.0000001E-01;23.110455;0;0.0;0.0;0.0;0;-0.014588587;  1.0000000E+04;  0.0000000E+00;  0.0000000E+00;  1.0000000E+04;  0.0000000E+00;  1.0000000E+04;-0.0089173485;0.0;-0.005671239;1346.6656
  2.0000000E-01;  9.9999998E-03;  3.4000000E-01;556;0.0;0.0;0.0;1000.1814;  4.0000001E-01;150.31671;0;0.0;0.0;0.0;0;-0.092569329;  1.0000000E+04;  0.0000000E+00;  0.0000000E+00;  1.0000000E+04;  0.0000000E+00;  1.0000000E+04;-0.068762153;0.0;-0.023807174;2687.7207
  2.0000000E-01;  9.9999998E-03;  3.6000001E-01;557;0.0;0.0;0.0;1000.1245;  4.0000001E-01;103.10818;0;0.0;0.0;0.0;0;-0.063319214;  1.0000000E+04;  0.0000000E+00;  0.0000000E+00;  1.0000000E+04;  0.0000000E+00;  1.0000000E+04;-0.042479943;0.0;-0.020839272;390.81802
  2.0000000E-01;  9.9999998E-03;  3.8000000E-01;558;0.0;0.0;0.0;1000.0784;  4.0000001E-01;64.985809;0;0.0;0.0;0.0;0;-0.039734781;  1.0000000E+04;  0.0000000E+00;  0.0000000E+00;  1.0000000E+04;  0.0000000E+00;  1.0000000E+04;-0.023864498;0.0;-0.015870281;2100.7637
  1.9200000E+00;  9.9999998E-03; -3.6000001E-01;559;0.0;0.0;0.0;1000.0;  4.0000001E-01;0.0;0;0.0;0.0;0.0;0;0.0;  1.0000000E+04;  0.0000000E+00;  0.0000000E+00;  1.0000000E+04;  0.0000000E+00;  1.0000000E+04;0.0;0.0;0.0;0.0
  1.9200000E+00;  9.9999998E-03; -3.4000000E-01;560;0.0;0.0;0.0;1000.0;  4.0000001E-01;0.0;0;0.0;0.0;0.0;0;0.0;  1.0000000E+04;  0.0000000E+00;  0.0000000E+00;  1.0000000E+04;  0.0000000E+00;  1.0000000E+04;0.0;0.0;0.0;0.0
  1.9200000E+00;  9.9999998E-03; -3.1999999E-01;561;0.0;0.0;0.0;1000.0;  4.0000001E-01;0.0;0;0.0;0.0;0.0;0;0.0;  1.0000000E+04;  0.0000000E+00;  0.0000000E+00;  1.0000000E+04;  0.0000000E+00;  1.0000000E+04;0.0;0.0;0.0;0.0
  1.9400001E+00;  9.9999998E-03; -3.8000000E-01;562;0.0;0.0;0.0;1000.0;  4.0000001E-01;0.0;0;0.0;0.0;0.0;0;0.0;  1.0000000E+04;  0.0000000E+00;  0.0000000E+00;  1.0000000E+04;  0.0000000E+00;  1.0000000E+04;0.0;0.0;0.0;0.0
  1.9400001E+00;  9.9999998E-03; -3.6000001E-01;563;0.0;0.0;0.0;1000.0;  4.0000001E-01;0.0;0;0.0;0.0;0.0;0;0.0;  1.0000000E+04;  0.0000000E+00;  0.0000000E+00;  1.0000000E+04;  0.0000000E+00;  1.0000000E+04;0.0;0.0;0.0;0.0
  1.9400001E+00;  9.9999998E-03; -3.4000000E-01;564;0.0;0.0;0.0;1000.0;  4.0000001E-01;0.0;0;0.0;0.0;0.0;0;0.0;  1.0000000E+04;  0.0000000E+00;  0.0000000E+00;  1.0000000E+04;  0.0000000E+00;  1.0000000E+04;0.0;0.0;0.0;0.0
  1.9400001E+00;  9.9999998E-03; -3.1999999E-01;565;0.0;0.0;0.0;1000.0;  4.0000001E-01;0.0;0;0.0;0.0;0.0;0;0.0;  1.0000000E+04;  0.0000000E+00;  0.0000000E+00;  1.0000000E+04;  0.0000000E+00;  1.0000000E+04;0.0;0.0;0.0;0.0
  1.9400001E+00;  9.9999998E-03; -3.0000001E-01;566;0.0;0.0;0.0;1000.0;  4.0000001E-01;0.0;0;0.0;0.0;0.0;0;0.0;  1.0000000E+04;  0.0000000E+00;  0.0000000E+00;  1.0000000E+04;  0.0000000E+00;  1.0000000E+04;0.0;0.0;0.0;0.0
  1.9400001E+00;  9.9999998E-03; -2.8000000E-01;567;0.0;0.0;0.0;1000.0;  4.0000001E-01;0.0;0;0.0;0.0;0.0;0;0.0;  1.0000000E+04;  0.0000000E+00;  0.0000000E+00;  1.0000000E+04;  0.0000000E+00;  1.0000000E+04;0.0;0.0;0.0;0.0
  1.9400001E+00;  9.9999998E-03; -2.5999999E-01;568;0.0;0.0;0.0;1000.0;  4.0000001E-01;0.0;0;0.0;0.0;0.0;0;0.0;  1.0000000E+04;  0.0000000E+00;  0.0000000E+00;  1.0000000E+04;  0.0000000E+00;  1.0000000E+04;0.0;0.0;0.0;0.0
  1.9400001E+00;  9.9999998E-03; -2.3999999E-01;569;0.0;0.0;0.0;1000.0;  4.0000001E-01;0.0;0;0.0;0.0;0.0;0;0.0;  1.0000000E+04;  0.0000000E+00;  0.0000000E+00;  1.0000000E+04;  0.0000000E+00;  1.0000000E+04;0.0;0.0;0.0;0.0
  1.9400001E+00;  9.9999998E-03; -2.2000000E-01;570;0.0;0.0;0.0;1000.0;  4.0000001E-01;0.0;0;0.0;0.0;0.0;0;0.0;  1.0000000E+04;  0.0000000E+00;  0.0000000E+00;  1.0000000E+04;  0.0000000E+00;  1.0000000E+04;0.0;0.0;0.0;0.0
  1.9600000E+00;  9.9999998E-03; -3.8000000E-01;571;0.0;0.0;0.0;1000.0;  4.0000001E-01;0.0;0;0.0;0.0;0.0;0;0.0;  1.0000000E+04;  0.0000000E+00;  0.0000000E+00;  1.0000000E+04;  0.0000000E+00;  1.0000000E+04;0.0;0.0;0.0;0.0
  1.9600000E+00;  9.9999998E-03; -3.6000001E-01;572;0.0;0.0;0.0;1000.0;  4.0000001E-01;0.0;0;0.0;0.0;0.0;0;0.0;  1.0000000E+04;  0.0000000E+00;  0.0000000E+00;  1.0000000E+04;  0.0000000E+00;  1.0000000E+04;0.0;0.0;0.0;0.0
  1.9600000E+00;  9.9999998E-03; -3.4000000E-01;573;0.0;0.0;0.0;1000.0;  4.0000001E-01;0.0;0;0.0;0.0;0.0;0;0.0;  1.0000000E+04;  0.0000000E+00;  0.0000000E+00;  1.0000000E+04;  0.0000000E+00;  1.0000000E+04;0.0;0.0;0.0;0.0
  1.9600000E+00;  9.9999998E-03; -3.1999999E-01;574;0.0;0.0;0.0;1000.0;  4.0000001E-01;0.0;0;0.0;0.0;0.0;0;0.0;  1.0000000E+04;  0.0000000E+00;  0.0000000E+00;  1.0000000E+04;  0.0000000E+00;  1.0000000E+04;0.0;0.0;0.0;0.0
  1.9600000E+00;  9.9999998E-03; -3.0000001E-01;575;0.0;0.0;0.0;1000.0;  4.0000001E-01;0.0;0;0.0;0.0;0.0;0;0.0;  1.0000000E+04;  0.0000000E+00;  0.0000000E+00;  1.0000000E+04;  0.0000000E+00;  1.0000000E+04;0.0;0.0;0.0;0.0
  1.9600000E+00;  9.9999998E-03; -2.8000000E-01;576;0.0;0.0;0.0;1000.0;  4.0000001E-01;0.0;0;0.0;0.0;0.0;0;0.0;  1.0000000E+04;  0.0000000E+00;  0.0000000E+00;  1.0000000E+04;  0.0000000E+00;  1.0000000E+04;0.0;0.0;0.0;0.0
  1.9600000E+00;  9.9999998E-03; -2.5999999E-01;577;0.0;0.0;0.0;1000.0;  4.0000001E-01;0.0;0;0.0;0.0;0.0;0;0.0;  1.0000000E+04;  0.0000000E+00;  0.0000000E+00;  1.0000000E+04;  0.0000000E+00;  1.0000000E+04;0.0;0.0;0.0;0.0
  1.9600000E+00;  9.9999998E-03; -2.3999999E-01;578;0.0;0.0;0.0;1000.0;  4.0000001E-01;0.0;0;0.0;0.0;0.0;0;0.0;  1.0000000E+04;  0.0000000E+00;  0.0000000E+00;  1.0000000E+04;  0.0000000E+00;  1.0000000E+04;0.0;0.0;0.0;0.0
  1.9600000E+00;  9.9999998E-03; -2.2000000E-01;579;0.0;0.0;0.0;1000.0;  4.0000001E-01;0.0;0;0.0;0.0;0.0;0;0.0;  1.0000000E+04;  0.0000000E+00;  0.0000000E+00;  1.0000000E+04;  0.0000000E+00;  1.0000000E+04;0.0;0.0;0.0;0.0
  1.9600000E+00;  9.9999998E-03; -2.0000000E-01;580;0.0;0.0;0.0;1000.0;  4.0000001E-01;0.0;0;0.0;0.0;0.0;0;0.0;  1.0000000E+04;  0.0000000E+00;  0.0000000E+00;  1.0000000E+04;  0.0000000E+00;  1.0000000E+04;0.0;0.0;0.0;0.0
  1.9600000E+00;  9.9999998E-03; -1.8000001E-01;581;0.0;0.0;0.0;1000.0;  4.0000001E-01;0.0;0;0.0;0.0;0.0;0;0.0;  1.0000000E+04;  0.0000000E+00;  0.0000000E+00;  1.0000000E+04;  0.0000000E+00;  1.0000000E+04;0.0;0.0;0.0;0.0
  1.9600000E+00;  9.9999998E-03; -1.6000000E-01;582;0.0;0.0;0.0;1000.0;  4.0000001E-01;0.0;0;0.0;0.0;0.0;0;0.0;  1.0000000E+04;  0.0000000E+00;  0.0000000E+00;  1.0000000E+04;  0.0000000E+00;  1.0000000E+04;0.0;0.0;0.0;0.0
  1.9600000E+00;  9.9999998E-03; -1.4000000E-01;583;0.0;0.0;0.0;1000.0;  4.0000001E-01;0.0;0;0.0;0.0;0.0;0;0.0;  1.0000000E+04;  0.0000000E+00;  0.0000000E+00;  1.0000000E+04;  0.0000000E+00;  1.0000000E+04;0.0;0.0;0.0;0.0
  1.9600000E+00;  9.9999998E-03; -1.2000000E-01;584;0.0;0.0;0.0;1000.0;  4.0000001E-01;0.0;0;0.0;0.0;0.0;0;0.0;  1.0000000E+04;  0.0000000E+00;  0.0000000E+00;  1.0000000E+04;  0.0000000E+00;  1.0000000E+04;0.0;0.0;0.0;0.0
  1.9800000E+00;  9.9999998E-03; -3.8000000E-01;585;0.0;0.0;0.0;1000.0;  4.0000001E-01;0.0;0;0.0;0.0;0.0;0;0.0;  1.0000000E+04;  0.0000000E+00;  0.0000000E+00;  1.0000000E+04;  0.0000000E+00;  1.0000000E+04;0.0;0.0;0.0;0.0
  1.9800000E+00;  9.9999998E-03; -3.6000001E-01;586;0.0;0.0;0.0;1000.0;  4.0000001E-01;0.0;0;0.0;0.0;0.0;0;0.0;  1.0000000E+04;  0.0000000E+00;  0.0000000E+00;  1.0000000E+04;  0.0000000E+00;  1.0000000E+04;0.0;0.0;0.0;0.0
  1.9800000E+00;  9.9999998E-03; -3.4000000E-01;587;0.0;0.0;0.0;1000.0;  4.0000001E-01;0.0;0;0.0;0.0;0.0;0;0.0;  1.0000000E+04;  0.0000000E+00;  0.0000000E+00;  1.0000000E+04;  0.0000000E+00;  1.0000000E+04;0.0;0.0;0.0;0.0
  1.9800000E+00;  9.9999998E-03; -3.1999999E-01;588;0.0;0.0;0.0;1000.0;  4.0000001E-01;0.0;0;0.0;0.0;0.0;0;0.0;  1.0000000E+04;  0.0000000E+00;  0.0000000E+00;  1.0000000E+04;  0.0000000E+00;  1.0000000E+04;0.0;0.0;0.0;0.0
  1.9800000E+00;  9.9999998E-03; -3.0000001E-01;589;0.0;0.0;0.0;1000.0;  4.0000001E-01;0.0;0;0.0;0.0;0.0;0;0.0;  1.0000000E+04;  0.0000000E+00;  0.0000000E+00;  1.0000000E+04;  0.0000000E+00;  1.0000000E+04;0.0;0.0;0.0;0.0
  1.9800000E+00;  9.9999998E-03; -2.8000000E-01;590;0.0;0.0;0.0;1000.0;  4.0000001E-01;0.0;0;0.0;0.0;0.0;0;0.0;  1.0000000E+04;  0.0000000E+00;  0.0000000E+00;  1.0000000E+04;  0.0000000E+00;  1.0000000E+04;0.0;0.0;0.0;0.0
  1.9800000E+00;  9.9999998E-03; -2.5999999E-01;591;0.0;0.0;0.0;1000.0;  4.0000001E-01;0.0;0;0.0;0.0;0.0;0;0.0;  1.0000000E+04;  0.0000000E+00;  0.0000000E+00;  1.0000000E+04;  0.0000000E+00;  1.0000000E+04;0.0;0.0;0.0;0.0
  1.9800000E+00;  9.9999998E-03; -2.3999999E-01;592;0.0;0.0;0.0;1000.0;  4.0000001E-01;0.0;0;0.0;0.0;0.0;0;0.0;  1.0000000E+04;  0.0000000E+00;  0.0000000E+00;  1.0000000E+04;  0.0000000E+00;  1.0000000E+04;0.0;0.0;0.0;0.0
  1.9800000E+00;  9.9999998E-03; -2.2000000E-01;593;0.0;0.0;0.0;1000.0;  4.0000001E-01;0.0;0;0.0;0.0;0.0;0;0.0;  1.0000000E+04;  0.0000000E+00;  0.0000000E+00;  1.0000000E+04;  0.0000000E+00;  1.0000000E+04;0.0;0.0;0.0;0.0
  1.9800000E+00;  9.9999998E-03; -2.0000000E-01;594;0.0;0.0;0.0;1000.0;  4.0000001E-01;0.0;0;0.0;0.0;0.0;0;0.0;  1.0000000E+04;  0.0000000E+00;  0.0000000E+00;  1.0000000E+04;  0.0000000E+00;  1.0000000E+04;0.0;0.0;0.0;0.0
  1.9800000E+00;  9.9999998E-03; -1.8000001E-01;595;0.0;0.0;0.0;1000.0;  4.0000001E-01;0.0;0;0.0;0.0;0.0;0;0.0;  1.0000000E+04;  0.0000000E+00;  0.0000000E+00;  1.0000000E+04;  0.0000000E+00;  1.0000000E+04;0.0;0.0;0.0;0.0
  1.9800000E+00;  9.9999998E-03; -1.6000000E-01;596;0.0;0.0;0.0;1000.0;  4.0000001E-01;0.0;0;0.0;0.0;0.0;0;0.0;  1.0000000E+04;  0.0000000E+00;  0.0000000E+00;  1.0000000E+04;  0.0000000E+00;  1.0000000E+04;0.0;0.0;0.0;0.0
  1.9800000E+00;  9.9999998E-03; -1.4000000E-01;597;0.0;0.0;0.0;1000.0;  4.0000001E-01;0.0;0;0.0;0.0;0.0;0;0.0;  1.0000000E+04;  0.0000000E+00;  0.0000000E+00;  1.0000000E+04;  0.0000000E+00;  1.0000000E+04;0.0;0.0;0.0;0.0
  1.9800000E+00;  9.9999998E-03; -1.2000000E-01;598;0.0;0.0;0.0;1000.0;  4.0000001E-01;0.0;0;0.0;0.0;0.0;0;0.0;  1.0000000E+04;  0.0000000E+00;  0.0000000E+00;  1.0000000E+04;  0.0000000E+00;  1.0000000E+04;0.0;0.0;0.0;0.0
  1.9800000E+00;  9.9999998E-03; -1.0000000E-01;599;0.0;0.0;0.0;1000.0;  4.0000001E-01;0.0;0;0.0;0.0;0.0;0;0.0;  1.0000000E+04;  0.0000000E+00;  0.0000000E+00;  1.0000000E+04;  0.0000000E+00;  1.0000000E+04;0.0;0.0;0.0;0.0
  1.9800000E+00;  9.9999998E-03; -7.9999998E-02;600;0.0;0.0;0.0;1000.0;  4.0000001E-01;0.0;0;0.0;0.0;0.0;0;0.0;  1.0000000E+04;  0.0000000E+00;  0.0000000E+00;  1.0000000E+04;  0.0000000E+00;  1.0000000E+04;0.0;0.0;0.0;0.0
  1.9800000E+00;  9.9999998E-03; -5.9999999E-02;601;0.0;0.0;0.0;1000.0;  4.0000001E-01;0.0;0;0.0;0.0;0.0;0;0.0;  1.0000000E+04;  0.0000000E+00;  0.0000000E+00;  1.0000000E+04;  0.0000000E+00;  1.0000000E+04;0.0;0.0;0.0;0.0
  1.9800000E+00;  9.9999998E-03; -3.9999999E-02;602;0.0;0.0;0.0;1000.0;  4.0000001E-01;0.0;0;0.0;0.0;0.0;0;0.0;  1.0000000E+04;  0.0000000E+00;  0.0000000E+00;  1.0000000E+04;  0.0000000E+00;  1.0000000E+04;0.0;0.0;0.0;0.0
  1.9800000E+00;  9.9999998E-03; -2.0000000E-02;603;0.0;0.0;0.0;1000.0;  4.0000001E-01;0.0;0;0.0;0.0;0.0;0;0.0;  1.0000000E+04;  0.0000000E+00;  0.0000000E+00;  1.0000000E+04;  0.0000000E+00;  1.0000000E+04;0.0;0.0;0.0;0.0
  2.0000000E+00;  9.9999998E-03; -3.8000000E-01;604;0.0;0.0;0.0;1000.0;  4.0000001E-01;0.0;0;0.0;0.0;0.0;0;0.0;  1.0000000E+04;  0.0000000E+00;  0.0000000E+00;  1.0000000E+04;  0.0000000E+00;  1.0000000E+04;0.0;0.0;0.0;0.0
  2.0000000E+00;  9.9999998E-03; -3.6000001E-01;605;0.0;0.0;0.0;1000.0;  4.0000001E-01;0.0;0;0.0;0.0;0.0;0;0.0;  1.0000000E+04;  0.0000000E+00;  0.0000000E+00;  1.0000000E+04;  0.0000000E+00;  1.0000000E+04;0.0;0.0;0.0;0.0
  2.0000000E+00;  9.9999998E-03; -3.4000000E-01;606;0.0;0.0;0.0;1000.0;  4.0000001E-01;0.0;0;0.0;0.0;0.0;0;0.0;  1.0000000E+04;  0.0000000E+00;  0.0000000E+00;  1.0000000E+04;  0.0000000E+00;  1.0000000E+04;0.0;0.0;0.0;0.0
  2.0000000E+00;  9.9999998E-03; -3.1999999E-01;607;0.0;0.0;0.0;1000.0;  4.0000001E-01;0.0;0;0.0;0.0;0.0;0;0.0;  1.0000000E+04;  0.0000000E+00;  0.0000000E+00;  1.0000000E+04;  0.0000000E+00;  1.0000000E+04;0.0;0.0;0.0;0.0
  2.0000000E+00;  9.9999998E-03; -3.0000001E-01;608;0.0;0.0;0.0;1000.0;  4.0000001E-01;0.0;0;0.0;0.0;0.0;0;0.0;  1.0000000E+04;  0.0000000E+00;  0.0000000E+00;  1.0000000E+04;  0.0000000E+00;  1.0000000E+04;0.0;0.0;0.0;0.0
  2.0000000E+00;  9.9999998E-03; -2.8000000E-01;609;0.0;0.0;0.0;1000.0;  4.0000001E-01;0.0;0;0.0;0.0;0.0;0;0.0;  1.0000000E+04;  0.0000000E+00;  0.0000000E+00;  1.0000000E+04;  0.0000000E+00;  1.0000000E+04;0.0;0.0;0.0;0.0
  2.0000000E+00;  9.9999998E-03; -2.5999999E-01;610;0.0;0.0;0.0;1000.0;  4.0000001E-01;0.0;0;0.0;0.0;0.0;0;0.0;  1.0000000E+04;  0.0000000E+00;  0.0000000E+00;  1.0000000E+04;  0.0000000E+00;  1.0000000E+04;0.0;0.0;0.0;0.0
  2.0000000E+00;  9.9999998E-03; -2.3999999E-01;611;0.0;0.0;0.0;1000.0;  4.0000001E-01;0.0;0;0.0;0.0;0.0;0;0.0;  1.0000000E+04;  0.0000000E+00;  0.0000000E+00;  1.0000000E+04;  0.0000000E+00;  1.0000000E+04;0.0;0.0;0.0;0.0
  2.0000000E+00;  9.9999998E-03; -2.2000000E-01;612;0.0;0.0;0.0;1000.0;  4.0000001E-01;0.0;0;0.0;0.0;0.0;0;0.0;  1.0000000E+04;  0.0000000E+00;  0.0000000E+00;  1.0000000E+04;  0.0000000E+00;  1.0000000E+04;0.0;0.0;0.0;0.0
  2.0000000E+00;  9.9999998E-03; -2.0000000E-01;613;0.0;0.0;0.0;1000.0;  4.0000001E-01;0.0;0;0.0;0.0;0.0;0;0.0;  1.0000000E+04;  0.0000000E+00;  0.0000000E+00;  1.0000000E+04;  0.0000000E+00;  1.0000000E+04;0.0;0.0;0.0;0.0
  2.0000000E+00;  9.9999998E-03; -1.8000001E-01;614;0.0;0.0;0.0;1000.0;  4.0000001E-01;0.0;0;0.0;0.0;0.0;0;0.0;  1.0000000E+04;  0.0000000E+00;  0.0000000E+00;  1.0000000E+04;  0.0000000E+00;  1.0000000E+04;0.0;0.0;0.0;0.0
  2.0000000E+00;  9.9999998E-03; -1.6000000E-01;615;0.0;0.0;0.0;1000.0;  4.0000001E-01;0.0;0;0.0;0.0;0.0;0;0.0;  1.0000000E+04;  0.0000000E+00;  0.0000000E+00;  1.0000000E+04;  0.0000000E+00;  1.0000000E+04;0.0;0.0;0.0;0.0
  2.0000000E+00;  9.9999998E-03; -1.4000000E-01;616;0.0;0.0;0.0;1000.0;  4.0000001E-01;0.0;0;0.0;0.0;0.0;0;0.0;  1.0000000E+04;  0.0000000E+00;  0.0000000E+00;  1.0000000E+04;  0.0000000E+00;  1.0000000E+04;0.0;0.0;0.0;0.0
  2.0000000E+00;  9.9999998E-03; -1.2000000E-01;617;0.0;0.0;0.0;1000.0;  4.0000001E-01;0.0;0;0.0;0.0;0.0;0;0.0;  1.0000000E+04;  0.0000000E+00;  0.0000000E+00;  1.0000000E+04;  0.0000000E+00;  1.0000000E+04;0.0;0.0;0.0;0.0
  2.0000000E+00;  9.9999998E-03; -1.0000000E-01;618;0.0;0.0;0.0;1000.0;  4.0000001E-01;0.0;0;0.0;0.0;0.0;0;0.0;  1.0000000E+04;  0.0000000E+00;  0.0000000E+00;  1.0000000E+04;  0.0000000E+00;  1.0000000E+04;0.0;0.0;0.0;0.0
  2.0000000E+00;  9.9999998E-03; -7.9999998E-02;619;0.0;0.0;0.0;1000.0;  4.0000001E-01;0.0;0;0.0;0.0;0.0;0;0.0;  1.0000000E+04;  0.0000000E+00;  0.0000000E+00;  1.0000000E+04;  0.0000000E+00;  1.0000000E+04;0.0;0.0;0.0;0.0
  2.0000000E+00;  9.9999998E-03; -5.9999999E-02;620;0.0;0.0;0.0;1000.0;  4.0000001E-01;0.0;0;0.0;0.0;0.0;0;0.0;  1.0000000E+04;  0.0000000E+00;  0.0000000E+00;  1.0000000E+04;  0.0000000E+00;  1.0000000E+04;0.0;0.0;0.0;0.0
  2.0000000E+00;  9.9999998E-03; -3.9999999E-02;621;0.0;0.0;0.0;1000.0;  4.0000001E-01;0.0;0;0.0;0.0;0.0;0;0.0;  1.0000000E+04;  0.0000000E+00;  0.0000000E+00;  1.0000000E+04;  0.0000000E+00;  1.0000000E+04;0.0;0.0;0.0;0.0
  2.0000000E+00;  9.9999998E-03; -2.0000000E-02;622;0.0;0.0;0.0;1000.0;  4.0000001E-01;0.0;0;0.0;0.0;0.0;0;0.0;  1.0000000E+04;  0.0000000E+00;  0.0000000E+00;  1.0000000E+04;  0.0000000E+00;  1.0000000E+04;0.0;0.0;0.0;0.0
  2.0000000E+00;  9.9999998E-03;  0.0000000E+00;623;0.0;0.0;0.0;1000.0;  4.0000001E-01;0.0;0;0.0;0.0;0.0;0;0.0;  1.0000000E+04;  0.0000000E+00;  0.0000000E+00;  1.0000000E+04;  0.0000000E+00;  1.0000000E+04;0.0;0.0;0.0;0.0
  2.0000000E+00;  9.9999998E-03;  2.0000000E-02;624;0.0;0.0;0.0;1000.0;  4.0000001E-01;0.0;0;0.0;0.0;0.0;0;0.0;  1.0000000E+04;  0.0000000E+00;  0.0000000E+00;  1.0000000E+04;  0.0000000E+00;  1.0000000E+04;0.0;0.0;0.0;0.0
  2.0000000E+00;  9.9999998E-03;  3.9999999E-02;625;0.0;0.0;0.0;1000.0;  4.0000001E-01;0.0;0;0.0;0.0;0.0;0;0.0;  1.0000000E+04;  0.0000000E+00;  0.0000000E+00;  1.0000000E+04;  0.0000000E+00;  1.0000000E+04;0.0;0.0;0.0;0.0
  2.0000000E+00;  9.9999998E-03;  5.9999999E-02;626;0.0;0.0;0.0;1000.0;  4.0000001E-01;0.0;0;0.0;0.0;0.0;0;0.0;  1.0000000E+04;  0.0000000E+00;  0.0000000E+00;  1.0000000E+04;  0.0000000E+00;  1.0000000E+04;0.0;0.0;0.0;0.0
  2.0000000E+00;  9.9999998E-03;  7.9999998E-02;627;0.0;0.0;0.0;1000.0;  4.0000001E-01;0.0;0;0.0;0.0;0.0;0;0.0;  1.0000000E+04;  0.0000000E+00;  0.0000000E+00;  1.0000000E+04;  0.0000000E+00;  1.0000000E+04;0.0;0.0;0.0;0.0
  2.0200000E+00;  9.9999998E-03; -4.0000001E-01;628;0.0;0.0;0.0;1000.0;  4.0000001E-01;0.0;0;0.0;0.0;0.0;0;0.0;  1.0000000E+04;  0.0000000E+00;  0.0000000E+00;  1.0000000E+04;  0.0000000E+00;  1.0000000E+04;0.0;0.0;0.0;0.0
  2.0200000E+00;  9.9999998E-03; -3.8000000E-01;629;0.0;0.0;0.0;1000.0;  4.0000001E-01;0.0;0;0.0;0.0;0.0;0;0.0;  1.0000000E+04;  0.0000000E+00;  0.0000000E+00;  1.0000000E+04;  0.0000000E+00;  1.0000000E+04;0.0;0.0;0.0;0.0
  2.0200000E+00;  9.9999998E-03; -3.6000001E-01;630;0.0;0.0;0.0;1000.0;  4.0000001E-01;0.0;0;0.0;0.0;0.0;0;0.0;  1.0000000E+04;  0.0000000E+00;  0.0000000E+00;  1.0000000E+04;  0.0000000E+00;  1.0000000E+04;0.0;0.0;0.0;0.0
  2.0200000E+00;  9.9999998E-03; -3.4000000E-01;631;0.0;0.0;0.0;1000.0;  4.0000001E-01;0.0;0;0.0;0.0;0.0;0;0.0;  1.0000000E+04;  0.0000000E+00;  0.0000000E+00;  1.0000000E+04;  0.0000000E+00;  1.0000000E+04;0.0;0.0;0.0;0.0
  2.0200000E+00;  9.9999998E-03; -3.1999999E-01;632;0.0;0.0;0.0;1000.0;  4.0000001E-01;0.0;0;0.0;0.0;0.0;0;0.0;  1.0000000E+04;  0.0000000E+00;  0.0000000E+00;  1.0000000E+04;  0.0000000E+00;  1.0000000E+04;0.0;0.0;0.0;0.0
  2.0200000E+00;  9.9999998E-03; -3.0000001E-01;633;0.0;0.0;0.0;1000.0;  4.0000001E-01;0.0;0;0.0;0.0;0.0;0;0.0;  1.0000000E+04;  0.0000000E+00;  0.0000000E+00;  1.0000000E+04;  0.0000000E+00;  1.0000000E+04;0.0;0.0;0.0;0.0
  2.0200000E+00;  9.9999998E-03; -2.8000000E-01;634;0.0;0.0;0.0;1000.0;  4.0000001E-01;0.0;0;0.0;0.0;0.0;0;0.0;  1.0000000E+04;  0.0000000E+00;  0.0000000E+00;  1.0000000E+04;  0.0000000E+00;  1.0000000E+04;0.0;0.0;0.0;0.0
  2.0200000E+00;  9.9999998E-03; -2.5999999E-01;635;0.0;0.0;0.0;1000.0;  4.0000001E-01;0.0;0;0.0;0.0;0.0;0;0.0;  1.0000000E+04;  0.0000000E+00;  0.0000000E+00;  1.0000000E+04;  0.0000000E+00;  1.0000000E+04;0.0;0.0;0.0;0.0
  2.0200000E+00;  9.9999998E-03; -2.3999999E-01;636;0.0;0.0;0.0;1000.0;  4.0000001E-01;0.0;0;0.0;0.0;0.0;0;0.0;  1.0000000E+04;  0.0000000E+00;  0.0000000E+00;  1.0000000E+04;  0.0000000E+00;  1.0000000E+04;0.0;0.0;0.0;0.0
  2.0200000E+00;  9.9999998E-03; -2.2000000E-01;637;0.0;0.0;0.0;1000.0;  4.0000001E-01;0.0;0;0.0;0.0;0.0;0;0.0;  1.0000000E+04;  0.0000000E+00;  0.0000000E+00;  1.0000000E+04;  0.0000000E+00;  1.0000000E+04;0.0;0.0;0.0;0.0
  2.0200000E+00;  9.9999998E-03; -2.0000000E-01;638;0.0;0.0;0.0;1000.0;  4.0000001E-01;0.0;0;0.0;0.0;0.0;0;0.0;  1.0000000E+04;  0.0000000E+00;  0.0000000E+00;  1.0000000E+04;  0.0000000E+00;  1.0000000E+04;0.0;0.0;0.0;0.0
  2.0200000E+00;  9.9999998E-03; -1.8000001E-01;639;0.0;0.0;0.0;1000.0;  4.0000001E-01;0.0;0;0.0;0.0;0.0;0;0.0;  1.0000000E+04;  0.0000000E+00;  0.0000000E+00;  1.0000000E+04;  0.0000000E+00;  1.0000000E+04;0.0;0.0;0.0;0.0
  2.0200000E+00;  9.9999998E-03; -1.6000000E-01;640;0.0;0.0;0.0;1000.0;  4.0000001E-01;0.0;0;0.0;0.0;0.0;0;0.0;  1.0000000E+04;  0.0000000E+00;  0.0000000E+00;  1.0000000E+04;  0.0000000E+00;  1.0000000E+04;0.0;0.0;0.0;0.0
  2.0200000E+00;  9.9999998E-03; -1.4000000E-01;641;0.0;0.0;0.0;1000.0;  4.0000001E-01;0.0;0;0.0;0.0;0.0;0;0.0;  1.0000000E+04;  0.0000000E+00;  0.0000000E+00;  1.0000000E+04;  0.0000000E+00;  1.0000000E+04;0.0;0.0;0.0;0.0
  2.0200000E+00;  9.9999998E-03; -1.2000000E-01;642;0.0;0.0;0.0;1000.0;  4.0000001E-01;0.0;0;0.0;0.0;0.0;0;0.0;  1.0000000E+04;  0.0000000E+00;  0.0000000E+00;  1.0000000E+04;  0.0000000E+00;  1.0000000E+04;0.0;0.0;0.0;0.0
  2.0200000E+00;  9.9999998E-03; -1.0000000E-01;643;0.0;0.0;0.0;1000.0;  4.0000001E-01;0.0;0;0.0;0.0;0.0;0;0.0;  1.0000000E+04;  0.0000000E+00;  0.0000000E+00;  1.0000000E+04;  0.0000000E+00;  1.0000000E+04;0.0;0.0;0.0;0.0
  2.0200000E+00;  9.9999998E-03; -7.9999998E-02;644;0.0;0.0;0.0;1000.0;  4.0000001E-01;0.0;0;0.0;0.0;0.0;0;0.0;  1.0000000E+04;  0.0000000E+00;  0.0000000E+00;  1.0000000E+04;  0.0000000E+00;  1.0000000E+04;0.0;0.0;0.0;0.0
  2.0200000E+00;  9.9999998E-03; -5.9999999E-02;645;0.0;0.0;0.0;1000.0;  4.0000001E-01;0.0;0;0.0;0.0;0.0;0;0.0;  1.0000000E+04;  0.0000000E+00;  0.0000000E+00;  1.0000000E+04;  0.0000000E+00;  1.0000000E+04;0.0;0.0;0.0;0.0
  2.0200000E+00;  9.9999998E-03; -3.9999999E-02;646;0.0;0.0;0.0;1000.0;  4.0000001E-01;0.0;0;0.0;0.0;0.0;0;0.0;  1.0000000E+04;  0.0000000E+00;  0.0000000E+00;  1.0000000E+04;  0.0000000E+00;  1.0000000E+04;0.0;0.0;0.0;0.0
  2.0200000E+00;  9.9999998E-03; -2.0000000E-02;647;0.0;0.0;0.0;1000.0;  4.0000001E-01;0.0;0;0.0;0.0;0.0;0;0.0;  1.0000000E+04;  0.0000000E+00;  0.0000000E+00;  1.0000000E+04;  0.0000000E+00;  1.0000000E+04;0.0;0.0;0.0;0.0
  2.0200000E+00;  9.9999998E-03;  0.0000000E+00;648;0.0;0.0;0.0;1000.0;  4.0000001E-01;0.0;0;0.0;0.0;0.0;0;0.0;  1.0000000E+04;  0.0000000E+00;  0.0000000E+00;  1.0000000E+04;  0.0000000E+00;  1.0000000E+04;0.0;0.0;0.0;0.0
  2.0200000E+00;  9.9999998E-03;  2.0000000E-02;649;0.0;0.0;0.0;1000.0;  4.0000001E-01;0.0;0;0.0;0.0;0.0;0;0.0;  1.0000000E+04;  0.0000000E+00;  0.0000000E+00;  1.0000000E+04;  0.0000000E+00;  1.0000000E+04;0.0;0.0;0.0;0.0
  2.0200000E+00;  9.9999998E-03;  3.9999999E-02;650;0.0;0.0;0.0;1000.0;  4.0000001E-01;0.0;0;0.0;0.0;0.0;0;0.0;  1.0000000E+04;  0.0000000E+00;  0.0000000E+00;  1.0000000E+04;  0.0000000E+00;  1.0000000E+04;0.0;0.0;0.0;0.0
  2.0200000E+00;  9.9999998E-03;  5.9999999E-02;651;0.0;0.0;0.0;1000.0;  4.0000001E-01;0.0;0;0.0;0.0;0.0;0;0.0;  1.0000000E+04;  0.0000000E+00;  0.0000000E+00;  1.0000000E+04;  0.0000000E+00;  1.0000000E+04;0.0;0.0;0.0;0.0
  2.0200000E+00;  9.9999998E-03;  7.9999998E-02;652;0.0;0.0;0.0;1000.0;  4.0000001E-01;0.0;0;0.0;0.0;0.0;0;0.0;  1.0000000E+04;  0.0000000E+00;  0.0000000E+00;  1.0000000E+04;  0.0000000E+00;  1.0000000E+04;0.0;0.0;0.0;0.0
  2.0200000E+00;  9.9999998E-03;  1.0000000E-01;653;0.0;0.0;0.0;1000.0;  4.0000001E-01;0.0;0;0.0;0.0;0.0;0;0.0;  1.0000000E+04;  0.0000000E+00;  0.0000000E+00;  1.0000000E+04;  0.0000000E+00;  1.0000000E+04;0.0;0.0;0.0;0.0
  2.0200000E+00;  9.9999998E-03;  1.2000000E-01;654;0.0;0.0;0.0;1000.0;  4.0000001E-01;0.0;0;0.0;0.0;0.0;0;0.0;  1.0000000E+04;  0.0000000E+00;  0.0000000E+00;  1.0000000E+04;  0.0000000E+00;  1.0000000E+04;0.0;0.0;0.0;0.0
  2.0200000E+00;  9.9999998E-03;  1.4000000E-01;655;0.0;0.0;0.0;1000.0;  4.0000001E-01;0.0;0;0.0;0.0;0.0;0;0.0;  1.0000000E+04;  0.0000000E+00;  0.0000000E+00;  1.0000000E+04;  0.0000000E+00;  1.0000000E+04;0.0;0.0;0.0;0.0
  2.0200000E+00;  9.9999998E-03;  1.6000000E-01;656;0.0;0.0;0.0;1000.0;  4.0000001E-01;0.0;0;0.0;0.0;0.0;0;0.0;  1.0000000E+04;  0.0000000E+00;  0.0000000E+00;  1.0000000E+04;  0.0000000E+00;  1.0000000E+04;0.0;0.0;0.0;0.0
  2.0200000E+00;  9.9999998E-03;  1.8000001E-01;657;0.0;0.0;0.0;1000.0;  4.0000001E-01;0.0;0;0.0;0.0;0.0;0;0.0;  1.0000000E+04;  0.0000000E+00;  0.0000000E+00;  1.0000000E+04;  0.0000000E+00;  1.0000000E+04;0.0;0.0;0.0;0.0
  2.0400000E+00;  9.9999998E-03; -4.0000001E-01;658;0.0;0.0;0.0;1000.0;  4.0000001E-01;0.0;0;0.0;0.0;0.0;0;0.0;  1.0000000E+04;  0.0000000E+00;  0.0000000E+00;  1.0000000E+04;  0.0000000E+00;  1.0000000E+04;0.0;0.0;0.0;0.0
  2.0400000E+00;  9.9999998E-03; -3.8000000E-01;659;0.0;0.0;0.0;1000.0;  4.0000001E-01;0.0;0;0.0;0.0;0.0;0;0.0;  1.0000000E+04;  0.0000000E+00;  0.0000000E+00;  1.0000000E+04;  0.0000000E+00;  1.0000000E+04;0.0;0.0;0.0;0.0
  2.0400000E+00;  9.9999998E-03; -3.6000001E-01;660;0.0;0.0;0.0;1000.0;  4.0000001E-01;0.0;0;0.0;0.0;0.0;0;0.0;  1.0000000E+04;  0.0000000E+00;  0.0000000E+00;  1.0000000E+04;  0.0000000E+00;  1.0000000E+04;0.0;0.0;0.0;0.0
  2.0400000E+00;  9.9999998E-03; -3.4000000E-01;661;0.0;0.0;0.0;1000.0;  4.0000001E-01;0.0;0;0.0;0.0;0.0;0;0.0;  1.0000000E+04;  0.0000000E+00;  0.0000000E+00;  1.0000000E+04;  0.0000000E+00;  1.0000000E+04;0.0;0.0;0.0;0.0
  2.0400000E+00;  9.9999998E-03; -3.1999999E-01;662;0.0;0.0;0.0;1000.0;  4.0000001E-01;0.0;0;0.0;0.0;0.0;0;0.0;  1.0000000E+04;  0.0000000E+00;  0.0000000E+00;  1.0000000E+04;  0.0000000E+00;  1.0000000E+04;0.0;0.0;0.0;0.0
  2.0400000E+00;  9.9999998E-03; -3.0000001E-01;663;0.0;0.0;0.0;1000.0;  4.0000001E-01;0.0;0;0.0;0.0;0.0;0;0.0;  1.0000000E+04;  0.0000000E+00;  0.0000000E+00;  1.0000000E+04;  0.0000000E+00;  1.0000000E+04;0.0;0.0;0.0;0.0
  2.0400000E+00;  9.9999998E-03; -2.8000000E-01;664;0.0;0.0;0.0;1000.0;  4.0000001E-01;0.0;0;0.0;0.0;0.0;0;0.0;  1.0000000E+04;  0.0000000E+00;  0.0000000E+00;  1.0000000E+04;  0.0000000E+00;  1.0000000E+04;0.0;0.0;0.0;0.0
  2.0400000E+00;  9.9999998E-03; -2.5999999E-01;665;0.0;0.0;0.0;1000.0;  4.0000001E-01;0.0;0;0.0;0.0;0.0;0;0.0;  1.0000000E+04;  0.0000000E+00;  0.0000000E+00;  1.0000000E+04;  0.0000000E+00;  1.0000000E+04;0.0;0.0;0.0;0.0
  2.0400000E+00;  9.9999998E-03; -2.3999999E-01;666;0.0;0.0;0.0;1000.0;  4.0000001E-01;0.0;0;0.0;0.0;0.0;0;0.0;  1.0000000E+04;  0.0000000E+00;  0.0000000E+00;  1.0000000E+04;  0.0000000E+00;  1.0000000E+04;0.0;0.0;0.0;0.0
  2.0400000E+00;  9.9999998E-03; -2.2000000E-01;667;0.0;0.0;0.0;1000.0;  4.0000001E-01;0.0;0;0.0;0.0;0.0;0;0.0;  1.0000000E+04;  0.0000000E+00;  0.0000000E+00;  1.0000000E+04;  0.0000000E+00;  1.0000000E+04;0.0;0.0;0.0;0.0
  2.0400000E+00;  9.9999998E-03; -2.0000000E-01;668;0.0;0.0;0.0;1000.0;  4.0000001E-01;0.0;0;0.0;0.0;0.0;0;0.0;  1.0000000E+04;  0.0000000E+00;  0.0000000E+00;  1.0000000E+04;  0.0000000E+00;  1.0000000E+04;0.0;0.0;0.0;0.0
  2.0400000E+00;  9.9999998E-03; -1.8000001E-01;669;0.0;0.0;0.0;1000.0;  4.0000001E-01;0.0;0;0.0;0.0;0.0;0;0.0;  1.0000000E+04;  0.0000000E+00;  0.0000000E+00;  1.0000000E+04;  0.0000000E+00;  1.0000000E+04;0.0;0.0;0.0;0.0
  2.0400000E+00;  9.9999998E-03; -1.6000000E-01;670;0.0;0.0;0.0;1000.0;  4.0000001E-01;0.0;0;0.0;0.0;0.0;0;0.0;  1.0000000E+04;  0.0000000E+00;  0.0000000E+00;  1.0000000E+04;  0.0000000E+00;  1.0000000E+04;0.0;0.0;0.0;0.0
  2.0400000E+00;  9.9999998E-03; -1.4000000E-01;671;0.0;0.0;0.0;1000.0;  4.0000001E-01;0.0;0;0.0;0.0;0.0;0;0.0;  1.0000000E+04;  0.0000000E+00;  0.0000000E+00;  1.0000000E+04;  0.0000000E+00;  1.0000000E+04;0.0;0.0;0.0;0.0
  2.0400000E+00;  9.9999998E-03; -1.2000000E-01;672;0.0;0.0;0.0;1000.0;  4.0000001E-01;0.0;0;0.0;0.0;0.0;0;0.0;  1.0000000E+04;  0.0000000E+00;  0.0000000E+00;  1.0000000E+04;  0.0000000E+00;  1.0000000E+04;0.0;0.0;0.0;0.0
  2.0400000E+00;  9.9999998E-03; -1.0000000E-01;673;0.0;0.0;0.0;1000.0;  4.0000001E-01;0.0;0;0.0;0.0;0.0;0;0.0;  1.0000000E+04;  0.0000000E+00;  0.0000000E+00;  1.0000000E+04;  0.0000000E+00;  1.0000000E+04;0.0;0.0;0.0;0.0
  2.0400000E+00;  9.9999998E-03; -7.9999998E-02;674;0.0;0.0;0.0;1000.0;  4.0000001E-01;0.0;0;0.0;0.0;0.0;0;0.0;  1.0000000E+04;  0.0000000E+00;  0.0000000E+00;  1.0000000E+04;  0.0000000E+00;  1.0000000E+04;0.0;0.0;0.0;0.0
  2.0400000E+00;  9.9999998E-03; -5.9999999E-02;675;0.0;0.0;0.0;1000.0;  4.0000001E-01;0.0;0;0.0;0.0;0.0;0;0.0;  1.0000000E+04;  0.0000000E+00;  0.0000000E+00;  1.0000000E+04;  0.0000000E+00;  1.0000000E+04;0.0;0.0;0.0;0.0
  2.0400000E+00;  9.9999998E-03; -3.9999999E-02;676;0.0;0.0;0.0;1000.0;  4.0000001E-01;0.0;0;0.0;0.0;0.0;0;0.0;  1.0000000E+04;  0.0000000E+00;  0.0000000E+00;  1.0000000E+04;  0.0000000E+00;  1.0000000E+04;0.0;0.0;0.0;0.0
  2.0400000E+00;  9.9999998E-03; -2.0000000E-02;677;0.0;0.0;0.0;1000.0;  4.0000001E-01;0.0;0;0.0;0.0;0.0;0;0.0;  1.0000000E+04;  0.0000000E+00;  0.0000000E+00;  1.0000000E+04;  0.0000000E+00;  1.0000000E+04;0.0;0.0;0.0;0.0
  2.0400000E+00;  9.9999998E-03;  0.0000000E+00;678;0.0;0.0;0.0;1000.0;  4.0000001E-01;0.0;0;0.0;0.0;0.0;0;0.0;  1.0000000E+04;  0.0000000E+00;  0.0000000E+00;  1.0000000E+04;  0.0000000E+00;  1.0000000E+04;0.0;0.0;0.0;0.0
  2.0400000E+00;  9.9999998E-03;  2.0000000E-02;679;0.0;0.0;0.0;1000.0;  4.0000001E-01;0.0;0;0.0;0.0;0.0;0;0.0;  1.0000000E+04;  0.0000000E+00;  0.0000000E+00;  1.0000000E+04;  0.0000000E+00;  1.0000000E+04;0.0;0.0;0.0;0.0
  2.0400000E+00;  9.9999998E-03;  3.9999999E-02;680;0.0;0.0;0.0;1000.0;  4.0000001E-01;0.0;0;0.0;0.0;0.0;0;0.0;  1.0000000E+04;  0.0000000E+00;  0.0000000E+00;  1.0000000E+04;  0.0000000E+00;  1.0000000E+04;0.0;0.0;0.0;0.0
  2.0400000E+00;  9.9999998E-03;  5.9999999E-02;681;0.0;0.0;0.0;1000.0;  4.0000001E-01;0.0;0;0.0;0.0;0.0;0;0.0;  1.0000000E+04;  0.0000000E+00;  0.0000000E+00;  1.0000000E+04;  0.0000000E+00;  1.0000000E+04;0.0;0.0;0.0;0.0
  2.0400000E+00;  9.9999998E-03;  7.9999998E-02;682;0.0;0.0;0.0;1000.0;  4.0000001E-01;0.0;0;0.0;0.0;0.0;0;0.0;  1.0000000E+04;  0.0000000E+00;  0.0000000E+00;  1.0000000E+04;  0.0000000E+00;  1.0000000E+04;0.0;0.0;0.0;0.0
  2.0400000E+00;  9.9999998E-03;  1.0000000E-01;683;0.0;0.0;0.0;1000.0;  4.0000001E-01;0.0;0;0.0;0.0;0.0;0;0.0;  1.0000000E+04;  0.0000000E+00;  0.0000000E+00;  1.0000000E+04;  0.0000000E+00;  1.0000000E+04;0.0;0.0;0.0;0.0
  2.0400000E+00;  9.9999998E-03;  1.2000000E-01;684;0.0;0.0;0.0;1000.0;  4.0000001E-01;0.0;0;0.0;0.0;0.0;0;0.0;  1.0000000E+04;  0.0000000E+00;  0.0000000E+00;  1.0000000E+04;  0.0000000E+00;  1.0000000E+04;0.0;0.0;0.0;0.0
  2.0400000E+00;  9.9999998E-03;  1.4000000E-01;685;0.0;0.0;0.0;1000.0;  4.0000001E-01;0.0;0;0.0;0.0;0.0;0;0.0;  1.0000000E+04;  0.0000000E+00;  0.0000000E+00;  1.0000000E+04;  0.0000000E+00;  1.0000000E+04;0.0;0.0;0.0;0.0
  2.0400000E+00;  9.9999998E-03;  1.6000000E-01;686;0.0;0.0;0.0;1000.0;  4.0000001E-01;0.0;0;0.0;0.0;0.0;0;0.0;  1.0000000E+04;  0.0000000E+00;  0.0000000E+00;  1.0000000E+04;  0.0000000E+00;  1.0000000E+04;0.0;0.0;0.0;0.0
  2.0400000E+00;  9.9999998E-03;  1.8000001E-01;687;0.0;0.0;0.0;1000.0;  4.0000001E-01;0.0;0;0.0;0.0;0.0;0;0.0;  1.0000000E+04;  0.0000000E+00;  0.0000000E+00;  1.0000000E+04;  0.0000000E+00;  1.0000000E+04;0.0;0.0;0.0;0.0
  2.0400000E+00;  9.9999998E-03;  2.0000000E-01;688;0.0;0.0;0.0;1000.0;  4.0000001E-01;0.0;0;0.0;0.0;0.0;0;0.0;  1.0000000E+04;  0.0000000E+00;  0.0000000E+00;  1.0000000E+04;  0.0000000E+00;  1.0000000E+04;0.0;0.0;0.0;0.0
  2.0400000E+00;  9.9999998E-03;  2.2000000E-01;689;0.0;0.0;0.0;1000.0;  4.0000001E-01;0.0;0;0.0;0.0;0.0;0;0.0;  1.0000000E+04;  0.0000000E+00;  0.0000000E+00;  1.0000000E+04;  0.0000000E+00;  1.0000000E+04;0.0;0.0;0.0;0.0
  2.0400000E+00;  9.9999998E-03;  2.3999999E-01;690;0.0;0.0;0.0;1000.0;  4.0000001E-01;0.0;0;0.0;0.0;0.0;0;0.0;  1.0000000E+04;  0.0000000E+00;  0.0000000E+00;  1.0000000E+04;  0.0000000E+00;  1.0000000E+04;0.0;0.0;0.0;0.0
  2.0400000E+00;  9.9999998E-03;  2.5999999E-01;691;0.0;0.0;0.0;1000.0;  4.0000001E-01;0.0;0;0.0;0.0;0.0;0;0.0;  1.0000000E+04;  0.0000000E+00;  0.0000000E+00;  1.0000000E+04;  0.0000000E+00;  1.0000000E+04;0.0;0.0;0.0;0.0
  2.0400000E+00;  9.9999998E-03;  2.8000000E-01;692;0.0;0.0;0.0;1000.0;  4.0000001E-01;0.0;0;0.0;0.0;0.0;0;0.0;  1.0000000E+04;  0.0000000E+00;  0.0000000E+00;  1.0000000E+04;  0.0000000E+00;  1.0000000E+04;0.0;0.0;0.0;0.0
  2.0599999E+00;  9.9999998E-03; -4.0000001E-01;693;0.0;0.0;0.0;1000.0;  4.0000001E-01;0.0;0;0.0;0.0;0.0;0;0.0;  1.0000000E+04;  0.0000000E+00;  0.0000000E+00;  1.0000000E+04;  0.0000000E+00;  1.0000000E+04;0.0;0.0;0.0;0.0
  2.0599999E+00;  9.9999998E-03; -3.8000000E-01;694;0.0;0.0;0.0;1000.0;  4.0000001E-01;0.0;0;0.0;0.0;0.0;0;0.0;  1.0000000E+04;  0.0000000E+00;  0.0000000E+00;  1.0000000E+04;  0.0000000E+00;  1.0000000E+04;0.0;0.0;0.0;0.0
  2.0599999E+00;  9.9999998E-03; -3.6000001E-01;695;0.0;0.0;0.0;1000.0;  4.0000001E-01;0.0;0;0.0;0.0;0.0;0;0.0;  1.0000000E+04;  0.0000000E+00;  0.0000000E+00;  1.0000000E+04;  0.0000000E+00;  1.0000000E+04;0.0;0.0;0.0;0.0
  2.0599999E+00;  9.9999998E-03; -3.4000000E-01;696;0.0;0.0;0.0;1000.0;  4.0000001E-01;0.0;0;0.0;0.0;0.0;0;0.0;  1.0000000E+04;  0.0000000E+00;  0.0000000E+00;  1.0000000E+04;  0.0000000E+00;  1.0000000E+04;0.0;0.0;0.0;0.0
  2.0599999E+00;  9.9999998E-03; -3.1999999E-01;697;0.0;0.0;0.0;1000.0;  4.0000001E-01;0.0;0;0.0;0.0;0.0;0;0.0;  1.0000000E+04;  0.0000000E+00;  0.0000000E+00;  1.0000000E+04;  0.0000000E+00;  1.0000000E+04;0.0;0.0;0.0;0.0
  2.0599999E+00;  9.9999998E-03; -3.0000001E-01;698;0.0;0.0;0.0;1000.0;  4.0000001E-01;0.0;0;0.0;0.0;0.0;0;0.0;  1.0000000E+04;  0.0000000E+00;  0.0000000E+00;  1.0000000E+04;  0.0000000E+00;  1.0000000E+04;0.0;0.0;0.0;0.0
  2.0599999E+00;  9.9999998E-03; -2.8000000E-01;699;0.0;0.0;0.0;1000.0;  4.0000001E-01;0.0;0;0.0;0.0;0.0;0;0.0;  1.0000000E+04;  0.0000000E+00;  0.0000000E+00;  1.0000000E+04;  0.0000000E+00;  1.0000000E+04;0.0;0.0;0.0;0.0
  2.0599999E+00;  9.9999998E-03; -2.5999999E-01;700;0.0;0.0;0.0;1000.0;  4.0000001E-01;0.0;0;0.0;0.0;0.0;0;0.0;  1.0000000E+04;  0.0000000E+00;  0.0000000E+00;  1.0000000E+04;  0.0000000E+00;  1.0000000E+04;0.0;0.0;0.0;0.0
  2.0599999E+00;  9.9999998E-03; -2.3999999E-01;701;0.0;0.0;0.0;1000.0;  4.0000001E-01;0.0;0;0.0;0.0;0.0;0;0.0;  1.0000000E+04;  0.0000000E+00;  0.0000000E+00;  1.0000000E+04;  0.0000000E+00;  1.0000000E+04;0.0;0.0;0.0;0.0
  2.0599999E+00;  9.9999998E-03; -2.2000000E-01;702;0.0;0.0;0.0;1000.0;  4.0000001E-01;0.0;0;0.0;0.0;0.0;0;0.0;  1.0000000E+04;  0.0000000E+00;  0.0000000E+00;  1.0000000E+04;  0.0000000E+00;  1.0000000E+04;0.0;0.0;0.0;0.0
  2.0599999E+00;  9.9999998E-03; -2.0000000E-01;703;0.0;0.0;0.0;1000.0;  4.0000001E-01;0.0;0;0.0;0.0;0.0;0;0.0;  1.0000000E+04;  0.0000000E+00;  0.0000000E+00;  1.0000000E+04;  0.0000000E+00;  1.0000000E+04;0.0;0.0;0.0;0.0
  2.0599999E+00;  9.9999998E-03; -1.8000001E-01;704;0.0;0.0;0.0;1000.0;  4.0000001E-01;0.0;0;0.0;0.0;0.0;0;0.0;  1.0000000E+04;  0.0000000E+00;  0.0000000E+00;  1.0000000E+04;  0.0000000E+00;  1.0000000E+04;0.0;0.0;0.0;0.0
  2.0599999E+00;  9.9999998E-03; -1.6000000E-01;705;0.0;0.0;0.0;1000.0;  4.0000001E-01;0.0;0;0.0;0.0;0.0;0;0.0;  1.0000000E+04;  0.0000000E+00;  0.0000000E+00;  1.0000000E+04;  0.0000000E+00;  1.0000000E+04;0.0;0.0;0.0;0.0
  2.0599999E+00;  9.9999998E-03; -1.4000000E-01;706;0.0;0.0;0.0;1000.0;  4.0000001E-01;0.0;0;0.0;0.0;0.0;0;0.0;  1.0000000E+04;  0.0000000E+00;  0.0000000E+00;  1.0000000E+04;  0.0000000E+00;  1.0000000E+04;0.0;0.0;0.0;0.0
  2.0599999E+00;  9.9999998E-03; -1.2000000E-01;707;0.0;0.0;0.0;1000.0;  4.0000001E-01;0.0;0;0.0;0.0;0.0;0;0.0;  1.0000000E+04;  0.0000000E+00;  0.0000000E+00;  1.0000000E+04;  0.0000000E+00;  1.0000000E+04;0.0;0.0;0.0;0.0
  2.0599999E+00;  9.9999998E-03; -1.0000000E-01;708;0.0;0.0;0.0;1000.0;  4.0000001E-01;0.0;0;0.0;0.0;0.0;0;0.0;  1.0000000E+04;  0.0000000E+00;  0.0000000E+00;  1.0000000E+04;  0.0000000E+00;  1.0000000E+04;0.0;0.0;0.0;0.0
  2.0599999E+00;  9.9999998E-03; -7.9999998E-02;709;0.0;0.0;0.0;1000.0;  4.0000001E-01;0.0;0;0.0;0.0;0.0;0;0.0;  1.0000000E+04;  0.0000000E+00;  0.0000000E+00;  1.0000000E+04;  0.0000000E+00;  1.0000000E+04;0.0;0.0;0.0;0.0
  2.0599999E+00;  9.9999998E-03; -5.9999999E-02;710;0.0;0.0;0.0;1000.0;  4.0000001E-01;0.0;0;0.0;0.0;0.0;0;0.0;  1.0000000E+04;  0.0000000E+00;  0.0000000E+00;  1.0000000E+04;  0.0000000E+00;  1.0000000E+04;0.0;0.0;0.0;0.0
  2.0599999E+00;  9.9999998E-03; -3.9999999E-02;711;0.0;0.0;0.0;1000.0;  4.0000001E-01;0.0;0;0.0;0.0;0.0;0;0.0;  1.0000000E+04;  0.0000000E+00;  0.0000000E+00;  1.0000000E+04;  0.0000000E+00;  1.0000000E+04;0.0;0.0;0.0;0.0
  2.0599999E+00;  9.9999998E-03; -2.0000000E-02;712;0.0;0.0;0.0;1000.0;  4.0000001E-01;0.0;0;0.0;0.0;0.0;0;0.0;  1.0000000E+04;  0.0000000E+00;  0.0000000E+00;  1.0000000E+04;  0.0000000E+00;  1.0000000E+04;0.0;0.0;0.0;0.0
  2.0599999E+00;  9.9999998E-03;  0.0000000E+00;713;0.0;0.0;0.0;1000.0;  4.0000001E-01;0.0;0;0.0;0.0;0.0;0;0.0;  1.0000000E+04;  0.0000000E+00;  0.0000000E+00;  1.0000000E+04;  0.0000000E+00;  1.0000000E+04;0.0;0.0;0.0;0.0
  2.0599999E+00;  9.9999998E-03;  2.0000000E-02;714;0.0;0.0;0.0;1000.0;  4.0000001E-01;0.0;0;0.0;0.0;0.0;0;0.0;  1.0000000E+04;  0.0000000E+00;  0.0000000E+00;  1.0000000E+04;  0.0000000E+00;  1.0000000E+04;0.0;0.0;0.0;0.0
  2.0599999E+00;  9.9999998E-03;  3.9999999E-02;715;0.0;0.0;0.0;1000.0;  4.0000001E-01;0.0;0;0.0;0.0;0.0;0;0.0;  1.0000000E+04;  0.0000000E+00;  0.0000000E+00;  1.0000000E+04;  0.0000000E+00;  1.0000000E+04;0.0;0.0;0.0;0.0
  2.0599999E+00;  9.9999998E-03;  5.9999999E-02;716;0.0;0.0;0.0;1000.0;  4.0000001E-01;0.0;0;0.0;0.0;0.0;0;0.0;  1.0000000E+04;  0.0000000E+00;  0.0000000E+00;  1.0000000E+04;  0.0000000E+00;  1.0000000E+04;0.0;0.0;0.0;0.0
  2.0599999E+00;  9.9999998E-03;  7.9999998E-02;717;0.0;0.0;0.0;1000.0;  4.0000001E-01;0.0;0;0.0;0.0;0.0;0;0.0;  1.0000000E+04;  0.0000000E+00;  0.0000000E+00;  1.0000000E+04;  0.0000000E+00;  1.0000000E+04;0.0;0.0;0.0;0.0
  2.0599999E+00;  9.9999998E-03;  1.0000000E-01;718;0.0;0.0;0.0;1000.0;  4.0000001E-01;0.0;0;0.0;0.0;0.0;0;0.0;  1.0000000E+04;  0.0000000E+00;  0.0000000E+00;  1.0000000E+04;  0.0000000E+00;  1.0000000E+04;0.0;0.0;0.0;0.0
  2.0599999E+00;  9.9999998E-03;  1.2000000E-01;719;0.0;0.0;0.0;1000.0;  4.0000001E-01;0.0;0;0.0;0.0;0.0;0;0.0;  1.0000000E+04;  0.0000000E+00;  0.0000000E+00;  1.0000000E+04;  0.0000000E+00;  1.0000000E+04;0.0;0.0;0.0;0.0
  2.0599999E+00;  9.9999998E-03;  1.4000000E-01;720;0.0;0.0;0.0;1000.0;  4.0000001E-01;0.0;0;0.0;0.0;0.0;0;0.0;  1.0000000E+04;  0.0000000E+00;  0.0000000E+00;  1.0000000E+04;  0.0000000E+00;  1.0000000E+04;0.0;0.0;0.0;0.0
  2.0599999E+00;  9.9999998E-03;  1.6000000E-01;721;0.0;0.0;0.0;1000.0;  4.0000001E-01;0.0;0;0.0;0.0;0.0;0;0.0;  1.0000000E+04;  0.0000000E+00;  0.0000000E+00;  1.0000000E+04;  0.0000000E+00;  1.0000000E+04;0.0;0.0;0.0;0.0
  2.0599999E+00;  9.9999998E-03;  1.8000001E-01;722;0.0;0.0;0.0;1000.0;  4.0000001E-01;0.0;0;0.0;0.0;0.0;0;0.0;  1.0000000E+04;  0.0000000E+00;  0.0000000E+00;  1.0000000E+04;  0.0000000E+00;  1.0000000E+04;0.0;0.0;0.0;0.0
  2.0599999E+00;  9.9999998E-03;  2.0000000E-01;723;0.0;0.0;0.0;1000.0;  4.0000001E-01;0.0;0;0.0;0.0;0.0;0;0.0;  1.0000000E+04;  0.0000000E+00;  0.0000000E+00;  1.0000000E+04;  0.0000000E+00;  1.0000000E+04;0.0;0.0;0.0;0.0
  2.0599999E+00;  9.9999998E-03;  2.2000000E-01;724;0.0;0.0;0.0;1000.0;  4.0000001E-01;0.0;0;0.0;0.0;0.0;0;0.0;  1.0000000E+04;  0.0000000E+00;  0.0000000E+00;  1.0000000E+04;  0.0000000E+00;  1.0000000E+04;0.0;0.0;0.0;0.0
  2.0599999E+00;  9.9999998E-03;  2.3999999E-01;725;0.0;0.0;0.0;1000.0;  4.0000001E-01;0.0;0;0.0;0.0;0.0;0;0.0;  1.0000000E+04;  0.0000000E+00;  0.0000000E+00;  1.0000000E+04;  0.0000000E+00;  1.0000000E+04;0.0;0.0;0.0;0.0
  2.0599999E+00;  9.9999998E-03;  2.5999999E-01;726;0.0;0.0;0.0;1000.0;  4.0000001E-01;0.0;0;0.0;0.0;0.0;0;0.0;  1.0000000E+04;  0.0000000E+00;  0.0000000E+00;  1.0000000E+04;  0.0000000E+00;  1.0000000E+04;0.0;0.0;0.0;0.0
  2.0599999E+00;  9.9999998E-03;  2.8000000E-01;727;0.0;0.0;0.0;1000.0;  4.0000001E-01;0.0;0;0.0;0.0;0.0;0;0.0;  1.0000000E+04;  0.0000000E+00;  0.0000000E+00;  1.0000000E+04;  0.0000000E+00;  1.0000000E+04;0.0;0.0;0.0;0.0
  2.0599999E+00;  9.9999998E-03;  3.0000001E-01;728;0.0;0.0;0.0;1000.0;  4.0000001E-01;0.0;0;0.0;0.0;0.0;0;0.0;  1.0000000E+04;  0.0000000E+00;  0.0000000E+00;  1.0000000E+04;  0.0000000E+00;  1.0000000E+04;0.0;0.0;0.0;0.0
  2.0599999E+00;  9.9999998E-03;  3.1999999E-01;729;0.0;0.0;0.0;1000.0;  4.0000001E-01;0.0;0;0.0;0.0;0.0;0;0.0;  1.0000000E+04;  0.0000000E+00;  0.0000000E+00;  1.0000000E+04;  0.0000000E+00;  1.0000000E+04;0.0;0.0;0.0;0.0
  2.0599999E+00;  9.9999998E-03;  3.4000000E-01;730;0.0;0.0;0.0;1000.0;  4.0000001E-01;0.0;0;0.0;0.0;0.0;0;0.0;  1.0000000E+04;  0.0000000E+00;  0.0000000E+00;  1.0000000E+04;  0.0000000E+00;  1.0000000E+04;0.0;0.0;0.0;0.0
  2.0599999E+00;  9.9999998E-03;  3.6000001E-01;731;0.0;0.0;0.0;1000.0;  4.0000001E-01;0.0;0;0.0;0.0;0.0;0;0.0;  1.0000000E+04;  0.0000000E+00;  0.0000000E+00;  1.0000000E+04;  0.0000000E+00;  1.0000000E+04;0.0;0.0;0.0;0.0
  2.0599999E+00;  9.9999998E-03;  3.8000000E-01;732;0.0;0.0;0.0;1000.0;  4.0000001E-01;0.0;0;0.0;0.0;0.0;0;0.0;  1.0000000E+04;  0.0000000E+00;  0.0000000E+00;  1.0000000E+04;  0.0000000E+00;  1.0000000E+04;0.0;0.0;0.0;0.0
  2.0799999E+00;  9.9999998E-03; -4.0000001E-01;733;0.0;0.0;0.0;1000.0;  4.0000001E-01;0.0;0;0.0;0.0;0.0;0;0.0;  1.0000000E+04;  0.0000000E+00;  0.0000000E+00;  1.0000000E+04;  0.0000000E+00;  1.0000000E+04;0.0;0.0;0.0;0.0
  2.0799999E+00;  9.9999998E-03; -3.8000000E-01;734;0.0;0.0;0.0;1000.0;  4.0000001E-01;0.0;0;0.0;0.0;0.0;0;0.0;  1.0000000E+04;  0.0000000E+00;  0.0000000E+00;  1.0000000E+04;  0.0000000E+00;  1.0000000E+04;0.0;0.0;0.0;0.0
  2.0799999E+00;  9.9999998E-03; -3.6000001E-01;735;0.0;0.0;0.0;1000.0;  4.0000001E-01;0.0;0;0.0;0.0;0.0;0;0.0;  1.0000000E+04;  0.0000000E+00;  0.0000000E+00;  1.0000000E+04;  0.0000000E+00;  1.0000000E+04;0.0;0.0;0.0;0.0
  2.0799999E+00;  9.9999998E-03; -3.4000000E-01;736;0.0;0.0;0.0;1000.0;  4.0000001E-01;0.0;0;0.0;0.0;0.0;0;0.0;  1.0000000E+04;  0.0000000E+00;  0.0000000E+00;  1.0000000E+04;  0.0000000E+00;  1.0000000E+04;0.0;0.0;0.0;0.0
  2.0799999E+00;  9.9999998E-03; -3.1999999E-01;737;0.0;0.0;0.0;1000.0;  4.0000001E-01;0.0;0;0.0;0.0;0.0;0;0.0;  1.0000000E+04;  0.0000000E+00;  0.0000000E+00;  1.0000000E+04;  0.0000000E+00;  1.0000000E+04;0.0;0.0;0.0;0.0
  2.0799999E+00;  9.9999998E-03; -3.0000001E-01;738;0.0;0.0;0.0;1000.0;  4.0000001E-01;0.0;0;0.0;0.0;0.0;0;0.0;  1.0000000E+04;  0.0000000E+00;  0.0000000E+00;  1.0000000E+04;  0.0000000E+00;  1.0000000E+04;0.0;0.0;0.0;0.0
  2.0799999E+00;  9.9999998E-03; -2.8000000E-01;739;0.0;0.0;0.0;1000.0;  4.0000001E-01;0.0;0;0.0;0.0;0.0;0;0.0;  1.0000000E+04;  0.0000000E+00;  0.0000000E+00;  1.0000000E+04;  0.0000000E+00;  1.0000000E+04;0.0;0.0;0.0;0.0
  2.0799999E+00;  9.9999998E-03; -2.5999999E-01;740;0.0;0.0;0.0;1000.0;  4.0000001E-01;0.0;0;0.0;0.0;0.0;0;0.0;  1.0000000E+04;  0.0000000E+00;  0.0000000E+00;  1.0000000E+04;  0.0000000E+00;  1.0000000E+04;0.0;0.0;0.0;0.0
  2.0799999E+00;  9.9999998E-03; -2.3999999E-01;741;0.0;0.0;0.0;1000.0;  4.0000001E-01;0.0;0;0.0;0.0;0.0;0;0.0;  1.0000000E+04;  0.0000000E+00;  0.0000000E+00;  1.0000000E+04;  0.0000000E+00;  1.0000000E+04;0.0;0.0;0.0;0.0
  2.0799999E+00;  9.9999998E-03; -2.2000000E-01;742;0.0;0.0;0.0;1000.0;  4.0000001E-01;0.0;0;0.0;0.0;0.0;0;0.0;  1.0000000E+04;  0.0000000E+00;  0.0000000E+00;  1.0000000E+04;  0.0000000E+00;  1.0000000E+04;0.0;0.0;0.0;0.0
  2.0799999E+00;  9.9999998E-03; -2.0000000E-01;743;0.0;0.0;0.0;1000.0;  4.0000001E-01;0.0;0;0.0;0.0;0.0;0;0.0;  1.0000000E+04;  0.0000000E+00;  0.0000000E+00;  1.0000000E+04;  0.0000000E+00;  1.0000000E+04;0.0;0.0;0.0;0.0
  2.0799999E+00;  9.9999998E-03; -1.8000001E-01;744;0.0;0.0;0.0;1000.0;  4.0000001E-01;0.0;0;0.0;0.0;0.0;0;0.0;  1.0000000E+04;  0.0000000E+00;  0.0000000E+00;  1.0000000E+04;  0.0000000E+00;  1.0000000E+04;0.0;0.0;0.0;0.0
  2.0799999E+00;  9.9999998E-03; -1.6000000E-01;745;0.0;0.0;0.0;1000.0;  4.0000001E-01;0.0;0;0.0;0.0;0.0;0;0.0;  1.0000000E+04;  0.0000000E+00;  0.0000000E+00;  1.0000000E+04;  0.0000000E+00;  1.0000000E+04;0.0;0.0;0.0;0.0
  2.0799999E+00;  9.9999998E-03; -1.4000000E-01;746;0.0;0.0;0.0;1000.0;  4.0000001E-01;0.0;0;0.0;0.0;0.0;0;0.0;  1.0000000E+04;  0.0000000E+00;  0.0000000E+00;  1.0000000E+04;  0.0000000E+00;  1.0000000E+04;0.0;0.0;0.0;0.0
  2.0799999E+00;  9.9999998E-03; -1.2000000E-01;747;0.0;0.0;0.0;1000.0;  4.0000001E-01;0.0;0;0.0;0.0;0.0;0;0.0;  1.0000000E+04;  0.0000000E+00;  0.0000000E+00;  1.0000000E+04;  0.0000000E+00;  1.0000000E+04;0.0;0.0;0.0;0.0
  2.0799999E+00;  9.9999998E-03; -1.0000000E-01;748;0.0;0.0;0.0;1000.0;  4.0000001E-01;0.0;0;0.0;0.0;0.0;0;0.0;  1.0000000E+04;  0.0000000E+00;  0.0000000E+00;  1.0000000E+04;  0.0000000E+00;  1.0000000E+04;0.0;0.0;0.0;0.0
  2.0799999E+00;  9.9999998E-03; -7.9999998E-02;749;0.0;0.0;0.0;1000.0;  4.0000001E-01;0.0;0;0.0;0.0;0.0;0;0.0;  1.0000000E+04;  0.0000000E+00;  0.0000000E+00;  1.0000000E+04;  0.0000000E+00;  1.0000000E+04;0.0;0.0;0.0;0.0
  2.0799999E+00;  9.9999998E-03; -5.9999999E-02;750;0.0;0.0;0.0;1000.0;  4.0000001E-01;0.0;0;0.0;0.0;0.0;0;0.0;  1.0000000E+04;  0.0000000E+00;  0.0000000E+00;  1.0000000E+04;  0.0000000E+00;  1.0000000E+04;0.0;0.0;0.0;0.0
  2.0799999E+00;  9.9999998E-03; -3.9999999E-02;751;0.0;0.0;0.0;1000.0;  4.0000001E-01;0.0;0;0.0;0.0;0.0;0;0.0;  1.0000000E+04;  0.0000000E+00;  0.0000000E+00;  1.0000000E+04;  0.0000000E+00;  1.0000000E+04;0.0;0.0;0.0;0.0
  2.0799999E+00;  9.9999998E-03; -2.0000000E-02;752;0.0;0.0;0.0;1000.0;  4.0000001E-01;0.0;0;0.0;0.0;0.0;0;0.0;  1.0000000E+04;  0.0000000E+00;  0.0000000E+00;  1.0000000E+04;  0.0000000E+00;  1.0000000E+04;0.0;0.0;0.0;0.0
  2.0799999E+00;  9.9999998E-03;  0.0000000E+00;753;0.0;0.0;0.0;1000.0;  4.0000001E-01;0.0;0;0.0;0.0;0.0;0;0.0;  1.0000000E+04;  0.0000000E+00;  0.0000000E+00;  1.0000000E+04;  0.0000000E+00;  1.0000000E+04;0.0;0.0;0.0;0.0
  2.0799999E+00;  9.9999998E-03;  2.0000000E-02;754;0.0;0.0;0.0;1000.0;  4.0000001E-01;0.0;0;0.0;0.0;0.0;0;0.0;  1.0000000E+04;  0.0000000E+00;  0.0000000E+00;  1.0000000E+04;  0.0000000E+00;  1.0000000E+04;0.0;0.0;0.0;0.0
  2.0799999E+00;  9.9999998E-03;  3.9999999E-02;755;0.0;0.0;0.0;1000.0;  4.0000001E-01;0.0;0;0.0;0.0;0.0;0;0.0;  1.0000000E+04;  0.0000000E+00;  0.0000000E+00;  1.0000000E+04;  0.0000000E+00;  1.0000000E+04;0.0;0.0;0.0;0.0
  2.0799999E+00;  9.9999998E-03;  5.9999999E-02;756;0.0;0.0;0.0;1000.0;  4.0000001E-01;0.0;0;0.0;0.0;0.0;0;0.0;  1.0000000E+04;  0.0000000E+00;  0.0000000E+00;  1.0000000E+04;  0.0000000E+00;  1.0000000E+04;0.0;0.0;0.0;0.0
  2.0799999E+00;  9.9999998E-03;  7.9999998E-02;757;0.0;0.0;0.0;1000.0;  4.0000001E-01;0.0;0;0.0;0.0;0.0;0;0.0;  1.0000000E+04;  0.0000000E+00;  0.0000000E+00;  1.0000000E+04;  0.0000000E+00;  1.0000000E+04;0.0;0.0;0.0;0.0
  2.0799999E+00;  9.9999998E-03;  1.0000000E-01;758;0.0;0.0;0.0;1000.0;  4.0000001E-01;0.0;0;0.0;0.0;0.0;0;0.0;  1.0000000E+04;  0.0000000E+00;  0.0000000E+00;  1.0000000E+04;  0.0000000E+00;  1.0000000E+04;0.0;0.0;0.0;0.0
  2.0799999E+00;  9.9999998E-03;  1.2000000E-01;759;0.0;0.0;0.0;1000.0;  4.0000001E-01;0.0;0;0.0;0.0;0.0;0;0.0;  1.0000000E+04;  0.0000000E+00;  0.0000000E+00;  1.0000000E+04;  0.0000000E+00;  1.0000000E+04;0.0;0.0;0.0;0.0
  2.0799999E+00;  9.9999998E-03;  1.4000000E-01;760;0.0;0.0;0.0;1000.0;  4.0000001E-01;0.0;0;0.0;0.0;0.0;0;0.0;  1.0000000E+04;  0.0000000E+00;  0.0000000E+00;  1.0000000E+04;  0.0000000E+00;  1.0000000E+04;0.0;0.0;0.0;0.0
  2.0799999E+00;  9.9999998E-03;  1.6000000E-01;761;0.0;0.0;0.0;1000.0;  4.0000001E-01;0.0;0;0.0;0.0;0.0;0;0.0;  1.0000000E+04;  0.0000000E+00;  0.0000000E+00;  1.0000000E+04;  0.0000000E+00;  1.0000000E+04;0.0;0.0;0.0;0.0
  2.0799999E+00;  9.9999998E-03;  1.8000001E-01;762;0.0;0.0;0.0;1000.0;  4.0000001E-01;0.0;0;0.0;0.0;0.0;0;0.0;  1.0000000E+04;  0.0000000E+00;  0.0000000E+00;  1.0000000E+04;  0.0000000E+00;  1.0000000E+04;0.0;0.0;0.0;0.0
  2.0799999E+00;  9.9999998E-03;  2.0000000E-01;763;0.0;0.0;0.0;1000.0;  4.0000001E-01;0.0;0;0.0;0.0;0.0;0;0.0;  1.0000000E+04;  0.0000000E+00;  0.0000000E+00;  1.0000000E+04;  0.0000000E+00;  1.0000000E+04;0.0;0.0;0.0;0.0
  2.0799999E+00;  9.9999998E-03;  2.2000000E-01;764;0.0;0.0;0.0;1000.0;  4.0000001E-01;0.0;0;0.0;0.0;0.0;0;0.0;  1.0000000E+04;  0.0000000E+00;  0.0000000E+00;  1.0000000E+04;  0.0000000E+00;  1.0000000E+04;0.0;0.0;0.0;0.0
  2.0799999E+00;  9.9999998E-03;  2.3999999E-01;765;0.0;0.0;0.0;1000.0;  4.0000001E-01;0.0;0;0.0;0.0;0.0;0;0.0;  1.0000000E+04;  0.0000000E+00;  0.0000000E+00;  1.0000000E+04;  0.0000000E+00;  1.0000000E+04;0.0;0.0;0.0;0.0
  2.0799999E+00;  9.9999998E-03;  2.5999999E-01;766;0.0;0.0;0.0;1000.0;  4.0000001E-01;0.0;0;0.0;0.0;0.0;0;0.0;  1.0000000E+04;  0.0000000E+00;  0.0000000E+00;  1.0000000E+04;  0.0000000E+00;  1.0000000E+04;0.0;0.0;0.0;0.0
  2.0799999E+00;  9.9999998E-03;  2.8000000E-01;767;0.0;0.0;0.0;1000.0;  4.0000001E-01;0.0;0;0.0;0.0;0.0;0;0.0;  1.0000000E+04;  0.0000000E+00;  0.0000000E+00;  1.0000000E+04;  0.0000000E+00;  1.0000000E+04;0.0;0.0;0.0;0.0
  2.0799999E+00;  9.9999998E-03;  3.0000001E-01;768;0.0;0.0;0.0;1000.0;  4.0000001E-01;0.0;0;0.0;0.0;0.0;0;0.0;  1.0000000E+04;  0.0000000E+00;  0.0000000E+00;  1.0000000E+04;  0.0000000E+00;  1.0000000E+04;0.0;0.0;0.0;0.0
  2.0799999E+00;  9.9999998E-03;  3.1999999E-01;769;0.0;0.0;0.0;1000.0;  4.0000001E-01;0.0;0;0.0;0.0;0.0;0;0.0;  1.0000000E+04;  0.0000000E+00;  0.0000000E+00;  1.0000000E+04;  0.0000000E+00;  1.0000000E+04;0.0;0.0;0.0;0.0
  2.0799999E+00;  9.9999998E-03;  3.4000000E-01;770;0.0;0.0;0.0;1000.0;  4.0000001E-01;0.0;0;0.0;0.0;0.0;0;0.0;  1.0000000E+04;  0.0000000E+00;  0.0000000E+00;  1.0000000E+04;  0.0000000E+00;  1.0000000E+04;0.0;0.0;0.0;0.0
  2.0799999E+00;  9.9999998E-03;  3.6000001E-01;771;0.0;0.0;0.0;1000.0;  4.0000001E-01;0.0;0;0.0;0.0;0.0;0;0.0;  1.0000000E+04;  0.0000000E+00;  0.0000000E+00;  1.0000000E+04;  0.0000000E+00;  1.0000000E+04;0.0;0.0;0.0;0.0
  2.0799999E+00;  9.9999998E-03;  3.8000000E-01;772;0.0;0.0;0.0;1000.0;  4.0000001E-01;0.0;0;0.0;0.0;0.0;0;0.0;  1.0000000E+04;  0.0000000E+00;  0.0000000E+00;  1.0000000E+04;  0.0000000E+00;  1.0000000E+04;0.0;0.0;0.0;0.0
  2.0799999E+00;  9.9999998E-03;  4.0000001E-01;773;0.0;0.0;0.0;1000.0;  4.0000001E-01;0.0;0;0.0;0.0;0.0;0;0.0;  1.0000000E+04;  0.0000000E+00;  0.0000000E+00;  1.0000000E+04;  0.0000000E+00;  1.0000000E+04;0.0;0.0;0.0;0.0
  2.0999999E+00;  9.9999998E-03; -4.0000001E-01;774;0.0;0.0;0.0;1000.0;  4.0000001E-01;0.0;0;0.0;0.0;0.0;0;0.0;  1.0000000E+04;  0.0000000E+00;  0.0000000E+00;  1.0000000E+04;  0.0000000E+00;  1.0000000E+04;0.0;0.0;0.0;0.0
  2.0999999E+00;  9.9999998E-03; -3.8000000E-01;775;0.0;0.0;0.0;1000.0;  4.0000001E-01;0.0;0;0.0;0.0;0.0;0;0.0;  1.0000000E+04;  0.0000000E+00;  0.0000000E+00;  1.0000000E+04;  0.0000000E+00;  1.0000000E+04;0.0;0.0;0.0;0.0
  2.0999999E+00;  9.9999998E-03; -3.6000001E-01;776;0.0;0.0;0.0;1000.0;  4.0000001E-01;0.0;0;0.0;0.0;0.0;0;0.0;  1.0000000E+04;  0.0000000E+00;  0.0000000E+00;  1.0000000E+04;  0.0000000E+00;  1.0000000E+04;0.0;0.0;0.0;0.0
  2.0999999E+00;  9.9999998E-03; -3.4000000E-01;777;0.0;0.0;0.0;1000.0;  4.0000001E-01;0.0;0;0.0;0.0;0.0;0;0.0;  1.0000000E+04;  0.0000000E+00;  0.0000000E+00;  1.0000000E+04;  0.0000000E+00;  1.0000000E+04;0.0;0.0;0.0;0.0
  2.0999999E+00;  9.9999998E-03; -3.1999999E-01;778;0.0;0.0;0.0;1000.0;  4.0000001E-01;0.0;0;0.0;0.0;0.0;0;0.0;  1.0000000E+04;  0.0000000E+00;  0.0000000E+00;  1.0000000E+04;  0.0000000E+00;  1.0000000E+04;0.0;0.0;0.0;0.0
  2.0999999E+00;  9.9999998E-03; -3.0000001E-01;779;0.0;0.0;0.0;1000.0;  4.0000001E-01;0.0;0;0.0;0.0;0.0;0;0.0;  1.0000000E+04;  0.0000000E+00;  0.0000000E+00;  1.0000000E+04;  0.0000000E+00;  1.0000000E+04;0.0;0.0;0.0;0.0
  2.0999999E+00;  9.9999998E-03; -2.8000000E-01;780;0.0;0.0;0.0;1000.0;  4.0000001E-01;0.0;0;0.0;0.0;0.0;0;0.0;  1.0000000E+04;  0.0000000E+00;  0.0000000E+00;  1.0000000E+04;  0.0000000E+00;  1.0000000E+04;0.0;0.0;0.0;0.0
  2.0999999E+00;  9.9999998E-03; -2.5999999E-01;781;0.0;0.0;0.0;1000.0;  4.0000001E-01;0.0;0;0.0;0.0;0.0;0;0.0;  1.0000000E+04;  0.0000000E+00;  0.0000000E+00;  1.0000000E+04;  0.0000000E+00;  1.0000000E+04;0.0;0.0;0.0;0.0
  2.0999999E+00;  9.9999998E-03; -2.3999999E-01;782;0.0;0.0;0.0;1000.0;  4.0000001E-01;0.0;0;0.0;0.0;0.0;0;0.0;  1.0000000E+04;  0.0000000E+00;  0.0000000E+00;  1.0000000E+04;  0.0000000E+00;  1.0000000E+04;0.0;0.0;0.0;0.0
  2.0999999E+00;  9.9999998E-03; -2.2000000E-01;783;0.0;0.0;0.0;1000.0;  4.0000001E-01;0.0;0;0.0;0.0;0.0;0;0.0;  1.0000000E+04;  0.0000000E+00;  0.0000000E+00;  1.0000000E+04;  0.0000000E+00;  1.0000000E+04;0.0;0.0;0.0;0.0
  2.0999999E+00;  9.9999998E-03; -2.0000000E-01;784;0.0;0.0;0.0;1000.0;  4.0000001E-01;0.0;0;0.0;0.0;0.0;0;0.0;  1.0000000E+04;  0.0000000E+00;  0.0000000E+00;  1.0000000E+04;  0.0000000E+00;  1.0000000E+04;0.0;0.0;0.0;0.0
  2.0999999E+00;  9.9999998E-03; -1.8000001E-01;785;0.0;0.0;0.0;1000.0;  4.0000001E-01;0.0;0;0.0;0.0;0.0;0;0.0;  1.0000000E+04;  0.0000000E+00;  0.0000000E+00;  1.0000000E+04;  0.0000000E+00;  1.0000000E+04;0.0;0.0;0.0;0.0
  2.0999999E+00;  9.9999998E-03; -1.6000000E-01;786;0.0;0.0;0.0;1000.0;  4.0000001E-01;0.0;0;0.0;0.0;0.0;0;0.0;  1.0000000E+04;  0.0000000E+00;  0.0000000E+00;  1.0000000E+04;  0.0000000E+00;  1.0000000E+04;0.0;0.0;0.0;0.0
  2.0999999E+00;  9.9999998E-03; -1.4000000E-01;787;0.0;0.0;0.0;1000.0;  4.0000001E-01;0.0;0;0.0;0.0;0.0;0;0.0;  1.0000000E+04;  0.0000000E+00;  0.0000000E+00;  1.0000000E+04;  0.0000000E+00;  1.0000000E+04;0.0;0.0;0.0;0.0
  2.0999999E+00;  9.9999998E-03; -1.2000000E-01;788;0.0;0.0;0.0;1000.0;  4.0000001E-01;0.0;0;0.0;0.0;0.0;0;0.0;  1.0000000E+04;  0.0000000E+00;  0.0000000E+00;  1.0000000E+04;  0.0000000E+00;  1.0000000E+04;0.0;0.0;0.0;0.0
  2.0999999E+00;  9.9999998E-03; -1.0000000E-01;789;0.0;0.0;0.0;1000.0;  4.0000001E-01;0.0;0;0.0;0.0;0.0;0;0.0;  1.0000000E+04;  0.0000000E+00;  0.0000000E+00;  1.0000000E+04;  0.0000000E+00;  1.0000000E+04;0.0;0.0;0.0;0.0
  2.0999999E+00;  9.9999998E-03; -7.9999998E-02;790;0.0;0.0;0.0;1000.0;  4.0000001E-01;0.0;0;0.0;0.0;0.0;0;0.0;  1.0000000E+04;  0.0000000E+00;  0.0000000E+00;  1.0000000E+04;  0.0000000E+00;  1.0000000E+04;0.0;0.0;0.0;0.0
  2.0999999E+00;  9.9999998E-03; -5.9999999E-02;791;0.0;0.0;0.0;1000.0;  4.0000001E-01;0.0;0;0.0;0.0;0.0;0;0.0;  1.0000000E+04;  0.0000000E+00;  0.0000000E+00;  1.0000000E+04;  0.0000000E+00;  1.0000000E+04;0.0;0.0;0.0;0.0
  2.0999999E+00;  9.9999998E-03; -3.9999999E-02;792;0.0;0.0;0.0;1000.0;  4.0000001E-01;0.0;0;0.0;0.0;0.0;0;0.0;  1.0000000E+04;  0.0000000E+00;  0.0000000E+00;  1.0000000E+04;  0.0000000E+00;  1.0000000E+04;0.0;0.0;0.0;0.0
  2.0999999E+00;  9.9999998E-03; -2.0000000E-02;793;0.0;0.0;0.0;1000.0;  4.0000001E-01;0.0;0;0.0;0.0;0.0;0;0.0;  1.0000000E+04;  0.0000000E+00;  0.0000000E+00;  1.0000000E+04;  0.0000000E+00;  1.0000000E+04;0.0;0.0;0.0;0.0
  2.0999999E+00;  9.9999998E-03;  0.0000000E+00;794;0.0;0.0;0.0;1000.0;  4.0000001E-01;0.0;0;0.0;0.0;0.0;0;0.0;  1.0000000E+04;  0.0000000E+00;  0.0000000E+00;  1.0000000E+04;  0.0000000E+00;  1.0000000E+04;0.0;0.0;0.0;0.0
  2.0999999E+00;  9.9999998E-03;  2.0000000E-02;795;0.0;0.0;0.0;1000.0;  4.0000001E-01;0.0;0;0.0;0.0;0.0;0;0.0;  1.0000000E+04;  0.0000000E+00;  0.0000000E+00;  1.0000000E+04;  0.0000000E+00;  1.0000000E+04;0.0;0.0;0.0;0.0
  2.0999999E+00;  9.9999998E-03;  3.9999999E-02;796;0.0;0.0;0.0;1000.0;  4.0000001E-01;0.0;0;0.0;0.0;0.0;0;0.0;  1.0000000E+04;  0.0000000E+00;  0.0000000E+00;  1.0000000E+04;  0.0000000E+00;  1.0000000E+04;0.0;0.0;0.0;0.0
  2.0999999E+00;  9.9999998E-03;  5.9999999E-02;797;0.0;0.0;0.0;1000.0;  4.0000001E-01;0.0;0;0.0;0.0;0.0;0;0.0;  1.0000000E+04;  0.0000000E+00;  0.0000000E+00;  1.0000000E+04;  0.0000000E+00;  1.0000000E+04;0.0;0.0;0.0;0.0
  2.0999999E+00;  9.9999998E-03;  7.9999998E-02;798;0.0;0.0;0.0;1000.0;  4.0000001E-01;0.0;0;0.0;0.0;0.0;0;0.0;  1.0000000E+04;  0.0000000E+00;  0.0000000E+00;  1.0000000E+04;  0.0000000E+00;  1.0000000E+04;0.0;0.0;0.0;0.0
  2.0999999E+00;  9.9999998E-03;  1.0000000E-01;799;0.0;0.0;0.0;1000.0;  4.0000001E-01;0.0;0;0.0;0.0;0.0;0;0.0;  1.0000000E+04;  0.0000000E+00;  0.0000000E+00;  1.0000000E+04;  0.0000000E+00;  1.0000000E+04;0.0;0.0;0.0;0.0
  2.0999999E+00;  9.9999998E-03;  1.2000000E-01;800;0.0;0.0;0.0;1000.0;  4.0000001E-01;0.0;0;0.0;0.0;0.0;0;0.0;  1.0000000E+04;  0.0000000E+00;  0.0000000E+00;  1.0000000E+04;  0.0000000E+00;  1.0000000E+04;0.0;0.0;0.0;0.0
  2.0999999E+00;  9.9999998E-03;  1.4000000E-01;801;0.0;0.0;0.0;1000.0;  4.0000001E-01;0.0;0;0.0;0.0;0.0;0;0.0;  1.0000000E+04;  0.0000000E+00;  0.0000000E+00;  1.0000000E+04;  0.0000000E+00;  1.0000000E+04;0.0;0.0;0.0;0.0
  2.0999999E+00;  9.9999998E-03;  1.6000000E-01;802;0.0;0.0;0.0;1000.0;  4.0000001E-01;0.0;0;0.0;0.0;0.0;0;0.0;  1.0000000E+04;  0.0000000E+00;  0.0000000E+00;  1.0000000E+04;  0.0000000E+00;  1.0000000E+04;0.0;0.0;0.0;0.0
  2.0999999E+00;  9.9999998E-03;  1.8000001E-01;803;0.0;0.0;0.0;1000.0;  4.0000001E-01;0.0;0;0.0;0.0;0.0;0;0.0;  1.0000000E+04;  0.0000000E+00;  0.0000000E+00;  1.0000000E+04;  0.0000000E+00;  1.0000000E+04;0.0;0.0;0.0;0.0
  2.0999999E+00;  9.9999998E-03;  2.0000000E-01;804;0.0;0.0;0.0;1000.0;  4.0000001E-01;0.0;0;0.0;0.0;0.0;0;0.0;  1.0000000E+04;  0.0000000E+00;  0.0000000E+00;  1.0000000E+04;  0.0000000E+00;  1.0000000E+04;0.0;0.0;0.0;0.0
  2.0999999E+00;  9.9999998E-03;  2.2000000E-01;805;0.0;0.0;0.0;1000.0;  4.0000001E-01;0.0;0;0.0;0.0;0.0;0;0.0;  1.0000000E+04;  0.0000000E+00;  0.0000000E+00;  1.0000000E+04;  0.0000000E+00;  1.0000000E+04;0.0;0.0;0.0;0.0
  2.0999999E+00;  9.9999998E-03;  2.3999999E-01;806;0.0;0.0;0.0;1000.0;  4.0000001E-01;0.0;0;0.0;0.0;0.0;0;0.0;  1.0000000E+04;  0.0000000E+00;  0.0000000E+00;  1.0000000E+04;  0.0000000E+00;  1.0000000E+04;0.0;0.0;0.0;0.0
  2.0999999E+00;  9.9999998E-03;  2.5999999E-01;807;0.0;0.0;0.0;1000.0;  4.0000001E-01;0.0;0;0.0;0.0;0.0;0;0.0;  1.0000000E+04;  0.0000000E+00;  0.0000000E+00;  1.0000000E+04;  0.0000000E+00;  1.0000000E+04;0.0;0.0;0.0;0.0
  2.0999999E+00;  9.9999998E-03;  2.8000000E-01;808;0.0;0.0;0.0;1000.0;  4.0000001E-01;0.0;0;0.0;0.0;0.0;0;0.0;  1.0000000E+04;  0.0000000E+00;  0.0000000E+00;  1.0000000E+04;  0.0000000E+00;  1.0000000E+04;0.0;0.0;0.0;0.0
  2.0999999E+00;  9.9999998E-03;  3.0000001E-01;809;0.0;0.0;0.0;1000.0;  4.0000001E-01;0.0;0;0.0;0.0;0.0;0;0.0;  1.0000000E+04;  0.0000000E+00;  0.0000000E+00;  1.0000000E+04;  0.0000000E+00;  1.0000000E+04;0.0;0.0;0.0;0.0
  2.0999999E+00;  9.9999998E-03;  3.1999999E-01;810;0.0;0.0;0.0;1000.0;  4.0000001E-01;0.0;0;0.0;0.0;0.0;0;0.0;  1.0000000E+04;  0.0000000E+00;  0.0000000E+00;  1.0000000E+04;  0.0000000E+00;  1.0000000E+04;0.0;0.0;0.0;0.0
  2.0999999E+00;  9.9999998E-03;  3.4000000E-01;811;0.0;0.0;0.0;1000.0;  4.0000001E-01;0.0;0;0.0;0.0;0.0;0;0.0;  1.0000000E+04;  0.0000000E+00;  0.0000000E+00;  1.0000000E+04;  0.0000000E+00;  1.0000000E+04;0.0;0.0;0.0;0.0
  2.0999999E+00;  9.9999998E-03;  3.6000001E-01;812;0.0;0.0;0.0;1000.0;  4.0000001E-01;0.0;0;0.0;0.0;0.0;0;0.0;  1.0000000E+04;  0.0000000E+00;  0.0000000E+00;  1.0000000E+04;  0.0000000E+00;  1.0000000E+04;0.0;0.0;0.0;0.0
  2.0999999E+00;  9.9999998E-03;  3.8000000E-01;813;0.0;0.0;0.0;1000.0;  4.0000001E-01;0.0;0;0.0;0.0;0.0;0;0.0;  1.0000000E+04;  0.0000000E+00;  0.0000000E+00;  1.0000000E+04;  0.0000000E+00;  1.0000000E+04;0.0;0.0;0.0;0.0
  2.0999999E+00;  9.9999998E-03;  4.0000001E-01;814;0.0;0.0;0.0;1000.0;  4.0000001E-01;0.0;0;0.0;0.0;0.0;0;0.0;  1.0000000E+04;  0.0000000E+00;  0.0000000E+00;  1.0000000E+04;  0.0000000E+00;  1.0000000E+04;0.0;0.0;0.0;0.0
  2.1199999E+00;  9.9999998E-03; -4.1999999E-01;815;0.0;0.0;0.0;1000.0;  4.0000001E-01;0.0;0;0.0;0.0;0.0;0;0.0;  1.0000000E+04;  0.0000000E+00;  0.0000000E+00;  1.0000000E+04;  0.0000000E+00;  1.0000000E+04;0.0;0.0;0.0;0.0
  2.1199999E+00;  9.9999998E-03; -4.0000001E-01;816;0.0;0.0;0.0;1000.0;  4.0000001E-01;0.0;0;0.0;0.0;0.0;0;0.0;  1.0000000E+04;  0.0000000E+00;  0.0000000E+00;  1.0000000E+04;  0.0000000E+00;  1.0000000E+04;0.0;0.0;0.0;0.0
  2.1199999E+00;  9.9999998E-03; -3.8000000E-01;817;0.0;0.0;0.0;1000.0;  4.0000001E-01;0.0;0;0.0;0.0;0.0;0;0.0;  1.0000000E+04;  0.0000000E+00;  0.0000000E+00;  1.0000000E+04;  0.0000000E+00;  1.0000000E+04;0.0;0.0;0.0;0.0
  2.1199999E+00;  9.9999998E-03; -3.6000001E-01;818;0.0;0.0;0.0;1000.0;  4.0000001E-01;0.0;0;0.0;0.0;0.0;0;0.0;  1.0000000E+04;  0.0000000E+00;  0.0000000E+00;  1.0000000E+04;  0.0000000E+00;  1.0000000E+04;0.0;0.0;0.0;0.0
  2.1199999E+00;  9.9999998E-03; -3.4000000E-01;819;0.0;0.0;0.0;1000.0;  4.0000001E-01;0.0;0;0.0;0.0;0.0;0;0.0;  1.0000000E+04;  0.0000000E+00;  0.0000000E+00;  1.0000000E+04;  0.0000000E+00;  1.0000000E+04;0.0;0.0;0.0;0.0
  2.1199999E+00;  9.9999998E-03; -3.1999999E-01;820;0.0;0.0;0.0;1000.0;  4.0000001E-01;0.0;0;0.0;0.0;0.0;0;0.0;  1.0000000E+04;  0.0000000E+00;  0.0000000E+00;  1.0000000E+04;  0.0000000E+00;  1.0000000E+04;0.0;0.0;0.0;0.0
  2.1199999E+00;  9.9999998E-03; -3.0000001E-01;821;0.0;0.0;0.0;1000.0;  4.0000001E-01;0.0;0;0.0;0.0;0.0;0;0.0;  1.0000000E+04;  0.0000000E+00;  0.0000000E+00;  1.0000000E+04;  0.0000000E+00;  1.0000000E+04;0.0;0.0;0.0;0.0
  2.1199999E+00;  9.9999998E-03; -2.8000000E-01;822;0.0;0.0;0.0;1000.0;  4.0000001E-01;0.0;0;0.0;0.0;0.0;0;0.0;  1.0000000E+04;  0.0000000E+00;  0.0000000E+00;  1.0000000E+04;  0.0000000E+00;  1.0000000E+04;0.0;0.0;0.0;0.0
  2.1199999E+00;  9.9999998E-03; -2.5999999E-01;823;0.0;0.0;0.0;1000.0;  4.0000001E-01;0.0;0;0.0;0.0;0.0;0;0.0;  1.0000000E+04;  0.0000000E+00;  0.0000000E+00;  1.0000000E+04;  0.0000000E+00;  1.0000000E+04;0.0;0.0;0.0;0.0
  2.1199999E+00;  9.9999998E-03; -2.3999999E-01;824;0.0;0.0;0.0;1000.0;  4.0000001E-01;0.0;0;0.0;0.0;0.0;0;0.0;  1.0000000E+04;  0.0000000E+00;  0.0000000E+00;  1.0000000E+04;  0.0000000E+00;  1.0000000E+04;0.0;0.0;0.0;0.0
  2.1199999E+00;  9.9999998E-03; -2.2000000E-01;825;0.0;0.0;0.0;1000.0;  4.0000001E-01;0.0;0;0.0;0.0;0.0;0;0.0;  1.0000000E+04;  0.0000000E+00;  0.0000000E+00;  1.0000000E+04;  0.0000000E+00;  1.0000000E+04;0.0;0.0;0.0;0.0
  2.1199999E+00;  9.9999998E-03; -2.0000000E-01;826;0.0;0.0;0.0;1000.0;  4.0000001E-01;0.0;0;0.0;0.0;0.0;0;0.0;  1.0000000E+04;  0.0000000E+00;  0.0000000E+00;  1.0000000E+04;  0.0000000E+00;  1.0000000E+04;0.0;0.0;0.0;0.0
  2.1199999E+00;  9.9999998E-03; -1.8000001E-01;827;0.0;0.0;0.0;1000.0;  4.0000001E-01;0.0;0;0.0;0.0;0.0;0;0.0;  1.0000000E+04;  0.0000000E+00;  0.0000000E+00;  1.0000000E+04;  0.0000000E+00;  1.0000000E+04;0.0;0.0;0.0;0.0
  2.1199999E+00;  9.9999998E-03; -1.6000000E-01;828;0.0;0.0;0.0;1000.0;  4.0000001E-01;0.0;0;0.0;0.0;0.0;0;0.0;  1.0000000E+04;  0.0000000E+00;  0.0000000E+00;  1.0000000E+04;  0.0000000E+00;  1.0000000E+04;0.0;0.0;0.0;0.0
  2.1199999E+00;  9.9999998E-03; -1.4000000E-01;829;0.0;0.0;0.0;1000.0;  4.0000001E-01;0.0;0;0.0;0.0;0.0;0;0.0;  1.0000000E+04;  0.0000000E+00;  0.0000000E+00;  1.0000000E+04;  0.0000000E+00;  1.0000000E+04;0.0;0.0;0.0;0.0
  2.1199999E+00;  9.9999998E-03; -1.2000000E-01;830;0.0;0.0;0.0;1000.0;  4.0000001E-01;0.0;0;0.0;0.0;0.0;0;0.0;  1.0000000E+04;  0.0000000E+00;  0.0000000E+00;  1.0000000E+04;  0.0000000E+00;  1.0000000E+04;0.0;0.0;0.0;0.0
  2.1199999E+00;  9.9999998E-03; -1.0000000E-01;831;0.0;0.0;0.0;1000.0;  4.0000001E-01;0.0;0;0.0;0.0;0.0;0;0.0;  1.0000000E+04;  0.0000000E+00;  0.0000000E+00;  1.0000000E+04;  0.0000000E+00;  1.0000000E+04;0.0;0.0;0.0;0.0
  2.1199999E+00;  9.9999998E-03; -7.9999998E-02;832;0.0;0.0;0.0;1000.0;  4.0000001E-01;0.0;0;0.0;0.0;0.0;0;0.0;  1.0000000E+04;  0.0000000E+00;  0.0000000E+00;  1.0000000E+04;  0.0000000E+00;  1.0000000E+04;0.0;0.0;0.0;0.0
  2.1199999E+00;  9.9999998E-03; -5.9999999E-02;833;0.0;0.0;0.0;1000.0;  4.0000001E-01;0.0;0;0.0;0.0;0.0;0;0.0;  1.0000000E+04;  0.0000000E+00;  0.0000000E+00;  1.0000000E+04;  0.0000000E+00;  1.0000000E+04;0.0;0.0;0.0;0.0
  2.1199999E+00;  9.9999998E-03; -3.9999999E-02;834;0.0;0.0;0.0;1000.0;  4.0000001E-01;0.0;0;0.0;0.0;0.0;0;0.0;  1.0000000E+04;  0.0000000E+00;  0.0000000E+00;  1.0000000E+04;  0.0000000E+00;  1.0000000E+04;0.0;0.0;0.0;0.0
  2.1199999E+00;  9.9999998E-03; -2.0000000E-02;835;0.0;0.0;0.0;1000.0;  4.0000001E-01;0.0;0;0.0;0.0;0.0;0;0.0;  1.0000000E+04;  0.0000000E+00;  0.0000000E+00;  1.0000000E+04;  0.0000000E+00;  1.0000000E+04;0.0;0.0;0.0;0.0
  2.1199999E+00;  9.9999998E-03;  0.0000000E+00;836;0.0;0.0;0.0;1000.0;  4.0000001E-01;0.0;0;0.0;0.0;0.0;0;0.0;  1.0000000E+04;  0.0000000E+00;  0.0000000E+00;  1.0000000E+04;  0.0000000E+00;  1.0000000E+04;0.0;0.0;0.0;0.0
  2.1199999E+00;  9.9999998E-03;  2.0000000E-02;837;0.0;0.0;0.0;1000.0;  4.0000001E-01;0.0;0;0.0;0.0;0.0;0;0.0;  1.0000000E+04;  0.0000000E+00;  0.0000000E+00;  1.0000000E+04;  0.0000000E+00;  1.0000000E+04;0.0;0.0;0.0;0.0
  2.1199999E+00;  9.9999998E-03;  3.9999999E-02;838;0.0;0.0;0.0;1000.0;  4.0000001E-01;0.0;0;0.0;0.0;0.0;0;0.0;  1.0000000E+04;  0.0000000E+00;  0.0000000E+00;  1.0000000E+04;  0.0000000E+00;  1.0000000E+04;0.0;0.0;0.0;0.0
  2.1199999E+00;  9.9999998E-03;  5.9999999E-02;839;0.0;0.0;0.0;1000.0;  4.0000001E-01;0.0;0;0.0;0.0;0.0;0;0.0;  1.0000000E+04;  0.0000000E+00;  0.0000000E+00;  1.0000000E+04;  0.0000000E+00;  1.0000000E+04;0.0;0.0;0.0;0.0
  2.1199999E+00;  9.9999998E-03;  7.9999998E-02;840;0.0;0.0;0.0;1000.0;  4.0000001E-01;0.0;0;0.0;0.0;0.0;0;0.0;  1.0000000E+04;  0.0000000E+00;  0.0000000E+00;  1.0000000E+04;  0.0000000E+00;  1.0000000E+04;0.0;0.0;0.0;0.0
  2.1199999E+00;  9.9999998E-03;  1.0000000E-01;841;0.0;0.0;0.0;1000.0;  4.0000001E-01;0.0;0;0.0;0.0;0.0;0;0.0;  1.0000000E+04;  0.0000000E+00;  0.0000000E+00;  1.0000000E+04;  0.0000000E+00;  1.0000000E+04;0.0;0.0;0.0;0.0
  2.1199999E+00;  9.9999998E-03;  1.2000000E-01;842;0.0;0.0;0.0;1000.0;  4.0000001E-01;0.0;0;0.0;0.0;0.0;0;0.0;  1.0000000E+04;  0.0000000E+00;  0.0000000E+00;  1.0000000E+04;  0.0000000E+00;  1.0000000E+04;0.0;0.0;0.0;0.0
  2.1199999E+00;  9.9999998E-03;  1.4000000E-01;843;0.0;0.0;0.0;1000.0;  4.0000001E-01;0.0;0;0.0;0.0;0.0;0;0.0;  1.0000000E+04;  0.0000000E+00;  0.0000000E+00;  1.0000000E+04;  0.0000000E+00;  1.0000000E+04;0.0;0.0;0.0;0.0
  2.1199999E+00;  9.9999998E-03;  1.6000000E-01;844;0.0;0.0;0.0;1000.0;  4.0000001E-01;0.0;0;0.0;0.0;0.0;0;0.0;  1.0000000E+04;  0.0000000E+00;  0.0000000E+00;  1.0000000E+04;  0.0000000E+00;  1.0000000E+04;0.0;0.0;0.0;0.0
  2.1199999E+00;  9.9999998E-03;  1.8000001E-01;845;0.0;0.0;0.0;1000.0;  4.0000001E-01;0.0;0;0.0;0.0;0.0;0;0.0;  1.0000000E+04;  0.0000000E+00;  0.0000000E+00;  1.0000000E+04;  0.0000000E+00;  1.0000000E+04;0.0;0.0;0.0;0.0
  2.1199999E+00;  9.9999998E-03;  2.0000000E-01;846;0.0;0.0;0.0;1000.0;  4.0000001E-01;0.0;0;0.0;0.0;0.0;0;0.0;  1.0000000E+04;  0.0000000E+00;  0.0000000E+00;  1.0000000E+04;  0.0000000E+00;  1.0000000E+04;0.0;0.0;0.0;0.0
  2.1199999E+00;  9.9999998E-03;  2.2000000E-01;847;0.0;0.0;0.0;1000.0;  4.0000001E-01;0.0;0;0.0;0.0;0.0;0;0.0;  1.0000000E+04;  0.0000000E+00;  0.0000000E+00;  1.0000000E+04;  0.0000000E+00;  1.0000000E+04;0.0;0.0;0.0;0.0
  2.1199999E+00;  9.9999998E-03;  2.3999999E-01;848;0.0;0.0;0.0;1000.0;  4.0000001E-01;0.0;0;0.0;0.0;0.0;0;0.0;  1.0000000E+04;  0.0000000E+00;  0.0000000E+00;  1.0000000E+04;  0.0000000E+00;  1.0000000E+04;0.0;0.0;0.0;0.0
  2.1199999E+00;  9.9999998E-03;  2.5999999E-01;849;0.0;0.0;0.0;1000.0;  4.0000001E-01;0.0;0;0.0;0.0;0.0;0;0.0;  1.0000000E+04;  0.0000000E+00;  0.0000000E+00;  1.0000000E+04;  0.0000000E+00;  1.0000000E+04;0.0;0.0;0.0;0.0
  2.1199999E+00;  9.9999998E-03;  2.8000000E-01;850;0.0;0.0;0.0;1000.0;  4.0000001E-01;0.0;0;0.0;0.0;0.0;0;0.0;  1.0000000E+04;  0.0000000E+00;  0.0000000E+00;  1.0000000E+04;  0.0000000E+00;  1.0000000E+04;0.0;0.0;0.0;0.0
  2.1199999E+00;  9.9999998E-03;  3.0000001E-01;851;0.0;0.0;0.0;1000.0;  4.0000001E-01;0.0;0;0.0;0.0;0.0;0;0.0;  1.0000000E+04;  0.0000000E+00;  0.0000000E+00;  1.0000000E+04;  0.0000000E+00;  1.0000000E+04;0.0;0.0;0.0;0.0
  2.1199999E+00;  9.9999998E-03;  3.1999999E-01;852;0.0;0.0;0.0;1000.0;  4.0000001E-01;0.0;0;0.0;0.0;0.0;0;0.0;  1.0000000E+04;  0.0000000E+00;  0.0000000E+00;  1.0000000E+04;  0.0000000E+00;  1.0000000E+04;0.0;0.0;0.0;0.0
  2.1199999E+00;  9.9999998E-03;  3.4000000E-01;853;0.0;0.0;0.0;1000.0;  4.0000001E-01;0.0;0;0.0;0.0;0.0;0;0.0;  1.0000000E+04;  0.0000000E+00;  0.0000000E+00;  1.0000000E+04;  0.0000000E+00;  1.0000000E+04;0.0;0.0;0.0;0.0
  2.1199999E+00;  9.9999998E-03;  3.6000001E-01;854;0.0;0.0;0.0;1000.0;  4.0000001E-01;0.0;0;0.0;0.0;0.0;0;0.0;  1.0000000E+04;  0.0000000E+00;  0.0000000E+00;  1.0000000E+04;  0.0000000E+00;  1.0000000E+04;0.0;0.0;0.0;0.0
  2.1199999E+00;  9.9999998E-03;  3.8000000E-01;855;0.0;0.0;0.0;1000.0;  4.0000001E-01;0.0;0;0.0;0.0;0.0;0;0.0;  1.0000000E+04;  0.0000000E+00;  0.0000000E+00;  1.0000000E+04;  0.0000000E+00;  1.0000000E+04;0.0;0.0;0.0;0.0
  2.1199999E+00;  9.9999998E-03;  4.0000001E-01;856;0.0;0.0;0.0;1000.0;  4.0000001E-01;0.0;0;0.0;0.0;0.0;0;0.0;  1.0000000E+04;  0.0000000E+00;  0.0000000E+00;  1.0000000E+04;  0.0000000E+00;  1.0000000E+04;0.0;0.0;0.0;0.0
  2.1400001E+00;  9.9999998E-03; -3.8000000E-01;857;0.0;0.0;0.0;1000.0;  4.0000001E-01;0.0;0;0.0;0.0;0.0;0;0.0;  1.0000000E+04;  0.0000000E+00;  0.0000000E+00;  1.0000000E+04;  0.0000000E+00;  1.0000000E+04;0.0;0.0;0.0;0.0
  2.1400001E+00;  9.9999998E-03; -3.6000001E-01;858;0.0;0.0;0.0;1000.0;  4.0000001E-01;0.0;0;0.0;0.0;0.0;0;0.0;  1.0000000E+04;  0.0000000E+00;  0.0000000E+00;  1.0000000E+04;  0.0000000E+00;  1.0000000E+04;0.0;0.0;0.0;0.0
  2.1400001E+00;  9.9999998E-03; -3.4000000E-01;859;0.0;0.0;0.0;1000.0;  4.0000001E-01;0.0;0;0.0;0.0;0.0;0;0.0;  1.0000000E+04;  0.0000000E+00;  0.0000000E+00;  1.0000000E+04;  0.0000000E+00;  1.0000000E+04;0.0;0.0;0.0;0.0
  2.1400001E+00;  9.9999998E-03; -3.1999999E-01;860;0.0;0.0;0.0;1000.0;  4.0000001E-01;0.0;0;0.0;0.0;0.0;0;0.0;  1.0000000E+04;  0.0000000E+00;  0.0000000E+00;  1.0000000E+04;  0.0000000E+00;  1.0000000E+04;0.0;0.0;0.0;0.0
  2.1400001E+00;  9.9999998E-03; -3.0000001E-01;861;0.0;0.0;0.0;1000.0;  4.0000001E-01;0.0;0;0.0;0.0;0.0;0;0.0;  1.0000000E+04;  0.0000000E+00;  0.0000000E+00;  1.0000000E+04;  0.0000000E+00;  1.0000000E+04;0.0;0.0;0.0;0.0
  2.1400001E+00;  9.9999998E-03; -2.8000000E-01;862;0.0;0.0;0.0;1000.0;  4.0000001E-01;0.0;0;0.0;0.0;0.0;0;0.0;  1.0000000E+04;  0.0000000E+00;  0.0000000E+00;  1.0000000E+04;  0.0000000E+00;  1.0000000E+04;0.0;0.0;0.0;0.0
  2.1400001E+00;  9.9999998E-03; -2.5999999E-01;863;0.0;0.0;0.0;1000.0;  4.0000001E-01;0.0;0;0.0;0.0;0.0;0;0.0;  1.0000000E+04;  0.0000000E+00;  0.0000000E+00;  1.0000000E+04;  0.0000000E+00;  1.0000000E+04;0.0;0.0;0.0;0.0
  2.1400001E+00;  9.9999998E-03; -2.3999999E-01;864;0.0;0.0;0.0;1000.0;  4.0000001E-01;0.0;0;0.0;0.0;0.0;0;0.0;  1.0000000E+04;  0.0000000E+00;  0.0000000E+00;  1.0000000E+04;  0.0000000E+00;  1.0000000E+04;0.0;0.0;0.0;0.0
  2.1400001E+00;  9.9999998E-03; -2.2000000E-01;865;0.0;0.0;0.0;1000.0;  4.0000001E-01;0.0;0;0.0;0.0;0.0;0;0.0;  1.0000000E+04;  0.0000000E+00;  0.0000000E+00;  1.0000000E+04;  0.0000000E+00;  1.0000000E+04;0.0;0.0;0.0;0.0
  2.1400001E+00;  9.9999998E-03; -2.0000000E-01;866;0.0;0.0;0.0;1000.0;  4.0000001E-01;0.0;0;0.0;0.0;0.0;0;0.0;  1.0000000E+04;  0.0000000E+00;  0.0000000E+00;  1.0000000E+04;  0.0000000E+00;  1.0000000E+04;0.0;0.0;0.0;0.0
  2.1400001E+00;  9.9999998E-03; -1.8000001E-01;867;0.0;0.0;0.0;1000.0;  4.0000001E-01;0.0;0;0.0;0.0;0.0;0;0.0;  1.0000000E+04;  0.0000000E+00;  0.0000000E+00;  1.0000000E+04;  0.0000000E+00;  1.0000000E+04;0.0;0.0;0.0;0.0
  2.1400001E+00;  9.9999998E-03; -1.6000000E-01;868;0.0;0.0;0.0;1000.0;  4.0000001E-01;0.0;0;0.0;0.0;0.0;0;0.0;  1.0000000E+04;  0.0000000E+00;  0.0000000E+00;  1.0000000E+04;  0.0000000E+00;  1.0000000E+04;0.0;0.0;0.0;0.0
  2.1400001E+00;  9.9999998E-03; -1.4000000E-01;869;0.0;0.0;0.0;1000.0;  4.0000001E-01;0.0;0;0.0;0.0;0.0;0;0.0;  1.0000000E+04;  0.0000000E+00;  0.0000000E+00;  1.0000000E+04;  0.0000000E+00;  1.0000000E+04;0.0;0.0;0.0;0.0
  2.1400001E+00;  9.9999998E-03; -1.2000000E-01;870;0.0;0.0;0.0;1000.0;  4.0000001E-01;0.0;0;0.0;0.0;0.0;0;0.0;  1.0000000E+04;  0.0000000E+00;  0.0000000E+00;  1.0000000E+04;  0.0000000E+00;  1.0000000E+04;0.0;0.0;0.0;0.0
  2.1400001E+00;  9.9999998E-03; -1.0000000E-01;871;0.0;0.0;0.0;1000.0;  4.0000001E-01;0.0;0;0.0;0.0;0.0;0;0.0;  1.0000000E+04;  0.0000000E+00;  0.0000000E+00;  1.0000000E+04;  0.0000000E+00;  1.0000000E+04;0.0;0.0;0.0;0.0
  2.1400001E+00;  9.9999998E-03; -7.9999998E-02;872;0.0;0.0;0.0;1000.0;  4.0000001E-01;0.0;0;0.0;0.0;0.0;0;0.0;  1.0000000E+04;  0.0000000E+00;  0.0000000E+00;  1.0000000E+04;  0.0000000E+00;  1.0000000E+04;0.0;0.0;0.0;0.0
  2.1400001E+00;  9.9999998E-03; -5.9999999E-02;873;0.0;0.0;0.0;1000.0;  4.0000001E-01;0.0;0;0.0;0.0;0.0;0;0.0;  1.0000000E+04;  0.0000000E+00;  0.0000000E+00;  1.0000000E+04;  0.0000000E+00;  1.0000000E+04;0.0;0.0;0.0;0.0
  2.1400001E+00;  9.9999998E-03; -3.9999999E-02;874;0.0;0.0;0.0;1000.0;  4.0000001E-01;0.0;0;0.0;0.0;0.0;0;0.0;  1.0000000E+04;  0.0000000E+00;  0.0000000E+00;  1.0000000E+04;  0.0000000E+00;  1.0000000E+04;0.0;0.0;0.0;0.0
  2.1400001E+00;  9.9999998E-03; -2.0000000E-02;875;0.0;0.0;0.0;1000.0;  4.0000001E-01;0.0;0;0.0;0.0;0.0;0;0.0;  1.0000000E+04;  0.0000000E+00;  0.0000000E+00;  1.0000000E+04;  0.0000000E+00;  1.0000000E+04;0.0;0.0;0.0;0.0
  2.1400001E+00;  9.9999998E-03;  0.0000000E+00;876;0.0;0.0;0.0;1000.0;  4.0000001E-01;0.0;0;0.0;0.0;0.0;0;0.0;  1.0000000E+04;  0.0000000E+00;  0.0000000E+00;  1.0000000E+04;  0.0000000E+00;  1.0000000E+04;0.0;0.0;0.0;0.0
  2.1400001E+00;  9.9999998E-03;  2.0000000E-02;877;0.0;0.0;0.0;1000.0;  4.0000001E-01;0.0;0;0.0;0.0;0.0;0;0.0;  1.0000000E+04;  0.0000000E+00;  0.0000000E+00;  1.0000000E+04;  0.0000000E+00;  1.0000000E+04;0.0;0.0;0.0;0.0
  2.1400001E+00;  9.9999998E-03;  3.9999999E-02;878;0.0;0.0;0.0;1000.0;  4.0000001E-01;0.0;0;0.0;0.0;0.0;0;0.0;  1.0000000E+04;  0.0000000E+00;  0.0000000E+00;  1.0000000E+04;  0.0000000E+00;  1.0000000E+04;0.0;0.0;0.0;0.0
  2.1400001E+00;  9.9999998E-03;  5.9999999E-02;879;0.0;0.0;0.0;1000.0;  4.0000001E-01;0.0;0;0.0;0.0;0.0;0;0.0;  1.0000000E+04;  0.0000000E+00;  0.0000000E+00;  1.0000000E+04;  0.0000000E+00;  1.0000000E+04;0.0;0.0;0.0;0.0
  2.1400001E+00;  9.9999998E-03;  7.9999998E-02;880;0.0;0.0;0.0;1000.0;  4.0000001E-01;0.0;0;0.0;0.0;0.0;0;0.0;  1.0000000E+04;  0.0000000E+00;  0.0000000E+00;  1.0000000E+04;  0.0000000E+00;  1.0000000E+04;0.0;0.0;0.0;0.0
  2.1400001E+00;  9.9999998E-03;  1.0000000E-01;881;0.0;0.0;0.0;1000.0;  4.0000001E-01;0.0;0;0.0;0.0;0.0;0;0.0;  1.0000000E+04;  0.0000000E+00;  0.0000000E+00;  1.0000000E+04;  0.0000000E+00;  1.0000000E+04;0.0;0.0;0.0;0.0
  2.1400001E+00;  9.9999998E-03;  1.2000000E-01;882;0.0;0.0;0.0;1000.0;  4.0000001E-01;0.0;0;0.0;0.0;0.0;0;0.0;  1.0000000E+04;  0.0000000E+00;  0.0000000E+00;  1.0000000E+04;  0.0000000E+00;  1.0000000E+04;0.0;0.0;0.0;0.0
  2.1400001E+00;  9.9999998E-03;  1.4000000E-01;883;0.0;0.0;0.0;1000.0;  4.0000001E-01;0.0;0;0.0;0.0;0.0;0;0.0;  1.0000000E+04;  0.0000000E+00;  0.0000000E+00;  1.0000000E+04;  0.0000000E+00;  1.0000000E+04;0.0;0.0;0.0;0.0
  2.1400001E+00;  9.9999998E-03;  1.6000000E-01;884;0.0;0.0;0.0;1000.0;  4.0000001E-01;0.0;0;0.0;0.0;0.0;0;0.0;  1.0000000E+04;  0.0000000E+00;  0.0000000E+00;  1.0000000E+04;  0.0000000E+00;  1.0000000E+04;0.0;0.0;0.0;0.0
  2.1400001E+00;  9.9999998E-03;  1.8000001E-01;885;0.0;0.0;0.0;1000.0;  4.0000001E-01;0.0;0;0.0;0.0;0.0;0;0.0;  1.0000000E+04;  0.0000000E+00;  0.0000000E+00;  1.0000000E+04;  0.0000000E+00;  1.0000000E+04;0.0;0.0;0.0;0.0
  2.1400001E+00;  9.9999998E-03;  2.0000000E-01;886;0.0;0.0;0.0;1000.0;  4.0000001E-01;0.0;0;0.0;0.0;0.0;0;0.0;  1.0000000E+04;  0.0000000E+00;  0.0000000E+00;  1.0000000E+04;  0.0000000E+00;  1.0000000E+04;0.0;0.0;0.0;0.0
  2.1400001E+00;  9.9999998E-03;  2.2000000E-01;887;0.0;0.0;0.0;1000.0;  4.0000001E-01;0.0;0;0.0;0.0;0.0;0;0.0;  1.0000000E+04;  0.0000000E+00;  0.0000000E+00;  1.0000000E+04;  0.0000000E+00;  1.0000000E+04;0.0;0.0;0.0;0.0
  2.1400001E+00;  9.9999998E-03;  2.3999999E-01;888;0.0;0.0;0.0;1000.0;  4.0000001E-01;0.0;0;0.0;0.0;0.0;0;0.0;  1.0000000E+04;  0.0000000E+00;  0.0000000E+00;  1.0000000E+04;  0.0000000E+00;  1.0000000E+04;0.0;0.0;0.0;0.0
  2.1400001E+00;  9.9999998E-03;  2.5999999E-01;889;0.0;0.0;0.0;1000.0;  4.0000001E-01;0.0;0;0.0;0.0;0.0;0;0.0;  1.0000000E+04;  0.0000000E+00;  0.0000000E+00;  1.0000000E+04;  0.0000000E+00;  1.0000000E+04;0.0;0.0;0.0;0.0
  2.1400001E+00;  9.9999998E-03;  2.8000000E-01;890;0.0;0.0;0.0;1000.0;  4.0000001E-01;0.0;0;0.0;0.0;0.0;0;0.0;  1.0000000E+04;  0.0000000E+00;  0.0000000E+00;  1.0000000E+04;  0.0000000E+00;  1.0000000E+04;0.0;0.0;0.0;0.0
  2.1400001E+00;  9.9999998E-03;  3.0000001E-01;891;0.0;0.0;0.0;1000.0;  4.0000001E-01;0.0;0;0.0;0.0;0.0;0;0.0;  1.0000000E+04;  0.0000000E+00;  0.0000000E+00;  1.0000000E+04;  0.0000000E+00;  1.0000000E+04;0.0;0.0;0.0;0.0
  2.1400001E+00;  9.9999998E-03;  3.1999999E-01;892;0.0;0.0;0.0;1000.0;  4.0000001E-01;0.0;0;0.0;0.0;0.0;0;0.0;  1.0000000E+04;  0.0000000E+00;  0.0000000E+00;  1.0000000E+04;  0.0000000E+00;  1.0000000E+04;0.0;0.0;0.0;0.0
  2.1400001E+00;  9.9999998E-03;  3.4000000E-01;893;0.0;0.0;0.0;1000.0;  4.0000001E-01;0.0;0;0.0;0.0;0.0;0;0.0;  1.0000000E+04;  0.0000000E+00;  0.0000000E+00;  1.0000000E+04;  0.0000000E+00;  1.0000000E+04;0.0;0.0;0.0;0.0
  2.1400001E+00;  9.9999998E-03;  3.6000001E-01;894;0.0;0.0;0.0;1000.0;  4.0000001E-01;0.0;0;0.0;0.0;0.0;0;0.0;  1.0000000E+04;  0.0000000E+00;  0.0000000E+00;  1.0000000E+04;  0.0000000E+00;  1.0000000E+04;0.0;0.0;0.0;0.0
  2.1400001E+00;  9.9999998E-03;  3.8000000E-01;895;0.0;0.0;0.0;1000.0;  4.0000001E-01;0.0;0;0.0;0.0;0.0;0;0.0;  1.0000000E+04;  0.0000000E+00;  0.0000000E+00;  1.0000000E+04;  0.0000000E+00;  1.0000000E+04;0.0;0.0;0.0;0.0
  2.1400001E+00;  9.9999998E-03;  4.0000001E-01;896;0.0;0.0;0.0;1000.0;  4.0000001E-01;0.0;0;0.0;0.0;0.0;0;0.0;  1.0000000E+04;  0.0000000E+00;  0.0000000E+00;  1.0000000E+04;  0.0000000E+00;  1.0000000E+04;0.0;0.0;0.0;0.0
  2.1600001E+00;  9.9999998E-03; -2.8000000E-01;897;0.0;0.0;0.0;1000.0;  4.0000001E-01;0.0;0;0.0;0.0;0.0;0;0.0;  1.0000000E+04;  0.0000000E+00;  0.0000000E+00;  1.0000000E+04;  0.0000000E+00;  1.0000000E+04;0.0;0.0;0.0;0.0
  2.1600001E+00;  9.9999998E-03; -2.5999999E-01;898;0.0;0.0;0.0;1000.0;  4.0000001E-01;0.0;0;0.0;0.0;0.0;0;0.0;  1.0000000E+04;  0.0000000E+00;  0.0000000E+00;  1.0000000E+04;  0.0000000E+00;  1.0000000E+04;0.0;0.0;0.0;0.0
  2.1600001E+00;  9.9999998E-03; -2.3999999E-01;899;0.0;0.0;0.0;1000.0;  4.0000001E-01;0.0;0;0.0;0.0;0.0;0;0.0;  1.0000000E+04;  0.0000000E+00;  0.0000000E+00;  1.0000000E+04;  0.0000000E+00;  1.0000000E+04;0.0;0.0;0.0;0.0
  2.1600001E+00;  9.9999998E-03; -2.2000000E-01;900;0.0;0.0;0.0;1000.0;  4.0000001E-01;0.0;0;0.0;0.0;0.0;0;0.0;  1.0000000E+04;  0.0000000E+00;  0.0000000E+00;  1.0000000E+04;  0.0000000E+00;  1.0000000E+04;0.0;0.0;0.0;0.0
  2.1600001E+00;  9.9999998E-03; -2.0000000E-01;901;0.0;0.0;0.0;1000.0;  4.0000001E-01;0.0;0;0.0;0.0;0.0;0;0.0;  1.0000000E+04;  0.0000000E+00;  0.0000000E+00;  1.0000000E+04;  0.0000000E+00;  1.0000000E+04;0.0;0.0;0.0;0.0
  2.1600001E+00;  9.9999998E-03; -1.8000001E-01;902;0.0;0.0;0.0;1000.0;  4.0000001E-01;0.0;0;0.0;0.0;0.0;0;0.0;  1.0000000E+04;  0.0000000E+00;  0.0000000E+00;  1.0000000E+04;  0.0000000E+00;  1.0000000E+04;0.0;0.0;0.0;0.0
  2.1600001E+00;  9.9999998E-03; -1.6000000E-01;903;0.0;0.0;0.0;1000.0;  4.0000001E-01;0.0;0;0.0;0.0;0.0;0;0.0;  1.0000000E+04;  0.0000000E+00;  0.0000000E+00;  1.0000000E+04;  0.0000000E+00;  1.0000000E+04;0.0;0.0;0.0;0.0
  2.1600001E+00;  9.9999998E-03; -1.4000000E-01;904;0.0;0.0;0.0;1000.0;  4.0000001E-01;0.0;0;0.0;0.0;0.0;0;0.0;  1.0000000E+04;  0.0000000E+00;  0.0000000E+00;  1.0000000E+04;  0.0000000E+00;  1.0000000E+04;0.0;0.0;0.0;0.0
  2.1600001E+00;  9.9999998E-03; -1.2000000E-01;905;0.0;0.0;0.0;1000.0;  4.0000001E-01;0.0;0;0.0;0.0;0.0;0;0.0;  1.0000000E+04;  0.0000000E+00;  0.0000000E+00;  1.0000000E+04;  0.0000000E+00;  1.0000000E+04;0.0;0.0;0.0;0.0
  2.1600001E+00;  9.9999998E-03; -1.0000000E-01;906;0.0;0.0;0.0;1000.0;  4.0000001E-01;0.0;0;0.0;0.0;0.0;0;0.0;  1.0000000E+04;  0.0000000E+00;  0.0000000E+00;  1.0000000E+04;  0.0000000E+00;  1.0000000E+04;0.0;0.0;0.0;0.0
  2.1600001E+00;  9.9999998E-03; -7.9999998E-02;907;0.0;0.0;0.0;1000.0;  4.0000001E-01;0.0;0;0.0;0.0;0.0;0;0.0;  1.0000000E+04;  0.0000000E+00;  0.0000000E+00;  1.0000000E+04;  0.0000000E+00;  1.0000000E+04;0.0;0.0;0.0;0.0
  2.1600001E+00;  9.9999998E-03; -5.9999999E-02;908;0.0;0.0;0.0;1000.0;  4.0000001E-01;0.0;0;0.0;0.0;0.0;0;0.0;  1.0000000E+04;  0.0000000E+00;  0.0000000E+00;  1.0000000E+04;  0.0000000E+00;  1.0000000E+04;0.0;0.0;0.0;0.0
  2.1600001E+00;  9.9999998E-03; -3.9999999E-02;909;0.0;0.0;0.0;1000.0;  4.0000001E-01;0.0;0;0.0;0.0;0.0;0;0.0;  1.0000000E+04;  0.0000000E+00;  0.0000000E+00;  1.0000000E+04;  0.0000000E+00;  1.0000000E+04;0.0;0.0;0.0;0.0
  2.1600001E+00;  9.9999998E-03; -2.0000000E-02;910;0.0;0.0;0.0;1000.0;  4.0000001E-01;0.0;0;0.0;0.0;0.0;0;0.0;  1.0000000E+04;  0.0000000E+00;  0.0000000E+00;  1.0000000E+04;  0.0000000E+00;  1.0000000E+04;0.0;0.0;0.0;0.0
  2.1600001E+00;  9.9999998E-03;  0.0000000E+00;911;0.0;0.0;0.0;1000.0;  4.0000001E-01;0.0;0;0.0;0.0;0.0;0;0.0;  1.0000000E+04;  0.0000000E+00;  0.0000000E+00;  1.0000000E+04;  0.0000000E+00;  1.0000000E+04;0.0;0.0;0.0;0.0
  2.1600001E+00;  9.9999998E-03;  2.0000000E-02;912;0.0;0.0;0.0;1000.0;  4.0000001E-01;0.0;0;0.0;0.0;0.0;0;0.0;  1.0000000E+04;  0.0000000E+00;  0.0000000E+00;  1.0000000E+04;  0.0000000E+00;  1.0000000E+04;0.0;0.0;0.0;0.0
  2.1600001E+00;  9.9999998E-03;  3.9999999E-02;913;0.0;0.0;0.0;1000.0;  4.0000001E-01;0.0;0;0.0;0.0;0.0;0;0.0;  1.0000000E+04;  0.0000000E+00;  0.0000000E+00;  1.0000000E+04;  0.0000000E+00;  1.0000000E+04;0.0;0.0;0.0;0.0
  2.1600001E+00;  9.9999998E-03;  5.9999999E-02;914;0.0;0.0;0.0;1000.0;  4.0000001E-01;0.0;0;0.0;0.0;0.0;0;0.0;  1.0000000E+04;  0.0000000E+00;  0.0000000E+00;  1.0000000E+04;  0.0000000E+00;  1.0000000E+04;0.0;0.0;0.0;0.0
  2.1600001E+00;  9.9999998E-03;  7.9999998E-02;915;0.0;0.0;0.0;1000.0;  4.0000001E-01;0.0;0;0.0;0.0;0.0;0;0.0;  1.0000000E+04;  0.0000000E+00;  0.0000000E+00;  1.0000000E+04;  0.0000000E+00;  1.0000000E+04;0.0;0.0;0.0;0.0
  2.1600001E+00;  9.9999998E-03;  1.0000000E-01;916;0.0;0.0;0.0;1000.0;  4.0000001E-01;0.0;0;0.0;0.0;0.0;0;0.0;  1.0000000E+04;  0.0000000E+00;  0.0000000E+00;  1.0000000E+04;  0.0000000E+00;  1.0000000E+04;0.0;0.0;0.0;0.0
  2.1600001E+00;  9.9999998E-03;  1.2000000E-01;917;0.0;0.0;0.0;1000.0;  4.0000001E-01;0.0;0;0.0;0.0;0.0;0;0.0;  1.0000000E+04;  0.0000000E+00;  0.0000000E+00;  1.0000000E+04;  0.0000000E+00;  1.0000000E+04;0.0;0.0;0.0;0.0
  2.1600001E+00;  9.9999998E-03;  1.4000000E-01;918;0.0;0.0;0.0;1000.0;  4.0000001E-01;0.0;0;0.0;0.0;0.0;0;0.0;  1.0000000E+04;  0.0000000E+00;  0.0000000E+00;  1.0000000E+04;  0.0000000E+00;  1.0000000E+04;0.0;0.0;0.0;0.0
  2.1600001E+00;  9.9999998E-03;  1.6000000E-01;919;0.0;0.0;0.0;1000.0;  4.0000001E-01;0.0;0;0.0;0.0;0.0;0;0.0;  1.0000000E+04;  0.0000000E+00;  0.0000000E+00;  1.0000000E+04;  0.0000000E+00;  1.0000000E+04;0.0;0.0;0.0;0.0
  2.1600001E+00;  9.9999998E-03;  1.8000001E-01;920;0.0;0.0;0.0;1000.0;  4.0000001E-01;0.0;0;0.0;0.0;0.0;0;0.0;  1.0000000E+04;  0.0000000E+00;  0.0000000E+00;  1.0000000E+04;  0.0000000E+00;  1.0000000E+04;0.0;0.0;0.0;0.0
  2.1600001E+00;  9.9999998E-03;  2.0000000E-01;921;0.0;0.0;0.0;1000.0;  4.0000001E-01;0.0;0;0.0;0.0;0.0;0;0.0;  1.0000000E+04;  0.0000000E+00;  0.0000000E+00;  1.0000000E+04;  0.0000000E+00;  1.0000000E+04;0.0;0.0;0.0;0.0
  2.1600001E+00;  9.9999998E-03;  2.2000000E-01;922;0.0;0.0;0.0;1000.0;  4.0000001E-01;0.0;0;0.0;0.0;0.0;0;0.0;  1.0000000E+04;  0.0000000E+00;  0.0000000E+00;  1.0000000E+04;  0.0000000E+00;  1.0000000E+04;0.0;0.0;0.0;0.0
  2.1600001E+00;  9.9999998E-03;  2.3999999E-01;923;0.0;0.0;0.0;1000.0;  4.0000001E-01;0.0;0;0.0;0.0;0.0;0;0.0;  1.0000000E+04;  0.0000000E+00;  0.0000000E+00;  1.0000000E+04;  0.0000000E+00;  1.0000000E+04;0.0;0.0;0.0;0.0
  2.1600001E+00;  9.9999998E-03;  2.5999999E-01;924;0.0;0.0;0.0;1000.0;  4.0000001E-01;0.0;0;0.0;0.0;0.0;0;0.0;  1.0000000E+04;  0.0000000E+00;  0.0000000E+00;  1.0000000E+04;  0.0000000E+00;  1.0000000E+04;0.0;0.0;0.0;0.0
  2.1600001E+00;  9.9999998E-03;  2.8000000E-01;925;0.0;0.0;0.0;1000.0;  4.0000001E-01;0.0;0;0.0;0.0;0.0;0;0.0;  1.0000000E+04;  0.0000000E+00;  0.0000000E+00;  1.0000000E+04;  0.0000000E+00;  1.0000000E+04;0.0;0.0;0.0;0.0
  2.1600001E+00;  9.9999998E-03;  3.0000001E-01;926;0.0;0.0;0.0;1000.0;  4.0000001E-01;0.0;0;0.0;0.0;0.0;0;0.0;  1.0000000E+04;  0.0000000E+00;  0.0000000E+00;  1.0000000E+04;  0.0000000E+00;  1.0000000E+04;0.0;0.0;0.0;0.0
  2.1600001E+00;  9.9999998E-03;  3.1999999E-01;927;0.0;0.0;0.0;1000.0;  4.0000001E-01;0.0;0;0.0;0.0;0.0;0;0.0;  1.0000000E+04;  0.0000000E+00;  0.0000000E+00;  1.0000000E+04;  0.0000000E+00;  1.0000000E+04;0.0;0.0;0.0;0.0
  2.1600001E+00;  9.9999998E-03;  3.4000000E-01;928;0.0;0.0;0.0;1000.0;  4.0000001E-01;0.0;0;0.0;0.0;0.0;0;0.0;  1.0000000E+04;  0.0000000E+00;  0.0000000E+00;  1.0000000E+04;  0.0000000E+00;  1.0000000E+04;0.0;0.0;0.0;0.0
  2.1600001E+00;  9.9999998E-03;  3.6000001E-01;929;0.0;0.0;0.0;1000.0;  4.0000001E-01;0.0;0;0.0;0.0;0.0;0;0.0;  1.0000000E+04;  0.0000000E+00;  0.0000000E+00;  1.0000000E+04;  0.0000000E+00;  1.0000000E+04;0.0;0.0;0.0;0.0
  2.1600001E+00;  9.9999998E-03;  3.8000000E-01;930;0.0;0.0;0.0;1000.0;  4.0000001E-01;0.0;0;0.0;0.0;0.0;0;0.0;  1.0000000E+04;  0.0000000E+00;  0.0000000E+00;  1.0000000E+04;  0.0000000E+00;  1.0000000E+04;0.0;0.0;0.0;0.0
  2.1600001E+00;  9.9999998E-03;  4.0000001E-01;931;0.0;0.0;0.0;1000.0;  4.0000001E-01;0.0;0;0.0;0.0;0.0;0;0.0;  1.0000000E+04;  0.0000000E+00;  0.0000000E+00;  1.0000000E+04;  0.0000000E+00;  1.0000000E+04;0.0;0.0;0.0;0.0
  2.1800001E+00;  9.9999998E-03; -1.8000001E-01;932;0.0;0.0;0.0;1000.0;  4.0000001E-01;0.0;0;0.0;0.0;0.0;0;0.0;  1.0000000E+04;  0.0000000E+00;  0.0000000E+00;  1.0000000E+04;  0.0000000E+00;  1.0000000E+04;0.0;0.0;0.0;0.0
  2.1800001E+00;  9.9999998E-03; -1.6000000E-01;933;0.0;0.0;0.0;1000.0;  4.0000001E-01;0.0;0;0.0;0.0;0.0;0;0.0;  1.0000000E+04;  0.0000000E+00;  0.0000000E+00;  1.0000000E+04;  0.0000000E+00;  1.0000000E+04;0.0;0.0;0.0;0.0
  2.1800001E+00;  9.9999998E-03; -1.4000000E-01;934;0.0;0.0;0.0;1000.0;  4.0000001E-01;0.0;0;0.0;0.0;0.0;0;0.0;  1.0000000E+04;  0.0000000E+00;  0.0000000E+00;  1.0000000E+04;  0.0000000E+00;  1.0000000E+04;0.0;0.0;0.0;0.0
  2.1800001E+00;  9.9999998E-03; -1.2000000E-01;935;0.0;0.0;0.0;1000.0;  4.0000001E-01;0.0;0;0.0;0.0;0.0;0;0.0;  1.0000000E+04;  0.0000000E+00;  0.0000000E+00;  1.0000000E+04;  0.0000000E+00;  1.0000000E+04;0.0;0.0;0.0;0.0
  2.1800001E+00;  9.9999998E-03; -1.0000000E-01;936;0.0;0.0;0.0;1000.0;  4.0000001E-01;0.0;0;0.0;0.0;0.0;0;0.0;  1.0000000E+04;  0.0000000E+00;  0.0000000E+00;  1.0000000E+04;  0.0000000E+00;  1.0000000E+04;0.0;0.0;0.0;0.0
  2.1800001E+00;  9.9999998E-03; -7.9999998E-02;937;0.0;0.0;0.0;1000.0;  4.0000001E-01;0.0;0;0.0;0.0;0.0;0;0.0;  1.0000000E+04;  0.0000000E+00;  0.0000000E+00;  1.0000000E+04;  0.0000000E+00;  1.0000000E+04;0.0;0.0;0.0;0.0
  2.1800001E+00;  9.9999998E-03; -5.9999999E-02;938;0.0;0.0;0.0;1000.0;  4.0000001E-01;0.0;0;0.0;0.0;0.0;0;0.0;  1.0000000E+04;  0.0000000E+00;  0.0000000E+00;  1.0000000E+04;  0.0000000E+00;  1.0000000E+04;0.0;0.0;0.0;0.0
  2.1800001E+00;  9.9999998E-03; -3.9999999E-02;939;0.0;0.0;0.0;1000.0;  4.0000001E-01;0.0;0;0.0;0.0;0.0;0;0.0;  1.0000000E+04;  0.0000000E+00;  0.0000000E+00;  1.0000000E+04;  0.0000000E+00;  1.0000000E+04;0.0;0.0;0.0;0.0
  2.1800001E+00;  9.9999998E-03; -2.0000000E-02;940;0.0;0.0;0.0;1000.0;  4.0000001E-01;0.0;0;0.0;0.0;0.0;0;0.0;  1.0000000E+04;  0.0000000E+00;  0.0000000E+00;  1.0000000E+04;  0.0000000E+00;  1.0000000E+04;0.0;0.0;0.0;0.0
  2.1800001E+00;  9.9999998E-03;  0.0000000E+00;941;0.0;0.0;0.0;1000.0;  4.0000001E-01;0.0;0;0.0;0.0;0.0;0;0.0;  1.0000000E+04;  0.0000000E+00;  0.0000000E+00;  1.0000000E+04;  0.0000000E+00;  1.0000000E+04;0.0;0.0;0.0;0.0
  2.1800001E+00;  9.9999998E-03;  2.0000000E-02;942;0.0;0.0;0.0;1000.0;  4.0000001E-01;0.0;0;0.0;0.0;0.0;0;0.0;  1.0000000E+04;  0.0000000E+00;  0.0000000E+00;  1.0000000E+04;  0.0000000E+00;  1.0000000E+04;0.0;0.0;0.0;0.0
  2.1800001E+00;  9.9999998E-03;  3.9999999E-02;943;0.0;0.0;0.0;1000.0;  4.0000001E-01;0.0;0;0.0;0.0;0.0;0;0.0;  1.0000000E+04;  0.0000000E+00;  0.0000000E+00;  1.0000000E+04;  0.0000000E+00;  1.0000000E+04;0.0;0.0;0.0;0.0
  2.1800001E+00;  9.9999998E-03;  5.9999999E-02;944;0.0;0.0;0.0;1000.0;  4.0000001E-01;0.0;0;0.0;0.0;0.0;0;0.0;  1.0000000E+04;  0.0000000E+00;  0.0000000E+00;  1.0000000E+04;  0.0000000E+00;  1.0000000E+04;0.0;0.0;0.0;0.0
  2.1800001E+00;  9.9999998E-03;  7.9999998E-02;945;0.0;0.0;0.0;1000.0;  4.0000001E-01;0.0;0;0.0;0.0;0.0;0;0.0;  1.0000000E+04;  0.0000000E+00;  0.0000000E+00;  1.0000000E+04;  0.0000000E+00;  1.0000000E+04;0.0;0.0;0.0;0.0
  2.1800001E+00;  9.9999998E-03;  1.0000000E-01;946;0.0;0.0;0.0;1000.0;  4.0000001E-01;0.0;0;0.0;0.0;0.0;0;0.0;  1.0000000E+04;  0.0000000E+00;  0.0000000E+00;  1.0000000E+04;  0.0000000E+00;  1.0000000E+04;0.0;0.0;0.0;0.0
  2.1800001E+00;  9.9999998E-03;  1.2000000E-01;947;0.0;0.0;0.0;1000.0;  4.0000001E-01;0.0;0;0.0;0.0;0.0;0;0.0;  1.0000000E+04;  0.0000000E+00;  0.0000000E+00;  1.0000000E+04;  0.0000000E+00;  1.0000000E+04;0.0;0.0;0.0;0.0
  2.1800001E+00;  9.9999998E-03;  1.4000000E-01;948;0.0;0.0;0.0;1000.0;  4.0000001E-01;0.0;0;0.0;0.0;0.0;0;0.0;  1.0000000E+04;  0.0000000E+00;  0.0000000E+00;  1.0000000E+04;  0.0000000E+00;  1.0000000E+04;0.0;0.0;0.0;0.0
  2.1800001E+00;  9.9999998E-03;  1.6000000E-01;949;0.0;0.0;0.0;1000.0;  4.0000001E-01;0.0;0;0.0;0.0;0.0;0;0.0;  1.0000000E+04;  0.0000000E+00;  0.0000000E+00;  1.0000000E+04;  0.0000000E+00;  1.0000000E+04;0.0;0.0;0.0;0.0
  2.1800001E+00;  9.9999998E-03;  1.8000001E-01;950;0.0;0.0;0.0;1000.0;  4.0000001E-01;0.0;0;0.0;0.0;0.0;0;0.0;  1.0000000E+04;  0.0000000E+00;  0.0000000E+00;  1.0000000E+04;  0.0000000E+00;  1.0000000E+04;0.0;0.0;0.0;0.0
  2.1800001E+00;  9.9999998E-03;  2.0000000E-01;951;0.0;0.0;0.0;1000.0;  4.0000001E-01;0.0;0;0.0;0.0;0.0;0;0.0;  1.0000000E+04;  0.0000000E+00;  0.0000000E+00;  1.0000000E+04;  0.0000000E+00;  1.0000000E+04;0.0;0.0;0.0;0.0
  2.1800001E+00;  9.9999998E-03;  2.2000000E-01;952;0.0;0.0;0.0;1000.0;  4.0000001E-01;0.0;0;0.0;0.0;0.0;0;0.0;  1.0000000E+04;  0.0000000E+00;  0.0000000E+00;  1.0000000E+04;  0.0000000E+00;  1.0000000E+04;0.0;0.0;0.0;0.0
  2.1800001E+00;  9.9999998E-03;  2.3999999E-01;953;0.0;0.0;0.0;1000.0;  4.0000001E-01;0.0;0;0.0;0.0;0.0;0;0.0;  1.0000000E+04;  0.0000000E+00;  0.0000000E+00;  1.0000000E+04;  0.0000000E+00;  1.0000000E+04;0.0;0.0;0.0;0.0
  2.1800001E+00;  9.9999998E-03;  2.5999999E-01;954;0.0;0.0;0.0;1000.0;  4.0000001E-01;0.0;0;0.0;0.0;0.0;0;0.0;  1.0000000E+04;  0.0000000E+00;  0.0000000E+00;  1.0000000E+04;  0.0000000E+00;  1.0000000E+04;0.0;0.0;0.0;0.0
  2.1800001E+00;  9.9999998E-03;  2.8000000E-01;955;0.0;0.0;0.0;1000.0;  4.0000001E-01;0.0;0;0.0;0.0;0.0;0;0.0;  1.0000000E+04;  0.0000000E+00;  0.0000000E+00;  1.0000000E+04;  0.0000000E+00;  1.0000000E+04;0.0;0.0;0.0;0.0
  2.1800001E+00;  9.9999998E-03;  3.0000001E-01;956;0.0;0.0;0.0;1000.0;  4.0000001E-01;0.0;0;0.0;0.0;0.0;0;0.0;  1.0000000E+04;  0.0000000E+00;  0.0000000E+00;  1.0000000E+04;  0.0000000E+00;  1.0000000E+04;0.0;0.0;0.0;0.0
  2.1800001E+00;  9.9999998E-03;  3.1999999E-01;957;0.0;0.0;0.0;1000.0;  4.0000001E-01;0.0;0;0.0;0.0;0.0;0;0.0;  1.0000000E+04;  0.0000000E+00;  0.0000000E+00;  1.0000000E+04;  0.0000000E+00;  1.0000000E+04;0.0;0.0;0.0;0.0
  2.1800001E+00;  9.9999998E-03;  3.4000000E-01;958;0.0;0.0;0.0;1000.0;  4.0000001E-01;0.0;0;0.0;0.0;0.0;0;0.0;  1.0000000E+04;  0.0000000E+00;  0.0000000E+00;  1.0000000E+04;  0.0000000E+00;  1.0000000E+04;0.0;0.0;0.0;0.0
  2.1800001E+00;  9.9999998E-03;  3.6000001E-01;959;0.0;0.0;0.0;1000.0;  4.0000001E-01;0.0;0;0.0;0.0;0.0;0;0.0;  1.0000000E+04;  0.0000000E+00;  0.0000000E+00;  1.0000000E+04;  0.0000000E+00;  1.0000000E+04;0.0;0.0;0.0;0.0
  2.1800001E+00;  9.9999998E-03;  3.8000000E-01;960;0.0;0.0;0.0;1000.0;  4.0000001E-01;0.0;0;0.0;0.0;0.0;0;0.0;  1.0000000E+04;  0.0000000E+00;  0.0000000E+00;  1.0000000E+04;  0.0000000E+00;  1.0000000E+04;0.0;0.0;0.0;0.0
  2.1800001E+00;  9.9999998E-03;  4.0000001E-01;961;0.0;0.0;0.0;1000.0;  4.0000001E-01;0.0;0;0.0;0.0;0.0;0;0.0;  1.0000000E+04;  0.0000000E+00;  0.0000000E+00;  1.0000000E+04;  0.0000000E+00;  1.0000000E+04;0.0;0.0;0.0;0.0
  2.2000000E+00;  9.9999998E-03; -7.9999998E-02;962;0.0;0.0;0.0;1000.0;  4.0000001E-01;0.0;0;0.0;0.0;0.0;0;0.0;  1.0000000E+04;  0.0000000E+00;  0.0000000E+00;  1.0000000E+04;  0.0000000E+00;  1.0000000E+04;0.0;0.0;0.0;0.0
  2.2000000E+00;  9.9999998E-03; -5.9999999E-02;963;0.0;0.0;0.0;1000.0;  4.0000001E-01;0.0;0;0.0;0.0;0.0;0;0.0;  1.0000000E+04;  0.0000000E+00;  0.0000000E+00;  1.0000000E+04;  0.0000000E+00;  1.0000000E+04;0.0;0.0;0.0;0.0
  2.2000000E+00;  9.9999998E-03; -3.9999999E-02;964;0.0;0.0;0.0;1000.0;  4.0000001E-01;0.0;0;0.0;0.0;0.0;0;0.0;  1.0000000E+04;  0.0000000E+00;  0.0000000E+00;  1.0000000E+04;  0.0000000E+00;  1.0000000E+04;0.0;0.0;0.0;0.0
  2.2000000E+00;  9.9999998E-03; -2.0000000E-02;965;0.0;0.0;0.0;1000.0;  4.0000001E-01;0.0;0;0.0;0.0;0.0;0;0.0;  1.0000000E+04;  0.0000000E+00;  0.0000000E+00;  1.0000000E+04;  0.0000000E+00;  1.0000000E+04;0.0;0.0;0.0;0.0
  2.2000000E+00;  9.9999998E-03;  0.0000000E+00;966;0.0;0.0;0.0;1000.0;  4.0000001E-01;0.0;0;0.0;0.0;0.0;0;0.0;  1.0000000E+04;  0.0000000E+00;  0.0000000E+00;  1.0000000E+04;  0.0000000E+00;  1.0000000E+04;0.0;0.0;0.0;0.0
  2.2000000E+00;  9.9999998E-03;  2.0000000E-02;967;0.0;0.0;0.0;1000.0;  4.0000001E-01;0.0;0;0.0;0.0;0.0;0;0.0;  1.0000000E+04;  0.0000000E+00;  0.0000000E+00;  1.0000000E+04;  0.0000000E+00;  1.0000000E+04;0.0;0.0;0.0;0.0
  2.2000000E+00;  9.9999998E-03;  3.9999999E-02;968;0.0;0.0;0.0;1000.0;  4.0000001E-01;0.0;0;0.0;0.0;0.0;0;0.0;  1.0000000E+04;  0.0000000E+00;  0.0000000E+00;  1.0000000E+04;  0.0000000E+00;  1.0000000E+04;0.0;0.0;0.0;0.0
  2.2000000E+00;  9.9999998E-03;  5.9999999E-02;969;0.0;0.0;0.0;1000.0;  4.0000001E-01;0.0;0;0.0;0.0;0.0;0;0.0;  1.0000000E+04;  0.0000000E+00;  0.0000000E+00;  1.0000000E+04;  0.0000000E+00;  1.0000000E+04;0.0;0.0;0.0;0.0
  2.2000000E+00;  9.9999998E-03;  7.9999998E-02;970;0.0;0.0;0.0;1000.0;  4.0000001E-01;0.0;0;0.0;0.0;0.0;0;0.0;  1.0000000E+04;  0.0000000E+00;  0.0000000E+00;  1.0000000E+04;  0.0000000E+00;  1.0000000E+04;0.0;0.0;0.0;0.0
  2.2000000E+00;  9.9999998E-03;  1.0000000E-01;971;0.0;0.0;0.0;1000.0;  4.0000001E-01;0.0;0;0.0;0.0;0.0;0;0.0;  1.0000000E+04;  0.0000000E+00;  0.0000000E+00;  1.0000000E+04;  0.0000000E+00;  1.0000000E+04;0.0;0.0;0.0;0.0
  2.2000000E+00;  9.9999998E-03;  1.2000000E-01;972;0.0;0.0;0.0;1000.0;  4.0000001E-01;0.0;0;0.0;0.0;0.0;0;0.0;  1.0000000E+04;  0.0000000E+00;  0.0000000E+00;  1.0000000E+04;  0.0000000E+00;  1.0000000E+04;0.0;0.0;0.0;0.0
  2.2000000E+00;  9.9999998E-03;  1.4000000E-01;973;0.0;0.0;0.0;1000.0;  4.0000001E-01;0.0;0;0.0;0.0;0.0;0;0.0;  1.0000000E+04;  0.0000000E+00;  0.0000000E+00;  1.0000000E+04;  0.0000000E+00;  1.0000000E+04;0.0;0.0;0.0;0.0
  2.2000000E+00;  9.9999998E-03;  1.6000000E-01;974;0.0;0.0;0.0;1000.0;  4.0000001E-01;0.0;0;0.0;0.0;0.0;0;0.0;  1.0000000E+04;  0.0000000E+00;  0.0000000E+00;  1.0000000E+04;  0.0000000E+00;  1.0000000E+04;0.0;0.0;0.0;0.0
  2.2000000E+00;  9.9999998E-03;  1.8000001E-01;975;0.0;0.0;0.0;1000.0;  4.0000001E-01;0.0;0;0.0;0.0;0.0;0;0.0;  1.0000000E+04;  0.0000000E+00;  0.0000000E+00;  1.0000000E+04;  0.0000000E+00;  1.0000000E+04;0.0;0.0;0.0;0.0
  2.2000000E+00;  9.9999998E-03;  2.0000000E-01;976;0.0;0.0;0.0;1000.0;  4.0000001E-01;0.0;0;0.0;0.0;0.0;0;0.0;  1.0000000E+04;  0.0000000E+00;  0.0000000E+00;  1.0000000E+04;  0.0000000E+00;  1.0000000E+04;0.0;0.0;0.0;0.0
  2.2000000E+00;  9.9999998E-03;  2.2000000E-01;977;0.0;0.0;0.0;1000.0;  4.0000001E-01;0.0;0;0.0;0.0;0.0;0;0.0;  1.0000000E+04;  0.0000000E+00;  0.0000000E+00;  1.0000000E+04;  0.0000000E+00;  1.0000000E+04;0.0;0.0;0.0;0.0
  2.2000000E+00;  9.9999998E-03;  2.3999999E-01;978;0.0;0.0;0.0;1000.0;  4.0000001E-01;0.0;0;0.0;0.0;0.0;0;0.0;  1.0000000E+04;  0.0000000E+00;  0.0000000E+00;  1.0000000E+04;  0.0000000E+00;  1.0000000E+04;0.0;0.0;0.0;0.0
  2.2000000E+00;  9.9999998E-03;  2.5999999E-01;979;0.0;0.0;0.0;1000.0;  4.0000001E-01;0.0;0;0.0;0.0;0.0;0;0.0;  1.0000000E+04;  0.0000000E+00;  0.0000000E+00;  1.0000000E+04;  0.0000000E+00;  1.0000000E+04;0.0;0.0;0.0;0.0
  2.2000000E+00;  9.9999998E-03;  2.8000000E-01;980;0.0;0.0;0.0;1000.0;  4.0000001E-01;0.0;0;0.0;0.0;0.0;0;0.0;  1.0000000E+04;  0.0000000E+00;  0.0000000E+00;  1.0000000E+04;  0.0000000E+00;  1.0000000E+04;0.0;0.0;0.0;0.0
  2.2000000E+00;  9.9999998E-03;  3.0000001E-01;981;0.0;0.0;0.0;1000.0;  4.0000001E-01;0.0;0;0.0;0.0;0.0;0;0.0;  1.0000000E+04;  0.0000000E+00;  0.0000000E+00;  1.0000000E+04;  0.0000000E+00;  1.0000000E+04;0.0;0.0;0.0;0.0
  2.2000000E+00;  9.9999998E-03;  3.1999999E-01;982;0.0;0.0;0.0;1000.0;  4.0000001E-01;0.0;0;0.0;0.0;0.0;0;0.0;  1.0000000E+04;  0.0000000E+00;  0.0000000E+00;  1.0000000E+04;  0.0000000E+00;  1.0000000E+04;0.0;0.0;0.0;0.0
  2.2000000E+00;  9.9999998E-03;  3.4000000E-01;983;0.0;0.0;0.0;1000.0;  4.0000001E-01;0.0;0;0.0;0.0;0.0;0;0.0;  1.0000000E+04;  0.0000000E+00;  0.0000000E+00;  1.0000000E+04;  0.0000000E+00;  1.0000000E+04;0.0;0.0;0.0;0.0
  2.2000000E+00;  9.9999998E-03;  3.6000001E-01;984;0.0;0.0;0.0;1000.0;  4.0000001E-01;0.0;0;0.0;0.0;0.0;0;0.0;  1.0000000E+04;  0.0000000E+00;  0.0000000E+00;  1.0000000E+04;  0.0000000E+00;  1.0000000E+04;0.0;0.0;0.0;0.0
  2.2000000E+00;  9.9999998E-03;  3.8000000E-01;985;0.0;0.0;0.0;1000.0;  4.0000001E-01;0.0;0;0.0;0.0;0.0;0;0.0;  1.0000000E+04;  0.0000000E+00;  0.0000000E+00;  1.0000000E+04;  0.0000000E+00;  1.0000000E+04;0.0;0.0;0.0;0.0
  2.2200000E+00;  9.9999998E-03;  2.0000000E-02;986;0.0;0.0;0.0;1000.0;  4.0000001E-01;0.0;0;0.0;0.0;0.0;0;0.0;  1.0000000E+04;  0.0000000E+00;  0.0000000E+00;  1.0000000E+04;  0.0000000E+00;  1.0000000E+04;0.0;0.0;0.0;0.0
  2.2200000E+00;  9.9999998E-03;  3.9999999E-02;987;0.0;0.0;0.0;1000.0;  4.0000001E-01;0.0;0;0.0;0.0;0.0;0;0.0;  1.0000000E+04;  0.0000000E+00;  0.0000000E+00;  1.0000000E+04;  0.0000000E+00;  1.0000000E+04;0.0;0.0;0.0;0.0
  2.2200000E+00;  9.9999998E-03;  5.9999999E-02;988;0.0;0.0;0.0;1000.0;  4.0000001E-01;0.0;0;0.0;0.0;0.0;0;0.0;  1.0000000E+04;  0.0000000E+00;  0.0000000E+00;  1.0000000E+04;  0.0000000E+00;  1.0000000E+04;0.0;0.0;0.0;0.0
  2.2200000E+00;  9.9999998E-03;  7.9999998E-02;989;0.0;0.0;0.0;1000.0;  4.0000001E-01;0.0;0;0.0;0.0;0.0;0;0.0;  1.0000000E+04;  0.0000000E+00;  0.0000000E+00;  1.0000000E+04;  0.0000000E+00;  1.0000000E+04;0.0;0.0;0.0;0.0
  2.2200000E+00;  9.9999998E-03;  1.0000000E-01;990;0.0;0.0;0.0;1000.0;  4.0000001E-01;0.0;0;0.0;0.0;0.0;0;0.0;  1.0000000E+04;  0.0000000E+00;  0.0000000E+00;  1.0000000E+04;  0.0000000E+00;  1.0000000E+04;0.0;0.0;0.0;0.0
  2.2200000E+00;  9.9999998E-03;  1.2000000E-01;991;0.0;0.0;0.0;1000.0;  4.0000001E-01;0.0;0;0.0;0.0;0.0;0;0.0;  1.0000000E+04;  0.0000000E+00;  0.0000000E+00;  1.0000000E+04;  0.0000000E+00;  1.0000000E+04;0.0;0.0;0.0;0.0
  2.2200000E+00;  9.9999998E-03;  1.4000000E-01;992;0.0;0.0;0.0;1000.0;  4.0000001E-01;0.0;0;0.0;0.0;0.0;0;0.0;  1.0000000E+04;  0.0000000E+00;  0.0000000E+00;  1.0000000E+04;  0.0000000E+00;  1.0000000E+04;0.0;0.0;0.0;0.0
  2.2200000E+00;  9.9999998E-03;  1.6000000E-01;993;0.0;0.0;0.0;1000.0;  4.0000001E-01;0.0;0;0.0;0.0;0.0;0;0.0;  1.0000000E+04;  0.0000000E+00;  0.0000000E+00;  1.0000000E+04;  0.0000000E+00;  1.0000000E+04;0.0;0.0;0.0;0.0
  2.2200000E+00;  9.9999998E-03;  1.8000001E-01;994;0.0;0.0;0.0;1000.0;  4.0000001E-01;0.0;0;0.0;0.0;0.0;0;0.0;  1.0000000E+04;  0.0000000E+00;  0.0000000E+00;  1.0000000E+04;  0.0000000E+00;  1.0000000E+04;0.0;0.0;0.0;0.0
  2.2200000E+00;  9.9999998E-03;  2.0000000E-01;995;0.0;0.0;0.0;1000.0;  4.0000001E-01;0.0;0;0.0;0.0;0.0;0;0.0;  1.0000000E+04;  0.0000000E+00;  0.0000000E+00;  1.0000000E+04;  0.0000000E+00;  1.0000000E+04;0.0;0.0;0.0;0.0
  2.2200000E+00;  9.9999998E-03;  2.2000000E-01;996;0.0;0.0;0.0;1000.0;  4.0000001E-01;0.0;0;0.0;0.0;0.0;0;0.0;  1.0000000E+04;  0.0000000E+00;  0.0000000E+00;  1.0000000E+04;  0.0000000E+00;  1.0000000E+04;0.0;0.0;0.0;0.0
  2.2200000E+00;  9.9999998E-03;  2.3999999E-01;997;0.0;0.0;0.0;1000.0;  4.0000001E-01;0.0;0;0.0;0.0;0.0;0;0.0;  1.0000000E+04;  0.0000000E+00;  0.0000000E+00;  1.0000000E+04;  0.0000000E+00;  1.0000000E+04;0.0;0.0;0.0;0.0
  2.2200000E+00;  9.9999998E-03;  2.5999999E-01;998;0.0;0.0;0.0;1000.0;  4.0000001E-01;0.0;0;0.0;0.0;0.0;0;0.0;  1.0000000E+04;  0.0000000E+00;  0.0000000E+00;  1.0000000E+04;  0.0000000E+00;  1.0000000E+04;0.0;0.0;0.0;0.0
  2.2200000E+00;  9.9999998E-03;  2.8000000E-01;999;0.0;0.0;0.0;1000.0;  4.0000001E-01;0.0;0;0.0;0.0;0.0;0;0.0;  1.0000000E+04;  0.0000000E+00;  0.0000000E+00;  1.0000000E+04;  0.0000000E+00;  1.0000000E+04;0.0;0.0;0.0;0.0
  2.2200000E+00;  9.9999998E-03;  3.0000001E-01;1000;0.0;0.0;0.0;1000.0;  4.0000001E-01;0.0;0;0.0;0.0;0.0;0;0.0;  1.0000000E+04;  0.0000000E+00;  0.0000000E+00;  1.0000000E+04;  0.0000000E+00;  1.0000000E+04;0.0;0.0;0.0;0.0
  2.2200000E+00;  9.9999998E-03;  3.1999999E-01;1001;0.0;0.0;0.0;1000.0;  4.0000001E-01;0.0;0;0.0;0.0;0.0;0;0.0;  1.0000000E+04;  0.0000000E+00;  0.0000000E+00;  1.0000000E+04;  0.0000000E+00;  1.0000000E+04;0.0;0.0;0.0;0.0
  2.2200000E+00;  9.9999998E-03;  3.4000000E-01;1002;0.0;0.0;0.0;1000.0;  4.0000001E-01;0.0;0;0.0;0.0;0.0;0;0.0;  1.0000000E+04;  0.0000000E+00;  0.0000000E+00;  1.0000000E+04;  0.0000000E+00;  1.0000000E+04;0.0;0.0;0.0;0.0
  2.2200000E+00;  9.9999998E-03;  3.6000001E-01;1003;0.0;0.0;0.0;1000.0;  4.0000001E-01;0.0;0;0.0;0.0;0.0;0;0.0;  1.0000000E+04;  0.0000000E+00;  0.0000000E+00;  1.0000000E+04;  0.0000000E+00;  1.0000000E+04;0.0;0.0;0.0;0.0
  2.2200000E+00;  9.9999998E-03;  3.8000000E-01;1004;0.0;0.0;0.0;1000.0;  4.0000001E-01;0.0;0;0.0;0.0;0.0;0;0.0;  1.0000000E+04;  0.0000000E+00;  0.0000000E+00;  1.0000000E+04;  0.0000000E+00;  1.0000000E+04;0.0;0.0;0.0;0.0
  2.2400000E+00;  9.9999998E-03;  1.2000000E-01;1005;0.0;0.0;0.0;1000.0;  4.0000001E-01;0.0;0;0.0;0.0;0.0;0;0.0;  1.0000000E+04;  0.0000000E+00;  0.0000000E+00;  1.0000000E+04;  0.0000000E+00;  1.0000000E+04;0.0;0.0;0.0;0.0
  2.2400000E+00;  9.9999998E-03;  1.4000000E-01;1006;0.0;0.0;0.0;1000.0;  4.0000001E-01;0.0;0;0.0;0.0;0.0;0;0.0;  1.0000000E+04;  0.0000000E+00;  0.0000000E+00;  1.0000000E+04;  0.0000000E+00;  1.0000000E+04;0.0;0.0;0.0;0.0
  2.2400000E+00;  9.9999998E-03;  1.6000000E-01;1007;0.0;0.0;0.0;1000.0;  4.0000001E-01;0.0;0;0.0;0.0;0.0;0;0.0;  1.0000000E+04;  0.0000000E+00;  0.0000000E+00;  1.0000000E+04;  0.0000000E+00;  1.0000000E+04;0.0;0.0;0.0;0.0
  2.2400000E+00;  9.9999998E-03;  1.8000001E-01;1008;0.0;0.0;0.0;1000.0;  4.0000001E-01;0.0;0;0.0;0.0;0.0;0;0.0;  1.0000000E+04;  0.0000000E+00;  0.0000000E+00;  1.0000000E+04;  0.0000000E+00;  1.0000000E+04;0.0;0.0;0.0;0.0
  2.2400000E+00;  9.9999998E-03;  2.0000000E-01;1009;0.0;0.0;0.0;1000.0;  4.0000001E-01;0.0;0;0.0;0.0;0.0;0;0.0;  1.0000000E+04;  0.0000000E+00;  0.0000000E+00;  1.0000000E+04;  0.0000000E+00;  1.0000000E+04;0.0;0.0;0.0;0.0
  2.2400000E+00;  9.9999998E-03;  2.2000000E-01;1010;0.0;0.0;0.0;1000.0;  4.0000001E-01;0.0;0;0.0;0.0;0.0;0;0.0;  1.0000000E+04;  0.0000000E+00;  0.0000000E+00;  1.0000000E+04;  0.0000000E+00;  1.0000000E+04;0.0;0.0;0.0;0.0
  2.2400000E+00;  9.9999998E-03;  2.3999999E-01;1011;0.0;0.0;0.0;1000.0;  4.0000001E-01;0.0;0;0.0;0.0;0.0;0;0.0;  1.0000000E+04;  0.0000000E+00;  0.0000000E+00;  1.0000000E+04;  0.0000000E+00;  1.0000000E+04;0.0;0.0;0.0;0.0
  2.2400000E+00;  9.9999998E-03;  2.5999999E-01;1012;0.0;0.0;0.0;1000.0;  4.0000001E-01;0.0;0;0.0;0.0;0.0;0;0.0;  1.0000000E+04;  0.0000000E+00;  0.0000000E+00;  1.0000000E+04;  0.0000000E+00;  1.0000000E+04;0.0;0.0;0.0;0.0
  2.2400000E+00;  9.9999998E-03;  2.8000000E-01;1013;0.0;0.0;0.0;1000.0;  4.0000001E-01;0.0;0;0.0;0.0;0.0;0;0.0;  1.0000000E+04;  0.0000000E+00;  0.0000000E+00;  1.0000000E+04;  0.0000000E+00;  1.0000000E+04;0.0;0.0;0.0;0.0
  2.2400000E+00;  9.9999998E-03;  3.0000001E-01;1014;0.0;0.0;0.0;1000.0;  4.0000001E-01;0.0;0;0.0;0.0;0.0;0;0.0;  1.0000000E+04;  0.0000000E+00;  0.0000000E+00;  1.0000000E+04;  0.0000000E+00;  1.0000000E+04;0.0;0.0;0.0;0.0
  2.2400000E+00;  9.9999998E-03;  3.1999999E-01;1015;0.0;0.0;0.0;1000.0;  4.0000001E-01;0.0;0;0.0;0.0;0.0;0;0.0;  1.0000000E+04;  0.0000000E+00;  0.0000000E+00;  1.0000000E+04;  0.0000000E+00;  1.0000000E+04;0.0;0.0;0.0;0.0
  2.2400000E+00;  9.9999998E-03;  3.4000000E-01;1016;0.0;0.0;0.0;1000.0;  4.0000001E-01;0.0;0;0.0;0.0;0.0;0;0.0;  1.0000000E+04;  0.0000000E+00;  0.0000000E+00;  1.0000000E+04;  0.0000000E+00;  1.0000000E+04;0.0;0.0;0.0;0.0
  2.2400000E+00;  9.9999998E-03;  3.6000001E-01;1017;0.0;0.0;0.0;1000.0;  4.0000001E-01;0.0;0;0.0;0.0;0.0;0;0.0;  1.0000000E+04;  0.0000000E+00;  0.0000000E+00;  1.0000000E+04;  0.0000000E+00;  1.0000000E+04;0.0;0.0;0.0;0.0
  2.2400000E+00;  9.9999998E-03;  3.8000000E-01;1018;0.0;0.0;0.0;1000.0;  4.0000001E-01;0.0;0;0.0;0.0;0.0;0;0.0;  1.0000000E+04;  0.0000000E+00;  0.0000000E+00;  1.0000000E+04;  0.0000000E+00;  1.0000000E+04;0.0;0.0;0.0;0.0
  2.2600000E+00;  9.9999998E-03;  2.2000000E-01;1019;0.0;0.0;0.0;1000.0;  4.0000001E-01;0.0;0;0.0;0.0;0.0;0;0.0;  1.0000000E+04;  0.0000000E+00;  0.0000000E+00;  1.0000000E+04;  0.0000000E+00;  1.0000000E+04;0.0;0.0;0.0;0.0
  2.2600000E+00;  9.9999998E-03;  2.3999999E-01;1020;0.0;0.0;0.0;1000.0;  4.0000001E-01;0.0;0;0.0;0.0;0.0;0;0.0;  1.0000000E+04;  0.0000000E+00;  0.0000000E+00;  1.0000000E+04;  0.0000000E+00;  1.0000000E+04;0.0;0.0;0.0;0.0
  2.2600000E+00;  9.9999998E-03;  2.5999999E-01;1021;0.0;0.0;0.0;1000.0;  4.0000001E-01;0.0;0;0.0;0.0;0.0;0;0.0;  1.0000000E+04;  0.0000000E+00;  0.0000000E+00;  1.0000000E+04;  0.0000000E+00;  1.0000000E+04;0.0;0.0;0.0;0.0
  2.2600000E+00;  9.9999998E-03;  2.8000000E-01;1022;0.0;0.0;0.0;1000.0;  4.0000001E-01;0.0;0;0.0;0.0;0.0;0;0.0;  1.0000000E+04;  0.0000000E+00;  0.0000000E+00;  1.0000000E+04;  0.0000000E+00;  1.0000000E+04;0.0;0.0;0.0;0.0
  2.2600000E+00;  9.9999998E-03;  3.0000001E-01;1023;0.0;0.0;0.0;1000.0;  4.0000001E-01;0.0;0;0.0;0.0;0.0;0;0.0;  1.0000000E+04;  0.0000000E+00;  0.0000000E+00;  1.0000000E+04;  0.0000000E+00;  1.0000000E+04;0.0;0.0;0.0;0.0
  2.2600000E+00;  9.9999998E-03;  3.1999999E-01;1024;0.0;0.0;0.0;1000.0;  4.0000001E-01;0.0;0;0.0;0.0;0.0;0;0.0;  1.0000000E+04;  0.0000000E+00;  0.0000000E+00;  1.0000000E+04;  0.0000000E+00;  1.0000000E+04;0.0;0.0;0.0;0.0
  2.2600000E+00;  9.9999998E-03;  3.4000000E-01;1025;0.0;0.0;0.0;1000.0;  4.0000001E-01;0.0;0;0.0;0.0;0.0;0;0.0;  1.0000000E+04;  0.0000000E+00;  0.0000000E+00;  1.0000000E+04;  0.0000000E+00;  1.0000000E+04;0.0;0.0;0.0;0.0
  2.2600000E+00;  9.9999998E-03;  3.6000001E-01;1026;0.0;0.0;0.0;1000.0;  4.0000001E-01;0.0;0;0.0;0.0;0.0;0;0.0;  1.0000000E+04;  0.0000000E+00;  0.0000000E+00;  1.0000000E+04;  0.0000000E+00;  1.0000000E+04;0.0;0.0;0.0;0.0
  2.2600000E+00;  9.9999998E-03;  3.8000000E-01;1027;0.0;0.0;0.0;1000.0;  4.0000001E-01;0.0;0;0.0;0.0;0.0;0;0.0;  1.0000000E+04;  0.0000000E+00;  0.0000000E+00;  1.0000000E+04;  0.0000000E+00;  1.0000000E+04;0.0;0.0;0.0;0.0
  2.2800000E+00;  9.9999998E-03;  3.1999999E-01;1028;0.0;0.0;0.0;1000.0;  4.0000001E-01;0.0;0;0.0;0.0;0.0;0;0.0;  1.0000000E+04;  0.0000000E+00;  0.0000000E+00;  1.0000000E+04;  0.0000000E+00;  1.0000000E+04;0.0;0.0;0.0;0.0
  2.2800000E+00;  9.9999998E-03;  3.4000000E-01;1029;0.0;0.0;0.0;1000.0;  4.0000001E-01;0.0;0;0.0;0.0;0.0;0;0.0;  1.0000000E+04;  0.0000000E+00;  0.0000000E+00;  1.0000000E+04;  0.0000000E+00;  1.0000000E+04;0.0;0.0;0.0;0.0
  2.2800000E+00;  9.9999998E-03;  3.6000001E-01;1030;0.0;0.0;0.0;1000.0;  4.0000001E-01;0.0;0;0.0;0.0;0.0;0;0.0;  1.0000000E+04;  0.0000000E+00;  0.0000000E+00;  1.0000000E+04;  0.0000000E+00;  1.0000000E+04;0.0;0.0;0.0;0.0
 -1.9276167E-06;  9.9999998E-03; -2.8000075E-01;1031;-0.0013914356;0.0;-0.00053831615;1000.0425;  4.0000001E-01;35.258255;3;-1.0860441;0.0;-0.42485476;0;-0.027877284;  1.0000788E+04;  0.0000000E+00; -3.0275208E-07;  1.0000000E+04;  0.0000000E+00;  1.0000063E+04;-0.025820587;0.0;-0.0020566981;25.056526
 -2.3446812E-06;  9.9999998E-03; -2.6000071E-01;1032;-0.0016976772;0.0;-0.00051911589;1000.0507;  4.0000001E-01;41.974113;3;-1.2724881;0.0;-0.39368427;0;-0.033319883;  1.0000991E+04;  0.0000000E+00; -1.1177636E-07;  1.0000000E+04;  0.0000000E+00;  1.0000025E+04;-0.032422375;0.0;-0.00089750899;8.1878357
 -2.6968603E-06;  9.9999998E-03; -2.4000065E-01;1033;-0.0019571295;0.0;-0.0004703367;1000.0576;  4.0000001E-01;47.702347;3;-1.4270425;0.0;-0.34835303;0;-0.037820064;  1.0001161E+04;  0.0000000E+00; -6.0035346E-09;  1.0000000E+04;  0.0000000E+00;  9.9999922E+03;-0.038090605;0.0;0.00027054222;8.6202679
 -2.9711139E-06;  9.9999998E-03; -2.2000055E-01;1034;-0.0021601568;0.0;-0.00040697501;1000.063;  4.0000001E-01;52.146664;3;-1.5519156;0.0;-0.29842049;0;-0.041382026;  1.0001296E+04;  0.0000000E+00;  1.6188302E-08;  1.0000000E+04;  0.0000000E+00;  9.9999639E+03;-0.042551361;0.0;0.0011693351;21.48975
 -3.1737061E-06;  9.9999998E-03; -2.0000046E-01;1035;-0.0023095836;0.0;-0.00033831899;1000.067;  4.0000001E-01;55.504593;3;-1.6490698;0.0;-0.24922889;0;-0.0441163;  1.0001393E+04;  0.0000000E+00;  3.7817229E-09;  1.0000000E+04;  0.0000000E+00;  9.9999492E+03;-0.045813959;0.0;0.0016976612;29.031834
  1.9998077E-02;  9.9999998E-03; -3.0000100E-01;1060;-0.0013644868;0.0;-0.00070447871;1000.0415;  4.0000001E-01;34.369392;3;-1.0509577;0.0;-0.55090284;0;-0.026807198;  1.0000718E+04;  0.0000000E+00; -3.9876275E-07;  1.0000000E+04;  0.0000000E+00;  1.0000114E+04;-0.023173168;0.0;-0.0036340307;48.254856
  1.9997310E-02;  9.9999998E-03; -2.8000093E-01;1061;-0.0019220955;0.0;-0.00065506325;1000.0527;  4.0000001E-01;43.65308;3;-1.3885169;0.0;-0.47629499;0;-0.033965286;  1.0000973E+04;  0.0000000E+00; -1.4254525E-07;  1.0000000E+04;  0.0000000E+00;  1.0000078E+04;-0.031359322;0.0;-0.0026059642;32.488819
  1.9996654E-02;  9.9999998E-03; -2.6000091E-01;1062;-0.002400086;0.0;-0.00065007235;1000.0621;  4.0000001E-01;51.455326;3;-1.6426339;0.0;-0.44839406;0;-0.040174294;  1.0001211E+04;  0.0000000E+00;  8.6677439E-08;  1.0000000E+04;  0.0000000E+00;  1.0000031E+04;-0.03909852;0.0;-0.0010757732;9.8739967
  1.9996127E-02;  9.9999998E-03; -2.4000084E-01;1063;-0.0027869244;0.0;-0.00060473435;1000.0698;  4.0000001E-01;57.776134;3;-1.8372583;0.0;-0.40474725;0;-0.045241695;  1.0001412E+04;  0.0000000E+00;  1.7355202E-07;  1.0000000E+04;  0.0000000E+00;  9.9999854E+03;-0.045670807;0.0;0.00042911421;12.15167
  1.9995729E-02;  9.9999998E-03; -2.2000074E-01;1064;-0.0030792619;0.0;-0.00053370674;1000.0759;  4.0000001E-01;62.911793;3;-1.9892011;0.0;-0.35293388;0;-0.049195118;  1.0001569E+04;  0.0000000E+00;  1.5088291E-07;  1.0000000E+04;  0.0000000E+00;  9.9999492E+03;-0.050768733;0.0;0.0015736134;28.798546
  1.9995444E-02;  9.9999998E-03; -2.0000061E-01;1065;-0.0032877587;0.0;-0.00044912274;1000.0804;  4.0000001E-01;66.664772;3;-2.1064835;0.0;-0.29895276;0;-0.052186821;  1.0001682E+04;  0.0000000E+00;  8.5686587E-08;  1.0000000E+04;  0.0000000E+00;  9.9999297E+03;-0.054427486;0.0;0.0022406643;38.425591
  3.9997302E-02;  9.9999998E-03; -3.0000111E-01;1091;-0.0018975129;0.0;-0.00076944736;1000.0497;  4.0000001E-01;41.184013;3;-1.3882732;0.0;-0.56561136;0;-0.031405684;  1.0000856E+04;  0.0000000E+00; -3.9551827E-07;  1.0000000E+04;  0.0000000E+00;  1.0000140E+04;-0.027043546;0.0;-0.0043621366;59.473133
  3.9996237E-02;  9.9999998E-03; -2.8000107E-01;1092;-0.002666059;0.0;-0.00073571602;1000.0623;  4.0000001E-01;51.554089;3;-1.8025546;0.0;-0.49390054;0;-0.039455239;  1.0001151E+04;  0.0000000E+00; -1.6158215E-07;  1.0000000E+04;  0.0000000E+00;  1.0000094E+04;-0.03643506;0.0;-0.0030201788;38.598228
  3.9995324E-02;  9.9999998E-03; -2.6000103E-01;1093;-0.003327105;0.0;-0.00072034117;1000.0731;  4.0000001E-01;60.541489;3;-2.104847;0.0;-0.45300102;0;-0.046363138;  1.0001427E+04;  0.0000000E+00;  8.8296041E-08;  1.0000000E+04;  0.0000000E+00;  1.0000034E+04;-0.045193523;0.0;-0.0011696141;10.56486
  3.9994583E-02;  9.9999998E-03; -2.4000096E-01;1094;-0.0038638629;0.0;-0.00067181379;1000.0817;  4.0000001E-01;67.75116;3;-2.3355508;0.0;-0.40748405;0;-0.051890381;  1.0001655E+04;  0.0000000E+00;  2.0948343E-07;  1.0000000E+04;  0.0000000E+00;  9.9999785E+03;-0.052496012;0.0;0.00060563092;16.10545
  3.9994039E-02;  9.9999998E-03; -2.2000085E-01;1095;-0.0042625051;0.0;-0.00060131692;1000.0882;  4.0000001E-01;73.084343;3;-2.5136523;0.0;-0.36073565;0;-0.05609991;  1.0001830E+04;  0.0000000E+00;  1.9870832E-07;  1.0000000E+04;  0.0000000E+00;  9.9999375E+03;-0.058035497;0.0;0.0019355858;35.935219
  3.9993655E-02;  9.9999998E-03; -2.0000072E-01;1096;-0.0045417096;0.0;-0.00051021768;1000.093;  4.0000001E-01;77.034843;3;-2.6526632;0.0;-0.30920237;0;-0.059203222;  1.0001947E+04;  0.0000000E+00;  1.2651429E-07;  1.0000000E+04;  0.0000000E+00;  9.9999131E+03;-0.061901838;0.0;0.0026986154;47.167255
  5.9996333E-02;  9.9999998E-03; -3.0000120E-01;1122;-0.0025545415;0.0;-0.00081009511;1000.0582;  4.0000001E-01;48.196159;3;-1.7981601;0.0;-0.56128407;0;-0.035939224;  1.0001004E+04;  0.0000000E+00; -9.2020800E-06;  1.0000000E+04;  0.0000000E+00;  1.0000160E+04;-0.031067286;0.0;-0.0048719393;68.540825
  5.9994906E-02;  9.9999998E-03; -2.8000116E-01;1123;-0.0035695373;0.0;-0.00076544553;1000.0728;  4.0000001E-01;60.245201;3;-2.2951922;0.0;-0.47588563;0;-0.044952076;  1.0001346E+04;  0.0000000E+00; -2.8310299E-06;  1.0000000E+04;  0.0000000E+00;  1.0000104E+04;-0.04167819;0.0;-0.0032738841;43.001076
  5.9993707E-02;  9.9999998E-03; -2.6000112E-01;1124;-0.0044272984;0.0;-0.0007513187;1000.0848;  4.0000001E-01;70.318985;3;-2.6379874;0.0;-0.4343152;0;-0.052602008;  1.0001659E+04;  0.0000000E+00; -3.3350227E-07;  1.0000000E+04;  0.0000000E+00;  1.0000035E+04;-0.051428799;0.0;-0.0011732087;10.079294
  5.9992749E-02;  9.9999998E-03; -2.4000104E-01;1125;-0.0051173619;0.0;-0.00070373452;1000.0944;  4.0000001E-01;78.220001;3;-2.8946602;0.0;-0.39253259;0;-0.05859495;  1.0001916E+04;  0.0000000E+00; -7.3139859E-08;  1.0000000E+04;  0.0000000E+00;  9.9999717E+03;-0.059384864;0.0;0.00078991253;20.495932
  5.9992041E-02;  9.9999998E-03; -2.2000092E-01;1126;-0.0056262789;0.0;-0.000631459;1000.1014;  4.0000001E-01;83.948227;3;-3.0968475;0.0;-0.3494013;0;-0.063023165;  1.0002105E+04;  0.0000000E+00;  5.6642698E-08;  1.0000000E+04;  0.0000000E+00;  9.9999238E+03;-0.065252133;0.0;0.0022289651;42.729828
  5.9991561E-02;  9.9999998E-03; -2.0000078E-01;1127;-0.0059756362;0.0;-0.00053765374;1000.1063;  4.0000001E-01;88.09626;3;-3.2557421;0.0;-0.30239964;0;-0.066168875;  1.0002230E+04;  0.0000000E+00;  7.8489528E-08;  1.0000000E+04;  0.0000000E+00;  9.9998975E+03;-0.069201283;0.0;0.0030324087;54.930946
  7.9995163E-02;  9.9999998E-03; -3.0000132E-01;1153;-0.0033271592;0.0;-0.00084772188;1000.0685;  4.0000001E-01;56.788509;3;-2.2786627;0.0;-0.55698633;0;-0.0411641;  1.0001191E+04;  0.0000000E+00; -9.1430248E-04;  1.0000000E+04;  0.0000000E+00;  1.0000177E+04;-0.035988461;0.0;-0.0051756399;75.717896
  7.9993330E-02;  9.9999998E-03; -2.8000122E-01;1154;-0.0046171341;0.0;-0.00076972437;1000.0851;  4.0000001E-01;70.51651;3;-2.8653612;0.0;-0.445539;0;-0.051241472;  1.0001589E+04;  0.0000000E+00; -5.1178795E-04;  1.0000000E+04;  0.0000000E+00;  1.0000113E+04;-0.047864884;0.0;-0.0033765887;45.788502
  7.9991810E-02;  9.9999998E-03; -2.6000118E-01;1155;-0.0056846654;0.0;-0.00075091014;1000.0986;  4.0000001E-01;81.676689;3;-3.2485223;0.0;-0.40221047;0;-0.05968402;  1.0001938E+04;  0.0000000E+00; -1.7741346E-04;  1.0000000E+04;  0.0000000E+00;  1.0000033E+04;-0.058585957;0.0;-0.0010980638;8.4683285
  7.9990625E-02;  9.9999998E-03; -2.4000108E-01;1156;-0.0065291151;0.0;-0.00070300396;1000.1092;  4.0000001E-01;90.46656;3;-3.5296836;0.0;-0.36321878;0;-0.066178747;  1.0002222E+04;  0.0000000E+00; -1.9647176E-05;  1.0000000E+04;  0.0000000E+00;  9.9999639E+03;-0.06715019;0.0;0.00097144512;25.357697
  7.9989761E-02;  9.9999998E-03; -2.2000097E-01;1157;-0.0071427878;0.0;-0.00063184212;1000.1169;  4.0000001E-01;96.787369;3;-3.7504449;0.0;-0.32770425;0;-0.070841737;  1.0002423E+04;  0.0000000E+00; -3.5271430E-07;  1.0000000E+04;  0.0000000E+00;  9.9999131E+03;-0.073288403;0.0;0.0024466633;49.271015
  7.9989187E-02;  9.9999998E-03; -2.0000081E-01;1158;-0.0075558908;0.0;-0.00053765887;1000.1217;  4.0000001E-01;100.83664;3;-3.9278553;0.0;-0.28597158;0;-0.074006513;  1.0002549E+04;  0.0000000E+00; -9.6170290E-08;  1.0000000E+04;  0.0000000E+00;  9.9998877E+03;-0.077246018;0.0;0.0032395043;61.864033
  9.9993750E-02;  9.9999998E-03; -3.0000144E-01;1184;-0.0042365897;0.0;-0.00089630368;1000.0826;  4.0000001E-01;68.442497;3;-2.8443379;0.0;-0.56193542;0;-0.048506867;  1.0001464E+04;  0.0000000E+00; -8.2094194E-03;  1.0000000E+04;  0.0000000E+00;  1.0000190E+04;-0.043165457;0.0;-0.0053414102;91.695549
  9.9991448E-02;  9.9999998E-03; -2.8000128E-01;1185;-0.0058311452;0.0;-0.00075985072;1000.1016;  4.0000001E-01;84.145752;3;-3.5301712;0.0;-0.40969419;0;-0.059600048;  1.0001908E+04;  0.0000000E+00; -5.1910514E-03;  1.0000000E+04;  0.0000000E+00;  1.0000119E+04;-0.056222174;0.0;-0.0033778725;54.244938
  9.9989593E-02;  9.9999998E-03; -2.6000121E-01;1186;-0.0071179266;0.0;-0.0007260461;1000.1166;  4.0000001E-01;96.589844;3;-3.9528809;0.0;-0.36034513;0;-0.068631418;  1.0002301E+04;  0.0000000E+00; -2.3878932E-03;  1.0000000E+04;  0.0000000E+00;  1.0000031E+04;-0.067661561;0.0;-0.00096985442;13.582417
  9.9988163E-02;  9.9999998E-03; -2.4000111E-01;1187;-0.0081154639;0.0;-0.00067602645;1000.1277;  4.0000001E-01;105.77477;3;-4.2547221;0.0;-0.32516754;0;-0.075437717;  1.0002602E+04;  0.0000000E+00; -6.5509079E-04;  1.0000000E+04;  0.0000000E+00;  9.9999551E+03;-0.076579943;0.0;0.0011422294;31.041094
  9.9987149E-02;  9.9999998E-03; -2.2000098E-01;1188;-0.0088257631;0.0;-0.00060984434;1000.1357;  4.0000001E-01;112.39187;3;-4.4918051;0.0;-0.29781163;0;-0.080233455;  1.0002809E+04;  0.0000000E+00; -7.2829564E-05;  1.0000000E+04;  0.0000000E+00;  9.9999033E+03;-0.082829081;0.0;0.0025956226;55.886539
  9.9986486E-02;  9.9999998E-03; -2.0000082E-01;1189;-0.0092939958;0.0;-0.000518733;1000.1407;  4.0000001E-01;116.53989;3;-4.6845698;0.0;-0.2634415;0;-0.08337611;  1.0002941E+04;  0.0000000E+00; -3.9991929E-07;  1.0000000E+04;  0.0000000E+00;  9.9998770E+03;-0.086719476;0.0;0.0033433654;68.479469
  1.1999203E-01;  9.9999998E-03; -3.0000165E-01;1215;-0.0053214547;0.0;-0.00097923307;1000.105;  4.0000001E-01;87.009872;3;-3.5146604;0.0;-0.59300184;0;-0.060138367;  1.0001896E+04;  0.0000000E+00; -3.5073023E-02;  1.0000000E+04;  0.0000000E+00;  1.0000204E+04;-0.054669991;0.0;-0.0054683741;201.27626
  1.1998918E-01;  9.9999998E-03; -2.8000134E-01;1216;-0.0072535551;0.0;-0.00075519766;1000.1252;  4.0000001E-01;103.70075;3;-4.3074889;0.0;-0.37917709;0;-0.071908273;  1.0002383E+04;  0.0000000E+00; -2.3981372E-02;  1.0000000E+04;  0.0000000E+00;  1.0000122E+04;-0.068553343;0.0;-0.0033549261;133.12598
  1.1998696E-01;  9.9999998E-03; -2.6000124E-01;1217;-0.0087677948;0.0;-0.00069203088;1000.1407;  4.0000001E-01;116.63866;3;-4.7642307;0.0;-0.31561542;0;-0.080770396;  1.0002783E+04;  0.0000000E+00; -1.2029572E-02;  1.0000000E+04;  0.0000000E+00;  1.0000025E+04;-0.079958044;0.0;-0.00081235426;62.37141
  1.1998528E-01;  9.9999998E-03; -2.4000111E-01;1218;-0.0099173095;0.0;-0.00063643645;1000.1514;  4.0000001E-01;125.42854;3;-5.0777655;0.0;-0.28596187;0;-0.087214291;  1.0003083E+04;  0.0000000E+00; -4.1616326E-03;  1.0000000E+04;  0.0000000E+00;  9.9999443E+03;-0.088537678;0.0;0.0013233902;43.547455
  1.1998413E-01;  9.9999998E-03; -2.2000100E-01;1219;-0.010717927;0.0;-0.00057703943;1000.1588;  4.0000001E-01;131.55182;3;-5.3294702;0.0;-0.26437306;0;-0.091702387;  1.0003290E+04;  0.0000000E+00; -8.2493242E-04;  1.0000000E+04;  0.0000000E+00;  9.9998896E+03;-0.094424471;0.0;0.0027220831;63.77742
  1.1998339E-01;  9.9999998E-03; -2.0000082E-01;1220;-0.011232391;0.0;-0.00049409311;1000.1639;  4.0000001E-01;135.79861;3;-5.533226;0.0;-0.24006774;0;-0.094609588;  1.0003410E+04;  0.0000000E+00; -5.7408979E-05;  1.0000000E+04;  0.0000000E+00;  9.9998643E+03;-0.098012291;0.0;0.0034027016;75.881477
  1.3998987E-01;  9.9999998E-03; -3.0000195E-01;1246;-0.0066363025;0.0;-0.0011240247;1000.1405;  4.0000001E-01;116.44113;3;-4.3120117;0.0;-0.67086983;0;-0.0788747;  1.0002589E+04;  0.0000000E+00; -1.0386972E-01;  1.0000000E+04;  0.0000000E+00;  1.0000224E+04;-0.073217042;0.0;-0.0056576547;546.87366
  1.3998643E-01;  9.9999998E-03; -2.8000149E-01;1247;-0.0089345947;0.0;-0.00078368414;1000.1608;  4.0000001E-01;133.23077;3;-5.2105107;0.0;-0.37189817;0;-0.090355977;  1.0003088E+04;  0.0000000E+00; -7.2923906E-02;  1.0000000E+04;  0.0000000E+00;  1.0000130E+04;-0.08695481;0.0;-0.0034011705;381.56534
  1.3998382E-01;  9.9999998E-03; -2.6000130E-01;1248;-0.010679916;0.0;-0.00067939638;1000.1734;  4.0000001E-01;143.69962;3;-5.6878271;0.0;-0.28482199;0;-0.097473852;  1.0003453E+04;  0.0000000E+00; -3.7998237E-02;  1.0000000E+04;  0.0000000E+00;  1.0000019E+04;-0.096843548;0.0;-0.00063030119;197.3596
  1.3998188E-01;  9.9999998E-03; -2.4000114E-01;1249;-0.011986432;0.0;-0.00060571235;1000.1818;  4.0000001E-01;150.61301;3;-6.0114026;0.0;-0.24841428;0;-0.10222837;  1.0003709E+04;  0.0000000E+00; -1.4342474E-02;  1.0000000E+04;  0.0000000E+00;  9.9999277E+03;-0.10381827;0.0;0.0015898987;88.783287
  1.3998058E-01;  9.9999998E-03; -2.2000103E-01;1250;-0.012870832;0.0;-0.00055748387;1000.1876;  4.0000001E-01;155.35361;3;-6.2638474;0.0;-0.24071163;0;-0.10554981;  1.0003879E+04;  0.0000000E+00; -3.5326676E-03;  1.0000000E+04;  0.0000000E+00;  9.9998721E+03;-0.10849692;0.0;0.0029471074;77.225685
  1.3997979E-01;  9.9999998E-03; -2.0000087E-01;1251;-0.013424128;0.0;-0.00048436251;1000.1913;  4.0000001E-01;158.51401;3;-6.4755855;0.0;-0.22489893;0;-0.10776965;  1.0003980E+04;  0.0000000E+00; -4.4043045E-04;  1.0000000E+04;  0.0000000E+00;  9.9998477E+03;-0.11131675;0.0;0.0035470962;86.460434
  1.5998712E-01;  9.9999998E-03; -3.0000231E-01;1277;-0.0082742777;0.0;-0.0012967625;1000.1946;  4.0000001E-01;161.1806;3;-5.2901583;0.0;-0.76241875;0;-0.10752093;  1.0003647E+04;  0.0000000E+00; -2.4110039E-01;  1.0000000E+04;  0.0000000E+00;  1.0000247E+04;-0.1014699;0.0;-0.0060510351;1257.5679
  1.5998307E-01;  9.9999998E-03; -2.8000170E-01;1278;-0.010925694;0.0;-0.00085788005;1000.2115;  4.0000001E-01;175.30367;3;-6.2523942;0.0;-0.39253521;0;-0.11658142;  1.0004089E+04;  0.0000000E+00; -1.6793570E-01;  1.0000000E+04;  0.0000000E+00;  1.0000137E+04;-0.11297768;0.0;-0.0036037434;874.76178
  1.5998006E-01;  9.9999998E-03; -2.6000145E-01;1279;-0.012898625;0.0;-0.00071724388;1000.2171;  4.0000001E-01;179.84674;3;-6.7209949;0.0;-0.28926373;0;-0.11947916;  1.0004344E+04;  0.0000000E+00; -8.8012047E-02;  1.0000000E+04;  0.0000000E+00;  1.0000001E+04;-0.11910412;0.0;-0.00037504709;458.11108
  1.5997787E-01;  9.9999998E-03; -2.4000126E-01;1280;-0.014361786;0.0;-0.0006263128;1000.2198;  4.0000001E-01;182.11829;3;-7.0468683;0.0;-0.23981071;0;-0.12071628;  1.0004497E+04;  0.0000000E+00; -3.4332570E-02;  1.0000000E+04;  0.0000000E+00;  9.9998965E+03;-0.12281666;0.0;0.002100379;190.45944
  1.5997644E-01;  9.9999998E-03; -2.2000113E-01;1281;-0.015330361;0.0;-0.00058319047;1000.2217;  4.0000001E-01;183.69849;3;-7.2999592;0.0;-0.23755896;0;-0.12176393;  1.0004600E+04;  0.0000000E+00; -9.3392441E-03;  1.0000000E+04;  0.0000000E+00;  9.9998350E+03;-0.12525149;0.0;0.0034875609;106.18952
  1.5997559E-01;  9.9999998E-03; -2.0000097E-01;1282;-0.015913179;0.0;-0.00052048528;1000.2236;  4.0000001E-01;185.27869;3;-7.5118337;0.0;-0.23329496;0;-0.12272564;  1.0004654E+04;  0.0000000E+00; -1.4899839E-03;  1.0000000E+04;  0.0000000E+00;  9.9998145E+03;-0.12672395;0.0;0.0039983089;104.51003
  1.7998350E-01;  9.9999998E-03; -3.0000255E-01;1308;-0.010407796;0.0;-0.0013372722;1000.2703;  4.0000001E-01;223.89487;3;-6.5634527;0.0;-0.73773479;0;-0.14714643;  1.0005106E+04;  0.0000000E+00; -4.5044816E-01;  1.0000000E+04;  0.0000000E+00;  1.0000300E+04;-0.13984026;0.0;-0.0073061758;2350.4297
  1.7997897E-01;  9.9999998E-03; -2.8000194E-01;1309;-0.013295419;0.0;-0.00094550749;1000.2767;  4.0000001E-01;229.22804;3;-7.4615808;0.0;-0.41309261;0;-0.1500227;  1.0005389E+04;  0.0000000E+00; -3.0708724E-01;  1.0000000E+04;  0.0000000E+00;  1.0000147E+04;-0.14593013;0.0;-0.0040925737;1601.4272
  1.7997557E-01;  9.9999998E-03; -2.6000169E-01;1310;-0.01547633;0.0;-0.00080400705;1000.2707;  4.0000001E-01;224.28992;3;-7.8894286;0.0;-0.31281328;0;-0.1459493;  1.0005447E+04;  0.0000000E+00; -1.5884750E-01;  1.0000000E+04;  0.0000000E+00;  9.9999688E+03;-0.14604411;0.0;9.4796065e-05;828.77234
  1.7997313E-01;  9.9999998E-03; -2.4000150E-01;1311;-0.017078834;0.0;-0.00072802411;1000.2643;  4.0000001E-01;218.95674;3;-8.1889553;0.0;-0.27091861;0;-0.14201748;  1.0005451E+04;  0.0000000E+00; -6.2362395E-02;  1.0000000E+04;  0.0000000E+00;  9.9998350E+03;-0.14515974;0.0;0.00314226;339.37488
  1.7997156E-01;  9.9999998E-03; -2.2000135E-01;1312;-0.01813096;0.0;-0.00068997702;1000.2612;  4.0000001E-01;216.38892;3;-8.4331541;0.0;-0.2800976;0;-0.13993208;  1.0005453E+04;  0.0000000E+00; -1.7734291E-02;  1.0000000E+04;  0.0000000E+00;  9.9997725E+03;-0.14459768;0.0;0.0046655987;158.14383
  1.7997068E-01;  9.9999998E-03; -2.0000118E-01;1313;-0.018732021;0.0;-0.00063714915;1000.2602;  4.0000001E-01;215.5988;3;-8.64223;0.0;-0.2838521;0;-0.13923097;  1.0005445E+04;  0.0000000E+00; -3.1839604E-03;  1.0000000E+04;  0.0000000E+00;  9.9997578E+03;-0.14429466;0.0;0.0050636972;136.0688
  1.9997875E-01;  9.9999998E-03; -3.0000263E-01;1339;-0.013193751;0.0;-0.0012223272;1000.3603;  4.0000001E-01;298.46066;3;-8.2246552;0.0;-0.58395576;0;-0.19363749;  1.0006795E+04;  0.0000000E+00; -6.6604620E-01;  1.0000000E+04;  0.0000000E+00;  1.0000408E+04;-0.1828239;0.0;-0.010813587;3484.7947
  1.9997390E-01;  9.9999998E-03; -2.8000224E-01;1340;-0.016157964;0.0;-0.0010218651;1000.3503;  4.0000001E-01;290.16458;3;-8.8891649;0.0;-0.4231739;0;-0.18654081;  1.0006846E+04;  0.0000000E+00; -4.4747961E-01;  1.0000000E+04;  0.0000000E+00;  1.0000164E+04;-0.18138693;0.0;-0.0051538851;2338.7703
  1.9997020E-01;  9.9999998E-03; -2.6000202E-01;1341;-0.018480297;0.0;-0.00093332422;1000.3294;  4.0000001E-01;272.88113;3;-9.2118893;0.0;-0.35172462;0;-0.17402065;  1.0006690E+04;  0.0000000E+00; -2.2754624E-01;  1.0000000E+04;  0.0000000E+00;  9.9999023E+03;-0.17502518;0.0;0.0010045371;1190.839
  1.9996755E-01;  9.9999998E-03; -2.4000189E-01;1342;-0.020195076;0.0;-0.00091419229;1000.3132;  4.0000001E-01;259.54819;3;-9.4499397;0.0;-0.34692073;0;-0.16443589;  1.0006538E+04;  0.0000000E+00; -8.8780835E-02;  1.0000000E+04;  0.0000000E+00;  9.9997324E+03;-0.16957182;0.0;0.0051359283;487.84381
  1.9996586E-01;  9.9999998E-03; -2.2000176E-01;1343;-0.021303503;0.0;-0.00091063936;1000.3044;  4.0000001E-01;252.23975;3;-9.6697588;0.0;-0.37355113;0;-0.15917532;  1.0006435E+04;  0.0000000E+00; -2.5634432E-02;  1.0000000E+04;  0.0000000E+00;  9.9996563E+03;-0.16607089;0.0;0.0068955766;228.36861
  1.9996499E-01;  9.9999998E-03; -2.0000157E-01;1344;-0.021909358;0.0;-0.0008674087;1000.301;  4.0000001E-01;249.37563;3;-9.8652735;0.0;-0.39244053;0;-0.15686876;  1.0006364E+04;  0.0000000E+00; -4.8478125E-03;  1.0000000E+04;  0.0000000E+00;  9.9996543E+03;-0.16396889;0.0;0.0071001346;187.50487
  2.1997319E-01;  9.9999998E-03; -3.0000401E-01;1370;-0.016340768;0.0;-0.0018264576;1000.4352;  4.0000001E-01;360.58234;3;-10.041782;0.0;-0.86815643;0;-0.23021518;  1.0008298E+04;  0.0000000E+00; -7.8498942E-01;  1.0000000E+04;  0.0000000E+00;  1.0000404E+04;-0.21806569;0.0;-0.012149482;4118.8501
  2.1996774E-01;  9.9999998E-03; -2.8000307E-01;1371;-0.019549495;0.0;-0.0013936741;1000.4186;  4.0000001E-01;346.75558;3;-10.54178;0.0;-0.58765888;0;-0.21843649;  1.0008243E+04;  0.0000000E+00; -5.1832694E-01;  1.0000000E+04;  0.0000000E+00;  1.0000127E+04;-0.2128745;0.0;-0.0055619883;2716.0129
  2.1996380E-01;  9.9999998E-03; -2.6000270E-01;1372;-0.021954853;0.0;-0.0012687107;1000.3866;  4.0000001E-01;320.2872;3;-10.684149;0.0;-0.49551535;0;-0.1996008;  1.0007958E+04;  0.0000000E+00; -2.5963172E-01;  1.0000000E+04;  0.0000000E+00;  9.9997734E+03;-0.20272678;0.0;0.0031259768;1366.5176
  2.1996096E-01;  9.9999998E-03; -2.4000251E-01;1373;-0.023757787;0.0;-0.0012563214;1000.3631;  4.0000001E-01;300.83096;3;-10.831671;0.0;-0.50343919;0;-0.18588541;  1.0007713E+04;  0.0000000E+00; -9.9964693E-02;  1.0000000E+04;  0.0000000E+00;  9.9995518E+03;-0.19451413;0.0;0.0086287055;575.50378
  2.1995923E-01;  9.9999998E-03; -2.2000240E-01;1374;-0.024892775;0.0;-0.0012707592;1000.3508;  4.0000001E-01;290.55963;3;-11.010668;0.0;-0.53414023;0;-0.17848703;  1.0007537E+04;  0.0000000E+00; -2.8722329E-02;  1.0000000E+04;  0.0000000E+00;  9.9994805E+03;-0.18905723;0.0;0.010570194;311.34091
  2.1995839E-01;  9.9999998E-03; -2.0000218E-01;1375;-0.025478521;0.0;-0.001239029;1000.3455;  4.0000001E-01;286.21408;3;-11.18203;0.0;-0.57073843;0;-0.17517242;  1.0007410E+04;  0.0000000E+00; -5.4573314E-03;  1.0000000E+04;  0.0000000E+00;  9.9995010E+03;-0.18558472;0.0;0.010412303;264.20465
  2.3996609E-01;  9.9999998E-03; -3.0000892E-01;1401;-0.02012993;0.0;-0.0045647193;1000.4575;  4.0000001E-01;378.95218;3;-12.091084;0.0;-2.4538059;0;-0.23439527;  1.0009550E+04;  0.0000000E+00; -7.5371605E-01;  1.0000000E+04;  0.0000000E+00;  9.9996045E+03;-0.24293694;0.0;0.0085416688;3968.7969
  2.3996024E-01;  9.9999998E-03; -2.8000605E-01;1402;-0.023530344;0.0;-0.0030975523;1000.4617;  4.0000001E-01;382.50763;3;-12.399329;0.0;-1.5011463;0;-0.23384203;  1.0009511E+04;  0.0000000E+00; -4.8228160E-01;  1.0000000E+04;  0.0000000E+00;  9.9997227E+03;-0.23794265;0.0;0.0041006152;2539.3521
  2.3995613E-01;  9.9999998E-03; -2.6000452E-01;1403;-0.026007919;0.0;-0.0022990713;1000.4349;  4.0000001E-01;360.28604;3;-12.354038;0.0;-0.9888382;0;-0.21850477;  1.0009229E+04;  0.0000000E+00; -2.3596819E-01;  1.0000000E+04;  0.0000000E+00;  9.9994727E+03;-0.22783385;0.0;0.0093290778;1270.6469
  2.3995318E-01;  9.9999998E-03; -2.4000378E-01;1404;-0.027836265;0.0;-0.0019830537;1000.4118;  4.0000001E-01;341.1261;3;-12.358274;0.0;-0.84137177;0;-0.20490396;  1.0008963E+04;  0.0000000E+00; -8.8760853E-02;  1.0000000E+04;  0.0000000E+00;  9.9992744E+03;-0.21928406;0.0;0.014380105;598.27954
  2.3995151E-01;  9.9999998E-03; -2.2000343E-01;1405;-0.028941035;0.0;-0.0018848899;1000.399;  4.0000001E-01;330.5585;3;-12.456512;0.0;-0.81660688;0;-0.19730285;  1.0008758E+04;  0.0000000E+00; -2.4851082E-02;  1.0000000E+04;  0.0000000E+00;  9.9992275E+03;-0.21321931;0.0;0.01591647;417.28326
  2.3995075E-01;  9.9999998E-03; -2.0000307E-01;1406;-0.029478882;0.0;-0.0017981757;1000.3937;  4.0000001E-01;326.1142;3;-12.593342;0.0;-0.83677697;0;-0.19392279;  1.0008598E+04;  0.0000000E+00; -4.5153992E-03;  1.0000000E+04;  0.0000000E+00;  9.9992822E+03;-0.20902795;0.0;0.015105153;369.58075
  2.5995657E-01;  9.9999998E-03; -3.0001393E-01;1432;-0.025095923;0.0;-0.0070788916;1000.4641;  4.0000001E-01;384.48288;3;-14.709635;0.0;-3.7735558;0;-0.22995369;  1.0010791E+04;  0.0000000E+00; -5.5811435E-01;  1.0000000E+04;  0.0000000E+00;  9.9984941E+03;-0.26434368;0.0;0.034389988;3035.6584
  2.5995085E-01;  9.9999998E-03; -2.8001019E-01;1433;-0.028368577;0.0;-0.005367999;1000.4857;  4.0000001E-01;402.35889;3;-14.57653;0.0;-2.6518888;0;-0.23689733;  1.0010770E+04;  0.0000000E+00; -3.5258237E-01;  1.0000000E+04;  0.0000000E+00;  9.9989443E+03;-0.25980574;0.0;0.022908406;1932.9781
  2.5994676E-01;  9.9999998E-03; -2.6000741E-01;1434;-0.030797429;0.0;-0.0039571207;1000.4759;  4.0000001E-01;394.26038;3;-14.238262;0.0;-1.8074846;0;-0.23096183;  1.0010551E+04;  0.0000000E+00; -1.6838588E-01;  1.0000000E+04;  0.0000000E+00;  9.9989688E+03;-0.25160277;0.0;0.020640947;1028.7813
  2.5994399E-01;  9.9999998E-03; -2.4000585E-01;1435;-0.032510575;0.0;-0.0031979007;1000.4598;  4.0000001E-01;380.9274;3;-14.037041;0.0;-1.4029717;0;-0.22168756;  1.0010317E+04;  0.0000000E+00; -6.1135475E-02;  1.0000000E+04;  0.0000000E+00;  9.9988818E+03;-0.24428317;0.0;0.02259562;648.65717
  2.5994250E-01;  9.9999998E-03; -2.2000502E-01;1436;-0.033506464;0.0;-0.0028489809;1000.4504;  4.0000001E-01;373.12515;3;-14.01294;0.0;-1.2602553;0;-0.21588524;  1.0010116E+04;  0.0000000E+00; -1.6184796E-02;  1.0000000E+04;  0.0000000E+00;  9.9988994E+03;-0.23863362;0.0;0.022748385;561.02466
  2.5994191E-01;  9.9999998E-03; -2.0000434E-01;1437;-0.033967454;0.0;-0.0025948163;1000.4467;  4.0000001E-01;370.06354;3;-14.110054;0.0;-1.2012113;0;-0.21331441;  1.0009930E+04;  0.0000000E+00; -2.6160392E-03;  1.0000000E+04;  0.0000000E+00;  9.9990068E+03;-0.23428878;0.0;0.020974375;502.74722
  2.7994478E-01;  9.9999998E-03; -3.0001786E-01;1463;-0.031058557;0.0;-0.0088420305;1000.4904;  4.0000001E-01;406.21063;3;-17.781548;0.0;-4.6457205;0;-0.23465323;  1.0012180E+04;  0.0000000E+00; -3.1666771E-01;  1.0000000E+04;  0.0000000E+00;  9.9976318E+03;-0.28574747;0.0;0.051094241;2033.7114
  2.7993947E-01;  9.9999998E-03; -2.8001410E-01;1464;-0.034053341;0.0;-0.0072950884;1000.515;  4.0000001E-01;426.65451;3;-17.071487;0.0;-3.5141211;0;-0.24181286;  1.0012164E+04;  0.0000000E+00; -1.9819225E-01;  1.0000000E+04;  0.0000000E+00;  9.9981416E+03;-0.28183958;0.0;0.040026724;1390.0319
  2.7993572E-01;  9.9999998E-03; -2.6001075E-01;1465;-0.036267366;0.0;-0.0057629566;1000.519;  4.0000001E-01;430.01242;3;-16.311035;0.0;-2.6261511;0;-0.24243066;  1.0012007E+04;  0.0000000E+00; -9.1951542E-02;  1.0000000E+04;  0.0000000E+00;  9.9983750E+03;-0.27591085;0.0;0.033480205;941.26715
  2.7993327E-01;  9.9999998E-03; -2.4000852E-01;1466;-0.037781607;0.0;-0.0047197416;1000.512;  4.0000001E-01;424.18542;3;-15.839994;0.0;-2.0886559;0;-0.2383554;  1.0011820E+04;  0.0000000E+00; -3.1486768E-02;  1.0000000E+04;  0.0000000E+00;  9.9984248E+03;-0.27033931;0.0;0.031983908;800.84668
  2.7993205E-01;  9.9999998E-03; -2.2000709E-01;1467;-0.038632706;0.0;-0.004088046;1000.5075;  4.0000001E-01;420.43246;3;-15.685641;0.0;-1.8264471;0;-0.23525165;  1.0011626E+04;  0.0000000E+00; -7.4493298E-03;  1.0000000E+04;  0.0000000E+00;  9.9985234E+03;-0.26556632;0.0;0.030314673;737.0473
  2.7993169E-01;  9.9999998E-03; -2.0000596E-01;1468;-0.038996179;0.0;-0.0035932958;1000.5056;  4.0000001E-01;418.85226;3;-15.732173;0.0;-1.6555481;0;-0.23387744;  1.0011425E+04;  0.0000000E+00; -9.3031849E-04;  1.0000000E+04;  0.0000000E+00;  9.9986895E+03;-0.26141006;0.0;0.027532617;657.70007
  2.9993144E-01;  9.9999998E-03; -3.0002141E-01;1494;-0.037544928;0.0;-0.010317958;1000.5415;  4.0000001E-01;448.57974;3;-21.006004;0.0;-5.3462925;0;-0.24880178;  1.0013782E+04;  0.0000000E+00; -1.3687415E-01;  1.0000000E+04;  0.0000000E+00;  9.9970547E+03;-0.3086696;0.0;0.059867814;1606.0872
  2.9992652E-01;  9.9999998E-03; -2.8001761E-01;1495;-0.0402552;0.0;-0.0089215897;1000.5638;  4.0000001E-01;467.04834;3;-19.660212;0.0;-4.2233906;0;-0.25433058;  1.0013766E+04;  0.0000000E+00; -8.3424099E-02;  1.0000000E+04;  0.0000000E+00;  9.9975117E+03;-0.30584559;0.0;0.051515017;1293.9794
  2.9992309E-01;  9.9999998E-03; -2.6001406E-01;1496;-0.042262975;0.0;-0.007469546;1000.5734;  4.0000001E-01;475.04813;3;-18.464956;0.0;-3.3440545;0;-0.25770983;  1.0013660E+04;  0.0000000E+00; -3.6423400E-02;  1.0000000E+04;  0.0000000E+00;  9.9978174E+03;-0.30199951;0.0;0.044289682;1092.5635
  2.9992098E-01;  9.9999998E-03; -2.4001141E-01;1497;-0.043605421;0.0;-0.0063081477;1000.5731;  4.0000001E-01;474.75183;3;-17.72743;0.0;-2.7526164;0;-0.25735715;  1.0013504E+04;  0.0000000E+00; -1.1132400E-02;  1.0000000E+04;  0.0000000E+00;  9.9979639E+03;-0.29807824;0.0;0.040721092;1008.8828
  2.9991999E-01;  9.9999998E-03; -2.2000945E-01;1498;-0.044339541;0.0;-0.0054421923;1000.5721;  4.0000001E-01;473.96173;3;-17.444857;0.0;-2.4011135;0;-0.25654703;  1.0013316E+04;  0.0000000E+00; -2.0724793E-03;  1.0000000E+04;  0.0000000E+00;  9.9981348E+03;-0.29424545;0.0;0.037698407;927.88824
  2.9991990E-01;  9.9999998E-03; -2.0000787E-01;1499;-0.044602506;0.0;-0.0047474322;1000.572;  4.0000001E-01;473.86298;3;-17.453869;0.0;-2.1695721;0;-0.25618848;  1.0013104E+04;  0.0000000E+00; -1.3620016E-04;  1.0000000E+04;  0.0000000E+00;  9.9983428E+03;-0.29044735;0.0;0.034258861;827.28723
  3.1991696E-01;  9.9999998E-03; -3.0002496E-01;1525;-0.044253517;0.0;-0.011737074;1000.6144;  4.0000001E-01;509.02246;3;-24.191965;0.0;-6.0038867;0;-0.27029246;  1.0015640E+04;  0.0000000E+00; -4.1809689E-02;  1.0000000E+04;  0.0000000E+00;  9.9966582E+03;-0.33424532;0.0;0.063952848;1645.0327
  3.1991223E-01;  9.9999998E-03; -2.8002104E-01;1526;-0.046803322;0.0;-0.010406842;1000.6333;  4.0000001E-01;524.72571;3;-22.253002;0.0;-4.8424745;0;-0.27464369;  1.0015617E+04;  0.0000000E+00; -2.3526607E-02;  1.0000000E+04;  0.0000000E+00;  9.9970508E+03;-0.33264345;0.0;0.05799976;1448.7571
  3.1990892E-01;  9.9999998E-03; -2.6001734E-01;1527;-0.048710648;0.0;-0.009033246;1000.6435;  4.0000001E-01;533.12054;3;-20.65122;0.0;-3.9640961;0;-0.27856946;  1.0015533E+04;  0.0000000E+00; -8.9934738E-03;  1.0000000E+04;  0.0000000E+00;  9.9973447E+03;-0.33041972;0.0;0.051850274;1307.0554
  3.1990698E-01;  9.9999998E-03; -2.4001436E-01;1528;-0.049975693;0.0;-0.0078380983;1000.6457;  4.0000001E-01;534.89825;3;-19.679235;0.0;-3.349864;0;-0.27990994;  1.0015396E+04;  0.0000000E+00; -2.0940346E-03;  1.0000000E+04;  0.0000000E+00;  9.9975264E+03;-0.32780984;0.0;0.047899898;1221.063
  3.1990620E-01;  9.9999998E-03; -2.2001196E-01;1529;-0.050644506;0.0;-0.006831144;1000.6468;  4.0000001E-01;535.88586;3;-19.294941;0.0;-2.9498272;0;-0.28040111;  1.0015212E+04;  0.0000000E+00; -1.9563042E-04;  1.0000000E+04;  0.0000000E+00;  9.9977324E+03;-0.32483679;0.0;0.044435665;1123.7458
  3.1990635E-01;  9.9999998E-03; -2.0000999E-01;1530;-0.050827671;0.0;-0.0059830924;1000.6476;  4.0000001E-01;536.47845;3;-19.273664;0.0;-2.6781242;0;-0.28068623;  1.0014982E+04;  0.0000000E+00;  5.6433814E-06;  1.0000000E+04;  0.0000000E+00;  9.9979766E+03;-0.3215031;0.0;0.040816873;1007.5031
  3.3990139E-01;  9.9999998E-03; -3.0002877E-01;1556;-0.051100016;0.0;-0.0132133;1000.7037;  4.0000001E-01;582.99561;3;-27.277714;0.0;-6.66429;0;-0.29676291;  1.0017750E+04;  0.0000000E+00; -6.4127189E-03;  1.0000000E+04;  0.0000000E+00;  9.9963320E+03;-0.36297834;0.0;0.066215433;1796.1759
  3.3989638E-01;  9.9999998E-03; -2.8002459E-01;1557;-0.053704094;0.0;-0.01187853;1000.7194;  4.0000001E-01;596.03223;3;-24.844362;0.0;-5.4170918;0;-0.30055508;  1.0017720E+04;  0.0000000E+00; -2.9866477E-03;  1.0000000E+04;  0.0000000E+00;  9.9966777E+03;-0.36237225;0.0;0.061817158;1633.4905
  3.3989298E-01;  9.9999998E-03; -2.6002061E-01;1558;-0.055660769;0.0;-0.010514566;1000.7285;  4.0000001E-01;603.53821;3;-22.879559;0.0;-4.5091176;0;-0.30425614;  1.0017647E+04;  0.0000000E+00; -7.4207608E-04;  1.0000000E+04;  0.0000000E+00;  9.9969326E+03;-0.36131868;0.0;0.057062551;1513.2528
  3.3989108E-01;  9.9999998E-03; -2.4001738E-01;1559;-0.056939401;0.0;-0.009305927;1000.7307;  4.0000001E-01;605.31592;3;-21.698215;0.0;-3.8695815;0;-0.30596071;  1.0017517E+04;  0.0000000E+00; -1.6577103E-05;  1.0000000E+04;  0.0000000E+00;  9.9971084E+03;-0.35974163;0.0;0.053780898;1430.9734
  3.3989048E-01;  9.9999998E-03; -2.2001462E-01;1560;-0.057588983;0.0;-0.0082162702;1000.7324;  4.0000001E-01;606.69861;3;-21.223576;0.0;-3.4512837;0;-0.30700248;  1.0017330E+04;  0.0000000E+00;  2.2557479E-05;  1.0000000E+04;  0.0000000E+00;  9.9973271E+03;-0.3575682;0.0;0.050565716;1325.9344
  3.3989087E-01;  9.9999998E-03; -2.0001224E-01;1561;-0.057713944;0.0;-0.00725096;1000.7336;  4.0000001E-01;607.78503;3;-21.178696;0.0;-3.1747983;0;-0.30767053;  1.0017085E+04;  0.0000000E+00;  5.1370967E-06;  1.0000000E+04;  0.0000000E+00;  9.9975869E+03;-0.35479739;0.0;0.047126874;1198.0802
  3.5988420E-01;  9.9999998E-03; -3.0003303E-01;1587;-0.058279503;0.0;-0.014781615;1000.8049;  4.0000001E-01;666.84497;3;-30.364748;0.0;-7.3351197;0;-0.32624829;  1.0020125E+04;  0.0000000E+00;  2.7620326E-05;  1.0000000E+04;  0.0000000E+00;  9.9959863E+03;-0.39483756;0.0;0.068589255;1974.0811
  3.5987866E-01;  9.9999998E-03; -2.8002843E-01;1588;-0.061117493;0.0;-0.013393905;1000.8194;  4.0000001E-01;678.89404;3;-27.490965;0.0;-5.9896312;0;-0.33007428;  1.0020104E+04;  0.0000000E+00;  1.5929520E-04;  1.0000000E+04;  0.0000000E+00;  9.9963008E+03;-0.39505225;0.0;0.064977966;1824.5753
  3.5987493E-01;  9.9999998E-03; -2.6002410E-01;1589;-0.063227162;0.0;-0.011982245;1000.8271;  4.0000001E-01;685.21484;3;-25.185228;0.0;-4.9995813;0;-0.3335644;  1.0020034E+04;  0.0000000E+00;  1.3202094E-04;  1.0000000E+04;  0.0000000E+00;  9.9965156E+03;-0.39491889;0.0;0.061354496;1723.3916
  3.5987297E-01;  9.9999998E-03; -2.4002056E-01;1590;-0.064576849;0.0;-0.010751335;1000.8287;  4.0000001E-01;686.49872;3;-23.793037;0.0;-4.326427;0;-0.33515206;  1.0019912E+04;  0.0000000E+00;  6.7043351E-05;  1.0000000E+04;  0.0000000E+00;  9.9966709E+03;-0.39422041;0.0;0.059068359;1650.0844
  3.5987249E-01;  9.9999998E-03; -2.2001743E-01;1591;-0.065227576;0.0;-0.0096003488;1000.8303;  4.0000001E-01;687.88141;3;-23.230453;0.0;-3.8997669;0;-0.33642948;  1.0019717E+04;  0.0000000E+00;  2.3630042E-05;  1.0000000E+04;  0.0000000E+00;  9.9968994E+03;-0.3928104;0.0;0.056380916;1540.1844
  3.5987315E-01;  9.9999998E-03; -2.0001464E-01;1592;-0.065308481;0.0;-0.008525609;1000.8314;  4.0000001E-01;688.77026;3;-23.175396;0.0;-3.6091237;0;-0.33735532;  1.0019454E+04;  0.0000000E+00;  4.8325169E-06;  1.0000000E+04;  0.0000000E+00;  9.9971855E+03;-0.39064294;0.0;0.05328761;1401.0463
  3.7986478E-01;  9.9999998E-03; -3.0003783E-01;1618;-0.06605988;0.0;-0.016453024;1000.9195;  4.0000001E-01;761.75568;3;-33.581009;0.0;-8.0120153;0;-0.35826612;  1.0022843E+04;  0.0000000E+00;  1.5875291E-04;  1.0000000E+04;  0.0000000E+00;  9.9955645E+03;-0.43018591;0.0;0.071919814;2190.9619
  3.7985849E-01;  9.9999998E-03; -2.8003269E-01;1619;-0.069203697;0.0;-0.014970971;1000.9341;  4.0000001E-01;773.90344;3;-30.25433;0.0;-6.5364704;0;-0.36263236;  1.0022830E+04;  0.0000000E+00;  2.1898145E-04;  1.0000000E+04;  0.0000000E+00;  9.9958691E+03;-0.43110108;0.0;0.06846872;2044.9955
  3.7985441E-01;  9.9999998E-03; -2.6002792E-01;1620;-0.071507469;0.0;-0.013486385;1000.9404;  4.0000001E-01;779.03912;3;-27.588907;0.0;-5.4431653;0;-0.36599475;  1.0022768E+04;  0.0000000E+00;  1.5822511E-04;  1.0000000E+04;  0.0000000E+00;  9.9960557E+03;-0.43170297;0.0;0.065708235;1956.7076
  3.7985235E-01;  9.9999998E-03; -2.4002397E-01;1621;-0.07295084;0.0;-0.012217291;1000.9407;  4.0000001E-01;779.33539;3;-25.97024;0.0;-4.7365479;0;-0.36737281;  1.0022633E+04;  0.0000000E+00;  7.7669902E-05;  1.0000000E+04;  0.0000000E+00;  9.9961963E+03;-0.43172318;0.0;0.064350367;1889.0144
  3.7985200E-01;  9.9999998E-03; -2.2002041E-01;1622;-0.073611692;0.0;-0.011001468;1000.9421;  4.0000001E-01;780.52057;3;-25.312691;0.0;-4.2956786;0;-0.3687619;  1.0022416E+04;  0.0000000E+00;  2.5940033E-05;  1.0000000E+04;  0.0000000E+00;  9.9964385E+03;-0.43096104;0.0;0.062199149;1771.8446
  3.7985298E-01;  9.9999998E-03; -2.0001717E-01;1623;-0.073656268;0.0;-0.0098224282;1000.9427;  4.0000001E-01;781.01434;3;-25.246321;0.0;-3.9929318;0;-0.36982191;  1.0022115E+04;  0.0000000E+00;  4.7156850E-06;  1.0000000E+04;  0.0000000E+00;  9.9967490E+03;-0.42931986;0.0;0.059497938;1619.1044
  3.9984262E-01;  9.9999998E-03; -3.0004326E-01;1649;-0.074571207;0.0;-0.018230692;1001.0505;  4.0000001E-01;870.39429;3;-36.977886;0.0;-8.6552057;0;-0.39344701;  1.0025997E+04;  0.0000000E+00;  1.9907884E-04;  1.0000000E+04;  0.0000000E+00;  9.9950332E+03;-0.46971223;0.0;0.076265216;2458.3152
  3.9983556E-01;  9.9999998E-03; -2.8003749E-01;1650;-0.078043506;0.0;-0.016632058;1001.0654;  4.0000001E-01;882.64081;3;-33.144817;0.0;-7.0519114;0;-0.39839149;  1.0025972E+04;  0.0000000E+00;  2.7414295E-04;  1.0000000E+04;  0.0000000E+00;  9.9953525E+03;-0.47106805;0.0;0.072676584;2307.022
  3.9983106E-01;  9.9999998E-03; -2.6003212E-01;1651;-0.080558449;0.0;-0.01506306;1001.07;  4.0000001E-01;886.49255;3;-30.084866;0.0;-5.8523855;0;-0.4015308;  1.0025893E+04;  0.0000000E+00;  1.9452852E-04;  1.0000000E+04;  0.0000000E+00;  9.9955303E+03;-0.47213575;0.0;0.070604935;2223.2085
  3.9982888E-01;  9.9999998E-03; -2.4002768E-01;1652;-0.082109332;0.0;-0.013738752;1001.0688;  4.0000001E-01;885.50494;3;-28.222965;0.0;-5.0988231;0;-0.40262082;  1.0025725E+04;  0.0000000E+00;  9.2744427E-05;  1.0000000E+04;  0.0000000E+00;  9.9956709E+03;-0.47262171;0.0;0.070000894;2153.9734
  3.9982873E-01;  9.9999998E-03; -2.2002363E-01;1653;-0.08279226;0.0;-0.012444239;1001.0692;  4.0000001E-01;885.80127;3;-27.458824;0.0;-4.6336393;0;-0.40399659;  1.0025464E+04;  0.0000000E+00;  2.9357301E-05;  1.0000000E+04;  0.0000000E+00;  9.9959365E+03;-0.47228983;0.0;0.068293251;2024.3566
  3.9983001E-01;  9.9999998E-03; -2.0001990E-01;1654;-0.082809627;0.0;-0.011153175;1001.0687;  4.0000001E-01;885.40619;3;-27.388031;0.0;-4.3448582;0;-0.40506601;  1.0025104E+04;  0.0000000E+00;  4.6544428E-06;  1.0000000E+04;  0.0000000E+00;  9.9962881E+03;-0.47100386;0.0;0.065937832;1853.7665
  4.1981733E-01;  9.9999998E-03; -3.0004948E-01;1680;-0.08386492;0.0;-0.020132892;1001.2017;  4.0000001E-01;995.62488;3;-40.536049;0.0;-9.2924643;0;-0.43235335;  1.0029657E+04;  0.0000000E+00;  2.4114999E-04;  1.0000000E+04;  0.0000000E+00;  9.9944033E+03;-0.51384073;0.0;0.081487387;2780.6118
  4.1980940E-01;  9.9999998E-03; -2.8004295E-01;1681;-0.087691441;0.0;-0.018399589;1001.2157;  4.0000001E-01;1007.1801;3;-36.155838;0.0;-7.527813;0;-0.43755293;  1.0029595E+04;  0.0000000E+00;  3.4346437E-04;  1.0000000E+04;  0.0000000E+00;  9.9947461E+03;-0.51530218;0.0;0.077749267;2616.5879
  4.1980448E-01;  9.9999998E-03; -2.6003686E-01;1682;-0.090433449;0.0;-0.016741162;1001.2183;  4.0000001E-01;1009.3529;3;-32.665981;0.0;-6.2130685;0;-0.44018614;  1.0029456E+04;  0.0000000E+00;  2.4215250E-04;  1.0000000E+04;  0.0000000E+00;  9.9949355E+03;-0.51649004;0.0;0.076303907;2525.9458
  4.1980225E-01;  9.9999998E-03; -2.4003179E-01;1683;-0.092105322;0.0;-0.015340918;1001.2148;  4.0000001E-01;1006.4888;3;-30.541559;0.0;-5.4105473;0;-0.44089285;  1.0029228E+04;  0.0000000E+00;  1.1298771E-04;  1.0000000E+04;  0.0000000E+00;  9.9950957E+03;-0.51710576;0.0;0.076212913;2445.845
  4.1980228E-01;  9.9999998E-03; -2.2002715E-01;1684;-0.0928239;0.0;-0.01394705;1001.213;  4.0000001E-01;1004.9086;3;-29.662849;0.0;-4.9306726;0;-0.44211328;  1.0028883E+04;  0.0000000E+00;  3.4335630E-05;  1.0000000E+04;  0.0000000E+00;  9.9953994E+03;-0.51690388;0.0;0.07479059;2297.4319
  4.1980401E-01;  9.9999998E-03; -2.0002285E-01;1685;-0.092822827;0.0;-0.012523991;1001.2104;  4.0000001E-01;1002.8345;3;-29.588926;0.0;-4.6474619;0;-0.44304091;  1.0028441E+04;  0.0000000E+00;  4.9228415E-06;  1.0000000E+04;  0.0000000E+00;  9.9957910E+03;-0.51573282;0.0;0.072691932;2104.0728
  4.3978843E-01;  9.9999998E-03; -3.0005667E-01;1711;-0.094006032;0.0;-0.022172591;1001.3749;  4.0000001E-01;1139.0276;3;-44.257771;0.0;-9.8968954;0;-0.47534069;  1.0033876E+04;  0.0000000E+00;  2.7555792E-04;  1.0000000E+04;  0.0000000E+00;  9.9936514E+03;-0.56282741;0.0;0.087486714;3160.8354
  4.3977961E-01;  9.9999998E-03; -2.8004920E-01;1712;-0.098210432;0.0;-0.020298449;1001.3873;  4.0000001E-01;1149.299;3;-39.281071;0.0;-7.9467673;0;-0.48019853;  1.0033733E+04;  0.0000000E+00;  4.2800567E-04;  1.0000000E+04;  0.0000000E+00;  9.9940430E+03;-0.56395692;0.0;0.083758391;2973.2732
  4.3977425E-01;  9.9999998E-03; -2.6004219E-01;1713;-0.10119419;0.0;-0.018539883;1001.3875;  4.0000001E-01;1149.4965;3;-35.322189;0.0;-6.5152059;0;-0.48200858;  1.0033498E+04;  0.0000000E+00;  3.0460511E-04;  1.0000000E+04;  0.0000000E+00;  9.9942773E+03;-0.56481606;0.0;0.082807489;2858.3362
  4.3977198E-01;  9.9999998E-03; -2.4003631E-01;1714;-0.10300133;0.0;-0.01703045;1001.3802;  4.0000001E-01;1143.4719;3;-32.913876;0.0;-5.6593342;0;-0.48219132;  1.0033156E+04;  0.0000000E+00;  1.4132231E-04;  1.0000000E+04;  0.0000000E+00;  9.9944785E+03;-0.56512541;0.0;0.082934082;2758.5562
  4.3977231E-01;  9.9999998E-03; -2.2003102E-01;1715;-0.10376899;0.0;-0.015513104;1001.3748;  4.0000001E-01;1139.0276;3;-31.914223;0.0;-5.1702552;0;-0.48302871;  1.0032696E+04;  0.0000000E+00;  4.2590415E-05;  1.0000000E+04;  0.0000000E+00;  9.9948281E+03;-0.56466526;0.0;0.081636563;2586.5466
  4.3977454E-01;  9.9999998E-03; -2.0002614E-01;1716;-0.10375687;0.0;-0.013940331;1001.3685;  4.0000001E-01;1133.7932;3;-31.839249;0.0;-4.8863807;0;-0.48358777;  1.0032130E+04;  0.0000000E+00;  6.2622921E-06;  1.0000000E+04;  0.0000000E+00;  9.9952744E+03;-0.56330156;0.0;0.079713784;2366.7605
  4.5975527E-01;  9.9999998E-03; -3.0006510E-01;1742;-0.10507996;0.0;-0.024381902;1001.5725;  4.0000063E-01;1302.775;3;-48.144264;0.0;-10.451853;0;-0.52228498;  1.0038669E+04;  0.0000000E+00;  2.9149908E-04;  1.0000000E+04;  0.0000000E+00;  9.9927861E+03;-0.61650747;0.0;0.094222479;3600.7288
  4.5974553E-01;  9.9999998E-03; -2.8005645E-01;1743;-0.109684;0.0;-0.022358749;1001.5825;  4.0000075E-01;1311.071;3;-42.517109;0.0;-8.2920513;0;-0.52610373;  1.0038388E+04;  0.0000000E+00;  5.3322257E-04;  1.0000000E+04;  0.0000000E+00;  9.9932695E+03;-0.61671937;0.0;0.090615623;3366.0269
  4.5973977E-01;  9.9999998E-03; -2.6004818E-01;1744;-0.1129206;0.0;-0.020465232;1001.5798;  4.0000078E-01;1308.8983;3;-38.045807;0.0;-6.7413664;0;-0.52685142;  1.0038004E+04;  0.0000000E+00;  3.9062867E-04;  1.0000000E+04;  0.0000000E+00;  9.9936006E+03;-0.61666149;0.0;0.089810066;3203.2097
  4.5973760E-01;  9.9999998E-03; -2.4004133E-01;1745;-0.11487564;0.0;-0.01879772;1001.5668;  4.0000063E-01;1298.1332;3;-35.328106;0.0;-5.8293285;0;-0.52624041;  1.0037495E+04;  0.0000000E+00;  1.8458646E-04;  1.0000000E+04;  0.0000000E+00;  9.9938477E+03;-0.61610818;0.0;0.089867748;3080.519
  4.5973831E-01;  9.9999998E-03; -2.2003536E-01;1746;-0.11570054;0.0;-0.017138405;1001.5551;  4.0000075E-01;1288.3557;3;-34.200485;0.0;-5.324945;0;-0.52628505;  1.0036867E+04;  0.0000000E+00;  5.8082373E-05;  1.0000000E+04;  0.0000000E+00;  9.9942432E+03;-0.61490917;0.0;0.088624142;2884.9678
  4.5974123E-01;  9.9999998E-03; -2.0002995E-01;1747;-0.11568078;0.0;-0.015413721;1001.5436;  4.0000075E-01;1278.8745;3;-34.128944;0.0;-5.0401716;0;-0.52612793;  1.0036140E+04;  0.0000000E+00;  1.0566688E-05;  1.0000000E+04;  0.0000000E+00;  9.9947402E+03;-0.61298317;0.0;0.086855203;2638.5349
  4.7971699E-01;  9.9999998E-03; -3.0007505E-01;1773;-0.11722814;0.0;-0.026803868;1001.7916;  4.0000206E-01;1484.2992;3;-52.213428;0.0;-10.940495;0;-0.5721243;  1.0043952E+04;  0.0000000E+00;  2.8106943E-04;  1.0000000E+04;  0.0000000E+00;  9.9918281E+03;-0.6735729;0.0;0.10144859;4086.9736
  4.7970641E-01;  9.9999998E-03; -2.8006488E-01;1774;-0.12223241;0.0;-0.024611682;1001.8;  4.0000203E-01;1491.3114;3;-45.870476;0.0;-8.5362244;0;-0.57421803;  1.0043470E+04;  0.0000000E+00;  6.7399425E-04;  1.0000000E+04;  0.0000000E+00;  9.9924824E+03;-0.67214847;0.0;0.097930454;3768.1455
  4.7970045E-01;  9.9999998E-03; -2.6005492E-01;1775;-0.12571774;0.0;-0.022509025;1001.7937;  4.0000215E-01;1486.0769;3;-40.835278;0.0;-6.8651114;0;-0.5737896;  1.0042865E+04;  0.0000000E+00;  5.1881757E-04;  1.0000000E+04;  0.0000000E+00;  9.9929570E+03;-0.67046046;0.0;0.096670873;3533.8855
  4.7969851E-01;  9.9999998E-03; -2.4004696E-01;1776;-0.12782182;0.0;-0.020627614;1001.7705;  4.0000200E-01;1466.8182;3;-37.777607;0.0;-5.8940616;0;-0.5718292;  1.0042133E+04;  0.0000000E+00;  2.5574380E-04;  1.0000000E+04;  0.0000000E+00;  9.9932236E+03;-0.6683948;0.0;0.096565627;3399.3118
  4.7969985E-01;  9.9999998E-03; -2.2004040E-01;1777;-0.1286999;0.0;-0.018832596;1001.7492;  4.0000206E-01;1449.1398;3;-36.513107;0.0;-5.364255;0;-0.57041031;  1.0041283E+04;  0.0000000E+00;  8.8092092E-05;  1.0000000E+04;  0.0000000E+00;  9.9936465E+03;-0.66591436;0.0;0.095504053;3189.2805
  4.7970361E-01;  9.9999998E-03; -2.0003462E-01;1778;-0.12866814;0.0;-0.016982285;1001.7302;  4.0000206E-01;1433.4366;3;-36.448441;0.0;-5.0818229;0;-0.56905478;  1.0040358E+04;  0.0000000E+00;  2.1608603E-05;  1.0000000E+04;  0.0000000E+00;  9.9941846E+03;-0.66302454;0.0;0.093969777;2920.9785
  4.9967229E-01;  9.9999998E-03; -3.0008698E-01;1804;-0.13068515;0.0;-0.029492097;1002.0233;  4.0000480E-01;1676.2917;3;-56.523991;0.0;-11.341734;0;-0.62201762;  1.0049442E+04;  0.0000000E+00;  2.4740398E-04;  1.0000000E+04;  0.0000000E+00;  9.9908428E+03;-0.7305361;0.0;0.10851845;4587.7925
  4.9966136E-01;  9.9999998E-03; -2.8007475E-01;1805;-0.13602316;0.0;-0.027092936;1002.0317;  4.0000492E-01;1683.2051;3;-49.364891;0.0;-8.6516323;0;-0.62180746;  1.0048696E+04;  0.0000000E+00;  8.8414084E-04;  1.0000000E+04;  0.0000000E+00;  9.9917588E+03;-0.72675031;0.0;0.10494288;4136.7622
  4.9965557E-01;  9.9999998E-03; -2.6006258E-01;1806;-0.13971227;0.0;-0.024663791;1002.0194;  4.0000483E-01;1673.0326;3;-43.697693;0.0;-6.8495178;0;-0.62014621;  1.0047814E+04;  0.0000000E+00;  7.2581484E-04;  1.0000000E+04;  0.0000000E+00;  9.9924004E+03;-0.72272086;0.0;0.10257463;3823.4299
  4.9965420E-01;  9.9999998E-03; -2.4005355E-01;1807;-0.1419384;0.0;-0.022533111;1001.98;  4.0000489E-01;1640.3423;3;-40.264278;0.0;-5.8104424;0;-0.61581188;  1.0046808E+04;  0.0000000E+00;  3.7878027E-04;  1.0000000E+04;  0.0000000E+00;  9.9926113E+03;-0.71851802;0.0;0.10270616;3714.354
  4.9965644E-01;  9.9999998E-03; -2.2004665E-01;1808;-0.1428442;0.0;-0.020655183;1001.9453;  4.0000480E-01;1611.6024;3;-38.853004;0.0;-5.2834477;0;-0.61204338;  1.0045698E+04;  0.0000000E+00;  1.4464735E-04;  1.0000000E+04;  0.0000000E+00;  9.9930176E+03;-0.71425956;0.0;0.10221617;3509.7749
  4.9966130E-01;  9.9999998E-03; -2.0004074E-01;1809;-0.14278252;0.0;-0.018733952;1001.916;  4.0000492E-01;1587.4056;3;-38.79039;0.0;-4.9845042;0;-0.60895711;  1.0044549E+04;  0.0000000E+00;  4.5396388E-05;  1.0000000E+04;  0.0000000E+00;  9.9935830E+03;-0.71005696;0.0;0.10109986;3228.5234
  5.1961970E-01;  9.9999998E-03; -3.0010143E-01;1835;-0.14578138;0.0;-0.032521617;1002.2565;  4.0001333E-01;1869.468;3;-61.173504;0.0;-11.638328;0;-0.6663667;  1.0054606E+04;  0.0000000E+00;  2.1533338E-04;  1.0000000E+04;  0.0000000E+00;  9.9899219E+03;-0.78075212;0.0;0.1143854;5056.7827
  5.1960945E-01;  9.9999998E-03; -2.8008652E-01;1836;-0.15124707;0.0;-0.029859314;1002.2677;  4.0001333E-01;1878.7516;3;-53.038532;0.0;-8.6091204;0;-0.66341263;  1.0053560E+04;  0.0000000E+00;  1.2312143E-03;  1.0000000E+04;  0.0000000E+00;  9.9911836E+03;-0.77412802;0.0;0.11071541;4433.0132
  5.1960456E-01;  9.9999998E-03; -2.6007161E-01;1837;-0.15501516;0.0;-0.026963484;1002.2449;  4.0001324E-01;1859.8881;3;-46.645309;0.0;-6.6529255;0;-0.66031039;  1.0052363E+04;  0.0000000E+00;  1.0840807E-03;  1.0000000E+04;  0.0000000E+00;  9.9919258E+03;-0.76729703;0.0;0.10698666;4069.9624
  5.1960433E-01;  9.9999998E-03; -2.4006185E-01;1838;-0.1572853;0.0;-0.024602903;1002.1803;  4.0001333E-01;1806.359;3;-42.787235;0.0;-5.536109;0;-0.65208364;  1.0051062E+04;  0.0000000E+00;  5.9956725E-04;  1.0000000E+04;  0.0000000E+00;  9.9919424E+03;-0.76059341;0.0;0.10850981;4056.3933
  5.1960784E-01;  9.9999998E-03; -2.2005501E-01;1839;-0.15817153;0.0;-0.022743052;1002.1288;  4.0001330E-01;1763.6937;3;-41.212116;0.0;-5.0073714;0;-0.64505357;  1.0049688E+04;  0.0000000E+00;  2.4740267E-04;  1.0000000E+04;  0.0000000E+00;  9.9922803E+03;-0.75431007;0.0;0.10925648;3885.157
  5.1961404E-01;  9.9999998E-03; -2.0004922E-01;1840;-0.15804482;0.0;-0.020829545;1002.0891;  4.0001333E-01;1730.7072;3;-41.147598;0.0;-4.7349639;0;-0.63990641;  1.0048318E+04;  0.0000000E+00;  8.8392553E-05;  1.0000000E+04;  0.0000000E+00;  9.9928428E+03;-0.74865347;0.0;0.10874708;3599.3313
  5.3955781E-01;  9.9999998E-03; -3.0011919E-01;1866;-0.16282175;0.0;-0.03600499;1002.4758;  4.0003589E-01;2051.0879;3;-66.258057;0.0;-11.819855;0;-0.6961602;  1.0058587E+04;  0.0000000E+00;  2.3487408E-04;  1.0000000E+04;  0.0000000E+00;  9.9891729E+03;-0.81394345;0.0;0.11778323;5438.8345
  5.3955013E-01;  9.9999998E-03; -2.8010094E-01;1867;-0.16800666;0.0;-0.03301511;1002.4905;  4.0003586E-01;2063.3342;3;-56.916336;0.0;-8.3949013;0;-0.69015086;  1.0057262E+04;  0.0000000E+00;  1.8273524E-03;  1.0000000E+04;  0.0000000E+00;  9.9907969E+03;-0.80461597;0.0;0.11446515;4636.417
  5.3954744E-01;  9.9999998E-03; -2.6008311E-01;1868;-0.1716112;0.0;-0.029523976;1002.449;  4.0003592E-01;2028.8663;3;-49.666698;0.0;-6.2555799;0;-0.68509531;  1.0055785E+04;  0.0000000E+00;  1.7254211E-03;  1.0000000E+04;  0.0000000E+00;  9.9914395E+03;-0.79514951;0.0;0.11005421;4319.6729
  5.3954911E-01;  9.9999998E-03; -2.4007310E-01;1869;-0.17378405;0.0;-0.027038271;1002.3513;  4.0003595E-01;1947.9803;3;-45.331833;0.0;-5.0498719;0;-0.67106092;  1.0054220E+04;  0.0000000E+00;  1.0054971E-03;  1.0000000E+04;  0.0000000E+00;  9.9910576E+03;-0.78617579;0.0;0.11511485;4498.9819
  5.3955430E-01;  9.9999998E-03; -2.2006679E-01;1870;-0.17457043;0.0;-0.025348203;1002.2817;  4.0003601E-01;1890.3033;3;-43.562668;0.0;-4.5426412;0;-0.6602003;  1.0052628E+04;  0.0000000E+00;  4.3162968E-04;  1.0000000E+04;  0.0000000E+00;  9.9912549E+03;-0.77813941;0.0;0.11793914;4392.6582
  5.3956205E-01;  9.9999998E-03; -2.0006125E-01;1871;-0.17435573;0.0;-0.023525909;1002.2332;  4.0003598E-01;1850.2061;3;-43.496719;0.0;-4.3307519;0;-0.6531592;  1.0051079E+04;  0.0000000E+00;  1.5442909E-04;  1.0000000E+04;  0.0000000E+00;  9.9918242E+03;-0.77130097;0.0;0.11814175;4104.7197
  5.5948651E-01;  9.9999998E-03; -3.0014142E-01;1897;-0.1817752;0.0;-0.040128529;1002.685;  4.0009663E-01;2224.4097;3;-71.7659;0.0;-11.885474;0;-0.69806111;  1.0060234E+04;  0.0000000E+00;  3.7524544E-04;  1.0000000E+04;  0.0000000E+00;  9.9886357E+03;-0.81604409;0.0;0.11798295;5712.2446
  5.5948412E-01;  9.9999998E-03; -2.8011942E-01;1898;-0.18608361;0.0;-0.036761429;1002.702;  4.0009665E-01;2238.5325;3;-60.947803;0.0;-8.0047188;0;-0.68904203;  1.0058737E+04;  0.0000000E+00;  2.8243710E-03;  1.0000000E+04;  0.0000000E+00;  9.9904775E+03;-0.80524653;0.0;0.11620449;4798.3281
  5.5948526E-01;  9.9999998E-03; -2.6009873E-01;1899;-0.18918633;0.0;-0.032616377;1002.6321;  4.0009663E-01;2180.6582;3;-52.708065;0.0;-5.6501532;0;-0.68116391;  1.0057100E+04;  0.0000000E+00;  2.8475029E-03;  1.0000000E+04;  0.0000000E+00;  9.9907197E+03;-0.79446918;0.0;0.11330527;4677.6089
  5.5948979E-01;  9.9999998E-03; -2.4008897E-01;1900;-0.19103153;0.0;-0.030220058;1002.4973;  4.0009671E-01;2068.8599;3;-47.83596;0.0;-4.3724947;0;-0.65984267;  1.0055407E+04;  0.0000000E+00;  1.7358614E-03;  1.0000000E+04;  0.0000000E+00;  9.9897236E+03;-0.78452915;0.0;0.12468646;5153.4814
  5.5949712E-01;  9.9999998E-03; -2.2008352E-01;1901;-0.19164856;0.0;-0.028829806;1002.4128;  4.0009686E-01;1998.9366;3;-45.82613;0.0;-3.9375598;0;-0.6455102;  1.0053715E+04;  0.0000000E+00;  7.5649004E-04;  1.0000000E+04;  0.0000000E+00;  9.9897236E+03;-0.7758736;0.0;0.13036342;5142.064
  5.5950648E-01;  9.9999998E-03; -2.0007798E-01;1902;-0.19135539;0.0;-0.027077999;1002.3618;  4.0009677E-01;1956.6666;3;-45.76643;0.0;-3.764483;0;-0.6375404;  1.0052103E+04;  0.0000000E+00;  2.4611031E-04;  1.0000000E+04;  0.0000000E+00;  9.9903057E+03;-0.76874256;0.0;0.13120216;4845.7383
  5.7940871E-01;  9.9999998E-03; -3.0017000E-01;1928;-0.20185934;0.0;-0.045216192;1002.9542;  4.0025771E-01;2447.4053;3;-77.455246;0.0;-11.923814;0;-0.65218794;  1.0058036E+04;  0.0000000E+00;  7.5603055E-04;  1.0000000E+04;  0.0000000E+00;  9.9881162E+03;-0.76799601;0.0;0.11580805;5959.127
  5.7941455E-01;  9.9999998E-03; -2.8014448E-01;1929;-0.20464407;0.0;-0.041472826;1002.9694;  4.0025786E-01;2460.0469;3;-64.942932;0.0;-7.4697003;0;-0.64091468;  1.0056600E+04;  0.0000000E+00;  4.4422713E-03;  1.0000000E+04;  0.0000000E+00;  9.9898594E+03;-0.75851512;0.0;0.11760047;5090.7212
  5.7942098E-01;  9.9999998E-03; -2.6012117E-01;1930;-0.20691431;0.0;-0.036791861;1002.8691;  4.0025795E-01;2376.9885;3;-55.645992;0.0;-4.8147931;0;-0.62960094;  1.0055056E+04;  0.0000000E+00;  4.7166375E-03;  1.0000000E+04;  0.0000000E+00;  9.9894072E+03;-0.74950379;0.0;0.11990283;5310.2192
  5.7942891E-01;  9.9999998E-03; -2.4011134E-01;1931;-0.20826375;0.0;-0.034573227;1002.7039;  4.0025797E-01;2240.1052;3;-50.118492;0.0;-3.6252499;0;-0.60225594;  1.0053487E+04;  0.0000000E+00;  2.9691691E-03;  1.0000000E+04;  0.0000000E+00;  9.9876807E+03;-0.74164289;0.0;0.13938697;6138.1885
  5.7943869E-01;  9.9999998E-03; -2.2010629E-01;1932;-0.20861088;0.0;-0.033402991;1002.6148;  4.0025800E-01;2166.3306;3;-47.827084;0.0;-3.2978656;0;-0.58668673;  1.0051938E+04;  0.0000000E+00;  1.2944249E-03;  1.0000000E+04;  0.0000000E+00;  9.9874482E+03;-0.7350263;0.0;0.14833958;6238.9351
  5.7944965E-01;  9.9999998E-03; -2.0010017E-01;1933;-0.20827486;0.0;-0.031659231;1002.5712;  4.0025815E-01;2130.1838;3;-47.822517;0.0;-3.0816786;0;-0.57970172;  1.0050452E+04;  0.0000000E+00;  3.6633486E-04;  1.0000000E+04;  0.0000000E+00;  9.9880615E+03;-0.72962052;0.0;0.14991878;5928.252
  5.9933108E-01;  9.9999998E-03; -3.0020797E-01;1959;-0.22143976;0.0;-0.051693767;1003.5287;  4.0066683E-01;2923.4224;3;-82.939316;0.0;-12.084052;0;-0.53092897;  1.0050199E+04;  0.0000000E+00;  1.5338393E-03;  1.0000000E+04;  0.0000000E+00;  9.9869697E+03;-0.64495617;0.0;0.11402719;6495.77
  5.9934646E-01;  9.9999998E-03; -2.8018007E-01;1960;-0.22231735;0.0;-0.047779929;1003.5381;  4.0066713E-01;2931.2244;3;-68.631371;0.0;-6.8338418;0;-0.51810533;  1.0049157E+04;  0.0000000E+00;  6.9823144E-03;  1.0000000E+04;  0.0000000E+00;  9.9881953E+03;-0.64109117;0.0;0.12298585;5878.5698
  5.9935892E-01;  9.9999998E-03; -2.6015407E-01;1961;-0.22341992;0.0;-0.043062832;1003.4275;  4.0066734E-01;2839.5742;3;-58.260845;0.0;-3.9251969;0;-0.50358135;  1.0048072E+04;  0.0000000E+00;  7.6606018E-03;  1.0000000E+04;  0.0000000E+00;  9.9870781E+03;-0.63843292;0.0;0.13485156;6418.5811
  5.9937018E-01;  9.9999998E-03; -2.4014167E-01;1962;-0.22436067;0.0;-0.040352754;1003.2595;  4.0066761E-01;2700.3215;3;-51.960945;0.0;-2.9342322;0;-0.47807723;  1.0046991E+04;  0.0000000E+00;  4.9256417E-03;  1.0000000E+04;  0.0000000E+00;  9.9848145E+03;-0.63722211;0.0;0.15914488;7507.4126
  5.9938198E-01;  9.9999998E-03; -2.2013506E-01;1963;-0.22465554;0.0;-0.038949426;1003.1816;  4.0066794E-01;2635.8306;3;-49.556492;0.0;-2.3813322;0;-0.46478748;  1.0045917E+04;  0.0000000E+00;  2.1391457E-03;  1.0000000E+04;  0.0000000E+00;  9.9843271E+03;-0.63689572;0.0;0.17210822;7731.1577
  5.9939444E-01;  9.9999998E-03; -2.0012712E-01;1964;-0.22429453;0.0;-0.036995653;1003.1597;  4.0066788E-01;2617.6584;3;-49.626537;0.0;-2.139971;0;-0.46158925;  1.0044847E+04;  0.0000000E+00;  5.2271853E-04;  1.0000000E+04;  0.0000000E+00;  9.9849512E+03;-0.63676912;0.0;0.17517987;7415.9966
  6.1926252E-01;  9.9999998E-03; -3.0025995E-01;1990;-0.23844206;0.0;-0.060373668;1004.947;  4.0160507E-01;4098.4551;3;-87.547012;0.0;-12.247764;0;-0.29544589;  1.0034979E+04;  0.0000000E+00;  2.7380497E-03;  1.0000000E+04;  0.0000000E+00;  9.9837051E+03;-0.41975319;0.0;0.12430731;8035.5034
  6.1928576E-01;  9.9999998E-03; -2.8023180E-01;1991;-0.23751785;0.0;-0.056980208;1004.9593;  4.0160576E-01;4108.6274;3;-71.603233;0.0;-6.4486256;0;-0.28189981;  1.0034700E+04;  0.0000000E+00;  1.0467391E-02;  1.0000000E+04;  0.0000000E+00;  9.9841943E+03;-0.42632368;0.0;0.14442387;7775.4199
  6.1930150E-01;  9.9999998E-03; -2.6020038E-01;1992;-0.23826072;0.0;-0.051588025;1004.909;  4.0160641E-01;4066.9507;3;-60.042519;0.0;-3.7000268;0;-0.28033662;  1.0034439E+04;  0.0000000E+00;  1.1684434E-02;  1.0000000E+04;  0.0000000E+00;  9.9834541E+03;-0.43477917;0.0;0.15444253;8134.5083
  6.1931562E-01;  9.9999998E-03; -2.4018131E-01;1993;-0.23896106;0.0;-0.047580816;1004.7834;  4.0160692E-01;3962.8572;3;-53.520256;0.0;-1.9687381;0;-0.26373178;  1.0034217E+04;  0.0000000E+00;  7.7362875E-03;  1.0000000E+04;  0.0000000E+00;  9.9811719E+03;-0.4448784;0.0;0.18114664;9235.585
  6.1932975E-01;  9.9999998E-03; -2.2016977E-01;1994;-0.23895708;0.0;-0.045521952;1004.7354;  4.0160736E-01;3923.1555;3;-50.998455;0.0;-1.2703469;0;-0.25568411;  1.0033983E+04;  0.0000000E+00;  3.4133594E-03;  1.0000000E+04;  0.0000000E+00;  9.9804482E+03;-0.45533755;0.0;0.19965345;9573.3457
  6.1934364E-01;  9.9999998E-03; -2.0015804E-01;1995;-0.23857559;0.0;-0.042865332;1004.7477;  4.0160757E-01;3933.3279;3;-51.105408;0.0;-0.82520562;0;-0.258672;  1.0033652E+04;  0.0000000E+00;  7.7770394E-04;  1.0000000E+04;  0.0000000E+00;  9.9810029E+03;-0.46460059;0.0;0.20592858;9291.0039
  6.3921171E-01;  9.9999998E-03; -3.0032900E-01;2021;-0.25069648;0.0;-0.071538843;1007.7345;  4.0333158E-01;6407.7158;3;-90.756813;0.0;-12.62066;0;0.078400485;  1.0011399E+04;  0.0000000E+00;  3.9216108E-03;  1.0000000E+04;  0.0000000E+00;  9.9769736E+03;-0.073370852;0.0;0.15177134;11239.052
  6.3923723E-01;  9.9999998E-03; -2.8030312E-01;2022;-0.2496313;0.0;-0.06949228;1007.7761;  4.0333286E-01;6442.1831;3;-74.00528;0.0;-6.5563846;0;0.091893524;  1.0012171E+04;  0.0000000E+00;  1.3810189E-02;  1.0000000E+04;  0.0000000E+00;  9.9769688E+03;-0.094008073;0.0;0.1859016;11213.581
  6.3925457E-01;  9.9999998E-03; -2.6026973E-01;2023;-0.25043839;0.0;-0.063885234;1007.8375;  4.0333366E-01;6493.0439;3;-61.659252;0.0;-3.5655875;0;0.070067599;  1.0013014E+04;  0.0000000E+00;  1.5960762E-02;  1.0000000E+04;  0.0000000E+00;  9.9773320E+03;-0.1167769;0.0;0.1868445;11042.91
  6.3926917E-01;  9.9999998E-03; -2.4023670E-01;2024;-0.25114956;0.0;-0.057733789;1007.8468;  4.0333432E-01;6500.7476;3;-54.795082;0.0;-1.1706153;0;0.064284042;  1.0013904E+04;  0.0000000E+00;  1.1046076E-02;  1.0000000E+04;  0.0000000E+00;  9.9766201E+03;-0.14104174;0.0;0.20532578;11381.092
  6.3928419E-01;  9.9999998E-03; -2.2021168E-01;2025;-0.25101292;0.0;-0.053048063;1007.863;  4.0333498E-01;6514.1787;3;-52.045338;0.0;0.013940288;0;0.061539531;  1.0014748E+04;  0.0000000E+00;  5.1301573E-03;  1.0000000E+04;  0.0000000E+00;  9.9760801E+03;-0.16498718;0.0;0.22652671;11628.381
  6.3930011E-01;  9.9999998E-03; -2.0019357E-01;2026;-0.25034952;0.0;-0.049254593;1007.9163;  4.0333539E-01;6558.3242;3;-52.209652;0.0;0.66925234;0;0.052570432;  1.0015412E+04;  0.0000000E+00;  1.2714415E-03;  1.0000000E+04;  0.0000000E+00;  9.9764512E+03;-0.18629949;0.0;0.23886992;11433.309
  6.5918469E-01;  9.9999998E-03; -3.0040950E-01;2052;-0.25675243;0.0;-0.084241062;1011.1685;  4.0551752E-01;9252.4824;3;-92.353683;0.0;-12.853758;0;0.5716508;  9.9802041E+03;  0.0000000E+00;  3.7302987E-03;  1.0000000E+04;  0.0000000E+00;  9.9681572E+03;0.38909489;0.0;0.18255591;15449.373
  6.5920860E-01;  9.9999998E-03; -2.8038713E-01;2053;-0.25615528;0.0;-0.084985837;1011.2626;  4.0551880E-01;9330.4033;3;-74.889648;0.0;-7.3710122;0;0.59612262;  9.9821113E+03;  0.0000000E+00;  1.4928138E-02;  1.0000000E+04;  0.0000000E+00;  9.9680537E+03;0.35411641;0.0;0.2420062;15443.074
  6.5922689E-01;  9.9999998E-03; -2.6036093E-01;2054;-0.25738904;0.0;-0.080171563;1011.4162;  4.0551922E-01;9457.7021;3;-62.094147;0.0;-4.2526259;0;0.54644656;  9.9841182E+03;  0.0000000E+00;  1.8607119E-02;  1.0000000E+04;  0.0000000E+00;  9.9690732E+03;0.31720462;0.0;0.22924192;14970.979
  6.5924120E-01;  9.9999998E-03; -2.4031803E-01;2055;-0.25818941;0.0;-0.073440351;1011.6091;  4.0551934E-01;9617.4941;3;-55.155403;0.0;-1.4708009;0;0.51466435;  9.9861602E+03;  0.0000000E+00;  1.3758552E-02;  1.0000000E+04;  0.0000000E+00;  9.9708506E+03;0.27958456;0.0;0.23507978;14091.741
  6.5925437E-01;  9.9999998E-03; -2.2027230E-01;2056;-0.25877067;0.0;-0.064346649;1011.7357;  4.0551963E-01;9722.375;3;-52.569775;0.0;0.76752853;0;0.49377325;  9.9881143E+03;  0.0000000E+00;  6.9257827E-03;  1.0000000E+04;  0.0000000E+00;  9.9714033E+03;0.2432119;0.0;0.25056136;13810.657
  6.5926993E-01;  9.9999998E-03; -2.0023967E-01;2057;-0.25841767;0.0;-0.057342034;1011.8374;  4.0552002E-01;9806.6162;3;-52.84795;0.0;2.1179323;0;0.47999227;  9.9898066E+03;  0.0000000E+00;  2.0774889E-03;  1.0000000E+04;  0.0000000E+00;  9.9717080E+03;0.2106521;0.0;0.26934019;13643.785
  6.7919481E-01;  9.9999998E-03; -3.0048430E-01;2083;-0.25219777;0.0;-0.094467461;1013.4258;  4.0727627E-01;11122.409;3;-89.021866;0.0;-11.524236;0;1.0854398;  9.9446973E+03;  0.0000000E+00;  1.3980916E-03;  1.0000000E+04;  0.0000000E+00;  9.9617549E+03;0.92273855;0.0;0.16270122;18514.842
  6.7920649E-01;  9.9999998E-03; -2.8046519E-01;2084;-0.25554377;0.0;-0.099735834;1013.5589;  4.0727672E-01;11232.622;3;-73.066917;0.0;-7.1916347;0;1.1530421;  9.9474648E+03;  0.0000000E+00;  1.1883614E-02;  1.0000000E+04;  0.0000000E+00;  9.9615967E+03;0.87904412;0.0;0.27399802;18468.447
  6.7922378E-01;  9.9999998E-03; -2.6045004E-01;2085;-0.25807902;0.0;-0.09671697;1013.7361;  4.0727657E-01;11379.473;3;-61.093498;0.0;-5.2271624;0;1.0891035;  9.9503965E+03;  0.0000000E+00;  1.7489254E-02;  1.0000000E+04;  0.0000000E+00;  9.9621738E+03;0.83342516;0.0;0.25567824;18224.787
  6.7923737E-01;  9.9999998E-03; -2.4041303E-01;2086;-0.25887206;0.0;-0.092884973;1014.0299;  4.0727586E-01;11622.81;3;-54.372505;0.0;-1.7941324;0;1.0508068;  9.9533252E+03;  0.0000000E+00;  1.4256507E-02;  1.0000000E+04;  0.0000000E+00;  9.9650732E+03;0.78835505;0.0;0.26245177;16792.666
  6.7924678E-01;  9.9999998E-03; -2.2035214E-01;2087;-0.26050669;0.0;-0.081121236;1014.2643;  4.0727520E-01;11817.065;3;-52.250893;0.0;0.86607045;0;1.0150567;  9.9561211E+03;  0.0000000E+00;  7.9200370E-03;  1.0000000E+04;  0.0000000E+00;  9.9669180E+03;0.74555683;0.0;0.2694999;15879.779
  6.7925984E-01;  9.9999998E-03; -2.0030311E-01;2088;-0.26094961;0.0;-0.070391916;1014.4099;  4.0727508E-01;11937.647;3;-52.794807;0.0;3.2491889;0;1.0004245;  9.9586279E+03;  0.0000000E+00;  2.9178474E-03;  1.0000000E+04;  0.0000000E+00;  9.9672881E+03;0.70713687;0.0;0.29328766;15679.939
  6.9931072E-01;  9.9999998E-03; -3.0054218E-01;2114;-0.21432072;0.0;-0.10468887;1014.0199;  4.0824538E-01;11614.282;3;-72.279922;0.0;-12.65144;0;1.582166;  9.9109189E+03;  0.0000000E+00;  4.0969662E-03;  1.0000000E+04;  0.0000000E+00;  9.9598262E+03;1.4367512;0.0;0.14541472;19346.65
  6.9926357E-01;  9.9999998E-03; -2.8052571E-01;2115;-0.23977351;0.0;-0.11175435;1014.1269;  4.0824515E-01;11702.964;3;-67.032875;0.0;-8.4012222;0;1.6670604;  9.9138037E+03;  0.0000000E+00;  7.6087709E-03;  1.0000000E+04;  0.0000000E+00;  9.9591016E+03;1.3980223;0.0;0.26903805;19566.377
  6.9926202E-01;  9.9999998E-03; -2.6052317E-01;2116;-0.24870166;0.0;-0.11025726;1014.2297;  4.0824458E-01;11788.189;3;-57.803696;0.0;-5.3743582;0;1.6100665;  9.9169844E+03;  0.0000000E+00;  1.2883897E-02;  1.0000000E+04;  0.0000000E+00;  9.9579854E+03;1.3561921;0.0;0.25387439;20167.563
  6.9927329E-01;  9.9999998E-03; -2.4050109E-01;2117;-0.24889149;0.0;-0.11331889;1014.5245;  4.0824339E-01;12032.411;3;-51.25132;0.0;-1.9382048;0;1.5976824;  9.9201846E+03;  0.0000000E+00;  1.1903632E-02;  1.0000000E+04;  0.0000000E+00;  9.9606309E+03;1.3153589;0.0;0.28232351;18833.432
  6.9927758E-01;  9.9999998E-03; -2.2044380E-01;2118;-0.25125957;0.0;-0.1052745;1014.805;  4.0824214E-01;12264.683;3;-49.88179;0.0;-0.24945837;0;1.5631218;  9.9232676E+03;  0.0000000E+00;  7.2949659E-03;  1.0000000E+04;  0.0000000E+00;  9.9630996E+03;1.277025;0.0;0.28609678;17615.502
  6.9928604E-01;  9.9999998E-03; -2.0038600E-01;2119;-0.25305915;0.0;-0.092896536;1014.9755;  4.0824148E-01;12405.902;3;-51.13892;0.0;2.4244325;0;1.5519552;  9.9261270E+03;  0.0000000E+00;  3.1839490E-03;  1.0000000E+04;  0.0000000E+00;  9.9636182E+03;1.2422276;0.0;0.30972761;17343.986
  7.1952671E-01;  9.9999998E-03; -3.0058506E-01;2145;-0.1426841;0.0;-0.11189736;1013.8268;  4.0867072E-01;11454.085;3;-45.592216;0.0;-14.104067;0;1.9150944;  9.8860146E+03;  0.0000000E+00;  7.8780781E-03;  1.0000000E+04;  0.0000000E+00;  9.9602715E+03;1.8152856;0.0;0.099808753;19070.338
  7.1946841E-01;  9.9999998E-03; -2.8056833E-01;2146;-0.17009388;0.0;-0.11980305;1013.8828;  4.0867075E-01;11500.4;3;-44.717995;0.0;-7.4427872;0;2.0371807;  9.8880498E+03;  0.0000000E+00;  1.1025432E-02;  1.0000000E+04;  0.0000000E+00;  9.9593711E+03;1.7998711;0.0;0.23730963;19358.516
  7.1942329E-01;  9.9999998E-03; -2.6057023E-01;2147;-0.19524422;0.0;-0.12110238;1013.8796;  4.0867046E-01;11497.834;3;-44.701847;0.0;-5.6752906;0;2.0256023;  9.8904668E+03;  0.0000000E+00;  1.0427235E-02;  1.0000000E+04;  0.0000000E+00;  9.9569443E+03;1.780386;0.0;0.24521627;20575.119
  7.1939725E-01;  9.9999998E-03; -2.4056233E-01;2148;-0.21196926;0.0;-0.12839951;1014.0773;  4.0866894E-01;11661.565;3;-44.346622;0.0;-1.8007318;0;2.0458486;  9.8930498E+03;  0.0000000E+00;  8.2705375E-03;  1.0000000E+04;  0.0000000E+00;  9.9583105E+03;1.7599511;0.0;0.28589752;19860.816
  7.1938819E-01;  9.9999998E-03; -2.2052228E-01;2149;-0.21988806;0.0;-0.12947252;1014.3197;  4.0866774E-01;11862.329;3;-43.75922;0.0;-0.88303554;0;2.0373559;  9.8956758E+03;  0.0000000E+00;  5.2231965E-03;  1.0000000E+04;  0.0000000E+00;  9.9604834E+03;1.7398852;0.0;0.29747066;18779.211
  7.1939290E-01;  9.9999998E-03; -2.0047189E-01;2150;-0.22307448;0.0;-0.12398303;1014.4772;  4.0866709E-01;11992.88;3;-45.089043;0.0;-0.94349831;0;2.0404415;  9.8983057E+03;  0.0000000E+00;  2.5452122E-03;  1.0000000E+04;  0.0000000E+00;  9.9609736E+03;1.7199043;0.0;0.32053715;18521.154
  7.3971373E-01;  9.9999998E-03; -3.0061680E-01;2176;-0.085291408;0.0;-0.11571324;1013.6548;  4.0883806E-01;11311.168;3;-26.960167;0.0;-11.670567;0;2.0325177;  9.8741699E+03;  0.0000000E+00;  1.7290022E-03;  1.0000000E+04;  0.0000000E+00;  9.9607227E+03;1.9896544;0.0;0.042863134;18868.15
  7.3967510E-01;  9.9999998E-03; -2.8059667E-01;2177;-0.10234132;0.0;-0.12703267;1013.6764;  4.0883827E-01;11329.042;3;-26.28311;0.0;-5.1290531;0;2.2371993;  9.8748877E+03;  0.0000000E+00;  7.5132661E-03;  1.0000000E+04;  0.0000000E+00;  9.9604453E+03;2.0040436;0.0;0.2331557;18769.711
  7.3964363E-01;  9.9999998E-03; -2.6058593E-01;2178;-0.11848691;0.0;-0.12449905;1013.6625;  4.0883818E-01;11317.489;3;-26.053493;0.0;-5.9448562;0;2.2215197;  9.8758623E+03;  0.0000000E+00;  7.1859355E-03;  1.0000000E+04;  0.0000000E+00;  9.9592207E+03;2.0181282;0.0;0.20339149;19422.559
  7.3962098E-01;  9.9999998E-03; -2.4057461E-01;2179;-0.13135143;0.0;-0.12948716;1013.7225;  4.0883714E-01;11367.16;3;-26.073099;0.0;-1.8527222;0;2.2824981;  9.8771318E+03;  0.0000000E+00;  4.9937814E-03;  1.0000000E+04;  0.0000000E+00;  9.9591777E+03;2.0301352;0.0;0.252363;19393.23
  7.3960942E-01;  9.9999998E-03; -2.2053796E-01;2180;-0.13994324;0.0;-0.13092211;1013.8445;  4.0883616E-01;11468.279;3;-27.097658;0.0;-0.67547292;0;2.3203523;  9.8787246E+03;  0.0000000E+00;  2.9038284E-03;  1.0000000E+04;  0.0000000E+00;  9.9600166E+03;2.0382648;0.0;0.28208765;18948.084
  7.3960876E-01;  9.9999998E-03; -2.0049138E-01;2181;-0.14446442;0.0;-0.12652966;1013.928;  4.0883541E-01;11537.503;3;-28.791733;0.0;0.14115915;0;2.3579888;  9.8806709E+03;  0.0000000E+00;  1.4414841E-03;  1.0000000E+04;  0.0000000E+00;  9.9597285E+03;2.0407076;0.0;0.31728113;19057.066
  7.5984919E-01;  9.9999998E-03; -3.0063969E-01;2207;-0.04767178;0.0;-0.11879682;1013.7863;  4.0890041E-01;11419.421;3;-16.980574;0.0;-9.1923437;0;2.0004272;  9.8742188E+03;  0.0000000E+00; -3.7669591E-03;  1.0000000E+04;  0.0000000E+00;  9.9602715E+03;1.9848139;0.0;0.015613256;19122.941
  7.5982708E-01;  9.9999998E-03; -2.8061718E-01;2208;-0.056596331;0.0;-0.13341127;1013.7599;  4.0890065E-01;11397.697;3;-16.178465;0.0;-3.4978681;0;2.2833428;  9.8736924E+03;  0.0000000E+00;  1.5036262E-03;  1.0000000E+04;  0.0000000E+00;  9.9602891E+03;2.0240679;0.0;0.25927499;18795.322
  7.5980937E-01;  9.9999998E-03; -2.6059207E-01;2209;-0.065005869;0.0;-0.126118;1013.7729;  4.0890080E-01;11408.362;3;-15.559072;0.0;-6.5492849;0;2.2461441;  9.8732754E+03;  0.0000000E+00;  2.4599915E-03;  1.0000000E+04;  0.0000000E+00;  9.9609814E+03;2.0669568;0.0;0.17918731;18550.633
  7.5979501E-01;  9.9999998E-03; -2.4057466E-01;2210;-0.072373666;0.0;-0.12771566;1013.723;  4.0890011E-01;11367.088;3;-15.358109;0.0;-1.9389787;0;2.3374085;  9.8732031E+03;  0.0000000E+00;  1.7634237E-03;  1.0000000E+04;  0.0000000E+00;  9.9601074E+03;2.1080136;0.0;0.22939497;18926.721
  7.5978619E-01;  9.9999998E-03; -2.2053847E-01;2211;-0.077860661;0.0;-0.12755343;1013.7382;  4.0889946E-01;11379.728;3;-15.776468;0.0;0.6356191;0;2.4139516;  9.8736758E+03;  0.0000000E+00;  9.8753779E-04;  1.0000000E+04;  0.0000000E+00;  9.9599697E+03;2.1424961;0.0;0.2714555;18945.561
  7.5978327E-01;  9.9999998E-03; -2.0049439E-01;2212;-0.081425838;0.0;-0.12242559;1013.7515;  4.0889877E-01;11390.688;3;-16.811316;0.0;3.3401136;0;2.4814172;  9.8747852E+03;  0.0000000E+00;  4.9737870E-04;  1.0000000E+04;  0.0000000E+00;  9.9591416E+03;2.1666923;0.0;0.31472504;19309.693
  7.7994257E-01;  9.9999998E-03; -3.0065468E-01;2238;-0.023790192;0.0;-0.12117343;1014.1521;  4.0892249E-01;11721.679;3;-11.770668;0.0;-8.0324545;0;1.895118;  9.8814648E+03;  0.0000000E+00; -3.1723918E-03;  1.0000000E+04;  0.0000000E+00;  9.9590898E+03;1.8835212;0.0;0.011596803;19728.746
  7.7993405E-01;  9.9999998E-03; -2.8063059E-01;2239;-0.02671984;0.0;-0.13745572;1014.085;  4.0892291E-01;11666.188;3;-10.887138;0.0;-2.1128097;0;2.2257242;  9.8800342E+03;  0.0000000E+00; -7.8801834E-04;  1.0000000E+04;  0.0000000E+00;  9.9592119E+03;1.9385437;0.0;0.28718042;19301.926
  7.7992749E-01;  9.9999998E-03; -2.6059625E-01;2240;-0.029349618;0.0;-0.12875091;1014.1195;  4.0892297E-01;11694.724;3;-10.051044;0.0;-8.2199917;0;2.1870067;  9.8786348E+03;  0.0000000E+00;  6.8492853E-05;  1.0000000E+04;  0.0000000E+00;  9.9613115E+03;1.9990431;0.0;0.18796352;18374.406
  7.7992088E-01;  9.9999998E-03; -2.4057318E-01;2241;-0.032057296;0.0;-0.12654428;1014.014;  4.0892240E-01;11607.341;3;-9.5182076;0.0;-1.8765188;0;2.2856023;  9.8776074E+03;  0.0000000E+00;  1.6139541E-04;  1.0000000E+04;  0.0000000E+00;  9.9603037E+03;2.0580385;0.0;0.22756393;18824.52
  7.7991551E-01;  9.9999998E-03; -2.2053565E-01;2242;-0.03452668;0.0;-0.12425871;1013.9678;  4.0892190E-01;11569.131;3;-9.3728485;0.0;2.2483692;0;2.3819218;  9.8772227E+03;  0.0000000E+00;  9.1945483E-05;  1.0000000E+04;  0.0000000E+00;  9.9598135E+03;2.1092286;0.0;0.27269325;19012.836
  7.7991229E-01;  9.9999998E-03; -2.0049210E-01;2243;-0.036557056;0.0;-0.11842687;1013.9384;  4.0892133E-01;11544.644;3;-9.6289206;0.0;5.678298;0;2.4655719;  9.8776523E+03;  0.0000000E+00;  4.7390782E-05;  1.0000000E+04;  0.0000000E+00;  9.9588320E+03;2.1476657;0.0;0.31790611;19446.5
  8.0001640E-01;  9.9999998E-03; -3.0066225E-01;2269;-0.0041129608;0.0;-0.12255005;1014.5764;  4.0892881E-01;12071.989;3;-6.6918268;0.0;-7.9230738;0;1.7859415;  9.8907676E+03;  0.0000000E+00; -5.5291742E-04;  1.0000000E+04;  0.0000000E+00;  9.9577314E+03;1.7699343;0.0;0.016007148;20406.865
  8.0001909E-01;  9.9999998E-03; -2.8063762E-01;2270;-0.002401235;0.0;-0.13928062;1014.479;  4.0892923E-01;11991.427;3;-5.9840708;0.0;-0.9748342;0;2.1385834;  9.8888682E+03;  0.0000000E+00; -3.4568564E-04;  1.0000000E+04;  0.0000000E+00;  9.9577246E+03;1.8311983;0.0;0.307385;20022.469
  8.0002129E-01;  9.9999998E-03; -2.6059985E-01;2271;-0.00069093733;0.0;-0.13122638;1014.5229;  4.0892917E-01;12027.759;3;-5.2351408;0.0;-8.8466177;0;2.1109729;  9.8869971E+03;  0.0000000E+00; -1.7495210E-04;  1.0000000E+04;  0.0000000E+00;  9.9604775E+03;1.8976279;0.0;0.21334493;18760.084
  8.0002147E-01;  9.9999998E-03; -2.4057323E-01;2272;0.0003644235;0.0;-0.12715007;1014.4111;  4.0892869E-01;11935.151;3;-4.5754805;0.0;-2.212965;0;2.2047958;  9.8855078E+03;  0.0000000E+00; -8.2621780E-05;  1.0000000E+04;  0.0000000E+00;  9.9598105E+03;1.9623272;0.0;0.24246866;19053.98
  8.0001968E-01;  9.9999998E-03; -2.2053339E-01;2273;0.00051040394;0.0;-0.12325184;1014.351;  4.0892836E-01;11885.393;3;-4.0705686;0.0;2.5917807;0;2.3028381;  9.8846934E+03;  0.0000000E+00; -4.1338903E-05;  1.0000000E+04;  0.0000000E+00;  9.9594688E+03;2.0186732;0.0;0.28416482;19169.357
  8.0001694E-01;  9.9999998E-03; -2.0048775E-01;2274;1.9874073e-05;0.0;-0.1159744;1014.3104;  4.0892774E-01;11851.825;3;-3.7530525;0.0;6.4174414;0;2.3876936;  9.8847529E+03;  0.0000000E+00; -2.1413633E-05;  1.0000000E+04;  0.0000000E+00;  9.9586436E+03;2.0612812;0.0;0.32641247;19528.227
  8.2009095E-01;  9.9999998E-03; -3.0066267E-01;2300;0.018866954;0.0;-0.12282898;1014.9096;  4.0891680E-01;12346.521;3;1.2246343;0.0;-8.1246042;0;1.7116989;  9.8988818E+03;  0.0000000E+00;  1.8781971E-04;  1.0000000E+04;  0.0000000E+00;  9.9566523E+03;1.6900865;0.0;0.02161243;20924.893
  8.2010388E-01;  9.9999998E-03; -2.8063831E-01;2301;0.024793234;0.0;-0.13929029;1014.7977;  4.0891725E-01;12253.825;3;1.5197059;0.0;-0.3541145;0;2.0656528;  9.8969365E+03;  0.0000000E+00;  2.9480382E-04;  1.0000000E+04;  0.0000000E+00;  9.9564111E+03;1.7494137;0.0;0.316239;20657.332
  8.2011265E-01;  9.9999998E-03; -2.6060185E-01;2302;0.030052328;0.0;-0.1326807;1014.8395;  4.0891731E-01;12288.475;3;1.8876745;0.0;-8.6413651;0;2.0511711;  9.8950615E+03;  0.0000000E+00;  2.8210081E-04;  1.0000000E+04;  0.0000000E+00;  9.9591230E+03;1.8124137;0.0;0.23875742;19392.908
  8.2011861E-01;  9.9999998E-03; -2.4057443E-01;2303;0.034131333;0.0;-0.12930089;1014.754;  4.0891686E-01;12217.596;3;2.3426349;0.0;-3.2219007;0;2.1387599;  9.8935771E+03;  0.0000000E+00;  2.1475329E-04;  1.0000000E+04;  0.0000000E+00;  9.9589648E+03;1.8729064;0.0;0.26585349;19436.92
  8.2011992E-01;  9.9999998E-03; -2.2053161E-01;2304;0.036312871;0.0;-0.12426325;1014.7174;  4.0891626E-01;12187.389;3;2.8605359;0.0;1.6002214;0;2.2248349;  9.8927549E+03;  0.0000000E+00;  1.3527522E-04;  1.0000000E+04;  0.0000000E+00;  9.9590908E+03;1.924554;0.0;0.30028102;19327.619
  8.2011735E-01;  9.9999998E-03; -2.0048213E-01;2305;0.036850642;0.0;-0.11504012;1014.6921;  4.0891570E-01;12166.362;3;3.4113834;0.0;5.762948;0;2.2994313;  9.8928027E+03;  0.0000000E+00;  6.5784210E-05;  1.0000000E+04;  0.0000000E+00;  9.9585801E+03;1.962128;0.0;0.33730334;19537.25
  8.4017533E-01;  9.9999998E-03; -3.0065456E-01;2331;0.047601379;0.0;-0.12190697;1014.8788;  4.0877190E-01;12318.915;3;12.414412;0.0;-8.7347612;0;1.6630422;  9.9052598E+03;  0.0000000E+00; -2.5923684E-04;  1.0000000E+04;  0.0000000E+00;  9.9566816E+03;1.6420106;0.0;0.02103164;20879.375
  8.4019756E-01;  9.9999998E-03; -2.8063059E-01;2332;0.057805259;0.0;-0.13754587;1014.7672;  4.0877229E-01;12226.529;3;12.17996;0.0;-0.28139865;0;2.0036027;  9.9036064E+03;  0.0000000E+00;  8.5335487E-04;  1.0000000E+04;  0.0000000E+00;  9.9561553E+03;1.6933552;0.0;0.31024754;20764.027
  8.4021205E-01;  9.9999998E-03; -2.6059660E-01;2333;0.066421732;0.0;-0.13220648;1014.8051;  4.0877214E-01;12257.914;3;12.001708;0.0;-8.2185326;0;1.9982516;  9.9020850E+03;  0.0000000E+00;  1.0161946E-03;  1.0000000E+04;  0.0000000E+00;  9.9584385E+03;1.746549;0.0;0.25170258;19692.211
  8.4022260E-01;  9.9999998E-03; -2.4057026E-01;2334;0.072981678;0.0;-0.13035749;1014.7486;  4.0877163E-01;12211.128;3;11.944159;0.0;-3.8414779;0;2.0801928;  9.9009570E+03;  0.0000000E+00;  7.5895438E-04;  1.0000000E+04;  0.0000000E+00;  9.9584941E+03;1.796072;0.0;0.28412074;19622.318
  8.4022623E-01;  9.9999998E-03; -2.2052582E-01;2335;0.076634794;0.0;-0.12509558;1014.7487;  4.0877104E-01;12211.227;3;12.21275;0.0;0.062752485;0;2.1499894;  9.9004736E+03;  0.0000000E+00;  4.3824044E-04;  1.0000000E+04;  0.0000000E+00;  9.9590088E+03;1.8360819;0.0;0.3139075;19331.785
  8.4022290E-01;  9.9999998E-03; -2.0047408E-01;2336;0.077448316;0.0;-0.1146854;1014.7526;  4.0877044E-01;12214.386;3;12.638975;0.0;4.2868547;0;2.2088578;  9.9008115E+03;  0.0000000E+00;  1.9690550E-04;  1.0000000E+04;  0.0000000E+00;  9.9587686E+03;1.861927;0.0;0.34693083;19412.014
  8.6026663E-01;  9.9999998E-03; -3.0063874E-01;2362;0.080125205;0.0;-0.11996566;1014.53;  4.0848705E-01;12027.528;3;25.531284;0.0;-9.4728193;0;1.6110181;  9.9113086E+03;  0.0000000E+00;  9.9663113E-05;  1.0000000E+04;  0.0000000E+00;  9.9576533E+03;1.5916212;0.0;0.019396892;20351.525
  8.6029798E-01;  9.9999998E-03; -2.8061512E-01;2363;0.094795771;0.0;-0.13462913;1014.4328;  4.0848732E-01;11947.001;3;24.739332;0.0;-0.74889117;0;1.9283116;  9.9101768E+03;  0.0000000E+00;  2.0669790E-03;  1.0000000E+04;  0.0000000E+00;  9.9568857E+03;1.6310966;0.0;0.29721504;20373.855
  8.6031747E-01;  9.9999998E-03; -2.6058325E-01;2364;0.10666155;0.0;-0.1300272;1014.4745;  4.0848723E-01;11981.536;3;23.69697;0.0;-7.4474277;0;1.9248657;  9.9092412E+03;  0.0000000E+00;  2.2666068E-03;  1.0000000E+04;  0.0000000E+00;  9.9586631E+03;1.6704515;0.0;0.2544142;19538.238
  8.6033171E-01;  9.9999998E-03; -2.4055845E-01;2365;0.1154519;0.0;-0.1295213;1014.4481;  4.0848660E-01;11959.726;3;23.242386;0.0;-4.1474133;0;1.9981863;  9.9087246E+03;  0.0000000E+00;  1.6279680E-03;  1.0000000E+04;  0.0000000E+00;  9.9587051E+03;1.7046747;0.0;0.2935116;19469.74
  8.6033696E-01;  9.9999998E-03; -2.2051415E-01;2366;0.12015168;0.0;-0.12466867;1014.4875;  4.0848595E-01;11992.288;3;23.183836;0.0;-1.448035;0;2.0503967;  9.9088330E+03;  0.0000000E+00;  8.8128360E-04;  1.0000000E+04;  0.0000000E+00;  9.9593994E+03;1.7286255;0.0;0.32177117;19095.055
  8.6033165E-01;  9.9999998E-03; -2.0046221E-01;2367;0.1205964;0.0;-0.11387531;1014.5274;  4.0848544E-01;12025.347;3;23.284184;0.0;2.503124;0;2.09131;  9.9096943E+03;  0.0000000E+00;  3.5806696E-04;  1.0000000E+04;  0.0000000E+00;  9.9593311E+03;1.7386742;0.0;0.35263586;19093.268
  8.8035691E-01;  9.9999998E-03; -3.0061638E-01;2393;0.11294927;0.0;-0.11755542;1013.9792;  4.0807864E-01;11568.044;3;39.212769;0.0;-11.217145;0;1.5251855;  9.9188633E+03;  0.0000000E+00;  1.7381952E-03;  1.0000000E+04;  0.0000000E+00;  9.9592012E+03;1.5013957;0.0;0.023789769;19516.35
  8.8039649E-01;  9.9999998E-03; -2.8059307E-01;2394;0.13167942;0.0;-0.13081446;1013.908;  4.0807867E-01;11509.143;3;37.18182;0.0;-1.5664771;0;1.8090342;  9.9183828E+03;  0.0000000E+00;  4.0426650E-03;  1.0000000E+04;  0.0000000E+00;  9.9583027E+03;1.5264429;0.0;0.28259137;19634.912
  8.8042015E-01;  9.9999998E-03; -2.6056254E-01;2395;0.14676291;0.0;-0.12667066;1013.9672;  4.0807852E-01;11558.166;3;35.717899;0.0;-7.3023539;0;1.8011651;  9.9182031E+03;  0.0000000E+00;  4.0263021E-03;  1.0000000E+04;  0.0000000E+00;  9.9596855E+03;1.5490812;0.0;0.2520839;18986.279
  8.8043779E-01;  9.9999998E-03; -2.4053885E-01;2396;0.15769477;0.0;-0.12686385;1013.9761;  4.0807787E-01;11565.462;3;34.982403;0.0;-4.7792916;0;1.8600447;  9.9184766E+03;  0.0000000E+00;  2.7870552E-03;  1.0000000E+04;  0.0000000E+00;  9.9596221E+03;1.5648718;0.0;0.2951729;18966.824
  8.8044399E-01;  9.9999998E-03; -2.2049606E-01;2397;0.16317207;0.0;-0.12246694;1014.0559;  4.0807709E-01;11631.555;3;34.533546;0.0;-2.7336526;0;1.8933132;  9.9193643E+03;  0.0000000E+00;  1.4362464E-03;  1.0000000E+04;  0.0000000E+00;  9.9603242E+03;1.5698336;0.0;0.32347956;18589.238
  8.8043624E-01;  9.9999998E-03; -2.0044550E-01;2398;0.16296427;0.0;-0.11182514;1014.1346;  4.0807655E-01;11696.664;3;34.267845;0.0;0.7902329;0;1.9152796;  9.9209063E+03;  0.0000000E+00;  5.2798458E-04;  1.0000000E+04;  0.0000000E+00;  9.9603525E+03;1.5619247;0.0;0.35335496;18549.471
  9.0043825E-01;  9.9999998E-03; -3.0058882E-01;2424;0.14314689;0.0;-0.11492779;1013.3081;  4.0756860E-01;11008.168;3;52.08503;0.0;-12.834657;0;1.3971539;  9.9287764E+03;  0.0000000E+00;  3.8385580E-03;  1.0000000E+04;  0.0000000E+00;  9.9610088E+03;1.3554085;0.0;0.041745305;18525.676
  9.0048414E-01;  9.9999998E-03; -2.8056559E-01;2425;0.16470344;0.0;-0.12626396;1013.2766;  4.0756851E-01;10982.123;3;48.220089;0.0;-2.7300444;0;1.6347523;  9.9290645E+03;  0.0000000E+00;  6.1921589E-03;  1.0000000E+04;  0.0000000E+00;  9.9601416E+03;1.3636371;0.0;0.27111518;18674.949
  9.0051061E-01;  9.9999998E-03; -2.6053554E-01;2426;0.18293883;0.0;-0.12264407;1013.3706;  4.0756825E-01;11059.918;3;46.89045;0.0;-8.0211334;0;1.616751;  9.9297500E+03;  0.0000000E+00;  5.8264858E-03;  1.0000000E+04;  0.0000000E+00;  9.9613369E+03;1.3668554;0.0;0.24989562;18114.332
  9.0053058E-01;  9.9999998E-03; -2.4051175E-01;2427;0.19549865;0.0;-0.12239689;1013.423;  4.0756750E-01;11103.3;3;45.645214;0.0;-5.2863793;0;1.6527176;  9.9309619E+03;  0.0000000E+00;  3.9025540E-03;  1.0000000E+04;  0.0000000E+00;  9.9611992E+03;1.3614521;0.0;0.29126555;18136.457
  9.0053791E-01;  9.9999998E-03; -2.2047059E-01;2428;0.20181572;0.0;-0.11793358;1013.5439;  4.0756676E-01;11203.286;3;45.158489;0.0;-3.5846753;0;1.6645662;  9.9327588E+03;  0.0000000E+00;  1.9087624E-03;  1.0000000E+04;  0.0000000E+00;  9.9618135E+03;1.3451995;0.0;0.31936672;17811.82
  9.0052867E-01;  9.9999998E-03; -2.0042367E-01;2429;0.20130241;0.0;-0.10814267;1013.6614;  4.0756634E-01;11300.416;3;44.752827;0.0;-0.63236529;0;1.6675276;  9.9350615E+03;  0.0000000E+00;  6.2296691E-04;  1.0000000E+04;  0.0000000E+00;  9.9618281E+03;1.3183172;0.0;0.34921041;17780.26
  9.2050463E-01;  9.9999998E-03; -3.0055720E-01;2455;0.1688541;0.0;-0.11204424;1012.5427;  4.0698358E-01;10369.307;3;63.560268;0.0;-13.948081;0;1.2374498;  9.9404170E+03;  0.0000000E+00;  5.4328656E-03;  1.0000000E+04;  0.0000000E+00;  9.9629258E+03;1.1662893;0.0;0.07116048;17454.334
  9.2055362E-01;  9.9999998E-03; -2.8053382E-01;2456;0.1917071;0.0;-0.12142137;1012.5649;  4.0698332E-01;10387.721;3;57.731625;0.0;-4.4730406;0;1.4221876;  9.9415537E+03;  0.0000000E+00;  7.8600068E-03;  1.0000000E+04;  0.0000000E+00;  9.9622754E+03;1.1555252;0.0;0.26666239;17546.25
  9.2058253E-01;  9.9999998E-03; -2.6050365E-01;2457;0.2122964;0.0;-0.11756144;1012.7068;  4.0698284E-01;10505.087;3;55.853905;0.0;-8.7302837;0;1.3829831;  9.9432119E+03;  0.0000000E+00;  7.0252935E-03;  1.0000000E+04;  0.0000000E+00;  9.9634590E+03;1.1370183;0.0;0.24596481;17003.473
  9.2060292E-01;  9.9999998E-03; -2.4047829E-01;2458;0.22591098;0.0;-0.11609482;1012.8129;  4.0698218E-01;10592.792;3;54.695889;0.0;-5.6889238;0;1.3903267;  9.9454580E+03;  0.0000000E+00;  4.5153303E-03;  1.0000000E+04;  0.0000000E+00;  9.9633457E+03;1.1084644;0.0;0.28186244;17023.256
  9.2061138E-01;  9.9999998E-03; -2.2043855E-01;2459;0.23326117;0.0;-0.11115055;1012.9737;  4.0698153E-01;10725.64;3;54.53936;0.0;-4.1578655;0;1.380073;  9.9482100E+03;  0.0000000E+00;  2.0538203E-03;  1.0000000E+04;  0.0000000E+00;  9.9637832E+03;1.0699924;0.0;0.3100805;16791.344
  9.2059892E-01;  9.9999998E-03; -2.0039739E-01;2460;0.23221289;0.0;-0.10286823;1013.1233;  4.0698102E-01;10849.329;3;54.251049;0.0;-1.638666;0;1.3655697;  9.9512588E+03;  0.0000000E+00;  5.7180430E-04;  1.0000000E+04;  0.0000000E+00;  9.9637031E+03;1.0247828;0.0;0.3407869;16808.861
  9.4055289E-01;  9.9999998E-03; -3.0052242E-01;2486;0.18899374;0.0;-0.10891142;1011.6724;  4.0635163E-01;9642.7236;3;73.551048;0.0;-15.581832;0;1.0700963;  9.9521709E+03;  0.0000000E+00;  6.0115801E-03;  1.0000000E+04;  0.0000000E+00;  9.9649873E+03;0.96417123;0.0;0.10592498;16280.794
  9.4060338E-01;  9.9999998E-03; -2.8049856E-01;2487;0.21191311;0.0;-0.1162907;1011.7622;  4.0635121E-01;9716.9561;3;65.887741;0.0;-7.2994013;0;1.1985123;  9.9542188E+03;  0.0000000E+00;  8.8342242E-03;  1.0000000E+04;  0.0000000E+00;  9.9647725E+03;0.93337154;0.0;0.2651408;16214.422
  9.4063407E-01;  9.9999998E-03; -2.6046851E-01;2488;0.23396415;0.0;-0.11139363;1011.9538;  4.0635085E-01;9875.2012;3;62.948532;0.0;-9.3734503;0;1.1302023;  9.9568818E+03;  0.0000000E+00;  7.2836764E-03;  1.0000000E+04;  0.0000000E+00;  9.9659346E+03;0.89245862;0.0;0.23774369;15703.636
  9.4065285E-01;  9.9999998E-03; -2.4044089E-01;2489;0.2481828;0.0;-0.10844992;1012.1152;  4.0635011E-01;10008.438;3;62.171795;0.0;-6.0091434;0;1.1086397;  9.9601318E+03;  0.0000000E+00;  4.3732547E-03;  1.0000000E+04;  0.0000000E+00;  9.9659150E+03;0.84112155;0.0;0.26751813;15695.283
  9.4064808E-01;  9.9999998E-03; -2.2040580E-01;2490;0.25167739;0.0;-0.10445461;1012.3027;  4.0634969E-01;10163.447;3;62.455524;0.0;-4.9046874;0;1.081358;  9.9637529E+03;  0.0000000E+00;  1.8520470E-03;  1.0000000E+04;  0.0000000E+00;  9.9660225E+03;0.7826159;0.0;0.298742;15624.551
  9.4062191E-01;  9.9999998E-03; -2.0036921E-01;2491;0.24545939;0.0;-0.097170398;1012.4796;  4.0634936E-01;10309.505;3;61.563293;0.0;-2.5200951;0;1.0517657;  9.9673770E+03;  0.0000000E+00;  4.2254201E-04;  1.0000000E+04;  0.0000000E+00;  9.9658770E+03;0.72275513;0.0;0.32901049;15676.608
  9.6058810E-01;  9.9999998E-03; -3.0048525E-01;2517;0.20496069;0.0;-0.10516914;1010.6864;  4.0570065E-01;8819.3955;3;82.311409;0.0;-16.851051;0;0.9196586;  9.9623633E+03;  0.0000000E+00;  5.3261574E-03;  1.0000000E+04;  0.0000000E+00;  9.9673154E+03;0.77973944;0.0;0.13991918;14947.973
  9.6063823E-01;  9.9999998E-03; -2.8046119E-01;2518;0.22739674;0.0;-0.11085069;1010.843;  4.0570015E-01;8948.6436;3;73.260704;0.0;-10.377033;0;0.9950372;  9.9653076E+03;  0.0000000E+00;  1.5702801E-02;  1.0000000E+04;  0.0000000E+00;  9.9675234E+03;0.7299391;0.0;0.26509812;14727.779
  9.6066850E-01;  9.9999998E-03; -2.6043129E-01;2519;0.24980167;0.0;-0.10474418;1011.082;  4.0569976E-01;9145.7861;3;69.380775;0.0;-10.361393;0;0.89513803;  9.9689131E+03;  0.0000000E+00;  1.2720043E-02;  1.0000000E+04;  0.0000000E+00;  9.9686904E+03;0.6684863;0.0;0.22665176;14248.767
  9.6067542E-01;  9.9999998E-03; -2.4040572E-01;2520;0.26027423;0.0;-0.10202798;1011.2758;  4.0569919E-01;9305.751;3;68.538422;0.0;-7.1134515;0;0.85397732;  9.9730273E+03;  0.0000000E+00;  6.1540795E-03;  1.0000000E+04;  0.0000000E+00;  9.9684395E+03;0.5978905;0.0;0.25608683;14356.001
  9.6065396E-01;  9.9999998E-03; -2.2037543E-01;2521;0.25672671;0.0;-0.099136271;1011.4878;  4.0569890E-01;9480.7842;3;66.815239;0.0;-6.3213205;0;0.81114542;  9.9772891E+03;  0.0000000E+00;  1.6906845E-03;  1.0000000E+04;  0.0000000E+00;  9.9683750E+03;0.52449369;0.0;0.2866517;14373.158
  9.6062344E-01;  9.9999998E-03; -2.0034026E-01;2522;0.24857019;0.0;-0.091480158;1011.6835;  4.0569869E-01;9642.3447;3;64.650024;0.0;-3.6413488;0;0.76935279;  9.9812715E+03;  0.0000000E+00;  2.6810137E-04;  1.0000000E+04;  0.0000000E+00;  9.9682578E+03;0.45530641;0.0;0.31404638;14420.821
  9.8061907E-01;  9.9999998E-03; -3.0044657E-01;2548;0.21949758;0.0;-0.10014453;1009.608;  4.0505561E-01;7918.7998;3;90.357979;0.0;-17.312387;0;0.78729874;  9.9701338E+03;  0.0000000E+00;  3.2635217E-03;  1.0000000E+04;  0.0000000E+00;  9.9699834E+03;0.62912971;0.0;0.15816902;13442.69
  9.8066586E-01;  9.9999998E-03; -2.8042260E-01;2549;0.24092945;0.0;-0.1047342;1009.8168;  4.0505505E-01;8090.9063;3;80.177681;0.0;-12.50104;0;0.82500803;  9.9738232E+03;  0.0000000E+00;  4.0863272E-02;  1.0000000E+04;  0.0000000E+00;  9.9704854E+03;0.56442261;0.0;0.26058546;13122.958
  9.8068905E-01;  9.9999998E-03; -2.6039398E-01;2550;0.26108989;0.0;-0.098050952;1010.0857;  4.0505472E-01;8312.4453;3;75.75264;0.0;-11.478655;0;0.70216429;  9.9781982E+03;  0.0000000E+00;  3.6691993E-02;  1.0000000E+04;  0.0000000E+00;  9.9714785E+03;0.48744634;0.0;0.21471794;12752.685
  9.8067909E-01;  9.9999998E-03; -2.4037270E-01;2551;0.26413357;0.0;-0.096619926;1010.2934;  4.0505430E-01;8483.6035;3;72.860886;0.0;-9.3345442;0;0.64923871;  9.9829355E+03;  0.0000000E+00;  1.9517301E-02;  1.0000000E+04;  0.0000000E+00;  9.9708721E+03;0.40347439;0.0;0.2457643;13024.551
  9.8065144E-01;  9.9999998E-03; -2.2034460E-01;2552;0.25759166;0.0;-0.093282014;1010.5271;  4.0505421E-01;8676.291;3;68.405281;0.0;-7.4981384;0;0.59215283;  9.9875791E+03;  0.0000000E+00;  5.3605144E-03;  1.0000000E+04;  0.0000000E+00;  9.9708477E+03;0.32143193;0.0;0.27072093;13035.245
  9.8061877E-01;  9.9999998E-03; -2.0031179E-01;2553;0.2486897;0.0;-0.085785754;1010.7311;  4.0505391E-01;8844.4189;3;65.729118;0.0;-4.6411452;0;0.54394811;  9.9917246E+03;  0.0000000E+00;  5.0301669E-04;  1.0000000E+04;  0.0000000E+00;  9.9707393E+03;0.24830212;0.0;0.29564601;13082.228
  1.0006530E+00;  9.9999998E-03; -3.0040741E-01;2579;0.23456556;0.0;-0.093852691;1008.499;  4.0443748E-01;6992.1572;3;98.803452;0.0;-17.368357;0;0.66870987;  9.9756016E+03;  0.0000000E+00; -7.5792051E-03;  1.0000000E+04;  0.0000000E+00;  9.9730586E+03;0.51170063;0.0;0.15700923;11747.693
  1.0006902E+00;  9.9999998E-03; -2.8038359E-01;2580;0.25336888;0.0;-0.097791076;1008.7389;  4.0443715E-01;7189.4541;3;86.944153;0.0;-13.569805;0;0.6858567;  9.9797764E+03;  0.0000000E+00;  8.1418738E-02;  1.0000000E+04;  0.0000000E+00;  9.9736914E+03;0.43880072;0.0;0.24705599;11401.66
  1.0006980E+00;  9.9999998E-03; -2.6035744E-01;2581;0.26743346;0.0;-0.090946652;1009.009;  4.0443677E-01;7411.6821;3;81.781395;0.0;-12.833064;0;0.55155963;  9.9846816E+03;  0.0000000E+00;  8.0218665E-02;  1.0000000E+04;  0.0000000E+00;  9.9741631E+03;0.35278782;0.0;0.19877179;11283.427
  1.0006775E+00;  9.9999998E-03; -2.4033980E-01;2582;0.26496589;0.0;-0.09007933;1009.2211;  4.0443662E-01;7586.1704;3;74.778961;0.0;-10.344118;0;0.49225271;  9.9897725E+03;  0.0000000E+00;  4.4144362E-02;  1.0000000E+04;  0.0000000E+00;  9.9732803E+03;0.26197514;0.0;0.23027755;11675.918
  1.0006450E+00;  9.9999998E-03; -2.2031341E-01;2583;0.25700486;0.0;-0.086862028;1009.4633;  4.0443653E-01;7785.4814;3;69.20607;0.0;-7.953548;0;0.42922267;  9.9945381E+03;  0.0000000E+00;  1.1744850E-02;  1.0000000E+04;  0.0000000E+00;  9.9733125E+03;0.1777308;0.0;0.25149187;11668.975
  1.0006109E+00;  9.9999998E-03; -2.0028530E-01;2584;0.24762329;0.0;-0.080458753;1009.6663;  4.0443638E-01;7952.4312;3;66.372345;0.0;-5.4036102;0;0.37988621;  9.9986523E+03;  0.0000000E+00;  5.7201472E-04;  1.0000000E+04;  0.0000000E+00;  9.9732100E+03;0.10558357;0.0;0.27430263;11718.283
  1.0206956E+00;  9.9999998E-03; -3.0036882E-01;2610;0.25137171;0.0;-0.086259134;1007.431;  4.0386286E-01;6098.7373;3;107.96037;0.0;-16.905092;0;0.55267161;  9.9793740E+03;  0.0000000E+00; -2.8100759E-02;  1.0000000E+04;  0.0000000E+00;  9.9765303E+03;0.418374;0.0;0.13429759;9898.9912
  1.0207140E+00;  9.9999998E-03; -2.8034544E-01;2611;0.26618943;0.0;-0.090182468;1007.6791;  4.0386280E-01;6302.3188;3;95.026878;0.0;-14.568526;0;0.5691303;  9.9838945E+03;  0.0000000E+00;  9.9530108E-02;  1.0000000E+04;  0.0000000E+00;  9.9769590E+03;0.34385499;0.0;0.22527531;9660.2314
  1.0207028E+00;  9.9999998E-03; -2.6032239E-01;2612;0.27047205;0.0;-0.083224885;1007.9285;  4.0386286E-01;6507.0024;3;85.431099;0.0;-13.355628;0;0.43222332;  9.9891504E+03;  0.0000000E+00;  1.0930055E-01;  1.0000000E+04;  0.0000000E+00;  9.9766514E+03;0.25305876;0.0;0.17916454;9891.1504
  1.0206745E+00;  9.9999998E-03; -2.4030760E-01;2613;0.26478714;0.0;-0.082950331;1008.1299;  4.0386277E-01;6672.3726;3;75.770226;0.0;-10.398461;0;0.37500328;  9.9942959E+03;  0.0000000E+00;  5.0832555E-02;  1.0000000E+04;  0.0000000E+00;  9.9755039E+03;0.16212757;0.0;0.21287572;10384.305
  1.0206378E+00;  9.9999998E-03; -2.2028455E-01;2614;0.25583032;0.0;-0.080563717;1008.3647;  4.0386266E-01;6865.0488;3;69.838249;0.0;-8.3574514;0;0.31338429;  9.9988936E+03;  0.0000000E+00;  1.4723958E-03;  1.0000000E+04;  0.0000000E+00;  9.9755508E+03;0.081923991;0.0;0.2314603;10375.085
  1.0206020E+00;  9.9999998E-03; -2.0026112E-01;2615;0.24595758;0.0;-0.07547117;1008.5593;  4.0386271E-01;7024.7539;3;66.678146;0.0;-6.0334229;0;0.26664281;  1.0002771E+04;  0.0000000E+00; -8.9418655E-03;  1.0000000E+04;  0.0000000E+00;  9.9755264E+03;0.015342377;0.0;0.25130042;10395.601
  1.0407542E+00;  9.9999998E-03; -3.0033177E-01;2641;0.27278632;0.0;-0.077988379;1006.424;  4.0334377E-01;5255.2378;3;117.50478;0.0;-15.027182;0;0.45165387;  9.9814453E+03;  0.0000000E+00;  1.1043413E-02;  1.0000000E+04;  0.0000000E+00;  9.9802061E+03;0.35123909;0.0;0.10041478;7997.2202
  1.0407416E+00;  9.9999998E-03; -2.8031024E-01;2642;0.27881506;0.0;-0.081162296;1006.6832;  4.0334380E-01;5467.1606;3;103.59399;0.0;-15.066747;0;0.45704448;  9.9869668E+03;  0.0000000E+00;  1.2639339E-02;  1.0000000E+04;  0.0000000E+00;  9.9798281E+03;0.2692326;0.0;0.18781187;8102.9819
  1.0407084E+00;  9.9999998E-03; -2.6029068E-01;2643;0.27253726;0.0;-0.076141156;1006.9094;  4.0334398E-01;5652.2881;3;88.149117;0.0;-13.383252;0;0.33848184;  9.9926328E+03;  0.0000000E+00;  4.6539523E-02;  1.0000000E+04;  0.0000000E+00;  9.9786348E+03;0.17211251;0.0;0.16636935;8680.4473
  1.0406716E+00;  9.9999998E-03; -2.4027771E-01;2644;0.26440185;0.0;-0.075847894;1007.0912;  4.0334409E-01;5801.1445;3;76.951767;0.0;-10.274459;0;0.28473887;  9.9975410E+03;  0.0000000E+00; -2.1114795E-02;  1.0000000E+04;  0.0000000E+00;  9.9773291E+03;0.087359883;0.0;0.19737899;9235.6787
  1.0406307E+00;  9.9999998E-03; -2.2025792E-01;2645;0.25454244;0.0;-0.074120857;1007.3043;  4.0334412E-01;5975.4604;3;70.545052;0.0;-8.4027348;0;0.22966364;  1.0001654E+04;  0.0000000E+00; -6.6352844E-02;  1.0000000E+04;  0.0000000E+00;  9.9774326E+03;0.016957119;0.0;0.21270652;9216.2881
  1.0405921E+00;  9.9999998E-03; -2.0023711E-01;2646;0.24394009;0.0;-0.069865122;1007.4825;  4.0334412E-01;6121.2993;3;66.943451;0.0;-6.36409;0;0.18832403;  1.0005036E+04;  0.0000000E+00; -5.0382487E-02;  1.0000000E+04;  0.0000000E+00;  9.9775781E+03;-0.039871365;0.0;0.2281954;9168.1055
  1.0608112E+00;  9.9999998E-03; -3.0029765E-01;2672;0.29273897;0.0;-0.07248868;1005.4471;  4.0288690E-01;4436.8057;3;129.42667;0.0;-19.543509;0;0.41899148;  9.9813682E+03;  0.0000000E+00;  3.2042837E-01;  1.0000000E+04;  0.0000000E+00;  9.9835674E+03;0.31887636;0.0;0.10011511;6369.0454
  1.0607674E+00;  9.9999998E-03; -2.8028062E-01;2673;0.2861748;0.0;-0.072856486;1005.7558;  4.0288699E-01;4688.2437;3;108.95315;0.0;-16.233324;0;0.3611232;  9.9894023E+03;  0.0000000E+00; -2.2724536E-01;  1.0000000E+04;  0.0000000E+00;  9.9816289E+03;0.20302643;0.0;0.15809676;7072.7471
  1.0607176E+00;  9.9999998E-03; -2.6026392E-01;2674;0.27478629;0.0;-0.069234528;1005.9855;  4.0288711E-01;4875.4141;3;91.372986;0.0;-13.033546;0;0.2588816;  9.9957285E+03;  0.0000000E+00; -2.0658219E-01;  1.0000000E+04;  0.0000000E+00;  9.9798359E+03;0.10031338;0.0;0.15856822;7832.4927
  1.0606698E+00;  9.9999998E-03; -2.4025136E-01;2675;0.264018;0.0;-0.068823285;1006.1549;  4.0288725E-01;5013.4531;3;78.706863;0.0;-10.017059;0;0.21072246;  1.0000298E+04;  0.0000000E+00; -2.3758551E-01;  1.0000000E+04;  0.0000000E+00;  9.9786221E+03;0.024847303;0.0;0.18587516;8346.2002
  1.0606247E+00;  9.9999998E-03; -2.2023305E-01;2676;0.25322917;0.0;-0.067449011;1006.3387;  4.0288746E-01;5163.2417;3;71.432236;0.0;-8.3551569;0;0.16543752;  1.0003651E+04;  0.0000000E+00; -2.3879051E-01;  1.0000000E+04;  0.0000000E+00;  9.9789014E+03;-0.031536967;0.0;0.19697449;8259.1709
  1.0605822E+00;  9.9999998E-03; -2.0021404E-01;2677;0.24172892;0.0;-0.064011395;1006.4906;  4.0288755E-01;5287.0063;3;67.403137;0.0;-6.6348677;0;0.13183749;  1.0006290E+04;  0.0000000E+00; -1.5522693E-01;  1.0000000E+04;  0.0000000E+00;  9.9792666E+03;-0.075364761;0.0;0.20720224;8094.2231
  1.0808392E+00;  9.9999998E-03; -3.0026940E-01;2703;0.29865852;0.0;-0.06582129;1004.5397;  4.0249470E-01;3676.4902;3;137.06325;0.0;-20.992476;0;0.3665033;  9.9806230E+03;  0.0000000E+00;  1.1199343E+00;  1.0000000E+04;  0.0000000E+00;  9.9857344E+03;0.27970561;0.0;0.086797684;6739.1782
  1.0807846E+00;  9.9999998E-03; -2.8025556E-01;2704;0.28943431;0.0;-0.065267526;1004.9286;  4.0249494E-01;3991.48;3;114.92467;0.0;-16.321959;0;0.28301799;  9.9912432E+03;  0.0000000E+00; -4.8172760E-01;  1.0000000E+04;  0.0000000E+00;  9.9828047E+03;0.14382523;0.0;0.13919275;6438.1567
  1.0807252E+00;  9.9999998E-03; -2.6023939E-01;2705;0.27570146;0.0;-0.062058255;1005.1995;  4.0249488E-01;4211.0049;3;95.351357;0.0;-12.498681;0;0.18403988;  9.9985098E+03;  0.0000000E+00; -6.4432842E-01;  1.0000000E+04;  0.0000000E+00;  9.9809043E+03;0.035137799;0.0;0.14890207;7395.5791
  1.0806693E+00;  9.9999998E-03; -2.4022673E-01;2706;0.26338807;0.0;-0.061456949;1005.3555;  4.0249521E-01;4337.3657;3;81.451111;0.0;-9.5741262;0;0.14482692;  1.0002831E+04;  0.0000000E+00; -6.2362659E-01;  1.0000000E+04;  0.0000000E+00;  9.9796641E+03;-0.030506823;0.0;0.17533374;7823.3423
  1.0806198E+00;  9.9999998E-03; -2.2021043E-01;2707;0.25198811;0.0;-0.060749944;1005.4966;  4.0249524E-01;4451.749;3;72.999199;0.0;-8.0619383;0;0.11396933;  1.0005312E+04;  0.0000000E+00; -5.4641879E-01;  1.0000000E+04;  0.0000000E+00;  9.9799717E+03;-0.071311794;0.0;0.18528113;7636.1987
  1.0805732E+00;  9.9999998E-03; -2.0019193E-01;2708;0.23957555;0.0;-0.057655267;1005.6146;  4.0249550E-01;4547.4014;3;68.085403;0.0;-6.5488658;0;0.088859215;  1.0007035E+04;  0.0000000E+00; -3.5556874E-01;  1.0000000E+04;  0.0000000E+00;  9.9805781E+03;-0.10071506;0.0;0.18957427;7245.0391
  1.1007905E+00;  9.9999998E-03; -2.8023276E-01;2734;0.28932014;0.0;-0.058099668;1004.2311;  4.0216601E-01;3400.6968;3;121.67459;0.0;-16.315363;0;0.21795353;  9.9922715E+03;  0.0000000E+00; -3.9415219E-01;  1.0000000E+04;  0.0000000E+00;  9.9842432E+03;0.098163955;0.0;0.11978958;5373.0889
  1.1007282E+00;  9.9999998E-03; -2.6021555E-01;2735;0.27480549;0.0;-0.05442486;1004.5635;  4.0216601E-01;3668.019;3;100.50515;0.0;-11.965445;0;0.11056507;  1.0000591E+04;  0.0000000E+00; -1.0839396E+00;  1.0000000E+04;  0.0000000E+00;  9.9825088E+03;-0.018436536;0.0;0.1290016;7125.7793
  1.1006700E+00;  9.9999998E-03; -2.4020310E-01;2736;0.26223335;0.0;-0.053215835;1004.6945;  4.0216622E-01;3773.3198;3;85.205238;0.0;-8.8211164;0;0.080832966;  1.0004844E+04;  0.0000000E+00; -1.1298910E+00;  1.0000000E+04;  0.0000000E+00;  9.9808516E+03;-0.07656502;0.0;0.15739799;7716.896
  1.1006165E+00;  9.9999998E-03; -2.2018865E-01;2737;0.25064969;0.0;-0.053272575;1004.7881;  4.0216643E-01;3848.6262;3;75.369904;0.0;-7.3964009;0;0.069991343;  1.0006658E+04;  0.0000000E+00; -9.8356211E-01;  1.0000000E+04;  0.0000000E+00;  9.9808760E+03;-0.1039147;0.0;0.17390604;7430.4644
  1.1005661E+00;  9.9999998E-03; -2.0017137E-01;2738;0.23764989;0.0;-0.051167753;1004.8651;  4.0216652E-01;3910.6116;3;69.352386;0.0;-6.2358422;0;0.055892251;  1.0007485E+04;  0.0000000E+00; -6.7403346E-01;  1.0000000E+04;  0.0000000E+00;  9.9815615E+03;-0.1199499;0.0;0.17584215;6726.123
  1.1207852E+00;  9.9999998E-03; -2.8021336E-01;2763;0.28621861;0.0;-0.051741749;1003.6378;  4.0189636E-01;2894.8621;3;129.41257;0.0;-16.435934;0;0.17050731;  9.9923389E+03;  0.0000000E+00;  3.8244954E-01;  1.0000000E+04;  0.0000000E+00;  9.9857539E+03;0.070482276;0.0;0.10002503;4397.2915
  1.1207291E+00;  9.9999998E-03; -2.6019636E-01;2764;0.27326104;0.0;-0.048049249;1003.9943;  4.0189648E-01;3178.6057;3;107.18343;0.0;-11.964771;0;0.063795216;  1.0001065E+04;  0.0000000E+00; -1.2669407E+00;  1.0000000E+04;  0.0000000E+00;  9.9841074E+03;-0.046153493;0.0;0.10994871;6448.0625
  1.1206710E+00;  9.9999998E-03; -2.4018167E-01;2765;0.26043922;0.0;-0.045240406;1004.1482;  4.0189660E-01;3301.2822;3;90.392303;0.0;-8.3600559;0;0.022764213;  1.0005764E+04;  0.0000000E+00; -1.6176807E+00;  1.0000000E+04;  0.0000000E+00;  9.9824570E+03;-0.10738928;0.0;0.13015349;7670.9346
  1.1206152E+00;  9.9999998E-03; -2.2016843E-01;2766;0.24907503;0.0;-0.045452867;1004.204;  4.0189660E-01;3345.7869;3;78.753616;0.0;-6.7282715;0;0.030890703;  1.0007451E+04;  0.0000000E+00; -1.5046430E+00;  1.0000000E+04;  0.0000000E+00;  9.9818652E+03;-0.1273661;0.0;0.1582568;7534.2681
  1.1205612E+00;  9.9999998E-03; -2.0015211E-01;2767;0.23589757;0.0;-0.044281248;1004.2431;  4.0189686E-01;3377.0083;3;71.411522;0.0;-5.7726741;0;0.029753432;  1.0007697E+04;  0.0000000E+00; -1.1169257E+00;  1.0000000E+04;  0.0000000E+00;  9.9823848E+03;-0.13422015;0.0;0.16397358;6597.7261
  1.1407272E+00;  9.9999998E-03; -2.6018369E-01;2792;0.27136731;0.0;-0.043426014;1003.4147;  4.0168026E-01;2682.4988;3;115.5295;0.0;-12.025276;0;0.063551262;  9.9993564E+03;  0.0000000E+00; -8.0062693E-01;  1.0000000E+04;  0.0000000E+00;  9.9850225E+03;-0.037799533;0.0;0.10135079;4679.7329
  1.1406721E+00;  9.9999998E-03; -2.4016656E-01;2793;0.25840187;0.0;-0.039295241;1003.6425;  4.0168026E-01;2861.479;3;96.894882;0.0;-8.1356049;0;-0.0082108229;  1.0004966E+04;  0.0000000E+00; -1.8658282E+00;  1.0000000E+04;  0.0000000E+00;  9.9839385E+03;-0.11405186;0.0;0.10584104;7087.5459
  1.1406175E+00;  9.9999998E-03; -2.2015308E-01;2794;0.2472616;0.0;-0.03844374;1003.7029;  4.0168041E-01;2909.1699;3;83.411377;0.0;-5.9510927;0;-0.00032305717;  1.0007222E+04;  0.0000000E+00; -2.0248837E+00;  1.0000000E+04;  0.0000000E+00;  9.9828760E+03;-0.13814792;0.0;0.13782486;7638.4497
  1.1405602E+00;  9.9999998E-03; -2.0013651E-01;2795;0.23436427;0.0;-0.037853342;1003.7356;  4.0168053E-01;2934.8606;3;74.386292;0.0;-5.3013244;0;0.009580195;  1.0007591E+04;  0.0000000E+00; -1.6602634E+00;  1.0000000E+04;  0.0000000E+00;  9.9831436E+03;-0.14294806;0.0;0.15252826;6764.0669
  1.1607186E+00;  9.9999998E-03; -2.6017421E-01;2819;0.2676692;0.0;-0.039722394;1002.8679;  4.0151072E-01;2215.6658;3;124.92942;0.0;-12.237431;0;0.08825618;  9.9961650E+03;  0.0000000E+00;  7.1797156E-01;  1.0000000E+04;  0.0000000E+00;  9.9857520E+03;-0.00713907;0.0;0.095395252;3767.0767
  1.1606746E+00;  9.9999998E-03; -2.4015975E-01;2820;0.25722364;0.0;-0.036054358;1003.0795;  4.0151072E-01;2379.3347;3;104.78215;0.0;-8.1360044;0;0.017144151;  1.0001750E+04;  0.0000000E+00; -1.5336466E+00;  1.0000000E+04;  0.0000000E+00;  9.9843828E+03;-0.083596624;0.0;0.10074078;5407.9771
  1.1606220E+00;  9.9999998E-03; -2.2014354E-01;2821;0.24544062;0.0;-0.033120431;1003.2289;  4.0151075E-01;2494.8643;3;89.302422;0.0;-5.2363911;0;-0.012854785;  1.0005356E+04;  0.0000000E+00; -2.3292086E+00;  1.0000000E+04;  0.0000000E+00;  9.9837520E+03;-0.12956068;0.0;0.11670589;7135.5718
  1.1605649E+00;  9.9999998E-03; -2.0012711E-01;2822;0.23314813;0.0;-0.032387864;1003.2966;  4.0151092E-01;2547.3186;3;78.392319;0.0;-4.5178747;0;-0.0022056848;  1.0006700E+04;  0.0000000E+00; -2.2223997E+00;  1.0000000E+04;  0.0000000E+00;  9.9837451E+03;-0.14252172;0.0;0.14031604;6904.1821
  1.1806706E+00;  9.9999998E-03; -2.4015608E-01;2846;0.25477728;0.0;-0.034359396;1002.5239;  4.0138048E-01;1909.3682;3;114.83966;0.0;-8.8495617;0;0.081148483;  9.9970752E+03;  0.0000000E+00; -1.4531513E-02;  1.0000000E+04;  0.0000000E+00;  9.9844619E+03;-0.027715923;0.0;0.1088644;3093.7559
  1.1806267E+00;  9.9999998E-03; -2.2014059E-01;2847;0.24428298;0.0;-0.030620305;1002.7122;  4.0138051E-01;2051.9644;3;97.2034;0.0;-5.3525047;0;0.022356056;  1.0001302E+04;  0.0000000E+00; -1.9698946E+00;  1.0000000E+04;  0.0000000E+00;  9.9839912E+03;-0.08875303;0.0;0.11110909;5365.3389
  1.1805743E+00;  9.9999998E-03; -2.0012444E-01;2848;0.23273304;0.0;-0.028827244;1002.8511;  4.0138054E-01;2157.1665;3;84.302383;0.0;-3.7507186;0;0.010132864;  1.0004104E+04;  0.0000000E+00; -2.5695834E+00;  1.0000000E+04;  0.0000000E+00;  9.9839512E+03;-0.12178782;0.0;0.13192068;6456.0366
  1.2006252E+00;  9.9999998E-03; -2.2014000E-01;2871;0.24188381;0.0;-0.029816367;1002.1964;  4.0128261E-01;1618.6754;3;107.55752;0.0;-6.3650813;0;0.095677175;  9.9959170E+03;  0.0000000E+00; -2.8279218E-01;  1.0000000E+04;  0.0000000E+00;  9.9839658E+03;-0.02388343;0.0;0.11956061;2714.5764
  1.2005841E+00;  9.9999998E-03; -2.0012635E-01;2872;0.23286214;0.0;-0.027631123;1002.3406;  4.0128252E-01;1725.1727;3;93.125908;0.0;-4.0085826;0;0.071406707;  9.9990615E+03;  0.0000000E+00; -2.1576698E+00;  1.0000000E+04;  0.0000000E+00;  9.9836992E+03;-0.064411566;0.0;0.13581827;4737.5
  1.2206054E+00;  9.9999998E-03; -2.2013235E-01;2894;0.23375301;0.0;-0.027116518;1001.9984;  4.0121025E-01;1426.6759;3;117.08327;0.0;-7.3604674;0;0.088384502;  9.9937910E+03;  0.0000000E+00;  2.5245187E+00;  1.0000000E+04;  0.0000000E+00;  9.9857363E+03;-0.013196315;0.0;0.10158081;4119.3052
  1.2205836E+00;  9.9999998E-03; -2.0012784E-01;2895;0.22986144;0.0;-0.027080312;1001.8771;  4.0121043E-01;1340.2562;3;103.69631;0.0;-5.2478399;0;0.14521;  9.9935635E+03;  0.0000000E+00; -2.9284704E-01;  1.0000000E+04;  0.0000000E+00;  9.9835527E+03;0.0022149126;0.0;0.14299509;2256.9194
 -3.3135466E-06;  9.9999998E-03; -1.8000036E-01;1036;-0.0024124067;0.0;-0.00027306139;1000.0701;  4.0000001E-01;58.072422;3;-1.72048;0.0;-0.20396864;0;-0.046164334;  1.0001458E+04;  0.0000000E+00; -5.3074207E-09;  1.0000000E+04;  0.0000000E+00;  9.9999414E+03;-0.04805059;0.0;0.0018862546;31.729784
 -3.4046848E-06;  9.9999998E-03; -1.6000028E-01;1037;-0.002478993;0.0;-0.00021216346;1000.0724;  4.0000001E-01;59.948914;3;-1.7693243;0.0;-0.16165081;0;-0.047649205;  1.0001506E+04;  0.0000000E+00; -5.4355254E-09;  1.0000000E+04;  0.0000000E+00;  9.9999453E+03;-0.049487643;0.0;0.0018384388;31.078569
 -3.4572881E-06;  9.9999998E-03; -1.4000021E-01;1038;-0.0025168676;0.0;-0.00016118909;1000.0737;  4.0000001E-01;61.035301;3;-1.7984829;0.0;-0.12563238;0;-0.048668064;  1.0001527E+04;  0.0000000E+00; -2.8114560E-09;  1.0000000E+04;  0.0000000E+00;  9.9999492E+03;-0.050332338;0.0;0.0016642733;28.643557
 -3.4829952E-06;  9.9999998E-03; -1.2000016E-01;1039;-0.0025345911;0.0;-0.00011867367;1000.075;  4.0000001E-01;62.121689;3;-1.8130388;0.0;-0.095238626;0;-0.049316399;  1.0001542E+04;  0.0000000E+00; -9.3516850E-10;  1.0000000E+04;  0.0000000E+00;  9.9999570E+03;-0.050752968;0.0;0.0014365681;25.455635
 -3.4910354E-06;  9.9999998E-03; -1.0000011E-01;1040;-0.0025392366;0.0;-8.4122628e-05;1000.0754;  4.0000001E-01;62.41798;3;-1.8180628;0.0;-0.069661245;0;-0.049692012;  1.0001545E+04;  0.0000000E+00; -6.7421990E-10;  1.0000000E+04;  0.0000000E+00;  9.9999629E+03;-0.050890606;0.0;0.0011985947;22.128841
 -3.4885779E-06;  9.9999998E-03; -8.0000073E-02;1041;-0.0025361311;0.0;-5.7610665e-05;1000.0759;  4.0000001E-01;62.81303;3;-1.8171959;0.0;-0.049442127;0;-0.049882926;  1.0001545E+04;  0.0000000E+00; -2.3924007E-10;  1.0000000E+04;  0.0000000E+00;  9.9999717E+03;-0.050860561;0.0;0.00097763585;19.048582
 -3.4815425E-06;  9.9999998E-03; -6.0000047E-02;1042;-0.0025298055;0.0;-3.7051064e-05;1000.076;  4.0000001E-01;62.911793;3;-1.8137488;0.0;-0.032942269;0;-0.049960554;  1.0001544E+04;  0.0000000E+00; -1.7689740E-10;  1.0000000E+04;  0.0000000E+00;  9.9999766E+03;-0.050752208;0.0;0.00079165463;16.464359
 -3.4737934E-06;  9.9999998E-03; -4.0000029E-02;1043;-0.0025231768;0.0;-2.1888141e-05;1000.076;  4.0000001E-01;62.911793;3;-1.8097372;0.0;-0.020131433;0;-0.04997896;  1.0001541E+04;  0.0000000E+00; -6.9336176E-11;  1.0000000E+04;  0.0000000E+00;  9.9999814E+03;-0.050630972;0.0;0.00065201166;14.529987
 -3.4681411E-06;  9.9999998E-03; -2.0000013E-02;1044;-0.0025184327;0.0;-1.0017744e-05;1000.076;  4.0000001E-01;62.911793;3;-1.8067875;0.0;-0.0094340751;0;-0.049975522;  1.0001537E+04;  0.0000000E+00; -1.4056161E-11;  1.0000000E+04;  0.0000000E+00;  9.9999844E+03;-0.0505412;0.0;0.00056567899;13.336918
  1.9995254E-02;  9.9999998E-03; -1.8000050E-01;1066;-0.0034270654;0.0;-0.00036324901;1000.0837;  4.0000001E-01;69.33136;3;-2.1925297;0.0;-0.24584156;0;-0.054400899;  1.0001755E+04;  0.0000000E+00;  4.1110660E-08;  1.0000000E+04;  0.0000000E+00;  9.9999238E+03;-0.056875624;0.0;0.0024747266;41.745811
  1.9995136E-02;  9.9999998E-03; -1.6000038E-01;1067;-0.0035123071;0.0;-0.00028493788;1000.0863;  4.0000001E-01;71.504143;3;-2.2494946;0.0;-0.19748469;0;-0.055989958;  1.0001803E+04;  0.0000000E+00;  1.8414411E-08;  1.0000000E+04;  0.0000000E+00;  9.9999258E+03;-0.05839888;0.0;0.0024089201;40.738014
  1.9995075E-02;  9.9999998E-03; -1.4000030E-01;1068;-0.003557177;0.0;-0.00021878816;1000.0879;  4.0000001E-01;72.788055;3;-2.281764;0.0;-0.15615295;0;-0.057065811;  1.0001826E+04;  0.0000000E+00;  8.3703062E-09;  1.0000000E+04;  0.0000000E+00;  9.9999336E+03;-0.059249841;0.0;0.0021840308;37.455486
  1.9995047E-02;  9.9999998E-03; -1.2000022E-01;1069;-0.0035755092;0.0;-0.0001617004;1000.0891;  4.0000001E-01;73.775681;3;-2.2969451;0.0;-0.11931606;0;-0.057735845;  1.0001836E+04;  0.0000000E+00;  2.7884146E-09;  1.0000000E+04;  0.0000000E+00;  9.9999424E+03;-0.059627078;0.0;0.0018912348;33.219868
  1.9995045E-02;  9.9999998E-03; -1.0000016E-01;1070;-0.0035762175;0.0;-0.00011627093;1000.0895;  4.0000001E-01;74.170731;3;-2.3003998;0.0;-0.088967904;0;-0.058112238;  1.0001838E+04;  0.0000000E+00;  7.3026374E-10;  1.0000000E+04;  0.0000000E+00;  9.9999521E+03;-0.059695251;0.0;0.0015830121;28.791666
  1.9995054E-02;  9.9999998E-03; -8.0000110E-02;1071;-0.0035673925;0.0;-8.0442936e-05;1000.09;  4.0000001E-01;74.565781;3;-2.2971992;0.0;-0.064112246;0;-0.058293197;  1.0001836E+04;  0.0000000E+00;  2.9228137E-11;  1.0000000E+04;  0.0000000E+00;  9.9999619E+03;-0.05958841;0.0;0.0012952134;24.682117
  1.9995069E-02;  9.9999998E-03; -6.0000069E-02;1072;-0.0035550932;0.0;-5.2667026e-05;1000.09;  4.0000001E-01;74.565781;3;-2.2912416;0.0;-0.043607078;0;-0.058356963;  1.0001831E+04;  0.0000000E+00; -4.9961972E-11;  1.0000000E+04;  0.0000000E+00;  9.9999688E+03;-0.05940906;0.0;0.0010520966;21.229029
  1.9995084E-02;  9.9999998E-03; -4.0000040E-02;1073;-0.0035434542;0.0;-3.1488944e-05;1000.09;  4.0000001E-01;74.565781;3;-2.2851138;0.0;-0.027014818;0;-0.058362424;  1.0001826E+04;  0.0000000E+00; -3.5348228E-11;  1.0000000E+04;  0.0000000E+00;  9.9999746E+03;-0.059231613;0.0;0.00086918741;18.642408
  1.9995093E-02;  9.9999998E-03; -2.0000018E-02;1074;-0.0035354071;0.0;-1.4623447e-05;1000.09;  4.0000001E-01;74.565781;3;-2.2807717;0.0;-0.01285132;0;-0.058350071;  1.0001822E+04;  0.0000000E+00; -2.0991771E-11;  1.0000000E+04;  0.0000000E+00;  9.9999785E+03;-0.059106056;0.0;0.00075598323;17.046526
  3.9993405E-02;  9.9999998E-03; -1.8000059E-01;1097;-0.0047215857;0.0;-0.00041745655;1000.0964;  4.0000001E-01;79.898964;3;-2.7537341;0.0;-0.25900871;0;-0.061441053;  1.0002026E+04;  0.0000000E+00;  7.6472624E-08;  1.0000000E+04;  0.0000000E+00;  9.9999063E+03;-0.064398035;0.0;0.0029569815;50.81974
  3.9993260E-02;  9.9999998E-03; -1.6000046E-01;1098;-0.0048271334;0.0;-0.00033088258;1000.0988;  4.0000001E-01;81.874214;3;-2.8197155;0.0;-0.21167517;0;-0.063004866;  1.0002070E+04;  0.0000000E+00;  3.9067814E-08;  1.0000000E+04;  0.0000000E+00;  9.9999092E+03;-0.065876432;0.0;0.0028715665;49.366203
  3.9993189E-02;  9.9999998E-03; -1.4000034E-01;1099;-0.0048795762;0.0;-0.00025489874;1000.1006;  4.0000001E-01;83.355652;3;-2.856266;0.0;-0.16915959;0;-0.064026944;  1.0002093E+04;  0.0000000E+00;  1.7197094E-08;  1.0000000E+04;  0.0000000E+00;  9.9999189E+03;-0.066634163;0.0;0.0026072166;45.295444
  3.9993163E-02;  9.9999998E-03; -1.2000026E-01;1100;-0.0048965635;0.0;-0.00019012523;1000.1014;  4.0000001E-01;84.046989;3;-2.8718143;0.0;-0.13142744;0;-0.064630613;  1.0002100E+04;  0.0000000E+00;  5.6788667E-09;  1.0000000E+04;  0.0000000E+00;  9.9999287E+03;-0.066896215;0.0;0.0022656017;40.136265
  3.9993167E-02;  9.9999998E-03; -1.0000019E-01;1101;-0.0048912456;0.0;-0.00013790779;1000.1021;  4.0000001E-01;84.639572;3;-2.8736444;0.0;-0.099640898;0;-0.064942807;  1.0002099E+04;  0.0000000E+00;  1.3453457E-09;  1.0000000E+04;  0.0000000E+00;  9.9999404E+03;-0.066846184;0.0;0.0019033751;34.738037
  3.9993189E-02;  9.9999998E-03; -8.0000125E-02;1102;-0.0048745987;0.0;-9.596788e-05;1000.1022;  4.0000001E-01;84.738335;3;-2.8680515;0.0;-0.072596058;0;-0.065068051;  1.0002093E+04;  0.0000000E+00;  1.3967411E-10;  1.0000000E+04;  0.0000000E+00;  9.9999531E+03;-0.066631109;0.0;0.0015630552;29.717232
  3.9993215E-02;  9.9999998E-03; -6.0000084E-02;1103;-0.0048542027;0.0;-6.3585059e-05;1000.1022;  4.0000001E-01;84.738335;3;-2.8593717;0.0;-0.050229736;0;-0.065087259;  1.0002083E+04;  0.0000000E+00; -4.2845911E-11;  1.0000000E+04;  0.0000000E+00;  9.9999619E+03;-0.066361643;0.0;0.0012743847;25.491447
  3.9993238E-02;  9.9999998E-03; -4.0000051E-02;1104;-0.0048359246;0.0;-3.8154252e-05;1000.1022;  4.0000001E-01;84.738335;3;-2.8509612;0.0;-0.031369179;0;-0.065060385;  1.0002075E+04;  0.0000000E+00;  3.0731688E-11;  1.0000000E+04;  0.0000000E+00;  9.9999688E+03;-0.066117048;0.0;0.0010566632;22.322901
  3.9993256E-02;  9.9999998E-03; -2.0000024E-02;1105;-0.0048234952;0.0;-1.7903896e-05;1000.1021;  4.0000001E-01;84.639572;3;-2.8450375;0.0;-0.015127307;0;-0.065028518;  1.0002070E+04;  0.0000000E+00;  8.9653784E-11;  1.0000000E+04;  0.0000000E+00;  9.9999736E+03;-0.065950252;0.0;0.00092173211;20.367044
  5.9991255E-02;  9.9999998E-03; -1.8000063E-01;1128;-0.0061950069;0.0;-0.00044084588;1000.1097;  4.0000001E-01;90.960373;3;-3.3719869;0.0;-0.25586051;0;-0.068342574;  1.0002305E+04;  0.0000000E+00;  6.7634154E-08;  1.0000000E+04;  0.0000000E+00;  9.9998916E+03;-0.071629703;0.0;0.0032871307;58.53886
  5.9991084E-02;  9.9999998E-03; -1.6000050E-01;1129;-0.0063183918;0.0;-0.00035146257;1000.112;  4.0000001E-01;92.836868;3;-3.4467182;0.0;-0.21222809;0;-0.069785543;  1.0002349E+04;  0.0000000E+00;  4.3026667E-08;  1.0000000E+04;  0.0000000E+00;  9.9998955E+03;-0.072965935;0.0;0.0031803942;56.545654
  5.9991006E-02;  9.9999998E-03; -1.4000037E-01;1130;-0.0063757938;0.0;-0.00027072805;1000.1135;  4.0000001E-01;94.022018;3;-3.4872632;0.0;-0.1709716;0;-0.0706608;  1.0002362E+04;  0.0000000E+00;  1.9123908E-08;  1.0000000E+04;  0.0000000E+00;  9.9999063E+03;-0.073553458;0.0;0.0028926593;51.802212
  5.9990987E-02;  9.9999998E-03; -1.2000028E-01;1131;-0.0063887211;0.0;-0.00020296444;1000.1141;  4.0000001E-01;94.515831;3;-3.5030079;0.0;-0.13484678;0;-0.071118303;  1.0002364E+04;  0.0000000E+00;  6.2146093E-09;  1.0000000E+04;  0.0000000E+00;  9.9999199E+03;-0.073643163;0.0;0.0025248637;45.917896
  5.9991006E-02;  9.9999998E-03; -1.0000020E-01;1132;-0.0063748499;0.0;-0.00014713714;1000.1146;  4.0000001E-01;95.009644;3;-3.503088;0.0;-0.10313538;0;-0.07130342;  1.0002354E+04;  0.0000000E+00;  8.8036239E-10;  1.0000000E+04;  0.0000000E+00;  9.9999326E+03;-0.073435269;0.0;0.0021318488;39.761654
  5.9991043E-02;  9.9999998E-03; -8.0000140E-02;1133;-0.0063478164;0.0;-0.00010284852;1000.1146;  4.0000001E-01;94.910881;3;-3.4947729;0.0;-0.076114282;0;-0.071325511;  1.0002344E+04;  0.0000000E+00; -1.6085053E-10;  1.0000000E+04;  0.0000000E+00;  9.9999453E+03;-0.073085405;0.0;0.0017598933;34.022713
  5.9991084E-02;  9.9999998E-03; -6.0000092E-02;1134;-0.0063174916;0.0;-6.8264788e-05;1000.1144;  4.0000001E-01;94.812119;3;-3.4832544;0.0;-0.053281195;0;-0.071266137;  1.0002333E+04;  0.0000000E+00; -9.9170831E-11;  1.0000000E+04;  0.0000000E+00;  9.9999551E+03;-0.07270886;0.0;0.0014427254;29.182322
  5.9991118E-02;  9.9999998E-03; -4.0000055E-02;1135;-0.0062911063;0.0;-4.1128347e-05;1000.1142;  4.0000001E-01;94.614594;3;-3.4724431;0.0;-0.033539757;0;-0.071184389;  1.0002324E+04;  0.0000000E+00; -6.3449287E-11;  1.0000000E+04;  0.0000000E+00;  9.9999639E+03;-0.072387069;0.0;0.0012026833;25.547293
  5.9991144E-02;  9.9999998E-03; -2.0000026E-02;1136;-0.0062734368;0.0;-1.9275678e-05;1000.1142;  4.0000001E-01;94.614594;3;-3.4649138;0.0;-0.016179688;0;-0.071120083;  1.0002315E+04;  0.0000000E+00;  4.7865475E-11;  1.0000000E+04;  0.0000000E+00;  9.9999678E+03;-0.072173722;0.0;0.001053636;23.301546
  7.9988830E-02;  9.9999998E-03; -1.8000066E-01;1159;-0.0078079584;0.0;-0.00044119576;1000.1251;  4.0000001E-01;103.70075;3;-4.0576611;0.0;-0.24449703;0;-0.076063469;  1.0002623E+04;  0.0000000E+00;  1.0172533E-08;  1.0000000E+04;  0.0000000E+00;  9.9998779E+03;-0.079530306;0.0;0.0034668359;65.099968
  7.9988644E-02;  9.9999998E-03; -1.6000052E-01;1160;-0.0079438109;0.0;-0.00035141403;1000.1271;  4.0000001E-01;105.28096;3;-4.1402168;0.0;-0.20435502;0;-0.077315941;  1.0002656E+04;  0.0000000E+00;  3.3915036E-08;  1.0000000E+04;  0.0000000E+00;  9.9998867E+03;-0.080656417;0.0;0.0033404715;62.510963
  7.9988569E-02;  9.9999998E-03; -1.4000039E-01;1161;-0.0080009783;0.0;-0.00027036795;1000.1283;  4.0000001E-01;106.26859;3;-4.1833897;0.0;-0.16635756;0;-0.077969588;  1.0002669E+04;  0.0000000E+00;  1.7271677E-08;  1.0000000E+04;  0.0000000E+00;  9.9998965E+03;-0.081017606;0.0;0.0030480151;57.235935
  7.9988562E-02;  9.9999998E-03; -1.2000029E-01;1162;-0.0080057187;0.0;-0.00020307544;1000.1286;  4.0000001E-01;106.56487;3;-4.1985121;0.0;-0.13275953;0;-0.078214221;  1.0002664E+04;  0.0000000E+00;  5.1043663E-09;  1.0000000E+04;  0.0000000E+00;  9.9999102E+03;-0.080892727;0.0;0.0026785075;50.837757
  7.9988599E-02;  9.9999998E-03; -1.0000020E-01;1163;-0.0079799136;0.0;-0.00014696005;1000.1286;  4.0000001E-01;106.56487;3;-4.196291;0.0;-0.10272294;0;-0.078216039;  1.0002650E+04;  0.0000000E+00;  4.4490842E-11;  1.0000000E+04;  0.0000000E+00;  9.9999258E+03;-0.080496006;0.0;0.0022799661;44.14904
  7.9988658E-02;  9.9999998E-03; -8.0000140E-02;1164;-0.0079397494;0.0;-0.00010283837;1000.1283;  4.0000001E-01;106.26859;3;-4.1847205;0.0;-0.076688707;0;-0.078090549;  1.0002631E+04;  0.0000000E+00; -7.5836615E-10;  1.0000000E+04;  0.0000000E+00;  9.9999395E+03;-0.079989523;0.0;0.0018989726;37.893589
  7.9988718E-02;  9.9999998E-03; -6.0000092E-02;1165;-0.0078974077;0.0;-6.8065019e-05;1000.1281;  4.0000001E-01;106.07106;3;-4.1700358;0.0;-0.054061245;0;-0.077919349;  1.0002616E+04;  0.0000000E+00; -5.1141430E-10;  1.0000000E+04;  0.0000000E+00;  9.9999502E+03;-0.079490937;0.0;0.0015715862;32.599915
  7.9988770E-02;  9.9999998E-03; -4.0000055E-02;1166;-0.0078614578;0.0;-4.1063442e-05;1000.1279;  4.0000001E-01;105.9723;3;-4.156559;0.0;-0.034384891;0;-0.077759691;  1.0002601E+04;  0.0000000E+00; -7.7299098E-11;  1.0000000E+04;  0.0000000E+00;  9.9999600E+03;-0.079082191;0.0;0.0013224983;28.614033
  7.9988800E-02;  9.9999998E-03; -2.0000026E-02;1167;-0.0078376932;0.0;-1.9231324e-05;1000.1276;  4.0000001E-01;105.77477;3;-4.1473103;0.0;-0.016647682;0;-0.077649549;  1.0002593E+04;  0.0000000E+00;  5.1377865E-12;  1.0000000E+04;  0.0000000E+00;  9.9999658E+03;-0.078816906;0.0;0.0011673541;26.147472
  9.9986099E-02;  9.9999998E-03; -1.8000066E-01;1190;-0.0095699048;0.0;-0.00042723981;1000.1437;  4.0000001E-01;119.10773;3;-4.8251486;0.0;-0.22884655;0;-0.085265256;  1.0003008E+04;  0.0000000E+00; -8.0421451E-08;  1.0000000E+04;  0.0000000E+00;  9.9998711E+03;-0.08880005;0.0;0.0035347964;71.191086
  9.9985912E-02;  9.9999998E-03; -1.6000052E-01;1191;-0.0097110569;0.0;-0.00033963288;1000.1454;  4.0000001E-01;120.4904;3;-4.9135222;0.0;-0.19325665;0;-0.086262897;  1.0003032E+04;  0.0000000E+00;  8.9606385E-09;  1.0000000E+04;  0.0000000E+00;  9.9998789E+03;-0.089662634;0.0;0.0033997355;68.050949
  9.9985845E-02;  9.9999998E-03; -1.4000039E-01;1192;-0.0097612236;0.0;-0.00026203526;1000.1462;  4.0000001E-01;121.08298;3;-4.9576244;0.0;-0.1596556;0;-0.086631939;  1.0003034E+04;  0.0000000E+00;  1.3852288E-08;  1.0000000E+04;  0.0000000E+00;  9.9998896E+03;-0.089755461;0.0;0.0031235202;62.397022
  9.9985860E-02;  9.9999998E-03; -1.2000029E-01;1193;-0.0097526303;0.0;-0.00019651822;1000.1461;  4.0000001E-01;121.08298;3;-4.9708986;0.0;-0.12885359;0;-0.086607136;  1.0003021E+04;  0.0000000E+00;  3.9945309E-09;  1.0000000E+04;  0.0000000E+00;  9.9999033E+03;-0.089384124;0.0;0.0027769858;55.678383
  9.9985927E-02;  9.9999998E-03; -1.0000020E-01;1194;-0.0097104963;0.0;-0.00014260726;1000.1458;  4.0000001E-01;120.78669;3;-4.965179;0.0;-0.10101824;0;-0.086377032;  1.0002996E+04;  0.0000000E+00; -1.0074926E-09;  1.0000000E+04;  0.0000000E+00;  9.9999199E+03;-0.08877404;0.0;0.0023970101;48.644386
  9.9986009E-02;  9.9999998E-03; -8.0000140E-02;1195;-0.0096540134;0.0;-9.9649878e-05;1000.1454;  4.0000001E-01;120.4904;3;-4.9496727;0.0;-0.076322258;0;-0.086064473;  1.0002972E+04;  0.0000000E+00; -1.5588352E-09;  1.0000000E+04;  0.0000000E+00;  9.9999336E+03;-0.088092171;0.0;0.0020276941;42.026604
  9.9986091E-02;  9.9999998E-03; -6.0000092E-02;1196;-0.0095972186;0.0;-6.6179025e-05;1000.1447;  4.0000001E-01;119.89783;3;-4.9312172;0.0;-0.05450232;0;-0.085751377;  1.0002948E+04;  0.0000000E+00; -1.1546983E-09;  1.0000000E+04;  0.0000000E+00;  9.9999443E+03;-0.087457649;0.0;0.0017062692;36.39312
  9.9986158E-02;  9.9999998E-03; -4.0000055E-02;1197;-0.0095500741;0.0;-3.9962692e-05;1000.1443;  4.0000001E-01;119.60154;3;-4.9147148;0.0;-0.034988634;0;-0.085492775;  1.0002933E+04;  0.0000000E+00; -2.7650682E-10;  1.0000000E+04;  0.0000000E+00;  9.9999541E+03;-0.086952351;0.0;0.0014595727;32.132233
  9.9986203E-02;  9.9999998E-03; -2.0000026E-02;1198;-0.0095192315;0.0;-1.8763931e-05;1000.1442;  4.0000001E-01;119.40401;3;-4.9035149;0.0;-0.017109483;0;-0.08532428;  1.0002922E+04;  0.0000000E+00; -8.0164049E-11;  1.0000000E+04;  0.0000000E+00;  9.9999600E+03;-0.086629383;0.0;0.0013051018;29.487707
  1.1998298E-01;  9.9999998E-03; -1.8000068E-01;1221;-0.011523422;0.0;-0.00041209208;1000.1666;  4.0000001E-01;137.97139;3;-5.6815653;0.0;-0.21448334;0;-0.096238233;  1.0003470E+04;  0.0000000E+00; -2.1814375E-07;  1.0000000E+04;  0.0000000E+00;  9.9998613E+03;-0.099800251;0.0;0.0035620194;77.993172
  1.1998279E-01;  9.9999998E-03; -1.6000053E-01;1222;-0.011661457;0.0;-0.0003299469;1000.1677;  4.0000001E-01;138.86024;3;-5.7732892;0.0;-0.18498537;0;-0.096907318;  1.0003485E+04;  0.0000000E+00; -2.0339030E-08;  1.0000000E+04;  0.0000000E+00;  9.9998662E+03;-0.10034554;0.0;0.0034382173;74.40863
  1.1998276E-01;  9.9999998E-03; -1.4000040E-01;1223;-0.011697336;0.0;-0.00025731995;1000.1678;  4.0000001E-01;139.05777;3;-5.8164592;0.0;-0.15628578;0;-0.096932776;  1.0003478E+04;  0.0000000E+00;  1.1814334E-08;  1.0000000E+04;  0.0000000E+00;  9.9998809E+03;-0.10013458;0.0;0.0032018041;68.519722
  1.1998281E-01;  9.9999998E-03; -1.2000030E-01;1224;-0.011669277;0.0;-0.00019405385;1000.1674;  4.0000001E-01;138.66272;3;-5.8263035;0.0;-0.12816022;0;-0.096588001;  1.0003452E+04;  0.0000000E+00;  3.5738326E-09;  1.0000000E+04;  0.0000000E+00;  9.9998965E+03;-0.099490747;0.0;0.0029027441;61.631031
  1.1998291E-01;  9.9999998E-03; -1.0000021E-01;1225;-0.011605958;0.0;-0.00014229983;1000.1664;  4.0000001E-01;137.87262;3;-5.8159752;0.0;-0.10255421;0;-0.096084237;  1.0003418E+04;  0.0000000E+00; -1.9280630E-09;  1.0000000E+04;  0.0000000E+00;  9.9999092E+03;-0.098646879;0.0;0.0025626393;54.361713
  1.1998302E-01;  9.9999998E-03; -8.0000147E-02;1226;-0.011529346;0.0;-0.00010033628;1000.1656;  4.0000001E-01;137.18129;3;-5.7956085;0.0;-0.078784674;0;-0.09555158;  1.0003387E+04;  0.0000000E+00; -2.6401903E-09;  1.0000000E+04;  0.0000000E+00;  9.9999238E+03;-0.097773194;0.0;0.002221616;47.443714
  1.1998314E-01;  9.9999998E-03; -6.0000096E-02;1227;-0.01145527;0.0;-6.7317502e-05;1000.1647;  4.0000001E-01;136.39119;3;-5.7726994;0.0;-0.057161178;0;-0.0950718;  1.0003357E+04;  0.0000000E+00; -1.6405682E-09;  1.0000000E+04;  0.0000000E+00;  9.9999404E+03;-0.096989878;0.0;0.0019180741;41.495361
  1.1998323E-01;  9.9999998E-03; -4.0000055E-02;1228;-0.011394953;0.0;-4.1086911e-05;1000.1641;  4.0000001E-01;135.89737;3;-5.7526784;0.0;-0.037159823;0;-0.094696999;  1.0003336E+04;  0.0000000E+00; -5.4528781E-10;  1.0000000E+04;  0.0000000E+00;  9.9999473E+03;-0.096378624;0.0;0.0016816244;36.96339
  1.1998329E-01;  9.9999998E-03; -2.0000026E-02;1229;-0.011355878;0.0;-1.9392792e-05;1000.1636;  4.0000001E-01;135.60109;3;-5.7392411;0.0;-0.018295612;0;-0.094459958;  1.0003323E+04;  0.0000000E+00; -2.2005338E-10;  1.0000000E+04;  0.0000000E+00;  9.9999531E+03;-0.095992193;0.0;0.0015322337;34.137344
  1.3997938E-01;  9.9999998E-03; -1.8000071E-01;1252;-0.013721509;0.0;-0.00041349287;1000.1935;  4.0000001E-01;160.3905;3;-6.6286254;0.0;-0.20932993;0;-0.10894889;  1.0004025E+04;  0.0000000E+00; -9.7455240E-06;  1.0000000E+04;  0.0000000E+00;  9.9998457E+03;-0.11261638;0.0;0.0036674878;87.51049
  1.3997921E-01;  9.9999998E-03; -1.6000056E-01;1253;-0.013847426;0.0;-0.00033870584;1000.1938;  4.0000001E-01;160.58803;3;-6.7211466;0.0;-0.18747294;0;-0.10921239;  1.0004025E+04;  0.0000000E+00; -4.4885439E-08;  1.0000000E+04;  0.0000000E+00;  9.9998525E+03;-0.11277967;0.0;0.0035672751;83.350075
  1.3997921E-01;  9.9999998E-03; -1.4000043E-01;1254;-0.013861313;0.0;-0.00027037523;1000.1933;  4.0000001E-01;160.19298;3;-6.7615929;0.0;-0.16322397;0;-0.10883569;  1.0003999E+04;  0.0000000E+00;  1.2259867E-08;  1.0000000E+04;  0.0000000E+00;  9.9998672E+03;-0.11222792;0.0;0.0033922356;77.24984
  1.3997932E-01;  9.9999998E-03; -1.2000033E-01;1255;-0.013807016;0.0;-0.00020892337;1000.1922;  4.0000001E-01;159.20535;3;-6.7664609;0.0;-0.13788128;0;-0.10812617;  1.0003962E+04;  0.0000000E+00;  4.8196158E-09;  1.0000000E+04;  0.0000000E+00;  9.9998809E+03;-0.11128804;0.0;0.003161873;70.223495
  1.3997945E-01;  9.9999998E-03; -1.0000023E-01;1256;-0.013717112;0.0;-0.00015669108;1000.1908;  4.0000001E-01;158.11896;3;-6.7503672;0.0;-0.11275548;0;-0.10731538;  1.0003919E+04;  0.0000000E+00; -2.5953406E-09;  1.0000000E+04;  0.0000000E+00;  9.9998955E+03;-0.11019348;0.0;0.0028780997;62.698185
  1.3997962E-01;  9.9999998E-03; -8.0000162E-02;1257;-0.013616068;0.0;-0.00011332581;1000.1895;  4.0000001E-01;157.03258;3;-6.7242975;0.0;-0.08856573;0;-0.10653858;  1.0003877E+04;  0.0000000E+00; -3.6733898E-09;  1.0000000E+04;  0.0000000E+00;  9.9999102E+03;-0.1091148;0.0;0.0025762245;55.406639
  1.3997976E-01;  9.9999998E-03; -6.0000107E-02;1258;-0.013521464;0.0;-7.7787277e-05;1000.1884;  4.0000001E-01;156.14371;3;-6.6963744;0.0;-0.065450229;0;-0.10587514;  1.0003843E+04;  0.0000000E+00; -1.8858737E-09;  1.0000000E+04;  0.0000000E+00;  9.9999268E+03;-0.10817202;0.0;0.002296882;49.04496
  1.3997988E-01;  9.9999998E-03; -4.0000066E-02;1259;-0.013445674;0.0;-4.840799e-05;1000.1876;  4.0000001E-01;155.35361;3;-6.672399;0.0;-0.043096285;0;-0.10537279;  1.0003813E+04;  0.0000000E+00; -7.3805745E-10;  1.0000000E+04;  0.0000000E+00;  9.9999365E+03;-0.10744672;0.0;0.0020739255;44.147896
  1.3997996E-01;  9.9999998E-03; -2.0000031E-02;1260;-0.013397012;0.0;-2.3160668e-05;1000.1871;  4.0000001E-01;154.95856;3;-6.6564379;0.0;-0.021395979;0;-0.10506082;  1.0003798E+04;  0.0000000E+00; -1.6458485E-10;  1.0000000E+04;  0.0000000E+00;  9.9999414E+03;-0.10699187;0.0;0.0019310516;41.074543
  1.5997517E-01;  9.9999998E-03; -1.8000081E-01;1283;-0.016207766;0.0;-0.00045667164;1000.2243;  4.0000001E-01;185.87126;3;-7.6663857;0.0;-0.22682139;0;-0.12321823;  1.0004669E+04;  0.0000000E+00; -8.2905368E-05;  1.0000000E+04;  0.0000000E+00;  9.9998184E+03;-0.12726142;0.0;0.0040431828;103.07106
  1.5997505E-01;  9.9999998E-03; -1.6000065E-01;1284;-0.016312214;0.0;-0.00038780388;1000.2243;  4.0000001E-01;185.87126;3;-7.7576194;0.0;-0.21203335;0;-0.12299813;  1.0004653E+04;  0.0000000E+00; -6.0745066E-08;  1.0000000E+04;  0.0000000E+00;  9.9998291E+03;-0.12694333;0.0;0.0039452049;97.478317
  1.5997511E-01;  9.9999998E-03; -1.4000052E-01;1285;-0.016296281;0.0;-0.00032068623;1000.223;  4.0000001E-01;184.68611;3;-7.7939205;0.0;-0.19123182;0;-0.12217762;  1.0004613E+04;  0.0000000E+00;  2.0380856E-08;  1.0000000E+04;  0.0000000E+00;  9.9998438E+03;-0.12601081;0.0;0.0038331803;90.749191
  1.5997528E-01;  9.9999998E-03; -1.2000040E-01;1286;-0.016209066;0.0;-0.00025664011;1000.2211;  4.0000001E-01;183.10591;3;-7.7928457;0.0;-0.16625252;0;-0.12107394;  1.0004562E+04;  0.0000000E+00;  8.0567695E-09;  1.0000000E+04;  0.0000000E+00;  9.9998584E+03;-0.12475369;0.0;0.0036797491;83.317444
  1.5997548E-01;  9.9999998E-03; -1.0000029E-01;1287;-0.016086921;0.0;-0.00019870901;1000.2192;  4.0000001E-01;181.62447;3;-7.7701712;0.0;-0.13901345;0;-0.11993722;  1.0004506E+04;  0.0000000E+00; -3.2078551E-09;  1.0000000E+04;  0.0000000E+00;  9.9998770E+03;-0.12339608;0.0;0.0034588554;75.280655
  1.5997569E-01;  9.9999998E-03; -8.0000207E-02;1288;-0.01595683;0.0;-0.0001481848;1000.2174;  4.0000001E-01;180.14302;3;-7.7377687;0.0;-0.11114808;0;-0.11890487;  1.0004454E+04;  0.0000000E+00; -4.4993249E-09;  1.0000000E+04;  0.0000000E+00;  9.9998906E+03;-0.1221035;0.0;0.0031986299;67.344894
  1.5997589E-01;  9.9999998E-03; -6.0000140E-02;1289;-0.0158381;0.0;-0.00010457351;1000.2157;  4.0000001E-01;178.66159;3;-7.7042789;0.0;-0.083251059;0;-0.11805111;  1.0004411E+04;  0.0000000E+00; -2.9248248E-09;  1.0000000E+04;  0.0000000E+00;  9.9999043E+03;-0.12099401;0.0;0.0029428969;60.309593
  1.5997604E-01;  9.9999998E-03; -4.0000089E-02;1290;-0.015744297;0.0;-6.6566077e-05;1000.2147;  4.0000001E-01;177.87149;3;-7.676012;0.0;-0.055419005;0;-0.11741781;  1.0004375E+04;  0.0000000E+00; -1.1030072E-09;  1.0000000E+04;  0.0000000E+00;  9.9999180E+03;-0.12014927;0.0;0.0027314601;54.832241
  1.5997612E-01;  9.9999998E-03; -2.0000041E-02;1291;-0.01568451;0.0;-3.2343403e-05;1000.2141;  4.0000001E-01;177.37767;3;-7.6573153;0.0;-0.027705349;0;-0.11702911;  1.0004356E+04;  0.0000000E+00; -2.8126820E-10;  1.0000000E+04;  0.0000000E+00;  9.9999238E+03;-0.11962238;0.0;0.0025932696;51.370682
  1.7997031E-01;  9.9999998E-03; -1.8000102E-01;1314;-0.019011887;0.0;-0.00057585863;1000.2597;  4.0000001E-01;215.20375;3;-8.7948008;0.0;-0.2843982;0;-0.13887718;  1.0005426E+04;  0.0000000E+00; -2.4678209E-04;  1.0000000E+04;  0.0000000E+00;  9.9997686E+03;-0.14383367;0.0;0.0049564838;129.45297
  1.7997025E-01;  9.9999998E-03; -1.6000085E-01;1315;-0.019085731;0.0;-0.00050468097;1000.2586;  4.0000001E-01;214.21613;3;-8.8833418;0.0;-0.2725521;0;-0.13813859;  1.0005383E+04;  0.0000000E+00; -8.0783695E-07;  1.0000000E+04;  0.0000000E+00;  9.9997871E+03;-0.14292526;0.0;0.0047866772;120.45467
  1.7997038E-01;  9.9999998E-03; -1.4000069E-01;1316;-0.01903275;0.0;-0.00042992004;1000.2565;  4.0000001E-01;212.4384;3;-8.9148932;0.0;-0.25133422;0;-0.13687627;  1.0005323E+04;  0.0000000E+00;  3.2808366E-08;  1.0000000E+04;  0.0000000E+00;  9.9998057E+03;-0.14157195;0.0;0.0046956874;111.81513
  1.7997061E-01;  9.9999998E-03; -1.2000053E-01;1317;-0.018906355;0.0;-0.00035408497;1000.2538;  4.0000001E-01;210.26563;3;-8.9075899;0.0;-0.22226201;0;-0.13538107;  1.0005254E+04;  0.0000000E+00;  1.3635362E-08;  1.0000000E+04;  0.0000000E+00;  9.9998184E+03;-0.1399799;0.0;0.0045988257;103.13367
  1.7997089E-01;  9.9999998E-03; -1.0000040E-01;1318;-0.018746419;0.0;-0.00028173052;1000.2513;  4.0000001E-01;208.1916;3;-8.8780632;0.0;-0.18848781;0;-0.13392259;  1.0005185E+04;  0.0000000E+00; -2.6435258E-09;  1.0000000E+04;  0.0000000E+00;  9.9998389E+03;-0.13835131;0.0;0.0044287173;93.932091
  1.7997117E-01;  9.9999998E-03; -8.0000296E-02;1319;-0.018582577;0.0;-0.00021519072;1000.249;  4.0000001E-01;206.21635;3;-8.8390026;0.0;-0.15219106;0;-0.13264084;  1.0005122E+04;  0.0000000E+00; -4.7896789E-09;  1.0000000E+04;  0.0000000E+00;  9.9998545E+03;-0.13684091;0.0;0.0042000664;84.793709
  1.7997141E-01;  9.9999998E-03; -6.0000204E-02;1320;-0.018435951;0.0;-0.00015519219;1000.2472;  4.0000001E-01;204.83368;3;-8.7996702;0.0;-0.11482658;0;-0.13160329;  1.0005069E+04;  0.0000000E+00; -2.6823186E-09;  1.0000000E+04;  0.0000000E+00;  9.9998750E+03;-0.13556191;0.0;0.003958628;76.613686
  1.7997159E-01;  9.9999998E-03; -4.0000126E-02;1321;-0.018321412;0.0;-0.00010041911;1000.2457;  4.0000001E-01;203.54977;3;-8.7668219;0.0;-0.076904595;0;-0.13084425;  1.0005027E+04;  0.0000000E+00; -9.3990338E-10;  1.0000000E+04;  0.0000000E+00;  9.9998877E+03;-0.13459516;0.0;0.0037509005;70.194397
  1.7997171E-01;  9.9999998E-03; -2.0000061E-02;1322;-0.018248858;0.0;-4.9291099e-05;1000.245;  4.0000001E-01;202.9572;3;-8.7452173;0.0;-0.038539819;0;-0.1303824;  1.0005003E+04;  0.0000000E+00; -1.2111233E-10;  1.0000000E+04;  0.0000000E+00;  9.9998955E+03;-0.13399455;0.0;0.0036121404;66.116554
  1.9996467E-01;  9.9999998E-03; -1.8000138E-01;1345;-0.022162445;0.0;-0.00080171035;1000.2993;  4.0000001E-01;247.99295;3;-10.013885;0.0;-0.39561152;0;-0.15572441;  1.0006303E+04;  0.0000000E+00; -4.2924288E-04;  1.0000000E+04;  0.0000000E+00;  9.9996855E+03;-0.16243418;0.0;0.0067097703;172.2576
  1.9996469E-01;  9.9999998E-03; -1.6000116E-01;1346;-0.022197489;0.0;-0.00071581308;1000.2973;  4.0000001E-01;246.31398;3;-10.098964;0.0;-0.38275522;0;-0.15452796;  1.0006230E+04;  0.0000000E+00; -3.3243014E-06;  1.0000000E+04;  0.0000000E+00;  9.9997168E+03;-0.16086619;0.0;0.0063382233;156.67334
  1.9996491E-01;  9.9999998E-03; -1.4000095E-01;1347;-0.022100888;0.0;-0.00061969127;1000.2943;  4.0000001E-01;243.84492;3;-10.1264;0.0;-0.35440207;0;-0.15288642;  1.0006146E+04;  0.0000000E+00;  5.0893480E-08;  1.0000000E+04;  0.0000000E+00;  9.9997432E+03;-0.15905742;0.0;0.006171009;143.73282
  1.9996524E-01;  9.9999998E-03; -1.2000075E-01;1348;-0.021929681;0.0;-0.00051824382;1000.2913;  4.0000001E-01;241.27708;3;-10.113502;0.0;-0.31480637;0;-0.15104754;  1.0006059E+04;  0.0000000E+00;  2.0279836E-08;  1.0000000E+04;  0.0000000E+00;  9.9997646E+03;-0.15711708;0.0;0.0060695456;132.14607
  1.9996561E-01;  9.9999998E-03; -1.0000058E-01;1349;-0.021726767;0.0;-0.00041855089;1000.288;  4.0000001E-01;238.6105;3;-10.077598;0.0;-0.26772586;0;-0.14930299;  1.0005974E+04;  0.0000000E+00; -1.9766764E-09;  1.0000000E+04;  0.0000000E+00;  9.9997881E+03;-0.15521421;0.0;0.0059112222;120.56602
  1.9996595E-01;  9.9999998E-03; -8.0000430E-02;1350;-0.021524532;0.0;-0.00032434094;1000.2853;  4.0000001E-01;236.33896;3;-10.031968;0.0;-0.21728913;0;-0.14779864;  1.0005899E+04;  0.0000000E+00; -4.5019561E-09;  1.0000000E+04;  0.0000000E+00;  9.9998105E+03;-0.15348575;0.0;0.0056871097;109.28333
  1.9996627E-01;  9.9999998E-03; -6.0000300E-02;1351;-0.021346252;0.0;-0.00023653406;1000.2831;  4.0000001E-01;234.56123;3;-9.9867668;0.0;-0.16426115;0;-0.14659792;  1.0005833E+04;  0.0000000E+00; -2.1519586E-09;  1.0000000E+04;  0.0000000E+00;  9.9998301E+03;-0.1520381;0.0;0.0054401695;99.225716
  1.9996649E-01;  9.9999998E-03; -4.0000189E-02;1352;-0.021208158;0.0;-0.00015445388;1000.2816;  4.0000001E-01;233.27731;3;-9.949297;0.0;-0.1099226;0;-0.14572798;  1.0005783E+04;  0.0000000E+00; -5.2100640E-10;  1.0000000E+04;  0.0000000E+00;  9.9998467E+03;-0.15095;0.0;0.0052220277;91.331497
  1.9996664E-01;  9.9999998E-03; -2.0000093E-02;1353;-0.021121135;0.0;-7.6267221e-05;1000.2806;  4.0000001E-01;232.48721;3;-9.9247274;0.0;-0.055013675;0;-0.14520173;  1.0005753E+04;  0.0000000E+00;  2.5583544E-11;  1.0000000E+04;  0.0000000E+00;  9.9998584E+03;-0.1502758;0.0;0.0050740712;86.311478
  2.1995816E-01;  9.9999998E-03; -1.8000193E-01;1376;-0.025692921;0.0;-0.0011587809;1000.343;  4.0000001E-01;284.14008;3;-11.324914;0.0;-0.5699091;0;-0.17354438;  1.0007306E+04;  0.0000000E+00; -4.8714713E-04;  1.0000000E+04;  0.0000000E+00;  9.9995576E+03;-0.18310012;0.0;0.0095557496;236.55241
  2.1995828E-01;  9.9999998E-03; -1.6000164E-01;1377;-0.025683239;0.0;-0.0010380353;1000.3405;  4.0000001E-01;282.06604;3;-11.407698;0.0;-0.54858178;0;-0.17205733;  1.0007204E+04;  0.0000000E+00; -3.7391533E-06;  1.0000000E+04;  0.0000000E+00;  9.9996074E+03;-0.18087284;0.0;0.0088155083;210.3168
  2.1995860E-01;  9.9999998E-03; -1.4000134E-01;1378;-0.025537111;0.0;-0.00090529199;1000.337;  4.0000001E-01;279.20193;3;-11.432345;0.0;-0.50755972;0;-0.17015861;  1.0007094E+04;  0.0000000E+00;  5.7757838E-08;  1.0000000E+04;  0.0000000E+00;  9.9996523E+03;-0.17859177;0.0;0.008433165;189.7448
  2.1995905E-01;  9.9999998E-03; -1.2000108E-01;1379;-0.02531592;0.0;-0.00076304807;1000.3331;  4.0000001E-01;275.94278;3;-11.415491;0.0;-0.45090607;0;-0.16807032;  1.0006981E+04;  0.0000000E+00;  2.3342501E-08;  1.0000000E+04;  0.0000000E+00;  9.9996836E+03;-0.17629804;0.0;0.0082277255;172.77222
  2.1995951E-01;  9.9999998E-03; -1.0000084E-01;1380;-0.02506543;0.0;-0.0006195454;1000.3294;  4.0000001E-01;272.88113;3;-11.374553;0.0;-0.38268629;0;-0.16610776;  1.0006877E+04;  0.0000000E+00; -8.3705215E-10;  1.0000000E+04;  0.0000000E+00;  9.9997158E+03;-0.17412205;0.0;0.0080142962;156.98128
  2.1995996E-01;  9.9999998E-03; -8.0000624E-02;1381;-0.024820421;0.0;-0.0004830753;1000.3262;  4.0000001E-01;270.31329;3;-11.323077;0.0;-0.30909666;0;-0.16442965;  1.0006783E+04;  0.0000000E+00; -4.0651074E-09;  1.0000000E+04;  0.0000000E+00;  9.9997461E+03;-0.17217951;0.0;0.0077498532;142.18066
  2.1996033E-01;  9.9999998E-03; -6.0000442E-02;1382;-0.024606708;0.0;-0.00035452849;1000.3239;  4.0000001E-01;268.33804;3;-11.272356;0.0;-0.23374107;0;-0.16310024;  1.0006709E+04;  0.0000000E+00; -1.7777197E-09;  1.0000000E+04;  0.0000000E+00;  9.9997734E+03;-0.17056727;0.0;0.0074670282;129.22369
  2.1996062E-01;  9.9999998E-03; -4.0000279E-02;1383;-0.024442276;0.0;-0.00023260512;1000.3221;  4.0000001E-01;266.8566;3;-11.230406;0.0;-0.15670718;0;-0.16214302;  1.0006650E+04;  0.0000000E+00; -1.4163777E-09;  1.0000000E+04;  0.0000000E+00;  9.9997910E+03;-0.16936147;0.0;0.0072184447;119.13795
  2.1996079E-01;  9.9999998E-03; -2.0000136E-02;1384;-0.02433905;0.0;-0.00011528833;1000.321;  4.0000001E-01;265.96774;3;-11.202852;0.0;-0.079206474;0;-0.16156666;  1.0006617E+04;  0.0000000E+00;  3.7525008E-10;  1.0000000E+04;  0.0000000E+00;  9.9998057E+03;-0.16861638;0.0;0.0070497184;112.74774
  2.3995063E-01;  9.9999998E-03; -1.8000269E-01;1407;-0.02964673;0.0;-0.001655592;1000.3912;  4.0000001E-01;324.13895;3;-12.730886;0.0;-0.81223285;0;-0.19225103;  1.0008452E+04;  0.0000000E+00; -3.5708022E-04;  1.0000000E+04;  0.0000000E+00;  9.9993701E+03;-0.20584475;0.0;0.013593715;325.23523
  2.3995088E-01;  9.9999998E-03; -1.6000229E-01;1408;-0.029583557;0.0;-0.0014872461;1000.3885;  4.0000001E-01;321.8674;3;-12.813346;0.0;-0.77694345;0;-0.19069417;  1.0008314E+04;  0.0000000E+00; -1.0479555E-06;  1.0000000E+04;  0.0000000E+00;  9.9994609E+03;-0.20302387;0.0;0.012329698;284.2092
  2.3995134E-01;  9.9999998E-03; -1.4000189E-01;1409;-0.029383553;0.0;-0.0012952829;1000.3847;  4.0000001E-01;318.707;3;-12.838298;0.0;-0.71421337;0;-0.18869546;  1.0008175E+04;  0.0000000E+00;  5.2784415E-08;  1.0000000E+04;  0.0000000E+00;  9.9995254E+03;-0.20028515;0.0;0.011589693;252.31743
  2.3995191E-01;  9.9999998E-03; -1.2000152E-01;1410;-0.029108249;0.0;-0.0010920248;1000.3804;  4.0000001E-01;315.15152;3;-12.820874;0.0;-0.62784117;0;-0.18648401;  1.0008036E+04;  0.0000000E+00;  1.8711189E-08;  1.0000000E+04;  0.0000000E+00;  9.9995762E+03;-0.19764847;0.0;0.011164451;226.94273
  2.3995249E-01;  9.9999998E-03; -1.0000118E-01;1411;-0.028805189;0.0;-0.00089204946;1000.3764;  4.0000001E-01;311.89236;3;-12.776301;0.0;-0.53359497;0;-0.18439682;  1.0007911E+04;  0.0000000E+00; -1.9409061E-09;  1.0000000E+04;  0.0000000E+00;  9.9996201E+03;-0.19520861;0.0;0.010811796;204.60655
  2.3995304E-01;  9.9999998E-03; -8.0000885E-02;1412;-0.028513292;0.0;-0.000698708;1000.3731;  4.0000001E-01;309.12701;3;-12.720138;0.0;-0.43480149;0;-0.1826115;  1.0007802E+04;  0.0000000E+00; -2.5204416E-09;  1.0000000E+04;  0.0000000E+00;  9.9996602E+03;-0.19306089;0.0;0.010449402;184.52698
  2.3995350E-01;  9.9999998E-03; -6.0000628E-02;1413;-0.028260769;0.0;-0.00051390036;1000.3703;  4.0000001E-01;306.75671;3;-12.664937;0.0;-0.32894844;0;-0.1812001;  1.0007711E+04;  0.0000000E+00;  3.7349260E-10;  1.0000000E+04;  0.0000000E+00;  9.9996953E+03;-0.19129252;0.0;0.010092421;167.37874
  2.3995386E-01;  9.9999998E-03; -4.0000401E-02;1414;-0.028067425;0.0;-0.00033744812;1000.3683;  4.0000001E-01;305.17651;3;-12.619153;0.0;-0.21990485;0;-0.18018706;  1.0007647E+04;  0.0000000E+00;  1.0230993E-09;  1.0000000E+04;  0.0000000E+00;  9.9997217E+03;-0.18997617;0.0;0.0097891102;154.21217
  2.3995407E-01;  9.9999998E-03; -2.0000195E-02;1415;-0.027946463;0.0;-0.00016714734;1000.3671;  4.0000001E-01;304.18887;3;-12.589221;0.0;-0.10981295;0;-0.17957877;  1.0007604E+04;  0.0000000E+00;  6.6177980E-10;  1.0000000E+04;  0.0000000E+00;  9.9997383E+03;-0.18916488;0.0;0.0095861051;145.92834
  2.5994194E-01;  9.9999998E-03; -1.8000372E-01;1438;-0.034071207;0.0;-0.0023286005;1000.4448;  4.0000001E-01;368.48334;3;-14.235512;0.0;-1.1423396;0;-0.21196884;  1.0009750E+04;  0.0000000E+00; -1.4808014E-04;  1.0000000E+04;  0.0000000E+00;  9.9991436E+03;-0.23067527;0.0;0.018706428;437.96915
  2.5994235E-01;  9.9999998E-03; -1.6000313E-01;1439;-0.033948258;0.0;-0.002063036;1000.442;  4.0000001E-01;366.21179;3;-14.323017;0.0;-1.0634905;0;-0.21053405;  1.0009577E+04;  0.0000000E+00;  5.9253377E-08;  1.0000000E+04;  0.0000000E+00;  9.9992666E+03;-0.22737466;0.0;0.016840605;379.03299
  2.5994298E-01;  9.9999998E-03; -1.4000258E-01;1440;-0.033686936;0.0;-0.0017936395;1000.4382;  4.0000001E-01;363.05139;3;-14.35165;0.0;-0.97159106;0;-0.20858976;  1.0009405E+04;  0.0000000E+00;  2.7546278E-08;  1.0000000E+04;  0.0000000E+00;  9.9993613E+03;-0.22423472;0.0;0.015644958;332.54224
  2.5994369E-01;  9.9999998E-03; -1.2000208E-01;1441;-0.033351935;0.0;-0.0015118776;1000.4339;  4.0000001E-01;359.49591;3;-14.335302;0.0;-0.85566223;0;-0.20638698;  1.0009242E+04;  0.0000000E+00;  7.0058550E-09;  1.0000000E+04;  0.0000000E+00;  9.9994375E+03;-0.22128832;0.0;0.014901343;295.71371
  2.5994441E-01;  9.9999998E-03; -1.0000162E-01;1442;-0.032992426;0.0;-0.001236055;1000.4295;  4.0000001E-01;355.84171;3;-14.290324;0.0;-0.72559506;0;-0.20427768;  1.0009096E+04;  0.0000000E+00; -2.4090130E-09;  1.0000000E+04;  0.0000000E+00;  9.9995000E+03;-0.21860582;0.0;0.014328142;264.27243
  2.5994509E-01;  9.9999998E-03; -8.0001213E-02;1443;-0.032649789;0.0;-0.00096949068;1000.4258;  4.0000001E-01;352.78006;3;-14.231769;0.0;-0.58737206;0;-0.20246135;  1.0008965E+04;  0.0000000E+00; -6.8671446E-10;  1.0000000E+04;  0.0000000E+00;  9.9995547E+03;-0.21626937;0.0;0.013808023;236.90695
  2.5994566E-01;  9.9999998E-03; -6.0000863E-02;1444;-0.032355238;0.0;-0.00071509462;1000.4229;  4.0000001E-01;350.40976;3;-14.173545;0.0;-0.44386271;0;-0.2010228;  1.0008863E+04;  0.0000000E+00;  2.8974303E-09;  1.0000000E+04;  0.0000000E+00;  9.9996016E+03;-0.2143589;0.0;0.013336097;214.07869
  2.5994608E-01;  9.9999998E-03; -4.0000550E-02;1445;-0.03213064;0.0;-0.0004712333;1000.4208;  4.0000001E-01;348.63205;3;-14.124349;0.0;-0.30051437;0;-0.19999096;  1.0008783E+04;  0.0000000E+00;  2.5214502E-09;  1.0000000E+04;  0.0000000E+00;  9.9996348E+03;-0.21294317;0.0;0.01295221;196.8073
  2.5994635E-01;  9.9999998E-03; -2.0000268E-02;1446;-0.031990539;0.0;-0.00023382534;1000.4195;  4.0000001E-01;347.54565;3;-14.092498;0.0;-0.1511575;0;-0.1993726;  1.0008736E+04;  0.0000000E+00;  1.2098553E-09;  1.0000000E+04;  0.0000000E+00;  9.9996582E+03;-0.21207331;0.0;0.012700701;186.03043
  2.7993190E-01;  9.9999998E-03; -1.8000501E-01;1469;-0.039019499;0.0;-0.0031711098;1000.5043;  4.0000001E-01;417.76587;3;-15.847709;0.0;-1.5396692;0;-0.23300612;  1.0011221E+04;  0.0000000E+00; -1.9361589E-05;  1.0000000E+04;  0.0000000E+00;  9.9988701E+03;-0.25759658;0.0;0.024590461;571.55554
  2.7993253E-01;  9.9999998E-03; -1.6000418E-01;1470;-0.038826693;0.0;-0.0027781089;1000.5021;  4.0000001E-01;415.98813;3;-15.940818;0.0;-1.4165287;0;-0.23180161;  1.0011010E+04;  0.0000000E+00;  2.4181441E-08;  1.0000000E+04;  0.0000000E+00;  9.9990342E+03;-0.25396827;0.0;0.02216666;493.37051
  2.7993333E-01;  9.9999998E-03; -1.4000343E-01;1471;-0.038497809;0.0;-0.0023976481;1000.4984;  4.0000001E-01;412.82773;3;-15.978261;0.0;-1.2753949;0;-0.23002993;  1.0010805E+04;  0.0000000E+00; -5.3840510E-09;  1.0000000E+04;  0.0000000E+00;  9.9991641E+03;-0.25052783;0.0;0.020497905;430.00522
  2.7993423E-01;  9.9999998E-03; -1.2000275E-01;1472;-0.038095966;0.0;-0.002022096;1000.4937;  4.0000001E-01;409.07477;3;-15.965441;0.0;-1.1274438;0;-0.2279451;  1.0010610E+04;  0.0000000E+00; -5.7013496E-09;  1.0000000E+04;  0.0000000E+00;  9.9992656E+03;-0.24732935;0.0;0.019384248;379.11475
  2.7993515E-01;  9.9999998E-03; -1.0000213E-01;1473;-0.037675496;0.0;-0.0016513779;1000.4893;  4.0000001E-01;405.42053;3;-15.923592;0.0;-0.956025;0;-0.22590783;  1.0010434E+04;  0.0000000E+00; -7.2163546E-11;  1.0000000E+04;  0.0000000E+00;  9.9993555E+03;-0.24444047;0.0;0.018532632;336.11246
  2.7993596E-01;  9.9999998E-03; -8.0001608E-02;1474;-0.03727898;0.0;-0.0012973335;1000.4851;  4.0000001E-01;401.86508;3;-15.865995;0.0;-0.77580112;0;-0.2241357;  1.0010285E+04;  0.0000000E+00;  4.8012243E-09;  1.0000000E+04;  0.0000000E+00;  9.9994268E+03;-0.24194095;0.0;0.017805241;299.40817
  2.7993664E-01;  9.9999998E-03; -6.0001142E-02;1475;-0.036940206;0.0;-0.00095805846;1000.4823;  4.0000001E-01;399.59354;3;-15.807089;0.0;-0.58746982;0;-0.22272748;  1.0010161E+04;  0.0000000E+00;  9.3900310E-09;  1.0000000E+04;  0.0000000E+00;  9.9994893E+03;-0.23990895;0.0;0.017181471;269.3277
  2.7993715E-01;  9.9999998E-03; -4.0000729E-02;1476;-0.036682788;0.0;-0.00063129258;1000.48;  4.0000001E-01;397.71707;3;-15.757633;0.0;-0.39371753;0;-0.22171743;  1.0010070E+04;  0.0000000E+00;  7.2302915E-09;  1.0000000E+04;  0.0000000E+00;  9.9995352E+03;-0.2384097;0.0;0.016692266;246.8548
  2.7993745E-01;  9.9999998E-03; -2.0000355E-02;1477;-0.036522523;0.0;-0.000313664;1000.4788;  4.0000001E-01;396.63068;3;-15.725111;0.0;-0.19700266;0;-0.22111292;  1.0010016E+04;  0.0000000E+00;  3.8443519E-09;  1.0000000E+04;  0.0000000E+00;  9.9995635E+03;-0.23749116;0.0;0.016378235;232.94057
  2.9992038E-01;  9.9999998E-03; -1.8000655E-01;1500;-0.044543099;0.0;-0.0041530994;1000.5714;  4.0000001E-01;473.36914;3;-17.569525;0.0;-1.985095;0;-0.2557517;  1.0012871E+04;  0.0000000E+00;  8.0029241E-07;  1.0000000E+04;  0.0000000E+00;  9.9985605E+03;-0.28663579;0.0;0.030884085;721.78357
  2.9992121E-01;  9.9999998E-03; -1.6000541E-01;1501;-0.044269789;0.0;-0.0036086785;1000.5692;  4.0000001E-01;471.49265;3;-17.671795;0.0;-1.8121375;0;-0.25481293;  1.0012628E+04;  0.0000000E+00; -2.9005626E-08;  1.0000000E+04;  0.0000000E+00;  9.9987666E+03;-0.28286558;0.0;0.02805266;624.58075
  2.9992229E-01;  9.9999998E-03; -1.4000441E-01;1502;-0.04386441;0.0;-0.0030983228;1000.5657;  4.0000001E-01;468.72729;3;-17.720003;0.0;-1.6257974;0;-0.253272;  1.0012386E+04;  0.0000000E+00; -2.9777379E-08;  1.0000000E+04;  0.0000000E+00;  9.9989316E+03;-0.27925062;0.0;0.025978636;543.20392
  2.9992339E-01;  9.9999998E-03; -1.2000351E-01;1503;-0.04339017;0.0;-0.0026100182;1000.5612;  4.0000001E-01;464.87558;3;-17.717194;0.0;-1.4310607;0;-0.25137454;  1.0012159E+04;  0.0000000E+00; -1.3208143E-08;  1.0000000E+04;  0.0000000E+00;  9.9990703E+03;-0.27587605;0.0;0.024501516;476.33026
  2.9992449E-01;  9.9999998E-03; -1.0000273E-01;1504;-0.042904261;0.0;-0.0021330195;1000.5568;  4.0000001E-01;461.3201;3;-17.680347;0.0;-1.2248065;0;-0.24948141;  1.0011953E+04;  0.0000000E+00;  9.3218713E-09;  1.0000000E+04;  0.0000000E+00;  9.9991855E+03;-0.27282956;0.0;0.023348151;419.66336
  2.9992548E-01;  9.9999998E-03; -8.0002047E-02;1505;-0.04245127;0.0;-0.0016760573;1000.5528;  4.0000001E-01;457.96219;3;-17.627539;0.0;-0.99441963;0;-0.2478202;  1.0011777E+04;  0.0000000E+00;  2.2141423E-08;  1.0000000E+04;  0.0000000E+00;  9.9992832E+03;-0.27020225;0.0;0.022382051;371.71628
  2.9992628E-01;  9.9999998E-03; -6.0001455E-02;1506;-0.042066514;0.0;-0.001238964;1000.5494;  4.0000001E-01;455.19684;3;-17.571316;0.0;-0.75609785;0;-0.24649709;  1.0011632E+04;  0.0000000E+00;  2.4040929E-08;  1.0000000E+04;  0.0000000E+00;  9.9993633E+03;-0.26807469;0.0;0.0215776;332.85706
  2.9992691E-01;  9.9999998E-03; -4.0000930E-02;1507;-0.041775443;0.0;-0.00081707281;1000.5471;  4.0000001E-01;453.32034;3;-17.52342;0.0;-0.50916225;0;-0.24554977;  1.0011526E+04;  0.0000000E+00;  1.3376033E-08;  1.0000000E+04;  0.0000000E+00;  9.9994189E+03;-0.26651099;0.0;0.020961227;304.09238
  2.9992726E-01;  9.9999998E-03; -2.0000454E-02;1508;-0.041594539;0.0;-0.00040600877;1000.5459;  4.0000001E-01;452.23395;3;-17.491688;0.0;-0.25588888;0;-0.24498416;  1.0011466E+04;  0.0000000E+00;  4.4146597E-09;  1.0000000E+04;  0.0000000E+00;  9.9994551E+03;-0.26555544;0.0;0.020571278;286.39328
  3.1990713E-01;  9.9999998E-03; -1.8000828E-01;1531;-0.050685216;0.0;-0.0052212644;1000.6472;  4.0000001E-01;536.18219;3;-19.393745;0.0;-2.4609027;0;-0.28058428;  1.0014722E+04;  0.0000000E+00;  5.5912346E-07;  1.0000000E+04;  0.0000000E+00;  9.9982334E+03;-0.31788862;0.0;0.037304334;885.422
  3.1990826E-01;  9.9999998E-03; -1.6000679E-01;1532;-0.050326645;0.0;-0.0045242761;1000.6453;  4.0000001E-01;534.60199;3;-19.515638;0.0;-2.235517;0;-0.27989918;  1.0014446E+04;  0.0000000E+00; -6.6342892E-08;  1.0000000E+04;  0.0000000E+00;  9.9984688E+03;-0.31416294;0.0;0.034263764;770.06366
  3.1990960E-01;  9.9999998E-03; -1.4000551E-01;1533;-0.049837884;0.0;-0.0038750605;1000.6418;  4.0000001E-01;531.73785;3;-19.580013;0.0;-2.0045271;0;-0.27858818;  1.0014168E+04;  0.0000000E+00; -4.1066830E-08;  1.0000000E+04;  0.0000000E+00;  9.9986748E+03;-0.31049606;0.0;0.031907871;670.2962
  3.1991097E-01;  9.9999998E-03; -1.2000438E-01;1534;-0.049286664;0.0;-0.0032599822;1000.6371;  4.0000001E-01;527.88611;3;-19.591572;0.0;-1.7636405;0;-0.27690443;  1.0013903E+04;  0.0000000E+00; -1.1902604E-09;  1.0000000E+04;  0.0000000E+00;  9.9988486E+03;-0.30702472;0.0;0.030120296;586.15289
  3.1991228E-01;  9.9999998E-03; -1.0000339E-01;1535;-0.048731878;0.0;-0.002668988;1000.6325;  4.0000001E-01;524.03436;3;-19.566063;0.0;-1.5137912;0;-0.27520198;  1.0013663E+04;  0.0000000E+00;  3.6814274E-08;  1.0000000E+04;  0.0000000E+00;  9.9989932E+03;-0.30387491;0.0;0.028672935;514.16931
  3.1991348E-01;  9.9999998E-03; -8.0002539E-02;1536;-0.048221327;0.0;-0.0020999881;1000.6285;  4.0000001E-01;520.77521;3;-19.523739;0.0;-1.2354679;0;-0.27370495;  1.0013457E+04;  0.0000000E+00;  4.9391822E-08;  1.0000000E+04;  0.0000000E+00;  9.9991172E+03;-0.30115873;0.0;0.027453788;453.36487
  3.1991443E-01;  9.9999998E-03; -6.0001802E-02;1537;-0.047790319;0.0;-0.0015543652;1000.6251;  4.0000001E-01;517.91107;3;-19.475576;0.0;-0.94358575;0;-0.2725175;  1.0013292E+04;  0.0000000E+00;  4.4830323E-08;  1.0000000E+04;  0.0000000E+00;  9.9992168E+03;-0.2989648;0.0;0.026447309;404.3761
  3.1991515E-01;  9.9999998E-03; -4.0001154E-02;1538;-0.047465414;0.0;-0.0010260475;1000.6227;  4.0000001E-01;515.8371;3;-19.433256;0.0;-0.63747168;0;-0.27167249;  1.0013173E+04;  0.0000000E+00;  2.4999482E-08;  1.0000000E+04;  0.0000000E+00;  9.9992891E+03;-0.29735661;0.0;0.025684126;368.33185
  3.1991559E-01;  9.9999998E-03; -2.0000562E-02;1539;-0.047263939;0.0;-0.00051008351;1000.6215;  4.0000001E-01;514.84943;3;-19.404772;0.0;-0.32083347;0;-0.27117127;  1.0013101E+04;  0.0000000E+00;  7.8147533E-09;  1.0000000E+04;  0.0000000E+00;  9.9993340E+03;-0.29637635;0.0;0.025205089;346.25488
  3.3989194E-01;  9.9999998E-03; -1.8001014E-01;1562;-0.057492331;0.0;-0.0063415566;1000.7334;  4.0000001E-01;607.58746;3;-21.319441;0.0;-2.921047;0;-0.3078258;  1.0016800E+04;  0.0000000E+00;  3.5658866E-07;  1.0000000E+04;  0.0000000E+00;  9.9978750E+03;-0.35153934;0.0;0.043713529;1061.0249
  3.3989340E-01;  9.9999998E-03; -1.6000830E-01;1563;-0.057045866;0.0;-0.0054954295;1000.7315;  4.0000001E-01;606.00726;3;-21.467791;0.0;-2.6561539;0;-0.30733347;  1.0016487E+04;  0.0000000E+00; -8.8491646E-08;  1.0000000E+04;  0.0000000E+00;  9.9981504E+03;-0.34798861;0.0;0.04065514;928.15192
  3.3989507E-01;  9.9999998E-03; -1.4000671E-01;1564;-0.056470551;0.0;-0.0047082342;1000.7277;  4.0000001E-01;602.84686;3;-21.555923;0.0;-2.392266;0;-0.30621088;  1.0016169E+04;  0.0000000E+00; -3.1125403E-08;  1.0000000E+04;  0.0000000E+00;  9.9983926E+03;-0.34436193;0.0;0.038151059;809.7951
  3.3989674E-01;  9.9999998E-03; -1.2000531E-01;1565;-0.055840377;0.0;-0.0039618784;1000.7231;  4.0000001E-01;599.09387;3;-21.589466;0.0;-2.1130967;0;-0.30473536;  1.0015863E+04;  0.0000000E+00;  3.0217617E-08;  1.0000000E+04;  0.0000000E+00;  9.9986016E+03;-0.34086025;0.0;0.03612487;707.52039
  3.3989835E-01;  9.9999998E-03; -1.0000411E-01;1566;-0.055216953;0.0;-0.0032458056;1000.718;  4.0000001E-01;594.84711;3;-21.586357;0.0;-1.8136543;0;-0.30324969;  1.0015585E+04;  0.0000000E+00;  8.2904272E-08;  1.0000000E+04;  0.0000000E+00;  9.9987822E+03;-0.33765647;0.0;0.034406781;619.02759
  3.3989975E-01;  9.9999998E-03; -8.0003068E-02;1567;-0.054648239;0.0;-0.0025578414;1000.7139;  4.0000001E-01;591.4892;3;-21.559401;0.0;-1.4943975;0;-0.30195922;  1.0015347E+04;  0.0000000E+00;  9.2773575E-08;  1.0000000E+04;  0.0000000E+00;  9.9989355E+03;-0.33488753;0.0;0.032928333;544.15063
  3.3990088E-01;  9.9999998E-03; -6.0002174E-02;1568;-0.054171722;0.0;-0.0018942223;1000.7103;  4.0000001E-01;588.52631;3;-21.526386;0.0;-1.1446857;0;-0.30095187;  1.0015153E+04;  0.0000000E+00;  7.2149298E-08;  1.0000000E+04;  0.0000000E+00;  9.9990547E+03;-0.33265269;0.0;0.031700812;483.99283
  3.3990175E-01;  9.9999998E-03; -4.0001389E-02;1569;-0.05381364;0.0;-0.0012510684;1000.7077;  4.0000001E-01;586.35352;3;-21.494825;0.0;-0.7763834;0;-0.30024636;  1.0015013E+04;  0.0000000E+00;  3.8251152E-08;  1.0000000E+04;  0.0000000E+00;  9.9991445E+03;-0.33101711;0.0;0.030770734;439.90384
  3.3990225E-01;  9.9999998E-03; -2.0000676E-02;1570;-0.053591974;0.0;-0.00062184816;1000.7064;  4.0000001E-01;585.1684;3;-21.473106;0.0;-0.39216423;0;-0.29983273;  1.0014928E+04;  0.0000000E+00;  1.2408817E-08;  1.0000000E+04;  0.0000000E+00;  9.9992021E+03;-0.33002111;0.0;0.030188395;412.98999
  3.5987458E-01;  9.9999998E-03; -1.8001212E-01;1593;-0.06501092;0.0;-0.0074914489;1000.8311;  4.0000001E-01;688.57275;3;-23.337782;0.0;-3.3410199;0;-0.337672;  1.0019137E+04;  0.0000000E+00;  1.9348865E-07;  1.0000000E+04;  0.0000000E+00;  9.9974961E+03;-0.3877984;0.0;0.050126418;1248.8835
  3.5987642E-01;  9.9999998E-03; -1.6000991E-01;1594;-0.064478286;0.0;-0.0065113446;1000.8287;  4.0000001E-01;686.49872;3;-23.519026;0.0;-3.0731225;0;-0.33728704;  1.0018777E+04;  0.0000000E+00; -8.8564050E-08;  1.0000000E+04;  0.0000000E+00;  9.9978076E+03;-0.38447547;0.0;0.047188424;1098.2444
  3.5987848E-01;  9.9999998E-03; -1.4000797E-01;1595;-0.063818417;0.0;-0.0055838386;1000.8245;  4.0000001E-01;683.14081;3;-23.645071;0.0;-2.7819445;0;-0.33629408;  1.0018407E+04;  0.0000000E+00; -6.6662493E-09;  1.0000000E+04;  0.0000000E+00;  9.9980869E+03;-0.38093704;0.0;0.044642955;960.92493
  3.5988051E-01;  9.9999998E-03; -1.2000630E-01;1596;-0.06311015;0.0;-0.0046987291;1000.819;  4.0000001E-01;678.59772;3;-23.712034;0.0;-2.4750392;0;-0.33500549;  1.0018054E+04;  0.0000000E+00;  5.8143751E-08;  1.0000000E+04;  0.0000000E+00;  9.9983350E+03;-0.3774462;0.0;0.04244072;839.98688
  3.5988241E-01;  9.9999998E-03; -1.0000486E-01;1597;-0.062418643;0.0;-0.0038494025;1000.8137;  4.0000001E-01;674.05463;3;-23.739578;0.0;-2.1273382;0;-0.33374816;  1.0017732E+04;  0.0000000E+00;  1.2045332E-07;  1.0000000E+04;  0.0000000E+00;  9.9985479E+03;-0.37422043;0.0;0.040472258;734.3288
  3.5988405E-01;  9.9999998E-03; -8.0003627E-02;1598;-0.061793879;0.0;-0.0030353211;1000.8091;  4.0000001E-01;670.40045;3;-23.739136;0.0;-1.7637812;0;-0.33269647;  1.0017457E+04;  0.0000000E+00;  1.3288295E-07;  1.0000000E+04;  0.0000000E+00;  9.9987324E+03;-0.37142208;0.0;0.038725618;644.72144
  3.5988542E-01;  9.9999998E-03; -6.0002562E-02;1599;-0.061273538;0.0;-0.002247653;1000.8054;  4.0000001E-01;667.24005;3;-23.729864;0.0;-1.3554924;0;-0.33190644;  1.0017235E+04;  0.0000000E+00;  1.0222007E-07;  1.0000000E+04;  0.0000000E+00;  9.9988779E+03;-0.36916122;0.0;0.037254769;572.8446
  3.5988641E-01;  9.9999998E-03; -4.0001631E-02;1600;-0.060883556;0.0;-0.001484495;1000.8027;  4.0000001E-01;665.06726;3;-23.716127;0.0;-0.92150038;0;-0.33137146;  1.0017074E+04;  0.0000000E+00;  4.9471513E-08;  1.0000000E+04;  0.0000000E+00;  9.9989883E+03;-0.36750621;0.0;0.036134746;520.32227
  3.5988700E-01;  9.9999998E-03; -2.0000793E-02;1601;-0.060642458;0.0;-0.0007377927;1000.8011;  4.0000001E-01;663.68457;3;-23.705507;0.0;-0.46609429;0;-0.3310664;  1.0016977E+04;  0.0000000E+00;  1.5823504E-08;  1.0000000E+04;  0.0000000E+00;  9.9990518E+03;-0.36649922;0.0;0.035432804;488.34836
  3.7985480E-01;  9.9999998E-03; -1.8001422E-01;1624;-0.073290698;0.0;-0.0086682392;1000.9417;  4.0000001E-01;780.12549;3;-25.443199;0.0;-3.7388654;0;-0.37019423;  1.0021747E+04;  0.0000000E+00;  1.7457239E-08;  1.0000000E+04;  0.0000000E+00;  9.9970977E+03;-0.42684346;0.0;0.05664923;1449.954
  3.7985709E-01;  9.9999998E-03; -1.6001160E-01;1625;-0.072677337;0.0;-0.0075522712;1000.9383;  4.0000001E-01;777.36017;3;-25.668987;0.0;-3.4700968;0;-0.36982819;  1.0021334E+04;  0.0000000E+00; -7.8095290E-08;  1.0000000E+04;  0.0000000E+00;  9.9974443E+03;-0.42373079;0.0;0.053902593;1280.3812
  3.7985957E-01;  9.9999998E-03; -1.4000933E-01;1626;-0.071937248;0.0;-0.0064814161;1000.933;  4.0000001E-01;773.01459;3;-25.843451;0.0;-3.1634736;0;-0.3689025;  1.0020908E+04;  0.0000000E+00; -1.0787335E-08;  1.0000000E+04;  0.0000000E+00;  9.9977627E+03;-0.42028221;0.0;0.05137971;1123.6981
  3.7986201E-01;  9.9999998E-03; -1.2000734E-01;1627;-0.071154565;0.0;-0.0054526534;1000.9266;  4.0000001E-01;767.6814;3;-25.960209;0.0;-2.8389542;0;-0.36777046;  1.0020498E+04;  0.0000000E+00;  3.7844476E-08;  1.0000000E+04;  0.0000000E+00;  9.9980469E+03;-0.4168112;0.0;0.049040738;984.15112
  3.7986425E-01;  9.9999998E-03; -1.0000565E-01;1628;-0.070397928;0.0;-0.0044615506;1000.9206;  4.0000001E-01;762.64453;3;-26.032253;0.0;-2.4544315;0;-0.36674103;  1.0020124E+04;  0.0000000E+00;  1.0740103E-07;  1.0000000E+04;  0.0000000E+00;  9.9982959E+03;-0.41357106;0.0;0.046830021;861.51147
  3.7986621E-01;  9.9999998E-03; -8.0004208E-02;1629;-0.069718838;0.0;-0.0035134067;1000.9153;  4.0000001E-01;758.29895;3;-26.06959;0.0;-2.0273731;0;-0.36594573;  1.0019806E+04;  0.0000000E+00;  1.4322804E-07;  1.0000000E+04;  0.0000000E+00;  9.9985088E+03;-0.41074479;0.0;0.044799067;757.36609
  3.7986779E-01;  9.9999998E-03; -6.0002971E-02;1630;-0.069156796;0.0;-0.0026022908;1000.9109;  4.0000001E-01;754.74353;3;-26.091337;0.0;-1.5621482;0;-0.36539721;  1.0019553E+04;  0.0000000E+00;  1.0486322E-07;  1.0000000E+04;  0.0000000E+00;  9.9986748E+03;-0.40845487;0.0;0.043057658;673.96106
  3.7986895E-01;  9.9999998E-03; -4.0001892E-02;1631;-0.068737023;0.0;-0.0017189921;1000.908;  4.0000001E-01;752.27448;3;-26.104589;0.0;-1.0660422;0;-0.36505455;  1.0019365E+04;  0.0000000E+00;  5.6840793E-08;  1.0000000E+04;  0.0000000E+00;  9.9988018E+03;-0.40677565;0.0;0.04172112;613.18286
  3.7986967E-01;  9.9999998E-03; -2.0000920E-02;1632;-0.068477355;0.0;-0.00085411884;1000.9061;  4.0000001E-01;750.69427;3;-26.109949;0.0;-0.54017884;0;-0.3648712;  1.0019250E+04;  0.0000000E+00;  1.6701655E-08;  1.0000000E+04;  0.0000000E+00;  9.9988760E+03;-0.40575245;0.0;0.040881261;576.2774
  3.9983231E-01;  9.9999998E-03; -1.8001647E-01;1655;-0.082382992;0.0;-0.0098662823;1001.0663;  4.0000001E-01;883.43091;3;-27.625731;0.0;-4.0979624;0;-0.40538174;  1.0024668E+04;  0.0000000E+00; -1.7261635E-07;  1.0000000E+04;  0.0000000E+00;  9.9966719E+03;-0.46877766;0.0;0.063395925;1664.6052
  3.9983511E-01;  9.9999998E-03; -1.6001344E-01;1656;-0.081695169;0.0;-0.0086061107;1001.0613;  4.0000001E-01;879.2829;3;-27.909363;0.0;-3.832895;0;-0.40494278;  1.0024183E+04;  0.0000000E+00; -7.7828410E-08;  1.0000000E+04;  0.0000000E+00;  9.9970576E+03;-0.46580487;0.0;0.06086209;1474.7511
  3.9983809E-01;  9.9999998E-03; -1.4001077E-01;1657;-0.080879867;0.0;-0.0073826066;1001.0544;  4.0000001E-01;873.55469;3;-28.148275;0.0;-3.5285318;0;-0.40401477;  1.0023689E+04;  0.0000000E+00; -1.0287629E-07;  1.0000000E+04;  0.0000000E+00;  9.9974131E+03;-0.46240932;0.0;0.058394566;1299.0331
  3.9984098E-01;  9.9999998E-03; -1.2000847E-01;1658;-0.080026992;0.0;-0.0062016845;1001.0466;  4.0000001E-01;867.03638;3;-28.326168;0.0;-3.1690185;0;-0.40299165;  1.0023212E+04;  0.0000000E+00; -1.3307702E-07;  1.0000000E+04;  0.0000000E+00;  9.9977314E+03;-0.45893425;0.0;0.055942591;1142.2048
  3.9984366E-01;  9.9999998E-03; -1.0000651E-01;1659;-0.079209246;0.0;-0.0050682849;1001.0389;  4.0000001E-01;860.71558;3;-28.459234;0.0;-2.7534063;0;-0.40216553;  1.0022779E+04;  0.0000000E+00; -3.2959168E-08;  1.0000000E+04;  0.0000000E+00;  9.9980107E+03;-0.45565802;0.0;0.053492501;1004.1884
  3.9984596E-01;  9.9999998E-03; -8.0004849E-02;1660;-0.07848005;0.0;-0.0039851293;1001.0326;  4.0000001E-01;855.48114;3;-28.554333;0.0;-2.2820539;0;-0.40162048;  1.0022412E+04;  0.0000000E+00;  4.9351584E-08;  1.0000000E+04;  0.0000000E+00;  9.9982490E+03;-0.4527809;0.0;0.051160429;887.00684
  3.9984781E-01;  9.9999998E-03; -6.0003426E-02;1661;-0.077877142;0.0;-0.0029474529;1001.0274;  4.0000001E-01;851.13556;3;-28.616066;0.0;-1.7596165;0;-0.40131569;  1.0022116E+04;  0.0000000E+00;  5.2050336E-08;  1.0000000E+04;  0.0000000E+00;  9.9984414E+03;-0.45043701;0.0;0.049121309;793.32642
  3.9984918E-01;  9.9999998E-03; -4.0002182E-02;1662;-0.07742884;0.0;-0.0019454336;1001.0236;  4.0000001E-01;847.97516;3;-28.662445;0.0;-1.1944561;0;-0.40117097;  1.0021905E+04;  0.0000000E+00;  2.5677130E-08;  1.0000000E+04;  0.0000000E+00;  9.9985811E+03;-0.44871226;0.0;0.047541302;725.23859
  3.9985001E-01;  9.9999998E-03; -2.0001061E-02;1663;-0.077152289;0.0;-0.00096796575;1001.0215;  4.0000001E-01;846.2962;3;-28.691721;0.0;-0.6100682;0;-0.40111366;  1.0021773E+04;  0.0000000E+00;  1.0427670E-08;  1.0000000E+04;  0.0000000E+00;  9.9986641E+03;-0.44765839;0.0;0.046544723;683.99664
  4.1980684E-01;  9.9999998E-03; -1.8001893E-01;1686;-0.092341915;0.0;-0.011087962;1001.2059;  4.0000001E-01;999.08154;3;-29.877518;0.0;-4.4076824;0;-0.44316435;  1.0027913E+04;  0.0000000E+00; -2.5177340E-07;  1.0000000E+04;  0.0000000E+00;  9.9962197E+03;-0.51358712;0.0;0.070422783;1892.0203
  4.1981024E-01;  9.9999998E-03; -1.6001545E-01;1687;-0.091585197;0.0;-0.0096682403;1001.1984;  4.0000001E-01;992.85956;3;-30.235146;0.0;-4.1592145;0;-0.44253632;  1.0027337E+04;  0.0000000E+00; -1.0665568E-07;  1.0000000E+04;  0.0000000E+00;  9.9966484E+03;-0.51064807;0.0;0.068111755;1681.7188
  4.1981378E-01;  9.9999998E-03; -1.4001240E-01;1688;-0.090697631;0.0;-0.0082813604;1001.189;  4.0000001E-01;985.05731;3;-30.547899;0.0;-3.8387811;0;-0.44150198;  1.0026762E+04;  0.0000000E+00; -3.7644094E-07;  1.0000000E+04;  0.0000000E+00;  9.9970342E+03;-0.50723886;0.0;0.065736897;1489.2983
  4.1981724E-01;  9.9999998E-03; -1.2000977E-01;1689;-0.089779057;0.0;-0.0069446769;1001.1786;  4.0000001E-01;976.46497;3;-30.807903;0.0;-3.4570522;0;-0.44050044;  1.0026209E+04;  0.0000000E+00; -5.0577211E-07;  1.0000000E+04;  0.0000000E+00;  9.9973809E+03;-0.50371104;0.0;0.063210599;1318.8318
  4.1982037E-01;  9.9999998E-03; -1.0000751E-01;1690;-0.088903487;0.0;-0.0056657204;1001.1689;  4.0000001E-01;968.46521;3;-31.018055;0.0;-3.0140245;0;-0.43981144;  1.0025714E+04;  0.0000000E+00; -3.5295116E-07;  1.0000000E+04;  0.0000000E+00;  9.9976836E+03;-0.50035369;0.0;0.060542248;1169.233
  4.1982308E-01;  9.9999998E-03; -8.0005608E-02;1691;-0.088125579;0.0;-0.0044477764;1001.1608;  4.0000001E-01;961.65057;3;-31.184853;0.0;-2.5041041;0;-0.43947077;  1.0025290E+04;  0.0000000E+00; -1.6462428E-07;  1.0000000E+04;  0.0000000E+00;  9.9979404E+03;-0.49737948;0.0;0.057908699;1042.3447
  4.1982526E-01;  9.9999998E-03; -6.0003974E-02;1692;-0.087483965;0.0;-0.003285083;1001.1544;  4.0000001E-01;956.31738;3;-31.303736;0.0;-1.9346344;0;-0.4393824;  1.0024953E+04;  0.0000000E+00; -7.6628005E-08;  1.0000000E+04;  0.0000000E+00;  9.9981465E+03;-0.49493888;0.0;0.055556469;941.02289
  4.1982684E-01;  9.9999998E-03; -4.0002540E-02;1693;-0.087007761;0.0;-0.0021658293;1001.1497;  4.0000001E-01;952.4657;3;-31.394817;0.0;-1.3128518;0;-0.43941861;  1.0024707E+04;  0.0000000E+00; -3.0752012E-08;  1.0000000E+04;  0.0000000E+00;  9.9982949E+03;-0.49313146;0.0;0.05371286;867.5155
  4.1982779E-01;  9.9999998E-03; -2.0001238E-02;1694;-0.086713776;0.0;-0.0010759847;1001.1467;  4.0000001E-01;949.99658;3;-31.450155;0.0;-0.66361582;0;-0.43947846;  1.0024562E+04;  0.0000000E+00; -9.2746788E-09;  1.0000000E+04;  0.0000000E+00;  9.9983896E+03;-0.49202231;0.0;0.052543856;823.07782
  4.3977803E-01;  9.9999998E-03; -1.8002172E-01;1717;-0.10322608;0.0;-0.012341451;1001.3602;  4.0000001E-01;1126.8799;3;-32.189278;0.0;-4.6530099;0;-0.48332331;  1.0031486E+04;  0.0000000E+00; -6.5487619E-08;  1.0000000E+04;  0.0000000E+00;  9.9957520E+03;-0.56102532;0.0;0.077702008;2130.8352
  4.3978214E-01;  9.9999998E-03; -1.6001780E-01;1718;-0.10240182;0.0;-0.010748644;1001.3494;  4.0000001E-01;1117.9912;3;-32.634609;0.0;-4.4086876;0;-0.48232996;  1.0030809E+04;  0.0000000E+00; -1.2159629E-07;  1.0000000E+04;  0.0000000E+00;  9.9962090E+03;-0.55799258;0.0;0.075662628;1902.8308
  4.3978640E-01;  9.9999998E-03; -1.4001437E-01;1719;-0.10144393;0.0;-0.0091908714;1001.3362;  4.0000001E-01;1107.0286;3;-33.039894;0.0;-4.0799298;0;-0.4810206;  1.0030132E+04;  0.0000000E+00; -7.5073581E-07;  1.0000000E+04;  0.0000000E+00;  9.9966172E+03;-0.55449325;0.0;0.073472641;1699.5636
  4.3979049E-01;  9.9999998E-03; -1.2001137E-01;1720;-0.10046002;0.0;-0.0076926867;1001.3225;  4.0000001E-01;1095.6709;3;-33.398098;0.0;-3.6802082;0;-0.47988647;  1.0029499E+04;  0.0000000E+00; -1.0286102E-06;  1.0000000E+04;  0.0000000E+00;  9.9969756E+03;-0.55085588;0.0;0.070969395;1522.5383
  4.3979418E-01;  9.9999998E-03; -1.0000881E-01;1721;-0.099527299;0.0;-0.0062648444;1001.3098;  4.0000001E-01;1085.1033;3;-33.703587;0.0;-3.2163823;0;-0.47920823;  1.0028929E+04;  0.0000000E+00; -7.9079030E-07;  1.0000000E+04;  0.0000000E+00;  9.9972871E+03;-0.54736382;0.0;0.068155572;1368.052
  4.3979731E-01;  9.9999998E-03; -8.0006614E-02;1722;-0.098701522;0.0;-0.0049108015;1001.2993;  4.0000001E-01;1076.4122;3;-33.958317;0.0;-2.6758525;0;-0.4789784;  1.0028448E+04;  0.0000000E+00; -4.5101976E-07;  1.0000000E+04;  0.0000000E+00;  9.9975566E+03;-0.54423857;0.0;0.065260187;1237.0013
  4.3979985E-01;  9.9999998E-03; -6.0004715E-02;1723;-0.098021425;0.0;-0.0036230963;1001.291;  4.0000001E-01;1069.4989;3;-34.150352;0.0;-2.0710845;0;-0.47903988;  1.0028066E+04;  0.0000000E+00; -2.2982830E-07;  1.0000000E+04;  0.0000000E+00;  9.9977715E+03;-0.5416469;0.0;0.062607013;1132.2319
  4.3980169E-01;  9.9999998E-03; -4.0003031E-02;1724;-0.097516745;0.0;-0.0023864429;1001.2849;  4.0000001E-01;1064.4619;3;-34.297222;0.0;-1.4071461;0;-0.47921398;  1.0027791E+04;  0.0000000E+00; -1.0677103E-07;  1.0000000E+04;  0.0000000E+00;  9.9979248E+03;-0.53971052;0.0;0.06049655;1056.1991
  4.3980280E-01;  9.9999998E-03; -2.0001482E-02;1725;-0.097205319;0.0;-0.0011847047;1001.2811;  4.0000001E-01;1061.3015;3;-34.387352;0.0;-0.70823503;0;-0.47936666;  1.0027622E+04;  0.0000000E+00; -2.6348129E-08;  1.0000000E+04;  0.0000000E+00;  9.9980195E+03;-0.53851467;0.0;0.059148025;1010.261
  4.5974553E-01;  9.9999998E-03; -1.8002509E-01;1748;-0.1151;0.0;-0.013653313;1001.5305;  4.0000072E-01;1268.0106;3;-34.55172;0.0;-4.812448;0;-0.52518427;  1.0035352E+04;  0.0000000E+00;  1.2940554E-06;  1.0000000E+04;  0.0000000E+00;  9.9952549E+03;-0.61033362;0.0;0.085149355;2381.4233
  4.5975047E-01;  9.9999998E-03; -1.6002074E-01;1749;-0.11420596;0.0;-0.011885217;1001.5143;  4.0000069E-01;1254.579;3;-35.097195;0.0;-4.5654063;0;-0.5235579;  1.0034550E+04;  0.0000000E+00;  4.0141398E-07;  1.0000000E+04;  0.0000000E+00;  9.9957344E+03;-0.607077;0.0;0.083519079;2142.9731
  4.5975554E-01;  9.9999998E-03; -1.4001691E-01;1750;-0.11317494;0.0;-0.010152263;1001.4957;  4.0000078E-01;1239.172;3;-35.613117;0.0;-4.2328067;0;-0.5217157;  1.0033771E+04;  0.0000000E+00; -8.3840030E-07;  1.0000000E+04;  0.0000000E+00;  9.9961445E+03;-0.60342652;0.0;0.081710838;1939.4924
  4.5976037E-01;  9.9999998E-03; -1.2001354E-01;1751;-0.11212293;0.0;-0.0084844064;1001.4772;  4.0000078E-01;1223.7651;3;-36.086246;0.0;-3.8173757;0;-0.52021593;  1.0033050E+04;  0.0000000E+00; -1.3900419E-06;  1.0000000E+04;  0.0000000E+00;  9.9964893E+03;-0.59964508;0.0;0.079429127;1767.1923
  4.5976469E-01;  9.9999998E-03; -1.0001060E-01;1752;-0.11113106;0.0;-0.0068992367;1001.4605;  4.0000069E-01;1210.0371;3;-36.505096;0.0;-3.3373933;0;-0.51935756;  1.0032411E+04;  0.0000000E+00; -1.1208382E-06;  1.0000000E+04;  0.0000000E+00;  9.9967920E+03;-0.59598464;0.0;0.076627068;1617.7268
  4.5976838E-01;  9.9999998E-03; -8.0008052E-02;1753;-0.11025566;0.0;-0.0054012132;1001.4465;  4.0000066E-01;1198.3832;3;-36.864704;0.0;-2.7785439;0;-0.51909393;  1.0031870E+04;  0.0000000E+00; -6.6867142E-07;  1.0000000E+04;  0.0000000E+00;  9.9970547E+03;-0.59266645;0.0;0.073572516;1490.2903
  4.5977131E-01;  9.9999998E-03; -6.0005795E-02;1754;-0.10953543;0.0;-0.003980191;1001.4357;  4.0000063E-01;1189.4945;3;-37.151386;0.0;-2.1410563;0;-0.51920247;  1.0031443E+04;  0.0000000E+00; -3.4405753E-07;  1.0000000E+04;  0.0000000E+00;  9.9972598E+03;-0.58987665;0.0;0.070674174;1387.7108
  4.5977345E-01;  9.9999998E-03; -4.0003750E-02;1755;-0.10899898;0.0;-0.0026220735;1001.4278;  4.0000063E-01;1182.8774;3;-37.360172;0.0;-1.4631536;0;-0.51944572;  1.0031136E+04;  0.0000000E+00; -1.5228603E-07;  1.0000000E+04;  0.0000000E+00;  9.9974160E+03;-0.58776695;0.0;0.068321213;1312.9109
  4.5977473E-01;  9.9999998E-03; -2.0001844E-02;1756;-0.10866847;0.0;-0.0013012507;1001.4233;  4.0000069E-01;1179.1245;3;-37.492378;0.0;-0.73359221;0;-0.51965237;  1.0030948E+04;  0.0000000E+00; -4.0688754E-08;  1.0000000E+04;  0.0000000E+00;  9.9975088E+03;-0.58645308;0.0;0.066800728;1267.6147
  4.7970888E-01;  9.9999998E-03; -1.8002942E-01;1779;-0.12803186;0.0;-0.015085971;1001.7096;  4.0000212E-01;1416.3507;3;-36.954105;0.0;-4.8589039;0;-0.56704736;  1.0039405E+04;  0.0000000E+00;  6.0390075E-06;  1.0000000E+04;  0.0000000E+00;  9.9947275E+03;-0.65975845;0.0;0.092711091;2649.9094
  4.7971484E-01;  9.9999998E-03; -1.6002472E-01;1780;-0.12706281;0.0;-0.013157421;1001.6867;  4.0000218E-01;1397.3883;3;-37.614204;0.0;-4.6116495;0;-0.56442928;  1.0038470E+04;  0.0000000E+00;  3.1648467E-06;  1.0000000E+04;  0.0000000E+00;  9.9952021E+03;-0.65617192;0.0;0.091742605;2413.3484
  4.7972086E-01;  9.9999998E-03; -1.4002046E-01;1781;-0.12595274;0.0;-0.011246865;1001.6616;  4.0000209E-01;1376.5496;3;-38.256294;0.0;-4.2755718;0;-0.56170976;  1.0037588E+04;  0.0000000E+00;  6.3097855E-07;  1.0000000E+04;  0.0000000E+00;  9.9955762E+03;-0.65235382;0.0;0.090644054;2225.2778
  4.7972652E-01;  9.9999998E-03; -1.2001663E-01;1782;-0.12482633;0.0;-0.0093960762;1001.6364;  4.0000212E-01;1355.7107;3;-38.856602;0.0;-3.8590591;0;-0.55953878;  1.0036783E+04;  0.0000000E+00; -8.2770663E-07;  1.0000000E+04;  0.0000000E+00;  9.9958809E+03;-0.64844602;0.0;0.088907242;2073.0591
  4.7973159E-01;  9.9999998E-03; -1.0001321E-01;1783;-0.12377058;0.0;-0.0076306751;1001.6144;  4.0000218E-01;1337.5383;3;-39.410332;0.0;-3.3564754;0;-0.55825531;  1.0036079E+04;  0.0000000E+00; -9.5573500E-07;  1.0000000E+04;  0.0000000E+00;  9.9961436E+03;-0.64463341;0.0;0.086378105;1941.3717
  4.7973585E-01;  9.9999998E-03; -8.0010161E-02;1784;-0.12283973;0.0;-0.0059679239;1001.5965;  4.0000200E-01;1322.6252;3;-39.891335;0.0;-2.7923374;0;-0.55777466;  1.0035485E+04;  0.0000000E+00; -6.1889733E-07;  1.0000000E+04;  0.0000000E+00;  9.9963750E+03;-0.64112157;0.0;0.083346933;1827.0828
  4.7973925E-01;  9.9999998E-03; -6.0007401E-02;1785;-0.12207419;0.0;-0.004395897;1001.5826;  4.0000215E-01;1311.1688;3;-40.285442;0.0;-2.1526015;0;-0.55779994;  1.0035016E+04;  0.0000000E+00; -3.2460630E-07;  1.0000000E+04;  0.0000000E+00;  9.9965684E+03;-0.6381169;0.0;0.080316953;1733.3152
  4.7974169E-01;  9.9999998E-03; -4.0004835E-02;1786;-0.1215023;0.0;-0.0028922642;1001.5728;  4.0000209E-01;1302.9716;3;-40.574532;0.0;-1.4526825;0;-0.55802643;  1.0034676E+04;  0.0000000E+00; -1.4416845E-07;  1.0000000E+04;  0.0000000E+00;  9.9967119E+03;-0.63581079;0.0;0.077784374;1664.0057
  4.7974321E-01;  9.9999998E-03; -2.0002389E-02;1787;-0.12114841;0.0;-0.0014370357;1001.5669;  4.0000203E-01;1298.1322;3;-40.75005;0.0;-0.73924065;0;-0.55823666;  1.0034469E+04;  0.0000000E+00; -4.1298161E-08;  1.0000000E+04;  0.0000000E+00;  9.9968008E+03;-0.63435847;0.0;0.076121829;1621.714
  4.9966773E-01;  9.9999998E-03; -1.8003537E-01;1810;-0.14208142;0.0;-0.016751161;1001.8871;  4.0000489E-01;1563.5052;3;-39.386337;0.0;-4.7667122;0;-0.60547841;  1.0043417E+04;  0.0000000E+00;  1.8480989E-05;  1.0000000E+04;  0.0000000E+00;  9.9941318E+03;-0.70598018;0.0;0.10050178;2953.7075
  4.9967483E-01;  9.9999998E-03; -1.6003032E-01;1811;-0.14103292;0.0;-0.014689657;1001.8553;  4.0000474E-01;1537.1357;3;-40.174442;0.0;-4.5272446;0;-0.60147762;  1.0042353E+04;  0.0000000E+00;  1.2011073E-05;  1.0000000E+04;  0.0000000E+00;  9.9945645E+03;-0.7020148;0.0;0.10053716;2734.6609
  4.9968192E-01;  9.9999998E-03; -1.4002559E-01;1812;-0.13983889;0.0;-0.012595317;1001.8217;  4.0000480E-01;1509.1859;3;-40.957844;0.0;-4.1880751;0;-0.59749949;  1.0041374E+04;  0.0000000E+00;  6.5965478E-06;  1.0000000E+04;  0.0000000E+00;  9.9948633E+03;-0.69808084;0.0;0.10058134;2580.825
  4.9968854E-01;  9.9999998E-03; -1.2002114E-01;1813;-0.13863234;0.0;-0.010532497;1001.7896;  4.0000474E-01;1482.6189;3;-41.70491;0.0;-3.7649281;0;-0.59431624;  1.0040500E+04;  0.0000000E+00;  2.3212287E-06;  1.0000000E+04;  0.0000000E+00;  9.9950869E+03;-0.69413775;0.0;0.099821486;2466.5586
  4.9969438E-01;  9.9999998E-03; -1.0001704E-01;1814;-0.1375026;0.0;-0.0085534835;1001.7614;  4.0000477E-01;1459.311;3;-42.399292;0.0;-3.2615299;0;-0.59233361;  1.0039740E+04;  0.0000000E+00;  4.2410747E-07;  1.0000000E+04;  0.0000000E+00;  9.9952881E+03;-0.69026178;0.0;0.097928144;2367.0173
  4.9969929E-01;  9.9999998E-03; -8.0013275E-02;1815;-0.13650845;0.0;-0.0066835741;1001.7386;  4.0000480E-01;1440.4474;3;-43.018822;0.0;-2.6898773;0;-0.59143108;  1.0039104E+04;  0.0000000E+00; -7.5714311E-08;  1.0000000E+04;  0.0000000E+00;  9.9954688E+03;-0.68662161;0.0;0.095190503;2276.218
  4.9970320E-01;  9.9999998E-03; -6.0009763E-02;1816;-0.13568814;0.0;-0.0049191988;1001.7218;  4.0000474E-01;1426.522;3;-43.529484;0.0;-2.070622;0;-0.59122807;  1.0038598E+04;  0.0000000E+00; -1.1604133E-07;  1.0000000E+04;  0.0000000E+00;  9.9956309E+03;-0.68344218;0.0;0.092214093;2198.1667
  4.9970603E-01;  9.9999998E-03; -4.0006429E-02;1817;-0.13507414;0.0;-0.0032353981;1001.7094;  4.0000486E-01;1416.2507;3;-43.91111;0.0;-1.4002178;0;-0.59133732;  1.0038231E+04;  0.0000000E+00; -6.8509763E-08;  1.0000000E+04;  0.0000000E+00;  9.9957559E+03;-0.68095624;0.0;0.089618944;2138.6248
  4.9970776E-01;  9.9999998E-03; -2.0003194E-02;1818;-0.1346934;0.0;-0.0016044045;1001.7026;  4.0000489E-01;1410.6212;3;-44.146938;0.0;-0.69731641;0;-0.59149253;  1.0038008E+04;  0.0000000E+00; -1.5541904E-08;  1.0000000E+04;  0.0000000E+00;  9.9958311E+03;-0.67937034;0.0;0.087877832;2101.646
  5.1962179E-01;  9.9999998E-03; -1.8004376E-01;1841;-0.15726954;0.0;-0.018811755;1002.0511;  4.0001333E-01;1699.3009;3;-41.839169;0.0;-4.5243349;0;-0.63473231;  1.0047017E+04;  0.0000000E+00;  4.2181036E-05;  1.0000000E+04;  0.0000000E+00;  9.9933818E+03;-0.74372411;0.0;0.10899182;3328.6831
  5.1963013E-01;  9.9999998E-03; -1.6003832E-01;1842;-0.15614265;0.0;-0.016637744;1002.0104;  4.0001345E-01;1665.5242;3;-42.762428;0.0;-4.2747598;0;-0.62909019;  1.0045833E+04;  0.0000000E+00;  3.1420976E-05;  1.0000000E+04;  0.0000000E+00;  9.9937490E+03;-0.73943406;0.0;0.11034387;3140.3906
  5.1963836E-01;  9.9999998E-03; -1.4003292E-01;1843;-0.15486859;0.0;-0.014346204;1001.9676;  4.0001342E-01;1630.0686;3;-43.706657;0.0;-3.9434476;0;-0.62355304;  1.0044779E+04;  0.0000000E+00;  2.1390411E-05;  1.0000000E+04;  0.0000000E+00;  9.9939404E+03;-0.73551625;0.0;0.11196318;3037.9216
  5.1964599E-01;  9.9999998E-03; -1.2002762E-01;1844;-0.15357828;0.0;-0.012029111;1001.9269;  4.0001333E-01;1596.3907;3;-44.613525;0.0;-3.5135531;0;-0.61905879;  1.0043855E+04;  0.0000000E+00;  1.1040878E-05;  1.0000000E+04;  0.0000000E+00;  9.9940479E+03;-0.73170763;0.0;0.11264884;2978.5208
  5.1965272E-01;  9.9999998E-03; -1.0002255E-01;1845;-0.15236686;0.0;-0.0097766537;1001.8922;  4.0001336E-01;1567.651;3;-45.463196;0.0;-3.016247;0;-0.61611688;  1.0043060E+04;  0.0000000E+00;  4.5411166E-06;  1.0000000E+04;  0.0000000E+00;  9.9941523E+03;-0.72793823;0.0;0.11182135;2924.8794
  5.1965833E-01;  9.9999998E-03; -8.0017738E-02;1846;-0.15129675;0.0;-0.0076383958;1001.8647;  4.0001333E-01;1544.9357;3;-46.223225;0.0;-2.4670591;0;-0.61458808;  1.0042393E+04;  0.0000000E+00;  1.5621620E-06;  1.0000000E+04;  0.0000000E+00;  9.9942715E+03;-0.7243188;0.0;0.10973071;2867.3533
  5.1966280E-01;  9.9999998E-03; -6.0013145E-02;1847;-0.15041035;0.0;-0.0056191604;1001.8441;  4.0001345E-01;1527.7511;3;-46.857323;0.0;-1.8820672;0;-0.61399972;  1.0041863E+04;  0.0000000E+00;  4.7281702E-07;  1.0000000E+04;  0.0000000E+00;  9.9943848E+03;-0.7210778;0.0;0.10707805;2811.3862
  5.1966602E-01;  9.9999998E-03; -4.0008705E-02;1848;-0.1497428;0.0;-0.0036958547;1001.8297;  4.0001342E-01;1515.8997;3;-47.334038;0.0;-1.2700933;0;-0.61388034;  1.0041480E+04;  0.0000000E+00;  1.1175873E-07;  1.0000000E+04;  0.0000000E+00;  9.9944805E+03;-0.71849096;0.0;0.10461064;2765.4465
  5.1966798E-01;  9.9999998E-03; -2.0004338E-02;1849;-0.14932641;0.0;-0.0018340311;1001.8215;  4.0001333E-01;1509.0851;3;-47.627571;0.0;-0.64346391;0;-0.61391258;  1.0041247E+04;  0.0000000E+00;  1.9782501E-08;  1.0000000E+04;  0.0000000E+00;  9.9945420E+03;-0.71681702;0.0;0.10290444;2735.8013
  5.3957123E-01;  9.9999998E-03; -1.8005553E-01;1872;-0.17350829;0.0;-0.021474695;1002.1885;  4.0003586E-01;1813.0715;3;-44.293819;0.0;-4.1283259;0;-0.64655459;  1.0049654E+04;  0.0000000E+00;  7.1795686E-05;  1.0000000E+04;  0.0000000E+00;  9.9923535E+03;-0.76576602;0.0;0.11921141;3836.4221
  5.3958082E-01;  9.9999998E-03; -1.6004947E-01;1873;-0.17232123;0.0;-0.019155731;1002.1406;  4.0003607E-01;1773.3693;3;-45.370144;0.0;-3.8700678;0;-0.63942486;  1.0048389E+04;  0.0000000E+00;  5.8611273E-05;  1.0000000E+04;  0.0000000E+00;  9.9926484E+03;-0.76138365;0.0;0.12195881;3680.6934
  5.3959024E-01;  9.9999998E-03; -1.4004311E-01;1874;-0.17098297;0.0;-0.016644198;1002.0898;  4.0003574E-01;1731.2966;3;-46.48188;0.0;-3.5178728;0;-0.63234091;  1.0047300E+04;  0.0000000E+00;  4.6660018E-05;  1.0000000E+04;  0.0000000E+00;  9.9927217E+03;-0.7577222;0.0;0.12538128;3636.4458
  5.3959894E-01;  9.9999998E-03; -1.2003659E-01;1875;-0.16961488;0.0;-0.014017367;1002.0414;  4.0003586E-01;1691.1993;3;-47.562378;0.0;-3.0705342;0;-0.62643051;  1.0046356E+04;  0.0000000E+00;  2.8331506E-05;  1.0000000E+04;  0.0000000E+00;  9.9926934E+03;-0.75430185;0.0;0.12787136;3641.8743
  5.3960657E-01;  9.9999998E-03; -1.0003014E-01;1876;-0.16831754;0.0;-0.011420316;1002.0004;  4.0003598E-01;1657.2252;3;-48.576607;0.0;-2.5740323;0;-0.62236506;  1.0045549E+04;  0.0000000E+00;  1.3687286E-05;  1.0000000E+04;  0.0000000E+00;  9.9926826E+03;-0.75089622;0.0;0.12853117;3643.9646
  5.3961295E-01;  9.9999998E-03; -8.0023862E-02;1877;-0.16716109;0.0;-0.0089332545;1001.9683;  4.0003601E-01;1630.6582;3;-49.48571;0.0;-2.0583699;0;-0.62003779;  1.0044872E+04;  0.0000000E+00;  5.4795987E-06;  1.0000000E+04;  0.0000000E+00;  9.9927148E+03;-0.74754077;0.0;0.12750298;3627.3145
  5.3961796E-01;  9.9999998E-03; -6.0017783E-02;1878;-0.16619512;0.0;-0.0065742224;1001.9448;  4.0003604E-01;1611.2021;3;-50.246017;0.0;-1.5368917;0;-0.61890715;  1.0044336E+04;  0.0000000E+00;  1.8602950E-06;  1.0000000E+04;  0.0000000E+00;  9.9927734E+03;-0.7444489;0.0;0.12554173;3598.5359
  5.3962165E-01;  9.9999998E-03; -4.0011816E-02;1879;-0.16546305;0.0;-0.0043230886;1001.9283;  4.0003604E-01;1597.573;3;-50.818893;0.0;-1.0196177;0;-0.61843061;  1.0043948E+04;  0.0000000E+00;  5.6520145E-07;  1.0000000E+04;  0.0000000E+00;  9.9928311E+03;-0.74192256;0.0;0.12349192;3569.3186
  5.3962386E-01;  9.9999998E-03; -2.0005899E-02;1880;-0.16500421;0.0;-0.0021440764;1001.9187;  4.0003595E-01;1589.5732;3;-51.174835;0.0;-0.50850737;0;-0.61825413;  1.0043710E+04;  0.0000000E+00;  1.2028349E-07;  1.0000000E+04;  0.0000000E+00;  9.9928760E+03;-0.7402615;0.0;0.12200739;3548.6887
  5.5951703E-01;  9.9999998E-03; -1.8007164E-01;1903;-0.19046339;0.0;-0.024950173;1002.3164;  4.0009671E-01;1919.0385;3;-46.686352;0.0;-3.5991256;0;-0.63048023;  1.0050633E+04;  0.0000000E+00;  8.6278313E-05;  1.0000000E+04;  0.0000000E+00;  9.9908594E+03;-0.76328105;0.0;0.13280083;4564.1934
  5.5952787E-01;  9.9999998E-03; -1.6006453E-01;1904;-0.18925862;0.0;-0.022433219;1002.2664;  4.0009686E-01;1877.6573;3;-47.942181;0.0;-3.2922368;0;-0.62271649;  1.0049365E+04;  0.0000000E+00;  7.2772666E-05;  1.0000000E+04;  0.0000000E+00;  9.9911201E+03;-0.75932759;0.0;0.13661112;4423.9663
  5.5953836E-01;  9.9999998E-03; -1.4005676E-01;1905;-0.18789929;0.0;-0.019603303;1002.2114;  4.0009680E-01;1832.1282;3;-49.237366;0.0;-2.8730216;0;-0.61471963;  1.0048287E+04;  0.0000000E+00;  7.1114242E-05;  1.0000000E+04;  0.0000000E+00;  9.9910986E+03;-0.75635362;0.0;0.14163399;4425.5977
  5.5954808E-01;  9.9999998E-03; -1.2004855E-01;1906;-0.18648589;0.0;-0.016601304;1002.158;  4.0009686E-01;1787.7842;3;-50.500523;0.0;-2.3972757;0;-0.60774171;  1.0047364E+04;  0.0000000E+00;  5.1400548E-05;  1.0000000E+04;  0.0000000E+00;  9.9909473E+03;-0.75372088;0.0;0.14597914;4491.397
  5.5955660E-01;  9.9999998E-03; -1.0004025E-01;1907;-0.18511392;0.0;-0.013579019;1002.1124;  4.0009686E-01;1750.0573;3;-51.682468;0.0;-1.9074107;0;-0.6026457;  1.0046582E+04;  0.0000000E+00;  2.8398494E-05;  1.0000000E+04;  0.0000000E+00;  9.9908135E+03;-0.75107324;0.0;0.14842756;4550.79
  5.5956376E-01;  9.9999998E-03; -8.0032028E-02;1908;-0.18386817;0.0;-0.010655628;1002.0767;  4.0009683E-01;1720.4287;3;-52.741638;0.0;-1.4449681;0;-0.5994519;  1.0045932E+04;  0.0000000E+00;  1.2518677E-05;  1.0000000E+04;  0.0000000E+00;  9.9907520E+03;-0.74836361;0.0;0.14891171;4578.6592
  5.5956942E-01;  9.9999998E-03; -6.0023930E-02;1909;-0.18281202;0.0;-0.007865387;1002.0505;  4.0009695E-01;1698.7999;3;-53.629261;0.0;-1.031004;0;-0.59763432;  1.0045413E+04;  0.0000000E+00;  4.5706024E-06;  1.0000000E+04;  0.0000000E+00;  9.9907461E+03;-0.74576479;0.0;0.14813046;4580.4561
  5.5957353E-01;  9.9999998E-03; -4.0015925E-02;1910;-0.18200427;0.0;-0.0051849512;1002.0327;  4.0009704E-01;1684.0844;3;-54.302834;0.0;-0.65006161;0;-0.59664375;  1.0045036E+04;  0.0000000E+00;  1.4394609E-06;  1.0000000E+04;  0.0000000E+00;  9.9907656E+03;-0.74357426;0.0;0.14693052;4570.4727
  5.5957603E-01;  9.9999998E-03; -2.0007955E-02;1911;-0.18149558;0.0;-0.0025737716;1002.0222;  4.0009695E-01;1675.3933;3;-54.717388;0.0;-0.31295362;0;-0.59614021;  1.0044805E+04;  0.0000000E+00;  3.0434910E-07;  1.0000000E+04;  0.0000000E+00;  9.9907920E+03;-0.74210417;0.0;0.14596397;4560.4111
  5.7946140E-01;  9.9999998E-03; -1.8009268E-01;1934;-0.2074417;0.0;-0.029327651;1002.5355;  4.0025818E-01;2100.5554;3;-48.92532;0.0;-2.8312252;0;-0.5739333;  1.0049094E+04;  0.0000000E+00;  5.4242882E-05;  1.0000000E+04;  0.0000000E+00;  9.9886943E+03;-0.7255975;0.0;0.1516642;5608.9546
  5.7947332E-01;  9.9999998E-03; -1.6008377E-01;1935;-0.20630717;0.0;-0.026469182;1002.4921;  4.0025809E-01;2064.6064;3;-50.393879;0.0;-2.4603248;0;-0.56714827;  1.0047918E+04;  0.0000000E+00;  3.5920941E-05;  1.0000000E+04;  0.0000000E+00;  9.9889951E+03;-0.72301435;0.0;0.1558661;5449.7539
  5.7948482E-01;  9.9999998E-03; -1.4007393E-01;1936;-0.20498817;0.0;-0.023223344;1002.4406;  4.0025824E-01;2021.9414;3;-51.889648;0.0;-1.9853007;0;-0.55963546;  1.0046935E+04;  0.0000000E+00;  6.6857196E-05;  1.0000000E+04;  0.0000000E+00;  9.9889434E+03;-0.7214523;0.0;0.16181685;5463.8936
  5.7949543E-01;  9.9999998E-03; -1.2006350E-01;1937;-0.20356767;0.0;-0.019768514;1002.3877;  4.0025827E-01;1978.0914;3;-53.336224;0.0;-1.478969;0;-0.55256993;  1.0046097E+04;  0.0000000E+00;  6.5912041E-05;  1.0000000E+04;  0.0000000E+00;  9.9887158E+03;-0.72022682;0.0;0.16765691;5567.0215
  5.7950485E-01;  9.9999998E-03; -1.0005278E-01;1938;-0.20214869;0.0;-0.016241351;1002.3408;  4.0025830E-01;1939.2782;3;-54.685932;0.0;-1.0087513;0;-0.54691827;  1.0045387E+04;  0.0000000E+00;  4.3556091E-05;  1.0000000E+04;  0.0000000E+00;  9.9884824E+03;-0.71890348;0.0;0.17198524;5673.1021
  5.7951272E-01;  9.9999998E-03; -8.0042072E-02;1939;-0.20082256;0.0;-0.01279409;1002.3037;  4.0025830E-01;1908.5634;3;-55.885311;0.0;-0.61909187;0;-0.54292333;  1.0044801E+04;  0.0000000E+00;  2.1170383E-05;  1.0000000E+04;  0.0000000E+00;  9.9883320E+03;-0.71736377;0.0;0.17444046;5743.0103
  5.7951897E-01;  9.9999998E-03; -6.0031474E-02;1940;-0.1996713;0.0;-0.0094761252;1002.2767;  4.0025842E-01;1886.2433;3;-56.878048;0.0;-0.33660284;0;-0.54024678;  1.0044326E+04;  0.0000000E+00;  8.0876516E-06;  1.0000000E+04;  0.0000000E+00;  9.9882607E+03;-0.71572006;0.0;0.17547327;5776.3281
  5.7952350E-01;  9.9999998E-03; -4.0020972E-02;1941;-0.1987765;0.0;-0.0062717111;1002.2585;  4.0025848E-01;1871.1328;3;-57.632492;0.0;-0.18069418;0;-0.5384863;  1.0043982E+04;  0.0000000E+00;  2.5732666E-06;  1.0000000E+04;  0.0000000E+00;  9.9882363E+03;-0.71422797;0.0;0.17574166;5787.4526
  5.7952631E-01;  9.9999998E-03; -2.0010494E-02;1942;-0.19820952;0.0;-0.0031234731;1002.2474;  4.0025836E-01;1861.8492;3;-58.117294;0.0;-0.067402475;0;-0.53744328;  1.0043768E+04;  0.0000000E+00;  5.4736142E-07;  1.0000000E+04;  0.0000000E+00;  9.9882324E+03;-0.71318048;0.0;0.17573719;5789.5571
  5.9940737E-01;  9.9999998E-03; -1.8011756E-01;1965;-0.22350745;0.0;-0.034406748;1003.1459;  4.0066791E-01;2606.301;3;-50.901394;0.0;-1.8098832;0;-0.45958543;  1.0043818E+04;  0.0000000E+00; -5.2782252E-05;  1.0000000E+04;  0.0000000E+00;  9.9856953E+03;-0.63672853;0.0;0.17714311;7043.0313
  5.9942043E-01;  9.9999998E-03; -1.6010669E-01;1966;-0.22241302;0.0;-0.031223807;1003.1215;  4.0066820E-01;2586.0549;3;-52.564964;0.0;-1.4011436;0;-0.45592535;  1.0042896E+04;  0.0000000E+00; -9.1382324E-05;  1.0000000E+04;  0.0000000E+00;  9.9861113E+03;-0.63712227;0.0;0.18119694;6827.8989
  5.9943300E-01;  9.9999998E-03; -1.4009462E-01;1967;-0.22116047;0.0;-0.027550865;1003.0829;  4.0066829E-01;2554.1553;3;-54.276966;0.0;-0.83328164;0;-0.45072663;  1.0042107E+04;  0.0000000E+00; -2.9423161E-06;  1.0000000E+04;  0.0000000E+00;  9.9861260E+03;-0.63803285;0.0;0.18730621;6810.8506
  5.9944451E-01;  9.9999998E-03; -1.2008151E-01;1968;-0.21976776;0.0;-0.02357509;1003.038;  4.0066832E-01;2516.9224;3;-55.897804;0.0;-0.25833318;0;-0.44494891;  1.0041436E+04;  0.0000000E+00;  4.5884357E-05;  1.0000000E+04;  0.0000000E+00;  9.9858936E+03;-0.63902688;0.0;0.19407795;6914.6816
  5.9945464E-01;  9.9999998E-03; -1.0006787E-01;1969;-0.21832953;0.0;-0.019486507;1002.9956;  4.0066841E-01;2481.7634;3;-57.400558;0.0;0.19152401;0;-0.43947673;  1.0040861E+04;  0.0000000E+00;  4.5248235E-05;  1.0000000E+04;  0.0000000E+00;  9.9856152E+03;-0.63970256;0.0;0.20022583;7044.7432
  5.9946316E-01;  9.9999998E-03; -8.0054156E-02;1970;-0.21694738;0.0;-0.015437194;1002.9604;  4.0066868E-01;2452.6289;3;-58.709015;0.0;0.51576608;0;-0.43478402;  1.0040378E+04;  0.0000000E+00;  2.4948797E-05;  1.0000000E+04;  0.0000000E+00;  9.9853936E+03;-0.63990486;0.0;0.20512083;7146.6567
  5.9946996E-01;  9.9999998E-03; -6.0040578E-02;1971;-0.21571785;0.0;-0.011493952;1002.9343;  4.0066880E-01;2431.0002;3;-59.780239;0.0;0.5819543;0;-0.43094179;  1.0039987E+04;  0.0000000E+00;  9.4619008E-06;  1.0000000E+04;  0.0000000E+00;  9.9852549E+03;-0.63968933;0.0;0.20874754;7208.7856
  5.9947497E-01;  9.9999998E-03; -4.0027104E-02;1972;-0.21474171;0.0;-0.0076382682;1002.9163;  4.0066865E-01;2415.9888;3;-60.586784;0.0;0.46051544;0;-0.42795831;  1.0039695E+04;  0.0000000E+00;  2.8123779E-06;  1.0000000E+04;  0.0000000E+00;  9.9851855E+03;-0.63925552;0.0;0.21129723;7241.4663
  5.9947801E-01;  9.9999998E-03; -2.0013589E-02;1973;-0.21412183;0.0;-0.0038120665;1002.9055;  4.0066874E-01;2407.1001;3;-61.134975;0.0;0.27791792;0;-0.42600065;  1.0039517E+04;  0.0000000E+00;  5.6943151E-07;  1.0000000E+04;  0.0000000E+00;  9.9851523E+03;-0.63885754;0.0;0.21285687;7256.9736
  6.1935812E-01;  9.9999998E-03; -1.8014598E-01;1996;-0.23768388;0.0;-0.039845128;1004.7689;  4.0160778E-01;3950.9072;3;-52.518482;0.0;-0.47012648;0;-0.26272184;  1.0033222E+04;  0.0000000E+00; -2.2089944E-04;  1.0000000E+04;  0.0000000E+00;  9.9818320E+03;-0.47187841;0.0;0.20915659;8875.6475
  6.1937261E-01;  9.9999998E-03; -1.6013303E-01;1997;-0.23656993;0.0;-0.036333714;1004.7745;  4.0160823E-01;3955.5491;3;-54.367119;0.0;0.034906343;0;-0.2642467;  1.0032746E+04;  0.0000000E+00; -3.1933258E-04;  1.0000000E+04;  0.0000000E+00;  9.9824043E+03;-0.47753957;0.0;0.21329285;8586.2705
  6.1938608E-01;  9.9999998E-03; -1.4011833E-01;1998;-0.23537064;0.0;-0.032264475;1004.7601;  4.0160865E-01;3943.5991;3;-56.259617;0.0;0.65187478;0;-0.26301563;  1.0032290E+04;  0.0000000E+00; -1.6296364E-04;  1.0000000E+04;  0.0000000E+00;  9.9825518E+03;-0.48234156;0.0;0.21932591;8504.1387
  6.1939830E-01;  9.9999998E-03; -1.2010214E-01;1999;-0.23402356;0.0;-0.027831499;1004.7322;  4.0160868E-01;3920.3904;3;-58.023239;0.0;1.2330956;0;-0.25971997;  1.0031878E+04;  0.0000000E+00; -3.7705398E-05;  1.0000000E+04;  0.0000000E+00;  9.9823926E+03;-0.48649102;0.0;0.22677107;8573.1523
  6.1940897E-01;  9.9999998E-03; -1.0008529E-01;2000;-0.23259793;0.0;-0.023233555;1004.7001;  4.0160897E-01;3893.8237;3;-59.599358;0.0;1.672179;0;-0.25504315;  1.0031503E+04;  0.0000000E+00;  9.9071503E-06;  1.0000000E+04;  0.0000000E+00;  9.9821172E+03;-0.48985493;0.0;0.23481177;8699.8447
  6.1941803E-01;  9.9999998E-03; -8.0068335E-02;2001;-0.23121424;0.0;-0.018610794;1004.6712;  4.0160912E-01;3869.9238;3;-60.983738;0.0;1.9285026;0;-0.24961711;  1.0031179E+04;  0.0000000E+00;  9.2080500E-06;  1.0000000E+04;  0.0000000E+00;  9.9818584E+03;-0.49232563;0.0;0.24270852;8818.0732
  6.1942536E-01;  9.9999998E-03; -6.0051341E-02;2002;-0.22996537;0.0;-0.013992071;1004.6486;  4.0160930E-01;3851.1594;3;-62.119915;0.0;1.8054249;0;-0.24408975;  1.0030908E+04;  0.0000000E+00;  9.9609565E-07;  1.0000000E+04;  0.0000000E+00;  9.9816689E+03;-0.4939419;0.0;0.24985215;8902.3936
  6.1943078E-01;  9.9999998E-03; -4.0034346E-02;2003;-0.22895074;0.0;-0.0093552396;1004.6323;  4.0160936E-01;3837.728;3;-62.991455;0.0;1.3476918;0;-0.23919681;  1.0030699E+04;  0.0000000E+00; -1.0408404E-06;  1.0000000E+04;  0.0000000E+00;  9.9815518E+03;-0.49486229;0.0;0.25566548;8954.9258
  6.1943406E-01;  9.9999998E-03; -2.0017257E-02;2004;-0.22828628;0.0;-0.004690588;1004.6225;  4.0160945E-01;3829.5308;3;-63.512787;0.0;0.73125666;0;-0.23576924;  1.0030569E+04;  0.0000000E+00; -3.7335832E-07;  1.0000000E+04;  0.0000000E+00;  9.9814824E+03;-0.49529603;0.0;0.25952679;8984.0781
  6.3931650E-01;  9.9999998E-03; -1.8017790E-01;2027;-0.24926062;0.0;-0.04547739;1007.9792;  4.0333599E-01;6610.4692;3;-53.747292;0.0;1.1964611;0;0.042245075;  1.0015808E+04;  0.0000000E+00; -3.2063283E-04;  1.0000000E+04;  0.0000000E+00;  9.9772695E+03;-0.2034252;0.0;0.24567027;11022.753
  6.3933200E-01;  9.9999998E-03; -1.6016199E-01;2028;-0.24815758;0.0;-0.04146954;1008.0231;  4.0333632E-01;6646.813;3;-55.735508;0.0;1.8412633;0;0.034958512;  1.0015973E+04;  0.0000000E+00; -5.6769070E-04;  1.0000000E+04;  0.0000000E+00;  9.9779512E+03;-0.21641904;0.0;0.25137755;10678.759
  6.3934606E-01;  9.9999998E-03; -1.4014405E-01;2029;-0.24704258;0.0;-0.036988083;1008.0399;  4.0333676E-01;6660.6392;3;-57.730038;0.0;2.5236075;0;0.031714827;  1.0015988E+04;  0.0000000E+00; -3.8196973E-04;  1.0000000E+04;  0.0000000E+00;  9.9782432E+03;-0.22649935;0.0;0.25821418;10528.87
  6.3935870E-01;  9.9999998E-03; -1.2012430E-01;2030;-0.24580613;0.0;-0.032204628;1008.0355;  4.0333715E-01;6656.9849;3;-59.571583;0.0;3.0604029;0;0.032237545;  1.0015938E+04;  0.0000000E+00; -1.8941528E-04;  1.0000000E+04;  0.0000000E+00;  9.9781836E+03;-0.2346776;0.0;0.26691514;10547.632
  6.3936996E-01;  9.9999998E-03; -1.0010366E-01;2031;-0.24444276;0.0;-0.027149988;1008.0201;  4.0333757E-01;6644.3438;3;-61.236931;0.0;3.3796241;0;0.036144286;  1.0015850E+04;  0.0000000E+00; -8.1819737E-05;  1.0000000E+04;  0.0000000E+00;  9.9779463E+03;-0.24129635;0.0;0.27744064;10652.163
  6.3937962E-01;  9.9999998E-03; -8.0082968E-02;2032;-0.24305271;0.0;-0.021901594;1008.0021;  4.0333784E-01;6629.4312;3;-62.673374;0.0;3.4012394;0;0.042737767;  1.0015744E+04;  0.0000000E+00; -4.3927452E-05;  1.0000000E+04;  0.0000000E+00;  9.9776797E+03;-0.24642591;0.0;0.28916368;10771.878
  6.3938743E-01;  9.9999998E-03; -6.0062353E-02;2033;-0.24179953;0.0;-0.016550509;1007.9855;  4.0333796E-01;6615.7036;3;-63.864029;0.0;2.9270213;0;0.050754219;  1.0015637E+04;  0.0000000E+00; -2.8151093E-05;  1.0000000E+04;  0.0000000E+00;  9.9774541E+03;-0.25014758;0.0;0.3009018;10870.047
  6.3939321E-01;  9.9999998E-03; -4.0041789E-02;2034;-0.24075352;0.0;-0.011075568;1007.9734;  4.0333816E-01;6605.6299;3;-64.745712;0.0;2.1807301;0;0.058482051;  1.0015545E+04;  0.0000000E+00; -1.3971970E-05;  1.0000000E+04;  0.0000000E+00;  9.9772930E+03;-0.2526091;0.0;0.31109115;10939.145
  6.3939667E-01;  9.9999998E-03; -2.0021008E-02;2035;-0.24007459;0.0;-0.0055475561;1007.9654;  4.0333822E-01;6599.0132;3;-65.195717;0.0;1.2295573;0;0.064099133;  1.0015484E+04;  0.0000000E+00; -3.5037051E-06;  1.0000000E+04;  0.0000000E+00;  9.9771924E+03;-0.25398993;0.0;0.31808907;10981.232
  6.5928656E-01;  9.9999998E-03; -1.8021628E-01;2058;-0.25749591;0.0;-0.051896907;1011.9385;  4.0552020E-01;9890.4619;3;-54.528385;0.0;3.0941138;0;0.46662226;  9.9911172E+03;  0.0000000E+00; -1.4218006E-04;  1.0000000E+04;  0.0000000E+00;  9.9723799E+03;0.18386522;0.0;0.28275704;13303.081
  6.5930235E-01;  9.9999998E-03; -1.6019583E-01;2059;-0.25653556;0.0;-0.047007725;1012.0189;  4.0552068E-01;9957.0254;3;-56.65406;0.0;3.9990246;0;0.4560492;  9.9920244E+03;  0.0000000E+00; -6.5248460E-04;  1.0000000E+04;  0.0000000E+00;  9.9730352E+03;0.16320419;0.0;0.29284501;12969.515
  6.5931654E-01;  9.9999998E-03; -1.4017396E-01;2060;-0.25554979;0.0;-0.041998979;1012.0674;  4.0552098E-01;9997.2197;3;-58.760014;0.0;4.8726182;0;0.45009404;  9.9926230E+03;  0.0000000E+00; -5.4428587E-04;  1.0000000E+04;  0.0000000E+00;  9.9733730E+03;0.1473922;0.0;0.30270183;12793.996
  6.5932918E-01;  9.9999998E-03; -1.2014978E-01;2061;-0.25444049;0.0;-0.036646094;1012.0883;  4.0552106E-01;10014.503;3;-60.676029;0.0;5.4584394;0;0.4491986;  9.9930234E+03;  0.0000000E+00; -3.5539168E-04;  1.0000000E+04;  0.0000000E+00;  9.9733770E+03;0.13485336;0.0;0.31434524;12781.457
  6.5934044E-01;  9.9999998E-03; -1.0012474E-01;2062;-0.2532267;0.0;-0.03099915;1012.0925;  4.0552139E-01;10017.958;3;-62.365879;0.0;5.5707273;0;0.4534682;  9.9932949E+03;  0.0000000E+00; -2.1564346E-04;  1.0000000E+04;  0.0000000E+00;  9.9731758E+03;0.12478308;0.0;0.32868513;12865.892
  6.5935034E-01;  9.9999998E-03; -8.0099933E-02;2063;-0.25193805;0.0;-0.025170695;1012.0886;  4.0552169E-01;10014.699;3;-63.783909;0.0;5.3742042;0;0.46233237;  9.9934746E+03;  0.0000000E+00; -1.3593721E-04;  1.0000000E+04;  0.0000000E+00;  9.9729063E+03;0.11689039;0.0;0.34544197;12981.694
  6.5935844E-01;  9.9999998E-03; -6.0075410E-02;2064;-0.25075066;0.0;-0.01921599;1012.082;  4.0552184E-01;10009.267;3;-64.989876;0.0;4.6128817;0;0.47402069;  9.9935869E+03;  0.0000000E+00; -8.1767532E-05;  1.0000000E+04;  0.0000000E+00;  9.9726494E+03;0.11101342;0.0;0.36300728;13088.231
  6.5936434E-01;  9.9999998E-03; -4.0050708E-02;2065;-0.2497538;0.0;-0.012984904;1012.0751;  4.0552199E-01;10003.638;3;-65.813828;0.0;3.4620266;0;0.48573089;  9.9936504E+03;  0.0000000E+00; -3.7965354E-05;  1.0000000E+04;  0.0000000E+00;  9.9724473E+03;0.10698906;0.0;0.37874183;13170.995
  6.5936792E-01;  9.9999998E-03; -2.0025512E-02;2066;-0.24911553;0.0;-0.0065277717;1012.0699;  4.0552199E-01;9999.292;3;-66.313133;0.0;1.8290905;0;0.49439162;  9.9936797E+03;  0.0000000E+00; -9.4217721E-06;  1.0000000E+04;  0.0000000E+00;  9.9723105E+03;0.1046534;0.0;0.38973823;13225.12
  6.7927563E-01;  9.9999998E-03; -1.8026957E-01;2089;-0.26040754;0.0;-0.062664047;1014.535;  4.0727481E-01;12041.342;3;-54.645531;0.0;4.853085;0;0.99038517;  9.9607119E+03;  0.0000000E+00;  3.5595748E-04;  1.0000000E+04;  0.0000000E+00;  9.9676660E+03;0.67474604;0.0;0.31563911;15473.504
  6.7929107E-01;  9.9999998E-03; -1.6024265E-01;2090;-0.25968647;0.0;-0.056280173;1014.6386;  4.0727472E-01;12127.162;3;-57.007656;0.0;6.2082353;0;0.98239589;  9.9623203E+03;  0.0000000E+00; -4.3835337E-04;  1.0000000E+04;  0.0000000E+00;  9.9680967E+03;0.64890474;0.0;0.33349115;15247.685
  6.7930466E-01;  9.9999998E-03; -1.4021546E-01;2091;-0.25899586;0.0;-0.050432436;1014.7103;  4.0727460E-01;12186.515;3;-59.24929;0.0;7.3643475;0;0.97822464;  9.9635225E+03;  0.0000000E+00; -5.2081392E-04;  1.0000000E+04;  0.0000000E+00;  9.9683096E+03;0.62869596;0.0;0.34952864;15129.824
  6.7931670E-01;  9.9999998E-03; -1.2018602E-01;2092;-0.25821239;0.0;-0.044465702;1014.7532;  4.0727451E-01;12222.065;3;-61.286381;0.0;8.0555363;0;0.97921556;  9.9644277E+03;  0.0000000E+00; -4.3766398E-04;  1.0000000E+04;  0.0000000E+00;  9.9682588E+03;0.61255598;0.0;0.36665958;15140.271
  6.7932761E-01;  9.9999998E-03; -1.0015561E-01;2093;-0.25727153;0.0;-0.038220435;1014.777;  4.0727451E-01;12241.718;3;-63.103268;0.0;8.1664648;0;0.98627985;  9.9651133E+03;  0.0000000E+00; -3.2869424E-04;  1.0000000E+04;  0.0000000E+00;  9.9680293E+03;0.59953523;0.0;0.38674459;15231.887
  6.7933708E-01;  9.9999998E-03; -8.0125451E-02;2094;-0.25625163;0.0;-0.031776428;1014.7881;  4.0727448E-01;12251.001;3;-64.550713;0.0;7.7586708;0;0.99925339;  9.9656299E+03;  0.0000000E+00; -2.3064425E-04;  1.0000000E+04;  0.0000000E+00;  9.9677363E+03;0.58923221;0.0;0.41002122;15353.019
  6.7934483E-01;  9.9999998E-03; -6.0095385E-02;2095;-0.25533614;0.0;-0.024878426;1014.7926;  4.0727451E-01;12254.655;3;-65.748459;0.0;6.5927367;0;1.0160933;  9.9660059E+03;  0.0000000E+00; -1.4088785E-04;  1.0000000E+04;  0.0000000E+00;  9.9674482E+03;0.58145386;0.0;0.43463939;15469.095
  6.7935055E-01;  9.9999998E-03; -4.0064756E-02;2096;-0.25462985;0.0;-0.017298544;1014.7928;  4.0727445E-01;12254.853;3;-66.612686;0.0;4.8520532;0;1.0329773;  9.9662617E+03;  0.0000000E+00; -6.4903179E-05;  1.0000000E+04;  0.0000000E+00;  9.9672012E+03;0.57604671;0.0;0.45693067;15564.888
  6.7935401E-01;  9.9999998E-03; -2.0032847E-02;2097;-0.25424695;0.0;-0.0089522004;1014.7913;  4.0727440E-01;12253.668;3;-67.222443;0.0;2.5216522;0;1.0454981;  9.9664033E+03;  0.0000000E+00; -1.6109181E-05;  1.0000000E+04;  0.0000000E+00;  9.9670313E+03;0.57286966;0.0;0.47262841;15630.781
  6.9929910E-01;  9.9999998E-03; -1.8034266E-01;2120;-0.2535077;0.0;-0.08244238;1015.1053;  4.0824094E-01;12513.545;3;-53.4496;0.0;5.055738;0;1.5520329;  9.9286523E+03;  0.0000000E+00;  8.5109536E-04;  1.0000000E+04;  0.0000000E+00;  9.9636553E+03;1.2116451;0.0;0.34038785;17300.398
  6.9931263E-01;  9.9999998E-03; -1.6030757E-01;2121;-0.25362521;0.0;-0.07384681;1015.213;  4.0824023E-01;12602.721;3;-56.218159;0.0;7.2028456;0;1.5542028;  9.9307813E+03;  0.0000000E+00; -4.5892593E-05;  1.0000000E+04;  0.0000000E+00;  9.9636543E+03;1.1857524;0.0;0.36845034;17275.916
  6.9932365E-01;  9.9999998E-03; -1.4027162E-01;2122;-0.25398391;0.0;-0.065927692;1015.2936;  4.0823990E-01;12669.479;3;-58.78862;0.0;8.8074236;0;1.5580177;  9.9325029E+03;  0.0000000E+00; -3.1143473E-04;  1.0000000E+04;  0.0000000E+00;  9.9635371E+03;1.164351;0.0;0.39366668;17313.135
  6.9933289E-01;  9.9999998E-03; -1.2023316E-01;2123;-0.25442249;0.0;-0.058315869;1015.3503;  4.0823954E-01;12716.486;3;-60.920456;0.0;9.5752621;0;1.5654464;  9.9338955E+03;  0.0000000E+00; -3.7448076E-04;  1.0000000E+04;  0.0000000E+00;  9.9632764E+03;1.1465716;0.0;0.41887474;17419.945
  6.9934177E-01;  9.9999998E-03; -1.0019433E-01;2124;-0.25442046;0.0;-0.050735772;1015.389;  4.0823910E-01;12748.581;3;-62.724209;0.0;9.3921413;0;1.5784794;  9.9350156E+03;  0.0000000E+00; -3.4321463E-04;  1.0000000E+04;  0.0000000E+00;  9.9629287E+03;1.1318178;0.0;0.44666156;17564.213
  6.9935018E-01;  9.9999998E-03; -8.0156311E-02;2125;-0.25413173;0.0;-0.042866297;1015.415;  4.0823901E-01;12770.012;3;-64.356857;0.0;8.3947153;0;1.597645;  9.9359053E+03;  0.0000000E+00; -2.6418755E-04;  1.0000000E+04;  0.0000000E+00;  9.9625596E+03;1.1198502;0.0;0.47779495;17713.83
  6.9935727E-01;  9.9999998E-03; -6.0118597E-02;2126;-0.25379762;0.0;-0.03393377;1015.4313;  4.0823877E-01;12783.541;3;-65.878723;0.0;6.8036408;0;1.6209359;  9.9365791E+03;  0.0000000E+00; -1.6552469E-04;  1.0000000E+04;  0.0000000E+00;  9.9622119E+03;1.1106002;0.0;0.51033568;17849.436
  6.9936258E-01;  9.9999998E-03; -4.0080324E-02;2127;-0.25353357;0.0;-0.023699144;1015.4398;  4.0823862E-01;12790.651;3;-67.079933;0.0;4.7855606;0;1.6437893;  9.9370518E+03;  0.0000000E+00; -7.6468204E-05;  1.0000000E+04;  0.0000000E+00;  9.9619180E+03;1.1040456;0.0;0.53974372;17962.273
  6.9936568E-01;  9.9999998E-03; -2.0040728E-02;2128;-0.25344604;0.0;-0.012208926;1015.4434;  4.0823841E-01;12793.613;3;-67.826897;0.0;2.5422869;0;1.6606064;  9.9373340E+03;  0.0000000E+00; -1.9017307E-05;  1.0000000E+04;  0.0000000E+00;  9.9617070E+03;1.1001422;0.0;0.5604642;18041.564
  7.1940386E-01;  9.9999998E-03; -1.8042412E-01;2151;-0.224622;0.0;-0.1136159;1014.5917;  4.0866625E-01;12087.682;3;-47.950325;0.0;0.66926253;0;2.0554731;  9.9008643E+03;  0.0000000E+00;  9.4339118E-04;  1.0000000E+04;  0.0000000E+00;  9.9606787E+03;1.6996911;0.0;0.355782;18637.809
  7.1941662E-01;  9.9999998E-03; -1.6038319E-01;2152;-0.22532147;0.0;-0.10397083;1014.6851;  4.0866539E-01;12165.104;3;-50.974579;0.0;3.1156836;0;2.0736732;  9.9032393E+03;  0.0000000E+00;  2.3650078E-04;  1.0000000E+04;  0.0000000E+00;  9.9601602E+03;1.6798775;0.0;0.39379582;18861.607
  7.1942860E-01;  9.9999998E-03; -1.4033772E-01;2153;-0.2262049;0.0;-0.093615949;1014.761;  4.0866488E-01;12227.91;3;-54.223969;0.0;4.8393869;0;2.0908158;  9.9053379E+03;  0.0000000E+00; -6.1191065E-05;  1.0000000E+04;  0.0000000E+00;  9.9595645E+03;1.6613797;0.0;0.42943615;19122.633
  7.1943986E-01;  9.9999998E-03; -1.2028734E-01;2154;-0.22684696;0.0;-0.082294963;1014.8219;  4.0866426E-01;12278.371;3;-57.533287;0.0;5.529397;0;2.1087301;  9.9071514E+03;  0.0000000E+00; -1.9992051E-04;  1.0000000E+04;  0.0000000E+00;  9.9589580E+03;1.6445622;0.0;0.46416777;19389.807
  7.1945065E-01;  9.9999998E-03; -1.0023709E-01;2155;-0.22662075;0.0;-0.07054811;1014.8707;  4.0866369E-01;12318.86;3;-60.434357;0.0;5.5375276;0;2.1304247;  9.9086865E+03;  0.0000000E+00; -2.3511786E-04;  1.0000000E+04;  0.0000000E+00;  9.9583926E+03;1.6295781;0.0;0.50084662;19635.777
  7.1946043E-01;  9.9999998E-03; -8.0189012E-02;2156;-0.2257238;0.0;-0.058483142;1014.9088;  4.0866357E-01;12350.362;3;-62.743412;0.0;5.0466394;0;2.1572387;  9.9099570E+03;  0.0000000E+00; -1.9925747E-04;  1.0000000E+04;  0.0000000E+00;  9.9578809E+03;1.6166826;0.0;0.54055613;19846.531
  7.1946865E-01;  9.9999998E-03; -6.0142614E-02;2157;-0.22456124;0.0;-0.0456958;1014.9363;  4.0866303E-01;12373.174;3;-64.575836;0.0;4.1069636;0;2.1875224;  9.9109482E+03;  0.0000000E+00; -1.2859955E-04;  1.0000000E+04;  0.0000000E+00;  9.9574355E+03;1.6062144;0.0;0.58130789;20021.713
  7.1947497E-01;  9.9999998E-03; -4.0096279E-02;2158;-0.22342815;0.0;-0.031658325;1014.9533;  4.0866271E-01;12387.196;3;-65.803497;0.0;2.9209864;0;2.2163754;  9.9116621E+03;  0.0000000E+00; -5.9452155E-05;  1.0000000E+04;  0.0000000E+00;  9.9570654E+03;1.5985057;0.0;0.61786956;20163.443
  7.1947896E-01;  9.9999998E-03; -2.0048730E-02;2159;-0.22264732;0.0;-0.016276708;1014.9618;  4.0866259E-01;12394.307;3;-66.55365;0.0;1.5166186;0;2.2373619;  9.9120928E+03;  0.0000000E+00; -1.4638427E-05;  1.0000000E+04;  0.0000000E+00;  9.9568047E+03;1.5937982;0.0;0.64356387;20262.383
  7.3961449E-01;  9.9999998E-03; -1.8044628E-01;2182;-0.14661768;0.0;-0.1172566;1013.9962;  4.0883443E-01;11593.986;3;-30.975248;0.0;2.6738994;0;2.3984485;  9.8828965E+03;  0.0000000E+00;  6.4215943E-04;  1.0000000E+04;  0.0000000E+00;  9.9588555E+03;2.0367272;0.0;0.36172116;19447.17
  7.3962218E-01;  9.9999998E-03; -1.6040581E-01;2183;-0.14800219;0.0;-0.10833064;1014.0613;  4.0883386E-01;11647.902;3;-33.50943;0.0;5.1228366;0;2.4357371;  9.8852490E+03;  0.0000000E+00;  2.7886278E-04;  1.0000000E+04;  0.0000000E+00;  9.9578115E+03;2.0273316;0.0;0.40840548;19923.027
  7.3963034E-01;  9.9999998E-03; -1.4035897E-01;2184;-0.1489944;0.0;-0.097985394;1014.1226;  4.0883300E-01;11698.659;3;-36.191902;0.0;6.7735219;0;2.4675293;  9.8875410E+03;  0.0000000E+00;  9.5014053E-05;  1.0000000E+04;  0.0000000E+00;  9.9567344E+03;2.0146754;0.0;0.45285401;20414.613
  7.3963839E-01;  9.9999998E-03; -1.2030641E-01;2185;-0.14955829;0.0;-0.086334869;1014.179;  4.0883240E-01;11745.368;3;-38.79414;0.0;7.4642992;0;2.4969835;  9.8896650E+03;  0.0000000E+00; -1.9492521E-05;  1.0000000E+04;  0.0000000E+00;  9.9557383E+03;2.0006356;0.0;0.49634784;20868.072
  7.3964590E-01;  9.9999998E-03; -1.0025392E-01;2186;-0.14967617;0.0;-0.074450947;1014.2308;  4.0883186E-01;11788.323;3;-41.150311;0.0;7.282011;0;2.5280905;  9.8915479E+03;  0.0000000E+00; -7.5079675E-05;  1.0000000E+04;  0.0000000E+00;  9.9548760E+03;1.9865037;0.0;0.54158688;21248.381
  7.3965269E-01;  9.9999998E-03; -8.0203377E-02;2187;-0.14940821;0.0;-0.06220812;1014.2753;  4.0883142E-01;11825.156;3;-43.156231;0.0;6.440711;0;2.5628736;  9.8931396E+03;  0.0000000E+00; -7.9370926E-05;  1.0000000E+04;  0.0000000E+00;  9.9541641E+03;1.973285;0.0;0.58958864;21550.563
  7.3965847E-01;  9.9999998E-03; -6.0154080E-02;2188;-0.14888832;0.0;-0.04894254;1014.3099;  4.0883085E-01;11853.793;3;-44.751213;0.0;5.1620412;0;2.6000268;  9.8944199E+03;  0.0000000E+00; -5.4389719E-05;  1.0000000E+04;  0.0000000E+00;  9.9535742E+03;1.9618857;0.0;0.63814116;21789.199
  7.3966300E-01;  9.9999998E-03; -4.0104337E-02;2189;-0.1483044;0.0;-0.034090061;1014.3325;  4.0883058E-01;11872.555;3;-45.90374;0.0;3.5974274;0;2.6344655;  9.8953496E+03;  0.0000000E+00; -2.4921643E-05;  1.0000000E+04;  0.0000000E+00;  9.9530977E+03;1.9531019;0.0;0.68136364;21976.297
  7.3966593E-01;  9.9999998E-03; -2.0052901E-02;2190;-0.14785367;0.0;-0.017578386;1014.3444;  4.0883049E-01;11882.43;3;-46.599453;0.0;1.8466583;0;2.6591918;  9.8959160E+03;  0.0000000E+00; -5.9508689E-06;  1.0000000E+04;  0.0000000E+00;  9.9527646E+03;1.9475629;0.0;0.71162891;22104.344
  7.5978434E-01;  9.9999998E-03; -1.8045288E-01;2213;-0.083765902;0.0;-0.11449623;1013.775;  4.0889782E-01;11410.141;3;-18.284557;0.0;6.1392131;0;2.5430074;  9.8764961E+03;  0.0000000E+00;  2.6383498E-04;  1.0000000E+04;  0.0000000E+00;  9.9579150E+03;2.1790683;0.0;0.36393893;19867.164
  7.5978702E-01;  9.9999998E-03; -1.6041480E-01;2214;-0.085659593;0.0;-0.10689516;1013.8111;  4.0889710E-01;11440.061;3;-20.123018;0.0;8.393528;0;2.5953727;  9.8786230E+03;  0.0000000E+00;  1.6961698E-04;  1.0000000E+04;  0.0000000E+00;  9.9565273E+03;2.1807821;0.0;0.41459072;20508.406
  7.5979054E-01;  9.9999998E-03; -1.4036913E-01;2215;-0.087252572;0.0;-0.097660407;1013.8535;  4.0889645E-01;11475.113;3;-22.152134;0.0;9.7461472;0;2.6389389;  9.8809150E+03;  0.0000000E+00;  1.1469146E-04;  1.0000000E+04;  0.0000000E+00;  9.9550811E+03;2.1748793;0.0;0.46405947;21178.191
  7.5979429E-01;  9.9999998E-03; -1.2031681E-01;2216;-0.088497877;0.0;-0.086913548;1013.8991;  4.0889579E-01;11512.933;3;-24.198132;0.0;10.034759;0;2.6782632;  9.8831719E+03;  0.0000000E+00;  6.3391148E-05;  1.0000000E+04;  0.0000000E+00;  9.9537314E+03;2.1646271;0.0;0.51363623;21798.102
  7.5979805E-01;  9.9999998E-03; -1.0026385E-01;2217;-0.089358769;0.0;-0.075669155;1013.9459;  4.0889513E-01;11551.64;3;-26.116264;0.0;9.408555;0;2.7180152;  9.8852490E+03;  0.0000000E+00;  2.4971740E-05;  1.0000000E+04;  0.0000000E+00;  9.9525850E+03;2.1524551;0.0;0.56556022;22314.531
  7.5980169E-01;  9.9999998E-03; -8.0212265E-02;2218;-0.089846984;0.0;-0.063764773;1013.989;  4.0889463E-01;11587.386;3;-27.800962;0.0;8.1206913;0;2.7604809;  9.8870449E+03;  0.0000000E+00;  5.9426116E-06;  1.0000000E+04;  0.0000000E+00;  9.9516484E+03;2.1400728;0.0;0.62040812;22720.266
  7.5980490E-01;  9.9999998E-03; -6.0161427E-02;2219;-0.090026148;0.0;-0.05051554;1014.024;  4.0889412E-01;11616.416;3;-29.175543;0.0;6.4056373;0;2.8043275;  9.8885010E+03;  0.0000000E+00;  1.0210707E-06;  1.0000000E+04;  0.0000000E+00;  9.9508857E+03;2.1288235;0.0;0.67550397;23036.568
  7.5980747E-01;  9.9999998E-03; -4.0109623E-02;2220;-0.090009339;0.0;-0.035361294;1014.0472;  4.0889394E-01;11635.671;3;-30.188139;0.0;4.4181833;0;2.8441429;  9.8895723E+03;  0.0000000E+00;  1.0201850E-06;  1.0000000E+04;  0.0000000E+00;  9.9502803E+03;2.1198387;0.0;0.7243042;23280.568
  7.5980920E-01;  9.9999998E-03; -2.0055676E-02;2221;-0.089928523;0.0;-0.018287297;1014.0596;  4.0889367E-01;11645.842;3;-30.807182;0.0;2.2547455;0;2.8724093;  9.8902285E+03;  0.0000000E+00;  5.8539456E-07;  1.0000000E+04;  0.0000000E+00;  9.9498691E+03;2.1140375;0.0;0.75837195;23444.799
  7.7991086E-01;  9.9999998E-03; -1.8045282E-01;2244;-0.038234018;0.0;-0.11116732;1013.9333;  4.0892056E-01;11540.497;3;-10.252885;0.0;8.5303555;0;2.5377166;  9.8788779E+03;  0.0000000E+00;  4.2891272E-05;  1.0000000E+04;  0.0000000E+00;  9.9575361E+03;2.1710932;0.0;0.36662346;20038.949
  7.7991045E-01;  9.9999998E-03; -1.6041686E-01;2245;-0.039809242;0.0;-0.10447114;1013.9492;  4.0891987E-01;11553.629;3;-11.185363;0.0;10.746189;0;2.5971534;  9.8807236E+03;  0.0000000E+00;  5.4897610E-05;  1.0000000E+04;  0.0000000E+00;  9.9560244E+03;2.1805723;0.0;0.41658124;20738.121
  7.7991062E-01;  9.9999998E-03; -1.4037256E-01;2246;-0.041303761;0.0;-0.096065119;1013.9755;  4.0891919E-01;11575.45;3;-12.340093;0.0;11.971986;0;2.6466007;  9.8829004E+03;  0.0000000E+00;  5.9529000E-05;  1.0000000E+04;  0.0000000E+00;  9.9543799E+03;2.1796775;0.0;0.46692324;21504.074
  7.7991122E-01;  9.9999998E-03; -1.2032093E-01;2247;-0.042650353;0.0;-0.086032003;1014.0088;  4.0891847E-01;11602.997;3;-13.605031;0.0;12.05098;0;2.6917419;  9.8851465E+03;  0.0000000E+00;  5.0812185E-05;  1.0000000E+04;  0.0000000E+00;  9.9528018E+03;2.1726439;0.0;0.5190981;22236.732
  7.7991199E-01;  9.9999998E-03; -1.0026819E-01;2248;-0.043777287;0.0;-0.075356245;1014.0461;  4.0891799E-01;11634.001;3;-14.868993;0.0;11.161461;0;2.7374976;  9.8872646E+03;  0.0000000E+00;  3.6967074E-05;  1.0000000E+04;  0.0000000E+00;  9.9514307E+03;2.1626506;0.0;0.57484692;22859.77
  7.7991301E-01;  9.9999998E-03; -8.0216438E-02;2249;-0.044638563;0.0;-0.063858479;1014.0823;  4.0891737E-01;11663.918;3;-16.036236;0.0;9.5726738;0;2.7859607;  9.8891182E+03;  0.0000000E+00;  2.4480301E-05;  1.0000000E+04;  0.0000000E+00;  9.9502988E+03;2.1518056;0.0;0.63415509;23356.268
  7.7991402E-01;  9.9999998E-03; -6.0165066E-02;2250;-0.045225453;0.0;-0.050834935;1014.1118;  4.0891695E-01;11688.307;3;-17.025745;0.0;7.5244575;0;2.8353899;  9.8906299E+03;  0.0000000E+00;  1.4902091E-05;  1.0000000E+04;  0.0000000E+00;  9.9493779E+03;2.1416183;0.0;0.69377154;23746.434
  7.7991498E-01;  9.9999998E-03; -4.0112343E-02;2251;-0.045574121;0.0;-0.035715055;1014.1315;  4.0891674E-01;11704.598;3;-17.775089;0.0;5.1788721;0;2.8798132;  9.8917451E+03;  0.0000000E+00;  7.4869026E-06;  1.0000000E+04;  0.0000000E+00;  9.9486484E+03;2.1333051;0.0;0.74650812;24046.869
  7.7991563E-01;  9.9999998E-03; -2.0057138E-02;2252;-0.045746014;0.0;-0.01851151;1014.141;  4.0891641E-01;11712.497;3;-18.241396;0.0;2.63978;0;2.9111362;  9.8924336E+03;  0.0000000E+00;  2.1022900E-06;  1.0000000E+04;  0.0000000E+00;  9.9481572E+03;2.127857;0.0;0.78327906;24247.504
  8.0001420E-01;  9.9999998E-03; -1.8044916E-01;2275;-0.00079433282;0.0;-0.10859541;1014.2974;  4.0892705E-01;11840.965;3;-3.6348388;0.0;9.4909821;0;2.4591649;  9.8856992E+03;  0.0000000E+00; -7.9656784E-06;  1.0000000E+04;  0.0000000E+00;  9.9574688E+03;2.0876317;0.0;0.37153307;20060.004
  8.0001163E-01;  9.9999998E-03; -1.6041441E-01;2276;-0.0018037052;0.0;-0.10219392;1014.3066;  4.0892631E-01;11848.567;3;-3.7256234;0.0;11.833502;0;2.5167348;  9.8873486E+03;  0.0000000E+00;  3.2272715E-06;  1.0000000E+04;  0.0000000E+00;  9.9560273E+03;2.0988705;0.0;0.41786438;20729.311
  8.0000943E-01;  9.9999998E-03; -1.4037111E-01;2277;-0.0029270935;0.0;-0.094140306;1014.3254;  4.0892562E-01;11864.166;3;-4.0159321;0.0;13.126429;0;2.5649462;  9.8894121E+03;  0.0000000E+00;  1.0134786E-05;  1.0000000E+04;  0.0000000E+00;  9.9543594E+03;2.0990336;0.0;0.46591267;21510.398
  8.0000752E-01;  9.9999998E-03; -1.2032023E-01;2278;-0.0040828101;0.0;-0.084462464;1014.3502;  4.0892491E-01;11884.703;3;-4.4604096;0.0;13.215232;0;2.6103637;  9.8915830E+03;  0.0000000E+00;  1.2020206E-05;  1.0000000E+04;  0.0000000E+00;  9.9526855E+03;2.0928853;0.0;0.51747847;22289.314
  8.0000597E-01;  9.9999998E-03; -1.0026804E-01;2279;-0.0051798332;0.0;-0.074138314;1014.3786;  4.0892437E-01;11908.2;3;-4.9956441;0.0;12.275134;0;2.657887;  9.8936475E+03;  0.0000000E+00;  1.0793760E-05;  1.0000000E+04;  0.0000000E+00;  9.9511943E+03;2.0838962;0.0;0.57399088;22970.242
  8.0000484E-01;  9.9999998E-03; -8.0216706E-02;2280;-0.0061351163;0.0;-0.062981412;1014.4065;  4.0892392E-01;11931.303;3;-5.5522943;0.0;10.569859;0;2.7091718;  9.8954590E+03;  0.0000000E+00;  8.2419119E-06;  1.0000000E+04;  0.0000000E+00;  9.9499414E+03;2.0742006;0.0;0.63497114;23525.113
  8.0000412E-01;  9.9999998E-03; -6.0165565E-02;2281;-0.0068896529;0.0;-0.050263483;1014.4283;  4.0892348E-01;11949.469;3;-6.0625486;0.0;8.3393917;0;2.7618287;  9.8969336E+03;  0.0000000E+00;  5.3561880E-06;  1.0000000E+04;  0.0000000E+00;  9.9489043E+03;2.0651629;0.0;0.69666576;23968.477
  8.0000365E-01;  9.9999998E-03; -4.0112853E-02;2282;-0.0074214539;0.0;-0.035388753;1014.4416;  4.0892315E-01;11960.427;3;-6.4694805;0.0;5.7559414;0;2.8091822;  9.8980264E+03;  0.0000000E+00;  2.6950211E-06;  1.0000000E+04;  0.0000000E+00;  9.9480820E+03;2.0578122;0.0;0.75137001;24312.26
  8.0000347E-01;  9.9999998E-03; -2.0057453E-02;2283;-0.0077327765;0.0;-0.018367803;1014.4473;  4.0892282E-01;11965.067;3;-6.7308712;0.0;2.9388986;0;2.8425422;  9.8986982E+03;  0.0000000E+00;  7.3731223E-07;  1.0000000E+04;  0.0000000E+00;  9.9475293E+03;2.0529974;0.0;0.78954494;24541.746
  8.2011312E-01;  9.9999998E-03; -1.8044320E-01;2306;0.036496338;0.0;-0.10708962;1014.6896;  4.0891513E-01;12164.29;3;3.95678;0.0;9.1160069;0;2.3614786;  9.8937275E+03;  0.0000000E+00;  2.2039425E-05;  1.0000000E+04;  0.0000000E+00;  9.9576289E+03;1.9834044;0.0;0.37807408;19964.139
  8.2010853E-01;  9.9999998E-03; -1.6040878E-01;2307;0.035774063;0.0;-0.10046843;1014.706;  4.0891427E-01;12177.913;3;4.4438539;0.0;11.679527;0;2.4099107;  9.8953516E+03;  0.0000000E+00;  2.2302343E-06;  1.0000000E+04;  0.0000000E+00;  9.9563584E+03;1.9900593;0.0;0.41985148;20553.439
  8.2010406E-01;  9.9999998E-03; -1.4036603E-01;2308;0.034882531;0.0;-0.092336327;1014.7278;  4.0891364E-01;12195.978;3;4.8243341;0.0;13.17711;0;2.4506416;  9.8973711E+03;  0.0000000E+00; -4.1892740E-06;  1.0000000E+04;  0.0000000E+00;  9.9547871E+03;1.9866681;0.0;0.46397364;21290.564
  8.2010007E-01;  9.9999998E-03; -1.2031583E-01;2309;0.033902142;0.0;-0.082675219;1014.751;  4.0891305E-01;12215.229;3;5.0782523;0.0;13.447887;0;2.4909031;  9.8994824E+03;  0.0000000E+00; -5.6789991E-06;  1.0000000E+04;  0.0000000E+00;  9.9531416E+03;1.9782205;0.0;0.51268262;22056.385
  8.2009655E-01;  9.9999998E-03; -1.0026440E-01;2310;0.032908753;0.0;-0.072475731;1014.7748;  4.0891242E-01;12234.873;3;5.2116637;0.0;12.637294;0;2.5355108;  9.9014668E+03;  0.0000000E+00; -5.7001257E-06;  1.0000000E+04;  0.0000000E+00;  9.9516416E+03;1.9681206;0.0;0.56739026;22743.719
  8.2009369E-01;  9.9999998E-03; -8.0213882E-02;2311;0.031983916;0.0;-0.061549835;1014.7966;  4.0891206E-01;12252.938;3;5.2516789;0.0;10.987435;0;2.5856776;  9.9031973E+03;  0.0000000E+00; -4.9407422E-06;  1.0000000E+04;  0.0000000E+00;  9.9503525E+03;1.9582349;0.0;0.62744278;23316.404
  8.2009149E-01;  9.9999998E-03; -6.0163539E-02;2312;0.031198652;0.0;-0.049141597;1014.812;  4.0891165E-01;12265.672;3;5.2335944;0.0;8.7346125;0;2.6383922;  9.9045938E+03;  0.0000000E+00; -3.5337873E-06;  1.0000000E+04;  0.0000000E+00;  9.9492686E+03;1.9495735;0.0;0.68881869;23782.709
  8.2008994E-01;  9.9999998E-03; -4.0111564E-02;2313;0.030604117;0.0;-0.034622569;1014.8198;  4.0891129E-01;12272.089;3;5.1920838;0.0;6.061152;0;2.6863241;  9.9056250E+03;  0.0000000E+00; -1.8696669E-06;  1.0000000E+04;  0.0000000E+00;  9.9484014E+03;1.9427993;0.0;0.74352485;24148.479
  8.2008904E-01;  9.9999998E-03; -2.0056831E-02;2314;0.030234028;0.0;-0.01798016;1014.8216;  4.0891111E-01;12273.668;3;5.1548977;0.0;3.1046019;0;2.7202673;  9.9062539E+03;  0.0000000E+00; -5.2125785E-07;  1.0000000E+04;  0.0000000E+00;  9.9478125E+03;1.9384638;0.0;0.78180361;24393.775
  8.4021634E-01;  9.9999998E-03; -1.8043472E-01;2337;0.076877028;0.0;-0.10613731;1014.7728;  4.0876985E-01;12231.166;3;13.25316;0.0;7.8145962;0;2.256391;  9.9019697E+03;  0.0000000E+00;  6.8763089E-05;  1.0000000E+04;  0.0000000E+00;  9.9580381E+03;1.8721912;0.0;0.38419992;19734.668
  8.4020919E-01;  9.9999998E-03; -1.6040029E-01;2338;0.075903185;0.0;-0.099080123;1014.8071;  4.0876913E-01;12259.593;3;13.991589;0.0;10.587273;0;2.2914069;  9.9037373E+03;  0.0000000E+00;  1.9415193E-05;  1.0000000E+04;  0.0000000E+00;  9.9569629E+03;1.8694407;0.0;0.42196622;20230.799
  8.4020233E-01;  9.9999998E-03; -1.4035791E-01;2339;0.074873209;0.0;-0.090635195;1014.8398;  4.0876842E-01;12286.735;3;14.770706;0.0;12.334015;0;2.3206897;  9.9058154E+03;  0.0000000E+00;  4.0468349E-06;  1.0000000E+04;  0.0000000E+00;  9.9555469E+03;1.8587976;0.0;0.46189213;20893.578
  8.4019619E-01;  9.9999998E-03; -1.2030843E-01;2340;0.073851898;0.0;-0.080800645;1014.868;  4.0876800E-01;12310.029;3;15.514611;0.0;12.869523;0;2.3518424;  9.9079150E+03;  0.0000000E+00; -1.2252308E-06;  1.0000000E+04;  0.0000000E+00;  9.9540234E+03;1.8452349;0.0;0.50660765;21605.801
  8.4019089E-01;  9.9999998E-03; -1.0025799E-01;2341;0.072868042;0.0;-0.070590623;1014.893;  4.0876743E-01;12330.756;3;16.171591;0.0;12.294079;0;2.3896306;  9.9098428E+03;  0.0000000E+00; -3.6277879E-06;  1.0000000E+04;  0.0000000E+00;  9.9525977E+03;1.8318516;0.0;0.55777901;22257.832
  8.4018648E-01;  9.9999998E-03; -8.0208614E-02;2342;0.071960971;0.0;-0.059819184;1014.913;  4.0876707E-01;12347.24;3;16.715418;0.0;10.821149;0;2.4350154;  9.9114932E+03;  0.0000000E+00; -4.5389202E-06;  1.0000000E+04;  0.0000000E+00;  9.9513525E+03;1.8201243;0.0;0.61489123;22810.699
  8.4018308E-01;  9.9999998E-03; -6.0159530E-02;2343;0.071177855;0.0;-0.047708351;1014.9254;  4.0876651E-01;12357.505;3;17.136196;0.0;8.6804857;0;2.4845862;  9.9128115E+03;  0.0000000E+00; -3.9000593E-06;  1.0000000E+04;  0.0000000E+00;  9.9502871E+03;1.8106332;0.0;0.67395312;23268.662
  8.4018058E-01;  9.9999998E-03; -4.0108860E-02;2344;0.070567533;0.0;-0.033599168;1014.9297;  4.0876627E-01;12361.06;3;17.432686;0.0;6.0614262;0;2.5306108;  9.9137695E+03;  0.0000000E+00; -2.2411407E-06;  1.0000000E+04;  0.0000000E+00;  9.9494268E+03;1.8036307;0.0;0.72698015;23632.793
  8.4017903E-01;  9.9999998E-03; -2.0055465E-02;2345;0.070177026;0.0;-0.017446952;1014.929;  4.0876609E-01;12360.566;3;17.607929;0.0;3.1162179;0;2.5635505;  9.9143496E+03;  0.0000000E+00; -6.4017257E-07;  1.0000000E+04;  0.0000000E+00;  9.9488398E+03;1.7993138;0.0;0.76423657;23878.963
  8.6032206E-01;  9.9999998E-03; -1.8042289E-01;2368;0.11920837;0.0;-0.10493568;1014.5773;  4.0848485E-01;12066.596;3;23.702299;0.0;6.0723944;0;2.1223164;  9.9112627E+03;  0.0000000E+00;  1.1070401E-04;  1.0000000E+04;  0.0000000E+00;  9.9587725E+03;1.7346126;0.0;0.38770381;19335.635
  8.6031175E-01;  9.9999998E-03; -1.6038857E-01;2369;0.11748029;0.0;-0.097472787;1014.634;  4.0848407E-01;12113.567;3;24.425377;0.0;8.9758825;0;2.1425362;  9.9133008E+03;  0.0000000E+00;  3.1613905E-05;  1.0000000E+04;  0.0000000E+00;  9.9578701E+03;1.7199686;0.0;0.42256749;19749.301
  8.6030221E-01;  9.9999998E-03; -1.4034675E-01;2370;0.11593174;0.0;-0.088707194;1014.6821;  4.0848348E-01;12153.336;3;25.356251;0.0;10.930294;0;2.1589634;  9.9155117E+03;  0.0000000E+00;  1.1934808E-05;  1.0000000E+04;  0.0000000E+00;  9.9566270E+03;1.7001762;0.0;0.45878723;20331.176
  8.6029381E-01;  9.9999998E-03; -1.2029826E-01;2371;0.11460762;0.0;-0.078695193;1014.7201;  4.0848300E-01;12184.815;3;26.378801;0.0;11.720978;0;2.1791508;  9.9176377E+03;  0.0000000E+00;  6.1069195E-06;  1.0000000E+04;  0.0000000E+00;  9.9552520E+03;1.6799176;0.0;0.49923319;20969.869
  8.6028671E-01;  9.9999998E-03; -1.0024913E-01;2372;0.11346945;0.0;-0.068471834;1014.7502;  4.0848264E-01;12209.782;3;27.390291;0.0;11.403111;0;2.2078233;  9.9195332E+03;  0.0000000E+00;  3.1325994E-06;  1.0000000E+04;  0.0000000E+00;  9.9539629E+03;1.6618587;0.0;0.54596472;21560.215
  8.6028093E-01;  9.9999998E-03; -8.0201291E-02;2373;0.11249037;0.0;-0.057856083;1014.7723;  4.0848222E-01;12228.038;3;28.309834;0.0;10.163862;0;2.2458739;  9.9211230E+03;  0.0000000E+00;  7.1969288E-07;  1.0000000E+04;  0.0000000E+00;  9.9528223E+03;1.6470367;0.0;0.59883726;22065.451
  8.6027634E-01;  9.9999998E-03; -6.0153864E-02;2374;0.11166975;0.0;-0.046060365;1014.7848;  4.0848193E-01;12238.399;3;29.077606;0.0;8.225008;0;2.289813;  9.9223672E+03;  0.0000000E+00; -6.4851508E-07;  1.0000000E+04;  0.0000000E+00;  9.9518340E+03;1.6356412;0.0;0.65417171;22489.439
  8.6027306E-01;  9.9999998E-03; -4.0104985E-02;2375;0.11103361;0.0;-0.032406684;1014.7888;  4.0848154E-01;12241.657;3;29.651785;0.0;5.7775002;0;2.331847;  9.9232646E+03;  0.0000000E+00; -7.0032195E-07;  1.0000000E+04;  0.0000000E+00;  9.9510234E+03;1.6275793;0.0;0.70426756;22831.369
  8.6027098E-01;  9.9999998E-03; -2.0053493E-02;2376;0.11062478;0.0;-0.016819773;1014.7873;  4.0848145E-01;12240.473;3;30.005562;0.0;2.9805899;0;2.3623996;  9.9238027E+03;  0.0000000E+00; -2.3930821E-07;  1.0000000E+04;  0.0000000E+00;  9.9504619E+03;1.6227585;0.0;0.73964107;23065.039
  8.8042319E-01;  9.9999998E-03; -1.8040697E-01;2399;0.16045015;0.0;-0.1027657;1014.2165;  4.0807599E-01;11764.438;3;34.378044;0.0;4.3046656;0;1.9295133;  9.9229834E+03;  0.0000000E+00;  1.2966929E-04;  1.0000000E+04;  0.0000000E+00;  9.9599043E+03;1.5423841;0.0;0.38712919;18739.43
  8.8040954E-01;  9.9999998E-03; -1.6037323E-01;2400;0.15769459;0.0;-0.095080107;1014.2962;  4.0807524E-01;11830.338;3;34.943008;0.0;7.2387624;0;1.9355204;  9.9253369E+03;  0.0000000E+00;  2.1183383E-05;  1.0000000E+04;  0.0000000E+00;  9.9591338E+03;1.5155206;0.0;0.41999981;19090.104
  8.8039720E-01;  9.9999998E-03; -1.4033239E-01;2401;0.15539637;0.0;-0.086151563;1014.3599;  4.0807503E-01;11883.116;3;35.866848;0.0;9.3073635;0;1.9397867;  9.9276953E+03;  0.0000000E+00;  2.8587774E-06;  1.0000000E+04;  0.0000000E+00;  9.9580430E+03;1.4866307;0.0;0.45315599;19598.324
  8.8038659E-01;  9.9999998E-03; -1.2028536E-01;2402;0.15358169;0.0;-0.076103739;1014.4077;  4.0807450E-01;11922.677;3;37.008518;0.0;10.278711;0;1.9492569;  9.9298555E+03;  0.0000000E+00;  1.1106151E-06;  1.0000000E+04;  0.0000000E+00;  9.9568350E+03;1.4597431;0.0;0.4895137;20159.367
  8.8037777E-01;  9.9999998E-03; -1.0023799E-01;2403;0.15214328;0.0;-0.065977782;1014.444;  4.0807411E-01;11952.667;3;38.225437;0.0;10.175887;0;1.9683945;  9.9317129E+03;  0.0000000E+00;  1.2820395E-06;  1.0000000E+04;  0.0000000E+00;  9.9556982E+03;1.4368834;0.0;0.53151101;20676.287
  8.8037056E-01;  9.9999998E-03; -8.0192074E-02;2404;0.15098558;0.0;-0.055599;1014.4697;  4.0807378E-01;11973.878;3;39.391369;0.0;9.1687756;0;1.9981217;  9.9332373E+03;  0.0000000E+00;  4.8037509E-07;  1.0000000E+04;  0.0000000E+00;  9.9546973E+03;1.4186329;0.0;0.57948881;21118.021
  8.8036495E-01;  9.9999998E-03; -6.0146734E-02;2405;0.15005653;0.0;-0.044185359;1014.4844;  4.0807348E-01;11986.111;3;40.402023;0.0;7.4717507;0;2.0351305;  9.9344092E+03;  0.0000000E+00; -4.2279419E-07;  1.0000000E+04;  0.0000000E+00;  9.9538213E+03;1.4048705;0.0;0.63025987;21491.355
  8.8036084E-01;  9.9999998E-03; -4.0100090E-02;2406;0.14935257;0.0;-0.031054934;1014.489;  4.0807328E-01;11989.96;3;41.178204;0.0;5.2721615;0;2.0719116;  9.9352480E+03;  0.0000000E+00; -5.0874496E-07;  1.0000000E+04;  0.0000000E+00;  9.9530879E+03;1.3952892;0.0;0.67662233;21796.695
  8.8035834E-01;  9.9999998E-03; -2.0050993E-02;2407;0.1489045;0.0;-0.016109476;1014.4884;  4.0807313E-01;11989.467;3;41.665226;0.0;2.7269979;0;2.0991743;  9.9357480E+03;  0.0000000E+00; -1.6078900E-07;  1.0000000E+04;  0.0000000E+00;  9.9525752E+03;1.3896321;0.0;0.70954221;22008.25
  9.0051234E-01;  9.9999998E-03; -1.8038669E-01;2430;0.19768594;0.0;-0.099216193;1013.7734;  4.0756586E-01;11393.111;3;44.587391;0.0;2.7805433;0;1.6657398;  9.9376680E+03;  0.0000000E+00;  1.0000009E-04;  1.0000000E+04;  0.0000000E+00;  9.9614434E+03;1.2837301;0.0;0.38200963;17940.785
  9.0049553E-01;  9.9999998E-03; -1.6035412E-01;2431;0.19390374;0.0;-0.091544509;1013.8725;  4.0756521E-01;11475.06;3;44.977074;0.0;5.6555743;0;1.6594703;  9.9403076E+03;  0.0000000E+00; -1.6425436E-05;  1.0000000E+04;  0.0000000E+00;  9.9607656E+03;1.2461416;0.0;0.41332877;18247.324
  9.0048057E-01;  9.9999998E-03; -1.4031482E-01;2432;0.19081098;0.0;-0.082682148;1013.9472;  4.0756491E-01;11536.891;3;45.831432;0.0;7.7327576;0;1.6539445;  9.9427510E+03;  0.0000000E+00; -2.2736966E-05;  1.0000000E+04;  0.0000000E+00;  9.9598057E+03;1.2100435;0.0;0.44390088;18694.266
  9.0046781E-01;  9.9999998E-03; -1.2026981E-01;2433;0.18842025;0.0;-0.072808579;1014.0008;  4.0756464E-01;11581.169;3;46.996086;0.0;8.7844706;0;1.6547818;  9.9448740E+03;  0.0000000E+00; -1.5953650E-05;  1.0000000E+04;  0.0000000E+00;  9.9587441E+03;1.1782755;0.0;0.47650632;19182.705
  9.0045726E-01;  9.9999998E-03; -1.0022467E-01;2434;0.18657413;0.0;-0.062951811;1014.0405;  4.0756416E-01;11614.008;3;48.30476;0.0;8.8204079;0;1.6658025;  9.9466406E+03;  0.0000000E+00; -1.0294562E-05;  1.0000000E+04;  0.0000000E+00;  9.9577725E+03;1.151957;0.0;0.51384538;19624.988
  9.0044874E-01;  9.9999998E-03; -8.0181122E-02;2435;0.18512759;0.0;-0.052944601;1014.0681;  4.0756389E-01;11636.887;3;49.602222;0.0;8.0044785;0;1.6878872;  9.9480547E+03;  0.0000000E+00; -7.0841347E-06;  1.0000000E+04;  0.0000000E+00;  9.9569160E+03;1.1311502;0.0;0.55673689;19997.484
  9.0044206E-01;  9.9999998E-03; -6.0138270E-02;2436;0.18399511;0.0;-0.042023022;1014.0841;  4.0756375E-01;11650.103;3;50.753899;0.0;6.5469913;0;1.7180607;  9.9491309E+03;  0.0000000E+00; -4.8434822E-06;  1.0000000E+04;  0.0000000E+00;  9.9561689E+03;1.1154987;0.0;0.60256207;20312.107
  9.0043718E-01;  9.9999998E-03; -4.0094282E-02;2437;0.18315373;0.0;-0.029513983;1014.0903;  4.0756357E-01;11655.231;3;51.653324;0.0;4.6288295;0;1.7493708;  9.9498896E+03;  0.0000000E+00; -2.5232519E-06;  1.0000000E+04;  0.0000000E+00;  9.9555313E+03;1.1046096;0.0;0.64476115;20572.945
  9.0043420E-01;  9.9999998E-03; -2.0048030E-02;2438;0.18262523;0.0;-0.015304447;1014.0902;  4.0756357E-01;11655.134;3;52.224243;0.0;2.3967724;0;1.7730895;  9.9503408E+03;  0.0000000E+00; -6.5587074E-07;  1.0000000E+04;  0.0000000E+00;  9.9550850E+03;1.0981892;0.0;0.67490029;20756.715
  9.2057610E-01;  9.9999998E-03; -1.8036270E-01;2461;0.22661322;0.0;-0.094318122;1013.2597;  4.0698060E-01;10962.081;3;53.946182;0.0;1.6176444;0;1.3501253;  9.9543027E+03;  0.0000000E+00;  2.9020037E-05;  1.0000000E+04;  0.0000000E+00;  9.9633486E+03;0.97749257;0.0;0.37263274;16957.271
  9.2055362E-01;  9.9999998E-03; -1.6033170E-01;2462;0.22102971;0.0;-0.086826108;1013.3698;  4.0698034E-01;11053.152;3;54.213856;0.0;4.3665614;0;1.335032;  9.9570908E+03;  0.0000000E+00; -5.6977406E-05;  1.0000000E+04;  0.0000000E+00;  9.9627334E+03;0.93249446;0.0;0.40253758;17234.9
  9.2053413E-01;  9.9999998E-03; -1.4029439E-01;2463;0.21644253;0.0;-0.078214586;1013.4469;  4.0697998E-01;11116.923;3;54.981518;0.0;6.3628235;0;1.323529;  9.9594834E+03;  0.0000000E+00; -4.3894805E-05;  1.0000000E+04;  0.0000000E+00;  9.9618711E+03;0.89267665;0.0;0.43085238;17633.266
  9.2051774E-01;  9.9999998E-03; -1.2025192E-01;2464;0.21277748;0.0;-0.068715326;1013.4991;  4.0697974E-01;11160.096;3;56.051426;0.0;7.3992615;0;1.3192669;  9.9614512E+03;  0.0000000E+00; -2.9820743E-05;  1.0000000E+04;  0.0000000E+00;  9.9609453E+03;0.85917389;0.0;0.46009302;18058.059
  9.2050403E-01;  9.9999998E-03; -1.0020956E-01;2465;0.2098311;0.0;-0.059313599;1013.5369;  4.0697959E-01;11191.342;3;57.289757;0.0;7.4935074;0;1.3250279;  9.9630254E+03;  0.0000000E+00; -2.0977790E-05;  1.0000000E+04;  0.0000000E+00;  9.9601133E+03;0.83197385;0.0;0.49305415;18430.449
  9.2049283E-01;  9.9999998E-03; -8.0168881E-02;2466;0.20745845;0.0;-0.04983731;1013.5626;  4.0697938E-01;11212.534;3;58.493187;0.0;6.8137383;0;1.3415138;  9.9642510E+03;  0.0000000E+00; -1.4996276E-05;  1.0000000E+04;  0.0000000E+00;  9.9594033E+03;0.8105647;0.0;0.53094906;18734.639
  9.2048401E-01;  9.9999998E-03; -6.0128942E-02;2467;0.20561038;0.0;-0.039540462;1013.5776;  4.0697908E-01;11224.955;3;59.557388;0.0;5.5680861;0;1.3661411;  9.9651709E+03;  0.0000000E+00; -9.7818856E-06;  1.0000000E+04;  0.0000000E+00;  9.9587900E+03;0.79440314;0.0;0.57173795;18988.703
  9.2047769E-01;  9.9999998E-03; -4.0087949E-02;2468;0.20427154;0.0;-0.027765142;1013.5829;  4.0697911E-01;11229.393;3;60.371445;0.0;3.9333389;0;1.392683;  9.9658145E+03;  0.0000000E+00; -4.8135407E-06;  1.0000000E+04;  0.0000000E+00;  9.9582578E+03;0.7830956;0.0;0.60958743;19201.895
  9.2047387E-01;  9.9999998E-03; -2.0044813E-02;2469;0.20346829;0.0;-0.014396248;1013.5827;  4.0697894E-01;11229.197;3;60.890202;0.0;2.0352983;0;1.4131689;  9.9661943E+03;  0.0000000E+00; -1.2448467E-06;  1.0000000E+04;  0.0000000E+00;  9.9578750E+03;0.77639848;0.0;0.63677037;19355.012
  9.4059342E-01;  9.9999998E-03; -1.8033691E-01;2492;0.23781759;0.0;-0.088950202;1012.6295;  4.0634903E-01;10433.405;3;60.853725;0.0;0.59509748;0;1.0266123;  9.9706738E+03;  0.0000000E+00; -2.6931024E-05;  1.0000000E+04;  0.0000000E+00;  9.9655391E+03;0.6669966;0.0;0.35961565;15821.198
  9.4056815E-01;  9.9999998E-03; -1.6030729E-01;2493;0.2310379;0.0;-0.081483833;1012.7401;  4.0634882E-01;10524.807;3;60.7071;0.0;3.1881316;0;1.006999;  9.9734395E+03;  0.0000000E+00; -6.2117484E-05;  1.0000000E+04;  0.0000000E+00;  9.9649590E+03;0.61882609;0.0;0.38817298;16080.939
  9.4054663E-01;  9.9999998E-03; -1.4027213E-01;2494;0.2253252;0.0;-0.073126622;1012.8109;  4.0634865E-01;10583.314;3;60.958786;0.0;5.0635352;0;0.99371028;  9.9756328E+03;  0.0000000E+00; -3.7871279E-05;  1.0000000E+04;  0.0000000E+00;  9.9641660E+03;0.57915366;0.0;0.41455662;16442.076
  9.4052851E-01;  9.9999998E-03; -1.2023254E-01;2495;0.2206229;0.0;-0.064082988;1012.8552;  4.0634844E-01;10619.857;3;61.44318;0.0;6.0608182;0;0.98809689;  9.9773369E+03;  0.0000000E+00; -2.5840387E-05;  1.0000000E+04;  0.0000000E+00;  9.9633457E+03;0.54720294;0.0;0.44089395;16813.402
  9.4051349E-01;  9.9999998E-03; -1.0019327E-01;2496;0.21678805;0.0;-0.055208825;1012.8852;  4.0634844E-01;10644.683;3;62.043491;0.0;6.1824174;0;0.99166942;  9.9786318E+03;  0.0000000E+00; -2.0130545E-05;  1.0000000E+04;  0.0000000E+00;  9.9626475E+03;0.52177256;0.0;0.46989682;17123.752
  9.4050127E-01;  9.9999998E-03; -8.0155700E-02;2497;0.21372049;0.0;-0.046309985;1012.9058;  4.0634826E-01;10661.627;3;62.651546;0.0;5.6531892;0;1.0048561;  9.9796143E+03;  0.0000000E+00; -1.5493730E-05;  1.0000000E+04;  0.0000000E+00;  9.9620713E+03;0.5018059;0.0;0.50305027;17364.5
  9.4049180E-01;  9.9999998E-03; -6.0118865E-02;2498;0.21138057;0.0;-0.03668626;1012.9171;  4.0634814E-01;10671.086;3;63.250511;0.0;4.6362486;0;1.0255026;  9.9803350E+03;  0.0000000E+00; -1.0394007E-05;  1.0000000E+04;  0.0000000E+00;  9.9615850E+03;0.48662865;0.0;0.53887391;17559.863
  9.4048506E-01;  9.9999998E-03; -4.0081073E-02;2499;0.2097391;0.0;-0.025731649;1012.921;  4.0634814E-01;10674.239;3;63.76281;0.0;3.2820292;0;1.048224;  9.9808340E+03;  0.0000000E+00; -5.0591616E-06;  1.0000000E+04;  0.0000000E+00;  9.9611611E+03;0.47590938;0.0;0.57231462;17724.992
  9.4048101E-01;  9.9999998E-03; -2.0041298E-02;2500;0.20876628;0.0;-0.013328995;1012.9196;  4.0634808E-01;10673.158;3;64.112579;0.0;1.7007511;0;1.065956;  9.9811270E+03;  0.0000000E+00; -1.2743178E-06;  1.0000000E+04;  0.0000000E+00;  9.9608486E+03;0.46951261;0.0;0.59644336;17846.102
  9.6059388E-01;  9.9999998E-03; -1.8031064E-01;2523;0.24036995;0.0;-0.083630018;1011.837;  4.0569854E-01;9768.9795;3;63.515045;0.0;-0.64944577;0;0.73903155;  9.9846455E+03;  0.0000000E+00; -2.7215996E-05;  1.0000000E+04;  0.0000000E+00;  9.9679102E+03;0.39572564;0.0;0.34330595;14568.275
  9.6056777E-01;  9.9999998E-03; -1.6028246E-01;2524;0.23315655;0.0;-0.076175369;1011.941;  4.0569821E-01;9854.7842;3;63.105858;0.0;1.8709221;0;0.71878529;  9.9872637E+03;  0.0000000E+00; -2.5119218E-05;  1.0000000E+04;  0.0000000E+00;  9.9673457E+03;0.34802926;0.0;0.37075606;14818.683
  9.6054566E-01;  9.9999998E-03; -1.4024951E-01;2525;0.22702666;0.0;-0.068042047;1012.0005;  4.0569821E-01;9903.9873;3;63.029434;0.0;3.7025452;0;0.70694965;  9.9891895E+03;  0.0000000E+00; -8.4000112E-06;  1.0000000E+04;  0.0000000E+00;  9.9666006E+03;0.31125045;0.0;0.3956992;15152.782
  9.6052706E-01;  9.9999998E-03; -1.2021286E-01;2526;0.22192444;0.0;-0.05944204;1012.0333;  4.0569812E-01;9931.0537;3;63.124783;0.0;4.6919651;0;0.70265603;  9.9905762E+03;  0.0000000E+00; -7.7704108E-06;  1.0000000E+04;  0.0000000E+00;  9.9658682E+03;0.28290698;0.0;0.41974905;15481.481
  9.6051157E-01;  9.9999998E-03; -1.0017663E-01;2527;0.21776499;0.0;-0.051058251;1012.0538;  4.0569803E-01;9947.9834;3;63.454391;0.0;4.8772211;0;0.70615786;  9.9915801E+03;  0.0000000E+00; -9.5912683E-06;  1.0000000E+04;  0.0000000E+00;  9.9652705E+03;0.26078242;0.0;0.44537544;15739.977
  9.6049905E-01;  9.9999998E-03; -8.0142029E-02;2528;0.21441622;0.0;-0.042684313;1012.0678;  4.0569803E-01;9959.502;3;63.899754;0.0;4.4840655;0;0.71762836;  9.9923076E+03;  0.0000000E+00; -9.2755636E-06;  1.0000000E+04;  0.0000000E+00;  9.9648164E+03;0.24342324;0.0;0.47420511;15925.294
  9.6048933E-01;  9.9999998E-03; -6.0108241E-02;2529;0.21183655;0.0;-0.033717103;1012.0751;  4.0569797E-01;9965.5088;3;64.310356;0.0;3.6802597;0;0.73537892;  9.9928330E+03;  0.0000000E+00; -6.7620681E-06;  1.0000000E+04;  0.0000000E+00;  9.9644453E+03;0.23010047;0.0;0.50527847;16066.838
  9.6048248E-01;  9.9999998E-03; -4.0073730E-02;2530;0.21002397;0.0;-0.023610288;1012.0768;  4.0569797E-01;9966.9883;3;64.648582;0.0;2.6035864;0;0.75493503;  9.9931895E+03;  0.0000000E+00; -3.3222534E-06;  1.0000000E+04;  0.0000000E+00;  9.9641270E+03;0.22057877;0.0;0.53435624;16185.702
  9.6047843E-01;  9.9999998E-03; -2.0037554E-02;2531;0.2089576;0.0;-0.01223758;1012.075;  4.0569782E-01;9965.417;3;64.879883;0.0;1.3437651;0;0.77023375;  9.9933936E+03;  0.0000000E+00; -8.0090666E-07;  1.0000000E+04;  0.0000000E+00;  9.9638857E+03;0.21484132;0.0;0.55539244;16274.727
  9.8058832E-01;  9.9999998E-03; -1.8028523E-01;2554;0.2401644;0.0;-0.078644738;1010.8826;  4.0505391E-01;8969.3164;3;64.530151;0.0;-1.8930755;0;0.51231837;  9.9950664E+03;  0.0000000E+00; -1.5041451E-06;  1.0000000E+04;  0.0000000E+00;  9.9703857E+03;0.18856241;0.0;0.32375595;13235.341
  9.8056161E-01;  9.9999998E-03; -1.6025878E-01;2555;0.23267215;0.0;-0.071423605;1010.9776;  4.0505376E-01;9047.6416;3;64.033142;0.0;0.49279517;0;0.49393624;  9.9975195E+03;  0.0000000E+00;  1.4882343E-05;  1.0000000E+04;  0.0000000E+00;  9.9698184E+03;0.14338252;0.0;0.35055372;13482.396
  9.8053902E-01;  9.9999998E-03; -1.4022797E-01;2556;0.2262796;0.0;-0.063521594;1011.0262;  4.0505376E-01;9087.6445;3;63.794483;0.0;2.2594419;0;0.48517734;  9.9991943E+03;  0.0000000E+00;  1.6020440E-05;  1.0000000E+04;  0.0000000E+00;  9.9691035E+03;0.11042937;0.0;0.37474796;13797.816
  9.8052007E-01;  9.9999998E-03; -1.2019405E-01;2557;0.22096187;0.0;-0.055274885;1011.0487;  4.0505373E-01;9106.2275;3;63.786411;0.0;3.2000256;0;0.48329893;  1.0000320E+04;  0.0000000E+00;  7.0377814E-06;  1.0000000E+04;  0.0000000E+00;  9.9684268E+03;0.085989915;0.0;0.39730901;14094.646
  9.8050439E-01;  9.9999998E-03; -1.0016064E-01;2558;0.2165854;0.0;-0.047250226;1011.0609;  4.0505373E-01;9116.3584;3;64.036339;0.0;3.5064952;0;0.48753688;  1.0001084E+04;  0.0000000E+00;  3.0895441E-07;  1.0000000E+04;  0.0000000E+00;  9.9679063E+03;0.067203164;0.0;0.42033371;14313.375
  9.8049176E-01;  9.9999998E-03; -8.0128908E-02;2559;0.2130415;0.0;-0.039328851;1011.0696;  4.0505382E-01;9123.4414;3;64.332573;0.0;3.3090632;0;0.49789509;  1.0001611E+04;  0.0000000E+00; -2.6645314E-06;  1.0000000E+04;  0.0000000E+00;  9.9675488E+03;0.052435581;0.0;0.44545951;14454.551
  9.8048204E-01;  9.9999998E-03; -6.0098052E-02;2560;0.21028987;0.0;-0.030949835;1011.0746;  4.0505368E-01;9127.5742;3;64.6577;0.0;2.7508867;0;0.51317489;  1.0001977E+04;  0.0000000E+00; -2.7413214E-06;  1.0000000E+04;  0.0000000E+00;  9.9672813E+03;0.040992618;0.0;0.47218224;14550.689
  9.8047513E-01;  9.9999998E-03; -4.0066652E-02;2561;0.20832565;0.0;-0.021591781;1011.075;  4.0505365E-01;9127.9736;3;64.925934;0.0;1.9432851;0;0.52980906;  1.0002217E+04;  0.0000000E+00; -1.4586204E-06;  1.0000000E+04;  0.0000000E+00;  9.9670547E+03;0.032727219;0.0;0.49708185;14627.935
  9.8047101E-01;  9.9999998E-03; -2.0033866E-02;2562;0.2071507;0.0;-0.01114498;1011.0732;  4.0505370E-01;9126.5029;3;65.114769;0.0;1.0042492;0;0.54278105;  1.0002356E+04;  0.0000000E+00; -3.3051143E-07;  1.0000000E+04;  0.0000000E+00;  9.9668828E+03;0.027704969;0.0;0.5150761;14686.685
  1.0005798E+00;  9.9999998E-03; -1.8026108E-01;2585;0.2387742;0.0;-0.073668756;1009.8138;  4.0443632E-01;8073.8726;3;64.983139;0.0;-2.8762143;0;0.34940955;  1.0001912E+04;  0.0000000E+00; -1.4503872E-04;  1.0000000E+04;  0.0000000E+00;  9.9728721E+03;0.048331849;0.0;0.30107769;11863.705
  1.0005527E+00;  9.9999998E-03; -1.6023706E-01;2586;0.23099512;0.0;-0.067059614;1009.9022;  4.0443638E-01;8146.667;3;64.362862;0.0;-0.71217334;0;0.33389002;  1.0004233E+04;  0.0000000E+00;  8.0610462E-06;  1.0000000E+04;  0.0000000E+00;  9.9723057E+03;0.0062095118;0.0;0.3276805;12106.123
  1.0005292E+00;  9.9999998E-03; -1.4020869E-01;2587;0.22429505;0.0;-0.059671149;1009.9439;  4.0443632E-01;8181.0132;3;64.193039;0.0;0.88471711;0;0.32831377;  1.0005758E+04;  0.0000000E+00;  7.0683427E-06;  1.0000000E+04;  0.0000000E+00;  9.9716055E+03;-0.023548029;0.0;0.3518618;12406.48
  1.0005099E+00;  9.9999998E-03; -1.2017763E-01;2588;0.21868086;0.0;-0.051910646;1009.9603;  4.0443626E-01;8194.4658;3;64.161392;0.0;1.8640308;0;0.32864448;  1.0006731E+04;  0.0000000E+00;  4.6455134E-06;  1.0000000E+04;  0.0000000E+00;  9.9709629E+03;-0.045175251;0.0;0.37381974;12679.878
  1.0004941E+00;  9.9999998E-03; -1.0014687E-01;2589;0.21408165;0.0;-0.044267364;1009.9686;  4.0443644E-01;8201.3447;3;64.226456;0.0;2.2377307;0;0.33343041;  1.0007356E+04;  0.0000000E+00;  3.0671029E-06;  1.0000000E+04;  0.0000000E+00;  9.9704990E+03;-0.06173002;0.0;0.39516044;12871.42
  1.0004816E+00;  9.9999998E-03; -8.0117568E-02;2590;0.21035793;0.0;-0.036702666;1009.9745;  4.0443641E-01;8206.1611;3;64.404778;0.0;2.1391995;0;0.34261173;  1.0007768E+04;  0.0000000E+00;  9.1405684E-07;  1.0000000E+04;  0.0000000E+00;  9.9702051E+03;-0.074783124;0.0;0.41739485;12982.376
  1.0004718E+00;  9.9999998E-03; -6.0089052E-02;2591;0.20741576;0.0;-0.028684951;1009.9784;  4.0443641E-01;8209.4053;3;64.626083;0.0;1.754998;0;0.35543987;  1.0008035E+04;  0.0000000E+00; -5.6650561E-07;  1.0000000E+04;  0.0000000E+00;  9.9700098E+03;-0.084929116;0.0;0.44036898;13045.186
  1.0004648E+00;  9.9999998E-03; -4.0060293E-02;2592;0.20527208;0.0;-0.019871967;1009.9795;  4.0443641E-01;8210.2939;3;64.80117;0.0;1.2609471;0;0.36917585;  1.0008207E+04;  0.0000000E+00; -6.2516244E-07;  1.0000000E+04;  0.0000000E+00;  9.9698633E+03;-0.0922748;0.0;0.46145067;13088.986
  1.0004605E+00;  9.9999998E-03; -2.0030556E-02;2593;0.20397188;0.0;-0.010216901;1009.9785;  4.0443653E-01;8209.415;3;64.92083;0.0;0.65688705;0;0.37982583;  1.0008304E+04;  0.0000000E+00; -1.9052320E-07;  1.0000000E+04;  0.0000000E+00;  9.9697549E+03;-0.096748061;0.0;0.47657388;13121.813
  1.0205698E+00;  9.9999998E-03; -1.8023871E-01;2616;0.23664178;0.0;-0.069263183;1008.7016;  4.0386271E-01;7141.6045;3;65.21096;0.0;-3.7832565;0;0.23886907;  1.0005851E+04;  0.0000000E+00; -2.8941932E-03;  1.0000000E+04;  0.0000000E+00;  9.9752695E+03;-0.037130114;0.0;0.27599919;10504.532
  1.0205418E+00;  9.9999998E-03; -1.6021647E-01;2617;0.22855614;0.0;-0.062837705;1008.7885;  4.0386263E-01;7212.9565;3;64.44754;0.0;-1.7398297;0;0.22606167;  1.0008101E+04;  0.0000000E+00; -1.5191631E-04;  1.0000000E+04;  0.0000000E+00;  9.9747412E+03;-0.07626155;0.0;0.30232322;10725.1
  1.0205176E+00;  9.9999998E-03; -1.4019065E-01;2618;0.2215852;0.0;-0.05590494;1008.8293;  4.0386260E-01;7246.5396;3;64.275032;0.0;-0.17577764;0;0.22270295;  1.0009594E+04;  0.0000000E+00; -4.4780929E-05;  1.0000000E+04;  0.0000000E+00;  9.9740635E+03;-0.1043118;0.0;0.32701474;11005.517
  1.0204979E+00;  9.9999998E-03; -1.2016233E-01;2619;0.21573776;0.0;-0.048652198;1008.8465;  4.0386271E-01;7260.6479;3;64.196411;0.0;0.8000831;0;0.22423913;  1.0010544E+04;  0.0000000E+00; -1.6674729E-05;  1.0000000E+04;  0.0000000E+00;  9.9734482E+03;-0.12492348;0.0;0.34916261;11258.541
  1.0204819E+00;  9.9999998E-03; -1.0013393E-01;2620;0.21096024;0.0;-0.041345879;1008.855;  4.0386274E-01;7267.6108;3;64.216255;0.0;1.161853;0;0.22888383;  1.0011152E+04;  0.0000000E+00;  4.5944020E-07;  1.0000000E+04;  0.0000000E+00;  9.9730137E+03;-0.14087084;0.0;0.36975467;11433.189
  1.0204693E+00;  9.9999998E-03; -8.0106884E-02;2621;0.20704406;0.0;-0.034075066;1008.8613;  4.0386289E-01;7272.8091;3;64.335831;0.0;1.1729298;0;0.23657866;  1.0011538E+04;  0.0000000E+00;  4.0718974E-06;  1.0000000E+04;  0.0000000E+00;  9.9727520E+03;-0.15344475;0.0;0.39002341;11528.417
  1.0204595E+00;  9.9999998E-03; -6.0080767E-02;2622;0.20391926;0.0;-0.026524054;1008.8661;  4.0386283E-01;7276.7324;3;64.457993;0.0;0.97839946;0;0.24689555;  1.0011778E+04;  0.0000000E+00;  1.9109375E-06;  1.0000000E+04;  0.0000000E+00;  9.9726035E+03;-0.16312325;0.0;0.4100188;11572.465
  1.0204524E+00;  9.9999998E-03; -4.0054530E-02;2623;0.20160733;0.0;-0.018327579;1008.8684;  4.0386280E-01;7278.6963;3;64.564796;0.0;0.67768794;0;0.2577756;  1.0011920E+04;  0.0000000E+00;  1.4544398E-07;  1.0000000E+04;  0.0000000E+00;  9.9725127E+03;-0.17005181;0.0;0.42782742;11594.402
  1.0204481E+00;  9.9999998E-03; -2.0027567E-02;2624;0.20017783;0.0;-0.0093958192;1008.8691;  4.0386283E-01;7279.1895;3;64.647293;0.0;0.34618473;0;0.26615492;  1.0011995E+04;  0.0000000E+00; -1.1130025E-07;  1.0000000E+04;  0.0000000E+00;  9.9724482E+03;-0.17423737;0.0;0.44039229;11608.452
  1.0405585E+00;  9.9999998E-03; -1.8021783E-01;2647;0.23408751;0.0;-0.064716108;1007.6164;  4.0334427E-01;6230.856;3;65.227974;0.0;-4.4368367;0;0.16452225;  1.0007799E+04;  0.0000000E+00; -1.6772907E-02;  1.0000000E+04;  0.0000000E+00;  9.9774727E+03;-0.085283503;0.0;0.24980575;9211.2539
  1.0405289E+00;  9.9999998E-03; -1.6019696E-01;2648;0.22546564;0.0;-0.058851197;1007.7048;  4.0334418E-01;6303.2529;3;64.521347;0.0;-2.7512538;0;0.15379637;  1.0009971E+04;  0.0000000E+00; -1.7271524E-03;  1.0000000E+04;  0.0000000E+00;  9.9770547E+03;-0.12121228;0.0;0.27500865;9378.4717
  1.0405042E+00;  9.9999998E-03; -1.4017391E-01;2649;0.21811512;0.0;-0.0525412;1007.7529;  4.0334409E-01;6342.5845;3;64.125031;0.0;-1.3227515;0;0.15118881;  1.0011543E+04;  0.0000000E+00; -1.3478760E-04;  1.0000000E+04;  0.0000000E+00;  9.9764453E+03;-0.14898463;0.0;0.30017343;9621.8721
  1.0404838E+00;  9.9999998E-03; -1.2014819E-01;2650;0.21199098;0.0;-0.045650765;1007.7767;  4.0334412E-01;6362.1128;3;63.949627;0.0;-0.38252047;0;0.15263048;  1.0012591E+04;  0.0000000E+00; -5.5261786E-05;  1.0000000E+04;  0.0000000E+00;  9.9758662E+03;-0.17038599;0.0;0.32301646;9849.998
  1.0404676E+00;  9.9999998E-03; -1.0012227E-01;2651;0.20698191;0.0;-0.038647685;1007.7899;  4.0334421E-01;6372.958;3;63.997993;0.0;0.18496522;0;0.15638596;  1.0013281E+04;  0.0000000E+00; -5.4950542E-06;  1.0000000E+04;  0.0000000E+00;  9.9754424E+03;-0.18727949;0.0;0.34366545;10012.905
  1.0404547E+00;  9.9999998E-03; -8.0097318E-02;2652;0.20285404;0.0;-0.03163594;1007.7988;  4.0334424E-01;6380.1895;3;64.082596;0.0;0.42480889;0;0.16237333;  1.0013716E+04;  0.0000000E+00;  9.9454564E-06;  1.0000000E+04;  0.0000000E+00;  9.9751855E+03;-0.20053139;0.0;0.36290473;10104.441
  1.0404449E+00;  9.9999998E-03; -6.0073238E-02;2653;0.19953044;0.0;-0.024451798;1007.8055;  4.0334433E-01;6385.6626;3;64.129326;0.0;0.39607331;0;0.17027013;  1.0013980E+04;  0.0000000E+00;  7.8302255E-06;  1.0000000E+04;  0.0000000E+00;  9.9750518E+03;-0.21053232;0.0;0.38080245;10144.34
  1.0404377E+00;  9.9999998E-03; -4.0049203E-02;2654;0.19704217;0.0;-0.016783588;1007.8099;  4.0334427E-01;6389.2793;3;64.155518;0.0;0.26823142;0;0.17850295;  1.0014133E+04;  0.0000000E+00;  2.8932484E-06;  1.0000000E+04;  0.0000000E+00;  9.9749893E+03;-0.21753645;0.0;0.3960394;10157.82
  1.0404334E+00;  9.9999998E-03; -2.0024795E-02;2655;0.19549251;0.0;-0.0085728588;1007.8117;  4.0334427E-01;6390.7476;3;64.145905;0.0;0.12105818;0;0.18479371;  1.0014214E+04;  0.0000000E+00;  4.7952187E-07;  1.0000000E+04;  0.0000000E+00;  9.9749512E+03;-0.22169617;0.0;0.40648988;10162.284
  1.0605460E+00;  9.9999998E-03; -1.8019712E-01;2678;0.2311981;0.0;-0.059750084;1006.6097;  4.0288761E-01;5384.1582;3;65.283333;0.0;-4.8518066;0;0.11287169;  1.0008539E+04;  0.0000000E+00; -5.8397193E-02;  1.0000000E+04;  0.0000000E+00;  9.9793818E+03;-0.11140938;0.0;0.22428107;8029.9326
  1.0605149E+00;  9.9999998E-03; -1.6017835E-01;2679;0.22189143;0.0;-0.054664265;1006.7;  4.0288764E-01;5457.6108;3;64.304276;0.0;-3.4011421;0;0.10372904;  1.0010541E+04;  0.0000000E+00; -9.4376113E-03;  1.0000000E+04;  0.0000000E+00;  9.9791719E+03;-0.14314348;0.0;0.24687251;8108.4287
  1.0604892E+00;  9.9999998E-03; -1.4015782E-01;2680;0.21408845;0.0;-0.049045824;1006.7603;  4.0288767E-01;5506.7817;3;63.887302;0.0;-2.2316675;0;0.10048293;  1.0012212E+04;  0.0000000E+00; -4.0432124E-04;  1.0000000E+04;  0.0000000E+00;  9.9787012E+03;-0.17116554;0.0;0.27164847;8287.7266
  1.0604681E+00;  9.9999998E-03; -1.2013520E-01;2681;0.20753154;0.0;-0.042886753;1006.7969;  4.0288770E-01;5536.7192;3;63.69025;0.0;-1.3614712;0;0.10058632;  1.0013451E+04;  0.0000000E+00; -1.2040865E-04;  1.0000000E+04;  0.0000000E+00;  9.9781943E+03;-0.19460148;0.0;0.2951878;8478.4268
  1.0604514E+00;  9.9999998E-03; -1.0011166E-01;2682;0.2021468;0.0;-0.036247361;1006.8192;  4.0288764E-01;5554.8037;3;63.568001;0.0;-0.83135092;0;0.10285552;  1.0014296E+04;  0.0000000E+00; -2.4970084E-05;  1.0000000E+04;  0.0000000E+00;  9.9777900E+03;-0.21352421;0.0;0.31637973;8627.0059
  1.0604384E+00;  9.9999998E-03; -8.0088675E-02;2683;0.19779491;0.0;-0.029415427;1006.8332;  4.0288776E-01;5566.2803;3;63.471008;0.0;-0.44799921;0;0.10706991;  1.0014847E+04;  0.0000000E+00;  1.3267597E-05;  1.0000000E+04;  0.0000000E+00;  9.9775215E+03;-0.22830057;0.0;0.33537048;8720.416
  1.0604284E+00;  9.9999998E-03; -6.0066331E-02;2684;0.19432798;0.0;-0.02242968;1006.8423;  4.0288776E-01;5573.7715;3;63.485611;0.0;-0.10674007;0;0.11280708;  1.0015186E+04;  0.0000000E+00;  1.6016598E-05;  1.0000000E+04;  0.0000000E+00;  9.9773672E+03;-0.23924641;0.0;0.35205349;8767.0645
  1.0604212E+00;  9.9999998E-03; -4.0044323E-02;2685;0.19171174;0.0;-0.015252353;1006.8484;  4.0288773E-01;5578.7339;3;63.461559;0.0;-0.032857917;0;0.11878593;  1.0015379E+04;  0.0000000E+00;  7.9936344E-06;  1.0000000E+04;  0.0000000E+00;  9.9772949E+03;-0.24673529;0.0;0.36552122;8784.4453
  1.0604168E+00;  9.9999998E-03; -2.0022228E-02;2686;0.19006926;0.0;-0.0077356142;1006.8515;  4.0288776E-01;5581.2642;3;63.418434;0.0;-0.015491259;0;0.12332073;  1.0015472E+04;  0.0000000E+00;  1.8775744E-06;  1.0000000E+04;  0.0000000E+00;  9.9772617E+03;-0.25109369;0.0;0.37441441;8788.8994
  1.0805335E+00;  9.9999998E-03; -1.8017597E-01;2709;0.22797042;0.0;-0.054121844;1005.7111;  4.0249559E-01;4625.5708;3;65.340324;0.0;-5.1234837;0;0.075692654;  1.0008576E+04;  0.0000000E+00; -1.5459085E-01;  1.0000000E+04;  0.0000000E+00;  9.9809404E+03;-0.12559609;0.0;0.20128874;7001.3755
  1.0805010E+00;  9.9999998E-03; -1.6016053E-01;2710;0.21808802;0.0;-0.050237555;1005.7969;  4.0249568E-01;4695.1377;3;64.062805;0.0;-3.939611;0;0.068461299;  1.0010234E+04;  0.0000000E+00; -3.7300810E-02;  1.0000000E+04;  0.0000000E+00;  9.9809922E+03;-0.15132383;0.0;0.21978512;6957.5098
  1.0804734E+00;  9.9999998E-03; -1.4014231E-01;2711;0.20956981;0.0;-0.045333266;1005.8699;  4.0249574E-01;4754.3672;3;63.460732;0.0;-2.902384;0;0.064019233;  1.0011926E+04;  0.0000000E+00; -3.2831517E-03;  1.0000000E+04;  0.0000000E+00;  9.9807529E+03;-0.17853539;0.0;0.24255462;7044.0747
  1.0804516E+00;  9.9999998E-03; -1.2012295E-01;2712;0.20260321;0.0;-0.039919063;1005.9239;  4.0249568E-01;4798.043;3;63.122879;0.0;-2.053797;0;0.061834574;  1.0013382E+04;  0.0000000E+00; -2.3100000E-04;  1.0000000E+04;  0.0000000E+00;  9.9803789E+03;-0.20420653;0.0;0.2660411;7177.8071
  1.0804343E+00;  9.9999998E-03; -1.0010206E-01;2713;0.19682245;0.0;-0.033871643;1005.9598;  4.0249556E-01;4827.2295;3;62.903149;0.0;-1.4283282;0;0.062001452;  1.0014449E+04;  0.0000000E+00; -8.2159000E-05;  1.0000000E+04;  0.0000000E+00;  9.9800273E+03;-0.22571151;0.0;0.28771296;7300.8853
  1.0804210E+00;  9.9999998E-03; -8.0081038E-02;2714;0.19215882;0.0;-0.027462095;1005.9821;  4.0249565E-01;4845.3071;3;62.728813;0.0;-1.0020417;0;0.064291924;  1.0015168E+04;  0.0000000E+00; -4.2484630E-06;  1.0000000E+04;  0.0000000E+00;  9.9797529E+03;-0.24256322;0.0;0.30685514;7392.2041
  1.0804108E+00;  9.9999998E-03; -6.0060378E-02;2715;0.18847205;0.0;-0.02078815;1005.9957;  4.0249565E-01;4856.3296;3;62.547108;0.0;-0.67987406;0;0.06809774;  1.0015615E+04;  0.0000000E+00;  1.6718463E-05;  1.0000000E+04;  0.0000000E+00;  9.9795742E+03;-0.25492778;0.0;0.32302552;7448.6567
  1.0804037E+00;  9.9999998E-03; -4.0040094E-02;2716;0.18575884;0.0;-0.013950843;1006.0038;  4.0249574E-01;4862.811;3;62.378635;0.0;-0.38366166;0;0.07225728;  1.0015877E+04;  0.0000000E+00;  1.1814617E-05;  1.0000000E+04;  0.0000000E+00;  9.9794727E+03;-0.26324287;0.0;0.33550015;7477.3257
  1.0803993E+00;  9.9999998E-03; -2.0020034E-02;2717;0.18407112;0.0;-0.0070212479;1006.0081;  4.0249565E-01;4866.2939;3;62.372082;0.0;-0.1246119;0;0.07543239;  1.0016011E+04;  0.0000000E+00;  3.3469350E-06;  1.0000000E+04;  0.0000000E+00;  9.9794238E+03;-0.26799902;0.0;0.34343141;7488.9868
  1.1005225E+00;  9.9999998E-03; -1.8015562E-01;2739;0.22501346;0.0;-0.048166487;1004.9301;  4.0216655E-01;3962.9094;3;65.649956;0.0;-5.1292577;0;0.049142167;  1.0008201E+04;  0.0000000E+00; -3.3953232E-01;  1.0000000E+04;  0.0000000E+00;  9.9821309E+03;-0.13316163;0.0;0.1823038;6182.2729
  1.1004870E+00;  9.9999998E-03; -1.6014151E-01;2740;0.21414438;0.0;-0.045007952;1005.0024;  4.0216678E-01;4021.2322;3;63.826145;0.0;-4.3033719;0;0.045002744;  1.0009314E+04;  0.0000000E+00; -1.1308556E-01;  1.0000000E+04;  0.0000000E+00;  9.9824512E+03;-0.15084791;0.0;0.19585066;5960.4707
  1.1004585E+00;  9.9999998E-03; -1.4012729E-01;2741;0.20506594;0.0;-0.041334093;1005.0809;  4.0216675E-01;4084.3362;3;62.887684;0.0;-3.3703742;0;0.040181607;  1.0010829E+04;  0.0000000E+00; -2.0663721E-02;  1.0000000E+04;  0.0000000E+00;  9.9824971E+03;-0.17476723;0.0;0.21494883;5934.2896
  1.1004354E+00;  9.9999998E-03; -1.2011060E-01;2742;0.19743787;0.0;-0.036711626;1005.1526;  4.0216666E-01;4141.9697;3;62.373047;0.0;-2.6512148;0;0.035576552;  1.0012419E+04;  0.0000000E+00; -1.4311352E-03;  1.0000000E+04;  0.0000000E+00;  9.9823389E+03;-0.20119894;0.0;0.23677549;5989.8525
  1.1004174E+00;  9.9999998E-03; -1.0009292E-01;2743;0.19126198;0.0;-0.031404469;1005.2067;  4.0216660E-01;4185.5078;3;61.998009;0.0;-1.9720774;0;0.032912418;  1.0013741E+04;  0.0000000E+00; -1.9790124E-04;  1.0000000E+04;  0.0000000E+00;  9.9820967E+03;-0.22526483;0.0;0.25817725;6070.5879
  1.1004034E+00;  9.9999998E-03; -8.0073982E-02;2744;0.18624555;0.0;-0.02543273;1005.2424;  4.0216672E-01;4214.2817;3;61.681141;0.0;-1.407217;0;0.032757282;  1.0014687E+04;  0.0000000E+00; -6.7034183E-05;  1.0000000E+04;  0.0000000E+00;  9.9818633E+03;-0.2445465;0.0;0.27730379;6146.9946
  1.1003932E+00;  9.9999998E-03; -6.0055103E-02;2745;0.18235233;0.0;-0.01920809;1005.2639;  4.0216666E-01;4231.4541;3;61.422092;0.0;-0.94170696;0;0.034490198;  1.0015311E+04;  0.0000000E+00; -7.7349414E-06;  1.0000000E+04;  0.0000000E+00;  9.9816689E+03;-0.25875169;0.0;0.29324189;6206.3545
  1.1003859E+00;  9.9999998E-03; -4.0036451E-02;2746;0.179501;0.0;-0.012828084;1005.2759;  4.0216672E-01;4241.2417;3;61.215061;0.0;-0.57470667;0;0.036988199;  1.0015676E+04;  0.0000000E+00;  5.8223532E-06;  1.0000000E+04;  0.0000000E+00;  9.9815410E+03;-0.26824963;0.0;0.30523783;6245.1128
  1.1003815E+00;  9.9999998E-03; -2.0018123E-02;2747;0.17774998;0.0;-0.0064105126;1005.2817;  4.0216681E-01;4245.8501;3;61.073982;0.0;-0.27312961;0;0.039054066;  1.0015867E+04;  0.0000000E+00;  2.7309311E-06;  1.0000000E+04;  0.0000000E+00;  9.9814688E+03;-0.2736246;0.0;0.31267866;6265.6978
  1.1205142E+00;  9.9999998E-03; -1.8013665E-01;2768;0.22252052;0.0;-0.041947484;1004.2719;  4.0189689E-01;3399.9641;3;66.526787;0.0;-4.8964891;0;0.030330628;  1.0007633E+04;  0.0000000E+00; -6.5285724E-01;  1.0000000E+04;  0.0000000E+00;  9.9830107E+03;-0.13744898;0.0;0.16777961;5674.835
  1.1204753E+00;  9.9999998E-03; -1.6012309E-01;2769;0.21063283;0.0;-0.039321885;1004.3192;  4.0189716E-01;3437.7065;3;63.803211;0.0;-4.2307515;0;0.030897453;  1.0008052E+04;  0.0000000E+00; -2.8483433E-01;  1.0000000E+04;  0.0000000E+00;  9.9835225E+03;-0.14590283;0.0;0.17680028;5166.29
  1.1204445E+00;  9.9999998E-03; -1.4011092E-01;2770;0.20071116;0.0;-0.03659451;1004.3904;  4.0189704E-01;3494.4106;3;62.370449;0.0;-3.6900327;0;0.027884558;  1.0009143E+04;  0.0000000E+00; -8.5700847E-02;  1.0000000E+04;  0.0000000E+00;  9.9838457E+03;-0.16338073;0.0;0.19126529;4990.7188
  1.1204203E+00;  9.9999998E-03; -1.2009814E-01;2771;0.19249116;0.0;-0.033094544;1004.4712;  4.0189722E-01;3558.7891;3;61.544804;0.0;-2.9737909;0;0.022235498;  1.0010636E+04;  0.0000000E+00; -1.5168427E-02;  1.0000000E+04;  0.0000000E+00;  9.9839658E+03;-0.18730147;0.0;0.20953697;4954.2451
  1.1204013E+00;  9.9999998E-03; -1.0008313E-01;2772;0.18573214;0.0;-0.028637769;1004.5437;  4.0189710E-01;3616.5171;3;60.960903;0.0;-2.4061866;0;0.016782224;  1.0012132E+04;  0.0000000E+00; -1.3137725E-03;  1.0000000E+04;  0.0000000E+00;  9.9839150E+03;-0.21230118;0.0;0.2290834;4975.3325
  1.1203870E+00;  9.9999998E-03; -8.0067113E-02;2773;0.18036999;0.0;-0.023409208;1004.5976;  4.0189710E-01;3659.4346;3;60.473228;0.0;-1.7631247;0;0.01346603;  1.0013341E+04;  0.0000000E+00; -1.8258991E-04;  1.0000000E+04;  0.0000000E+00;  9.9837822E+03;-0.23391157;0.0;0.2473776;5020.1851
  1.1203761E+00;  9.9999998E-03; -6.0050070E-02;2774;0.17621183;0.0;-0.017628506;1004.6323;  4.0189725E-01;3687.0686;3;60.095051;0.0;-1.2006228;0;0.012521923;  1.0014188E+04;  0.0000000E+00; -7.0916460E-05;  1.0000000E+04;  0.0000000E+00;  9.9836289E+03;-0.25027746;0.0;0.26279938;5068.3169
  1.1203687E+00;  9.9999998E-03; -4.0033195E-02;2775;0.17324086;0.0;-0.011732168;1004.6523;  4.0189710E-01;3703.0247;3;59.806881;0.0;-0.68120617;0;0.013022035;  1.0014719E+04;  0.0000000E+00; -1.9283900E-05;  1.0000000E+04;  0.0000000E+00;  9.9834980E+03;-0.26134667;0.0;0.2743687;5107.5557
  1.1203643E+00;  9.9999998E-03; -2.0016495E-02;2776;0.17142779;0.0;-0.0058207386;1004.6622;  4.0189704E-01;3710.9099;3;59.639931;0.0;-0.24135262;0;0.013852477;  1.0015004E+04;  0.0000000E+00; -2.8634245E-06;  1.0000000E+04;  0.0000000E+00;  9.9834150E+03;-0.26763105;0.0;0.28148353;5132.1528
  1.1405088E+00;  9.9999998E-03; -1.8012013E-01;2796;0.22055562;0.0;-0.035830632;1003.7384;  4.0168083E-01;2937.2188;3;68.133141;0.0;-4.5566726;0;0.015936196;  1.0007067E+04;  0.0000000E+00; -1.1181815E+00;  1.0000000E+04;  0.0000000E+00;  9.9837080E+03;-0.14090684;0.0;0.15684304;5573.9941
  1.1404665E+00;  9.9999998E-03; -1.6010639E-01;2797;0.20779359;0.0;-0.033581983;1003.7527;  4.0168071E-01;2948.5496;3;64.316818;0.0;-3.9690013;0;0.022093907;  1.0006777E+04;  0.0000000E+00; -6.0949373E-01;  1.0000000E+04;  0.0000000E+00;  9.9842783E+03;-0.14105694;0.0;0.16315085;4684.1431
  1.1404330E+00;  9.9999998E-03; -1.4009492E-01;2798;0.19689542;0.0;-0.031253826;1003.8013;  4.0168086E-01;2986.8376;3;62.095158;0.0;-3.5466392;0;0.02338843;  1.0007220E+04;  0.0000000E+00; -2.5943446E-01;  1.0000000E+04;  0.0000000E+00;  9.9847959E+03;-0.14980933;0.0;0.17319776;4253.1167
  1.1404068E+00;  9.9999998E-03; -1.2008442E-01;2799;0.18794699;0.0;-0.028758671;1003.8754;  4.0168083E-01;3045.0627;3;60.777992;0.0;-3.1465552;0;0.019503608;  1.0008318E+04;  0.0000000E+00; -8.2016684E-02;  1.0000000E+04;  0.0000000E+00;  9.9851768E+03;-0.16728204;0.0;0.18678565;4094.9187
  1.1403869E+00;  9.9999998E-03; -1.0007304E-01;2800;0.18063815;0.0;-0.025403878;1003.9556;  4.0168071E-01;3108.1467;3;59.885796;0.0;-2.5130367;0;0.013077587;  1.0009720E+04;  0.0000000E+00; -1.8154474E-02;  1.0000000E+04;  0.0000000E+00;  9.9853809E+03;-0.18947431;0.0;0.2025519;4045.1003
  1.1403717E+00;  9.9999998E-03; -8.0059417E-02;2801;0.17478268;0.0;-0.021048667;1004.0255;  4.0168083E-01;3163.0723;3;59.225231;0.0;-2.0191729;0;0.0070671141;  1.0011067E+04;  0.0000000E+00; -2.5530066E-03;  1.0000000E+04;  0.0000000E+00;  9.9854238E+03;-0.21137294;0.0;0.21844006;4043.8462
  1.1403606E+00;  9.9999998E-03; -6.0044974E-02;2802;0.17036927;0.0;-0.016032275;1004.0764;  4.0168080E-01;3203.0955;3;58.693264;0.0;-1.3968651;0;0.0029733479;  1.0012141E+04;  0.0000000E+00; -2.6100880E-04;  1.0000000E+04;  0.0000000E+00;  9.9853721E+03;-0.22947563;0.0;0.23244898;4065.6819
  1.1403530E+00;  9.9999998E-03; -4.0029876E-02;2803;0.16722776;0.0;-0.010632982;1004.1089;  4.0168080E-01;3228.686;3;58.299755;0.0;-0.80681938;0;0.00087322295;  1.0012875E+04;  0.0000000E+00; -6.3157277E-05;  1.0000000E+04;  0.0000000E+00;  9.9852900E+03;-0.24228953;0.0;0.24316275;4092.5437
  1.1403484E+00;  9.9999998E-03; -2.0014914E-02;2804;0.16537419;0.0;-0.0052546421;1004.126;  4.0168071E-01;3242.1855;3;58.147999;0.0;-0.32833284;0;5.5402517e-05;  1.0013281E+04;  0.0000000E+00; -1.4029491E-05;  1.0000000E+04;  0.0000000E+00;  9.9852266E+03;-0.249727;0.0;0.2497824;4112.603
  1.1605085E+00;  9.9999998E-03; -1.8010852E-01;2823;0.21922845;0.0;-0.030501144;1003.3177;  4.0151098E-01;2563.7576;3;70.825813;0.0;-4.0797443;0;0.0042238683;  1.0006535E+04;  0.0000000E+00; -1.7078646E+00;  1.0000000E+04;  0.0000000E+00;  9.9843115E+03;-0.14402971;0.0;0.14825357;5776.1646
  1.1604617E+00;  9.9999998E-03; -1.6009292E-01;2824;0.20573606;0.0;-0.028182607;1003.3099;  4.0151116E-01;2557.79;3;65.643951;0.0;-3.5873597;0;0.01361607;  1.0005813E+04;  0.0000000E+00; -1.1154919E+00;  1.0000000E+04;  0.0000000E+00;  9.9848701E+03;-0.14014854;0.0;0.15376461;4626.1807
  1.1604247E+00;  9.9999998E-03; -1.4008076E-01;2825;0.19389232;0.0;-0.026020886;1003.3242;  4.0151131E-01;2569.0256;3;62.415932;0.0;-3.2360907;0;0.020586982;  1.0005513E+04;  0.0000000E+00; -6.0795754E-01;  1.0000000E+04;  0.0000000E+00;  9.9854463E+03;-0.14018138;0.0;0.16076836;3829.9592
  1.1603962E+00;  9.9999998E-03; -1.2007093E-01;2826;0.18409759;0.0;-0.023824392;1003.3732;  4.0151116E-01;2606.8665;3;60.436699;0.0;-2.8608942;0;0.021387815;  1.0005938E+04;  0.0000000E+00; -2.7308610E-01;  1.0000000E+04;  0.0000000E+00;  9.9859990E+03;-0.14841482;0.0;0.16980264;3444.9446
  1.1603745E+00;  9.9999998E-03; -1.0006163E-01;2827;0.17615415;0.0;-0.021446243;1003.4434;  4.0151110E-01;2661.1838;3;59.039532;0.0;-2.4958086;0;0.01713185;  1.0006911E+04;  0.0000000E+00; -1.0017709E-01;  1.0000000E+04;  0.0000000E+00;  9.9864248E+03;-0.16361342;0.0;0.18074527;3292.7383
  1.1603585E+00;  9.9999998E-03; -8.0051348E-02;2828;0.16985199;0.0;-0.018252693;1003.5157;  4.0151116E-01;2717.1477;3;58.077587;0.0;-1.9733094;0;0.010705709;  1.0008096E+04;  0.0000000E+00; -2.9490270E-02;  1.0000000E+04;  0.0000000E+00;  9.9866826E+03;-0.18183394;0.0;0.19253965;3235.9905
  1.1603467E+00;  9.9999998E-03; -6.0039088E-02;2829;0.16504037;0.0;-0.014074553;1003.5768;  4.0151104E-01;2764.3496;3;57.31028;0.0;-1.4741077;0;0.0046400428;  1.0009197E+04;  0.0000000E+00; -6.4576366E-03;  1.0000000E+04;  0.0000000E+00;  9.9867998E+03;-0.19901834;0.0;0.20365839;3221.3059
  1.1603389E+00;  9.9999998E-03; -4.0026262E-02;2830;0.16174166;0.0;-0.0094522089;1003.6203;  4.0151104E-01;2797.9983;3;56.835213;0.0;-0.88126761;0;0.00012791157;  1.0010047E+04;  0.0000000E+00; -9.7444310E-04;  1.0000000E+04;  0.0000000E+00;  9.9868232E+03;-0.21248773;0.0;0.21261564;3225.5466
  1.1603343E+00;  9.9999998E-03; -2.0013200E-02;2831;0.15982004;0.0;-0.0046775341;1003.6458;  4.0151104E-01;2817.7271;3;56.666222;0.0;-0.43275827;0;-0.0025271028;  1.0010567E+04;  0.0000000E+00; -6.1111255E-05;  1.0000000E+04;  0.0000000E+00;  9.9868115E+03;-0.22083458;0.0;0.21830748;3233.6965
  1.1805176E+00;  9.9999998E-03; -1.8010545E-01;2849;0.21915923;0.0;-0.026843978;1002.9441;  4.0138069E-01;2227.6663;3;74.982162;0.0;-3.2402337;0;0.0037040859;  1.0005310E+04;  0.0000000E+00; -2.3278842E+00;  1.0000000E+04;  0.0000000E+00;  9.9845908E+03;-0.13945304;0.0;0.14315712;5947.0078
  1.1804636E+00;  9.9999998E-03; -1.6008589E-01;2850;0.2047334;0.0;-0.023994969;1002.9747;  4.0138054E-01;2250.9907;3;68.461258;0.0;-3.0191958;0;0.004337728;  1.0005151E+04;  0.0000000E+00; -1.7533803E+00;  1.0000000E+04;  0.0000000E+00;  9.9853467E+03;-0.14308472;0.0;0.14742245;4848.3857
  1.1804209E+00;  9.9999998E-03; -1.4007072E-01;2851;0.19183041;0.0;-0.02141336;1002.9683;  4.0138078E-01;2246.2322;3;63.889374;0.0;-2.7364697;0;0.013249904;  1.0004399E+04;  0.0000000E+00; -1.1484866E+00;  1.0000000E+04;  0.0000000E+00;  9.9859619E+03;-0.139045;0.0;0.1522949;3813.98
  1.1803889E+00;  9.9999998E-03; -1.2005962E-01;2852;0.18115368;0.0;-0.019194143;1002.9795;  4.0138078E-01;2254.7961;3;60.795521;0.0;-2.5131917;0;0.020159051;  1.0004018E+04;  0.0000000E+00; -6.5132624E-01;  1.0000000E+04;  0.0000000E+00;  9.9865645E+03;-0.13774514;0.0;0.15790419;3108.2551
  1.1803652E+00;  9.9999998E-03; -1.0005084E-01;2853;0.17247902;0.0;-0.017055083;1003.0188;  4.0138072E-01;2284.6304;3;58.736015;0.0;-2.1159582;0;0.021195263;  1.0004254E+04;  0.0000000E+00; -3.1820458E-01;  1.0000000E+04;  0.0000000E+00;  9.9871143E+03;-0.14307927;0.0;0.16427453;2750.6489
  1.1803476E+00;  9.9999998E-03; -8.0042265E-02;2854;0.16565256;0.0;-0.014755432;1003.0743;  4.0138075E-01;2326.6289;3;57.238403;0.0;-1.7578574;0;0.017685592;  1.0004928E+04;  0.0000000E+00; -1.3224494E-01;  1.0000000E+04;  0.0000000E+00;  9.9875449E+03;-0.15364318;0.0;0.17132877;2601.4226
  1.1803350E+00;  9.9999998E-03; -6.0032800E-02;2855;0.16057061;0.0;-0.011774305;1003.1299;  4.0138063E-01;2368.7954;3;56.294247;0.0;-1.3664191;0;0.012190625;  1.0005760E+04;  0.0000000E+00; -4.4701625E-02;  1.0000000E+04;  0.0000000E+00;  9.9878252E+03;-0.16618516;0.0;0.17837578;2542.6274
  1.1803268E+00;  9.9999998E-03; -4.0022250E-02;2856;0.15700358;0.0;-0.0079818722;1003.1751;  4.0138078E-01;2403.0117;3;55.62534;0.0;-0.85594797;0;0.0068751872;  1.0006506E+04;  0.0000000E+00; -1.1209780E-02;  1.0000000E+04;  0.0000000E+00;  9.9879805E+03;-0.1775838;0.0;0.18445899;2520.7056
  1.1803221E+00;  9.9999998E-03; -2.0011162E-02;2857;0.15497813;0.0;-0.0040017129;1003.2043;  4.0138075E-01;2425.1294;3;55.37952;0.0;-0.49258161;0;0.0031756014;  1.0007013E+04;  0.0000000E+00; -1.5261205E-03;  1.0000000E+04;  0.0000000E+00;  9.9880527E+03;-0.18537721;0.0;0.18855281;2513.9165
  1.2005322E+00;  9.9999998E-03; -1.8010820E-01;2873;0.22004305;0.0;-0.024907872;1002.5314;  4.0128249E-01;1865.8921;3;81.443504;0.0;-2.66539;0;0.033145517;  1.0002112E+04;  0.0000000E+00; -2.6962979E+00;  1.0000000E+04;  0.0000000E+00;  9.9844512E+03;-0.11002263;0.0;0.14316815;5502.5371
  1.2004775E+00;  9.9999998E-03; -1.6008893E-01;2874;0.20575623;0.0;-0.022107318;1002.6533;  4.0128258E-01;1955.9365;3;72.875839;0.0;-2.213413;0;0.011427492;  1.0003599E+04;  0.0000000E+00; -2.4035239E+00;  1.0000000E+04;  0.0000000E+00;  9.9853857E+03;-0.13550439;0.0;0.14693189;4981.2651
  1.2004262E+00;  9.9999998E-03; -1.4006919E-01;2875;0.19113742;0.0;-0.018505104;1002.7045;  4.0128255E-01;1993.783;3;66.743332;0.0;-2.0265651;0;0.0031469762;  1.0003679E+04;  0.0000000E+00; -1.7949699E+00;  1.0000000E+04;  0.0000000E+00;  9.9863184E+03;-0.1438231;0.0;0.14697008;3994.0601
  1.2003871E+00;  9.9999998E-03; -1.2005369E-01;2876;0.17920937;0.0;-0.015547544;1002.702;  4.0128261E-01;1992.0497;3;62.550865;0.0;-1.9297729;0;0.010074839;  1.0002920E+04;  0.0000000E+00; -1.1881104E+00;  1.0000000E+04;  0.0000000E+00;  9.9870176E+03;-0.13901033;0.0;0.14908516;3098.874
  1.2003596E+00;  9.9999998E-03; -1.0004281E-01;2877;0.16970503;0.0;-0.01314438;1002.7001;  4.0128264E-01;1990.7228;3;59.414413;0.0;-1.6959897;0;0.017340451;  1.0002312E+04;  0.0000000E+00; -6.9393855E-01;  1.0000000E+04;  0.0000000E+00;  9.9875869E+03;-0.13446276;0.0;0.15180321;2484.6853
  1.2003400E+00;  9.9999998E-03; -8.0034599E-02;2878;0.16241571;0.0;-0.011063646;1002.7185;  4.0128258E-01;2004.3146;3;57.252304;0.0;-1.2957752;0;0.019882977;  1.0002197E+04;  0.0000000E+00; -3.4966761E-01;  1.0000000E+04;  0.0000000E+00;  9.9880674E+03;-0.13485797;0.0;0.15474094;2161.6145
  1.2003261E+00;  9.9999998E-03; -6.0026623E-02;2879;0.15691932;0.0;-0.0089261672;1002.7503;  4.0128264E-01;2027.8226;3;55.868389;0.0;-0.99631828;0;0.01812467;  1.0002458E+04;  0.0000000E+00; -1.4609435E-01;  1.0000000E+04;  0.0000000E+00;  9.9884404E+03;-0.13960806;0.0;0.15773273;2026.3518
  1.2003170E+00;  9.9999998E-03; -4.0018067E-02;2880;0.15313192;0.0;-0.0062732617;1002.783;  4.0128255E-01;2051.9329;3;54.95528;0.0;-0.75701916;0;0.014422938;  1.0002859E+04;  0.0000000E+00; -4.6675581E-02;  1.0000000E+04;  0.0000000E+00;  9.9886943E+03;-0.1460605;0.0;0.16048343;1974.8245
  1.2003119E+00;  9.9999998E-03; -2.0009136E-02;2881;0.15101112;0.0;-0.0031932453;1002.8067;  4.0128258E-01;2069.4392;3;54.668369;0.0;-0.38278809;0;0.011137724;  1.0003194E+04;  0.0000000E+00; -8.7223798E-03;  1.0000000E+04;  0.0000000E+00;  9.9888369E+03;-0.15135561;0.0;0.16249333;1954.9568
  1.2205423E+00;  9.9999998E-03; -1.8011233E-01;2896;0.2193132;0.0;-0.023962969;1002.0767;  4.0121028E-01;1482.7543;3;90.67524;0.0;-2.9898798;0;0.091806844;  9.9969277E+03;  0.0000000E+00; -2.1319654E+00;  1.0000000E+04;  0.0000000E+00;  9.9841660E+03;-0.053933725;0.0;0.14574057;3783.2144
  1.2204956E+00;  9.9999998E-03; -1.6009559E-01;2897;0.20692655;0.0;-0.021193573;1002.2577;  4.0121028E-01;1612.179;3;80.030876;0.0;-1.7374908;0;0.050299019;  9.9996426E+03;  0.0000000E+00; -2.6639538E+00;  1.0000000E+04;  0.0000000E+00;  9.9850615E+03;-0.099096864;0.0;0.14939588;4390.8169
  1.2204453E+00;  9.9999998E-03; -1.4007753E-01;2898;0.19303454;0.0;-0.01818699;1002.4002;  4.0121019E-01;1714.0529;3;72.07518;0.0;-1.3121911;0;0.018763497;  1.0001413E+04;  0.0000000E+00; -2.3638117E+00;  1.0000000E+04;  0.0000000E+00;  9.9861260E+03;-0.12991104;0.0;0.14867453;3954.8726
  1.2203984E+00;  9.9999998E-03; -1.2005889E-01;2899;0.17936456;0.0;-0.014328729;1002.4732;  4.0121028E-01;1766.3821;3;65.921127;0.0;-1.0359775;0;0.0022448748;  1.0001859E+04;  0.0000000E+00; -1.7493570E+00;  1.0000000E+04;  0.0000000E+00;  9.9871309E+03;-0.14227323;0.0;0.14451811;3142.3726
  1.2203621E+00;  9.9999998E-03; -1.0004273E-01;2900;0.16822743;0.0;-0.01082763;1002.4811;  4.0121034E-01;1772.113;3;61.633114;0.0;-0.98128414;0;0.0038437247;  1.0001279E+04;  0.0000000E+00; -1.1365432E+00;  1.0000000E+04;  0.0000000E+00;  9.9878613E+03;-0.13831107;0.0;0.1421548;2403.3691
  1.2203374E+00;  9.9999998E-03; -8.0031157E-02;2901;0.16009718;0.0;-0.0081991898;1002.4658;  4.0121028E-01;1761.2046;3;58.574097;0.0;-0.82439131;0;0.0112385;  1.0000477E+04;  0.0000000E+00; -6.4430481E-01;  1.0000000E+04;  0.0000000E+00;  9.9883525E+03;-0.13025522;0.0;0.14149372;1910.9736
  1.2203211E+00;  9.9999998E-03; -6.0022708E-02;2902;0.15421957;0.0;-0.006238447;1002.4598;  4.0121025E-01;1756.9968;3;56.546974;0.0;-0.46982357;0;0.015635431;  9.9999951E+03;  0.0000000E+00; -3.0581224E-01;  1.0000000E+04;  0.0000000E+00;  9.9887119E+03;-0.12580469;0.0;0.14144012;1666.3563
  1.2203107E+00;  9.9999998E-03; -4.0015373E-02;2903;0.15019347;0.0;-0.0044247122;1002.4654;  4.0121031E-01;1761.0306;3;55.467445;0.0;-0.22630735;0;0.016048342;  9.9998477E+03;  0.0000000E+00; -1.1208902E-01;  1.0000000E+04;  0.0000000E+00;  9.9889775E+03;-0.1254748;0.0;0.14152314;1573.2355
  1.2203047E+00;  9.9999998E-03; -2.0007806E-02;2904;0.1477817;0.0;-0.0022994496;1002.4743;  4.0121031E-01;1767.4351;3;54.670547;0.0;-0.10733083;0;0.0148862;  9.9998584E+03;  0.0000000E+00; -2.3758318E-02;  1.0000000E+04;  0.0000000E+00;  9.9891406E+03;-0.12675251;0.0;0.14163871;1541.4503
  1.2405354E+00;  9.9999998E-03; -1.8011123E-01;2917;0.21408814;0.0;-0.022361556;1001.8127;  4.0115827E-01;1246.6128;3;101.0486;0.0;-4.1392169;0;0.12277889;  9.9936514E+03;  0.0000000E+00; -1.5124521E-02;  1.0000000E+04;  0.0000000E+00;  9.9847725E+03;-0.015258878;0.0;0.13803777;1672.9729
  1.2405015E+00;  9.9999998E-03; -1.6009864E-01;2918;0.2044737;0.0;-0.019630132;1001.9036;  4.0115806E-01;1309.254;3;89.389221;0.0;-2.0450513;0;0.090754703;  9.9951104E+03;  0.0000000E+00; -1.6765163E+00;  1.0000000E+04;  0.0000000E+00;  9.9851250E+03;-0.052315306;0.0;0.14307001;2548.6042
  1.2404634E+00;  9.9999998E-03; -1.4008549E-01;2919;0.1935644;0.0;-0.017624417;1002.0145;  4.0115818E-01;1385.609;3;79.674683;0.0;-0.96280152;0;0.063530549;  9.9967051E+03;  0.0000000E+00; -2.2787855E+00;  1.0000000E+04;  0.0000000E+00;  9.9857432E+03;-0.085538164;0.0;0.14906871;3083.5962
  1.2404228E+00;  9.9999998E-03; -1.2007067E-01;2920;0.18149209;0.0;-0.014985306;1002.1296;  4.0115815E-01;1464.8522;3;71.649612;0.0;-0.18323348;0;0.031742446;  9.9981064E+03;  0.0000000E+00; -2.0870035E+00;  1.0000000E+04;  0.0000000E+00;  9.9866318E+03;-0.11494014;0.0;0.14668259;2855.3552
  1.2403829E+00;  9.9999998E-03; -1.0005458E-01;2921;0.16967285;0.0;-0.011605891;1002.2188;  4.0115818E-01;1526.3112;3;65.721947;0.0;0.12089051;0;0.009571597;  9.9989883E+03;  0.0000000E+00; -1.5134104E+00;  1.0000000E+04;  0.0000000E+00;  9.9875273E+03;-0.1301419;0.0;0.1397135;2271.9128
  1.2403495E+00;  9.9999998E-03; -8.0038942E-02;2922;0.15985391;0.0;-0.0079380386;1002.2571;  4.0115809E-01;1552.8223;3;61.481617;0.0;0.29133135;0;0.0020131618;  9.9990605E+03;  0.0000000E+00; -9.1658908E-01;  1.0000000E+04;  0.0000000E+00;  9.9882119E+03;-0.13105482;0.0;0.13306798;1737.7786
  1.2403259E+00;  9.9999998E-03; -6.0025878E-02;2923;0.15279862;0.0;-0.0049977968;1002.256;  4.0115803E-01;1552.158;3;58.771;0.0;0.25342205;0;0.0045431778;  9.9986104E+03;  0.0000000E+00; -4.6359438E-01;  1.0000000E+04;  0.0000000E+00;  9.9886396E+03;-0.12464999;0.0;0.12919317;1423.7914
  1.2403115E+00;  9.9999998E-03; -4.0016185E-02;2924;0.14825064;0.0;-0.003103947;1002.2437;  4.0115800E-01;1543.673;3;57.256058;0.0;0.29367626;0;0.0083611459;  9.9981162E+03;  0.0000000E+00; -1.8255557E-01;  1.0000000E+04;  0.0000000E+00;  9.9888848E+03;-0.11897939;0.0;0.12734054;1295.442
  1.2403038E+00;  9.9999998E-03; -2.0008102E-02;2925;0.14562489;0.0;-0.0016888344;1002.2366;  4.0115812E-01;1538.8578;3;56.618309;0.0;0.29941985;0;0.009781532;  9.9978223E+03;  0.0000000E+00; -4.1221663E-02;  1.0000000E+04;  0.0000000E+00;  9.9890332E+03;-0.11655167;0.0;0.12633321;1254.0474
  1.2604882E+00;  9.9999998E-03; -1.6009578E-01;2936;0.19751251;0.0;-0.017411551;1001.8344;  4.0112132E-01;1208.642;3;99.271988;0.0;-2.8319778;0;0.081321239;  9.9945938E+03;  0.0000000E+00;  6.3269794E-01;  1.0000000E+04;  0.0000000E+00;  9.9861016E+03;-0.044079453;0.0;0.12540069;1382.2085
  1.2604624E+00;  9.9999998E-03; -1.4008652E-01;2937;0.18933596;0.0;-0.015450562;1001.7997;  4.0112120E-01;1185.8546;3;88.931061;0.0;-1.1993418;0;0.08037889;  9.9939521E+03;  0.0000000E+00; -8.0537140E-01;  1.0000000E+04;  0.0000000E+00;  9.9860459E+03;-0.054222081;0.0;0.13460097;1440.6127
  1.2604336E+00;  9.9999998E-03; -1.2007573E-01;2938;0.17950474;0.0;-0.013247679;1001.8245;  4.0112126E-01;1202.2715;3;79.611229;0.0;0.27605107;0;0.055978321;  9.9940977E+03;  0.0000000E+00; -1.4521817E+00;  1.0000000E+04;  0.0000000E+00;  9.9863926E+03;-0.081094645;0.0;0.13707297;1787.4781
  1.2604049E+00;  9.9999998E-03; -1.0006449E-01;2939;0.17007256;0.0;-0.011651061;1001.8582;  4.0112132E-01;1224.5035;3;72.252769;0.0;1.0013926;0;0.041220374;  9.9942676E+03;  0.0000000E+00; -1.4169011E+00;  1.0000000E+04;  0.0000000E+00;  9.9868955E+03;-0.096280657;0.0;0.13750103;1730.0989
  1.2603780E+00;  9.9999998E-03; -8.0051102E-02;2940;0.16105777;0.0;-0.0093500474;1001.9022;  4.0112117E-01;1253.6467;3;66.377708;0.0;1.6043941;0;0.023551226;  9.9944912E+03;  0.0000000E+00; -1.0084081E+00;  1.0000000E+04;  0.0000000E+00;  9.9875508E+03;-0.10778582;0.0;0.13133705;1427.5861
  1.2603550E+00;  9.9999998E-03; -6.0036950E-02;2941;0.15381438;0.0;-0.0069032279;1001.9371;  4.0112129E-01;1276.6541;3;62.686489;0.0;1.661536;0;0.014338948;  9.9946309E+03;  0.0000000E+00; -5.5427516E-01;  1.0000000E+04;  0.0000000E+00;  9.9881006E+03;-0.11001898;0.0;0.12435793;1159.6696
  1.2603378E+00;  9.9999998E-03; -4.0023312E-02;2942;0.14817925;0.0;-0.0042608464;1001.9578;  4.0112135E-01;1290.375;3;60.361954;0.0;1.503279;0;0.0068308562;  9.9946836E+03;  0.0000000E+00; -2.2664787E-01;  1.0000000E+04;  0.0000000E+00;  9.9884541E+03;-0.11203102;0.0;0.11886188;1032.3566
  1.2603278E+00;  9.9999998E-03; -2.0011328E-02;2943;0.14474386;0.0;-0.0020683159;1001.9655;  4.0112126E-01;1295.5116;3;59.595631;0.0;1.2017694;0;0.0022073537;  9.9946572E+03;  0.0000000E+00; -5.2368775E-02;  1.0000000E+04;  0.0000000E+00;  9.9886406E+03;-0.1138049;0.0;0.11601225;993.95862
  1.2804229E+00;  9.9999998E-03; -1.2007456E-01;2953;0.17326082;0.0;-0.010653974;1001.8275;  4.0109563E-01;1148.6473;3;88.577515;0.0;0.20913863;0;0.032571591;  9.9950762E+03;  0.0000000E+00;  2.8020877E-01;  1.0000000E+04;  0.0000000E+00;  9.9867549E+03;-0.082857795;0.0;0.11542939;1006.3591
  1.2804031E+00;  9.9999998E-03; -1.0006624E-01;2954;0.16560096;0.0;-0.0092396941;1001.7476;  4.0109563E-01;1098.4987;3;80.560661;0.0;1.2878039;0;0.034424849;  9.9935439E+03;  0.0000000E+00; -3.2528618E-01;  1.0000000E+04;  0.0000000E+00;  9.9866885E+03;-0.086952753;0.0;0.1213776;973.73584
  1.2803836E+00;  9.9999998E-03; -8.0054402E-02;2955;0.1578081;0.0;-0.0074151554;1001.7291;  4.0109551E-01;1086.9364;3;73.994949;0.0;2.2251148;0;0.019655675;  9.9927510E+03;  0.0000000E+00; -4.6030083E-01;  1.0000000E+04;  0.0000000E+00;  9.9871123E+03;-0.10026331;0.0;0.11991898;943.7641
  1.2803687E+00;  9.9999998E-03; -6.0040906E-02;2956;0.15135004;0.0;-0.0059981095;1001.6931;  4.0109563E-01;1064.27;3;69.442375;0.0;2.5158944;0;0.011718914;  9.9915605E+03;  0.0000000E+00; -3.2947332E-01;  1.0000000E+04;  0.0000000E+00;  9.9875859E+03;-0.10518593;0.0;0.11690485;843.00128
  1.2803580E+00;  9.9999998E-03; -4.0026382E-02;2957;0.14600238;0.0;-0.0042761932;1001.6606;  4.0109566E-01;1043.9139;3;66.307014;0.0;2.3438325;0;-0.00092568994;  9.9905508E+03;  0.0000000E+00; -1.5242112E-01;  1.0000000E+04;  0.0000000E+00;  9.9879512E+03;-0.1131888;0.0;0.11226311;757.10059
  1.2803519E+00;  9.9999998E-03; -2.0012667E-02;2958;0.14240272;0.0;-0.0021689269;1001.6345;  4.0109560E-01;1027.5175;3;64.437302;0.0;1.6834135;0;-0.012999497;  9.9898291E+03;  0.0000000E+00; -3.7091196E-02;  1.0000000E+04;  0.0000000E+00;  9.9881426E+03;-0.12168752;0.0;0.10868803;712.89581
  1.3003703E+00;  9.9999998E-03; -8.0054216E-02;2966;0.15165226;0.0;-0.0051200627;1001.8903;  4.0107805E-01;1130.3025;3;82.258972;0.0;2.578227;0;-0.024676763;  9.9971475E+03;  0.0000000E+00;  5.1819521E-01;  1.0000000E+04;  0.0000000E+00;  9.9867949E+03;-0.12793057;0.0;0.1032538;917.96057
  1.3003579E+00;  9.9999998E-03; -6.0040645E-02;2967;0.14598791;0.0;-0.0034323165;1001.851;  4.0107813E-01;1106.8146;3;77.574272;0.0;3.2027879;0;-0.029979639;  9.9959316E+03;  0.0000000E+00;  1.8377565E-01;  1.0000000E+04;  0.0000000E+00;  9.9872285E+03;-0.1333369;0.0;0.10335726;809.52472
  1.3003489E+00;  9.9999998E-03; -4.0026106E-02;2968;0.14109112;0.0;-0.0020339859;1001.8137;  4.0107828E-01;1084.599;3;74.449944;0.0;3.2083132;0;-0.042812549;  9.9948789E+03;  0.0000000E+00;  4.7418535E-02;  1.0000000E+04;  0.0000000E+00;  9.9875391E+03;-0.14561386;0.0;0.10280132;748.55316
  1.3003435E+00;  9.9999998E-03; -2.0012427E-02;2969;0.13773747;0.0;-0.00078484381;1001.7816;  4.0107816E-01;1065.3665;3;73.201988;0.0;2.1696086;0;-0.056526914;  9.9940918E+03;  0.0000000E+00;  7.1756523E-03;  1.0000000E+04;  0.0000000E+00;  9.9876797E+03;-0.15842117;0.0;0.10189426;714.17194
 -3.4660798E-06;  9.9999998E-03; -1.4750358E-13;1045;-0.0025167125;0.0;-1.0143246e-10;1000.076;  4.0000001E-01;62.911793;3;-1.805706;0.0;1.1019438e-08;0;-0.049971994;  1.0001537E+04;  0.0000000E+00;  1.3313940E-16;  1.0000000E+04;  0.0000000E+00;  9.9999854E+03;-0.050508484;0.0;0.00053649;12.934058
 -3.4681409E-06;  9.9999998E-03;  2.0000013E-02;1046;-0.0025184336;0.0;1.0017658e-05;1000.076;  4.0000001E-01;62.911793;3;-1.8067923;0.0;0.0094347512;0;-0.049975514;  1.0001537E+04;  0.0000000E+00; -9.1793118E-12;  1.0000000E+04;  0.0000000E+00;  9.9999844E+03;-0.050541192;0.0;0.0005656787;13.336917
 -3.4737934E-06;  9.9999998E-03;  4.0000029E-02;1047;-0.0025231764;0.0;2.1888312e-05;1000.076;  4.0000001E-01;62.911793;3;-1.8097315;0.0;0.02013134;0;-0.04997896;  1.0001541E+04;  0.0000000E+00;  2.4488599E-12;  1.0000000E+04;  0.0000000E+00;  9.9999814E+03;-0.050630972;0.0;0.00065201166;14.529991
 -3.4815434E-06;  9.9999998E-03;  6.0000047E-02;1048;-0.0025298053;0.0;3.7050959e-05;1000.076;  4.0000001E-01;62.911793;3;-1.8137488;0.0;0.032942001;0;-0.049960546;  1.0001544E+04;  0.0000000E+00; -1.1070041E-10;  1.0000000E+04;  0.0000000E+00;  9.9999766E+03;-0.0507522;0.0;0.00079165434;16.464363
 -3.4885779E-06;  9.9999998E-03;  8.0000073E-02;1049;-0.0025361311;0.0;5.761037e-05;1000.0759;  4.0000001E-01;62.81303;3;-1.8171988;0.0;0.049441822;0;-0.049882941;  1.0001545E+04;  0.0000000E+00; -2.8731936E-10;  1.0000000E+04;  0.0000000E+00;  9.9999717E+03;-0.050860576;0.0;0.0009776362;19.048584
 -3.4910368E-06;  9.9999998E-03;  1.0000011E-01;1050;-0.0025392368;0.0;8.4122446e-05;1000.0754;  4.0000001E-01;62.41798;3;-1.8180571;0.0;0.069660828;0;-0.049692009;  1.0001545E+04;  0.0000000E+00; -5.9297084E-10;  1.0000000E+04;  0.0000000E+00;  9.9999629E+03;-0.050890602;0.0;0.0011985945;22.128845
 -3.4829939E-06;  9.9999998E-03;  1.2000016E-01;1051;-0.0025345902;0.0;0.00011867379;1000.075;  4.0000001E-01;62.121689;3;-1.8130374;0.0;0.095239162;0;-0.049316406;  1.0001542E+04;  0.0000000E+00; -1.1269214E-09;  1.0000000E+04;  0.0000000E+00;  9.9999570E+03;-0.050752975;0.0;0.0014365683;25.455637
 -3.4572879E-06;  9.9999998E-03;  1.4000021E-01;1052;-0.0025168667;0.0;0.00016118951;1000.0737;  4.0000001E-01;61.035301;3;-1.7984838;0.0;0.12563398;0;-0.048668079;  1.0001527E+04;  0.0000000E+00; -1.7383983E-09;  1.0000000E+04;  0.0000000E+00;  9.9999492E+03;-0.050332353;0.0;0.001664273;28.643566
  1.9995097E-02;  9.9999998E-03;  1.8741473E-14;1075;-0.0035325324;0.0;9.5301586e-11;1000.09;  4.0000001E-01;74.565781;3;-2.2791758;0.0;-5.526324e-07;0;-0.058343381;  1.0001821E+04;  0.0000000E+00; -2.2297687E-16;  1.0000000E+04;  0.0000000E+00;  9.9999795E+03;-0.059061076;0.0;0.00071769574;16.507639
  1.9995093E-02;  9.9999998E-03;  2.0000018E-02;1076;-0.0035354057;0.0;1.4623086e-05;1000.09;  4.0000001E-01;74.565781;3;-2.2807674;0.0;0.012851897;0;-0.058350086;  1.0001822E+04;  0.0000000E+00;  1.3888951E-12;  1.0000000E+04;  0.0000000E+00;  9.9999785E+03;-0.059106071;0.0;0.00075598311;17.046522
  1.9995084E-02;  9.9999998E-03;  4.0000040E-02;1077;-0.0035434561;0.0;3.1488969e-05;1000.09;  4.0000001E-01;74.565781;3;-2.2851229;0.0;0.027016416;0;-0.058362439;  1.0001826E+04;  0.0000000E+00; -4.5347788E-11;  1.0000000E+04;  0.0000000E+00;  9.9999746E+03;-0.059231628;0.0;0.00086918729;18.64241
  1.9995069E-02;  9.9999998E-03;  6.0000069E-02;1078;-0.0035550951;0.0;5.266727e-05;1000.09;  4.0000001E-01;74.565781;3;-2.2912416;0.0;0.043608051;0;-0.058356956;  1.0001831E+04;  0.0000000E+00; -4.6329589E-11;  1.0000000E+04;  0.0000000E+00;  9.9999688E+03;-0.059409052;0.0;0.0010520964;21.229034
  1.9995054E-02;  9.9999998E-03;  8.0000110E-02;1079;-0.0035673943;0.0;8.0442871e-05;1000.09;  4.0000001E-01;74.565781;3;-2.2971945;0.0;0.064112373;0;-0.058293208;  1.0001836E+04;  0.0000000E+00; -1.4333839E-11;  1.0000000E+04;  0.0000000E+00;  9.9999619E+03;-0.059588421;0.0;0.0012952123;24.682125
  1.9995045E-02;  9.9999998E-03;  1.0000016E-01;1080;-0.0035762154;0.0;0.00011627081;1000.0895;  4.0000001E-01;74.170731;3;-2.3003945;0.0;0.088968053;0;-0.058112234;  1.0001838E+04;  0.0000000E+00;  4.8110604E-10;  1.0000000E+04;  0.0000000E+00;  9.9999521E+03;-0.059695248;0.0;0.0015830119;28.791677
  1.9995047E-02;  9.9999998E-03;  1.2000022E-01;1081;-0.0035755092;0.0;0.00016170042;1000.0891;  4.0000001E-01;73.775681;3;-2.2969408;0.0;0.11931568;0;-0.057735819;  1.0001836E+04;  0.0000000E+00;  2.5333542E-09;  1.0000000E+04;  0.0000000E+00;  9.9999424E+03;-0.059627052;0.0;0.0018912347;33.219868
  1.9995075E-02;  9.9999998E-03;  1.4000030E-01;1082;-0.0035571773;0.0;0.00021878844;1000.0879;  4.0000001E-01;72.788055;3;-2.2817631;0.0;0.1561534;0;-0.057065804;  1.0001826E+04;  0.0000000E+00;  8.1626093E-09;  1.0000000E+04;  0.0000000E+00;  9.9999336E+03;-0.059249833;0.0;0.0021840313;37.45549
  3.9993260E-02;  9.9999998E-03; -7.0639878E-14;1106;-0.0048191142;0.0;-2.1164109e-10;1000.1021;  4.0000001E-01;84.639572;3;-2.8429193;0.0;8.1672533e-07;0;-0.065015346;  1.0002070E+04;  0.0000000E+00;  2.9445681E-17;  1.0000000E+04;  0.0000000E+00;  9.9999736E+03;-0.065891415;0.0;0.00087607052;19.706499
  3.9993256E-02;  9.9999998E-03;  2.0000024E-02;1107;-0.0048234924;0.0;1.7904029e-05;1000.1021;  4.0000001E-01;84.639572;3;-2.8450294;0.0;0.01512713;0;-0.065028526;  1.0002070E+04;  0.0000000E+00;  1.0294667E-12;  1.0000000E+04;  0.0000000E+00;  9.9999736E+03;-0.06595026;0.0;0.00092173193;20.367044
  3.9993238E-02;  9.9999998E-03;  4.0000051E-02;1108;-0.0048359237;0.0;3.8154034e-05;1000.1022;  4.0000001E-01;84.738335;3;-2.8509574;0.0;0.031369053;0;-0.065060385;  1.0002075E+04;  0.0000000E+00;  7.8298916E-11;  1.0000000E+04;  0.0000000E+00;  9.9999688E+03;-0.066117048;0.0;0.0010566622;22.322905
  3.9993215E-02;  9.9999998E-03;  6.0000084E-02;1109;-0.0048542046;0.0;6.3584921e-05;1000.1022;  4.0000001E-01;84.738335;3;-2.859376;0.0;0.050230831;0;-0.065087251;  1.0002083E+04;  0.0000000E+00; -2.1675054E-11;  1.0000000E+04;  0.0000000E+00;  9.9999619E+03;-0.066361636;0.0;0.0012743837;25.491453
  3.9993189E-02;  9.9999998E-03;  8.0000125E-02;1110;-0.0048746015;0.0;9.5967778e-05;1000.1022;  4.0000001E-01;84.738335;3;-2.8680587;0.0;0.072595879;0;-0.065068066;  1.0002093E+04;  0.0000000E+00;  1.0546723E-10;  1.0000000E+04;  0.0000000E+00;  9.9999531E+03;-0.066631123;0.0;0.0015630551;29.717237
  3.9993167E-02;  9.9999998E-03;  1.0000019E-01;1111;-0.0048912428;0.0;0.0001379079;1000.1021;  4.0000001E-01;84.639572;3;-2.8736429;0.0;0.09964186;0;-0.064942814;  1.0002099E+04;  0.0000000E+00;  1.2606750E-09;  1.0000000E+04;  0.0000000E+00;  9.9999404E+03;-0.066846192;0.0;0.0019033749;34.738045
  3.9993163E-02;  9.9999998E-03;  1.2000026E-01;1112;-0.0048965658;0.0;0.00019012534;1000.1014;  4.0000001E-01;84.046989;3;-2.8718233;0.0;0.13142699;0;-0.064630613;  1.0002100E+04;  0.0000000E+00;  5.2780531E-09;  1.0000000E+04;  0.0000000E+00;  9.9999287E+03;-0.066896215;0.0;0.0022656007;40.136272
  3.9993189E-02;  9.9999998E-03;  1.4000034E-01;1113;-0.0048795771;0.0;0.00025489886;1000.1006;  4.0000001E-01;83.355652;3;-2.8562727;0.0;0.16915846;0;-0.064026959;  1.0002093E+04;  0.0000000E+00;  1.6989190E-08;  1.0000000E+04;  0.0000000E+00;  9.9999189E+03;-0.066634178;0.0;0.0026072178;45.295448
  5.9991151E-02;  9.9999998E-03; -4.0440234E-13;1137;-0.0062672482;0.0;-8.2735846e-10;1000.1142;  4.0000001E-01;94.614594;3;-3.4622545;0.0;-5.439606e-07;0;-0.071096174;  1.0002312E+04;  0.0000000E+00; -4.0226272E-16;  1.0000000E+04;  0.0000000E+00;  9.9999707E+03;-0.072099328;0.0;0.0010031527;22.542791
  5.9991144E-02;  9.9999998E-03;  2.0000026E-02;1138;-0.0062734378;0.0;1.9276296e-05;1000.1142;  4.0000001E-01;94.614594;3;-3.4649115;0.0;0.01617993;0;-0.071120098;  1.0002315E+04;  0.0000000E+00; -7.4995260E-11;  1.0000000E+04;  0.0000000E+00;  9.9999678E+03;-0.072173737;0.0;0.001053635;23.301548
  5.9991118E-02;  9.9999998E-03;  4.0000055E-02;1139;-0.0062911073;0.0;4.1128496e-05;1000.1142;  4.0000001E-01;94.614594;3;-3.4724445;0.0;0.033539504;0;-0.071184404;  1.0002324E+04;  0.0000000E+00; -6.4853345E-11;  1.0000000E+04;  0.0000000E+00;  9.9999639E+03;-0.072387084;0.0;0.0012026823;25.547295
  5.9991084E-02;  9.9999998E-03;  6.0000092E-02;1140;-0.006317494;0.0;6.826473e-05;1000.1144;  4.0000001E-01;94.812119;3;-3.4832554;0.0;0.053280734;0;-0.071266174;  1.0002333E+04;  0.0000000E+00; -1.1832789E-11;  1.0000000E+04;  0.0000000E+00;  9.9999551E+03;-0.072708897;0.0;0.0014427251;29.182323
  5.9991043E-02;  9.9999998E-03;  8.0000140E-02;1141;-0.0063478164;0.0;0.00010284871;1000.1146;  4.0000001E-01;94.910881;3;-3.4947739;0.0;0.076114967;0;-0.071325526;  1.0002344E+04;  0.0000000E+00; -1.8920132E-10;  1.0000000E+04;  0.0000000E+00;  9.9999453E+03;-0.07308542;0.0;0.0017598923;34.022724
  5.9991006E-02;  9.9999998E-03;  1.0000020E-01;1142;-0.0063748485;0.0;0.00014713728;1000.1146;  4.0000001E-01;95.009644;3;-3.5030832;0.0;0.10313657;0;-0.071303412;  1.0002354E+04;  0.0000000E+00;  8.9871982E-10;  1.0000000E+04;  0.0000000E+00;  9.9999326E+03;-0.073435262;0.0;0.0021318479;39.761665
  5.9990987E-02;  9.9999998E-03;  1.2000028E-01;1143;-0.0063887201;0.0;0.00020296406;1000.1141;  4.0000001E-01;94.515831;3;-3.5030088;0.0;0.13484675;0;-0.071118318;  1.0002364E+04;  0.0000000E+00;  5.9332192E-09;  1.0000000E+04;  0.0000000E+00;  9.9999199E+03;-0.073643178;0.0;0.0025248628;45.917896
  5.9991006E-02;  9.9999998E-03;  1.4000037E-01;1144;-0.0063757948;0.0;0.00027072817;1000.1135;  4.0000001E-01;94.022018;3;-3.4872656;0.0;0.17097281;0;-0.070660815;  1.0002362E+04;  0.0000000E+00;  1.9103892E-08;  1.0000000E+04;  0.0000000E+00;  9.9999063E+03;-0.073553473;0.0;0.0028926595;51.802219
  7.9988815E-02;  9.9999998E-03;  1.5012868E-13;1168;-0.0078294063;0.0;-2.921941e-10;1000.1276;  4.0000001E-01;105.67601;3;-4.1440535;0.0;-9.9526187e-07;0;-0.077610485;  1.0002590E+04;  0.0000000E+00;  1.6976015E-16;  1.0000000E+04;  0.0000000E+00;  9.9999658E+03;-0.078725219;0.0;0.0011147343;25.313482
  7.9988800E-02;  9.9999998E-03;  2.0000026E-02;1169;-0.0078376932;0.0;1.9230447e-05;1000.1276;  4.0000001E-01;105.77477;3;-4.1473112;0.0;0.016642144;0;-0.077649556;  1.0002593E+04;  0.0000000E+00; -9.7970999E-11;  1.0000000E+04;  0.0000000E+00;  9.9999658E+03;-0.078816913;0.0;0.0011673539;26.147478
  7.9988770E-02;  9.9999998E-03;  4.0000055E-02;1170;-0.0078614578;0.0;4.1062904e-05;1000.1279;  4.0000001E-01;105.9723;3;-4.1565609;0.0;0.034383625;0;-0.077759683;  1.0002601E+04;  0.0000000E+00; -2.8383934E-10;  1.0000000E+04;  0.0000000E+00;  9.9999600E+03;-0.079082184;0.0;0.0013224967;28.614035
  7.9988718E-02;  9.9999998E-03;  6.0000092E-02;1171;-0.0078974059;0.0;6.8065281e-05;1000.1281;  4.0000001E-01;106.07106;3;-4.1700311;0.0;0.054061729;0;-0.077919312;  1.0002616E+04;  0.0000000E+00; -5.3815435E-10;  1.0000000E+04;  0.0000000E+00;  9.9999502E+03;-0.0794909;0.0;0.0015715851;32.599922
  7.9988658E-02;  9.9999998E-03;  8.0000140E-02;1172;-0.0079397466;0.0;0.00010283863;1000.1283;  4.0000001E-01;106.26859;3;-4.1847186;0.0;0.076689646;0;-0.078090549;  1.0002631E+04;  0.0000000E+00; -8.2767615E-10;  1.0000000E+04;  0.0000000E+00;  9.9999395E+03;-0.079989523;0.0;0.0018989713;37.8936
  7.9988599E-02;  9.9999998E-03;  1.0000020E-01;1173;-0.0079799136;0.0;0.00014696;1000.1286;  4.0000001E-01;106.56487;3;-4.1962852;0.0;0.10272283;0;-0.078216009;  1.0002650E+04;  0.0000000E+00; -8.1021891E-11;  1.0000000E+04;  0.0000000E+00;  9.9999258E+03;-0.080495976;0.0;0.0022799645;44.149055
  7.9988562E-02;  9.9999998E-03;  1.2000029E-01;1174;-0.0080057196;0.0;0.00020307522;1000.1286;  4.0000001E-01;106.56487;3;-4.1985159;0.0;0.13275906;0;-0.078214243;  1.0002664E+04;  0.0000000E+00;  5.0447917E-09;  1.0000000E+04;  0.0000000E+00;  9.9999102E+03;-0.080892749;0.0;0.0026785063;50.837769
  7.9988569E-02;  9.9999998E-03;  1.4000039E-01;1175;-0.0080009792;0.0;0.00027036844;1000.1283;  4.0000001E-01;106.26859;3;-4.1833906;0.0;0.16636151;0;-0.077969596;  1.0002669E+04;  0.0000000E+00;  1.7640195E-08;  1.0000000E+04;  0.0000000E+00;  9.9998965E+03;-0.081017606;0.0;0.0030480139;57.235935
  9.9986218E-02;  9.9999998E-03; -3.5526199E-13;1199;-0.0095085269;0.0;-2.780195e-10;1000.144;  4.0000001E-01;119.30525;3;-4.8995628;0.0;-1.715693e-06;0;-0.085265942;  1.0002918E+04;  0.0000000E+00;  5.4297221E-16;  1.0000000E+04;  0.0000000E+00;  9.9999619E+03;-0.086518534;0.0;0.0012525887;28.592358
  9.9986203E-02;  9.9999998E-03;  2.0000026E-02;1200;-0.0095192296;0.0;1.8763161e-05;1000.1442;  4.0000001E-01;119.40401;3;-4.9035149;0.0;0.01710676;0;-0.085324265;  1.0002922E+04;  0.0000000E+00; -9.2137513E-11;  1.0000000E+04;  0.0000000E+00;  9.9999600E+03;-0.086629368;0.0;0.0013051014;29.487711
  9.9986158E-02;  9.9999998E-03;  4.0000055E-02;1201;-0.0095500732;0.0;3.9961473e-05;1000.1443;  4.0000001E-01;119.60154;3;-4.9147072;0.0;0.034986373;0;-0.085492805;  1.0002933E+04;  0.0000000E+00; -1.9276274E-10;  1.0000000E+04;  0.0000000E+00;  9.9999541E+03;-0.086952373;0.0;0.0014595716;32.132236
  9.9986091E-02;  9.9999998E-03;  6.0000092E-02;1202;-0.0095972205;0.0;6.617896e-05;1000.1447;  4.0000001E-01;119.89783;3;-4.9312196;0.0;0.054502733;0;-0.085751332;  1.0002948E+04;  0.0000000E+00; -1.0545073E-09;  1.0000000E+04;  0.0000000E+00;  9.9999443E+03;-0.087457597;0.0;0.0017062675;36.393135
  9.9986009E-02;  9.9999998E-03;  8.0000140E-02;1203;-0.0096540162;0.0;9.9649653e-05;1000.1454;  4.0000001E-01;120.4904;3;-4.9496779;0.0;0.07632231;0;-0.086064465;  1.0002972E+04;  0.0000000E+00; -1.6049555E-09;  1.0000000E+04;  0.0000000E+00;  9.9999336E+03;-0.088092156;0.0;0.0020276918;42.026608
  9.9985927E-02;  9.9999998E-03;  1.0000020E-01;1204;-0.0097104954;0.0;0.00014260723;1000.1458;  4.0000001E-01;120.78669;3;-4.9651747;0.0;0.10101693;0;-0.086377047;  1.0002996E+04;  0.0000000E+00; -1.0492920E-09;  1.0000000E+04;  0.0000000E+00;  9.9999199E+03;-0.088774055;0.0;0.0023970094;48.644405
  9.9985860E-02;  9.9999998E-03;  1.2000029E-01;1205;-0.0097526312;0.0;0.00019651887;1000.1461;  4.0000001E-01;121.08298;3;-4.9709029;0.0;0.12885579;0;-0.086607166;  1.0003021E+04;  0.0000000E+00;  3.7500389E-09;  1.0000000E+04;  0.0000000E+00;  9.9999033E+03;-0.089384153;0.0;0.0027769851;55.678383
  9.9985845E-02;  9.9999998E-03;  1.4000039E-01;1206;-0.0097612236;0.0;0.00026203485;1000.1462;  4.0000001E-01;121.08298;3;-4.9576235;0.0;0.15965414;0;-0.086631931;  1.0003034E+04;  0.0000000E+00;  1.4044973E-08;  1.0000000E+04;  0.0000000E+00;  9.9998896E+03;-0.089755446;0.0;0.0031235171;62.39703
  1.1998331E-01;  9.9999998E-03; -7.1712054E-13;1230;-0.011342379;0.0;-4.0034628e-10;1000.1635;  4.0000001E-01;135.40356;3;-5.7345214;0.0;1.2142982e-06;0;-0.094379067;  1.0003318E+04;  0.0000000E+00;  4.0087036E-16;  1.0000000E+04;  0.0000000E+00;  9.9999551E+03;-0.095860302;0.0;0.0014812363;33.178356
  1.1998329E-01;  9.9999998E-03;  2.0000026E-02;1231;-0.011355878;0.0;1.9392863e-05;1000.1636;  4.0000001E-01;135.60109;3;-5.7392468;0.0;0.018297583;0;-0.094459996;  1.0003323E+04;  0.0000000E+00; -1.9726530E-10;  1.0000000E+04;  0.0000000E+00;  9.9999531E+03;-0.09599223;0.0;0.001532233;34.137348
  1.1998323E-01;  9.9999998E-03;  4.0000055E-02;1232;-0.011394953;0.0;4.1085892e-05;1000.1641;  4.0000001E-01;135.89737;3;-5.7526836;0.0;0.037155103;0;-0.094696984;  1.0003336E+04;  0.0000000E+00; -5.3845606E-10;  1.0000000E+04;  0.0000000E+00;  9.9999473E+03;-0.09637861;0.0;0.0016816228;36.963398
  1.1998314E-01;  9.9999998E-03;  6.0000096E-02;1233;-0.01145527;0.0;6.7317385e-05;1000.1647;  4.0000001E-01;136.39119;3;-5.7727084;0.0;0.057162628;0;-0.095071793;  1.0003357E+04;  0.0000000E+00; -1.7419308E-09;  1.0000000E+04;  0.0000000E+00;  9.9999404E+03;-0.09698987;0.0;0.001918074;41.49538
  1.1998302E-01;  9.9999998E-03;  8.0000147E-02;1234;-0.011529345;0.0;0.00010033585;1000.1656;  4.0000001E-01;137.18129;3;-5.79561;0.0;0.078784019;0;-0.09555158;  1.0003387E+04;  0.0000000E+00; -2.6305180E-09;  1.0000000E+04;  0.0000000E+00;  9.9999238E+03;-0.097773194;0.0;0.0022216144;47.443722
  1.1998291E-01;  9.9999998E-03;  1.0000021E-01;1235;-0.011605956;0.0;0.00014229941;1000.1664;  4.0000001E-01;137.87262;3;-5.8159738;0.0;0.10255367;0;-0.096084215;  1.0003418E+04;  0.0000000E+00; -1.6896284E-09;  1.0000000E+04;  0.0000000E+00;  9.9999092E+03;-0.098646849;0.0;0.0025626379;54.361725
  1.1998281E-01;  9.9999998E-03;  1.2000030E-01;1236;-0.011669278;0.0;0.00019405391;1000.1674;  4.0000001E-01;138.66272;3;-5.8263011;0.0;0.12816033;0;-0.096587978;  1.0003452E+04;  0.0000000E+00;  3.4049796E-09;  1.0000000E+04;  0.0000000E+00;  9.9998965E+03;-0.099490725;0.0;0.0029027427;61.631035
  1.1998276E-01;  9.9999998E-03;  1.4000040E-01;1237;-0.011697335;0.0;0.00025731866;1000.1678;  4.0000001E-01;139.05777;3;-5.8164477;0.0;0.15628031;0;-0.096932761;  1.0003478E+04;  0.0000000E+00;  1.0307985E-08;  1.0000000E+04;  0.0000000E+00;  9.9998809E+03;-0.10013457;0.0;0.0032018053;68.51973
  1.3997997E-01;  9.9999998E-03;  7.2068640E-14;1261;-0.013380267;0.0;1.4845604e-09;1000.1867;  4.0000001E-01;154.66226;3;-6.6508532;0.0;3.0962101e-06;0;-0.10495508;  1.0003794E+04;  0.0000000E+00; -6.3304394E-16;  1.0000000E+04;  0.0000000E+00;  9.9999434E+03;-0.10683703;0.0;0.0018819586;40.028351
  1.3997996E-01;  9.9999998E-03;  2.0000031E-02;1262;-0.013397013;0.0;2.3161949e-05;1000.1871;  4.0000001E-01;154.95856;3;-6.6564322;0.0;0.021397874;0;-0.10506079;  1.0003798E+04;  0.0000000E+00;  1.2034178E-10;  1.0000000E+04;  0.0000000E+00;  9.9999414E+03;-0.10699183;0.0;0.0019310514;41.074551
  1.3997988E-01;  9.9999998E-03;  4.0000066E-02;1263;-0.013445677;0.0;4.8406702e-05;1000.1876;  4.0000001E-01;155.35361;3;-6.6723962;0.0;0.04309186;0;-0.10537279;  1.0003813E+04;  0.0000000E+00; -9.1697672E-10;  1.0000000E+04;  0.0000000E+00;  9.9999365E+03;-0.10744672;0.0;0.0020739245;44.1479
  1.3997976E-01;  9.9999998E-03;  6.0000107E-02;1264;-0.013521462;0.0;7.7787852e-05;1000.1884;  4.0000001E-01;156.14371;3;-6.6963744;0.0;0.065450139;0;-0.10587509;  1.0003843E+04;  0.0000000E+00; -2.0183573E-09;  1.0000000E+04;  0.0000000E+00;  9.9999268E+03;-0.10817197;0.0;0.0022968815;49.044971
  1.3997962E-01;  9.9999998E-03;  8.0000162E-02;1265;-0.013616068;0.0;0.0001133255;1000.1895;  4.0000001E-01;157.03258;3;-6.7243071;0.0;0.088564016;0;-0.10653859;  1.0003877E+04;  0.0000000E+00; -3.6149062E-09;  1.0000000E+04;  0.0000000E+00;  9.9999102E+03;-0.10911481;0.0;0.0025762226;55.406654
  1.3997945E-01;  9.9999998E-03;  1.0000023E-01;1266;-0.013717114;0.0;0.00015669093;1000.1908;  4.0000001E-01;158.11896;3;-6.7503667;0.0;0.1127552;0;-0.10731539;  1.0003919E+04;  0.0000000E+00; -3.0002909E-09;  1.0000000E+04;  0.0000000E+00;  9.9998955E+03;-0.11019349;0.0;0.0028780981;62.6982
  1.3997932E-01;  9.9999998E-03;  1.2000033E-01;1267;-0.013807016;0.0;0.00020892215;1000.1922;  4.0000001E-01;159.20535;3;-6.7664609;0.0;0.13787881;0;-0.10812614;  1.0003962E+04;  0.0000000E+00;  4.6512358E-09;  1.0000000E+04;  0.0000000E+00;  9.9998809E+03;-0.11128801;0.0;0.0031618718;70.223518
  1.3997921E-01;  9.9999998E-03;  1.4000043E-01;1268;-0.013861312;0.0;0.00027037493;1000.1933;  4.0000001E-01;160.19298;3;-6.7615957;0.0;0.16322851;0;-0.1088356;  1.0003999E+04;  0.0000000E+00;  1.0506263E-08;  1.0000000E+04;  0.0000000E+00;  9.9998672E+03;-0.11222783;0.0;0.0033922365;77.24987
  1.5997615E-01;  9.9999998E-03; -4.2497405E-13;1292;-0.015664008;0.0;-2.1974487e-09;1000.2138;  4.0000001E-01;177.18015;3;-7.6507983;0.0;-2.4414803e-06;0;-0.11689804;  1.0004351E+04;  0.0000000E+00;  6.8213527E-16;  1.0000000E+04;  0.0000000E+00;  9.9999277E+03;-0.1194434;0.0;0.0025453623;50.188477
  1.5997612E-01;  9.9999998E-03;  2.0000041E-02;1293;-0.015684508;0.0;3.2343189e-05;1000.2141;  4.0000001E-01;177.37767;3;-7.657311;0.0;0.027703559;0;-0.11702907;  1.0004356E+04;  0.0000000E+00; -3.6433030E-11;  1.0000000E+04;  0.0000000E+00;  9.9999238E+03;-0.11962234;0.0;0.00259327;51.370701
  1.5997604E-01;  9.9999998E-03;  4.0000089E-02;1294;-0.015744297;0.0;6.656623e-05;1000.2147;  4.0000001E-01;177.87149;3;-7.6760149;0.0;0.055417996;0;-0.11741781;  1.0004375E+04;  0.0000000E+00; -7.3145462E-10;  1.0000000E+04;  0.0000000E+00;  9.9999180E+03;-0.12014927;0.0;0.0027314611;54.832253
  1.5997589E-01;  9.9999998E-03;  6.0000140E-02;1295;-0.015838098;0.0;0.00010457349;1000.2157;  4.0000001E-01;178.66159;3;-7.7042799;0.0;0.083253592;0;-0.1180511;  1.0004411E+04;  0.0000000E+00; -2.6982718E-09;  1.0000000E+04;  0.0000000E+00;  9.9999043E+03;-0.120994;0.0;0.0029428971;60.30962
  1.5997569E-01;  9.9999998E-03;  8.0000207E-02;1296;-0.015956828;0.0;0.0001481846;1000.2174;  4.0000001E-01;180.14302;3;-7.737761;0.0;0.11114928;0;-0.11890475;  1.0004454E+04;  0.0000000E+00; -4.3501318E-09;  1.0000000E+04;  0.0000000E+00;  9.9998906E+03;-0.12210339;0.0;0.0031986297;67.344917
  1.5997548E-01;  9.9999998E-03;  1.0000029E-01;1297;-0.016086923;0.0;0.00019870905;1000.2192;  4.0000001E-01;181.62447;3;-7.7701721;0.0;0.13901366;0;-0.11993724;  1.0004506E+04;  0.0000000E+00; -3.6450509E-09;  1.0000000E+04;  0.0000000E+00;  9.9998770E+03;-0.12339609;0.0;0.0034588536;75.280685
  1.5997528E-01;  9.9999998E-03;  1.2000040E-01;1298;-0.016209064;0.0;0.00025664055;1000.2211;  4.0000001E-01;183.10591;3;-7.792841;0.0;0.16625257;0;-0.12107393;  1.0004562E+04;  0.0000000E+00;  7.6444699E-09;  1.0000000E+04;  0.0000000E+00;  9.9998584E+03;-0.12475368;0.0;0.0036797479;83.317482
  1.5997511E-01;  9.9999998E-03;  1.4000052E-01;1299;-0.016296281;0.0;0.00032068547;1000.223;  4.0000001E-01;184.68611;3;-7.7939196;0.0;0.19123763;0;-0.12217759;  1.0004613E+04;  0.0000000E+00;  1.9443965E-08;  1.0000000E+04;  0.0000000E+00;  9.9998438E+03;-0.12601078;0.0;0.0038331787;90.749214
  1.7997175E-01;  9.9999998E-03;  4.5213686E-13;1323;-0.01822404;0.0;-1.1180099e-10;1000.2446;  4.0000001E-01;202.6609;3;-8.7377005;0.0;1.408971e-06;0;-0.13022736;  1.0004993E+04;  0.0000000E+00;  8.9138762E-16;  1.0000000E+04;  0.0000000E+00;  9.9998965E+03;-0.13379093;0.0;0.0035635645;64.72052
  1.7997171E-01;  9.9999998E-03;  2.0000061E-02;1324;-0.01824886;0.0;4.9292204e-05;1000.245;  4.0000001E-01;202.9572;3;-8.7452278;0.0;0.038538225;0;-0.13038236;  1.0005003E+04;  0.0000000E+00;  1.2713601E-10;  1.0000000E+04;  0.0000000E+00;  9.9998955E+03;-0.1339945;0.0;0.0036121416;66.11657
  1.7997159E-01;  9.9999998E-03;  4.0000126E-02;1325;-0.018321412;0.0;0.00010041822;1000.2457;  4.0000001E-01;203.54977;3;-8.7668152;0.0;0.07690075;0;-0.13084428;  1.0005027E+04;  0.0000000E+00; -3.3232800E-10;  1.0000000E+04;  0.0000000E+00;  9.9998877E+03;-0.13459519;0.0;0.0037509005;70.19442
  1.7997141E-01;  9.9999998E-03;  6.0000204E-02;1326;-0.018435953;0.0;0.00015519145;1000.2472;  4.0000001E-01;204.83368;3;-8.7996683;0.0;0.11482587;0;-0.13160335;  1.0005069E+04;  0.0000000E+00; -2.9277030E-09;  1.0000000E+04;  0.0000000E+00;  9.9998750E+03;-0.13556197;0.0;0.0039586294;76.613716
  1.7997117E-01;  9.9999998E-03;  8.0000296E-02;1327;-0.018582575;0.0;0.00021519023;1000.249;  4.0000001E-01;206.21635;3;-8.8389988;0.0;0.15219136;0;-0.13264081;  1.0005122E+04;  0.0000000E+00; -5.2291638E-09;  1.0000000E+04;  0.0000000E+00;  9.9998545E+03;-0.13684088;0.0;0.0042000669;84.793762
  1.7997089E-01;  9.9999998E-03;  1.0000040E-01;1328;-0.018746419;0.0;0.00028172976;1000.2513;  4.0000001E-01;208.1916;3;-8.8780689;0.0;0.18848442;0;-0.1339227;  1.0005185E+04;  0.0000000E+00; -2.4994855E-09;  1.0000000E+04;  0.0000000E+00;  9.9998389E+03;-0.13835141;0.0;0.0044287145;93.932121
  1.7997061E-01;  9.9999998E-03;  1.2000053E-01;1329;-0.01890636;0.0;0.00035408567;1000.2538;  4.0000001E-01;210.26563;3;-8.9075871;0.0;0.22226532;0;-0.135381;  1.0005254E+04;  0.0000000E+00;  1.2898992E-08;  1.0000000E+04;  0.0000000E+00;  9.9998184E+03;-0.13997982;0.0;0.0045988243;103.13371
  1.7997038E-01;  9.9999998E-03;  1.4000069E-01;1330;-0.019032756;0.0;0.00042992234;1000.2565;  4.0000001E-01;212.4384;3;-8.9149027;0.0;0.25134438;0;-0.13687626;  1.0005323E+04;  0.0000000E+00;  3.4200927E-08;  1.0000000E+04;  0.0000000E+00;  9.9998057E+03;-0.14157194;0.0;0.0046956865;111.81513
  1.9996668E-01;  9.9999998E-03; -9.2111507E-13;1354;-0.021091443;0.0;-1.8094646e-09;1000.2802;  4.0000001E-01;232.19093;3;-9.9162369;0.0;-3.372314e-06;0;-0.14502566;  1.0005745E+04;  0.0000000E+00; -1.7410373E-16;  1.0000000E+04;  0.0000000E+00;  9.9998604E+03;-0.15004754;0.0;0.0050218878;84.591629
  1.9996664E-01;  9.9999998E-03;  2.0000093E-02;1355;-0.021121131;0.0;7.6263379e-05;1000.2806;  4.0000001E-01;232.48721;3;-9.9247227;0.0;0.055005252;0;-0.14520177;  1.0005753E+04;  0.0000000E+00; -1.6969517E-10;  1.0000000E+04;  0.0000000E+00;  9.9998584E+03;-0.15027584;0.0;0.0050740703;86.311493
  1.9996649E-01;  9.9999998E-03;  4.0000189E-02;1356;-0.02120816;0.0;0.00015445327;1000.2816;  4.0000001E-01;233.27731;3;-9.9492874;0.0;0.10991601;0;-0.14572799;  1.0005783E+04;  0.0000000E+00; -6.4639571E-10;  1.0000000E+04;  0.0000000E+00;  9.9998467E+03;-0.15095001;0.0;0.0052220267;91.33152
  1.9996627E-01;  9.9999998E-03;  6.0000300E-02;1357;-0.021346245;0.0;0.00023653339;1000.2831;  4.0000001E-01;234.56123;3;-9.9867477;0.0;0.16425958;0;-0.14659788;  1.0005833E+04;  0.0000000E+00; -2.5969777E-09;  1.0000000E+04;  0.0000000E+00;  9.9998301E+03;-0.15203805;0.0;0.0054401727;99.225731
  1.9996595E-01;  9.9999998E-03;  8.0000430E-02;1358;-0.021524534;0.0;0.00032434106;1000.2853;  4.0000001E-01;236.33896;3;-10.031974;0.0;0.21729027;0;-0.14779866;  1.0005899E+04;  0.0000000E+00; -5.2968394E-09;  1.0000000E+04;  0.0000000E+00;  9.9998105E+03;-0.15348577;0.0;0.0056871106;109.28335
  1.9996561E-01;  9.9999998E-03;  1.0000058E-01;1359;-0.02172677;0.0;0.00041855089;1000.288;  4.0000001E-01;238.6105;3;-10.07761;0.0;0.26772729;0;-0.14930308;  1.0005974E+04;  0.0000000E+00; -1.7936328E-09;  1.0000000E+04;  0.0000000E+00;  9.9997881E+03;-0.15521429;0.0;0.0059112157;120.56606
  1.9996524E-01;  9.9999998E-03;  1.2000075E-01;1360;-0.021929679;0.0;0.00051824586;1000.2913;  4.0000001E-01;241.27708;3;-10.113503;0.0;0.31480983;0;-0.15104742;  1.0006059E+04;  0.0000000E+00;  1.7675823E-08;  1.0000000E+04;  0.0000000E+00;  9.9997646E+03;-0.15711696;0.0;0.0060695433;132.14612
  1.9996491E-01;  9.9999998E-03;  1.4000095E-01;1361;-0.022100888;0.0;0.00061969156;1000.2943;  4.0000001E-01;243.84492;3;-10.126386;0.0;0.35439721;0;-0.15288638;  1.0006146E+04;  0.0000000E+00;  4.8177657E-08;  1.0000000E+04;  0.0000000E+00;  9.9997432E+03;-0.15905738;0.0;0.0061710058;143.73282
  2.1996085E-01;  9.9999998E-03; -1.6170129E-12;1385;-0.024303915;0.0;-3.2776672e-09;1000.3207;  4.0000001E-01;265.77023;3;-11.193374;0.0;-5.6517056e-06;0;-0.16137429;  1.0006606E+04;  0.0000000E+00;  1.9777925E-15;  1.0000000E+04;  0.0000000E+00;  9.9998096E+03;-0.16836442;0.0;0.006990131;110.56123
  2.1996079E-01;  9.9999998E-03;  2.0000136E-02;1386;-0.024339052;0.0;0.0001152883;1000.321;  4.0000001E-01;265.96774;3;-11.202854;0.0;0.079214856;0;-0.16156662;  1.0006617E+04;  0.0000000E+00;  8.4090977E-11;  1.0000000E+04;  0.0000000E+00;  9.9998057E+03;-0.16861634;0.0;0.0070497189;112.74776
  2.1996062E-01;  9.9999998E-03;  4.0000279E-02;1387;-0.024442282;0.0;0.00023260521;1000.3221;  4.0000001E-01;266.8566;3;-11.230416;0.0;0.15670836;0;-0.16214292;  1.0006650E+04;  0.0000000E+00; -2.5531430E-10;  1.0000000E+04;  0.0000000E+00;  9.9997910E+03;-0.16936135;0.0;0.0072184424;119.13799
  2.1996033E-01;  9.9999998E-03;  6.0000442E-02;1388;-0.02460671;0.0;0.00035452846;1000.3239;  4.0000001E-01;268.33804;3;-11.272343;0.0;0.23374122;0;-0.16310029;  1.0006709E+04;  0.0000000E+00; -1.9229172E-09;  1.0000000E+04;  0.0000000E+00;  9.9997734E+03;-0.17056732;0.0;0.0074670264;129.22377
  2.1995996E-01;  9.9999998E-03;  8.0000624E-02;1389;-0.024820413;0.0;0.0004830753;1000.3262;  4.0000001E-01;270.31329;3;-11.323071;0.0;0.30909422;0;-0.16442959;  1.0006783E+04;  0.0000000E+00; -3.8793235E-09;  1.0000000E+04;  0.0000000E+00;  9.9997461E+03;-0.17217945;0.0;0.0077498499;142.18071
  2.1995951E-01;  9.9999998E-03;  1.0000084E-01;1390;-0.025065431;0.0;0.00061954604;1000.3294;  4.0000001E-01;272.88113;3;-11.374561;0.0;0.38268727;0;-0.16610779;  1.0006877E+04;  0.0000000E+00; -1.2420650E-09;  1.0000000E+04;  0.0000000E+00;  9.9997158E+03;-0.17412208;0.0;0.008014298;156.98131
  2.1995905E-01;  9.9999998E-03;  1.2000108E-01;1391;-0.025315918;0.0;0.00076304621;1000.3331;  4.0000001E-01;275.94278;3;-11.415497;0.0;0.45090264;0;-0.16807027;  1.0006981E+04;  0.0000000E+00;  2.1860409E-08;  1.0000000E+04;  0.0000000E+00;  9.9996836E+03;-0.17629799;0.0;0.0082277209;172.77223
  2.1995860E-01;  9.9999998E-03;  1.4000134E-01;1392;-0.025537113;0.0;0.00090529112;1000.337;  4.0000001E-01;279.20193;3;-11.432347;0.0;0.50755787;0;-0.17015857;  1.0007094E+04;  0.0000000E+00;  6.1395347E-08;  1.0000000E+04;  0.0000000E+00;  9.9996523E+03;-0.17859171;0.0;0.0084331557;189.74483
  2.3995414E-01;  9.9999998E-03; -7.3761960E-13;1416;-0.027905302;0.0;-1.96518e-09;1000.3667;  4.0000001E-01;303.79382;3;-12.578732;0.0;-8.3298974e-06;0;-0.1793761;  1.0007593E+04;  0.0000000E+00; -1.8464461E-15;  1.0000000E+04;  0.0000000E+00;  9.9997451E+03;-0.18889086;0.0;0.0095147695;143.10193
  2.3995407E-01;  9.9999998E-03;  2.0000195E-02;1417;-0.027946455;0.0;0.00016714535;1000.3671;  4.0000001E-01;304.18887;3;-12.589228;0.0;0.10981506;0;-0.17957881;  1.0007604E+04;  0.0000000E+00;  1.0345126E-09;  1.0000000E+04;  0.0000000E+00;  9.9997383E+03;-0.18916492;0.0;0.0095861061;145.92836
  2.3995386E-01;  9.9999998E-03;  4.0000401E-02;1418;-0.028067425;0.0;0.00033744751;1000.3683;  4.0000001E-01;305.17651;3;-12.619148;0.0;0.21989809;0;-0.180187;  1.0007647E+04;  0.0000000E+00;  1.8428907E-09;  1.0000000E+04;  0.0000000E+00;  9.9997217E+03;-0.18997613;0.0;0.0097891176;154.21222
  2.3995350E-01;  9.9999998E-03;  6.0000628E-02;1419;-0.028260769;0.0;0.0005138999;1000.3703;  4.0000001E-01;306.75671;3;-12.664942;0.0;0.32894707;0;-0.18120007;  1.0007711E+04;  0.0000000E+00;  2.5067090E-10;  1.0000000E+04;  0.0000000E+00;  9.9996953E+03;-0.19129249;0.0;0.010092421;167.3788
  2.3995304E-01;  9.9999998E-03;  8.0000885E-02;1420;-0.028513288;0.0;0.00069870759;1000.3731;  4.0000001E-01;309.12701;3;-12.72014;0.0;0.43480161;0;-0.18261139;  1.0007802E+04;  0.0000000E+00; -3.1856588E-09;  1.0000000E+04;  0.0000000E+00;  9.9996602E+03;-0.19306079;0.0;0.010449399;184.52705
  2.3995249E-01;  9.9999998E-03;  1.0000118E-01;1421;-0.028805183;0.0;0.00089204841;1000.3764;  4.0000001E-01;311.89236;3;-12.776298;0.0;0.5335924;0;-0.18439686;  1.0007911E+04;  0.0000000E+00; -7.6114542E-10;  1.0000000E+04;  0.0000000E+00;  9.9996201E+03;-0.19520865;0.0;0.010811794;204.60654
  2.3995191E-01;  9.9999998E-03;  1.2000152E-01;1422;-0.029108247;0.0;0.0010920248;1000.3804;  4.0000001E-01;315.15152;3;-12.820869;0.0;0.62784296;0;-0.18648407;  1.0008036E+04;  0.0000000E+00;  1.8981970E-08;  1.0000000E+04;  0.0000000E+00;  9.9995762E+03;-0.19764851;0.0;0.011164437;226.9427
  2.3995134E-01;  9.9999998E-03;  1.4000189E-01;1423;-0.029383553;0.0;0.0012952812;1000.3847;  4.0000001E-01;318.707;3;-12.838292;0.0;0.71420544;0;-0.18869542;  1.0008175E+04;  0.0000000E+00;  5.6202836E-08;  1.0000000E+04;  0.0000000E+00;  9.9995254E+03;-0.20028511;0.0;0.011589686;252.31743
  2.5994644E-01;  9.9999998E-03; -6.7315749E-13;1447;-0.031942952;0.0;-1.1770603e-09;1000.4191;  4.0000001E-01;347.24936;3;-14.081486;0.0;-7.0598835e-06;0;-0.19916673;  1.0008720E+04;  0.0000000E+00; -1.2338771E-16;  1.0000000E+04;  0.0000000E+00;  9.9996670E+03;-0.21177983;0.0;0.012613096;182.36676
  2.5994635E-01;  9.9999998E-03;  2.0000268E-02;1448;-0.031990543;0.0;0.00023382554;1000.4195;  4.0000001E-01;347.54565;3;-14.092501;0.0;0.15115722;0;-0.19937257;  1.0008736E+04;  0.0000000E+00; -5.0058763E-11;  1.0000000E+04;  0.0000000E+00;  9.9996582E+03;-0.21207327;0.0;0.012700691;186.03047
  2.5994608E-01;  9.9999998E-03;  4.0000550E-02;1449;-0.032130636;0.0;0.00047123467;1000.4208;  4.0000001E-01;348.63205;3;-14.124348;0.0;0.30051744;0;-0.1999909;  1.0008783E+04;  0.0000000E+00;  2.8469187E-09;  1.0000000E+04;  0.0000000E+00;  9.9996348E+03;-0.21294311;0.0;0.012952212;196.80734
  2.5994566E-01;  9.9999998E-03;  6.0000863E-02;1450;-0.032355241;0.0;0.00071509357;1000.4229;  4.0000001E-01;350.40976;3;-14.173542;0.0;0.44385901;0;-0.2010227;  1.0008863E+04;  0.0000000E+00;  3.8729810E-09;  1.0000000E+04;  0.0000000E+00;  9.9996016E+03;-0.21435879;0.0;0.013336098;214.07874
  2.5994509E-01;  9.9999998E-03;  8.0001213E-02;1451;-0.032649789;0.0;0.00096949149;1000.4258;  4.0000001E-01;352.78006;3;-14.231763;0.0;0.58737355;0;-0.20246132;  1.0008965E+04;  0.0000000E+00; -1.2146762E-09;  1.0000000E+04;  0.0000000E+00;  9.9995547E+03;-0.21626934;0.0;0.013808023;236.90697
  2.5994441E-01;  9.9999998E-03;  1.0000162E-01;1452;-0.032992423;0.0;0.0012360545;1000.4295;  4.0000001E-01;355.84171;3;-14.290313;0.0;0.72559392;0;-0.20427772;  1.0009096E+04;  0.0000000E+00; -2.7139355E-09;  1.0000000E+04;  0.0000000E+00;  9.9995000E+03;-0.21860586;0.0;0.014328131;264.27243
  2.5994369E-01;  9.9999998E-03;  1.2000208E-01;1453;-0.033351939;0.0;0.0015118769;1000.4339;  4.0000001E-01;359.49591;3;-14.335313;0.0;0.85565835;0;-0.20638706;  1.0009242E+04;  0.0000000E+00;  2.9514768E-09;  1.0000000E+04;  0.0000000E+00;  9.9994375E+03;-0.22128838;0.0;0.014901332;295.71371
  2.5994298E-01;  9.9999998E-03;  1.4000258E-01;1454;-0.033686943;0.0;0.0017936403;1000.4382;  4.0000001E-01;363.05139;3;-14.351655;0.0;0.97159451;0;-0.20858981;  1.0009405E+04;  0.0000000E+00;  2.6767617E-08;  1.0000000E+04;  0.0000000E+00;  9.9993613E+03;-0.22423476;0.0;0.015644949;332.54224
  2.7993757E-01;  9.9999998E-03; -6.5298559E-13;1478;-0.036468189;0.0;1.0521127e-11;1000.4783;  4.0000001E-01;396.33438;3;-15.714032;0.0;4.371359e-06;0;-0.2209118;  1.0009997E+04;  0.0000000E+00; -1.4298364E-15;  1.0000000E+04;  0.0000000E+00;  9.9995732E+03;-0.23718165;0.0;0.016269846;228.22745
  2.7993745E-01;  9.9999998E-03;  2.0000355E-02;1479;-0.036522526;0.0;0.00031366394;1000.4788;  4.0000001E-01;396.63068;3;-15.725132;0.0;0.19699699;0;-0.22111294;  1.0010016E+04;  0.0000000E+00;  3.0101264E-09;  1.0000000E+04;  0.0000000E+00;  9.9995635E+03;-0.23749116;0.0;0.016378229;232.94057
  2.7993715E-01;  9.9999998E-03;  4.0000729E-02;1480;-0.036682788;0.0;0.00063129317;1000.48;  4.0000001E-01;397.71707;3;-15.757636;0.0;0.39371687;0;-0.22171745;  1.0010070E+04;  0.0000000E+00;  7.3632247E-09;  1.0000000E+04;  0.0000000E+00;  9.9995352E+03;-0.23840971;0.0;0.01669227;246.8549
  2.7993664E-01;  9.9999998E-03;  6.0001142E-02;1481;-0.036940202;0.0;0.00095805823;1000.4823;  4.0000001E-01;399.59354;3;-15.807078;0.0;0.58746636;0;-0.22272761;  1.0010161E+04;  0.0000000E+00;  1.0111957E-08;  1.0000000E+04;  0.0000000E+00;  9.9994893E+03;-0.23990908;0.0;0.017181465;269.32782
  2.7993596E-01;  9.9999998E-03;  8.0001608E-02;1482;-0.037278987;0.0;0.0012973341;1000.4851;  4.0000001E-01;401.86508;3;-15.866004;0.0;0.77580214;0;-0.22413583;  1.0010285E+04;  0.0000000E+00;  6.5921753E-09;  1.0000000E+04;  0.0000000E+00;  9.9994268E+03;-0.24194106;0.0;0.017805239;299.40823
  2.7993515E-01;  9.9999998E-03;  1.0000213E-01;1483;-0.0376755;0.0;0.0016513788;1000.4893;  4.0000001E-01;405.42053;3;-15.923597;0.0;0.95602643;0;-0.22590786;  1.0010434E+04;  0.0000000E+00; -1.4780727E-09;  1.0000000E+04;  0.0000000E+00;  9.9993555E+03;-0.24444048;0.0;0.018532611;336.11234
  2.7993423E-01;  9.9999998E-03;  1.2000275E-01;1484;-0.038095962;0.0;0.0020220969;1000.4937;  4.0000001E-01;409.07477;3;-15.96545;0.0;1.1274505;0;-0.22794509;  1.0010610E+04;  0.0000000E+00; -6.5457595E-09;  1.0000000E+04;  0.0000000E+00;  9.9992656E+03;-0.24732932;0.0;0.019384228;379.11462
  2.7993333E-01;  9.9999998E-03;  1.4000343E-01;1485;-0.038497809;0.0;0.0023976464;1000.4984;  4.0000001E-01;412.82773;3;-15.978234;0.0;1.2753839;0;-0.23002994;  1.0010805E+04;  0.0000000E+00; -1.0917964E-08;  1.0000000E+04;  0.0000000E+00;  9.9991641E+03;-0.25052783;0.0;0.020497892;430.00522
  2.9992738E-01;  9.9999998E-03; -4.7818574E-13;1509;-0.041533243;0.0;-3.3006894e-10;1000.5454;  4.0000001E-01;451.8389;3;-17.480549;0.0;-6.3601547e-06;0;-0.24479644;  1.0011442E+04;  0.0000000E+00; -1.9753537E-15;  1.0000000E+04;  0.0000000E+00;  9.9994697E+03;-0.26523405;0.0;0.020437609;280.41681
  2.9992726E-01;  9.9999998E-03;  2.0000454E-02;1510;-0.041594531;0.0;0.00040600551;1000.5459;  4.0000001E-01;452.23395;3;-17.491686;0.0;0.25587723;0;-0.24498399;  1.0011466E+04;  0.0000000E+00;  4.3186810E-09;  1.0000000E+04;  0.0000000E+00;  9.9994551E+03;-0.26555526;0.0;0.020571275;286.39331
  2.9992691E-01;  9.9999998E-03;  4.0000930E-02;1511;-0.041775439;0.0;0.00081707351;1000.5471;  4.0000001E-01;453.32034;3;-17.52342;0.0;0.50916553;0;-0.24554969;  1.0011526E+04;  0.0000000E+00;  1.4117675E-08;  1.0000000E+04;  0.0000000E+00;  9.9994189E+03;-0.26651093;0.0;0.020961238;304.0925
  2.9992628E-01;  9.9999998E-03;  6.0001455E-02;1512;-0.042066514;0.0;0.0012389646;1000.5494;  4.0000001E-01;455.19684;3;-17.571327;0.0;0.75609595;0;-0.24649698;  1.0011632E+04;  0.0000000E+00;  2.2571809E-08;  1.0000000E+04;  0.0000000E+00;  9.9993633E+03;-0.26807457;0.0;0.021577589;332.85718
  2.9992548E-01;  9.9999998E-03;  8.0002047E-02;1513;-0.042451259;0.0;0.0016760571;1000.5528;  4.0000001E-01;457.96219;3;-17.62752;0.0;0.99442047;0;-0.24782002;  1.0011777E+04;  0.0000000E+00;  2.2141812E-08;  1.0000000E+04;  0.0000000E+00;  9.9992832E+03;-0.27020207;0.0;0.022382047;371.71625
  2.9992449E-01;  9.9999998E-03;  1.0000273E-01;1514;-0.042904261;0.0;0.002133019;1000.5568;  4.0000001E-01;461.3201;3;-17.680332;0.0;1.224805;0;-0.24948134;  1.0011953E+04;  0.0000000E+00;  1.1138399E-08;  1.0000000E+04;  0.0000000E+00;  9.9991855E+03;-0.27282947;0.0;0.023348138;419.66333
  2.9992339E-01;  9.9999998E-03;  1.2000351E-01;1515;-0.04339017;0.0;0.0026100178;1000.5612;  4.0000001E-01;464.87558;3;-17.717207;0.0;1.4310659;0;-0.25137448;  1.0012159E+04;  0.0000000E+00; -1.0461870E-08;  1.0000000E+04;  0.0000000E+00;  9.9990703E+03;-0.27587596;0.0;0.024501488;476.33008
  2.9992229E-01;  9.9999998E-03;  1.4000441E-01;1516;-0.043864407;0.0;0.0030983204;1000.5657;  4.0000001E-01;468.72729;3;-17.720009;0.0;1.6258011;0;-0.25327188;  1.0012386E+04;  0.0000000E+00; -2.8340864E-08;  1.0000000E+04;  0.0000000E+00;  9.9989316E+03;-0.2792505;0.0;0.025978616;543.20374
  3.1991574E-01;  9.9999998E-03; -2.2573033E-12;1540;-0.047195729;0.0;-5.8448557e-09;1000.6209;  4.0000001E-01;514.45441;3;-19.394684;0.0;-1.5462341e-05;0;-0.27100539;  1.0013075E+04;  0.0000000E+00;  7.7883748E-16;  1.0000000E+04;  0.0000000E+00;  9.9993496E+03;-0.29604694;0.0;0.025041537;338.81839
  3.1991559E-01;  9.9999998E-03;  2.0000562E-02;1541;-0.047263928;0.0;0.00051008188;1000.6215;  4.0000001E-01;514.84943;3;-19.404741;0.0;0.32083523;0;-0.27117112;  1.0013101E+04;  0.0000000E+00;  6.8120767E-09;  1.0000000E+04;  0.0000000E+00;  9.9993340E+03;-0.2963762;0.0;0.025205085;346.25497
  3.1991515E-01;  9.9999998E-03;  4.0001154E-02;1542;-0.047465414;0.0;0.0010260502;1000.6227;  4.0000001E-01;515.8371;3;-19.433243;0.0;0.63747001;0;-0.27167249;  1.0013173E+04;  0.0000000E+00;  2.4058634E-08;  1.0000000E+04;  0.0000000E+00;  9.9992891E+03;-0.29735664;0.0;0.025684133;368.33194
  3.1991443E-01;  9.9999998E-03;  6.0001802E-02;1543;-0.047790322;0.0;0.0015543664;1000.6251;  4.0000001E-01;517.91107;3;-19.475592;0.0;0.94359225;0;-0.27251765;  1.0013292E+04;  0.0000000E+00;  4.3737217E-08;  1.0000000E+04;  0.0000000E+00;  9.9992168E+03;-0.29896498;0.0;0.026447313;404.37622
  3.1991348E-01;  9.9999998E-03;  8.0002539E-02;1544;-0.048221331;0.0;0.0020999881;1000.6285;  4.0000001E-01;520.77521;3;-19.523752;0.0;1.2354674;0;-0.27370501;  1.0013457E+04;  0.0000000E+00;  5.0889955E-08;  1.0000000E+04;  0.0000000E+00;  9.9991172E+03;-0.30115879;0.0;0.027453784;453.36487
  3.1991228E-01;  9.9999998E-03;  1.0000339E-01;1545;-0.048731871;0.0;0.0026689868;1000.6325;  4.0000001E-01;524.03436;3;-19.566057;0.0;1.5137863;0;-0.27520218;  1.0013663E+04;  0.0000000E+00;  3.6045954E-08;  1.0000000E+04;  0.0000000E+00;  9.9989932E+03;-0.30387509;0.0;0.028672906;514.16907
  3.1991097E-01;  9.9999998E-03;  1.2000438E-01;1546;-0.04928666;0.0;0.0032599831;1000.6371;  4.0000001E-01;527.88611;3;-19.591593;0.0;1.7636477;0;-0.27690446;  1.0013903E+04;  0.0000000E+00;  2.7344411E-09;  1.0000000E+04;  0.0000000E+00;  9.9988486E+03;-0.30702472;0.0;0.03012025;586.15259
  3.1990960E-01;  9.9999998E-03;  1.4000551E-01;1547;-0.04983788;0.0;0.0038750598;1000.6418;  4.0000001E-01;531.73785;3;-19.580032;0.0;2.0045328;0;-0.27858815;  1.0014168E+04;  0.0000000E+00; -4.2178677E-08;  1.0000000E+04;  0.0000000E+00;  9.9986748E+03;-0.31049597;0.0;0.031907838;670.29584
  3.3990243E-01;  9.9999998E-03;  7.3093075E-14;1571;-0.053516924;0.0;1.2758722e-09;1000.7059;  4.0000001E-01;584.77332;3;-21.465412;0.0;-2.4834644e-06;0;-0.29969695;  1.0014901E+04;  0.0000000E+00;  3.6344971E-16;  1.0000000E+04;  0.0000000E+00;  9.9992197E+03;-0.32968688;0.0;0.029989924;403.94125
  3.3990225E-01;  9.9999998E-03;  2.0000676E-02;1572;-0.053591974;0.0;0.00062184816;1000.7064;  4.0000001E-01;585.1684;3;-21.473095;0.0;0.3921729;0;-0.29983285;  1.0014928E+04;  0.0000000E+00;  1.0003523E-08;  1.0000000E+04;  0.0000000E+00;  9.9992021E+03;-0.33002123;0.0;0.030188393;412.99008
  3.3990175E-01;  9.9999998E-03;  4.0001389E-02;1573;-0.053813644;0.0;0.0012510694;1000.7077;  4.0000001E-01;586.35352;3;-21.494825;0.0;0.77637649;0;-0.30024645;  1.0015013E+04;  0.0000000E+00;  3.9265263E-08;  1.0000000E+04;  0.0000000E+00;  9.9991445E+03;-0.3310172;0.0;0.030770756;439.9039
  3.3990088E-01;  9.9999998E-03;  6.0002174E-02;1574;-0.054171722;0.0;0.0018942244;1000.7103;  4.0000001E-01;588.52631;3;-21.526398;0.0;1.144682;0;-0.30095175;  1.0015153E+04;  0.0000000E+00;  7.3706452E-08;  1.0000000E+04;  0.0000000E+00;  9.9990547E+03;-0.33265254;0.0;0.031700801;483.99292
  3.3989975E-01;  9.9999998E-03;  8.0003068E-02;1575;-0.054648239;0.0;0.0025578425;1000.7139;  4.0000001E-01;591.4892;3;-21.559399;0.0;1.4943888;0;-0.30195919;  1.0015347E+04;  0.0000000E+00;  9.2582169E-08;  1.0000000E+04;  0.0000000E+00;  9.9989355E+03;-0.3348875;0.0;0.032928329;544.15063
  3.3989835E-01;  9.9999998E-03;  1.0000411E-01;1576;-0.055216957;0.0;0.0032458073;1000.718;  4.0000001E-01;594.84711;3;-21.586411;0.0;1.8136452;0;-0.30324969;  1.0015585E+04;  0.0000000E+00;  8.1122614E-08;  1.0000000E+04;  0.0000000E+00;  9.9987822E+03;-0.33765644;0.0;0.034406748;619.02734
  3.3989674E-01;  9.9999998E-03;  1.2000531E-01;1577;-0.055840373;0.0;0.0039618807;1000.7231;  4.0000001E-01;599.09387;3;-21.589476;0.0;2.1130929;0;-0.30473542;  1.0015863E+04;  0.0000000E+00;  2.7277563E-08;  1.0000000E+04;  0.0000000E+00;  9.9986016E+03;-0.34086022;0.0;0.036124803;707.52008
  3.3989507E-01;  9.9999998E-03;  1.4000671E-01;1578;-0.056470547;0.0;0.0047082375;1000.7277;  4.0000001E-01;602.84686;3;-21.555927;0.0;2.3922703;0;-0.30621088;  1.0016169E+04;  0.0000000E+00; -3.0287211E-08;  1.0000000E+04;  0.0000000E+00;  9.9983926E+03;-0.34436187;0.0;0.038151003;809.79468
  3.5988721E-01;  9.9999998E-03; -2.7919878E-12;1602;-0.060560912;0.0;-3.7611989e-09;1000.8005;  4.0000001E-01;663.1908;3;-23.701488;0.0;5.9732538e-06;0;-0.33096728;  1.0016944E+04;  0.0000000E+00; -4.9350744E-16;  1.0000000E+04;  0.0000000E+00;  9.9990732E+03;-0.3661609;0.0;0.035193633;477.61542
  3.5988700E-01;  9.9999998E-03;  2.0000793E-02;1603;-0.060642458;0.0;0.00073779636;1000.8011;  4.0000001E-01;663.68457;3;-23.705511;0.0;0.46609247;0;-0.3310661;  1.0016977E+04;  0.0000000E+00;  1.4811592E-08;  1.0000000E+04;  0.0000000E+00;  9.9990518E+03;-0.36649889;0.0;0.035432793;488.34842
  3.5988641E-01;  9.9999998E-03;  4.0001631E-02;1604;-0.060883544;0.0;0.0014844959;1000.8027;  4.0000001E-01;665.06726;3;-23.716122;0.0;0.92149508;0;-0.33137146;  1.0017074E+04;  0.0000000E+00;  5.2525372E-08;  1.0000000E+04;  0.0000000E+00;  9.9989883E+03;-0.36750621;0.0;0.036134753;520.32251
  3.5988542E-01;  9.9999998E-03;  6.0002562E-02;1605;-0.061273545;0.0;0.0022476551;1000.8054;  4.0000001E-01;667.24005;3;-23.729851;0.0;1.3554859;0;-0.33190647;  1.0017235E+04;  0.0000000E+00;  1.0099698E-07;  1.0000000E+04;  0.0000000E+00;  9.9988779E+03;-0.36916122;0.0;0.037254747;572.84473
  3.5988405E-01;  9.9999998E-03;  8.0003627E-02;1606;-0.061793886;0.0;0.0030353237;1000.8091;  4.0000001E-01;670.40045;3;-23.739136;0.0;1.7637737;0;-0.33269659;  1.0017457E+04;  0.0000000E+00;  1.3815527E-07;  1.0000000E+04;  0.0000000E+00;  9.9987324E+03;-0.3714222;0.0;0.038725603;644.72131
  3.5988241E-01;  9.9999998E-03;  1.0000486E-01;1607;-0.062418643;0.0;0.0038494032;1000.8137;  4.0000001E-01;674.05463;3;-23.739613;0.0;2.1273205;0;-0.33374864;  1.0017732E+04;  0.0000000E+00;  1.1668779E-07;  1.0000000E+04;  0.0000000E+00;  9.9985479E+03;-0.37422085;0.0;0.040472224;734.32861
  3.5988051E-01;  9.9999998E-03;  1.2000630E-01;1608;-0.06311015;0.0;0.0046987301;1000.819;  4.0000001E-01;678.59772;3;-23.712044;0.0;2.475039;0;-0.33500558;  1.0018054E+04;  0.0000000E+00;  6.1487867E-08;  1.0000000E+04;  0.0000000E+00;  9.9983350E+03;-0.37744623;0.0;0.042440668;839.98633
  3.5987848E-01;  9.9999998E-03;  1.4000797E-01;1609;-0.063818417;0.0;0.0055838386;1000.8245;  4.0000001E-01;683.14081;3;-23.645103;0.0;2.7819524;0;-0.33629403;  1.0018407E+04;  0.0000000E+00; -4.3262842E-09;  1.0000000E+04;  0.0000000E+00;  9.9980869E+03;-0.38093692;0.0;0.044642888;960.92432
  3.7986991E-01;  9.9999998E-03; -2.5594343E-13;1633;-0.068389535;0.0;-2.1373128e-09;1000.9053;  4.0000001E-01;750.00293;3;-26.111374;0.0;-3.5145713e-06;0;-0.36481392;  1.0019213E+04;  0.0000000E+00;  1.1161091E-15;  1.0000000E+04;  0.0000000E+00;  9.9989014E+03;-0.40540883;0.0;0.040594902;563.90778
  3.7986967E-01;  9.9999998E-03;  2.0000920E-02;1634;-0.068477355;0.0;0.0008541196;1000.9061;  4.0000001E-01;750.69427;3;-26.109955;0.0;0.54016852;0;-0.36487123;  1.0019250E+04;  0.0000000E+00;  1.5372109E-08;  1.0000000E+04;  0.0000000E+00;  9.9988760E+03;-0.40575248;0.0;0.040881254;576.27734
  3.7986895E-01;  9.9999998E-03;  4.0001892E-02;1635;-0.068737023;0.0;0.0017189929;1000.908;  4.0000001E-01;752.27448;3;-26.104586;0.0;1.0660257;0;-0.36505467;  1.0019365E+04;  0.0000000E+00;  5.3728026E-08;  1.0000000E+04;  0.0000000E+00;  9.9988018E+03;-0.40677577;0.0;0.041721106;613.18292
  3.7986779E-01;  9.9999998E-03;  6.0002971E-02;1636;-0.069156796;0.0;0.0026022941;1000.9109;  4.0000001E-01;754.74353;3;-26.091345;0.0;1.5621421;0;-0.36539721;  1.0019553E+04;  0.0000000E+00;  1.0447151E-07;  1.0000000E+04;  0.0000000E+00;  9.9986748E+03;-0.40845487;0.0;0.043057643;673.96112
  3.7986621E-01;  9.9999998E-03;  8.0004208E-02;1637;-0.06971883;0.0;0.0035134107;1000.9153;  4.0000001E-01;758.29895;3;-26.069588;0.0;2.027359;0;-0.36594579;  1.0019806E+04;  0.0000000E+00;  1.4087588E-07;  1.0000000E+04;  0.0000000E+00;  9.9985088E+03;-0.41074485;0.0;0.044799048;757.36597
  3.7986425E-01;  9.9999998E-03;  1.0000565E-01;1638;-0.070397921;0.0;0.0044615529;1000.9206;  4.0000001E-01;762.64453;3;-26.032309;0.0;2.4544082;0;-0.366741;  1.0020124E+04;  0.0000000E+00;  1.0861214E-07;  1.0000000E+04;  0.0000000E+00;  9.9982959E+03;-0.41357097;0.0;0.046829972;861.51105
  3.7986201E-01;  9.9999998E-03;  1.2000734E-01;1639;-0.07115458;0.0;0.0054526576;1000.9266;  4.0000001E-01;767.6814;3;-25.960215;0.0;2.8389456;0;-0.36777064;  1.0020498E+04;  0.0000000E+00;  3.8264858E-08;  1.0000000E+04;  0.0000000E+00;  9.9980469E+03;-0.41681129;0.0;0.049040653;984.15063
  3.7985957E-01;  9.9999998E-03;  1.4000933E-01;1640;-0.071937248;0.0;0.0064814151;1000.933;  4.0000001E-01;773.01459;3;-25.843454;0.0;3.1634927;0;-0.3689028;  1.0020908E+04;  0.0000000E+00; -7.6959692E-09;  1.0000000E+04;  0.0000000E+00;  9.9977627E+03;-0.42028245;0.0;0.051379643;1123.6974
  3.9985028E-01;  9.9999998E-03; -2.4876030E-12;1664;-0.077058509;0.0;-1.2276117e-09;1001.0208;  4.0000001E-01;845.70367;3;-28.700773;0.0;8.9235764e-06;0;-0.40109962;  1.0021732E+04;  0.0000000E+00; -1.2175890E-15;  1.0000000E+04;  0.0000000E+00;  9.9986914E+03;-0.44730425;0.0;0.046204615;670.19373
  3.9985001E-01;  9.9999998E-03;  2.0001061E-02;1665;-0.077152275;0.0;0.00096796622;1001.0215;  4.0000001E-01;846.2962;3;-28.691664;0.0;0.61007804;0;-0.40111381;  1.0021773E+04;  0.0000000E+00;  8.8506216E-09;  1.0000000E+04;  0.0000000E+00;  9.9986641E+03;-0.44765851;0.0;0.046544716;683.99664
  3.9984918E-01;  9.9999998E-03;  4.0002182E-02;1666;-0.077428818;0.0;0.0019454376;1001.0236;  4.0000001E-01;847.97516;3;-28.66239;0.0;1.1944612;0;-0.40117094;  1.0021905E+04;  0.0000000E+00;  2.9173982E-08;  1.0000000E+04;  0.0000000E+00;  9.9985811E+03;-0.44871226;0.0;0.047541309;725.23895
  3.9984781E-01;  9.9999998E-03;  6.0003426E-02;1667;-0.077877127;0.0;0.0029474595;1001.0274;  4.0000001E-01;851.13556;3;-28.616056;0.0;1.7596033;0;-0.40131572;  1.0022116E+04;  0.0000000E+00;  5.2441180E-08;  1.0000000E+04;  0.0000000E+00;  9.9984414E+03;-0.45043704;0.0;0.049121317;793.3266
  3.9984596E-01;  9.9999998E-03;  8.0004849E-02;1668;-0.078480057;0.0;0.0039851354;1001.0326;  4.0000001E-01;855.48114;3;-28.554331;0.0;2.2820342;0;-0.40162036;  1.0022412E+04;  0.0000000E+00;  4.5833250E-08;  1.0000000E+04;  0.0000000E+00;  9.9982490E+03;-0.45278078;0.0;0.051160429;887.00684
  3.9984366E-01;  9.9999998E-03;  1.0000651E-01;1669;-0.079209231;0.0;0.0050682896;1001.0389;  4.0000001E-01;860.71558;3;-28.459253;0.0;2.7533875;0;-0.40216586;  1.0022779E+04;  0.0000000E+00; -2.8710033E-08;  1.0000000E+04;  0.0000000E+00;  9.9980107E+03;-0.45565832;0.0;0.053492457;1004.188
  3.9984098E-01;  9.9999998E-03;  1.2000847E-01;1670;-0.080026984;0.0;0.0062016882;1001.0466;  4.0000001E-01;867.03638;3;-28.326191;0.0;3.169024;0;-0.40299177;  1.0023212E+04;  0.0000000E+00; -1.2815759E-07;  1.0000000E+04;  0.0000000E+00;  9.9977314E+03;-0.45893431;0.0;0.05594255;1142.2041
  3.9983809E-01;  9.9999998E-03;  1.4001077E-01;1671;-0.080879837;0.0;0.0073826024;1001.0544;  4.0000001E-01;873.55469;3;-28.148235;0.0;3.5285327;0;-0.40401474;  1.0023689E+04;  0.0000000E+00; -1.1354370E-07;  1.0000000E+04;  0.0000000E+00;  9.9974131E+03;-0.46240923;0.0;0.058394488;1299.0322
  4.1982812E-01;  9.9999998E-03; -2.7778060E-12;1695;-0.086614825;0.0;-1.6370257e-09;1001.1459;  4.0000001E-01;949.3053;3;-31.47121;0.0;-1.3595161e-05;0;-0.43950447;  1.0024510E+04;  0.0000000E+00; -2.6476181E-15;  1.0000000E+04;  0.0000000E+00;  9.9984199E+03;-0.4916487;0.0;0.052144229;808.2243
  4.1982779E-01;  9.9999998E-03;  2.0001238E-02;1696;-0.086713776;0.0;0.001075981;1001.1467;  4.0000001E-01;949.99658;3;-31.450115;0.0;0.66360229;0;-0.43947846;  1.0024562E+04;  0.0000000E+00; -9.8960875E-09;  1.0000000E+04;  0.0000000E+00;  9.9983896E+03;-0.49202234;0.0;0.052543879;823.07794
  4.1982684E-01;  9.9999998E-03;  4.0002540E-02;1697;-0.087007761;0.0;0.0021658363;1001.1497;  4.0000001E-01;952.4657;3;-31.394836;0.0;1.3128469;0;-0.43941867;  1.0024707E+04;  0.0000000E+00; -2.8472234E-08;  1.0000000E+04;  0.0000000E+00;  9.9982949E+03;-0.49313152;0.0;0.053712834;867.51556
  4.1982526E-01;  9.9999998E-03;  6.0003974E-02;1698;-0.087483987;0.0;0.0032850855;1001.1544;  4.0000001E-01;956.31738;3;-31.303728;0.0;1.9346223;0;-0.43938237;  1.0024953E+04;  0.0000000E+00; -6.6896405E-08;  1.0000000E+04;  0.0000000E+00;  9.9981465E+03;-0.49493882;0.0;0.055556457;941.02325
  4.1982308E-01;  9.9999998E-03;  8.0005608E-02;1699;-0.088125579;0.0;0.0044477829;1001.1608;  4.0000001E-01;961.65057;3;-31.184864;0.0;2.5040841;0;-0.43947089;  1.0025290E+04;  0.0000000E+00; -1.6431882E-07;  1.0000000E+04;  0.0000000E+00;  9.9979404E+03;-0.49737954;0.0;0.057908662;1042.3447
  4.1982037E-01;  9.9999998E-03;  1.0000751E-01;1700;-0.088903494;0.0;0.0056657256;1001.1689;  4.0000001E-01;968.46521;3;-31.018028;0.0;3.0140018;0;-0.43981138;  1.0025714E+04;  0.0000000E+00; -3.5262596E-07;  1.0000000E+04;  0.0000000E+00;  9.9976836E+03;-0.50035357;0.0;0.060542189;1169.2325
  4.1981724E-01;  9.9999998E-03;  1.2000977E-01;1701;-0.089779072;0.0;0.0069446838;1001.1786;  4.0000001E-01;976.46497;3;-30.807962;0.0;3.4570494;0;-0.44050074;  1.0026209E+04;  0.0000000E+00; -5.0596253E-07;  1.0000000E+04;  0.0000000E+00;  9.9973809E+03;-0.50371128;0.0;0.06321054;1318.8311
  4.1981378E-01;  9.9999998E-03;  1.4001240E-01;1702;-0.090697646;0.0;0.0082813632;1001.189;  4.0000001E-01;985.05731;3;-30.547873;0.0;3.8388042;0;-0.44150236;  1.0026762E+04;  0.0000000E+00; -3.7613546E-07;  1.0000000E+04;  0.0000000E+00;  9.9970342E+03;-0.50723916;0.0;0.065736808;1489.2976
  4.3980318E-01;  9.9999998E-03;  1.0020727E-13;1726;-0.097100399;0.0;-1.8992294e-09;1001.2798;  4.0000001E-01;1060.314;3;-34.421314;0.0;-1.5722606e-05;0;-0.47942466;  1.0027568E+04;  0.0000000E+00;  1.3752840E-15;  1.0000000E+04;  0.0000000E+00;  9.9980498E+03;-0.53811026;0.0;0.058685616;994.91571
  4.3980280E-01;  9.9999998E-03;  2.0001482E-02;1727;-0.097205326;0.0;0.0011847033;1001.2811;  4.0000001E-01;1061.3015;3;-34.387318;0.0;0.7082395;0;-0.47936633;  1.0027622E+04;  0.0000000E+00; -2.7202811E-08;  1.0000000E+04;  0.0000000E+00;  9.9980195E+03;-0.53851438;0.0;0.05914804;1010.2612
  4.3980169E-01;  9.9999998E-03;  4.0003031E-02;1728;-0.097516753;0.0;0.0023864454;1001.2849;  4.0000001E-01;1064.4619;3;-34.297291;0.0;1.4071451;0;-0.47921401;  1.0027791E+04;  0.0000000E+00; -1.0568412E-07;  1.0000000E+04;  0.0000000E+00;  9.9979248E+03;-0.53971058;0.0;0.060496584;1056.1995
  4.3979985E-01;  9.9999998E-03;  6.0004715E-02;1729;-0.098021403;0.0;0.0036231009;1001.291;  4.0000001E-01;1069.4989;3;-34.150414;0.0;2.0710783;0;-0.47903991;  1.0028066E+04;  0.0000000E+00; -2.3388071E-07;  1.0000000E+04;  0.0000000E+00;  9.9977715E+03;-0.5416469;0.0;0.062607005;1132.2322
  4.3979731E-01;  9.9999998E-03;  8.0006614E-02;1730;-0.098701537;0.0;0.0049108048;1001.2993;  4.0000001E-01;1076.4122;3;-33.958317;0.0;2.6758311;0;-0.47897837;  1.0028448E+04;  0.0000000E+00; -4.5394091E-07;  1.0000000E+04;  0.0000000E+00;  9.9975566E+03;-0.54423851;0.0;0.06526015;1237.0015
  4.3979418E-01;  9.9999998E-03;  1.0000881E-01;1731;-0.099527314;0.0;0.0062648482;1001.3098;  4.0000001E-01;1085.1033;3;-33.703598;0.0;3.2163599;0;-0.47920862;  1.0028929E+04;  0.0000000E+00; -7.8222092E-07;  1.0000000E+04;  0.0000000E+00;  9.9972871E+03;-0.54736412;0.0;0.06815549;1368.0515
  4.3979049E-01;  9.9999998E-03;  1.2001137E-01;1732;-0.10046002;0.0;0.0076926886;1001.3225;  4.0000001E-01;1095.6709;3;-33.398079;0.0;3.680196;0;-0.47988674;  1.0029499E+04;  0.0000000E+00; -1.0375891E-06;  1.0000000E+04;  0.0000000E+00;  9.9969756E+03;-0.55085605;0.0;0.070969321;1522.5378
  4.3978640E-01;  9.9999998E-03;  1.4001437E-01;1733;-0.10144393;0.0;0.0091908704;1001.3362;  4.0000001E-01;1107.0286;3;-33.039829;0.0;4.0799298;0;-0.48102063;  1.0030132E+04;  0.0000000E+00; -7.5102508E-07;  1.0000000E+04;  0.0000000E+00;  9.9966172E+03;-0.55449319;0.0;0.073472552;1699.5629
  4.5977518E-01;  9.9999998E-03;  7.6301196E-12;1757;-0.10855726;0.0;2.7930183e-09;1001.4217;  4.0000072E-01;1177.8406;3;-37.542194;0.0;-3.0737883e-06;0;-0.51972955;  1.0030884E+04;  0.0000000E+00; -5.2871864E-15;  1.0000000E+04;  0.0000000E+00;  9.9975371E+03;-0.58600634;0.0;0.066276774;1252.4735
  4.5977473E-01;  9.9999998E-03;  2.0001844E-02;1758;-0.10866847;0.0;0.0013012466;1001.4233;  4.0000069E-01;1179.1245;3;-37.492332;0.0;0.73357838;0;-0.51965249;  1.0030948E+04;  0.0000000E+00; -4.0387999E-08;  1.0000000E+04;  0.0000000E+00;  9.9975088E+03;-0.58645326;0.0;0.066800743;1267.6146
  4.5977345E-01;  9.9999998E-03;  4.0003750E-02;1759;-0.10899897;0.0;0.0026220751;1001.4278;  4.0000063E-01;1182.8774;3;-37.360134;0.0;1.463135;0;-0.51944602;  1.0031136E+04;  0.0000000E+00; -1.5067708E-07;  1.0000000E+04;  0.0000000E+00;  9.9974160E+03;-0.58776724;0.0;0.068321221;1312.9113
  4.5977131E-01;  9.9999998E-03;  6.0005795E-02;1760;-0.10953543;0.0;0.0039801947;1001.4357;  4.0000063E-01;1189.4945;3;-37.151379;0.0;2.1410463;0;-0.51920211;  1.0031443E+04;  0.0000000E+00; -3.4713338E-07;  1.0000000E+04;  0.0000000E+00;  9.9972598E+03;-0.58987629;0.0;0.070674203;1387.7108
  4.5976838E-01;  9.9999998E-03;  8.0008052E-02;1761;-0.11025567;0.0;0.0054012164;1001.4465;  4.0000066E-01;1198.3832;3;-36.864697;0.0;2.7785251;0;-0.51909363;  1.0031870E+04;  0.0000000E+00; -6.6890959E-07;  1.0000000E+04;  0.0000000E+00;  9.9970547E+03;-0.59266615;0.0;0.073572524;1490.2899
  4.5976469E-01;  9.9999998E-03;  1.0001060E-01;1762;-0.11113107;0.0;0.0068992381;1001.4605;  4.0000069E-01;1210.0371;3;-36.505127;0.0;3.3373761;0;-0.51935786;  1.0032411E+04;  0.0000000E+00; -1.1117517E-06;  1.0000000E+04;  0.0000000E+00;  9.9967920E+03;-0.59598488;0.0;0.076627009;1617.7264
  4.5976037E-01;  9.9999998E-03;  1.2001354E-01;1763;-0.11212292;0.0;0.0084844064;1001.4772;  4.0000078E-01;1223.7651;3;-36.086208;0.0;3.8173673;0;-0.52021593;  1.0033050E+04;  0.0000000E+00; -1.3878575E-06;  1.0000000E+04;  0.0000000E+00;  9.9964893E+03;-0.59964502;0.0;0.07942909;1767.1917
  4.5975554E-01;  9.9999998E-03;  1.4001691E-01;1764;-0.11317494;0.0;0.010152263;1001.4957;  4.0000078E-01;1239.172;3;-35.613083;0.0;4.2327929;0;-0.52171582;  1.0033771E+04;  0.0000000E+00; -8.4333232E-07;  1.0000000E+04;  0.0000000E+00;  9.9961445E+03;-0.60342658;0.0;0.081710748;1939.4919
  4.7974372E-01;  9.9999998E-03; -5.2319694E-13;1788;-0.12102957;0.0;1.657591e-09;1001.5651;  4.0000212E-01;1296.6508;3;-40.814533;0.0;-2.9546395e-06;0;-0.55831689;  1.0034400E+04;  0.0000000E+00;  2.5230598E-15;  1.0000000E+04;  0.0000000E+00;  9.9968281E+03;-0.63386172;0.0;0.075544827;1607.532
  4.7974321E-01;  9.9999998E-03;  2.0002389E-02;1789;-0.12114841;0.0;0.0014370311;1001.5669;  4.0000203E-01;1298.1322;3;-40.750019;0.0;0.73922306;0;-0.55823648;  1.0034469E+04;  0.0000000E+00; -3.8909146E-08;  1.0000000E+04;  0.0000000E+00;  9.9968008E+03;-0.63435835;0.0;0.076121889;1621.7141
  4.7974169E-01;  9.9999998E-03;  4.0004835E-02;1790;-0.12150232;0.0;0.0028922688;1001.5728;  4.0000209E-01;1302.9716;3;-40.574574;0.0;1.4526882;0;-0.55802649;  1.0034676E+04;  0.0000000E+00; -1.5112363E-07;  1.0000000E+04;  0.0000000E+00;  9.9967119E+03;-0.63581091;0.0;0.077784412;1664.006
  4.7973925E-01;  9.9999998E-03;  6.0007401E-02;1791;-0.12207421;0.0;0.004395898;1001.5826;  4.0000215E-01;1311.1688;3;-40.285473;0.0;2.1525912;0;-0.55780017;  1.0035016E+04;  0.0000000E+00; -3.2229588E-07;  1.0000000E+04;  0.0000000E+00;  9.9965684E+03;-0.63811707;0.0;0.080316886;1733.3153
  4.7973585E-01;  9.9999998E-03;  8.0010161E-02;1792;-0.12283976;0.0;0.0059679262;1001.5965;  4.0000200E-01;1322.6252;3;-39.891388;0.0;2.7923317;0;-0.5577749;  1.0035485E+04;  0.0000000E+00; -6.2131886E-07;  1.0000000E+04;  0.0000000E+00;  9.9963750E+03;-0.6411218;0.0;0.083346888;1827.0828
  4.7973159E-01;  9.9999998E-03;  1.0001321E-01;1793;-0.12377059;0.0;0.0076306779;1001.6144;  4.0000218E-01;1337.5383;3;-39.410343;0.0;3.3564737;0;-0.55825555;  1.0036079E+04;  0.0000000E+00; -9.5830535E-07;  1.0000000E+04;  0.0000000E+00;  9.9961436E+03;-0.64463365;0.0;0.086378075;1941.3712
  4.7972652E-01;  9.9999998E-03;  1.2001663E-01;1794;-0.12482634;0.0;0.009396079;1001.6364;  4.0000212E-01;1355.7107;3;-38.85656;0.0;3.8590524;0;-0.55953896;  1.0036783E+04;  0.0000000E+00; -8.2265279E-07;  1.0000000E+04;  0.0000000E+00;  9.9958809E+03;-0.64844614;0.0;0.08890716;2073.0588
  4.7972086E-01;  9.9999998E-03;  1.4002046E-01;1795;-0.12595275;0.0;0.011246878;1001.6616;  4.0000209E-01;1376.5496;3;-38.25626;0.0;4.2755694;0;-0.56171018;  1.0037588E+04;  0.0000000E+00;  6.2926358E-07;  1.0000000E+04;  0.0000000E+00;  9.9955762E+03;-0.65235418;0.0;0.090644024;2225.2773
  4.9970832E-01;  9.9999998E-03;  3.9687996E-13;1819;-0.13456316;0.0;-3.580453e-09;1001.7001;  4.0000495E-01;1408.4485;3;-44.223415;0.0;-7.5773733e-06;0;-0.5915575;  1.0037939E+04;  0.0000000E+00; -2.7741854E-15;  1.0000000E+04;  0.0000000E+00;  9.9958564E+03;-0.67882538;0.0;0.087267876;2089.1523
  4.9970776E-01;  9.9999998E-03;  2.0003194E-02;1820;-0.1346934;0.0;0.0016044033;1001.7026;  4.0000489E-01;1410.6212;3;-44.146954;0.0;0.69730848;0;-0.59149241;  1.0038008E+04;  0.0000000E+00; -1.7753088E-08;  1.0000000E+04;  0.0000000E+00;  9.9958311E+03;-0.67937028;0.0;0.087877899;2101.6462
  4.9970603E-01;  9.9999998E-03;  4.0006429E-02;1821;-0.13507418;0.0;0.0032353983;1001.7094;  4.0000486E-01;1416.2507;3;-43.911179;0.0;1.4002281;0;-0.59133738;  1.0038231E+04;  0.0000000E+00; -6.0503524E-08;  1.0000000E+04;  0.0000000E+00;  9.9957559E+03;-0.68095636;0.0;0.089618959;2138.6252
  4.9970320E-01;  9.9999998E-03;  6.0009763E-02;1822;-0.13568814;0.0;0.0049191993;1001.7218;  4.0000474E-01;1426.522;3;-43.529442;0.0;2.0706198;0;-0.59122813;  1.0038598E+04;  0.0000000E+00; -1.1429758E-07;  1.0000000E+04;  0.0000000E+00;  9.9956309E+03;-0.68344223;0.0;0.092214085;2198.1665
  4.9969929E-01;  9.9999998E-03;  8.0013275E-02;1823;-0.13650846;0.0;0.0066835759;1001.7386;  4.0000480E-01;1440.4474;3;-43.01878;0.0;2.6898704;0;-0.5914312;  1.0039104E+04;  0.0000000E+00; -7.6979525E-08;  1.0000000E+04;  0.0000000E+00;  9.9954688E+03;-0.68662167;0.0;0.095190458;2276.218
  4.9969438E-01;  9.9999998E-03;  1.0001704E-01;1824;-0.13750261;0.0;0.0085534863;1001.7614;  4.0000477E-01;1459.311;3;-42.399269;0.0;3.2615249;0;-0.59233403;  1.0039740E+04;  0.0000000E+00;  4.2581263E-07;  1.0000000E+04;  0.0000000E+00;  9.9952881E+03;-0.69026214;0.0;0.097928092;2367.0171
  4.9968854E-01;  9.9999998E-03;  1.2002114E-01;1825;-0.13863239;0.0;0.010532501;1001.7896;  4.0000474E-01;1482.6189;3;-41.70499;0.0;3.7649283;0;-0.5943169;  1.0040500E+04;  0.0000000E+00;  2.3197413E-06;  1.0000000E+04;  0.0000000E+00;  9.9950869E+03;-0.69413835;0.0;0.099821433;2466.5581
  4.9968192E-01;  9.9999998E-03;  1.4002559E-01;1826;-0.13983892;0.0;0.012595311;1001.8217;  4.0000480E-01;1509.1859;3;-40.957878;0.0;4.1880784;0;-0.59749973;  1.0041374E+04;  0.0000000E+00;  6.5929266E-06;  1.0000000E+04;  0.0000000E+00;  9.9948633E+03;-0.69808108;0.0;0.10058136;2580.824
  5.1966864E-01;  9.9999998E-03;  1.0588728E-13;1850;-0.14918508;0.0;2.9549241e-09;1001.8185;  4.0001336E-01;1506.616;3;-47.727512;0.0;-3.4776895e-07;0;-0.61393821;  1.0041169E+04;  0.0000000E+00; -1.0813223E-14;  1.0000000E+04;  0.0000000E+00;  9.9945625E+03;-0.71623743;0.0;0.10229924;2725.6262
  5.1966798E-01;  9.9999998E-03;  2.0004338E-02;1851;-0.1493264;0.0;0.0018340265;1001.8215;  4.0001333E-01;1509.0851;3;-47.627548;0.0;0.64343649;0;-0.6139127;  1.0041247E+04;  0.0000000E+00;  1.8495763E-08;  1.0000000E+04;  0.0000000E+00;  9.9945420E+03;-0.71681714;0.0;0.10290442;2735.8013
  5.1966602E-01;  9.9999998E-03;  4.0008705E-02;1852;-0.1497428;0.0;0.0036958572;1001.8297;  4.0001342E-01;1515.8997;3;-47.333984;0.0;1.2700869;0;-0.61388004;  1.0041480E+04;  0.0000000E+00;  1.2337699E-07;  1.0000000E+04;  0.0000000E+00;  9.9944805E+03;-0.71849072;0.0;0.10461069;2765.4463
  5.1966280E-01;  9.9999998E-03;  6.0013145E-02;1853;-0.15041034;0.0;0.0056191622;1001.8441;  4.0001345E-01;1527.7511;3;-46.8573;0.0;1.8820651;0;-0.61399943;  1.0041863E+04;  0.0000000E+00;  4.6695669E-07;  1.0000000E+04;  0.0000000E+00;  9.9943848E+03;-0.72107744;0.0;0.10707802;2811.3865
  5.1965833E-01;  9.9999998E-03;  8.0017738E-02;1854;-0.15129673;0.0;0.0076383972;1001.8647;  4.0001333E-01;1544.9357;3;-46.223267;0.0;2.4670601;0;-0.61458838;  1.0042393E+04;  0.0000000E+00;  1.5531965E-06;  1.0000000E+04;  0.0000000E+00;  9.9942715E+03;-0.72431904;0.0;0.10973064;2867.3528
  5.1965272E-01;  9.9999998E-03;  1.0002255E-01;1855;-0.15236686;0.0;0.0097766565;1001.8922;  4.0001336E-01;1567.651;3;-45.463112;0.0;3.0162506;0;-0.6161176;  1.0043060E+04;  0.0000000E+00;  4.5396396E-06;  1.0000000E+04;  0.0000000E+00;  9.9941523E+03;-0.72793883;0.0;0.11182126;2924.8794
  5.1964599E-01;  9.9999998E-03;  1.2002762E-01;1856;-0.1535783;0.0;0.012029109;1001.9269;  4.0001333E-01;1596.3907;3;-44.613552;0.0;3.5135365;0;-0.61905909;  1.0043855E+04;  0.0000000E+00;  1.1029091E-05;  1.0000000E+04;  0.0000000E+00;  9.9940479E+03;-0.73170793;0.0;0.11264881;2978.5208
  5.1963836E-01;  9.9999998E-03;  1.4003292E-01;1857;-0.15486859;0.0;0.014346202;1001.9676;  4.0001342E-01;1630.0686;3;-43.70673;0.0;3.9434624;0;-0.6235534;  1.0044780E+04;  0.0000000E+00;  2.1395339E-05;  1.0000000E+04;  0.0000000E+00;  9.9939404E+03;-0.73551655;0.0;0.11196313;3037.9209
  5.3962463E-01;  9.9999998E-03;  6.2366839E-12;1881;-0.16484763;0.0;4.0881409e-09;1001.9155;  4.0003601E-01;1586.9067;3;-51.295464;0.0;-6.0819875e-06;0;-0.61821038;  1.0043630E+04;  0.0000000E+00; -5.5620753E-15;  1.0000000E+04;  0.0000000E+00;  9.9928936E+03;-0.73968208;0.0;0.12147171;3541.365
  5.3962386E-01;  9.9999998E-03;  2.0005899E-02;1882;-0.16500419;0.0;0.0021440734;1001.9187;  4.0003595E-01;1589.5732;3;-51.174835;0.0;0.50849932;0;-0.61825418;  1.0043710E+04;  0.0000000E+00;  1.1617524E-07;  1.0000000E+04;  0.0000000E+00;  9.9928760E+03;-0.74026161;0.0;0.12200743;3548.6882
  5.3962165E-01;  9.9999998E-03;  4.0011816E-02;1883;-0.16546303;0.0;0.0043230909;1001.9283;  4.0003604E-01;1597.573;3;-50.818882;0.0;1.0196224;0;-0.61843073;  1.0043948E+04;  0.0000000E+00;  5.6363291E-07;  1.0000000E+04;  0.0000000E+00;  9.9928311E+03;-0.74192262;0.0;0.12349185;3569.3186
  5.3961796E-01;  9.9999998E-03;  6.0017783E-02;1884;-0.16619511;0.0;0.0065742233;1001.9448;  4.0003604E-01;1611.2021;3;-50.245972;0.0;1.5368896;0;-0.61890733;  1.0044336E+04;  0.0000000E+00;  1.8729390E-06;  1.0000000E+04;  0.0000000E+00;  9.9927734E+03;-0.74444902;0.0;0.1255417;3598.5364
  5.3961295E-01;  9.9999998E-03;  8.0023862E-02;1885;-0.16716106;0.0;0.0089332573;1001.9683;  4.0003601E-01;1630.6582;3;-49.48563;0.0;2.0583744;0;-0.62003785;  1.0044872E+04;  0.0000000E+00;  5.4770035E-06;  1.0000000E+04;  0.0000000E+00;  9.9927148E+03;-0.74754077;0.0;0.12750292;3627.3149
  5.3960657E-01;  9.9999998E-03;  1.0003014E-01;1886;-0.16831754;0.0;0.011420317;1002.0004;  4.0003598E-01;1657.2252;3;-48.576641;0.0;2.5740318;0;-0.62236506;  1.0045549E+04;  0.0000000E+00;  1.3686148E-05;  1.0000000E+04;  0.0000000E+00;  9.9926826E+03;-0.75089616;0.0;0.1285311;3643.9639
  5.3959894E-01;  9.9999998E-03;  1.2003659E-01;1887;-0.16961488;0.0;0.014017362;1002.0414;  4.0003586E-01;1691.1993;3;-47.562439;0.0;3.0705245;0;-0.62643015;  1.0046356E+04;  0.0000000E+00;  2.8341352E-05;  1.0000000E+04;  0.0000000E+00;  9.9926934E+03;-0.75430149;0.0;0.12787132;3641.8743
  5.3959024E-01;  9.9999998E-03;  1.4004311E-01;1888;-0.17098296;0.0;0.016644197;1002.0898;  4.0003574E-01;1731.2966;3;-46.481701;0.0;3.5178759;0;-0.63234115;  1.0047300E+04;  0.0000000E+00;  4.6648485E-05;  1.0000000E+04;  0.0000000E+00;  9.9927217E+03;-0.75772238;0.0;0.12538125;3636.4458
  5.5957687E-01;  9.9999998E-03; -4.0884644E-12;1912;-0.18132141;0.0;2.9520877e-09;1002.0186;  4.0009689E-01;1672.3318;3;-54.858063;0.0;1.3052457e-05;0;-0.59598315;  1.0044728E+04;  0.0000000E+00; -8.3557496E-15;  1.0000000E+04;  0.0000000E+00;  9.9907979E+03;-0.74158639;0.0;0.14560322;4556.4761
  5.5957603E-01;  9.9999998E-03;  2.0007955E-02;1913;-0.18149562;0.0;0.0025737786;1002.0222;  4.0009695E-01;1675.3933;3;-54.717377;0.0;0.31297019;0;-0.59613991;  1.0044805E+04;  0.0000000E+00;  3.0110323E-07;  1.0000000E+04;  0.0000000E+00;  9.9907920E+03;-0.74210382;0.0;0.14596394;4560.4111
  5.5957353E-01;  9.9999998E-03;  4.0015925E-02;1914;-0.18200424;0.0;0.005184955;1002.0327;  4.0009704E-01;1684.0844;3;-54.302784;0.0;0.65006202;0;-0.59664398;  1.0045036E+04;  0.0000000E+00;  1.4329861E-06;  1.0000000E+04;  0.0000000E+00;  9.9907656E+03;-0.74357444;0.0;0.14693044;4570.4722
  5.5956942E-01;  9.9999998E-03;  6.0023930E-02;1915;-0.18281202;0.0;0.0078653926;1002.0505;  4.0009695E-01;1698.7999;3;-53.629162;0.0;1.0310082;0;-0.59763443;  1.0045413E+04;  0.0000000E+00;  4.5776210E-06;  1.0000000E+04;  0.0000000E+00;  9.9907461E+03;-0.74576491;0.0;0.14813046;4580.4561
  5.5956376E-01;  9.9999998E-03;  8.0032028E-02;1916;-0.18386814;0.0;0.010655629;1002.0767;  4.0009683E-01;1720.4287;3;-52.741543;0.0;1.4449556;0;-0.59945214;  1.0045932E+04;  0.0000000E+00;  1.2521345E-05;  1.0000000E+04;  0.0000000E+00;  9.9907520E+03;-0.74836373;0.0;0.14891161;4578.6592
  5.5955660E-01;  9.9999998E-03;  1.0004025E-01;1917;-0.18511395;0.0;0.01357902;1002.1124;  4.0009686E-01;1750.0573;3;-51.682442;0.0;1.9074057;0;-0.60264593;  1.0046582E+04;  0.0000000E+00;  2.8401824E-05;  1.0000000E+04;  0.0000000E+00;  9.9908135E+03;-0.75107336;0.0;0.14842744;4550.79
  5.5954808E-01;  9.9999998E-03;  1.2004855E-01;1918;-0.18648593;0.0;0.016601302;1002.158;  4.0009686E-01;1787.7842;3;-50.500587;0.0;2.3972757;0;-0.60774142;  1.0047364E+04;  0.0000000E+00;  5.1392606E-05;  1.0000000E+04;  0.0000000E+00;  9.9909473E+03;-0.75372058;0.0;0.14597915;4491.3975
  5.5953836E-01;  9.9999998E-03;  1.4005676E-01;1919;-0.18789935;0.0;0.019603305;1002.2114;  4.0009680E-01;1832.1282;3;-49.237408;0.0;2.8730102;0;-0.61471957;  1.0048287E+04;  0.0000000E+00;  7.1188770E-05;  1.0000000E+04;  0.0000000E+00;  9.9910986E+03;-0.7563535;0.0;0.14163393;4425.5977
  5.7952726E-01;  9.9999998E-03; -5.9381173E-13;1943;-0.1980135;0.0;8.2258661e-10;1002.2437;  4.0025839E-01;1858.8864;3;-58.273422;0.0;2.1158048e-06;0;-0.53709131;  1.0043697E+04;  0.0000000E+00; -3.8743905E-15;  1.0000000E+04;  0.0000000E+00;  9.9882314E+03;-0.71280372;0.0;0.17571242;5789.6299
  5.7952631E-01;  9.9999998E-03;  2.0010494E-02;1944;-0.19820951;0.0;0.0031234752;1002.2474;  4.0025836E-01;1861.8492;3;-58.117287;0.0;0.067405216;0;-0.53744316;  1.0043768E+04;  0.0000000E+00;  5.4613793E-07;  1.0000000E+04;  0.0000000E+00;  9.9882324E+03;-0.71318036;0.0;0.17573722;5789.5557
  5.7952350E-01;  9.9999998E-03;  4.0020972E-02;1945;-0.19877647;0.0;0.0062717143;1002.2585;  4.0025848E-01;1871.1328;3;-57.632431;0.0;0.1807024;0;-0.53848654;  1.0043982E+04;  0.0000000E+00;  2.5771315E-06;  1.0000000E+04;  0.0000000E+00;  9.9882363E+03;-0.71422821;0.0;0.17574167;5787.4517
  5.7951897E-01;  9.9999998E-03;  6.0031474E-02;1946;-0.19967131;0.0;0.0094761299;1002.2767;  4.0025842E-01;1886.2433;3;-56.878132;0.0;0.33661532;0;-0.54024696;  1.0044326E+04;  0.0000000E+00;  8.1153958E-06;  1.0000000E+04;  0.0000000E+00;  9.9882607E+03;-0.71572012;0.0;0.17547315;5776.3271
  5.7951272E-01;  9.9999998E-03;  8.0042072E-02;1947;-0.20082259;0.0;0.012794092;1002.3037;  4.0025830E-01;1908.5634;3;-55.885384;0.0;0.61908871;0;-0.54292297;  1.0044801E+04;  0.0000000E+00;  2.1170990E-05;  1.0000000E+04;  0.0000000E+00;  9.9883320E+03;-0.71736342;0.0;0.17444046;5743.0103
  5.7950485E-01;  9.9999998E-03;  1.0005278E-01;1948;-0.20214872;0.0;0.016241351;1002.3408;  4.0025830E-01;1939.2782;3;-54.685871;0.0;1.0087428;0;-0.54691821;  1.0045387E+04;  0.0000000E+00;  4.3560482E-05;  1.0000000E+04;  0.0000000E+00;  9.9884824E+03;-0.71890348;0.0;0.17198528;5673.1016
  5.7949543E-01;  9.9999998E-03;  1.2006350E-01;1949;-0.20356767;0.0;0.019768514;1002.3877;  4.0025827E-01;1978.0914;3;-53.336246;0.0;1.4789754;0;-0.55256987;  1.0046097E+04;  0.0000000E+00;  6.5882705E-05;  1.0000000E+04;  0.0000000E+00;  9.9887158E+03;-0.72022676;0.0;0.16765687;5567.022
  5.7948482E-01;  9.9999998E-03;  1.4007393E-01;1950;-0.20498815;0.0;0.023223339;1002.4406;  4.0025824E-01;2021.9414;3;-51.889618;0.0;1.9852939;0;-0.5596357;  1.0046935E+04;  0.0000000E+00;  6.6851542E-05;  1.0000000E+04;  0.0000000E+00;  9.9889434E+03;-0.72145247;0.0;0.16181679;5463.894
  5.9947902E-01;  9.9999998E-03;  9.6781342E-12;1974;-0.21390517;0.0;1.2027652e-09;1002.9019;  4.0066883E-01;2404.1375;3;-61.312943;0.0;6.5050699e-07;0;-0.42530972;  1.0039456E+04;  0.0000000E+00; -4.6214067E-15;  1.0000000E+04;  0.0000000E+00;  9.9851406E+03;-0.63869894;0.0;0.21338922;7261.6401
  5.9947801E-01;  9.9999998E-03;  2.0013589E-02;1975;-0.21412185;0.0;0.0038120707;1002.9055;  4.0066874E-01;2407.1001;3;-61.134968;0.0;-0.27792573;0;-0.42600012;  1.0039517E+04;  0.0000000E+00;  5.7390781E-07;  1.0000000E+04;  0.0000000E+00;  9.9851523E+03;-0.63885707;0.0;0.21285695;7256.9736
  5.9947497E-01;  9.9999998E-03;  4.0027104E-02;1976;-0.21474168;0.0;0.0076382724;1002.9163;  4.0066865E-01;2415.9888;3;-60.586777;0.0;-0.46051365;0;-0.42795825;  1.0039695E+04;  0.0000000E+00;  2.7883993E-06;  1.0000000E+04;  0.0000000E+00;  9.9851855E+03;-0.63925552;0.0;0.21129729;7241.4648
  5.9946996E-01;  9.9999998E-03;  6.0040578E-02;1977;-0.21571787;0.0;0.011493954;1002.9343;  4.0066880E-01;2431.0002;3;-59.780258;0.0;-0.58195966;0;-0.43094185;  1.0039987E+04;  0.0000000E+00;  9.4673724E-06;  1.0000000E+04;  0.0000000E+00;  9.9852549E+03;-0.63968933;0.0;0.20874748;7208.7856
  5.9946316E-01;  9.9999998E-03;  8.0054156E-02;1978;-0.21694739;0.0;0.015437194;1002.9604;  4.0066868E-01;2452.6289;3;-58.7089;0.0;-0.51576197;0;-0.43478435;  1.0040378E+04;  0.0000000E+00;  2.4939314E-05;  1.0000000E+04;  0.0000000E+00;  9.9853936E+03;-0.6399051;0.0;0.20512076;7146.6572
  5.9945464E-01;  9.9999998E-03;  1.0006787E-01;1979;-0.21832955;0.0;0.019486506;1002.9956;  4.0066841E-01;2481.7634;3;-57.400517;0.0;-0.19152236;0;-0.43947637;  1.0040861E+04;  0.0000000E+00;  4.5209461E-05;  1.0000000E+04;  0.0000000E+00;  9.9856152E+03;-0.63970214;0.0;0.20022579;7044.7432
  5.9944451E-01;  9.9999998E-03;  1.2008151E-01;1980;-0.21976778;0.0;0.023575094;1003.038;  4.0066832E-01;2516.9224;3;-55.897873;0.0;0.25833726;0;-0.44494915;  1.0041436E+04;  0.0000000E+00;  4.5853012E-05;  1.0000000E+04;  0.0000000E+00;  9.9858936E+03;-0.639027;0.0;0.19407786;6914.6807
  5.9943300E-01;  9.9999998E-03;  1.4009462E-01;1981;-0.22116049;0.0;0.027550865;1003.0829;  4.0066829E-01;2554.1553;3;-54.277008;0.0;0.83328122;0;-0.45072722;  1.0042107E+04;  0.0000000E+00; -2.8942040E-06;  1.0000000E+04;  0.0000000E+00;  9.9861260E+03;-0.63803339;0.0;0.18730615;6810.8506
  6.1943519E-01;  9.9999998E-03; -2.0328038E-12;2005;-0.22805563;0.0;1.1543755e-09;1004.6191;  4.0160939E-01;3826.7656;3;-63.681137;0.0;4.5266461e-06;0;-0.23453045;  1.0030524E+04;  0.0000000E+00; -7.2727460E-15;  1.0000000E+04;  0.0000000E+00;  9.9814600E+03;-0.49541935;0.0;0.2608889;8993.6563
  6.1943406E-01;  9.9999998E-03;  2.0017257E-02;2006;-0.22828625;0.0;0.0046905926;1004.6225;  4.0160945E-01;3829.5308;3;-63.512691;0.0;-0.73125947;0;-0.23576942;  1.0030569E+04;  0.0000000E+00; -3.7085758E-07;  1.0000000E+04;  0.0000000E+00;  9.9814824E+03;-0.49529624;0.0;0.25952682;8984.0771
  6.1943078E-01;  9.9999998E-03;  4.0034346E-02;2007;-0.22895072;0.0;0.0093552433;1004.6323;  4.0160936E-01;3837.728;3;-62.991283;0.0;-1.3476958;0;-0.23919675;  1.0030699E+04;  0.0000000E+00; -1.0521320E-06;  1.0000000E+04;  0.0000000E+00;  9.9815518E+03;-0.49486202;0.0;0.25566527;8954.9258
  6.1942536E-01;  9.9999998E-03;  6.0051341E-02;2008;-0.22996536;0.0;0.013992073;1004.6486;  4.0160930E-01;3851.1594;3;-62.11993;0.0;-1.8054215;0;-0.2440899;  1.0030908E+04;  0.0000000E+00;  1.0060555E-06;  1.0000000E+04;  0.0000000E+00;  9.9816689E+03;-0.49394187;0.0;0.24985197;8902.3936
  6.1941803E-01;  9.9999998E-03;  8.0068335E-02;2009;-0.23121423;0.0;0.018610792;1004.6712;  4.0160912E-01;3869.9238;3;-60.983696;0.0;-1.9284928;0;-0.24961683;  1.0031179E+04;  0.0000000E+00;  9.2297742E-06;  1.0000000E+04;  0.0000000E+00;  9.9818584E+03;-0.49232554;0.0;0.24270871;8818.0732
  6.1940897E-01;  9.9999998E-03;  1.0008529E-01;2010;-0.23259793;0.0;0.023233553;1004.7001;  4.0160897E-01;3893.8237;3;-59.599445;0.0;-1.6721728;0;-0.25504318;  1.0031503E+04;  0.0000000E+00;  9.8918208E-06;  1.0000000E+04;  0.0000000E+00;  9.9821172E+03;-0.48985493;0.0;0.23481175;8699.8447
  6.1939830E-01;  9.9999998E-03;  1.2010214E-01;2011;-0.23402357;0.0;0.027831502;1004.7322;  4.0160868E-01;3920.3904;3;-58.023144;0.0;-1.2330962;0;-0.25972027;  1.0031878E+04;  0.0000000E+00; -3.7684993E-05;  1.0000000E+04;  0.0000000E+00;  9.9823926E+03;-0.4864912;0.0;0.22677094;8573.1514
  6.1938608E-01;  9.9999998E-03;  1.4011833E-01;2012;-0.23537064;0.0;0.032264482;1004.7601;  4.0160865E-01;3943.5991;3;-56.259682;0.0;-0.65187514;0;-0.26301575;  1.0032290E+04;  0.0000000E+00; -1.6300200E-04;  1.0000000E+04;  0.0000000E+00;  9.9825518E+03;-0.48234165;0.0;0.21932589;8504.1396
  6.3939780E-01;  9.9999998E-03;  2.6997274E-11;2036;-0.2398594;0.0;7.3606605e-09;1007.9626;  4.0333840E-01;6596.6426;3;-65.348045;0.0;-7.7338482e-06;0;0.06615746;  1.0015463E+04;  0.0000000E+00;  2.9606393E-16;  1.0000000E+04;  0.0000000E+00;  9.9771553E+03;-0.25443336;0.0;0.32059082;10995.711
  6.3939667E-01;  9.9999998E-03;  2.0021008E-02;2037;-0.24007459;0.0;0.0055475603;1007.9654;  4.0333822E-01;6599.0132;3;-65.195724;0.0;-1.2295549;0;0.064099014;  1.0015484E+04;  0.0000000E+00; -3.4959814E-06;  1.0000000E+04;  0.0000000E+00;  9.9771924E+03;-0.25399005;0.0;0.31808907;10981.233
  6.3939321E-01;  9.9999998E-03;  4.0041789E-02;2038;-0.24075358;0.0;0.011075579;1007.9734;  4.0333816E-01;6605.6299;3;-64.745789;0.0;-2.180732;0;0.058482021;  1.0015545E+04;  0.0000000E+00; -1.3963745E-05;  1.0000000E+04;  0.0000000E+00;  9.9772930E+03;-0.25260904;0.0;0.31109107;10939.145
  6.3938743E-01;  9.9999998E-03;  6.0062353E-02;2039;-0.24179952;0.0;0.016550511;1007.9855;  4.0333796E-01;6615.7036;3;-63.863949;0.0;-2.9270217;0;0.050753951;  1.0015637E+04;  0.0000000E+00; -2.8145681E-05;  1.0000000E+04;  0.0000000E+00;  9.9774541E+03;-0.25014758;0.0;0.30090153;10870.047
  6.3937962E-01;  9.9999998E-03;  8.0082968E-02;2040;-0.24305269;0.0;0.0219016;1008.0021;  4.0333784E-01;6629.4312;3;-62.673321;0.0;-3.4012382;0;0.042737573;  1.0015744E+04;  0.0000000E+00; -4.3894557E-05;  1.0000000E+04;  0.0000000E+00;  9.9776797E+03;-0.24642605;0.0;0.28916362;10771.878
  6.3936996E-01;  9.9999998E-03;  1.0010366E-01;2041;-0.24444279;0.0;0.027149986;1008.0201;  4.0333757E-01;6644.3438;3;-61.236961;0.0;-3.3796146;0;0.036144063;  1.0015850E+04;  0.0000000E+00; -8.1883605E-05;  1.0000000E+04;  0.0000000E+00;  9.9779463E+03;-0.24129646;0.0;0.27744052;10652.167
  6.3935870E-01;  9.9999998E-03;  1.2012430E-01;2042;-0.24580616;0.0;0.032204632;1008.0355;  4.0333715E-01;6656.9849;3;-59.571609;0.0;-3.0604107;0;0.0322375;  1.0015938E+04;  0.0000000E+00; -1.8926238E-04;  1.0000000E+04;  0.0000000E+00;  9.9781836E+03;-0.23467758;0.0;0.26691508;10547.635
  6.3934606E-01;  9.9999998E-03;  1.4014405E-01;2043;-0.24704263;0.0;0.036988098;1008.0399;  4.0333676E-01;6660.6392;3;-57.730137;0.0;-2.5236068;0;0.031714931;  1.0015988E+04;  0.0000000E+00; -3.8174342E-04;  1.0000000E+04;  0.0000000E+00;  9.9782432E+03;-0.22649954;0.0;0.25821447;10528.868
  6.5936905E-01;  9.9999998E-03; -7.7281940E-12;2067;-0.24891612;0.0;-7.8870537e-09;1012.0681;  4.0552202E-01;9997.7119;3;-66.418488;0.0;-1.2428238e-05;0;0.49758595;  9.9936895E+03;  0.0000000E+00;  1.3861821E-14;  1.0000000E+04;  0.0000000E+00;  9.9722637E+03;0.10388796;0.0;0.39369801;13244.381
  6.5936792E-01;  9.9999998E-03;  2.0025512E-02;2068;-0.24911556;0.0;0.0065277866;1012.0699;  4.0552199E-01;9999.292;3;-66.313164;0.0;-1.8290926;0;0.49439135;  9.9936797E+03;  0.0000000E+00; -9.4334573E-06;  1.0000000E+04;  0.0000000E+00;  9.9723105E+03;0.10465346;0.0;0.3897379;13225.121
  6.5936434E-01;  9.9999998E-03;  4.0050708E-02;2069;-0.24975383;0.0;0.012984916;1012.0751;  4.0552199E-01;10003.638;3;-65.813843;0.0;-3.4620154;0;0.48573074;  9.9936504E+03;  0.0000000E+00; -3.7873226E-05;  1.0000000E+04;  0.0000000E+00;  9.9724473E+03;0.10698906;0.0;0.37874168;13170.996
  6.5935844E-01;  9.9999998E-03;  6.0075410E-02;2070;-0.25075069;0.0;0.019215999;1012.082;  4.0552184E-01;10009.267;3;-64.989876;0.0;-4.6128778;0;0.47402081;  9.9935869E+03;  0.0000000E+00; -8.1734230E-05;  1.0000000E+04;  0.0000000E+00;  9.9726494E+03;0.11101352;0.0;0.36300728;13088.232
  6.5935034E-01;  9.9999998E-03;  8.0099933E-02;2071;-0.25193805;0.0;0.025170697;1012.0886;  4.0552169E-01;10014.699;3;-63.783878;0.0;-5.3741956;0;0.46233243;  9.9934746E+03;  0.0000000E+00; -1.3595061E-04;  1.0000000E+04;  0.0000000E+00;  9.9729063E+03;0.11689056;0.0;0.34544188;12981.694
  6.5934044E-01;  9.9999998E-03;  1.0012474E-01;2072;-0.25322673;0.0;0.030999156;1012.0925;  4.0552139E-01;10017.958;3;-62.365868;0.0;-5.5707321;0;0.45346835;  9.9932949E+03;  0.0000000E+00; -2.1555233E-04;  1.0000000E+04;  0.0000000E+00;  9.9731758E+03;0.12478315;0.0;0.32868519;12865.893
  6.5932918E-01;  9.9999998E-03;  1.2014978E-01;2073;-0.25444049;0.0;0.036646109;1012.0883;  4.0552106E-01;10014.503;3;-60.675995;0.0;-5.4584341;0;0.44919848;  9.9930234E+03;  0.0000000E+00; -3.5544729E-04;  1.0000000E+04;  0.0000000E+00;  9.9733770E+03;0.13485329;0.0;0.31434518;12781.458
  6.5931654E-01;  9.9999998E-03;  1.4017396E-01;2074;-0.25554979;0.0;0.041998986;1012.0674;  4.0552098E-01;9997.2197;3;-58.760059;0.0;-4.8725915;0;0.45009395;  9.9926230E+03;  0.0000000E+00; -5.4441794E-04;  1.0000000E+04;  0.0000000E+00;  9.9733730E+03;0.14739212;0.0;0.30270183;12793.996
  6.7935520E-01;  9.9999998E-03;  9.3903975E-13;2098;-0.25411627;0.0;4.5615911e-09;1014.7909;  4.0727460E-01;12253.272;3;-67.388031;0.0;-7.9245656e-06;0;1.0501245;  9.9664492E+03;  0.0000000E+00;  4.4007095E-14;  1.0000000E+04;  0.0000000E+00;  9.9669688E+03;0.57182246;0.0;0.47830206;15654.828
  6.7935401E-01;  9.9999998E-03;  2.0032847E-02;2099;-0.25424698;0.0;0.0089522097;1014.7913;  4.0727440E-01;12253.668;3;-67.222389;0.0;-2.5216656;0;1.0454981;  9.9664033E+03;  0.0000000E+00; -1.6121383E-05;  1.0000000E+04;  0.0000000E+00;  9.9670313E+03;0.57286966;0.0;0.47262847;15630.783
  6.7935055E-01;  9.9999998E-03;  4.0064756E-02;2100;-0.25462985;0.0;0.017298557;1014.7928;  4.0727445E-01;12254.853;3;-66.612633;0.0;-4.8520675;0;1.0329773;  9.9662617E+03;  0.0000000E+00; -6.4878506E-05;  1.0000000E+04;  0.0000000E+00;  9.9672012E+03;0.57604665;0.0;0.45693064;15564.892
  6.7934483E-01;  9.9999998E-03;  6.0095385E-02;2101;-0.25533611;0.0;0.024878437;1014.7926;  4.0727451E-01;12254.655;3;-65.748344;0.0;-6.5927348;0;1.0160929;  9.9660059E+03;  0.0000000E+00; -1.4089850E-04;  1.0000000E+04;  0.0000000E+00;  9.9674482E+03;0.5814535;0.0;0.43463936;15469.095
  6.7933708E-01;  9.9999998E-03;  8.0125451E-02;2102;-0.25625166;0.0;0.031776432;1014.7881;  4.0727448E-01;12251.001;3;-64.550743;0.0;-7.758667;0;0.99925327;  9.9656299E+03;  0.0000000E+00; -2.3068742E-04;  1.0000000E+04;  0.0000000E+00;  9.9677363E+03;0.58923203;0.0;0.41002128;15353.017
  6.7932761E-01;  9.9999998E-03;  1.0015561E-01;2103;-0.25727156;0.0;0.038220443;1014.777;  4.0727451E-01;12241.718;3;-63.10323;0.0;-8.1664534;0;0.98627907;  9.9651133E+03;  0.0000000E+00; -3.2865256E-04;  1.0000000E+04;  0.0000000E+00;  9.9680293E+03;0.59953457;0.0;0.3867445;15231.889
  6.7931670E-01;  9.9999998E-03;  1.2018602E-01;2104;-0.25821239;0.0;0.044465698;1014.7532;  4.0727451E-01;12222.065;3;-61.28643;0.0;-8.0555172;0;0.97921526;  9.9644277E+03;  0.0000000E+00; -4.3755444E-04;  1.0000000E+04;  0.0000000E+00;  9.9682588E+03;0.6125558;0.0;0.36665949;15140.272
  6.7930466E-01;  9.9999998E-03;  1.4021546E-01;2105;-0.25899589;0.0;0.050432432;1014.7103;  4.0727460E-01;12186.515;3;-59.249294;0.0;-7.364356;0;0.97822464;  9.9635225E+03;  0.0000000E+00; -5.2081794E-04;  1.0000000E+04;  0.0000000E+00;  9.9683096E+03;0.62869585;0.0;0.34952876;15129.824
  6.9936669E-01;  9.9999998E-03;  2.2355255E-11;2129;-0.25348753;0.0;4.7780535e-09;1015.4442;  4.0823844E-01;12794.206;3;-68.015701;0.0;5.5278724e-06;0;1.6668017;  9.9374268E+03;  0.0000000E+00;  1.2870035E-14;  1.0000000E+04;  0.0000000E+00;  9.9616328E+03;1.0988454;0.0;0.56795633;18070.857
  6.9936568E-01;  9.9999998E-03;  2.0040728E-02;2130;-0.25344601;0.0;0.01220892;1015.4434;  4.0823841E-01;12793.613;3;-67.826866;0.0;-2.5422869;0;1.6606061;  9.9373330E+03;  0.0000000E+00; -1.9001118E-05;  1.0000000E+04;  0.0000000E+00;  9.9617070E+03;1.1001419;0.0;0.5604642;18041.563
  6.9936258E-01;  9.9999998E-03;  4.0080324E-02;2131;-0.2535336;0.0;0.023699129;1015.4398;  4.0823862E-01;12790.651;3;-67.079979;0.0;-4.7855554;0;1.6437898;  9.9370518E+03;  0.0000000E+00; -7.6440781E-05;  1.0000000E+04;  0.0000000E+00;  9.9619180E+03;1.104046;0.0;0.53974384;17962.277
  6.9935727E-01;  9.9999998E-03;  6.0118597E-02;2132;-0.25379759;0.0;0.033933785;1015.4313;  4.0823877E-01;12783.541;3;-65.878731;0.0;-6.8036289;0;1.6209363;  9.9365791E+03;  0.0000000E+00; -1.6555715E-04;  1.0000000E+04;  0.0000000E+00;  9.9622119E+03;1.1106005;0.0;0.5103358;17849.432
  6.9935018E-01;  9.9999998E-03;  8.0156311E-02;2133;-0.25413179;0.0;0.042866305;1015.415;  4.0823901E-01;12770.012;3;-64.357018;0.0;-8.3947029;0;1.5976456;  9.9359053E+03;  0.0000000E+00; -2.6417285E-04;  1.0000000E+04;  0.0000000E+00;  9.9625596E+03;1.1198506;0.0;0.47779503;17713.832
  6.9934177E-01;  9.9999998E-03;  1.0019433E-01;2134;-0.25442049;0.0;0.050735757;1015.389;  4.0823910E-01;12748.581;3;-62.724247;0.0;-9.3921309;0;1.5784788;  9.9350156E+03;  0.0000000E+00; -3.4326751E-04;  1.0000000E+04;  0.0000000E+00;  9.9629287E+03;1.1318173;0.0;0.44666144;17564.213
  6.9933289E-01;  9.9999998E-03;  1.2023316E-01;2135;-0.25442249;0.0;0.058315892;1015.3503;  4.0823954E-01;12716.486;3;-60.920429;0.0;-9.5752535;0;1.565447;  9.9338955E+03;  0.0000000E+00; -3.7436068E-04;  1.0000000E+04;  0.0000000E+00;  9.9632764E+03;1.146572;0.0;0.41887495;17419.941
  6.9932365E-01;  9.9999998E-03;  1.4027162E-01;2136;-0.25398391;0.0;0.065927699;1015.2936;  4.0823990E-01;12669.479;3;-58.788563;0.0;-8.8073978;0;1.5580182;  9.9325029E+03;  0.0000000E+00; -3.1150327E-04;  1.0000000E+04;  0.0000000E+00;  9.9635371E+03;1.1643515;0.0;0.39366677;17313.137
  7.1948034E-01;  9.9999998E-03; -1.7013540E-11;2160;-0.22236797;0.0;-7.7341396e-09;1014.9641;  4.0866268E-01;12396.183;3;-66.810051;0.0;-3.8091202e-06;0;2.2450628;  9.9122334E+03;  0.0000000E+00;  2.2466326E-14;  1.0000000E+04;  0.0000000E+00;  9.9567090E+03;1.5922178;0.0;0.65284508;20298.875
  7.1947896E-01;  9.9999998E-03;  2.0048730E-02;2161;-0.22264723;0.0;0.016276699;1014.9618;  4.0866259E-01;12394.307;3;-66.553635;0.0;-1.5166175;0;2.2373614;  9.9120928E+03;  0.0000000E+00; -1.4647691E-05;  1.0000000E+04;  0.0000000E+00;  9.9568047E+03;1.5937976;0.0;0.64356381;20262.379
  7.1947497E-01;  9.9999998E-03;  4.0096279E-02;2162;-0.2234282;0.0;0.03165834;1014.9533;  4.0866271E-01;12387.196;3;-65.803528;0.0;-2.9209831;0;2.2163754;  9.9116621E+03;  0.0000000E+00; -5.9452541E-05;  1.0000000E+04;  0.0000000E+00;  9.9570654E+03;1.5985057;0.0;0.61786962;20163.441
  7.1946865E-01;  9.9999998E-03;  6.0142614E-02;2163;-0.22456135;0.0;0.045695763;1014.9363;  4.0866303E-01;12373.174;3;-64.575836;0.0;-4.1069584;0;2.1875219;  9.9109482E+03;  0.0000000E+00; -1.2860348E-04;  1.0000000E+04;  0.0000000E+00;  9.9574355E+03;1.6062138;0.0;0.58130813;20021.711
  7.1946043E-01;  9.9999998E-03;  8.0189012E-02;2164;-0.22572383;0.0;0.05848315;1014.9088;  4.0866357E-01;12350.362;3;-62.743431;0.0;-5.0466275;0;2.1572387;  9.9099570E+03;  0.0000000E+00; -1.9926550E-04;  1.0000000E+04;  0.0000000E+00;  9.9578809E+03;1.6166826;0.0;0.54055601;19846.531
  7.1945065E-01;  9.9999998E-03;  1.0023709E-01;2165;-0.22662069;0.0;0.070548117;1014.8707;  4.0866369E-01;12318.86;3;-60.434418;0.0;-5.5375066;0;2.1304255;  9.9086865E+03;  0.0000000E+00; -2.3508692E-04;  1.0000000E+04;  0.0000000E+00;  9.9583926E+03;1.6295792;0.0;0.50084633;19635.777
  7.1943986E-01;  9.9999998E-03;  1.2028734E-01;2166;-0.22684699;0.0;0.082294993;1014.8219;  4.0866426E-01;12278.371;3;-57.533146;0.0;-5.5293875;0;2.1087294;  9.9071514E+03;  0.0000000E+00; -1.9991431E-04;  1.0000000E+04;  0.0000000E+00;  9.9589580E+03;1.6445615;0.0;0.46416771;19389.809
  7.1942860E-01;  9.9999998E-03;  1.4033772E-01;2167;-0.22620493;0.0;0.093615897;1014.761;  4.0866488E-01;12227.91;3;-54.223991;0.0;-4.8393655;0;2.0908163;  9.9053379E+03;  0.0000000E+00; -6.1214290E-05;  1.0000000E+04;  0.0000000E+00;  9.9595645E+03;1.6613797;0.0;0.42943656;19122.637
  7.3966688E-01;  9.9999998E-03;  5.0451525E-11;2191;-0.14768502;0.0;5.2416951e-09;1014.3479;  4.0883029E-01;11885.294;3;-46.832119;0.0;-7.0600508e-06;0;2.6682169;  9.8961055E+03;  0.0000000E+00;  1.9493114E-15;  1.0000000E+04;  0.0000000E+00;  9.9526475E+03;1.9456723;0.0;0.72254461;22151.094
  7.3966593E-01;  9.9999998E-03;  2.0052901E-02;2192;-0.1478537;0.0;0.017578343;1014.3444;  4.0883049E-01;11882.43;3;-46.599598;0.0;-1.8466601;0;2.659193;  9.8959160E+03;  0.0000000E+00; -5.9476706E-06;  1.0000000E+04;  0.0000000E+00;  9.9527646E+03;1.9475644;0.0;0.71162856;22104.344
  7.3966300E-01;  9.9999998E-03;  4.0104337E-02;2193;-0.14830436;0.0;0.034090072;1014.3325;  4.0883058E-01;11872.555;3;-45.90379;0.0;-3.5974233;0;2.6344657;  9.8953496E+03;  0.0000000E+00; -2.4946674E-05;  1.0000000E+04;  0.0000000E+00;  9.9530977E+03;1.9531019;0.0;0.68136376;21976.297
  7.3965847E-01;  9.9999998E-03;  6.0154080E-02;2194;-0.14888829;0.0;0.04894254;1014.3099;  4.0883085E-01;11853.793;3;-44.751244;0.0;-5.1620326;0;2.6000268;  9.8944199E+03;  0.0000000E+00; -5.4414304E-05;  1.0000000E+04;  0.0000000E+00;  9.9535742E+03;1.9618862;0.0;0.63814068;21789.195
  7.3965269E-01;  9.9999998E-03;  8.0203377E-02;2195;-0.14940824;0.0;0.06220812;1014.2753;  4.0883142E-01;11825.156;3;-43.156197;0.0;-6.4406967;0;2.5628743;  9.8931396E+03;  0.0000000E+00; -7.9377052E-05;  1.0000000E+04;  0.0000000E+00;  9.9541641E+03;1.9732854;0.0;0.58958876;21550.566
  7.3964590E-01;  9.9999998E-03;  1.0025392E-01;2196;-0.14967608;0.0;0.074450925;1014.2308;  4.0883186E-01;11788.323;3;-41.150322;0.0;-7.2819929;0;2.5280895;  9.8915479E+03;  0.0000000E+00; -7.5103053E-05;  1.0000000E+04;  0.0000000E+00;  9.9548760E+03;1.9865028;0.0;0.54158688;21248.381
  7.3963839E-01;  9.9999998E-03;  1.2030641E-01;2197;-0.14955828;0.0;0.086334892;1014.179;  4.0883240E-01;11745.368;3;-38.794075;0.0;-7.4642773;0;2.4969831;  9.8896650E+03;  0.0000000E+00; -1.9495001E-05;  1.0000000E+04;  0.0000000E+00;  9.9557383E+03;2.0006349;0.0;0.49634817;20868.072
  7.3963034E-01;  9.9999998E-03;  1.4035897E-01;2198;-0.14899445;0.0;0.097985409;1014.1226;  4.0883300E-01;11698.659;3;-36.191952;0.0;-6.7735071;0;2.4675288;  9.8875410E+03;  0.0000000E+00;  9.4956958E-05;  1.0000000E+04;  0.0000000E+00;  9.9567344E+03;2.0146749;0.0;0.45285395;20414.619
  7.5980979E-01;  9.9999998E-03;  1.2710631E-10;2222;-0.089888506;0.0;2.6001697e-08;1014.0632;  4.0889341E-01;11648.902;3;-31.01543;0.0;-1.6071222e-05;0;2.8826742;  9.8904492E+03;  0.0000000E+00; -1.1526943E-14;  1.0000000E+04;  0.0000000E+00;  9.9497178E+03;2.11203;0.0;0.77064431;23504.178
  7.5980920E-01;  9.9999998E-03;  2.0055676E-02;2223;-0.089928582;0.0;0.018287348;1014.0596;  4.0889367E-01;11645.842;3;-30.807215;0.0;-2.2547472;0;2.8724089;  9.8902285E+03;  0.0000000E+00;  5.9040508E-07;  1.0000000E+04;  0.0000000E+00;  9.9498691E+03;2.1140368;0.0;0.75837207;23444.799
  7.5980747E-01;  9.9999998E-03;  4.0109623E-02;2224;-0.090009354;0.0;0.03536129;1014.0472;  4.0889394E-01;11635.671;3;-30.188128;0.0;-4.4181905;0;2.8441446;  9.8895723E+03;  0.0000000E+00;  1.0318457E-06;  1.0000000E+04;  0.0000000E+00;  9.9502803E+03;2.1198404;0.0;0.72430414;23280.564
  7.5980490E-01;  9.9999998E-03;  6.0161427E-02;2225;-0.090026096;0.0;0.050515536;1014.024;  4.0889412E-01;11616.416;3;-29.175465;0.0;-6.4056325;0;2.804328;  9.8885010E+03;  0.0000000E+00;  1.0158548E-06;  1.0000000E+04;  0.0000000E+00;  9.9508857E+03;2.1288238;0.0;0.67550415;23036.564
  7.5980169E-01;  9.9999998E-03;  8.0212265E-02;2226;-0.089846924;0.0;0.063764758;1013.989;  4.0889463E-01;11587.386;3;-27.800953;0.0;-8.1206741;0;2.7604828;  9.8870449E+03;  0.0000000E+00;  5.9454183E-06;  1.0000000E+04;  0.0000000E+00;  9.9516484E+03;2.1400747;0.0;0.62040794;22720.266
  7.5979805E-01;  9.9999998E-03;  1.0026385E-01;2227;-0.089358807;0.0;0.075669155;1013.9459;  4.0889513E-01;11551.64;3;-26.11632;0.0;-9.4085407;0;2.7180166;  9.8852490E+03;  0.0000000E+00;  2.4976074E-05;  1.0000000E+04;  0.0000000E+00;  9.9525850E+03;2.1524565;0.0;0.56556016;22314.531
  7.5979429E-01;  9.9999998E-03;  1.2031681E-01;2228;-0.088497914;0.0;0.086913519;1013.8991;  4.0889579E-01;11512.933;3;-24.198086;0.0;-10.034737;0;2.6782637;  9.8831719E+03;  0.0000000E+00;  6.3426538E-05;  1.0000000E+04;  0.0000000E+00;  9.9537314E+03;2.1646276;0.0;0.51363623;21798.1
  7.5979054E-01;  9.9999998E-03;  1.4036913E-01;2229;-0.08725258;0.0;0.0976604;1013.8535;  4.0889645E-01;11475.113;3;-22.152098;0.0;-9.7461319;0;2.6389382;  9.8809150E+03;  0.0000000E+00;  1.1468005E-04;  1.0000000E+04;  0.0000000E+00;  9.9550811E+03;2.1748786;0.0;0.46405953;21178.199
  7.7991587E-01;  9.9999998E-03; -2.1832008E-11;2253;-0.045796048;0.0;-1.677342e-08;1014.1436;  4.0891638E-01;11714.669;3;-18.399527;0.0;-7.3831325e-06;0;2.9224761;  9.8926650E+03;  0.0000000E+00; -2.6642498E-16;  1.0000000E+04;  0.0000000E+00;  9.9479775E+03;2.1259587;0.0;0.79651737;24319.613
  7.7991563E-01;  9.9999998E-03;  2.0057138E-02;2254;-0.045746025;0.0;0.018511493;1014.141;  4.0891641E-01;11712.497;3;-18.241425;0.0;-2.6398003;0;2.9111366;  9.8924336E+03;  0.0000000E+00;  2.0998737E-06;  1.0000000E+04;  0.0000000E+00;  9.9481572E+03;2.1278579;0.0;0.78327882;24247.5
  7.7991498E-01;  9.9999998E-03;  4.0112343E-02;2255;-0.045574084;0.0;0.035715044;1014.1315;  4.0891674E-01;11704.598;3;-17.775051;0.0;-5.178874;0;2.8798137;  9.8917451E+03;  0.0000000E+00;  7.4873233E-06;  1.0000000E+04;  0.0000000E+00;  9.9486484E+03;2.1333058;0.0;0.74650776;24046.871
  7.7991402E-01;  9.9999998E-03;  6.0165066E-02;2256;-0.045225464;0.0;0.050834917;1014.1118;  4.0891695E-01;11688.307;3;-17.025698;0.0;-7.5244474;0;2.835391;  9.8906299E+03;  0.0000000E+00;  1.4904091E-05;  1.0000000E+04;  0.0000000E+00;  9.9493779E+03;2.1416199;0.0;0.69377124;23746.432
  7.7991301E-01;  9.9999998E-03;  8.0216438E-02;2257;-0.044638522;0.0;0.063858472;1014.0823;  4.0891737E-01;11663.918;3;-16.03618;0.0;-9.5726528;0;2.7859612;  9.8891182E+03;  0.0000000E+00;  2.4484503E-05;  1.0000000E+04;  0.0000000E+00;  9.9502988E+03;2.1518059;0.0;0.63415527;23356.268
  7.7991199E-01;  9.9999998E-03;  1.0026819E-01;2258;-0.043777321;0.0;0.075356208;1014.0461;  4.0891799E-01;11634.001;3;-14.869114;0.0;-11.161441;0;2.7374976;  9.8872646E+03;  0.0000000E+00;  3.6951729E-05;  1.0000000E+04;  0.0000000E+00;  9.9514307E+03;2.1626506;0.0;0.57484692;22859.768
  7.7991122E-01;  9.9999998E-03;  1.2032093E-01;2259;-0.042650383;0.0;0.086032026;1014.0088;  4.0891847E-01;11602.997;3;-13.604999;0.0;-12.050967;0;2.6917424;  9.8851465E+03;  0.0000000E+00;  5.0803785E-05;  1.0000000E+04;  0.0000000E+00;  9.9528018E+03;2.1726441;0.0;0.5190984;22236.734
  7.7991062E-01;  9.9999998E-03;  1.4037256E-01;2260;-0.041303821;0.0;0.096065097;1013.9755;  4.0891919E-01;11575.45;3;-12.340017;0.0;-11.971963;0;2.6466012;  9.8829004E+03;  0.0000000E+00;  5.9557526E-05;  1.0000000E+04;  0.0000000E+00;  9.9543799E+03;2.179678;0.0;0.46692333;21504.074
  8.0000341E-01;  9.9999998E-03; -1.4564000E-10;2284;-0.0078348238;0.0;-4.5096979e-08;1014.4487;  4.0892282E-01;11966.252;3;-6.8209457;0.0;-2.3631699e-05;0;2.8546143;  9.8989219E+03;  0.0000000E+00;  8.5882153E-15;  1.0000000E+04;  0.0000000E+00;  9.9473271E+03;2.0513201;0.0;0.8032943;24624.08
  8.0000347E-01;  9.9999998E-03;  2.0057453E-02;2285;-0.0077326931;0.0;0.018367801;1014.4473;  4.0892282E-01;11965.067;3;-6.7308979;0.0;-2.9388971;0;2.8425422;  9.8986982E+03;  0.0000000E+00;  7.3664017E-07;  1.0000000E+04;  0.0000000E+00;  9.9475293E+03;2.0529971;0.0;0.78954494;24541.742
  8.0000365E-01;  9.9999998E-03;  4.0112853E-02;2286;-0.0074214255;0.0;0.035388745;1014.4416;  4.0892315E-01;11960.427;3;-6.4694939;0.0;-5.7559366;0;2.8091817;  9.8980264E+03;  0.0000000E+00;  2.6960897E-06;  1.0000000E+04;  0.0000000E+00;  9.9480820E+03;2.0578115;0.0;0.75137013;24312.26
  8.0000412E-01;  9.9999998E-03;  6.0165565E-02;2287;-0.0068896809;0.0;0.050263468;1014.4283;  4.0892348E-01;11949.469;3;-6.0625024;0.0;-8.339386;0;2.7618287;  9.8969336E+03;  0.0000000E+00;  5.3562662E-06;  1.0000000E+04;  0.0000000E+00;  9.9489043E+03;2.0651627;0.0;0.69666606;23968.473
  8.0000484E-01;  9.9999998E-03;  8.0216706E-02;2288;-0.0061350674;0.0;0.062981427;1014.4065;  4.0892392E-01;11931.303;3;-5.5522852;0.0;-10.569846;0;2.709172;  9.8954590E+03;  0.0000000E+00;  8.2439838E-06;  1.0000000E+04;  0.0000000E+00;  9.9499414E+03;2.0742011;0.0;0.63497084;23525.107
  8.0000597E-01;  9.9999998E-03;  1.0026804E-01;2289;-0.0051798187;0.0;0.074138299;1014.3786;  4.0892437E-01;11908.2;3;-4.9956813;0.0;-12.275104;0;2.6578875;  9.8936484E+03;  0.0000000E+00;  1.0791159E-05;  1.0000000E+04;  0.0000000E+00;  9.9511943E+03;2.0838966;0.0;0.57399088;22970.244
  8.0000752E-01;  9.9999998E-03;  1.2032023E-01;2290;-0.0040827715;0.0;0.084462464;1014.3502;  4.0892491E-01;11884.703;3;-4.460547;0.0;-13.215186;0;2.6103656;  9.8915830E+03;  0.0000000E+00;  1.2021696E-05;  1.0000000E+04;  0.0000000E+00;  9.9526855E+03;2.0928872;0.0;0.51747841;22289.318
  8.0000943E-01;  9.9999998E-03;  1.4037111E-01;2291;-0.0029271103;0.0;0.094140299;1014.3254;  4.0892562E-01;11864.166;3;-4.0159378;0.0;-13.126398;0;2.5649481;  9.8894121E+03;  0.0000000E+00;  1.0129073E-05;  1.0000000E+04;  0.0000000E+00;  9.9543594E+03;2.0990353;0.0;0.46591282;21510.406
  8.2008874E-01;  9.9999998E-03;  2.6412558E-11;2315;0.030108485;0.0;4.9444377e-09;1014.8215;  4.0891093E-01;12273.569;3;5.1405201;0.0;1.6477403e-05;0;2.7325761;  9.9064648E+03;  0.0000000E+00;  1.7668653E-15;  1.0000000E+04;  0.0000000E+00;  9.9476006E+03;1.9369677;0.0;0.7956084;24481.893
  8.2008904E-01;  9.9999998E-03;  2.0056831E-02;2316;0.030234046;0.0;0.017980108;1014.8216;  4.0891111E-01;12273.668;3;5.1549067;0.0;-3.1045954;0;2.7202678;  9.9062539E+03;  0.0000000E+00; -5.2140751E-07;  1.0000000E+04;  0.0000000E+00;  9.9478125E+03;1.9384638;0.0;0.78180391;24393.771
  8.2008994E-01;  9.9999998E-03;  4.0111564E-02;2317;0.030604165;0.0;0.034622565;1014.8198;  4.0891129E-01;12272.089;3;5.1921825;0.0;-6.0611529;0;2.6863239;  9.9056250E+03;  0.0000000E+00; -1.8660759E-06;  1.0000000E+04;  0.0000000E+00;  9.9484014E+03;1.9427996;0.0;0.74352437;24148.475
  8.2009149E-01;  9.9999998E-03;  6.0163543E-02;2318;0.031198623;0.0;0.049141612;1014.812;  4.0891165E-01;12265.672;3;5.2336245;0.0;-8.7346048;0;2.6383922;  9.9045938E+03;  0.0000000E+00; -3.5312107E-06;  1.0000000E+04;  0.0000000E+00;  9.9492686E+03;1.9495738;0.0;0.68881845;23782.705
  8.2009369E-01;  9.9999998E-03;  8.0213882E-02;2319;0.031983927;0.0;0.061549775;1014.7966;  4.0891206E-01;12252.938;3;5.2517014;0.0;-10.987423;0;2.5856767;  9.9031973E+03;  0.0000000E+00; -4.9452842E-06;  1.0000000E+04;  0.0000000E+00;  9.9503525E+03;1.958234;0.0;0.62744278;23316.402
  8.2009655E-01;  9.9999998E-03;  1.0026440E-01;2320;0.03290879;0.0;0.072475746;1014.7748;  4.0891242E-01;12234.873;3;5.2116365;0.0;-12.637265;0;2.535511;  9.9014668E+03;  0.0000000E+00; -5.7033767E-06;  1.0000000E+04;  0.0000000E+00;  9.9516416E+03;1.9681212;0.0;0.56738991;22743.717
  8.2010007E-01;  9.9999998E-03;  1.2031583E-01;2321;0.033902105;0.0;0.082675159;1014.751;  4.0891305E-01;12215.229;3;5.0781031;0.0;-13.447857;0;2.4909048;  9.8994824E+03;  0.0000000E+00; -5.6972822E-06;  1.0000000E+04;  0.0000000E+00;  9.9531416E+03;1.9782219;0.0;0.5126828;22056.387
  8.2010406E-01;  9.9999998E-03;  1.4036603E-01;2322;0.034882568;0.0;0.092336312;1014.7278;  4.0891364E-01;12195.978;3;4.8243976;0.0;-13.177078;0;2.4506421;  9.8973711E+03;  0.0000000E+00; -4.1763469E-06;  1.0000000E+04;  0.0000000E+00;  9.9547871E+03;1.9866681;0.0;0.46397391;21290.564
  8.4017855E-01;  9.9999998E-03;  1.3702017E-10;2346;0.070042372;0.0;3.7915736e-08;1014.9282;  4.0876591E-01;12359.875;3;17.665897;0.0;4.9429218e-06;0;2.5755501;  9.9145449E+03;  0.0000000E+00;  8.9311035E-15;  1.0000000E+04;  0.0000000E+00;  9.9486240E+03;1.7978523;0.0;0.7776978;23967.709
  8.4017903E-01;  9.9999998E-03;  2.0055465E-02;2347;0.070177048;0.0;0.017446952;1014.929;  4.0876609E-01;12360.566;3;17.607977;0.0;-3.116205;0;2.5635502;  9.9143496E+03;  0.0000000E+00; -6.3913814E-07;  1.0000000E+04;  0.0000000E+00;  9.9488398E+03;1.7993139;0.0;0.76423633;23878.961
  8.4018058E-01;  9.9999998E-03;  4.0108860E-02;2348;0.070567481;0.0;0.033599168;1014.9297;  4.0876627E-01;12361.06;3;17.432638;0.0;-6.0614161;0;2.530612;  9.9137695E+03;  0.0000000E+00; -2.2493748E-06;  1.0000000E+04;  0.0000000E+00;  9.9494268E+03;1.8036314;0.0;0.72698051;23632.793
  8.4018308E-01;  9.9999998E-03;  6.0159530E-02;2349;0.071177803;0.0;0.047708336;1014.9254;  4.0876651E-01;12357.505;3;17.136143;0.0;-8.6804838;0;2.4845867;  9.9128115E+03;  0.0000000E+00; -3.8953322E-06;  1.0000000E+04;  0.0000000E+00;  9.9502871E+03;1.8106334;0.0;0.67395341;23268.656
  8.4018648E-01;  9.9999998E-03;  8.0208614E-02;2350;0.071960963;0.0;0.059819181;1014.913;  4.0876707E-01;12347.24;3;16.71541;0.0;-10.821143;0;2.4350157;  9.9114932E+03;  0.0000000E+00; -4.5373658E-06;  1.0000000E+04;  0.0000000E+00;  9.9513525E+03;1.8201245;0.0;0.61489105;22810.699
  8.4019089E-01;  9.9999998E-03;  1.0025799E-01;2351;0.072867982;0.0;0.0705906;1014.893;  4.0876743E-01;12330.756;3;16.171568;0.0;-12.294056;0;2.3896313;  9.9098428E+03;  0.0000000E+00; -3.6198637E-06;  1.0000000E+04;  0.0000000E+00;  9.9525977E+03;1.831852;0.0;0.55777919;22257.84
  8.4019619E-01;  9.9999998E-03;  1.2030843E-01;2352;0.073852018;0.0;0.08080063;1014.868;  4.0876800E-01;12310.029;3;15.514625;0.0;-12.86948;0;2.3518414;  9.9079150E+03;  0.0000000E+00; -1.2280276E-06;  1.0000000E+04;  0.0000000E+00;  9.9540234E+03;1.8452342;0.0;0.50660741;21605.799
  8.4020233E-01;  9.9999998E-03;  1.4035791E-01;2353;0.074873231;0.0;0.090635285;1014.8398;  4.0876842E-01;12286.735;3;14.770665;0.0;-12.333979;0;2.3206906;  9.9058154E+03;  0.0000000E+00;  4.0481145E-06;  1.0000000E+04;  0.0000000E+00;  9.9555469E+03;1.8587984;0.0;0.46189219;20893.58
  8.6027032E-01;  9.9999998E-03;  8.4464359E-11;2377;0.11048296;0.0;3.4856686e-08;1014.7862;  4.0848148E-01;12239.585;3;30.124916;0.0;2.4399298e-05;0;2.3736045;  9.9239854E+03;  0.0000000E+00;  1.7495740E-14;  1.0000000E+04;  0.0000000E+00;  9.9502588E+03;1.621152;0.0;0.75245249;23149.75
  8.6027098E-01;  9.9999998E-03;  2.0053493E-02;2378;0.11062472;0.0;0.01681976;1014.7873;  4.0848145E-01;12240.473;3;30.005484;0.0;-2.9805691;0;2.3623993;  9.9238027E+03;  0.0000000E+00; -2.3412947E-07;  1.0000000E+04;  0.0000000E+00;  9.9504619E+03;1.6227586;0.0;0.73964077;23065.041
  8.6027306E-01;  9.9999998E-03;  4.0104982E-02;2379;0.11103363;0.0;0.032406695;1014.7888;  4.0848154E-01;12241.657;3;29.651726;0.0;-5.777493;0;2.3318458;  9.9232646E+03;  0.0000000E+00; -7.0343884E-07;  1.0000000E+04;  0.0000000E+00;  9.9510234E+03;1.6275784;0.0;0.7042675;22831.365
  8.6027634E-01;  9.9999998E-03;  6.0153864E-02;2380;0.11166978;0.0;0.046060361;1014.7848;  4.0848193E-01;12238.399;3;29.077604;0.0;-8.2250118;0;2.2898133;  9.9223672E+03;  0.0000000E+00; -6.3684729E-07;  1.0000000E+04;  0.0000000E+00;  9.9518340E+03;1.6356416;0.0;0.65417165;22489.436
  8.6028093E-01;  9.9999998E-03;  8.0201291E-02;2381;0.11249045;0.0;0.057856072;1014.7723;  4.0848222E-01;12228.038;3;28.309948;0.0;-10.163862;0;2.2458735;  9.9211230E+03;  0.0000000E+00;  7.1732728E-07;  1.0000000E+04;  0.0000000E+00;  9.9528223E+03;1.6470363;0.0;0.5988372;22065.451
  8.6028671E-01;  9.9999998E-03;  1.0024913E-01;2382;0.11346949;0.0;0.068471827;1014.7502;  4.0848264E-01;12209.782;3;27.390265;0.0;-11.403091;0;2.2078228;  9.9195332E+03;  0.0000000E+00;  3.1229877E-06;  1.0000000E+04;  0.0000000E+00;  9.9539629E+03;1.6618582;0.0;0.54596466;21560.217
  8.6029381E-01;  9.9999998E-03;  1.2029826E-01;2383;0.11460771;0.0;0.078695178;1014.7201;  4.0848300E-01;12184.815;3;26.378798;0.0;-11.720951;0;2.1791511;  9.9176377E+03;  0.0000000E+00;  6.1062751E-06;  1.0000000E+04;  0.0000000E+00;  9.9552520E+03;1.6799178;0.0;0.49923313;20969.871
  8.6030221E-01;  9.9999998E-03;  1.4034675E-01;2384;0.1159318;0.0;0.088707209;1014.6821;  4.0848348E-01;12153.336;3;25.356243;0.0;-10.930264;0;2.1589632;  9.9155117E+03;  0.0000000E+00;  1.1927945E-05;  1.0000000E+04;  0.0000000E+00;  9.9566270E+03;1.7001762;0.0;0.45878708;20331.178
  8.8035750E-01;  9.9999998E-03; -1.1396369E-10;2408;0.14874972;0.0;-1.2243058e-08;1014.4875;  4.0807313E-01;11988.679;3;41.831173;0.0;2.6714226e-05;0;2.1092587;  9.9359180E+03;  0.0000000E+00;  1.1206904E-14;  1.0000000E+04;  0.0000000E+00;  9.9523906E+03;1.3877616;0.0;0.72149694;22085.531
  8.8035834E-01;  9.9999998E-03;  2.0050993E-02;2409;0.14890453;0.0;0.016109476;1014.4883;  4.0807310E-01;11989.368;3;41.665192;0.0;-2.7269638;0;2.099174;  9.9357480E+03;  0.0000000E+00; -1.6263722E-07;  1.0000000E+04;  0.0000000E+00;  9.9525752E+03;1.3896319;0.0;0.70954216;22008.25
  8.8036084E-01;  9.9999998E-03;  4.0100090E-02;2410;0.14935257;0.0;0.03105491;1014.489;  4.0807328E-01;11989.96;3;41.178192;0.0;-5.2721581;0;2.0719104;  9.9352480E+03;  0.0000000E+00; -5.2145617E-07;  1.0000000E+04;  0.0000000E+00;  9.9530879E+03;1.3952886;0.0;0.67662185;21796.693
  8.8036495E-01;  9.9999998E-03;  6.0146734E-02;2411;0.1500565;0.0;0.044185344;1014.4844;  4.0807348E-01;11986.111;3;40.402004;0.0;-7.4717541;0;2.0351305;  9.9344092E+03;  0.0000000E+00; -4.2172070E-07;  1.0000000E+04;  0.0000000E+00;  9.9538213E+03;1.4048705;0.0;0.63025993;21491.355
  8.8037056E-01;  9.9999998E-03;  8.0192074E-02;2412;0.15098561;0.0;0.055598993;1014.4697;  4.0807378E-01;11973.878;3;39.391384;0.0;-9.1687775;0;1.9981216;  9.9332373E+03;  0.0000000E+00;  4.8430553E-07;  1.0000000E+04;  0.0000000E+00;  9.9546973E+03;1.4186329;0.0;0.57948875;21118.023
  8.8037777E-01;  9.9999998E-03;  1.0023799E-01;2413;0.15214334;0.0;0.065977797;1014.444;  4.0807411E-01;11952.667;3;38.225376;0.0;-10.175881;0;1.968394;  9.9317129E+03;  0.0000000E+00;  1.2806497E-06;  1.0000000E+04;  0.0000000E+00;  9.9556982E+03;1.436883;0.0;0.53151113;20676.285
  8.8038659E-01;  9.9999998E-03;  1.2028536E-01;2414;0.15358172;0.0;0.076103754;1014.4077;  4.0807450E-01;11922.677;3;37.008617;0.0;-10.278698;0;1.9492569;  9.9298555E+03;  0.0000000E+00;  1.1458083E-06;  1.0000000E+04;  0.0000000E+00;  9.9568350E+03;1.4597428;0.0;0.48951405;20159.371
  8.8039720E-01;  9.9999998E-03;  1.4033239E-01;2415;0.15539648;0.0;0.0861516;1014.3599;  4.0807503E-01;11883.116;3;35.866772;0.0;-9.3073282;0;1.9397869;  9.9276953E+03;  0.0000000E+00;  2.8427019E-06;  1.0000000E+04;  0.0000000E+00;  9.9580430E+03;1.486631;0.0;0.45315591;19598.326
  9.0043324E-01;  9.9999998E-03; -1.2874272E-10;2439;0.18244386;0.0;-6.1361147e-09;1014.089;  4.0756360E-01;11654.147;3;52.419743;0.0;2.1830579e-05;0;1.7819448;  9.9504873E+03;  0.0000000E+00;  1.1384662E-14;  1.0000000E+04;  0.0000000E+00;  9.9549189E+03;1.0960681;0.0;0.68587655;20824.5
  9.0043420E-01;  9.9999998E-03;  2.0048030E-02;2440;0.18262517;0.0;0.015304481;1014.0902;  4.0756357E-01;11655.134;3;52.224232;0.0;-2.3967392;0;1.7730899;  9.9503408E+03;  0.0000000E+00; -6.6050336E-07;  1.0000000E+04;  0.0000000E+00;  9.9550850E+03;1.0981899;0.0;0.6749;20756.713
  9.0043718E-01;  9.9999998E-03;  4.0094282E-02;2441;0.18315372;0.0;0.029514028;1014.0903;  4.0756357E-01;11655.231;3;51.653286;0.0;-4.6288257;0;1.7493708;  9.9498896E+03;  0.0000000E+00; -2.5251115E-06;  1.0000000E+04;  0.0000000E+00;  9.9555313E+03;1.1046095;0.0;0.64476138;20572.941
  9.0044206E-01;  9.9999998E-03;  6.0138270E-02;2442;0.18399517;0.0;0.04202304;1014.0841;  4.0756375E-01;11650.103;3;50.753925;0.0;-6.5469961;0;1.7180605;  9.9491309E+03;  0.0000000E+00; -4.8516404E-06;  1.0000000E+04;  0.0000000E+00;  9.9561689E+03;1.1154982;0.0;0.60256225;20312.109
  9.0044874E-01;  9.9999998E-03;  8.0181122E-02;2443;0.18512763;0.0;0.052944589;1014.0681;  4.0756389E-01;11636.887;3;49.602245;0.0;-8.0044813;0;1.6878867;  9.9480547E+03;  0.0000000E+00; -7.0931005E-06;  1.0000000E+04;  0.0000000E+00;  9.9569160E+03;1.1311499;0.0;0.55673683;19997.482
  9.0045726E-01;  9.9999998E-03;  1.0022467E-01;2444;0.18657407;0.0;0.062951818;1014.0405;  4.0756416E-01;11614.008;3;48.304813;0.0;-8.820405;0;1.6658027;  9.9466406E+03;  0.0000000E+00; -1.0314186E-05;  1.0000000E+04;  0.0000000E+00;  9.9577725E+03;1.1519575;0.0;0.51384526;19624.986
  9.0046781E-01;  9.9999998E-03;  1.2026981E-01;2445;0.18842021;0.0;0.072808594;1014.0008;  4.0756464E-01;11581.169;3;46.995964;0.0;-8.7844648;0;1.6547824;  9.9448740E+03;  0.0000000E+00; -1.5956934E-05;  1.0000000E+04;  0.0000000E+00;  9.9587441E+03;1.1782759;0.0;0.47650647;19182.709
  9.0048057E-01;  9.9999998E-03;  1.4031482E-01;2446;0.19081099;0.0;0.08268217;1013.9472;  4.0756491E-01;11536.891;3;45.831436;0.0;-7.732739;0;1.653944;  9.9427510E+03;  0.0000000E+00; -2.2690259E-05;  1.0000000E+04;  0.0000000E+00;  9.9598057E+03;1.2100434;0.0;0.44390056;18694.266
  9.2047262E-01;  9.9999998E-03; -1.5609618E-11;2470;0.20319739;0.0;5.1713398e-09;1013.5818;  4.0697899E-01;11228.408;3;61.059719;0.0;1.7037539e-05;0;1.4208772;  9.9663203E+03;  0.0000000E+00; -3.3672846E-14;  1.0000000E+04;  0.0000000E+00;  9.9577344E+03;0.77418041;0.0;0.64669687;19412.16
  9.2047387E-01;  9.9999998E-03;  2.0044813E-02;2471;0.20346829;0.0;0.014396285;1013.5827;  4.0697894E-01;11229.197;3;60.890282;0.0;-2.0352764;0;1.4131689;  9.9661943E+03;  0.0000000E+00; -1.2494289E-06;  1.0000000E+04;  0.0000000E+00;  9.9578760E+03;0.77639842;0.0;0.63677049;19355.008
  9.2047769E-01;  9.9999998E-03;  4.0087949E-02;2472;0.20427151;0.0;0.027765131;1013.5829;  4.0697911E-01;11229.393;3;60.371372;0.0;-3.9333317;0;1.3926828;  9.9658145E+03;  0.0000000E+00; -4.8115380E-06;  1.0000000E+04;  0.0000000E+00;  9.9582578E+03;0.78309548;0.0;0.60958737;19201.896
  9.2048401E-01;  9.9999998E-03;  6.0128942E-02;2473;0.20561033;0.0;0.039540473;1013.5776;  4.0697908E-01;11224.955;3;59.557251;0.0;-5.5680871;0;1.3661408;  9.9651709E+03;  0.0000000E+00; -9.7789916E-06;  1.0000000E+04;  0.0000000E+00;  9.9587900E+03;0.79440284;0.0;0.571738;18988.703
  9.2049283E-01;  9.9999998E-03;  8.0168881E-02;2474;0.20745844;0.0;0.049837284;1013.5626;  4.0697938E-01;11212.534;3;58.493191;0.0;-6.8137417;0;1.3415129;  9.9642510E+03;  0.0000000E+00; -1.4999794E-05;  1.0000000E+04;  0.0000000E+00;  9.9594033E+03;0.81056434;0.0;0.53094864;18734.643
  9.2050403E-01;  9.9999998E-03;  1.0020956E-01;2475;0.2098311;0.0;0.059313595;1013.5369;  4.0697959E-01;11191.342;3;57.289745;0.0;-7.4935112;0;1.3250277;  9.9630254E+03;  0.0000000E+00; -2.0978045E-05;  1.0000000E+04;  0.0000000E+00;  9.9601133E+03;0.83197337;0.0;0.49305433;18430.449
  9.2051774E-01;  9.9999998E-03;  1.2025192E-01;2476;0.21277753;0.0;0.068715379;1013.4991;  4.0697974E-01;11160.096;3;56.051422;0.0;-7.3992605;0;1.3192667;  9.9614512E+03;  0.0000000E+00; -2.9762021E-05;  1.0000000E+04;  0.0000000E+00;  9.9609453E+03;0.85917366;0.0;0.46009299;18058.061
  9.2053413E-01;  9.9999998E-03;  1.4029439E-01;2477;0.21644248;0.0;0.078214645;1013.4469;  4.0697998E-01;11116.923;3;54.981434;0.0;-6.3628135;0;1.3235289;  9.9594834E+03;  0.0000000E+00; -4.3834014E-05;  1.0000000E+04;  0.0000000E+00;  9.9618711E+03;0.89267665;0.0;0.4308522;17633.266
  9.4047970E-01;  9.9999998E-03;  8.4625772E-11;2501;0.20844355;0.0;3.1635171e-08;1012.9185;  4.0634805E-01;10672.175;3;64.238533;0.0;7.5086864e-06;0;1.0726609;  9.9812207E+03;  0.0000000E+00; -7.8763688E-15;  1.0000000E+04;  0.0000000E+00;  9.9607314E+03;0.46738511;0.0;0.60527581;17891.934
  9.4048101E-01;  9.9999998E-03;  2.0041298E-02;2502;0.20876627;0.0;0.013329021;1012.9196;  4.0634808E-01;10673.158;3;64.112549;0.0;-1.7007375;0;1.0659559;  9.9811270E+03;  0.0000000E+00; -1.2733191E-06;  1.0000000E+04;  0.0000000E+00;  9.9608486E+03;0.46951246;0.0;0.59644347;17846.098
  9.4048506E-01;  9.9999998E-03;  4.0081073E-02;2503;0.20973907;0.0;0.025731659;1012.921;  4.0634814E-01;10674.239;3;63.762657;0.0;-3.2820237;0;1.0482237;  9.9808340E+03;  0.0000000E+00; -5.0523472E-06;  1.0000000E+04;  0.0000000E+00;  9.9611611E+03;0.47590929;0.0;0.57231444;17724.994
  9.4049180E-01;  9.9999998E-03;  6.0118865E-02;2504;0.21138059;0.0;0.036686268;1012.9171;  4.0634814E-01;10671.086;3;63.250416;0.0;-4.6362491;0;1.0255023;  9.9803350E+03;  0.0000000E+00; -1.0380302E-05;  1.0000000E+04;  0.0000000E+00;  9.9615850E+03;0.48662847;0.0;0.53887385;17559.863
  9.4050127E-01;  9.9999998E-03;  8.0155700E-02;2505;0.21372049;0.0;0.046310008;1012.9058;  4.0634826E-01;10661.627;3;62.651508;0.0;-5.6531997;0;1.0048562;  9.9796143E+03;  0.0000000E+00; -1.5498592E-05;  1.0000000E+04;  0.0000000E+00;  9.9620713E+03;0.50180584;0.0;0.50305039;17364.498
  9.4051349E-01;  9.9999998E-03;  1.0019327E-01;2506;0.21678804;0.0;0.055208825;1012.8852;  4.0634844E-01;10644.683;3;62.043503;0.0;-6.1824188;0;0.99166942;  9.9786318E+03;  0.0000000E+00; -2.0120877E-05;  1.0000000E+04;  0.0000000E+00;  9.9626475E+03;0.52177244;0.0;0.46989697;17123.752
  9.4052851E-01;  9.9999998E-03;  1.2023254E-01;2507;0.22062287;0.0;0.06408295;1012.8552;  4.0634844E-01;10619.857;3;61.443241;0.0;-6.0608211;0;0.98809695;  9.9773369E+03;  0.0000000E+00; -2.5863674E-05;  1.0000000E+04;  0.0000000E+00;  9.9633457E+03;0.547203;0.0;0.44089395;16813.402
  9.4054663E-01;  9.9999998E-03;  1.4027213E-01;2508;0.2253252;0.0;0.073126644;1012.8109;  4.0634865E-01;10583.314;3;60.958721;0.0;-5.063529;0;0.99370974;  9.9756328E+03;  0.0000000E+00; -3.7937079E-05;  1.0000000E+04;  0.0000000E+00;  9.9641660E+03;0.57915318;0.0;0.41455656;16442.076
  9.6047705E-01;  9.9999998E-03;  2.1900195E-11;2532;0.20859684;0.0;1.432089e-08;1012.0737;  4.0569788E-01;9964.335;3;64.962173;0.0;4.9576192e-06;0;0.77602863;  9.9934629E+03;  0.0000000E+00;  1.3279084E-15;  1.0000000E+04;  0.0000000E+00;  9.9637959E+03;0.21292359;0.0;0.56310505;16308.967
  9.6047843E-01;  9.9999998E-03;  2.0037554E-02;2533;0.20895755;0.0;0.012237613;1012.075;  4.0569782E-01;9965.417;3;64.879814;0.0;-1.3437579;0;0.77023381;  9.9933936E+03;  0.0000000E+00; -8.0553752E-07;  1.0000000E+04;  0.0000000E+00;  9.9638857E+03;0.21484131;0.0;0.5553925;16274.725
  9.6048248E-01;  9.9999998E-03;  4.0073734E-02;2534;0.21002391;0.0;0.023610299;1012.0768;  4.0569797E-01;9966.9883;3;64.648453;0.0;-2.6035824;0;0.75493461;  9.9931895E+03;  0.0000000E+00; -3.3099302E-06;  1.0000000E+04;  0.0000000E+00;  9.9641270E+03;0.22057861;0.0;0.534356;16185.7
  9.6048933E-01;  9.9999998E-03;  6.0108241E-02;2535;0.21183649;0.0;0.033717088;1012.0751;  4.0569797E-01;9965.5088;3;64.310219;0.0;-3.6802585;0;0.73537874;  9.9928330E+03;  0.0000000E+00; -6.7598617E-06;  1.0000000E+04;  0.0000000E+00;  9.9644453E+03;0.23010036;0.0;0.50527841;16066.841
  9.6049905E-01;  9.9999998E-03;  8.0142029E-02;2536;0.21441616;0.0;0.042684313;1012.0678;  4.0569803E-01;9959.502;3;63.899734;0.0;-4.4840722;0;0.71762806;  9.9923076E+03;  0.0000000E+00; -9.2689279E-06;  1.0000000E+04;  0.0000000E+00;  9.9648164E+03;0.24342293;0.0;0.47420514;15925.294
  9.6051157E-01;  9.9999998E-03;  1.0017663E-01;2537;0.21776496;0.0;0.051058277;1012.0538;  4.0569803E-01;9947.9834;3;63.454327;0.0;-4.8772268;0;0.70615757;  9.9915801E+03;  0.0000000E+00; -9.5934593E-06;  1.0000000E+04;  0.0000000E+00;  9.9652705E+03;0.26078215;0.0;0.44537544;15739.979
  9.6052706E-01;  9.9999998E-03;  1.2021286E-01;2538;0.22192439;0.0;0.059442028;1012.0333;  4.0569812E-01;9931.0537;3;63.124825;0.0;-4.6919675;0;0.70265603;  9.9905762E+03;  0.0000000E+00; -7.7861732E-06;  1.0000000E+04;  0.0000000E+00;  9.9658682E+03;0.28290689;0.0;0.41974917;15481.48
  9.6054566E-01;  9.9999998E-03;  1.4024951E-01;2539;0.22702669;0.0;0.068042062;1012.0005;  4.0569821E-01;9903.9873;3;63.029404;0.0;-3.702548;0;0.70694947;  9.9891895E+03;  0.0000000E+00; -8.4299581E-06;  1.0000000E+04;  0.0000000E+00;  9.9666006E+03;0.31125036;0.0;0.39569908;15152.784
  9.8046958E-01;  9.9999998E-03; -2.8299764E-11;2563;0.20675814;0.0;-7.0863311e-09;1011.0723;  4.0505368E-01;9125.7178;3;65.181961;0.0;9.4499046e-06;0;0.54768986;  1.0002403E+04;  0.0000000E+00;  1.4530073E-14;  1.0000000E+04;  0.0000000E+00;  9.9668193E+03;0.026018091;0.0;0.52167177;14709.689
  9.8047101E-01;  9.9999998E-03;  2.0033866E-02;2564;0.20715065;0.0;0.011144957;1011.0732;  4.0505370E-01;9126.5029;3;65.1147;0.0;-1.0042411;0;0.54278064;  1.0002356E+04;  0.0000000E+00; -3.4105440E-07;  1.0000000E+04;  0.0000000E+00;  9.9668828E+03;0.02770496;0.0;0.51507568;14686.683
  9.8047513E-01;  9.9999998E-03;  4.0066652E-02;2565;0.20832568;0.0;0.021591801;1011.075;  4.0505365E-01;9127.9736;3;64.926018;0.0;-1.9432862;0;0.52980876;  1.0002217E+04;  0.0000000E+00; -1.4542885E-06;  1.0000000E+04;  0.0000000E+00;  9.9670547E+03;0.032727223;0.0;0.49708155;14627.938
  9.8048204E-01;  9.9999998E-03;  6.0098052E-02;2566;0.21028985;0.0;0.030949838;1011.0746;  4.0505368E-01;9127.5742;3;64.657829;0.0;-2.7508864;0;0.51317471;  1.0001977E+04;  0.0000000E+00; -2.7588055E-06;  1.0000000E+04;  0.0000000E+00;  9.9672813E+03;0.040992577;0.0;0.47218212;14550.691
  9.8049176E-01;  9.9999998E-03;  8.0128908E-02;2567;0.21304148;0.0;0.039328858;1011.0696;  4.0505382E-01;9123.4414;3;64.332443;0.0;-3.3090718;0;0.49789497;  1.0001611E+04;  0.0000000E+00; -2.6500327E-06;  1.0000000E+04;  0.0000000E+00;  9.9675488E+03;0.052435536;0.0;0.44545943;14454.551
  9.8050439E-01;  9.9999998E-03;  1.0016064E-01;2568;0.2165854;0.0;0.047250226;1011.0609;  4.0505373E-01;9116.3584;3;64.03643;0.0;-3.5064993;0;0.48753667;  1.0001084E+04;  0.0000000E+00;  3.2512440E-07;  1.0000000E+04;  0.0000000E+00;  9.9679063E+03;0.06720309;0.0;0.42033359;14313.377
  9.8052007E-01;  9.9999998E-03;  1.2019405E-01;2569;0.22096185;0.0;0.055274881;1011.0487;  4.0505373E-01;9106.2275;3;63.786407;0.0;-3.2000384;0;0.48329863;  1.0000320E+04;  0.0000000E+00;  6.9977164E-06;  1.0000000E+04;  0.0000000E+00;  9.9684268E+03;0.085989766;0.0;0.39730886;14094.646
  9.8053902E-01;  9.9999998E-03;  1.4022797E-01;2570;0.22627959;0.0;0.063521594;1011.0262;  4.0505376E-01;9087.6445;3;63.794453;0.0;-2.2594492;0;0.48517725;  9.9991943E+03;  0.0000000E+00;  1.5930753E-05;  1.0000000E+04;  0.0000000E+00;  9.9691035E+03;0.11042919;0.0;0.37474805;13797.814
  1.0004591E+00;  9.9999998E-03;  5.9648653E-12;2594;0.20353641;0.0;4.9482596e-09;1009.9777;  4.0443644E-01;8208.8281;3;64.970192;0.0;1.6626727e-06;0;0.38384876;  1.0008333E+04;  0.0000000E+00; -1.0219471E-15;  1.0000000E+04;  0.0000000E+00;  9.9697129E+03;-0.098252706;0.0;0.48210147;13134.931
  1.0004605E+00;  9.9999998E-03;  2.0030556E-02;2595;0.20397186;0.0;0.010216911;1009.9785;  4.0443653E-01;8209.415;3;64.920753;0.0;-0.65688854;0;0.37982586;  1.0008304E+04;  0.0000000E+00; -1.9367432E-07;  1.0000000E+04;  0.0000000E+00;  9.9697549E+03;-0.096747987;0.0;0.47657385;13121.813
  1.0004648E+00;  9.9999998E-03;  4.0060293E-02;2596;0.20527203;0.0;0.019871973;1009.9795;  4.0443641E-01;8210.2939;3;64.801186;0.0;-1.2609442;0;0.36917543;  1.0008207E+04;  0.0000000E+00; -6.2117982E-07;  1.0000000E+04;  0.0000000E+00;  9.9698633E+03;-0.09227477;0.0;0.46145019;13088.989
  1.0004718E+00;  9.9999998E-03;  6.0089052E-02;2597;0.20741577;0.0;0.028684957;1009.9784;  4.0443641E-01;8209.4053;3;64.626167;0.0;-1.7550009;0;0.35544002;  1.0008035E+04;  0.0000000E+00; -5.5477926E-07;  1.0000000E+04;  0.0000000E+00;  9.9700098E+03;-0.084929012;0.0;0.44036904;13045.187
  1.0004816E+00;  9.9999998E-03;  8.0117568E-02;2598;0.21035793;0.0;0.03670267;1009.9745;  4.0443641E-01;8206.1611;3;64.404793;0.0;-2.1392012;0;0.34261179;  1.0007768E+04;  0.0000000E+00;  9.3304408E-07;  1.0000000E+04;  0.0000000E+00;  9.9702051E+03;-0.074783072;0.0;0.41739488;12982.376
  1.0004941E+00;  9.9999998E-03;  1.0014687E-01;2599;0.21408163;0.0;0.044267379;1009.9686;  4.0443644E-01;8201.3447;3;64.226318;0.0;-2.2377279;0;0.33343041;  1.0007356E+04;  0.0000000E+00;  3.0654346E-06;  1.0000000E+04;  0.0000000E+00;  9.9704990E+03;-0.061729975;0.0;0.39516038;12871.418
  1.0005099E+00;  9.9999998E-03;  1.2017763E-01;2600;0.21868083;0.0;0.051910643;1009.9603;  4.0443626E-01;8194.4658;3;64.161369;0.0;-1.8640308;0;0.32864445;  1.0006730E+04;  0.0000000E+00;  4.6661462E-06;  1.0000000E+04;  0.0000000E+00;  9.9709629E+03;-0.045175247;0.0;0.37381971;12679.878
  1.0005292E+00;  9.9999998E-03;  1.4020869E-01;2601;0.22429505;0.0;0.059671156;1009.9439;  4.0443632E-01;8181.0132;3;64.193031;0.0;-0.88471454;0;0.32831395;  1.0005758E+04;  0.0000000E+00;  7.1070622E-06;  1.0000000E+04;  0.0000000E+00;  9.9716055E+03;-0.023548055;0.0;0.35186201;12406.48
  1.0204467E+00;  9.9999998E-03;  2.1106682E-11;2625;0.1996934;0.0;5.1150022e-09;1008.869;  4.0386271E-01;7279.1914;3;64.678169;0.0;-2.8015711e-06;0;0.26931196;  1.0012021E+04;  0.0000000E+00;  1.2148470E-14;  1.0000000E+04;  0.0000000E+00;  9.9724268E+03;-0.17563964;0.0;0.44495162;11614.058
  1.0204481E+00;  9.9999998E-03;  2.0027567E-02;2626;0.20017782;0.0;0.0093958229;1008.8691;  4.0386283E-01;7279.1895;3;64.647247;0.0;-0.3461799;0;0.26615489;  1.0011995E+04;  0.0000000E+00; -1.2169235E-07;  1.0000000E+04;  0.0000000E+00;  9.9724482E+03;-0.17423739;0.0;0.44039229;11608.451
  1.0204524E+00;  9.9999998E-03;  4.0054530E-02;2627;0.20160733;0.0;0.018327564;1008.8684;  4.0386280E-01;7278.6963;3;64.564857;0.0;-0.67767984;0;0.25777537;  1.0011920E+04;  0.0000000E+00;  1.5551689E-07;  1.0000000E+04;  0.0000000E+00;  9.9725127E+03;-0.17005186;0.0;0.42782721;11594.405
  1.0204595E+00;  9.9999998E-03;  6.0080767E-02;2628;0.20391928;0.0;0.026524058;1008.8661;  4.0386283E-01;7276.7324;3;64.458061;0.0;-0.97840381;0;0.24689578;  1.0011778E+04;  0.0000000E+00;  1.9180370E-06;  1.0000000E+04;  0.0000000E+00;  9.9726035E+03;-0.16312312;0.0;0.41001889;11572.465
  1.0204693E+00;  9.9999998E-03;  8.0106884E-02;2629;0.20704408;0.0;0.034075078;1008.8613;  4.0386289E-01;7272.8091;3;64.335876;0.0;-1.1729274;0;0.23657842;  1.0011538E+04;  0.0000000E+00;  4.0745745E-06;  1.0000000E+04;  0.0000000E+00;  9.9727520E+03;-0.15344481;0.0;0.39002323;11528.417
  1.0204819E+00;  9.9999998E-03;  1.0013393E-01;2630;0.21096021;0.0;0.041345872;1008.855;  4.0386274E-01;7267.6108;3;64.216301;0.0;-1.1618469;0;0.22888401;  1.0011152E+04;  0.0000000E+00;  4.4495610E-07;  1.0000000E+04;  0.0000000E+00;  9.9730137E+03;-0.14087075;0.0;0.36975476;11433.19
  1.0204979E+00;  9.9999998E-03;  1.2016233E-01;2631;0.2157377;0.0;0.048652198;1008.8465;  4.0386271E-01;7260.6479;3;64.196289;0.0;-0.8000868;0;0.22423926;  1.0010544E+04;  0.0000000E+00; -1.6630365E-05;  1.0000000E+04;  0.0000000E+00;  9.9734482E+03;-0.12492346;0.0;0.34916273;11258.539
  1.0205176E+00;  9.9999998E-03;  1.4019065E-01;2632;0.22158521;0.0;0.055904947;1008.8293;  4.0386260E-01;7246.5396;3;64.27507;0.0;0.17576739;0;0.22270292;  1.0009594E+04;  0.0000000E+00; -4.4878136E-05;  1.0000000E+04;  0.0000000E+00;  9.9740635E+03;-0.10431171;0.0;0.32701463;11005.52
  1.0404319E+00;  9.9999998E-03;  1.5404882E-11;2656;0.19496778;0.0;2.9863572e-09;1007.8123;  4.0334427E-01;6391.2373;3;64.1549;0.0;-4.767182e-06;0;0.18715405;  1.0014237E+04;  0.0000000E+00; -3.7627795E-16;  1.0000000E+04;  0.0000000E+00;  9.9749385E+03;-0.22307745;0.0;0.4102315;10163.619
  1.0404334E+00;  9.9999998E-03;  2.0024795E-02;2657;0.19549249;0.0;0.0085728746;1007.8117;  4.0334427E-01;6390.7476;3;64.145844;0.0;-0.12105228;0;0.18479377;  1.0014214E+04;  0.0000000E+00;  4.8520764E-07;  1.0000000E+04;  0.0000000E+00;  9.9749512E+03;-0.22169608;0.0;0.40648985;10162.282
  1.0404377E+00;  9.9999998E-03;  4.0049203E-02;2658;0.19704215;0.0;0.016783576;1007.8099;  4.0334427E-01;6389.2793;3;64.155396;0.0;-0.26822436;0;0.17850311;  1.0014133E+04;  0.0000000E+00;  2.9031355E-06;  1.0000000E+04;  0.0000000E+00;  9.9749893E+03;-0.21753632;0.0;0.39603943;10157.818
  1.0404449E+00;  9.9999998E-03;  6.0073238E-02;2659;0.19953042;0.0;0.0244518;1007.8055;  4.0334433E-01;6385.6626;3;64.129211;0.0;-0.39607358;0;0.17027017;  1.0013980E+04;  0.0000000E+00;  7.8364210E-06;  1.0000000E+04;  0.0000000E+00;  9.9750518E+03;-0.21053228;0.0;0.38080245;10144.34
  1.0404547E+00;  9.9999998E-03;  8.0097318E-02;2660;0.20285405;0.0;0.031635951;1007.7988;  4.0334424E-01;6380.1895;3;64.082451;0.0;-0.42480671;0;0.1623733;  1.0013716E+04;  0.0000000E+00;  9.9377694E-06;  1.0000000E+04;  0.0000000E+00;  9.9751855E+03;-0.20053148;0.0;0.36290479;10104.441
  1.0404676E+00;  9.9999998E-03;  1.0012227E-01;2661;0.2069819;0.0;0.038647681;1007.7899;  4.0334421E-01;6372.958;3;63.997997;0.0;-0.1849591;0;0.15638593;  1.0013281E+04;  0.0000000E+00; -5.5241489E-06;  1.0000000E+04;  0.0000000E+00;  9.9754424E+03;-0.18727943;0.0;0.34366536;10012.905
  1.0404838E+00;  9.9999998E-03;  1.2014819E-01;2662;0.21199103;0.0;0.045650765;1007.7767;  4.0334412E-01;6362.1128;3;63.949665;0.0;0.38252255;0;0.15263027;  1.0012591E+04;  0.0000000E+00; -5.5297685E-05;  1.0000000E+04;  0.0000000E+00;  9.9758662E+03;-0.17038593;0.0;0.3230162;9849.998
  1.0405042E+00;  9.9999998E-03;  1.4017391E-01;2663;0.21811514;0.0;0.052541181;1007.7529;  4.0334409E-01;6342.5845;3;64.125099;0.0;1.322754;0;0.15118879;  1.0011543E+04;  0.0000000E+00; -1.3470222E-04;  1.0000000E+04;  0.0000000E+00;  9.9764453E+03;-0.14898461;0.0;0.3001734;9621.874
  1.0604154E+00;  9.9999998E-03;  3.6317373E-11;2687;0.1895096;0.0;1.0884301e-08;1006.8526;  4.0288770E-01;5582.1401;3;63.406002;0.0;9.8334567e-09;0;0.12501264;  1.0015501E+04;  0.0000000E+00;  1.3718402E-15;  1.0000000E+04;  0.0000000E+00;  9.9772539E+03;-0.25252479;0.0;0.37753743;8789.5547
  1.0604168E+00;  9.9999998E-03;  2.0022228E-02;2688;0.1900693;0.0;0.0077356161;1006.8515;  4.0288776E-01;5581.2642;3;63.418468;0.0;0.015492587;0;0.12332061;  1.0015472E+04;  0.0000000E+00;  1.8947462E-06;  1.0000000E+04;  0.0000000E+00;  9.9772617E+03;-0.25109378;0.0;0.37441438;8788.8994
  1.0604212E+00;  9.9999998E-03;  4.0044323E-02;2689;0.19171172;0.0;0.015252351;1006.8484;  4.0288773E-01;5578.7339;3;63.461514;0.0;0.032865286;0;0.11878604;  1.0015379E+04;  0.0000000E+00;  7.9952051E-06;  1.0000000E+04;  0.0000000E+00;  9.9772949E+03;-0.24673527;0.0;0.36552131;8784.4453
  1.0604284E+00;  9.9999998E-03;  6.0066331E-02;2690;0.19432798;0.0;0.022429679;1006.8423;  4.0288776E-01;5573.7715;3;63.48571;0.0;0.10673331;0;0.11280686;  1.0015186E+04;  0.0000000E+00;  1.6011414E-05;  1.0000000E+04;  0.0000000E+00;  9.9773672E+03;-0.23924646;0.0;0.35205331;8767.0645
  1.0604384E+00;  9.9999998E-03;  8.0088675E-02;2691;0.19779493;0.0;0.029415429;1006.8332;  4.0288776E-01;5566.2803;3;63.471092;0.0;0.44799531;0;0.10707022;  1.0014847E+04;  0.0000000E+00;  1.3289770E-05;  1.0000000E+04;  0.0000000E+00;  9.9775215E+03;-0.22830044;0.0;0.33537066;8720.416
  1.0604514E+00;  9.9999998E-03;  1.0011166E-01;2692;0.20214683;0.0;0.036247369;1006.8192;  4.0288764E-01;5554.8037;3;63.568108;0.0;0.83135325;0;0.10285556;  1.0014296E+04;  0.0000000E+00; -2.4957304E-05;  1.0000000E+04;  0.0000000E+00;  9.9777900E+03;-0.21352422;0.0;0.31637979;8627.0059
  1.0604681E+00;  9.9999998E-03;  1.2013520E-01;2693;0.20753157;0.0;0.042886756;1006.7969;  4.0288770E-01;5536.7192;3;63.69035;0.0;1.3614641;0;0.10058644;  1.0013451E+04;  0.0000000E+00; -1.2045975E-04;  1.0000000E+04;  0.0000000E+00;  9.9781943E+03;-0.19460151;0.0;0.29518795;8478.4258
  1.0604892E+00;  9.9999998E-03;  1.4015782E-01;2694;0.21408847;0.0;0.04904582;1006.7603;  4.0288767E-01;5506.7817;3;63.887333;0.0;2.2316527;0;0.10048313;  1.0012212E+04;  0.0000000E+00; -4.0428503E-04;  1.0000000E+04;  0.0000000E+00;  9.9787012E+03;-0.17116536;0.0;0.2716485;8287.7256
  1.0803978E+00;  9.9999998E-03;  1.0421226E-11;2718;0.18348727;0.0;6.8746289e-09;1006.0093;  4.0249580E-01;4867.2617;3;62.342751;0.0;1.1074371e-06;0;0.076614946;  1.0016048E+04;  0.0000000E+00; -1.3749062E-15;  1.0000000E+04;  0.0000000E+00;  9.9794092E+03;-0.26954389;0.0;0.34615883;7491.9175
  1.0803993E+00;  9.9999998E-03;  2.0020034E-02;2719;0.18407112;0.0;0.0070212497;1006.0081;  4.0249565E-01;4866.2939;3;62.372078;0.0;0.12461814;0;0.07543233;  1.0016011E+04;  0.0000000E+00;  3.3493059E-06;  1.0000000E+04;  0.0000000E+00;  9.9794238E+03;-0.2679989;0.0;0.34343123;7488.9883
  1.0804037E+00;  9.9999998E-03;  4.0040094E-02;2720;0.18575884;0.0;0.013950855;1006.0038;  4.0249574E-01;4862.811;3;62.378605;0.0;0.38365644;0;0.07225731;  1.0015877E+04;  0.0000000E+00;  1.1813800E-05;  1.0000000E+04;  0.0000000E+00;  9.9794727E+03;-0.26324287;0.0;0.33550018;7477.3276
  1.0804108E+00;  9.9999998E-03;  6.0060378E-02;2721;0.18847199;0.0;0.020788146;1005.9957;  4.0249565E-01;4856.3296;3;62.547024;0.0;0.67988551;0;0.068097562;  1.0015615E+04;  0.0000000E+00;  1.6697219E-05;  1.0000000E+04;  0.0000000E+00;  9.9795742E+03;-0.25492778;0.0;0.32302535;7448.6567
  1.0804210E+00;  9.9999998E-03;  8.0081038E-02;2722;0.1921588;0.0;0.027462099;1005.9821;  4.0249565E-01;4845.3071;3;62.728825;0.0;1.0020483;0;0.064291909;  1.0015168E+04;  0.0000000E+00; -4.2411807E-06;  1.0000000E+04;  0.0000000E+00;  9.9797529E+03;-0.2425632;0.0;0.30685511;7392.2041
  1.0804343E+00;  9.9999998E-03;  1.0010206E-01;2723;0.19682243;0.0;0.033871643;1005.9598;  4.0249556E-01;4827.2295;3;62.903233;0.0;1.4283271;0;0.062001437;  1.0014449E+04;  0.0000000E+00; -8.2170242E-05;  1.0000000E+04;  0.0000000E+00;  9.9800273E+03;-0.22571149;0.0;0.28771293;7300.8843
  1.0804516E+00;  9.9999998E-03;  1.2012295E-01;2724;0.20260322;0.0;0.039919056;1005.9239;  4.0249568E-01;4798.043;3;63.122845;0.0;2.0538142;0;0.061834753;  1.0013382E+04;  0.0000000E+00; -2.3085639E-04;  1.0000000E+04;  0.0000000E+00;  9.9803789E+03;-0.2042065;0.0;0.26604125;7177.8071
  1.0804734E+00;  9.9999998E-03;  1.4014231E-01;2725;0.20956981;0.0;0.045333259;1005.8699;  4.0249574E-01;4754.3672;3;63.460743;0.0;2.902374;0;0.064019471;  1.0011926E+04;  0.0000000E+00; -3.2831570E-03;  1.0000000E+04;  0.0000000E+00;  9.9807529E+03;-0.17853536;0.0;0.24255483;7044.0747
  1.1003801E+00;  9.9999998E-03; -6.5548777E-12;2748;0.17715827;0.0;2.2241458e-09;1005.2833;  4.0216655E-01;4247.1938;3;61.042519;0.0;1.3229474e-06;0;0.03984049;  1.0015926E+04;  0.0000000E+00;  5.5057734E-15;  1.0000000E+04;  0.0000000E+00;  9.9814482E+03;-0.27535674;0.0;0.31519723;6271.9937
  1.1003815E+00;  9.9999998E-03;  2.0018123E-02;2749;0.17775002;0.0;0.0064105201;1005.2817;  4.0216681E-01;4245.8501;3;61.073982;0.0;0.27313033;0;0.039053977;  1.0015867E+04;  0.0000000E+00;  2.7332458E-06;  1.0000000E+04;  0.0000000E+00;  9.9814688E+03;-0.27362472;0.0;0.31267869;6265.6982
  1.1003859E+00;  9.9999998E-03;  4.0036451E-02;2750;0.179501;0.0;0.012828087;1005.2759;  4.0216672E-01;4241.2417;3;61.215195;0.0;0.57470042;0;0.03698808;  1.0015676E+04;  0.0000000E+00;  5.8361111E-06;  1.0000000E+04;  0.0000000E+00;  9.9815410E+03;-0.26824966;0.0;0.30523774;6245.1128
  1.1003932E+00;  9.9999998E-03;  6.0055103E-02;2751;0.18235232;0.0;0.019208089;1005.2639;  4.0216666E-01;4231.4541;3;61.422138;0.0;0.94170672;0;0.034490436;  1.0015311E+04;  0.0000000E+00; -7.7331715E-06;  1.0000000E+04;  0.0000000E+00;  9.9816689E+03;-0.25875157;0.0;0.29324201;6206.354
  1.1004034E+00;  9.9999998E-03;  8.0073982E-02;2752;0.18624553;0.0;0.025432726;1005.2424;  4.0216672E-01;4214.2817;3;61.681187;0.0;1.4072113;0;0.032757163;  1.0014687E+04;  0.0000000E+00; -6.7014233E-05;  1.0000000E+04;  0.0000000E+00;  9.9818633E+03;-0.24454662;0.0;0.27730379;6146.9946
  1.1004174E+00;  9.9999998E-03;  1.0009292E-01;2753;0.19126193;0.0;0.031404473;1005.2067;  4.0216660E-01;4185.5078;3;61.997944;0.0;1.9720808;0;0.032912523;  1.0013741E+04;  0.0000000E+00; -1.9788003E-04;  1.0000000E+04;  0.0000000E+00;  9.9820967E+03;-0.2252647;0.0;0.25817722;6070.5879
  1.1004354E+00;  9.9999998E-03;  1.2011060E-01;2754;0.1974379;0.0;0.036711633;1005.1526;  4.0216666E-01;4141.9697;3;62.373016;0.0;2.6512458;0;0.035576478;  1.0012419E+04;  0.0000000E+00; -1.4311047E-03;  1.0000000E+04;  0.0000000E+00;  9.9823389E+03;-0.20119897;0.0;0.23677544;5989.8525
  1.1004585E+00;  9.9999998E-03;  1.4012729E-01;2755;0.20506598;0.0;0.041334089;1005.0809;  4.0216675E-01;4084.3362;3;62.887722;0.0;3.3703856;0;0.040181786;  1.0010829E+04;  0.0000000E+00; -2.0663824E-02;  1.0000000E+04;  0.0000000E+00;  9.9824971E+03;-0.17476712;0.0;0.21494891;5934.2896
  1.1203629E+00;  9.9999998E-03; -1.7585568E-11;2777;0.17082858;0.0;-2.1439436e-10;1004.6652;  4.0189707E-01;3713.3799;3;59.70599;0.0;1.6505241e-05;0;0.014220893;  1.0015091E+04;  0.0000000E+00; -1.2453482E-15;  1.0000000E+04;  0.0000000E+00;  9.9833848E+03;-0.26965421;0.0;0.28387511;5140.4194
  1.1203643E+00;  9.9999998E-03;  2.0016495E-02;2778;0.17142779;0.0;0.0058207456;1004.6622;  4.0189704E-01;3710.9099;3;59.639965;0.0;0.24135111;0;0.013852268;  1.0015004E+04;  0.0000000E+00; -2.8492821E-06;  1.0000000E+04;  0.0000000E+00;  9.9834150E+03;-0.26763108;0.0;0.28148335;5132.1514
  1.1203687E+00;  9.9999998E-03;  4.0033195E-02;2779;0.17324089;0.0;0.011732166;1004.6523;  4.0189710E-01;3703.0247;3;59.806961;0.0;0.68120092;0;0.013022214;  1.0014719E+04;  0.0000000E+00; -1.9296816E-05;  1.0000000E+04;  0.0000000E+00;  9.9834980E+03;-0.26134646;0.0;0.27436867;5107.5537
  1.1203761E+00;  9.9999998E-03;  6.0050070E-02;2780;0.17621182;0.0;0.01762851;1004.6323;  4.0189725E-01;3687.0686;3;60.095013;0.0;1.2006307;0;0.012522012;  1.0014188E+04;  0.0000000E+00; -7.0898444E-05;  1.0000000E+04;  0.0000000E+00;  9.9836289E+03;-0.2502774;0.0;0.26279941;5068.3169
  1.1203870E+00;  9.9999998E-03;  8.0067113E-02;2781;0.18036996;0.0;0.023409206;1004.5976;  4.0189710E-01;3659.4346;3;60.473225;0.0;1.7631167;0;0.013466164;  1.0013341E+04;  0.0000000E+00; -1.8260920E-04;  1.0000000E+04;  0.0000000E+00;  9.9837822E+03;-0.23391141;0.0;0.24737757;5020.1851
  1.1204013E+00;  9.9999998E-03;  1.0008313E-01;2782;0.18573216;0.0;0.028637763;1004.5437;  4.0189710E-01;3616.5171;3;60.96101;0.0;2.406173;0;0.016782075;  1.0012132E+04;  0.0000000E+00; -1.3137687E-03;  1.0000000E+04;  0.0000000E+00;  9.9839150E+03;-0.21230125;0.0;0.22908333;4975.332
  1.1204203E+00;  9.9999998E-03;  1.2009814E-01;2783;0.19249117;0.0;0.033094548;1004.4712;  4.0189722E-01;3558.7891;3;61.544716;0.0;2.9737995;0;0.022235468;  1.0010636E+04;  0.0000000E+00; -1.5168436E-02;  1.0000000E+04;  0.0000000E+00;  9.9839658E+03;-0.18730149;0.0;0.20953695;4954.2451
  1.1204445E+00;  9.9999998E-03;  1.4011092E-01;2784;0.20071116;0.0;0.03659451;1004.3904;  4.0189704E-01;3494.4106;3;62.370464;0.0;3.6900446;0;0.027884617;  1.0009143E+04;  0.0000000E+00; -8.5700870E-02;  1.0000000E+04;  0.0000000E+00;  9.9838457E+03;-0.16338086;0.0;0.19126548;4990.7178
  1.1403470E+00;  9.9999998E-03;  8.7126816E-12;2805;0.16478409;0.0;2.4016489e-09;1004.1317;  4.0168083E-01;3246.5916;3;58.147079;0.0;-6.1748651e-06;0;-0.00013852119;  1.0013413E+04;  0.0000000E+00; -5.9678985E-15;  1.0000000E+04;  0.0000000E+00;  9.9851992E+03;-0.25214589;0.0;0.25200737;4119.8916
  1.1403484E+00;  9.9999998E-03;  2.0014914E-02;2806;0.16537416;0.0;0.0052546449;1004.126;  4.0168071E-01;3242.1855;3;58.147972;0.0;0.32832786;0;5.5268407e-05;  1.0013281E+04;  0.0000000E+00; -1.4015950E-05;  1.0000000E+04;  0.0000000E+00;  9.9852266E+03;-0.2497271;0.0;0.24978237;4112.6021
  1.1403530E+00;  9.9999998E-03;  4.0029876E-02;2807;0.16722776;0.0;0.010632988;1004.1089;  4.0168080E-01;3228.686;3;58.29977;0.0;0.80681062;0;0.00087328255;  1.0012875E+04;  0.0000000E+00; -6.3146857E-05;  1.0000000E+04;  0.0000000E+00;  9.9852900E+03;-0.24228945;0.0;0.24316274;4092.543
  1.1403606E+00;  9.9999998E-03;  6.0044974E-02;2808;0.17036925;0.0;0.016032279;1004.0764;  4.0168080E-01;3203.0955;3;58.693153;0.0;1.3968759;0;0.002973333;  1.0012141E+04;  0.0000000E+00; -2.6100033E-04;  1.0000000E+04;  0.0000000E+00;  9.9853721E+03;-0.22947566;0.0;0.232449;4065.6819
  1.1403717E+00;  9.9999998E-03;  8.0059417E-02;2809;0.17478266;0.0;0.021048667;1004.0255;  4.0168083E-01;3163.0723;3;59.225216;0.0;2.019177;0;0.0070670545;  1.0011067E+04;  0.0000000E+00; -2.5529894E-03;  1.0000000E+04;  0.0000000E+00;  9.9854238E+03;-0.2113729;0.0;0.21843995;4043.8462
  1.1403869E+00;  9.9999998E-03;  1.0007304E-01;2810;0.18063815;0.0;0.025403878;1003.9556;  4.0168071E-01;3108.1467;3;59.88578;0.0;2.513031;0;0.013077408;  1.0009720E+04;  0.0000000E+00; -1.8154483E-02;  1.0000000E+04;  0.0000000E+00;  9.9853809E+03;-0.18947437;0.0;0.20255178;4045.1003
  1.1404068E+00;  9.9999998E-03;  1.2008442E-01;2811;0.18794703;0.0;0.028758673;1003.8754;  4.0168083E-01;3045.0627;3;60.778046;0.0;3.1465573;0;0.019503638;  1.0008318E+04;  0.0000000E+00; -8.2016662E-02;  1.0000000E+04;  0.0000000E+00;  9.9851768E+03;-0.16728202;0.0;0.18678565;4094.9185
  1.1404330E+00;  9.9999998E-03;  1.4009492E-01;2812;0.19689544;0.0;0.031253837;1003.8013;  4.0168086E-01;2986.8376;3;62.095177;0.0;3.5466623;0;0.023388356;  1.0007220E+04;  0.0000000E+00; -2.5943452E-01;  1.0000000E+04;  0.0000000E+00;  9.9847959E+03;-0.14980939;0.0;0.17319775;4253.1167
  1.1603328E+00;  9.9999998E-03;  1.1717787E-11;2832;0.15921612;0.0;2.8140941e-09;1003.6541;  4.0151110E-01;2824.1804;3;56.616749;0.0;-5.6983481e-06;0;-0.0034012049;  1.0010737E+04;  0.0000000E+00; -5.0412669E-15;  1.0000000E+04;  0.0000000E+00;  9.9868066E+03;-0.22364463;0.0;0.22024342;3237.3105
  1.1603343E+00;  9.9999998E-03;  2.0013200E-02;2833;0.15982002;0.0;0.0046775374;1003.6458;  4.0151104E-01;2817.7271;3;56.66621;0.0;0.43274224;0;-0.0025270879;  1.0010567E+04;  0.0000000E+00; -6.1122439E-05;  1.0000000E+04;  0.0000000E+00;  9.9868115E+03;-0.2208346;0.0;0.21830751;3233.697
  1.1603389E+00;  9.9999998E-03;  4.0026262E-02;2834;0.16174166;0.0;0.0094522107;1003.6203;  4.0151104E-01;2797.9983;3;56.835205;0.0;0.88126868;0;0.00012773275;  1.0010047E+04;  0.0000000E+00; -9.7450404E-04;  1.0000000E+04;  0.0000000E+00;  9.9868232E+03;-0.21248771;0.0;0.21261545;3225.5459
  1.1603467E+00;  9.9999998E-03;  6.0039088E-02;2835;0.16504039;0.0;0.014074551;1003.5768;  4.0151104E-01;2764.3496;3;57.310276;0.0;1.4741071;0;0.0046399087;  1.0009197E+04;  0.0000000E+00; -6.4576576E-03;  1.0000000E+04;  0.0000000E+00;  9.9867998E+03;-0.19901833;0.0;0.20365824;3221.3052
  1.1603585E+00;  9.9999998E-03;  8.0051348E-02;2836;0.16985202;0.0;0.018252693;1003.5157;  4.0151116E-01;2717.1477;3;58.077656;0.0;1.973303;0;0.01070559;  1.0008096E+04;  0.0000000E+00; -2.9490283E-02;  1.0000000E+04;  0.0000000E+00;  9.9866826E+03;-0.18183403;0.0;0.19253962;3235.9897
  1.1603745E+00;  9.9999998E-03;  1.0006163E-01;2837;0.17615412;0.0;0.021446245;1003.4434;  4.0151110E-01;2661.1838;3;59.039558;0.0;2.4957886;0;0.01713185;  1.0006911E+04;  0.0000000E+00; -1.0017712E-01;  1.0000000E+04;  0.0000000E+00;  9.9864248E+03;-0.16361347;0.0;0.18074532;3292.7388
  1.1603962E+00;  9.9999998E-03;  1.2007093E-01;2838;0.18409757;0.0;0.023824394;1003.3732;  4.0151116E-01;2606.8665;3;60.436649;0.0;2.8608911;0;0.021387786;  1.0005938E+04;  0.0000000E+00; -2.7308601E-01;  1.0000000E+04;  0.0000000E+00;  9.9859990E+03;-0.14841489;0.0;0.16980268;3444.9443
  1.1604247E+00;  9.9999998E-03;  1.4008076E-01;2839;0.19389232;0.0;0.026020892;1003.3242;  4.0151131E-01;2569.0256;3;62.415874;0.0;3.2360988;0;0.020586789;  1.0005513E+04;  0.0000000E+00; -6.0795748E-01;  1.0000000E+04;  0.0000000E+00;  9.9854463E+03;-0.14018142;0.0;0.16076821;3829.959
  1.1803205E+00;  9.9999998E-03;  5.3478051E-12;2858;0.15435073;0.0;2.3429707e-09;1003.2141;  4.0138063E-01;2432.5317;3;55.279739;0.0;2.914865e-06;0;0.0018463135;  1.0007191E+04;  0.0000000E+00; -4.2098431E-15;  1.0000000E+04;  0.0000000E+00;  9.9880732E+03;-0.18813758;0.0;0.18998389;2512.6243
  1.1803221E+00;  9.9999998E-03;  2.0011162E-02;2859;0.15497811;0.0;0.0040017245;1003.2043;  4.0138075E-01;2425.1294;3;55.37949;0.0;0.49258074;0;0.0031755567;  1.0007013E+04;  0.0000000E+00; -1.5260992E-03;  1.0000000E+04;  0.0000000E+00;  9.9880527E+03;-0.18537723;0.0;0.18855278;2513.9163
  1.1803268E+00;  9.9999998E-03;  4.0022250E-02;2860;0.15700355;0.0;0.0079818778;1003.1751;  4.0138078E-01;2403.0117;3;55.625282;0.0;0.85593742;0;0.0068750083;  1.0006506E+04;  0.0000000E+00; -1.1209791E-02;  1.0000000E+04;  0.0000000E+00;  9.9879805E+03;-0.17758383;0.0;0.18445884;2520.7051
  1.1803350E+00;  9.9999998E-03;  6.0032800E-02;2861;0.16057059;0.0;0.011774312;1003.1299;  4.0138063E-01;2368.7954;3;56.294292;0.0;1.3664113;0;0.012190416;  1.0005760E+04;  0.0000000E+00; -4.4701654E-02;  1.0000000E+04;  0.0000000E+00;  9.9878252E+03;-0.16618526;0.0;0.17837568;2542.6265
  1.1803476E+00;  9.9999998E-03;  8.0042265E-02;2862;0.16565257;0.0;0.014755436;1003.0743;  4.0138075E-01;2326.6289;3;57.238369;0.0;1.7578748;0;0.017685547;  1.0004928E+04;  0.0000000E+00; -1.3224496E-01;  1.0000000E+04;  0.0000000E+00;  9.9875449E+03;-0.15364324;0.0;0.17132878;2601.4226
  1.1803652E+00;  9.9999998E-03;  1.0005084E-01;2863;0.172479;0.0;0.017055079;1003.0188;  4.0138072E-01;2284.6304;3;58.736034;0.0;2.1159575;0;0.021195129;  1.0004254E+04;  0.0000000E+00; -3.1820464E-01;  1.0000000E+04;  0.0000000E+00;  9.9871143E+03;-0.1430794;0.0;0.16427453;2750.6492
  1.1803889E+00;  9.9999998E-03;  1.2005962E-01;2864;0.18115368;0.0;0.019194143;1002.9795;  4.0138078E-01;2254.7961;3;60.795609;0.0;2.5131655;0;0.020158991;  1.0004018E+04;  0.0000000E+00; -6.5132654E-01;  1.0000000E+04;  0.0000000E+00;  9.9865645E+03;-0.13774519;0.0;0.15790418;3108.2551
  1.1804209E+00;  9.9999998E-03;  1.4007072E-01;2865;0.19183041;0.0;0.021413369;1002.9683;  4.0138078E-01;2246.2322;3;63.889359;0.0;2.7364624;0;0.013249844;  1.0004399E+04;  0.0000000E+00; -1.1484870E+00;  1.0000000E+04;  0.0000000E+00;  9.9859619E+03;-0.13904507;0.0;0.15229492;3813.9805
  1.2003103E+00;  9.9999998E-03;  9.0816365E-12;2882;0.15026473;0.0;3.694727e-09;1002.8152;  4.0128252E-01;2075.6848;3;54.340355;0.0;-1.4387188e-06;0;0.0098784715;  1.0003316E+04;  0.0000000E+00; -6.9992471E-15;  1.0000000E+04;  0.0000000E+00;  9.9888770E+03;-0.15334766;0.0;0.16322613;1949.5543
  1.2003119E+00;  9.9999998E-03;  2.0009136E-02;2883;0.15101112;0.0;0.0031932557;1002.8067;  4.0128258E-01;2069.4392;3;54.668343;0.0;0.38277116;0;0.011137649;  1.0003194E+04;  0.0000000E+00; -8.7223789E-03;  1.0000000E+04;  0.0000000E+00;  9.9888369E+03;-0.15135558;0.0;0.16249323;1954.9562
  1.2003170E+00;  9.9999998E-03;  4.0018067E-02;2884;0.15313192;0.0;0.0062732766;1002.783;  4.0128255E-01;2051.9329;3;54.95528;0.0;0.75701839;0;0.01442261;  1.0002859E+04;  0.0000000E+00; -4.6675548E-02;  1.0000000E+04;  0.0000000E+00;  9.9886943E+03;-0.14606068;0.0;0.16048329;1974.824
  1.2003261E+00;  9.9999998E-03;  6.0026623E-02;2885;0.15691927;0.0;0.0089261644;1002.7503;  4.0128264E-01;2027.8226;3;55.868401;0.0;0.996315;0;0.018124491;  1.0002458E+04;  0.0000000E+00; -1.4609441E-01;  1.0000000E+04;  0.0000000E+00;  9.9884404E+03;-0.13960811;0.0;0.15773261;2026.3514
  1.2003400E+00;  9.9999998E-03;  8.0034599E-02;2886;0.16241567;0.0;0.011063658;1002.7185;  4.0128258E-01;2004.3146;3;57.25227;0.0;1.2957871;0;0.019882783;  1.0002197E+04;  0.0000000E+00; -3.4966767E-01;  1.0000000E+04;  0.0000000E+00;  9.9880674E+03;-0.13485806;0.0;0.15474084;2161.6143
  1.2003596E+00;  9.9999998E-03;  1.0004281E-01;2887;0.16970503;0.0;0.013144389;1002.7001;  4.0128264E-01;1990.7228;3;59.414314;0.0;1.6960186;0;0.017340302;  1.0002312E+04;  0.0000000E+00; -6.9393849E-01;  1.0000000E+04;  0.0000000E+00;  9.9875869E+03;-0.13446282;0.0;0.15180312;2484.6853
  1.2003871E+00;  9.9999998E-03;  1.2005369E-01;2888;0.17920938;0.0;0.015547557;1002.702;  4.0128261E-01;1992.0497;3;62.550861;0.0;1.9297888;0;0.01007466;  1.0002920E+04;  0.0000000E+00; -1.1881106E+00;  1.0000000E+04;  0.0000000E+00;  9.9870176E+03;-0.13901043;0.0;0.14908509;3098.874
  1.2004262E+00;  9.9999998E-03;  1.4006919E-01;2889;0.19113742;0.0;0.018505104;1002.7045;  4.0128255E-01;1993.783;3;66.743378;0.0;2.0265477;0;0.0031469911;  1.0003679E+04;  0.0000000E+00; -1.7949709E+00;  1.0000000E+04;  0.0000000E+00;  9.9863184E+03;-0.14382319;0.0;0.14697018;3994.0615
  1.2203028E+00;  9.9999998E-03;  9.2368621E-12;2905;0.14699832;0.0;7.1996813e-09;1002.4781;  4.0121022E-01;1770.166;3;54.771141;0.0;-7.4862328e-08;0;0.014215037;  9.9998809E+03;  0.0000000E+00;  5.2167933E-15;  1.0000000E+04;  0.0000000E+00;  9.9891934E+03;-0.12748778;0.0;0.14170282;1533.4886
  1.2203047E+00;  9.9999998E-03;  2.0007806E-02;2906;0.14778171;0.0;0.002299461;1002.4743;  4.0121031E-01;1767.4351;3;54.670544;0.0;0.10733178;0;0.0148862;  9.9998584E+03;  0.0000000E+00; -2.3758311E-02;  1.0000000E+04;  0.0000000E+00;  9.9891406E+03;-0.12675247;0.0;0.14163867;1541.4503
  1.2203107E+00;  9.9999998E-03;  4.0015373E-02;2907;0.15019347;0.0;0.0044247247;1002.4654;  4.0121031E-01;1761.0306;3;55.467361;0.0;0.226307;0;0.016048148;  9.9998477E+03;  0.0000000E+00; -1.1208906E-01;  1.0000000E+04;  0.0000000E+00;  9.9889775E+03;-0.12547484;0.0;0.14152299;1573.2349
  1.2203211E+00;  9.9999998E-03;  6.0022708E-02;2908;0.15421955;0.0;0.0062384508;1002.4598;  4.0121025E-01;1756.9968;3;56.546959;0.0;0.46981466;0;0.015635207;  9.9999951E+03;  0.0000000E+00; -3.0581242E-01;  1.0000000E+04;  0.0000000E+00;  9.9887119E+03;-0.12580478;0.0;0.14143999;1666.3561
  1.2203374E+00;  9.9999998E-03;  8.0031157E-02;2909;0.16009718;0.0;0.0081992019;1002.4658;  4.0121028E-01;1761.2046;3;58.574123;0.0;0.82439685;0;0.011238292;  1.0000477E+04;  0.0000000E+00; -6.4430499E-01;  1.0000000E+04;  0.0000000E+00;  9.9883525E+03;-0.13025528;0.0;0.14149357;1910.9736
  1.2203621E+00;  9.9999998E-03;  1.0004273E-01;2910;0.16822742;0.0;0.010827628;1002.4811;  4.0121034E-01;1772.113;3;61.633137;0.0;0.98128486;0;0.0038434714;  1.0001279E+04;  0.0000000E+00; -1.1365430E+00;  1.0000000E+04;  0.0000000E+00;  9.9878613E+03;-0.13831113;0.0;0.1421546;2403.3689
  1.2203984E+00;  9.9999998E-03;  1.2005889E-01;2911;0.17936455;0.0;0.014328735;1002.4732;  4.0121028E-01;1766.3821;3;65.921089;0.0;1.0359809;0;0.0022446811;  1.0001859E+04;  0.0000000E+00; -1.7493576E+00;  1.0000000E+04;  0.0000000E+00;  9.9871309E+03;-0.14227335;0.0;0.14451803;3142.373
  1.2204453E+00;  9.9999998E-03;  1.4007753E-01;2912;0.19303453;0.0;0.01818699;1002.4002;  4.0121019E-01;1714.0529;3;72.075142;0.0;1.312207;0;0.018763483;  1.0001413E+04;  0.0000000E+00; -2.3638127E+00;  1.0000000E+04;  0.0000000E+00;  9.9861260E+03;-0.12991108;0.0;0.14867456;3954.8735
  1.2403014E+00;  9.9999998E-03;  1.1320597E-11;2926;0.14463051;0.0;9.5963397e-09;1002.2344;  4.0115815E-01;1537.3889;3;56.127228;0.0;-1.9625877e-06;0;0.0098695084;  9.9977275E+03;  0.0000000E+00;  2.5424609E-14;  1.0000000E+04;  0.0000000E+00;  9.9890850E+03;-0.11607661;0.0;0.12594612;1244.5642
  1.2403038E+00;  9.9999998E-03;  2.0008102E-02;2927;0.14562489;0.0;0.0016888469;1002.2366;  4.0115812E-01;1538.8578;3;56.618317;0.0;-0.29942816;0;0.0097815022;  9.9978223E+03;  0.0000000E+00; -4.1221686E-02;  1.0000000E+04;  0.0000000E+00;  9.9890332E+03;-0.11655165;0.0;0.12633315;1254.0468
  1.2403115E+00;  9.9999998E-03;  4.0016185E-02;2928;0.14825064;0.0;0.003103955;1002.2437;  4.0115800E-01;1543.673;3;57.256035;0.0;-0.29368395;0;0.0083609521;  9.9981162E+03;  0.0000000E+00; -1.8255565E-01;  1.0000000E+04;  0.0000000E+00;  9.9888848E+03;-0.11897944;0.0;0.12734039;1295.4413
  1.2403259E+00;  9.9999998E-03;  6.0025878E-02;2929;0.15279867;0.0;0.0049977358;1002.256;  4.0115806E-01;1552.158;3;58.771076;0.0;-0.25340468;0;0.0045425519;  9.9986104E+03;  0.0000000E+00; -4.6359420E-01;  1.0000000E+04;  0.0000000E+00;  9.9886396E+03;-0.12465037;0.0;0.12919292;1423.791
  1.2403495E+00;  9.9999998E-03;  8.0038942E-02;2930;0.15985388;0.0;0.0079380414;1002.2571;  4.0115809E-01;1552.8223;3;61.481606;0.0;-0.29134256;0;0.0020128638;  9.9990605E+03;  0.0000000E+00; -9.1658914E-01;  1.0000000E+04;  0.0000000E+00;  9.9882119E+03;-0.13105498;0.0;0.13306785;1737.7783
  1.2403829E+00;  9.9999998E-03;  1.0005458E-01;2931;0.16967282;0.0;0.011605892;1002.2188;  4.0115818E-01;1526.3112;3;65.72197;0.0;-0.12088537;0;0.0095712841;  9.9989883E+03;  0.0000000E+00; -1.5134106E+00;  1.0000000E+04;  0.0000000E+00;  9.9875273E+03;-0.13014212;0.0;0.13971341;2271.9126
  1.2404228E+00;  9.9999998E-03;  1.2007067E-01;2932;0.18149211;0.0;0.014985314;1002.1296;  4.0115815E-01;1464.8522;3;71.649551;0.0;0.18325037;0;0.031742543;  9.9981064E+03;  0.0000000E+00; -2.0870039E+00;  1.0000000E+04;  0.0000000E+00;  9.9866318E+03;-0.11494005;0.0;0.14668259;2855.3552
  1.2404634E+00;  9.9999998E-03;  1.4008549E-01;2933;0.19356439;0.0;0.017624417;1002.0145;  4.0115818E-01;1385.609;3;79.674644;0.0;0.96280313;0;0.063530572;  9.9967051E+03;  0.0000000E+00; -2.2787855E+00;  1.0000000E+04;  0.0000000E+00;  9.9857432E+03;-0.085538186;0.0;0.14906876;3083.5967
  1.2603245E+00;  9.9999998E-03;  9.9776723E-12;2944;0.14340964;0.0;5.6763989e-09;1001.9678;  4.0112120E-01;1297.0142;3;59.087364;0.0;-1.0843796e-05;0;-0.00028844178;  9.9946406E+03;  0.0000000E+00; -2.0357983E-14;  1.0000000E+04;  0.0000000E+00;  9.9886992E+03;-0.11538678;0.0;0.11509834;986.46051
  1.2603278E+00;  9.9999998E-03;  2.0011328E-02;2945;0.14474386;0.0;0.002068318;1001.9655;  4.0112126E-01;1295.5116;3;59.595562;0.0;-1.2017831;0;0.0022071376;  9.9946572E+03;  0.0000000E+00; -5.2368794E-02;  1.0000000E+04;  0.0000000E+00;  9.9886406E+03;-0.11380496;0.0;0.1160121;993.95831
  1.2603378E+00;  9.9999998E-03;  4.0023312E-02;2946;0.14817926;0.0;0.0042608487;1001.9578;  4.0112135E-01;1290.375;3;60.361973;0.0;-1.503271;0;0.0068305507;  9.9946836E+03;  0.0000000E+00; -2.2664787E-01;  1.0000000E+04;  0.0000000E+00;  9.9884541E+03;-0.1120311;0.0;0.11886165;1032.3563
  1.2603550E+00;  9.9999998E-03;  6.0036950E-02;2947;0.15381438;0.0;0.00690322;1001.9371;  4.0112129E-01;1276.6541;3;62.686493;0.0;-1.6615398;0;0.014338575;  9.9946309E+03;  0.0000000E+00; -5.5427521E-01;  1.0000000E+04;  0.0000000E+00;  9.9881006E+03;-0.11001913;0.0;0.12435771;1159.6691
  1.2603780E+00;  9.9999998E-03;  8.0051102E-02;2948;0.16105776;0.0;0.0093500298;1001.9022;  4.0112117E-01;1253.6467;3;66.377731;0.0;-1.6043811;0;0.023550719;  9.9944912E+03;  0.0000000E+00; -1.0084078E+00;  1.0000000E+04;  0.0000000E+00;  9.9875508E+03;-0.10778613;0.0;0.13133685;1427.5857
  1.2604049E+00;  9.9999998E-03;  1.0006449E-01;2949;0.17007253;0.0;0.011651049;1001.8582;  4.0112132E-01;1224.5035;3;72.252708;0.0;-1.0013735;0;0.041220106;  9.9942676E+03;  0.0000000E+00; -1.4169014E+00;  1.0000000E+04;  0.0000000E+00;  9.9868955E+03;-0.096280791;0.0;0.1375009;1730.0985
  1.2604336E+00;  9.9999998E-03;  1.2007573E-01;2950;0.17950472;0.0;0.013247662;1001.8245;  4.0112126E-01;1202.2715;3;79.611298;0.0;-0.2760635;0;0.055977702;  9.9940977E+03;  0.0000000E+00; -1.4521819E+00;  1.0000000E+04;  0.0000000E+00;  9.9863926E+03;-0.081095204;0.0;0.13707291;1787.4783
  1.2604624E+00;  9.9999998E-03;  1.4008652E-01;2951;0.18933596;0.0;0.015450561;1001.7997;  4.0112120E-01;1185.8546;3;88.931053;0.0;1.1993409;0;0.080378905;  9.9939521E+03;  0.0000000E+00; -8.0537164E-01;  1.0000000E+04;  0.0000000E+00;  9.9860459E+03;-0.054222148;0.0;0.13460106;1440.6124
  1.2803499E+00;  9.9999998E-03;  1.6228503E-11;2959;0.14103353;0.0;5.9850769e-09;1001.6247;  4.0109566E-01;1021.3775;3;63.875473;0.0;-1.4026009e-05;0;-0.018784054;  9.9895830E+03;  0.0000000E+00; -1.1989097E-14;  1.0000000E+04;  0.0000000E+00;  9.9881992E+03;-0.12623324;0.0;0.10744918;700.37506
  1.2803519E+00;  9.9999998E-03;  2.0012667E-02;2960;0.14240274;0.0;0.0021689376;1001.6345;  4.0109560E-01;1027.5175;3;64.437378;0.0;-1.683428;0;-0.012999862;  9.9898291E+03;  0.0000000E+00; -3.7091248E-02;  1.0000000E+04;  0.0000000E+00;  9.9881426E+03;-0.12168776;0.0;0.1086879;712.89587
  1.2803580E+00;  9.9999998E-03;  4.0026382E-02;2961;0.14600238;0.0;0.0042761895;1001.6606;  4.0109566E-01;1043.9139;3;66.307022;0.0;-2.343843;0;-0.00092604756;  9.9905508E+03;  0.0000000E+00; -1.5242121E-01;  1.0000000E+04;  0.0000000E+00;  9.9879512E+03;-0.11318891;0.0;0.11226287;757.10004
  1.2803687E+00;  9.9999998E-03;  6.0040906E-02;2962;0.15135001;0.0;0.0059980936;1001.6931;  4.0109563E-01;1064.27;3;69.442345;0.0;-2.5159063;0;0.011718266;  9.9915605E+03;  0.0000000E+00; -3.2947338E-01;  1.0000000E+04;  0.0000000E+00;  9.9875859E+03;-0.1051863;0.0;0.11690456;843.0011
  1.2803836E+00;  9.9999998E-03;  8.0054402E-02;2963;0.1578081;0.0;0.0074151442;1001.7291;  4.0109551E-01;1086.9364;3;73.994888;0.0;-2.225091;0;0.019655548;  9.9927510E+03;  0.0000000E+00; -4.6030080E-01;  1.0000000E+04;  0.0000000E+00;  9.9871123E+03;-0.10026322;0.0;0.11991876;943.76379
  1.2804031E+00;  9.9999998E-03;  1.0006624E-01;2964;0.16560094;0.0;0.0092396783;1001.7476;  4.0109563E-01;1098.4987;3;80.560677;0.0;-1.2878087;0;0.03442426;  9.9935439E+03;  0.0000000E+00; -3.2528618E-01;  1.0000000E+04;  0.0000000E+00;  9.9866885E+03;-0.086953133;0.0;0.12137739;973.73535
  1.2804229E+00;  9.9999998E-03;  1.2007456E-01;2965;0.17326081;0.0;0.010653965;1001.8275;  4.0109563E-01;1148.6473;3;88.577522;0.0;-0.20913661;0;0.032571286;  9.9950762E+03;  0.0000000E+00;  2.8020871E-01;  1.0000000E+04;  0.0000000E+00;  9.9867549E+03;-0.082857959;0.0;0.11542924;1006.3588
  1.3003418E+00;  9.9999998E-03;  1.2580530E-11;2970;0.1366618;0.0;6.5113794e-09;1001.7689;  4.0107825E-01;1057.7435;3;73.163643;0.0;-6.3819753e-06;0;-0.061441936;  9.9938057E+03;  0.0000000E+00; -2.6513915E-14;  1.0000000E+04;  0.0000000E+00;  9.9877129E+03;-0.16304113;0.0;0.10159919;702.90454
  1.3003435E+00;  9.9999998E-03;  2.0012427E-02;2971;0.13773745;0.0;0.00078484527;1001.7816;  4.0107816E-01;1065.3665;3;73.202065;0.0;-2.1696095;0;-0.05652751;  9.9940918E+03;  0.0000000E+00;  7.1756174E-03;  1.0000000E+04;  0.0000000E+00;  9.9876797E+03;-0.15842164;0.0;0.10189413;714.17206
  1.3003489E+00;  9.9999998E-03;  4.0026106E-02;2972;0.14109111;0.0;0.0020339815;1001.8137;  4.0107828E-01;1084.599;3;74.449982;0.0;-3.2083366;0;-0.042813182;  9.9948789E+03;  0.0000000E+00;  4.7418568E-02;  1.0000000E+04;  0.0000000E+00;  9.9875391E+03;-0.14561428;0.0;0.1028011;748.5528
  1.3003579E+00;  9.9999998E-03;  6.0040645E-02;2973;0.14598793;0.0;0.0034323034;1001.851;  4.0107813E-01;1106.8146;3;77.574303;0.0;-3.2027924;0;-0.029980026;  9.9959316E+03;  0.0000000E+00;  1.8377554E-01;  1.0000000E+04;  0.0000000E+00;  9.9872285E+03;-0.13333699;0.0;0.10335696;809.52441
  1.3003703E+00;  9.9999998E-03;  8.0054216E-02;2974;0.15165225;0.0;0.0051200455;1001.8903;  4.0107805E-01;1130.3025;3;82.258926;0.0;-2.5782201;0;-0.024677105;  9.9971475E+03;  0.0000000E+00;  5.1819515E-01;  1.0000000E+04;  0.0000000E+00;  9.9867949E+03;-0.12793066;0.0;0.10325355;917.96027
 -3.4046843E-06;  9.9999998E-03;  1.6000028E-01;1053;-0.0024789933;0.0;0.00021216302;1000.0724;  4.0000001E-01;59.948914;3;-1.7693281;0.0;0.16164953;0;-0.047649212;  1.0001506E+04;  0.0000000E+00; -4.6911177E-09;  1.0000000E+04;  0.0000000E+00;  9.9999453E+03;-0.04948765;0.0;0.0018384389;31.078573
 -3.3135479E-06;  9.9999998E-03;  1.8000036E-01;1054;-0.0024124081;0.0;0.00027306136;1000.0701;  4.0000001E-01;58.072422;3;-1.7204852;0.0;0.20396984;0;-0.046164334;  1.0001458E+04;  0.0000000E+00; -5.7311049E-09;  1.0000000E+04;  0.0000000E+00;  9.9999414E+03;-0.04805059;0.0;0.0018862548;31.72979
 -3.1737056E-06;  9.9999998E-03;  2.0000046E-01;1055;-0.0023095834;0.0;0.00033831928;1000.067;  4.0000001E-01;55.504593;3;-1.6490712;0.0;0.24922949;0;-0.044116281;  1.0001393E+04;  0.0000000E+00;  8.0436582E-09;  1.0000000E+04;  0.0000000E+00;  9.9999492E+03;-0.04581394;0.0;0.001697661;29.031839
 -2.9711141E-06;  9.9999998E-03;  2.2000055E-01;1056;-0.0021601566;0.0;0.00040697487;1000.063;  4.0000001E-01;52.146664;3;-1.5519114;0.0;0.29842097;0;-0.041382026;  1.0001296E+04;  0.0000000E+00;  1.8720606E-08;  1.0000000E+04;  0.0000000E+00;  9.9999639E+03;-0.042551361;0.0;0.0011693352;21.489761
 -2.6968603E-06;  9.9999998E-03;  2.4000065E-01;1057;-0.0019571297;0.0;0.00047033688;1000.0576;  4.0000001E-01;47.702347;3;-1.4270439;0.0;0.34835362;0;-0.037820064;  1.0001161E+04;  0.0000000E+00; -5.2364837E-09;  1.0000000E+04;  0.0000000E+00;  9.9999922E+03;-0.038090605;0.0;0.00027054222;8.6202793
 -2.3446805E-06;  9.9999998E-03;  2.6000071E-01;1058;-0.0016976771;0.0;0.000519116;1000.0507;  4.0000001E-01;41.974113;3;-1.2724895;0.0;0.39368451;0;-0.03331989;  1.0000991E+04;  0.0000000E+00; -1.1038289E-07;  1.0000000E+04;  0.0000000E+00;  1.0000025E+04;-0.032422382;0.0;-0.00089750922;8.1878319
 -1.9276167E-06;  9.9999998E-03;  2.8000075E-01;1059;-0.0013914353;0.0;0.00053831632;1000.0425;  4.0000001E-01;35.258255;3;-1.0860436;0.0;0.42485583;0;-0.02787729;  1.0000788E+04;  0.0000000E+00; -3.0930195E-07;  1.0000000E+04;  0.0000000E+00;  1.0000063E+04;-0.025820591;0.0;-0.0020566983;25.056528
  1.9995136E-02;  9.9999998E-03;  1.6000038E-01;1083;-0.0035123064;0.0;0.00028493814;1000.0863;  4.0000001E-01;71.504143;3;-2.2494912;0.0;0.19748461;0;-0.055989955;  1.0001803E+04;  0.0000000E+00;  1.8575754E-08;  1.0000000E+04;  0.0000000E+00;  9.9999258E+03;-0.058398876;0.0;0.0024089213;40.738026
  1.9995254E-02;  9.9999998E-03;  1.8000050E-01;1084;-0.0034270647;0.0;0.00036324904;1000.0837;  4.0000001E-01;69.33136;3;-2.1925321;0.0;0.24584153;0;-0.054400899;  1.0001755E+04;  0.0000000E+00;  4.2739607E-08;  1.0000000E+04;  0.0000000E+00;  9.9999238E+03;-0.056875624;0.0;0.0024747271;41.745823
  1.9995444E-02;  9.9999998E-03;  2.0000061E-01;1085;-0.003287758;0.0;0.0004491226;1000.0804;  4.0000001E-01;66.664772;3;-2.1064782;0.0;0.29895252;0;-0.052186809;  1.0001682E+04;  0.0000000E+00;  8.8920643E-08;  1.0000000E+04;  0.0000000E+00;  9.9999297E+03;-0.054427475;0.0;0.0022406634;38.425602
  1.9995729E-02;  9.9999998E-03;  2.2000074E-01;1086;-0.0030792626;0.0;0.00053370674;1000.0759;  4.0000001E-01;62.911793;3;-1.9892049;0.0;0.352934;0;-0.049195118;  1.0001569E+04;  0.0000000E+00;  1.5150822E-07;  1.0000000E+04;  0.0000000E+00;  9.9999492E+03;-0.050768733;0.0;0.0015736131;28.798559
  1.9996127E-02;  9.9999998E-03;  2.4000084E-01;1087;-0.0027869234;0.0;0.00060473423;1000.0698;  4.0000001E-01;57.776134;3;-1.8372512;0.0;0.40474677;0;-0.045241691;  1.0001412E+04;  0.0000000E+00;  1.7356726E-07;  1.0000000E+04;  0.0000000E+00;  9.9999854E+03;-0.045670807;0.0;0.00042911479;12.151688
  1.9996654E-02;  9.9999998E-03;  2.6000091E-01;1088;-0.0024000863;0.0;0.00065007224;1000.0621;  4.0000001E-01;51.455326;3;-1.642633;0.0;0.4483943;0;-0.040174294;  1.0001211E+04;  0.0000000E+00;  8.2208111E-08;  1.0000000E+04;  0.0000000E+00;  1.0000031E+04;-0.039098524;0.0;-0.0010757715;9.8739796
  1.9997310E-02;  9.9999998E-03;  2.8000093E-01;1089;-0.0019220962;0.0;0.00065506279;1000.0527;  4.0000001E-01;43.65308;3;-1.3885188;0.0;0.4762938;0;-0.033965286;  1.0000973E+04;  0.0000000E+00; -1.3893295E-07;  1.0000000E+04;  0.0000000E+00;  1.0000078E+04;-0.031359322;0.0;-0.002605964;32.488811
  1.9998077E-02;  9.9999998E-03;  3.0000100E-01;1090;-0.0013644868;0.0;0.00070447847;1000.0415;  4.0000001E-01;34.369392;3;-1.0509584;0.0;0.55090189;0;-0.026807198;  1.0000718E+04;  0.0000000E+00; -3.9745586E-07;  1.0000000E+04;  0.0000000E+00;  1.0000114E+04;-0.02317317;0.0;-0.0036340286;48.254856
  3.9993260E-02;  9.9999998E-03;  1.6000046E-01;1114;-0.004827132;0.0;0.00033088255;1000.0988;  4.0000001E-01;81.874214;3;-2.8197103;0.0;0.21167512;0;-0.063004866;  1.0002070E+04;  0.0000000E+00;  3.7367549E-08;  1.0000000E+04;  0.0000000E+00;  9.9999092E+03;-0.065876432;0.0;0.0028715665;49.366211
  3.9993405E-02;  9.9999998E-03;  1.8000059E-01;1115;-0.0047215857;0.0;0.00041745606;1000.0964;  4.0000001E-01;79.898964;3;-2.7537298;0.0;0.2590085;0;-0.061441075;  1.0002026E+04;  0.0000000E+00;  7.5710190E-08;  1.0000000E+04;  0.0000000E+00;  9.9999063E+03;-0.064398058;0.0;0.0029569825;50.819748
  3.9993655E-02;  9.9999998E-03;  2.0000072E-01;1116;-0.0045417096;0.0;0.00051021733;1000.093;  4.0000001E-01;77.034843;3;-2.6526675;0.0;0.30920112;0;-0.05920323;  1.0001947E+04;  0.0000000E+00;  1.3099425E-07;  1.0000000E+04;  0.0000000E+00;  9.9999131E+03;-0.061901845;0.0;0.0026986147;47.167267
  3.9994039E-02;  9.9999998E-03;  2.2000085E-01;1117;-0.0042625037;0.0;0.0006013168;1000.0882;  4.0000001E-01;73.084343;3;-2.5136523;0.0;0.36073542;0;-0.056099914;  1.0001830E+04;  0.0000000E+00;  1.9594020E-07;  1.0000000E+04;  0.0000000E+00;  9.9999375E+03;-0.0580355;0.0;0.0019355853;35.935234
  3.9994583E-02;  9.9999998E-03;  2.4000096E-01;1118;-0.0038638634;0.0;0.00067181385;1000.0817;  4.0000001E-01;67.75116;3;-2.3355522;0.0;0.40748501;0;-0.051890403;  1.0001655E+04;  0.0000000E+00;  2.0925734E-07;  1.0000000E+04;  0.0000000E+00;  9.9999785E+03;-0.052496035;0.0;0.00060563127;16.105463
  3.9995324E-02;  9.9999998E-03;  2.6000103E-01;1119;-0.0033271047;0.0;0.0007203407;1000.0731;  4.0000001E-01;60.541489;3;-2.104845;0.0;0.45299959;0;-0.046363138;  1.0001427E+04;  0.0000000E+00;  9.2552007E-08;  1.0000000E+04;  0.0000000E+00;  1.0000034E+04;-0.045193523;0.0;-0.0011696132;10.564842
  3.9996237E-02;  9.9999998E-03;  2.8000107E-01;1120;-0.002666059;0.0;0.00073571596;1000.0623;  4.0000001E-01;51.554089;3;-1.8025541;0.0;0.49390006;0;-0.039455239;  1.0001151E+04;  0.0000000E+00; -1.6162471E-07;  1.0000000E+04;  0.0000000E+00;  1.0000094E+04;-0.03643506;0.0;-0.0030201776;38.598221
  3.9997302E-02;  9.9999998E-03;  3.0000111E-01;1121;-0.0018975122;0.0;0.00076944754;1000.0497;  4.0000001E-01;41.184013;3;-1.3882728;0.0;0.56561017;0;-0.031405684;  1.0000856E+04;  0.0000000E+00; -3.9724253E-07;  1.0000000E+04;  0.0000000E+00;  1.0000140E+04;-0.027043547;0.0;-0.0043621371;59.473114
  5.9991084E-02;  9.9999998E-03;  1.6000050E-01;1145;-0.0063183927;0.0;0.00035146301;1000.112;  4.0000001E-01;92.836868;3;-3.4467196;0.0;0.21223038;0;-0.069785543;  1.0002349E+04;  0.0000000E+00;  4.2746318E-08;  1.0000000E+04;  0.0000000E+00;  9.9998955E+03;-0.072965935;0.0;0.0031803953;56.545662
  5.9991255E-02;  9.9999998E-03;  1.8000063E-01;1146;-0.006195006;0.0;0.0004408462;1000.1097;  4.0000001E-01;90.960373;3;-3.3719878;0.0;0.25586161;0;-0.068342589;  1.0002305E+04;  0.0000000E+00;  6.4110907E-08;  1.0000000E+04;  0.0000000E+00;  9.9998916E+03;-0.071629718;0.0;0.0032871319;58.538879
  5.9991561E-02;  9.9999998E-03;  2.0000078E-01;1147;-0.0059756357;0.0;0.0005376534;1000.1063;  4.0000001E-01;88.09626;3;-3.2557402;0.0;0.30239794;0;-0.066168882;  1.0002230E+04;  0.0000000E+00;  7.9929158E-08;  1.0000000E+04;  0.0000000E+00;  9.9998975E+03;-0.069201291;0.0;0.0030324105;54.930962
  5.9992041E-02;  9.9999998E-03;  2.2000092E-01;1148;-0.0056262789;0.0;0.00063145906;1000.1014;  4.0000001E-01;83.948227;3;-3.0968549;0.0;0.34940171;0;-0.063023157;  1.0002105E+04;  0.0000000E+00;  5.3006040E-08;  1.0000000E+04;  0.0000000E+00;  9.9999238E+03;-0.065252125;0.0;0.002228966;42.729851
  5.9992749E-02;  9.9999998E-03;  2.4000104E-01;1149;-0.0051173596;0.0;0.00070373435;1000.0944;  4.0000001E-01;78.220001;3;-2.8946557;0.0;0.39253271;0;-0.058594931;  1.0001916E+04;  0.0000000E+00; -7.0789902E-08;  1.0000000E+04;  0.0000000E+00;  9.9999717E+03;-0.059384845;0.0;0.00078991253;20.495949
  5.9993707E-02;  9.9999998E-03;  2.6000112E-01;1150;-0.0044272994;0.0;0.00075131864;1000.0848;  4.0000001E-01;70.318985;3;-2.6379869;0.0;0.43431497;0;-0.052601993;  1.0001659E+04;  0.0000000E+00; -3.3706954E-07;  1.0000000E+04;  0.0000000E+00;  1.0000035E+04;-0.051428784;0.0;-0.0011732082;10.079271
  5.9994906E-02;  9.9999998E-03;  2.8000116E-01;1151;-0.0035695382;0.0;0.00076544535;1000.0728;  4.0000001E-01;60.245201;3;-2.2951913;0.0;0.4758842;0;-0.04495208;  1.0001346E+04;  0.0000000E+00; -2.8280301E-06;  1.0000000E+04;  0.0000000E+00;  1.0000104E+04;-0.041678198;0.0;-0.0032738838;43.001068
  5.9996333E-02;  9.9999998E-03;  3.0000120E-01;1152;-0.0025545424;0.0;0.00081009557;1000.0582;  4.0000001E-01;48.196159;3;-1.7981625;0.0;0.56128454;0;-0.035939217;  1.0001004E+04;  0.0000000E+00; -9.2059618E-06;  1.0000000E+04;  0.0000000E+00;  1.0000160E+04;-0.031067278;0.0;-0.0048719374;68.54081
  7.9988644E-02;  9.9999998E-03;  1.6000052E-01;1176;-0.007943809;0.0;0.00035141333;1000.1271;  4.0000001E-01;105.28096;3;-4.1402197;0.0;0.20435518;0;-0.077315979;  1.0002656E+04;  0.0000000E+00;  2.9090932E-08;  1.0000000E+04;  0.0000000E+00;  9.9998867E+03;-0.080656447;0.0;0.0033404704;62.510967
  7.9988830E-02;  9.9999998E-03;  1.8000066E-01;1177;-0.0078079584;0.0;0.00044119556;1000.1251;  4.0000001E-01;103.70075;3;-4.0576644;0.0;0.24449612;0;-0.076063477;  1.0002623E+04;  0.0000000E+00;  1.4298054E-08;  1.0000000E+04;  0.0000000E+00;  9.9998779E+03;-0.079530314;0.0;0.0034668376;65.099983
  7.9989187E-02;  9.9999998E-03;  2.0000081E-01;1178;-0.007555889;0.0;0.00053765904;1000.1217;  4.0000001E-01;100.83664;3;-3.9278526;0.0;0.28597134;0;-0.074006535;  1.0002549E+04;  0.0000000E+00; -8.7026827E-08;  1.0000000E+04;  0.0000000E+00;  9.9998877E+03;-0.07724604;0.0;0.0032395055;61.864052
  7.9989761E-02;  9.9999998E-03;  2.2000097E-01;1179;-0.0071427873;0.0;0.00063184201;1000.1169;  4.0000001E-01;96.787369;3;-3.7504432;0.0;0.32770425;0;-0.070841745;  1.0002423E+04;  0.0000000E+00; -3.5562886E-07;  1.0000000E+04;  0.0000000E+00;  9.9999131E+03;-0.073288411;0.0;0.002446665;49.27103
  7.9990625E-02;  9.9999998E-03;  2.4000108E-01;1180;-0.0065291165;0.0;0.00070300419;1000.1092;  4.0000001E-01;90.46656;3;-3.5296793;0.0;0.36321843;0;-0.066178739;  1.0002222E+04;  0.0000000E+00; -1.9648474E-05;  1.0000000E+04;  0.0000000E+00;  9.9999639E+03;-0.067150183;0.0;0.00097144698;25.357719
  7.9991810E-02;  9.9999998E-03;  2.6000118E-01;1181;-0.0056846645;0.0;0.00075090956;1000.0986;  4.0000001E-01;81.676689;3;-3.2485211;0.0;0.40221071;0;-0.059684005;  1.0001938E+04;  0.0000000E+00; -1.7742158E-04;  1.0000000E+04;  0.0000000E+00;  1.0000033E+04;-0.058585942;0.0;-0.0010980624;8.4683104
  7.9993330E-02;  9.9999998E-03;  2.8000122E-01;1182;-0.0046171336;0.0;0.00076972478;1000.0851;  4.0000001E-01;70.51651;3;-2.8653641;0.0;0.44553995;0;-0.05124148;  1.0001589E+04;  0.0000000E+00; -5.1178865E-04;  1.0000000E+04;  0.0000000E+00;  1.0000113E+04;-0.047864892;0.0;-0.0033765878;45.78849
  7.9995163E-02;  9.9999998E-03;  3.0000132E-01;1183;-0.003327159;0.0;0.00084772159;1000.0685;  4.0000001E-01;56.788509;3;-2.2786598;0.0;0.55698586;0;-0.041164093;  1.0001191E+04;  0.0000000E+00; -9.1430504E-04;  1.0000000E+04;  0.0000000E+00;  1.0000177E+04;-0.035988454;0.0;-0.0051756371;75.71788
  9.9985912E-02;  9.9999998E-03;  1.6000052E-01;1207;-0.0097110579;0.0;0.00033963248;1000.1454;  4.0000001E-01;120.4904;3;-4.9135199;0.0;0.19325778;0;-0.086262882;  1.0003032E+04;  0.0000000E+00;  8.5247347E-09;  1.0000000E+04;  0.0000000E+00;  9.9998789E+03;-0.089662619;0.0;0.0033997344;68.050964
  9.9986099E-02;  9.9999998E-03;  1.8000066E-01;1208;-0.0095699057;0.0;0.00042724123;1000.1437;  4.0000001E-01;119.10773;3;-4.8251519;0.0;0.22885194;0;-0.085265212;  1.0003008E+04;  0.0000000E+00; -7.7514656E-08;  1.0000000E+04;  0.0000000E+00;  9.9998711E+03;-0.088800013;0.0;0.003534799;71.191093
  9.9986486E-02;  9.9999998E-03;  2.0000082E-01;1209;-0.0092939967;0.0;0.00051873235;1000.1407;  4.0000001E-01;116.53989;3;-4.6845713;0.0;0.26344094;0;-0.083376132;  1.0002941E+04;  0.0000000E+00; -3.8557943E-07;  1.0000000E+04;  0.0000000E+00;  9.9998770E+03;-0.086719498;0.0;0.0033433666;68.479492
  9.9987149E-02;  9.9999998E-03;  2.2000098E-01;1210;-0.0088257622;0.0;0.00060984405;1000.1357;  4.0000001E-01;112.39187;3;-4.491807;0.0;0.29780871;0;-0.080233477;  1.0002809E+04;  0.0000000E+00; -7.2831535E-05;  1.0000000E+04;  0.0000000E+00;  9.9999033E+03;-0.082829103;0.0;0.0025956247;55.886566
  9.9988163E-02;  9.9999998E-03;  2.4000111E-01;1211;-0.0081154648;0.0;0.00067602668;1000.1277;  4.0000001E-01;105.77477;3;-4.2547269;0.0;0.32516718;0;-0.075437717;  1.0002602E+04;  0.0000000E+00; -6.5509166E-04;  1.0000000E+04;  0.0000000E+00;  9.9999551E+03;-0.076579951;0.0;0.0011422316;31.041121
  9.9989593E-02;  9.9999998E-03;  2.6000121E-01;1212;-0.0071179261;0.0;0.00072604656;1000.1166;  4.0000001E-01;96.589844;3;-3.9528821;0.0;0.36034703;0;-0.068631418;  1.0002301E+04;  0.0000000E+00; -2.3878950E-03;  1.0000000E+04;  0.0000000E+00;  1.0000031E+04;-0.067661561;0.0;-0.00096985442;13.58242
  9.9991448E-02;  9.9999998E-03;  2.8000128E-01;1213;-0.0058311475;0.0;0.0007598513;1000.1016;  4.0000001E-01;84.145752;3;-3.5301766;0.0;0.40969515;0;-0.059600055;  1.0001908E+04;  0.0000000E+00; -5.1910467E-03;  1.0000000E+04;  0.0000000E+00;  1.0000119E+04;-0.056222182;0.0;-0.003377873;54.244904
  9.9993750E-02;  9.9999998E-03;  3.0000144E-01;1214;-0.0042365906;0.0;0.00089630374;1000.0826;  4.0000001E-01;68.442497;3;-2.8443408;0.0;0.5619359;0;-0.04850686;  1.0001464E+04;  0.0000000E+00; -8.2094138E-03;  1.0000000E+04;  0.0000000E+00;  1.0000190E+04;-0.043165453;0.0;-0.0053414055;91.695541
  1.1998279E-01;  9.9999998E-03;  1.6000053E-01;1238;-0.011661459;0.0;0.00032994669;1000.1677;  4.0000001E-01;138.86024;3;-5.7732964;0.0;0.1849851;0;-0.096907333;  1.0003485E+04;  0.0000000E+00; -2.2374918E-08;  1.0000000E+04;  0.0000000E+00;  9.9998662E+03;-0.10034555;0.0;0.0034382185;74.408661
  1.1998298E-01;  9.9999998E-03;  1.8000068E-01;1239;-0.011523421;0.0;0.00041209138;1000.1666;  4.0000001E-01;137.97139;3;-5.6815643;0.0;0.21447679;0;-0.096238203;  1.0003470E+04;  0.0000000E+00; -2.1418353E-07;  1.0000000E+04;  0.0000000E+00;  9.9998613E+03;-0.099800222;0.0;0.0035620194;77.993195
  1.1998339E-01;  9.9999998E-03;  2.0000082E-01;1240;-0.011232393;0.0;0.00049409264;1000.1639;  4.0000001E-01;135.79861;3;-5.5332303;0.0;0.24006398;0;-0.094609529;  1.0003410E+04;  0.0000000E+00; -5.7397327E-05;  1.0000000E+04;  0.0000000E+00;  9.9998643E+03;-0.098012231;0.0;0.0034027016;75.8815
  1.1998413E-01;  9.9999998E-03;  2.2000100E-01;1241;-0.010717928;0.0;0.00057703949;1000.1588;  4.0000001E-01;131.55182;3;-5.3294692;0.0;0.26437515;0;-0.091702349;  1.0003290E+04;  0.0000000E+00; -8.2493381E-04;  1.0000000E+04;  0.0000000E+00;  9.9998896E+03;-0.094424434;0.0;0.0027220841;63.777454
  1.1998528E-01;  9.9999998E-03;  2.4000111E-01;1242;-0.0099173123;0.0;0.00063643639;1000.1514;  4.0000001E-01;125.42854;3;-5.0777717;0.0;0.28596115;0;-0.087214306;  1.0003083E+04;  0.0000000E+00; -4.1616326E-03;  1.0000000E+04;  0.0000000E+00;  9.9999443E+03;-0.0885377;0.0;0.001323392;43.547474
  1.1998696E-01;  9.9999998E-03;  2.6000124E-01;1243;-0.0087677957;0.0;0.00069203181;1000.1407;  4.0000001E-01;116.63866;3;-4.7642317;0.0;0.31561613;0;-0.080770425;  1.0002783E+04;  0.0000000E+00; -1.2029581E-02;  1.0000000E+04;  0.0000000E+00;  1.0000025E+04;-0.079958074;0.0;-0.00081235194;62.371441
  1.1998918E-01;  9.9999998E-03;  2.8000134E-01;1244;-0.0072535546;0.0;0.00075519754;1000.1252;  4.0000001E-01;103.70075;3;-4.3074899;0.0;0.379179;0;-0.07190825;  1.0002383E+04;  0.0000000E+00; -2.3981379E-02;  1.0000000E+04;  0.0000000E+00;  1.0000122E+04;-0.068553321;0.0;-0.0033549257;133.12599
  1.1999203E-01;  9.9999998E-03;  3.0000165E-01;1245;-0.0053214561;0.0;0.000979234;1000.105;  4.0000001E-01;87.009872;3;-3.5146608;0.0;0.59300518;0;-0.06013836;  1.0001896E+04;  0.0000000E+00; -3.5073042E-02;  1.0000000E+04;  0.0000000E+00;  1.0000204E+04;-0.054669987;0.0;-0.0054683709;201.27634
  1.3997921E-01;  9.9999998E-03;  1.6000056E-01;1269;-0.013847425;0.0;0.00033870744;1000.1938;  4.0000001E-01;160.58803;3;-6.7211404;0.0;0.18747428;0;-0.10921241;  1.0004025E+04;  0.0000000E+00; -4.4011877E-08;  1.0000000E+04;  0.0000000E+00;  9.9998525E+03;-0.11277968;0.0;0.0035672749;83.350075
  1.3997938E-01;  9.9999998E-03;  1.8000071E-01;1270;-0.01372151;0.0;0.00041349372;1000.1935;  4.0000001E-01;160.3905;3;-6.6286306;0.0;0.20933808;0;-0.10894891;  1.0004025E+04;  0.0000000E+00; -9.7479606E-06;  1.0000000E+04;  0.0000000E+00;  9.9998457E+03;-0.1126164;0.0;0.003667488;87.510513
  1.3997979E-01;  9.9999998E-03;  2.0000087E-01;1271;-0.013424126;0.0;0.00048436408;1000.1913;  4.0000001E-01;158.51401;3;-6.4755778;0.0;0.22490516;0;-0.10776962;  1.0003980E+04;  0.0000000E+00; -4.4041834E-04;  1.0000000E+04;  0.0000000E+00;  9.9998477E+03;-0.11131672;0.0;0.0035470964;86.460449
  1.3998058E-01;  9.9999998E-03;  2.2000103E-01;1272;-0.012870832;0.0;0.00055748428;1000.1876;  4.0000001E-01;155.35361;3;-6.2638474;0.0;0.24071378;0;-0.10554975;  1.0003879E+04;  0.0000000E+00; -3.5326709E-03;  1.0000000E+04;  0.0000000E+00;  9.9998721E+03;-0.10849686;0.0;0.0029471091;77.225716
  1.3998188E-01;  9.9999998E-03;  2.4000114E-01;1273;-0.011986432;0.0;0.00060571183;1000.1818;  4.0000001E-01;150.61301;3;-6.0113974;0.0;0.2484138;0;-0.10222835;  1.0003709E+04;  0.0000000E+00; -1.4342478E-02;  1.0000000E+04;  0.0000000E+00;  9.9999277E+03;-0.10381825;0.0;0.0015899009;88.783325
  1.3998382E-01;  9.9999998E-03;  2.6000130E-01;1274;-0.010679918;0.0;0.00067939656;1000.1734;  4.0000001E-01;143.69962;3;-5.6878214;0.0;0.28482246;0;-0.097473823;  1.0003453E+04;  0.0000000E+00; -3.7998244E-02;  1.0000000E+04;  0.0000000E+00;  1.0000019E+04;-0.096843526;0.0;-0.0006302991;197.35962
  1.3998643E-01;  9.9999998E-03;  2.8000149E-01;1275;-0.0089345938;0.0;0.00078368449;1000.1608;  4.0000001E-01;133.23077;3;-5.2105079;0.0;0.37189865;0;-0.09035597;  1.0003088E+04;  0.0000000E+00; -7.2923906E-02;  1.0000000E+04;  0.0000000E+00;  1.0000130E+04;-0.086954802;0.0;-0.0034011698;381.56537
  1.3998987E-01;  9.9999998E-03;  3.0000195E-01;1276;-0.006636302;0.0;0.0011240242;1000.1405;  4.0000001E-01;116.44113;3;-4.3120155;0.0;0.67086887;0;-0.078874692;  1.0002589E+04;  0.0000000E+00; -1.0386973E-01;  1.0000000E+04;  0.0000000E+00;  1.0000224E+04;-0.073217042;0.0;-0.0056576543;546.87366
  1.5997505E-01;  9.9999998E-03;  1.6000065E-01;1300;-0.016312214;0.0;0.00038780394;1000.2243;  4.0000001E-01;185.87126;3;-7.7576165;0.0;0.21203655;0;-0.12299811;  1.0004653E+04;  0.0000000E+00; -5.9588732E-08;  1.0000000E+04;  0.0000000E+00;  9.9998291E+03;-0.12694332;0.0;0.0039452058;97.478325
  1.5997517E-01;  9.9999998E-03;  1.8000081E-01;1301;-0.016207766;0.0;0.00045667271;1000.2243;  4.0000001E-01;185.87126;3;-7.6663837;0.0;0.22682327;0;-0.12321819;  1.0004669E+04;  0.0000000E+00; -8.2904415E-05;  1.0000000E+04;  0.0000000E+00;  9.9998184E+03;-0.12726137;0.0;0.0040431814;103.07108
  1.5997559E-01;  9.9999998E-03;  2.0000097E-01;1302;-0.015913181;0.0;0.0005204858;1000.2236;  4.0000001E-01;185.27869;3;-7.5118322;0.0;0.23329681;0;-0.12272559;  1.0004654E+04;  0.0000000E+00; -1.4900023E-03;  1.0000000E+04;  0.0000000E+00;  9.9998145E+03;-0.1267239;0.0;0.0039983098;104.51006
  1.5997644E-01;  9.9999998E-03;  2.2000113E-01;1303;-0.015330362;0.0;0.00058318989;1000.2217;  4.0000001E-01;183.69849;3;-7.2999592;0.0;0.23756045;0;-0.12176383;  1.0004600E+04;  0.0000000E+00; -9.3392367E-03;  1.0000000E+04;  0.0000000E+00;  9.9998350E+03;-0.1252514;0.0;0.0034875623;106.18954
  1.5997787E-01;  9.9999998E-03;  2.4000126E-01;1304;-0.014361783;0.0;0.00062631193;1000.2198;  4.0000001E-01;182.11829;3;-7.0468712;0.0;0.23981166;0;-0.1207163;  1.0004497E+04;  0.0000000E+00; -3.4332588E-02;  1.0000000E+04;  0.0000000E+00;  9.9998965E+03;-0.12281668;0.0;0.0021003797;190.45955
  1.5998006E-01;  9.9999998E-03;  2.6000145E-01;1305;-0.012898627;0.0;0.00071724429;1000.2171;  4.0000001E-01;179.84674;3;-6.7209949;0.0;0.2892642;0;-0.11947917;  1.0004344E+04;  0.0000000E+00; -8.8012047E-02;  1.0000000E+04;  0.0000000E+00;  1.0000001E+04;-0.11910412;0.0;-0.00037504407;458.11118
  1.5998307E-01;  9.9999998E-03;  2.8000170E-01;1306;-0.010925696;0.0;0.00085787784;1000.2115;  4.0000001E-01;175.30367;3;-6.2523961;0.0;0.39252758;0;-0.11658141;  1.0004089E+04;  0.0000000E+00; -1.6793567E-01;  1.0000000E+04;  0.0000000E+00;  1.0000137E+04;-0.11297767;0.0;-0.0036037404;874.76166
  1.5998712E-01;  9.9999998E-03;  3.0000231E-01;1307;-0.0082742758;0.0;0.0012967631;1000.1946;  4.0000001E-01;161.1806;3;-5.2901564;0.0;0.7624197;0;-0.10752091;  1.0003647E+04;  0.0000000E+00; -2.4110036E-01;  1.0000000E+04;  0.0000000E+00;  1.0000247E+04;-0.10146988;0.0;-0.00605103;1257.5677
  1.7997025E-01;  9.9999998E-03;  1.6000085E-01;1331;-0.019085733;0.0;0.00050467992;1000.2586;  4.0000001E-01;214.21613;3;-8.8833323;0.0;0.27254567;0;-0.13813864;  1.0005383E+04;  0.0000000E+00; -8.0884473E-07;  1.0000000E+04;  0.0000000E+00;  9.9997871E+03;-0.14292531;0.0;0.0047866753;120.45469
  1.7997031E-01;  9.9999998E-03;  1.8000102E-01;1332;-0.019011883;0.0;0.00057586021;1000.2597;  4.0000001E-01;215.20375;3;-8.7948008;0.0;0.28440046;0;-0.13887718;  1.0005426E+04;  0.0000000E+00; -2.4678657E-04;  1.0000000E+04;  0.0000000E+00;  9.9997686E+03;-0.14383367;0.0;0.0049564843;129.45299
  1.7997068E-01;  9.9999998E-03;  2.0000118E-01;1333;-0.018732022;0.0;0.00063714979;1000.2602;  4.0000001E-01;215.5988;3;-8.6422338;0.0;0.28385967;0;-0.13923097;  1.0005445E+04;  0.0000000E+00; -3.1839742E-03;  1.0000000E+04;  0.0000000E+00;  9.9997578E+03;-0.14429466;0.0;0.0050636972;136.06882
  1.7997156E-01;  9.9999998E-03;  2.2000135E-01;1334;-0.018130958;0.0;0.00068997603;1000.2612;  4.0000001E-01;216.38892;3;-8.4331446;0.0;0.28009903;0;-0.13993199;  1.0005453E+04;  0.0000000E+00; -1.7734285E-02;  1.0000000E+04;  0.0000000E+00;  9.9997725E+03;-0.14459759;0.0;0.004665602;158.14384
  1.7997313E-01;  9.9999998E-03;  2.4000150E-01;1335;-0.017078834;0.0;0.0007280233;1000.2643;  4.0000001E-01;218.95674;3;-8.1889582;0.0;0.2709167;0;-0.14201747;  1.0005451E+04;  0.0000000E+00; -6.2362406E-02;  1.0000000E+04;  0.0000000E+00;  9.9998350E+03;-0.14515974;0.0;0.0031422647;339.37494
  1.7997557E-01;  9.9999998E-03;  2.6000169E-01;1336;-0.015476331;0.0;0.00080400653;1000.2707;  4.0000001E-01;224.28992;3;-7.8894334;0.0;0.31281424;0;-0.14594936;  1.0005447E+04;  0.0000000E+00; -1.5884754E-01;  1.0000000E+04;  0.0000000E+00;  9.9999688E+03;-0.14604416;0.0;9.4798161e-05;828.77246
  1.7997897E-01;  9.9999998E-03;  2.8000194E-01;1337;-0.013295417;0.0;0.00094550697;1000.2767;  4.0000001E-01;229.22804;3;-7.4615817;0.0;0.4130888;0;-0.15002266;  1.0005389E+04;  0.0000000E+00; -3.0708724E-01;  1.0000000E+04;  0.0000000E+00;  1.0000147E+04;-0.1459301;0.0;-0.0040925667;1601.4275
  1.7998350E-01;  9.9999998E-03;  3.0000255E-01;1338;-0.010407796;0.0;0.0013372723;1000.2703;  4.0000001E-01;223.89487;3;-6.563446;0.0;0.7377367;0;-0.14714646;  1.0005106E+04;  0.0000000E+00; -4.5044836E-01;  1.0000000E+04;  0.0000000E+00;  1.0000300E+04;-0.13984029;0.0;-0.0073061706;2350.4309
  1.9996469E-01;  9.9999998E-03;  1.6000116E-01;1362;-0.022197491;0.0;0.00071581255;1000.2973;  4.0000001E-01;246.31398;3;-10.098961;0.0;0.38275537;0;-0.15452801;  1.0006230E+04;  0.0000000E+00; -3.3208191E-06;  1.0000000E+04;  0.0000000E+00;  9.9997168E+03;-0.16086623;0.0;0.006338221;156.67337
  1.9996467E-01;  9.9999998E-03;  1.8000138E-01;1363;-0.022162445;0.0;0.00080170808;1000.2993;  4.0000001E-01;247.99295;3;-10.013887;0.0;0.39560598;0;-0.15572438;  1.0006303E+04;  0.0000000E+00; -4.2924564E-04;  1.0000000E+04;  0.0000000E+00;  9.9996855E+03;-0.16243415;0.0;0.0067097661;172.25763
  1.9996499E-01;  9.9999998E-03;  2.0000157E-01;1364;-0.021909362;0.0;0.00086740794;1000.301;  4.0000001E-01;249.37563;3;-9.8652601;0.0;0.39243063;0;-0.15686874;  1.0006364E+04;  0.0000000E+00; -4.8478274E-03;  1.0000000E+04;  0.0000000E+00;  9.9996543E+03;-0.16396888;0.0;0.0071001374;187.50493
  1.9996586E-01;  9.9999998E-03;  2.2000176E-01;1365;-0.021303501;0.0;0.00091063953;1000.3044;  4.0000001E-01;252.23975;3;-9.669775;0.0;0.37354803;0;-0.15917534;  1.0006435E+04;  0.0000000E+00; -2.5634442E-02;  1.0000000E+04;  0.0000000E+00;  9.9996563E+03;-0.16607092;0.0;0.0068955799;228.36859
  1.9996755E-01;  9.9999998E-03;  2.4000189E-01;1366;-0.020195074;0.0;0.00091419276;1000.3132;  4.0000001E-01;259.54819;3;-9.4499369;0.0;0.34692121;0;-0.16443588;  1.0006538E+04;  0.0000000E+00; -8.8780828E-02;  1.0000000E+04;  0.0000000E+00;  9.9997324E+03;-0.16957182;0.0;0.0051359343;487.84375
  1.9997020E-01;  9.9999998E-03;  2.6000202E-01;1367;-0.018480295;0.0;0.00093332288;1000.3294;  4.0000001E-01;272.88113;3;-9.2118835;0.0;0.35172606;0;-0.17402068;  1.0006690E+04;  0.0000000E+00; -2.2754623E-01;  1.0000000E+04;  0.0000000E+00;  9.9999023E+03;-0.17502522;0.0;0.0010045404;1190.8389
  1.9997390E-01;  9.9999998E-03;  2.8000224E-01;1368;-0.016157962;0.0;0.0010218651;1000.3503;  4.0000001E-01;290.16458;3;-8.8891573;0.0;0.42317486;0;-0.18654086;  1.0006846E+04;  0.0000000E+00; -4.4747975E-01;  1.0000000E+04;  0.0000000E+00;  1.0000164E+04;-0.18138698;0.0;-0.0051538823;2338.7715
  1.9997875E-01;  9.9999998E-03;  3.0000263E-01;1369;-0.013193748;0.0;0.0012223281;1000.3603;  4.0000001E-01;298.46066;3;-8.2246475;0.0;0.58395767;0;-0.19363748;  1.0006795E+04;  0.0000000E+00; -6.6604638E-01;  1.0000000E+04;  0.0000000E+00;  1.0000408E+04;-0.1828239;0.0;-0.010813581;3484.7957
  2.1995828E-01;  9.9999998E-03;  1.6000164E-01;1393;-0.025683239;0.0;0.001038033;1000.3405;  4.0000001E-01;282.06604;3;-11.407692;0.0;0.5485692;0;-0.17205736;  1.0007204E+04;  0.0000000E+00; -3.7336299E-06;  1.0000000E+04;  0.0000000E+00;  9.9996074E+03;-0.18087287;0.0;0.0088155046;210.3168
  2.1995816E-01;  9.9999998E-03;  1.8000193E-01;1394;-0.025692925;0.0;0.0011587812;1000.343;  4.0000001E-01;284.14008;3;-11.324926;0.0;0.56992096;0;-0.17354433;  1.0007306E+04;  0.0000000E+00; -4.8713840E-04;  1.0000000E+04;  0.0000000E+00;  9.9995576E+03;-0.18310007;0.0;0.0095557487;236.55241
  2.1995839E-01;  9.9999998E-03;  2.0000218E-01;1395;-0.025478523;0.0;0.0012390295;1000.3455;  4.0000001E-01;286.21408;3;-11.182021;0.0;0.57074964;0;-0.17517231;  1.0007410E+04;  0.0000000E+00; -5.4573319E-03;  1.0000000E+04;  0.0000000E+00;  9.9995010E+03;-0.1855846;0.0;0.010412296;264.20465
  2.1995923E-01;  9.9999998E-03;  2.2000240E-01;1396;-0.024892781;0.0;0.00127076;1000.3508;  4.0000001E-01;290.55963;3;-11.01065;0.0;0.53414035;0;-0.17848706;  1.0007537E+04;  0.0000000E+00; -2.8722331E-02;  1.0000000E+04;  0.0000000E+00;  9.9994805E+03;-0.18905726;0.0;0.010570196;311.34091
  2.1996096E-01;  9.9999998E-03;  2.4000251E-01;1397;-0.023757787;0.0;0.0012563209;1000.3631;  4.0000001E-01;300.83096;3;-10.83167;0.0;0.50343966;0;-0.18588543;  1.0007713E+04;  0.0000000E+00; -9.9964671E-02;  1.0000000E+04;  0.0000000E+00;  9.9995518E+03;-0.19451413;0.0;0.0086287018;575.50366
  2.1996380E-01;  9.9999998E-03;  2.6000270E-01;1398;-0.021954859;0.0;0.0012687113;1000.3866;  4.0000001E-01;320.2872;3;-10.684145;0.0;0.49551868;0;-0.19960074;  1.0007958E+04;  0.0000000E+00; -2.5963172E-01;  1.0000000E+04;  0.0000000E+00;  9.9997734E+03;-0.20272672;0.0;0.0031259784;1366.5177
  2.1996774E-01;  9.9999998E-03;  2.8000307E-01;1399;-0.019549495;0.0;0.0013936724;1000.4186;  4.0000001E-01;346.75558;3;-10.541777;0.0;0.58764839;0;-0.21843651;  1.0008243E+04;  0.0000000E+00; -5.1832688E-01;  1.0000000E+04;  0.0000000E+00;  1.0000127E+04;-0.21287453;0.0;-0.0055619762;2716.0129
  2.1997319E-01;  9.9999998E-03;  3.0000401E-01;1400;-0.01634077;0.0;0.0018264593;1000.4352;  4.0000001E-01;360.58234;3;-10.041771;0.0;0.86815262;0;-0.23021521;  1.0008298E+04;  0.0000000E+00; -7.8498948E-01;  1.0000000E+04;  0.0000000E+00;  1.0000404E+04;-0.21806574;0.0;-0.012149462;4118.8506
  2.3995088E-01;  9.9999998E-03;  1.6000229E-01;1424;-0.029583555;0.0;0.0014872462;1000.3885;  4.0000001E-01;321.8674;3;-12.813348;0.0;0.77694184;0;-0.19069421;  1.0008314E+04;  0.0000000E+00; -1.0405022E-06;  1.0000000E+04;  0.0000000E+00;  9.9994609E+03;-0.2030239;0.0;0.012329686;284.2092
  2.3995063E-01;  9.9999998E-03;  1.8000269E-01;1425;-0.029646732;0.0;0.001655592;1000.3912;  4.0000001E-01;324.13895;3;-12.730892;0.0;0.8122378;0;-0.19225107;  1.0008452E+04;  0.0000000E+00; -3.5707495E-04;  1.0000000E+04;  0.0000000E+00;  9.9993701E+03;-0.20584477;0.0;0.013593704;325.23511
  2.3995075E-01;  9.9999998E-03;  2.0000307E-01;1426;-0.02947888;0.0;0.0017981748;1000.3937;  4.0000001E-01;326.1142;3;-12.593349;0.0;0.83678269;0;-0.19392282;  1.0008598E+04;  0.0000000E+00; -4.5154081E-03;  1.0000000E+04;  0.0000000E+00;  9.9992822E+03;-0.20902795;0.0;0.015105134;369.58069
  2.3995151E-01;  9.9999998E-03;  2.2000343E-01;1427;-0.028941037;0.0;0.0018848891;1000.399;  4.0000001E-01;330.5585;3;-12.456516;0.0;0.81660408;0;-0.19730289;  1.0008758E+04;  0.0000000E+00; -2.4851078E-02;  1.0000000E+04;  0.0000000E+00;  9.9992275E+03;-0.21321937;0.0;0.015916483;417.28311
  2.3995318E-01;  9.9999998E-03;  2.4000378E-01;1428;-0.027836261;0.0;0.0019830533;1000.4118;  4.0000001E-01;341.1261;3;-12.358272;0.0;0.84136915;0;-0.2049039;  1.0008963E+04;  0.0000000E+00; -8.8760823E-02;  1.0000000E+04;  0.0000000E+00;  9.9992744E+03;-0.21928403;0.0;0.01438012;598.27942
  2.3995613E-01;  9.9999998E-03;  2.6000452E-01;1429;-0.026007922;0.0;0.0022990704;1000.4349;  4.0000001E-01;360.28604;3;-12.354046;0.0;0.98883772;0;-0.21850477;  1.0009229E+04;  0.0000000E+00; -2.3596817E-01;  1.0000000E+04;  0.0000000E+00;  9.9994727E+03;-0.22783385;0.0;0.0093290806;1270.6467
  2.3996024E-01;  9.9999998E-03;  2.8000605E-01;1430;-0.023530345;0.0;0.0030975526;1000.4617;  4.0000001E-01;382.50763;3;-12.399328;0.0;1.5011492;0;-0.23384203;  1.0009511E+04;  0.0000000E+00; -4.8228160E-01;  1.0000000E+04;  0.0000000E+00;  9.9997227E+03;-0.23794265;0.0;0.004100618;2539.3523
  2.3996609E-01;  9.9999998E-03;  3.0000892E-01;1431;-0.020129932;0.0;0.0045647202;1000.4575;  4.0000001E-01;378.95218;3;-12.091084;0.0;2.4538088;0;-0.23439535;  1.0009550E+04;  0.0000000E+00; -7.5371593E-01;  1.0000000E+04;  0.0000000E+00;  9.9996045E+03;-0.24293701;0.0;0.0085416641;3968.7969
  2.5994235E-01;  9.9999998E-03;  1.6000313E-01;1455;-0.033948258;0.0;0.002063035;1000.442;  4.0000001E-01;366.21179;3;-14.323011;0.0;1.0634845;0;-0.21053402;  1.0009577E+04;  0.0000000E+00;  7.0486692E-08;  1.0000000E+04;  0.0000000E+00;  9.9992666E+03;-0.22737461;0.0;0.016840592;379.03293
  2.5994194E-01;  9.9999998E-03;  1.8000372E-01;1456;-0.034071203;0.0;0.0023285977;1000.4448;  4.0000001E-01;368.48334;3;-14.235504;0.0;1.1423347;0;-0.21196887;  1.0009750E+04;  0.0000000E+00; -1.4807031E-04;  1.0000000E+04;  0.0000000E+00;  9.9991436E+03;-0.23067528;0.0;0.018706409;437.96912
  2.5994191E-01;  9.9999998E-03;  2.0000434E-01;1457;-0.033967461;0.0;0.002594816;1000.4467;  4.0000001E-01;370.06354;3;-14.110046;0.0;1.2012103;0;-0.2133144;  1.0009930E+04;  0.0000000E+00; -2.6160427E-03;  1.0000000E+04;  0.0000000E+00;  9.9990068E+03;-0.23428875;0.0;0.020974357;502.7471
  2.5994250E-01;  9.9999998E-03;  2.2000502E-01;1458;-0.03350646;0.0;0.0028489793;1000.4504;  4.0000001E-01;373.12515;3;-14.012926;0.0;1.2602544;0;-0.21588512;  1.0010116E+04;  0.0000000E+00; -1.6184799E-02;  1.0000000E+04;  0.0000000E+00;  9.9988994E+03;-0.2386335;0.0;0.022748381;561.0246
  2.5994399E-01;  9.9999998E-03;  2.4000585E-01;1459;-0.032510575;0.0;0.0031978996;1000.4598;  4.0000001E-01;380.9274;3;-14.037022;0.0;1.4029731;0;-0.22168757;  1.0010317E+04;  0.0000000E+00; -6.1135463E-02;  1.0000000E+04;  0.0000000E+00;  9.9988818E+03;-0.24428318;0.0;0.02259561;648.6571
  2.5994676E-01;  9.9999998E-03;  2.6000741E-01;1460;-0.030797433;0.0;0.0039571198;1000.4759;  4.0000001E-01;394.26038;3;-14.238273;0.0;1.8074861;0;-0.2309618;  1.0010551E+04;  0.0000000E+00; -1.6838586E-01;  1.0000000E+04;  0.0000000E+00;  9.9989688E+03;-0.25160274;0.0;0.020640945;1028.7813
  2.5995085E-01;  9.9999998E-03;  2.8001019E-01;1461;-0.028368579;0.0;0.0053679976;1000.4857;  4.0000001E-01;402.35889;3;-14.576538;0.0;2.6518869;0;-0.2368975;  1.0010770E+04;  0.0000000E+00; -3.5258242E-01;  1.0000000E+04;  0.0000000E+00;  9.9989443E+03;-0.25980592;0.0;0.022908416;1932.9783
  2.5995657E-01;  9.9999998E-03;  3.0001393E-01;1462;-0.025095928;0.0;0.0070788907;1000.4641;  4.0000001E-01;384.48288;3;-14.709626;0.0;3.7735577;0;-0.2299538;  1.0010791E+04;  0.0000000E+00; -5.5811441E-01;  1.0000000E+04;  0.0000000E+00;  9.9984941E+03;-0.26434377;0.0;0.034389973;3035.6592
  2.7993253E-01;  9.9999998E-03;  1.6000418E-01;1486;-0.038826697;0.0;0.0027781089;1000.5021;  4.0000001E-01;415.98813;3;-15.940818;0.0;1.416533;0;-0.23180149;  1.0011010E+04;  0.0000000E+00;  2.9251039E-08;  1.0000000E+04;  0.0000000E+00;  9.9990342E+03;-0.25396815;0.0;0.022166651;493.37045
  2.7993190E-01;  9.9999998E-03;  1.8000501E-01;1487;-0.039019499;0.0;0.0031711098;1000.5043;  4.0000001E-01;417.76587;3;-15.847691;0.0;1.5396851;0;-0.23300606;  1.0011221E+04;  0.0000000E+00; -1.9352879E-05;  1.0000000E+04;  0.0000000E+00;  9.9988701E+03;-0.25759649;0.0;0.024590433;571.55548
  2.7993169E-01;  9.9999998E-03;  2.0000596E-01;1488;-0.038996179;0.0;0.0035932953;1000.5056;  4.0000001E-01;418.85226;3;-15.732179;0.0;1.655544;0;-0.23387757;  1.0011425E+04;  0.0000000E+00; -9.3028700E-04;  1.0000000E+04;  0.0000000E+00;  9.9986895E+03;-0.26141018;0.0;0.027532615;657.69989
  2.7993205E-01;  9.9999998E-03;  2.2000709E-01;1489;-0.03863271;0.0;0.0040880446;1000.5075;  4.0000001E-01;420.43246;3;-15.685646;0.0;1.8264445;0;-0.23525168;  1.0011626E+04;  0.0000000E+00; -7.4493433E-03;  1.0000000E+04;  0.0000000E+00;  9.9985234E+03;-0.26556635;0.0;0.030314667;737.04724
  2.7993327E-01;  9.9999998E-03;  2.4000852E-01;1490;-0.037781611;0.0;0.0047197398;1000.512;  4.0000001E-01;424.18542;3;-15.840011;0.0;2.0886524;0;-0.2383554;  1.0011820E+04;  0.0000000E+00; -3.1486750E-02;  1.0000000E+04;  0.0000000E+00;  9.9984248E+03;-0.27033928;0.0;0.031983882;800.84674
  2.7993572E-01;  9.9999998E-03;  2.6001075E-01;1491;-0.036267366;0.0;0.0057629552;1000.519;  4.0000001E-01;430.01242;3;-16.311041;0.0;2.6261485;0;-0.2424306;  1.0012007E+04;  0.0000000E+00; -9.1951512E-02;  1.0000000E+04;  0.0000000E+00;  9.9983750E+03;-0.27591082;0.0;0.033480227;941.26715
  2.7993947E-01;  9.9999998E-03;  2.8001410E-01;1492;-0.034053344;0.0;0.007295087;1000.515;  4.0000001E-01;426.65451;3;-17.071486;0.0;3.5141184;0;-0.24181288;  1.0012164E+04;  0.0000000E+00; -1.9819222E-01;  1.0000000E+04;  0.0000000E+00;  9.9981416E+03;-0.28183964;0.0;0.040026747;1390.0317
  2.7994478E-01;  9.9999998E-03;  3.0001786E-01;1493;-0.031058554;0.0;0.0088420287;1000.4904;  4.0000001E-01;406.21063;3;-17.78154;0.0;4.6457195;0;-0.23465334;  1.0012180E+04;  0.0000000E+00; -3.1666768E-01;  1.0000000E+04;  0.0000000E+00;  9.9976318E+03;-0.28574756;0.0;0.051094223;2033.7114
  2.9992121E-01;  9.9999998E-03;  1.6000541E-01;1517;-0.044269785;0.0;0.0036086766;1000.5692;  4.0000001E-01;471.49265;3;-17.671799;0.0;1.8121394;0;-0.25481284;  1.0012628E+04;  0.0000000E+00; -1.7757083E-08;  1.0000000E+04;  0.0000000E+00;  9.9987666E+03;-0.28286546;0.0;0.028052619;624.58051
  2.9992038E-01;  9.9999998E-03;  1.8000655E-01;1518;-0.044543099;0.0;0.0041530984;1000.5714;  4.0000001E-01;473.36914;3;-17.56951;0.0;1.9850941;0;-0.25575164;  1.0012871E+04;  0.0000000E+00;  7.9908773E-07;  1.0000000E+04;  0.0000000E+00;  9.9985605E+03;-0.28663573;0.0;0.030884087;721.78351
  2.9991990E-01;  9.9999998E-03;  2.0000787E-01;1519;-0.044602513;0.0;0.0047474322;1000.572;  4.0000001E-01;473.86298;3;-17.453854;0.0;2.1695745;0;-0.25618842;  1.0013104E+04;  0.0000000E+00; -1.3618980E-04;  1.0000000E+04;  0.0000000E+00;  9.9983428E+03;-0.29044726;0.0;0.034258846;827.28705
  2.9991999E-01;  9.9999998E-03;  2.2000945E-01;1520;-0.044339534;0.0;0.0054421904;1000.5721;  4.0000001E-01;473.96173;3;-17.444872;0.0;2.401118;0;-0.25654715;  1.0013316E+04;  0.0000000E+00; -2.0724840E-03;  1.0000000E+04;  0.0000000E+00;  9.9981348E+03;-0.29424554;0.0;0.037698384;927.88837
  2.9992098E-01;  9.9999998E-03;  2.4001141E-01;1521;-0.043605424;0.0;0.0063081454;1000.5731;  4.0000001E-01;474.75183;3;-17.727427;0.0;2.7526143;0;-0.25735724;  1.0013504E+04;  0.0000000E+00; -1.1132408E-02;  1.0000000E+04;  0.0000000E+00;  9.9979639E+03;-0.29807833;0.0;0.040721104;1008.8828
  2.9992309E-01;  9.9999998E-03;  2.6001406E-01;1522;-0.042262968;0.0;0.0074695451;1000.5734;  4.0000001E-01;475.04813;3;-18.464954;0.0;3.344054;0;-0.25770977;  1.0013660E+04;  0.0000000E+00; -3.6423404E-02;  1.0000000E+04;  0.0000000E+00;  9.9978174E+03;-0.30199945;0.0;0.044289671;1092.5635
  2.9992652E-01;  9.9999998E-03;  2.8001761E-01;1523;-0.0402552;0.0;0.0089215878;1000.5638;  4.0000001E-01;467.04834;3;-19.660204;0.0;4.2233891;0;-0.25433064;  1.0013766E+04;  0.0000000E+00; -8.3424084E-02;  1.0000000E+04;  0.0000000E+00;  9.9975117E+03;-0.30584565;0.0;0.051515006;1293.9797
  2.9993144E-01;  9.9999998E-03;  3.0002141E-01;1524;-0.037544932;0.0;0.010317955;1000.5415;  4.0000001E-01;448.57974;3;-21.006001;0.0;5.3462868;0;-0.24880192;  1.0013782E+04;  0.0000000E+00; -1.3687414E-01;  1.0000000E+04;  0.0000000E+00;  9.9970547E+03;-0.30866975;0.0;0.059867829;1606.0873
  3.1990826E-01;  9.9999998E-03;  1.6000679E-01;1548;-0.050326638;0.0;0.0045242766;1000.6453;  4.0000001E-01;534.60199;3;-19.515614;0.0;2.2355192;0;-0.27989918;  1.0014446E+04;  0.0000000E+00; -7.5918010E-08;  1.0000000E+04;  0.0000000E+00;  9.9984688E+03;-0.31416291;0.0;0.034263719;770.06335
  3.1990713E-01;  9.9999998E-03;  1.8000828E-01;1549;-0.050685219;0.0;0.0052212635;1000.6472;  4.0000001E-01;536.18219;3;-19.39374;0.0;2.4609039;0;-0.28058434;  1.0014722E+04;  0.0000000E+00;  5.6302343E-07;  1.0000000E+04;  0.0000000E+00;  9.9982334E+03;-0.31788865;0.0;0.037304301;885.42169
  3.1990635E-01;  9.9999998E-03;  2.0000999E-01;1550;-0.050827682;0.0;0.0059830924;1000.6476;  4.0000001E-01;536.47845;3;-19.273676;0.0;2.678133;0;-0.28068629;  1.0014982E+04;  0.0000000E+00;  5.6534604E-06;  1.0000000E+04;  0.0000000E+00;  9.9979766E+03;-0.32150313;0.0;0.040816832;1007.5028
  3.1990620E-01;  9.9999998E-03;  2.2001196E-01;1551;-0.050644517;0.0;0.0068311403;1000.6468;  4.0000001E-01;535.88586;3;-19.294973;0.0;2.9498272;0;-0.28040123;  1.0015212E+04;  0.0000000E+00; -1.9562278E-04;  1.0000000E+04;  0.0000000E+00;  9.9977324E+03;-0.32483685;0.0;0.04443562;1123.7457
  3.1990698E-01;  9.9999998E-03;  2.4001436E-01;1552;-0.049975693;0.0;0.0078380946;1000.6457;  4.0000001E-01;534.89825;3;-19.679247;0.0;3.349865;0;-0.27990997;  1.0015396E+04;  0.0000000E+00; -2.0940453E-03;  1.0000000E+04;  0.0000000E+00;  9.9975264E+03;-0.32780987;0.0;0.047899902;1221.0627
  3.1990892E-01;  9.9999998E-03;  2.6001734E-01;1553;-0.048710648;0.0;0.0090332441;1000.6435;  4.0000001E-01;533.12054;3;-20.65122;0.0;3.9640985;0;-0.27856946;  1.0015533E+04;  0.0000000E+00; -8.9934804E-03;  1.0000000E+04;  0.0000000E+00;  9.9973447E+03;-0.33041975;0.0;0.051850297;1307.0554
  3.1991223E-01;  9.9999998E-03;  2.8002104E-01;1554;-0.046803322;0.0;0.01040684;1000.6333;  4.0000001E-01;524.72571;3;-22.253008;0.0;4.8424745;0;-0.27464372;  1.0015617E+04;  0.0000000E+00; -2.3526594E-02;  1.0000000E+04;  0.0000000E+00;  9.9970508E+03;-0.33264348;0.0;0.057999756;1448.7574
  3.1991696E-01;  9.9999998E-03;  3.0002496E-01;1555;-0.044253517;0.0;0.011737069;1000.6144;  4.0000001E-01;509.02246;3;-24.191969;0.0;6.0038891;0;-0.27029258;  1.0015640E+04;  0.0000000E+00; -4.1809686E-02;  1.0000000E+04;  0.0000000E+00;  9.9966582E+03;-0.33424538;0.0;0.063952804;1645.0327
  3.3989340E-01;  9.9999998E-03;  1.6000830E-01;1579;-0.057045866;0.0;0.00549543;1000.7315;  4.0000001E-01;606.00726;3;-21.467787;0.0;2.6561759;0;-0.3073335;  1.0016487E+04;  0.0000000E+00; -8.5870660E-08;  1.0000000E+04;  0.0000000E+00;  9.9981504E+03;-0.34798858;0.0;0.04065508;928.15155
  3.3989194E-01;  9.9999998E-03;  1.8001014E-01;1580;-0.057492334;0.0;0.00634155;1000.7334;  4.0000001E-01;607.58746;3;-21.319471;0.0;2.9210372;0;-0.30782583;  1.0016800E+04;  0.0000000E+00;  3.6310007E-07;  1.0000000E+04;  0.0000000E+00;  9.9978750E+03;-0.35153934;0.0;0.043713499;1061.0247
  3.3989087E-01;  9.9999998E-03;  2.0001224E-01;1581;-0.057713952;0.0;0.0072509572;1000.7336;  4.0000001E-01;607.78503;3;-21.178722;0.0;3.1747949;0;-0.30767038;  1.0017085E+04;  0.0000000E+00;  5.1278134E-06;  1.0000000E+04;  0.0000000E+00;  9.9975869E+03;-0.35479724;0.0;0.047126848;1198.0797
  3.3989048E-01;  9.9999998E-03;  2.2001462E-01;1582;-0.057588987;0.0;0.0082162684;1000.7324;  4.0000001E-01;606.69861;3;-21.223579;0.0;3.4512899;0;-0.30700245;  1.0017330E+04;  0.0000000E+00;  2.2559076E-05;  1.0000000E+04;  0.0000000E+00;  9.9973271E+03;-0.35756814;0.0;0.050565694;1325.9342
  3.3989108E-01;  9.9999998E-03;  2.4001738E-01;1583;-0.056939408;0.0;0.0093059232;1000.7307;  4.0000001E-01;605.31592;3;-21.698202;0.0;3.8695831;0;-0.30596083;  1.0017517E+04;  0.0000000E+00; -1.6579110E-05;  1.0000000E+04;  0.0000000E+00;  9.9971084E+03;-0.35974175;0.0;0.053780898;1430.9734
  3.3989298E-01;  9.9999998E-03;  2.6002061E-01;1584;-0.055660766;0.0;0.010514563;1000.7285;  4.0000001E-01;603.53821;3;-22.879524;0.0;4.50912;0;-0.30425632;  1.0017647E+04;  0.0000000E+00; -7.4209733E-04;  1.0000000E+04;  0.0000000E+00;  9.9969326E+03;-0.36131886;0.0;0.057062529;1513.2531
  3.3989638E-01;  9.9999998E-03;  2.8002459E-01;1585;-0.053704102;0.0;0.011878525;1000.7194;  4.0000001E-01;596.03223;3;-24.844368;0.0;5.4170899;0;-0.30055529;  1.0017720E+04;  0.0000000E+00; -2.9866106E-03;  1.0000000E+04;  0.0000000E+00;  9.9966777E+03;-0.36237246;0.0;0.061817158;1633.4907
  3.3990139E-01;  9.9999998E-03;  3.0002877E-01;1586;-0.051100008;0.0;0.013213297;1000.7037;  4.0000001E-01;582.99561;3;-27.277697;0.0;6.6642842;0;-0.296763;  1.0017750E+04;  0.0000000E+00; -6.4127301E-03;  1.0000000E+04;  0.0000000E+00;  9.9963320E+03;-0.36297846;0.0;0.06621547;1796.1761
  3.5987642E-01;  9.9999998E-03;  1.6000991E-01;1610;-0.064478286;0.0;0.0065113436;1000.8287;  4.0000001E-01;686.49872;3;-23.519018;0.0;3.0731468;0;-0.33728728;  1.0018777E+04;  0.0000000E+00; -8.7475300E-08;  1.0000000E+04;  0.0000000E+00;  9.9978076E+03;-0.38447562;0.0;0.047188349;1098.2438
  3.5987458E-01;  9.9999998E-03;  1.8001212E-01;1611;-0.065010905;0.0;0.0074914438;1000.8311;  4.0000001E-01;688.57275;3;-23.337805;0.0;3.3410251;0;-0.33767238;  1.0019137E+04;  0.0000000E+00;  1.9262050E-07;  1.0000000E+04;  0.0000000E+00;  9.9974961E+03;-0.38779876;0.0;0.050126366;1248.8831
  3.5987315E-01;  9.9999998E-03;  2.0001464E-01;1612;-0.065308481;0.0;0.0085256072;1000.8314;  4.0000001E-01;688.77026;3;-23.175411;0.0;3.6091347;0;-0.33735561;  1.0019454E+04;  0.0000000E+00;  4.8546826E-06;  1.0000000E+04;  0.0000000E+00;  9.9971855E+03;-0.39064321;0.0;0.053287584;1401.0461
  3.5987249E-01;  9.9999998E-03;  2.2001743E-01;1613;-0.065227583;0.0;0.0096003441;1000.8303;  4.0000001E-01;687.88141;3;-23.230434;0.0;3.8997786;0;-0.33642966;  1.0019717E+04;  0.0000000E+00;  2.3628651E-05;  1.0000000E+04;  0.0000000E+00;  9.9968994E+03;-0.39281055;0.0;0.056380913;1540.1841
  3.5987297E-01;  9.9999998E-03;  2.4002056E-01;1614;-0.064576857;0.0;0.010751331;1000.8287;  4.0000001E-01;686.49872;3;-23.793051;0.0;4.3264294;0;-0.33515209;  1.0019912E+04;  0.0000000E+00;  6.7054381E-05;  1.0000000E+04;  0.0000000E+00;  9.9966709E+03;-0.39422044;0.0;0.059068356;1650.0847
  3.5987493E-01;  9.9999998E-03;  2.6002410E-01;1615;-0.063227162;0.0;0.01198224;1000.8271;  4.0000001E-01;685.21484;3;-25.185242;0.0;4.9995818;0;-0.33356446;  1.0020034E+04;  0.0000000E+00;  1.3200889E-04;  1.0000000E+04;  0.0000000E+00;  9.9965156E+03;-0.39491895;0.0;0.061354481;1723.392
  3.5987866E-01;  9.9999998E-03;  2.8002843E-01;1616;-0.061117496;0.0;0.013393901;1000.8194;  4.0000001E-01;678.89404;3;-27.490999;0.0;5.9896312;0;-0.33007425;  1.0020104E+04;  0.0000000E+00;  1.5930866E-04;  1.0000000E+04;  0.0000000E+00;  9.9963008E+03;-0.39505216;0.0;0.064977929;1824.5758
  3.5988420E-01;  9.9999998E-03;  3.0003303E-01;1617;-0.058279503;0.0;0.01478161;1000.8049;  4.0000001E-01;666.84497;3;-30.364754;0.0;7.3351169;0;-0.32624832;  1.0020125E+04;  0.0000000E+00;  2.7648162E-05;  1.0000000E+04;  0.0000000E+00;  9.9959863E+03;-0.39483759;0.0;0.068589263;1974.0811
  3.7985709E-01;  9.9999998E-03;  1.6001160E-01;1641;-0.072677337;0.0;0.0075522698;1000.9383;  4.0000001E-01;777.36017;3;-25.668991;0.0;3.4701052;0;-0.36982834;  1.0021334E+04;  0.0000000E+00; -7.6360656E-08;  1.0000000E+04;  0.0000000E+00;  9.9974443E+03;-0.42373091;0.0;0.053902555;1280.3804
  3.7985480E-01;  9.9999998E-03;  1.8001422E-01;1642;-0.073290706;0.0;0.0086682308;1000.9417;  4.0000001E-01;780.12549;3;-25.44323;0.0;3.7388723;0;-0.37019426;  1.0021747E+04;  0.0000000E+00;  1.4258310E-08;  1.0000000E+04;  0.0000000E+00;  9.9970977E+03;-0.42684346;0.0;0.056649197;1449.9534
  3.7985298E-01;  9.9999998E-03;  2.0001717E-01;1643;-0.073656268;0.0;0.0098224198;1000.9427;  4.0000001E-01;781.01434;3;-25.246342;0.0;3.9929328;0;-0.36982164;  1.0022115E+04;  0.0000000E+00;  4.7200865E-06;  1.0000000E+04;  0.0000000E+00;  9.9967490E+03;-0.42931956;0.0;0.059497919;1619.1038
  3.7985200E-01;  9.9999998E-03;  2.2002041E-01;1644;-0.073611692;0.0;0.011001459;1000.9421;  4.0000001E-01;780.52057;3;-25.312748;0.0;4.2956839;0;-0.36876202;  1.0022416E+04;  0.0000000E+00;  2.5942449E-05;  1.0000000E+04;  0.0000000E+00;  9.9964385E+03;-0.43096116;0.0;0.06219916;1771.8445
  3.7985235E-01;  9.9999998E-03;  2.4002397E-01;1645;-0.072950847;0.0;0.012217284;1000.9407;  4.0000001E-01;779.33539;3;-25.970242;0.0;4.7365561;0;-0.36737263;  1.0022633E+04;  0.0000000E+00;  7.7666657E-05;  1.0000000E+04;  0.0000000E+00;  9.9961963E+03;-0.431723;0.0;0.064350359;1889.0144
  3.7985441E-01;  9.9999998E-03;  2.6002792E-01;1646;-0.071507476;0.0;0.013486379;1000.9404;  4.0000001E-01;779.03912;3;-27.588884;0.0;5.4431682;0;-0.36599475;  1.0022768E+04;  0.0000000E+00;  1.5821017E-04;  1.0000000E+04;  0.0000000E+00;  9.9960557E+03;-0.43170306;0.0;0.065708295;1956.7081
  3.7985849E-01;  9.9999998E-03;  2.8003269E-01;1647;-0.069203705;0.0;0.014970967;1000.9341;  4.0000001E-01;773.90344;3;-30.254313;0.0;6.5364709;0;-0.36263245;  1.0022830E+04;  0.0000000E+00;  2.1899026E-04;  1.0000000E+04;  0.0000000E+00;  9.9958691E+03;-0.43110114;0.0;0.068468705;2044.996
  3.7986478E-01;  9.9999998E-03;  3.0003783E-01;1648;-0.066059887;0.0;0.01645302;1000.9195;  4.0000001E-01;761.75568;3;-33.581028;0.0;8.0120163;0;-0.35826617;  1.0022843E+04;  0.0000000E+00;  1.5875684E-04;  1.0000000E+04;  0.0000000E+00;  9.9955645E+03;-0.43018597;0.0;0.071919799;2190.9622
  3.9983511E-01;  9.9999998E-03;  1.6001344E-01;1672;-0.081695169;0.0;0.008606107;1001.0613;  4.0000001E-01;879.2829;3;-27.90937;0.0;3.8329012;0;-0.40494278;  1.0024183E+04;  0.0000000E+00; -9.0203159E-08;  1.0000000E+04;  0.0000000E+00;  9.9970576E+03;-0.46580482;0.0;0.060862042;1474.7506
  3.9983231E-01;  9.9999998E-03;  1.8001647E-01;1673;-0.082382992;0.0;0.0098662786;1001.0663;  4.0000001E-01;883.43091;3;-27.625738;0.0;4.098001;0;-0.4053818;  1.0024668E+04;  0.0000000E+00; -1.6296367E-07;  1.0000000E+04;  0.0000000E+00;  9.9966719E+03;-0.46877766;0.0;0.063395858;1664.6044
  3.9983001E-01;  9.9999998E-03;  2.0001990E-01;1674;-0.082809627;0.0;0.011153165;1001.0687;  4.0000001E-01;885.40619;3;-27.388083;0.0;4.3448839;0;-0.40506607;  1.0025104E+04;  0.0000000E+00;  4.6704381E-06;  1.0000000E+04;  0.0000000E+00;  9.9962881E+03;-0.47100389;0.0;0.065937802;1853.766
  3.9982873E-01;  9.9999998E-03;  2.2002363E-01;1675;-0.08279226;0.0;0.012444232;1001.0692;  4.0000001E-01;885.80127;3;-27.458864;0.0;4.6336489;0;-0.40399653;  1.0025464E+04;  0.0000000E+00;  2.9379105E-05;  1.0000000E+04;  0.0000000E+00;  9.9959365E+03;-0.47228977;0.0;0.068293244;2024.3563
  3.9982888E-01;  9.9999998E-03;  2.4002768E-01;1676;-0.082109317;0.0;0.013738744;1001.0688;  4.0000001E-01;885.50494;3;-28.222925;0.0;5.0988302;0;-0.40262097;  1.0025725E+04;  0.0000000E+00;  9.2739676E-05;  1.0000000E+04;  0.0000000E+00;  9.9956709E+03;-0.47262189;0.0;0.070000902;2153.9739
  3.9983106E-01;  9.9999998E-03;  2.6003212E-01;1677;-0.080558449;0.0;0.015063056;1001.07;  4.0000001E-01;886.49255;3;-30.084848;0.0;5.8523903;0;-0.4015311;  1.0025893E+04;  0.0000000E+00;  1.9454176E-04;  1.0000000E+04;  0.0000000E+00;  9.9955303E+03;-0.47213605;0.0;0.070604935;2223.2085
  3.9983556E-01;  9.9999998E-03;  2.8003749E-01;1678;-0.078043491;0.0;0.016632054;1001.0654;  4.0000001E-01;882.64081;3;-33.144833;0.0;7.0519147;0;-0.39839137;  1.0025972E+04;  0.0000000E+00;  2.7417758E-04;  1.0000000E+04;  0.0000000E+00;  9.9953525E+03;-0.47106797;0.0;0.072676592;2307.0222
  3.9984262E-01;  9.9999998E-03;  3.0004326E-01;1679;-0.074571207;0.0;0.018230682;1001.0505;  4.0000001E-01;870.39429;3;-36.977859;0.0;8.6551924;0;-0.39344695;  1.0025997E+04;  0.0000000E+00;  1.9904788E-04;  1.0000000E+04;  0.0000000E+00;  9.9950332E+03;-0.46971217;0.0;0.076265223;2458.3159
  4.1981024E-01;  9.9999998E-03;  1.6001545E-01;1703;-0.091585197;0.0;0.0096682301;1001.1984;  4.0000001E-01;992.85956;3;-30.235168;0.0;4.1592059;0;-0.44253695;  1.0027337E+04;  0.0000000E+00; -1.0604388E-07;  1.0000000E+04;  0.0000000E+00;  9.9966484E+03;-0.51064861;0.0;0.068111643;1681.7181
  4.1980684E-01;  9.9999998E-03;  1.8001893E-01;1704;-0.09234193;0.0;0.011087952;1001.2059;  4.0000001E-01;999.08154;3;-29.877506;0.0;4.4077077;0;-0.44316435;  1.0027913E+04;  0.0000000E+00; -2.4557860E-07;  1.0000000E+04;  0.0000000E+00;  9.9962197E+03;-0.51358706;0.0;0.070422709;1892.0197
  4.1980401E-01;  9.9999998E-03;  2.0002285E-01;1705;-0.092822842;0.0;0.012523985;1001.2104;  4.0000001E-01;1002.8345;3;-29.588919;0.0;4.6474833;0;-0.44304079;  1.0028441E+04;  0.0000000E+00;  4.9210830E-06;  1.0000000E+04;  0.0000000E+00;  9.9957910E+03;-0.51573265;0.0;0.072691865;2104.072
  4.1980228E-01;  9.9999998E-03;  2.2002715E-01;1706;-0.092823908;0.0;0.013947044;1001.213;  4.0000001E-01;1004.9086;3;-29.662876;0.0;4.9306931;0;-0.44211331;  1.0028883E+04;  0.0000000E+00;  3.4336881E-05;  1.0000000E+04;  0.0000000E+00;  9.9953994E+03;-0.51690388;0.0;0.07479056;2297.4319
  4.1980225E-01;  9.9999998E-03;  2.4003179E-01;1707;-0.092105307;0.0;0.015340912;1001.2148;  4.0000001E-01;1006.4888;3;-30.5415;0.0;5.4105573;0;-0.44089299;  1.0029228E+04;  0.0000000E+00;  1.1297094E-04;  1.0000000E+04;  0.0000000E+00;  9.9950957E+03;-0.51710594;0.0;0.076212958;2445.8457
  4.1980448E-01;  9.9999998E-03;  2.6003686E-01;1708;-0.090433449;0.0;0.016741157;1001.2183;  4.0000001E-01;1009.3529;3;-32.665955;0.0;6.2130694;0;-0.44018614;  1.0029456E+04;  0.0000000E+00;  2.4214695E-04;  1.0000000E+04;  0.0000000E+00;  9.9949355E+03;-0.51649004;0.0;0.076303884;2525.946
  4.1980940E-01;  9.9999998E-03;  2.8004295E-01;1709;-0.087691449;0.0;0.018399583;1001.2157;  4.0000001E-01;1007.1801;3;-36.155907;0.0;7.5278225;0;-0.43755296;  1.0029595E+04;  0.0000000E+00;  3.4342392E-04;  1.0000000E+04;  0.0000000E+00;  9.9947461E+03;-0.51530218;0.0;0.07774923;2616.5881
  4.1981733E-01;  9.9999998E-03;  3.0004948E-01;1710;-0.08386492;0.0;0.020132888;1001.2017;  4.0000001E-01;995.62488;3;-40.536095;0.0;9.2924614;0;-0.4323535;  1.0029657E+04;  0.0000000E+00;  2.4111602E-04;  1.0000000E+04;  0.0000000E+00;  9.9944033E+03;-0.51384091;0.0;0.081487432;2780.6125
  4.3978214E-01;  9.9999998E-03;  1.6001780E-01;1734;-0.10240185;0.0;0.010748638;1001.3494;  4.0000001E-01;1117.9912;3;-32.634621;0.0;4.4086976;0;-0.48233011;  1.0030809E+04;  0.0000000E+00; -1.2038160E-07;  1.0000000E+04;  0.0000000E+00;  9.9962090E+03;-0.55799264;0.0;0.075662531;1902.8301
  4.3977803E-01;  9.9999998E-03;  1.8002172E-01;1735;-0.10322609;0.0;0.01234144;1001.3602;  4.0000001E-01;1126.8799;3;-32.189278;0.0;4.6529994;0;-0.48332337;  1.0031486E+04;  0.0000000E+00; -5.0265378E-08;  1.0000000E+04;  0.0000000E+00;  9.9957520E+03;-0.56102532;0.0;0.077701963;2130.8345
  4.3977454E-01;  9.9999998E-03;  2.0002614E-01;1736;-0.10375686;0.0;0.013940323;1001.3685;  4.0000001E-01;1133.7932;3;-31.839264;0.0;4.8863869;0;-0.48358804;  1.0032130E+04;  0.0000000E+00;  6.2726667E-06;  1.0000000E+04;  0.0000000E+00;  9.9952744E+03;-0.5633018;0.0;0.079713754;2366.76
  4.3977231E-01;  9.9999998E-03;  2.2003102E-01;1737;-0.103769;0.0;0.015513101;1001.3748;  4.0000001E-01;1139.0276;3;-31.914209;0.0;5.1702685;0;-0.48302877;  1.0032696E+04;  0.0000000E+00;  4.2589072E-05;  1.0000000E+04;  0.0000000E+00;  9.9948281E+03;-0.56466532;0.0;0.081636563;2586.5466
  4.3977198E-01;  9.9999998E-03;  2.4003631E-01;1738;-0.10300133;0.0;0.017030444;1001.3802;  4.0000001E-01;1143.4719;3;-32.913918;0.0;5.6593451;0;-0.48219138;  1.0033156E+04;  0.0000000E+00;  1.4133452E-04;  1.0000000E+04;  0.0000000E+00;  9.9944785E+03;-0.56512547;0.0;0.082934089;2758.5562
  4.3977425E-01;  9.9999998E-03;  2.6004219E-01;1739;-0.10119421;0.0;0.018539876;1001.3875;  4.0000001E-01;1149.4965;3;-35.322159;0.0;6.5152063;0;-0.48200873;  1.0033498E+04;  0.0000000E+00;  3.0458078E-04;  1.0000000E+04;  0.0000000E+00;  9.9942773E+03;-0.56481618;0.0;0.082807451;2858.3369
  4.3977961E-01;  9.9999998E-03;  2.8004920E-01;1740;-0.098210439;0.0;0.020298446;1001.3873;  4.0000001E-01;1149.299;3;-39.28104;0.0;7.946763;0;-0.48019829;  1.0033733E+04;  0.0000000E+00;  4.2799473E-04;  1.0000000E+04;  0.0000000E+00;  9.9940430E+03;-0.56395674;0.0;0.083758444;2973.2737
  4.3978843E-01;  9.9999998E-03;  3.0005667E-01;1741;-0.094006032;0.0;0.022172587;1001.3749;  4.0000001E-01;1139.0276;3;-44.257778;0.0;9.8968906;0;-0.47534081;  1.0033876E+04;  0.0000000E+00;  2.7555044E-04;  1.0000000E+04;  0.0000000E+00;  9.9936514E+03;-0.56282759;0.0;0.087486766;3160.8357
  4.5975047E-01;  9.9999998E-03;  1.6002074E-01;1765;-0.11420596;0.0;0.011885212;1001.5143;  4.0000069E-01;1254.579;3;-35.097176;0.0;4.565413;0;-0.52355808;  1.0034550E+04;  0.0000000E+00;  4.0141893E-07;  1.0000000E+04;  0.0000000E+00;  9.9957344E+03;-0.60707706;0.0;0.083518974;2142.9722
  4.5974553E-01;  9.9999998E-03;  1.8002509E-01;1766;-0.1151;0.0;0.013653311;1001.5305;  4.0000072E-01;1268.0106;3;-34.55167;0.0;4.8124752;0;-0.52518457;  1.0035352E+04;  0.0000000E+00;  1.2932151E-06;  1.0000000E+04;  0.0000000E+00;  9.9952549E+03;-0.61033392;0.0;0.085149325;2381.4221
  4.5974123E-01;  9.9999998E-03;  2.0002995E-01;1767;-0.11568079;0.0;0.015413718;1001.5436;  4.0000075E-01;1278.8745;3;-34.128922;0.0;5.0401878;0;-0.52612805;  1.0036140E+04;  0.0000000E+00;  1.0553294E-05;  1.0000000E+04;  0.0000000E+00;  9.9947402E+03;-0.61298323;0.0;0.086855151;2638.5349
  4.5973831E-01;  9.9999998E-03;  2.2003536E-01;1768;-0.11570054;0.0;0.017138403;1001.5551;  4.0000075E-01;1288.3557;3;-34.200516;0.0;5.3249664;0;-0.52628511;  1.0036867E+04;  0.0000000E+00;  5.8085927E-05;  1.0000000E+04;  0.0000000E+00;  9.9942432E+03;-0.61490923;0.0;0.088624135;2884.9678
  4.5973760E-01;  9.9999998E-03;  2.4004133E-01;1769;-0.11487564;0.0;0.018797716;1001.5668;  4.0000063E-01;1298.1332;3;-35.328094;0.0;5.8293428;0;-0.52624059;  1.0037495E+04;  0.0000000E+00;  1.8457633E-04;  1.0000000E+04;  0.0000000E+00;  9.9938477E+03;-0.6161083;0.0;0.089867733;3080.5183
  4.5973977E-01;  9.9999998E-03;  2.6004818E-01;1770;-0.1129206;0.0;0.020465227;1001.5798;  4.0000078E-01;1308.8983;3;-38.045799;0.0;6.7413678;0;-0.52685153;  1.0038004E+04;  0.0000000E+00;  3.9059028E-04;  1.0000000E+04;  0.0000000E+00;  9.9936006E+03;-0.61666161;0.0;0.089810103;3203.21
  4.5974553E-01;  9.9999998E-03;  2.8005645E-01;1771;-0.10968401;0.0;0.022358742;1001.5825;  4.0000075E-01;1311.071;3;-42.517067;0.0;8.2920399;0;-0.52610427;  1.0038388E+04;  0.0000000E+00;  5.3327775E-04;  1.0000000E+04;  0.0000000E+00;  9.9932695E+03;-0.61671984;0.0;0.090615585;3366.0273
  4.5975527E-01;  9.9999998E-03;  3.0006510E-01;1772;-0.10507996;0.0;0.024381895;1001.5725;  4.0000063E-01;1302.775;3;-48.144302;0.0;10.451842;0;-0.5222851;  1.0038669E+04;  0.0000000E+00;  2.9151165E-04;  1.0000000E+04;  0.0000000E+00;  9.9927861E+03;-0.61650759;0.0;0.094222493;3600.7297
  4.7971484E-01;  9.9999998E-03;  1.6002472E-01;1796;-0.12706281;0.0;0.013157424;1001.6867;  4.0000218E-01;1397.3883;3;-37.614117;0.0;4.6116452;0;-0.56442916;  1.0038470E+04;  0.0000000E+00;  3.1688110E-06;  1.0000000E+04;  0.0000000E+00;  9.9952021E+03;-0.65617168;0.0;0.091742508;2413.3477
  4.7970888E-01;  9.9999998E-03;  1.8002942E-01;1797;-0.12803188;0.0;0.015085968;1001.7096;  4.0000212E-01;1416.3507;3;-36.954128;0.0;4.8588953;0;-0.567047;  1.0039405E+04;  0.0000000E+00;  6.0465354E-06;  1.0000000E+04;  0.0000000E+00;  9.9947275E+03;-0.65975809;0.0;0.092711084;2649.9092
  4.7970361E-01;  9.9999998E-03;  2.0003462E-01;1798;-0.12866816;0.0;0.016982289;1001.7302;  4.0000206E-01;1433.4366;3;-36.44846;0.0;5.0818591;0;-0.5690552;  1.0040358E+04;  0.0000000E+00;  2.1611713E-05;  1.0000000E+04;  0.0000000E+00;  9.9941846E+03;-0.6630249;0.0;0.093969733;2920.978
  4.7969985E-01;  9.9999998E-03;  2.2004040E-01;1799;-0.12869991;0.0;0.01883259;1001.7492;  4.0000206E-01;1449.1398;3;-36.513142;0.0;5.3642669;0;-0.57041031;  1.0041283E+04;  0.0000000E+00;  8.8075925E-05;  1.0000000E+04;  0.0000000E+00;  9.9936465E+03;-0.66591436;0.0;0.095504031;3189.2805
  4.7969851E-01;  9.9999998E-03;  2.4004696E-01;1800;-0.12782185;0.0;0.020627614;1001.7705;  4.0000200E-01;1466.8182;3;-37.777634;0.0;5.8940711;0;-0.57182926;  1.0042133E+04;  0.0000000E+00;  2.5576758E-04;  1.0000000E+04;  0.0000000E+00;  9.9932236E+03;-0.66839492;0.0;0.096565671;3399.3115
  4.7970045E-01;  9.9999998E-03;  2.6005492E-01;1801;-0.12571774;0.0;0.022509025;1001.7937;  4.0000215E-01;1486.0769;3;-40.835297;0.0;6.8651185;0;-0.57378983;  1.0042865E+04;  0.0000000E+00;  5.1879411E-04;  1.0000000E+04;  0.0000000E+00;  9.9929570E+03;-0.6704607;0.0;0.096670896;3533.886
  4.7970641E-01;  9.9999998E-03;  2.8006488E-01;1802;-0.12223239;0.0;0.024611678;1001.8;  4.0000203E-01;1491.3114;3;-45.870441;0.0;8.5362196;0;-0.57421827;  1.0043470E+04;  0.0000000E+00;  6.7394355E-04;  1.0000000E+04;  0.0000000E+00;  9.9924824E+03;-0.67214864;0.0;0.097930379;3768.1462
  4.7971699E-01;  9.9999998E-03;  3.0007505E-01;1803;-0.11722814;0.0;0.026803859;1001.7916;  4.0000206E-01;1484.2992;3;-52.213436;0.0;10.940489;0;-0.57212436;  1.0043952E+04;  0.0000000E+00;  2.8098613E-04;  1.0000000E+04;  0.0000000E+00;  9.9918281E+03;-0.6735729;0.0;0.10144854;4086.9741
  4.9967483E-01;  9.9999998E-03;  1.6003032E-01;1827;-0.14103293;0.0;0.014689647;1001.8553;  4.0000474E-01;1537.1357;3;-40.174458;0.0;4.5272012;0;-0.60147727;  1.0042353E+04;  0.0000000E+00;  1.2009796E-05;  1.0000000E+04;  0.0000000E+00;  9.9945645E+03;-0.70201439;0.0;0.10053713;2734.6604
  4.9966773E-01;  9.9999998E-03;  1.8003537E-01;1828;-0.14208144;0.0;0.016751157;1001.8871;  4.0000489E-01;1563.5052;3;-39.386307;0.0;4.7667098;0;-0.60547817;  1.0043417E+04;  0.0000000E+00;  1.8473333E-05;  1.0000000E+04;  0.0000000E+00;  9.9941318E+03;-0.70597994;0.0;0.10050179;2953.7078
  4.9966130E-01;  9.9999998E-03;  2.0004074E-01;1829;-0.14278252;0.0;0.018733948;1001.916;  4.0000492E-01;1587.4056;3;-38.790306;0.0;4.9845214;0;-0.60895681;  1.0044549E+04;  0.0000000E+00;  4.5427518E-05;  1.0000000E+04;  0.0000000E+00;  9.9935830E+03;-0.71005672;0.0;0.10109988;3228.5229
  4.9965644E-01;  9.9999998E-03;  2.2004665E-01;1830;-0.14284424;0.0;0.020655185;1001.9453;  4.0000480E-01;1611.6024;3;-38.853065;0.0;5.2834544;0;-0.61204326;  1.0045698E+04;  0.0000000E+00;  1.4464399E-04;  1.0000000E+04;  0.0000000E+00;  9.9930176E+03;-0.71425945;0.0;0.1022162;3509.7747
  4.9965420E-01;  9.9999998E-03;  2.4005355E-01;1831;-0.14193843;0.0;0.022533109;1001.98;  4.0000489E-01;1640.3423;3;-40.264328;0.0;5.8104544;0;-0.61581182;  1.0046808E+04;  0.0000000E+00;  3.7880131E-04;  1.0000000E+04;  0.0000000E+00;  9.9926113E+03;-0.71851802;0.0;0.10270619;3714.3542
  4.9965557E-01;  9.9999998E-03;  2.6006258E-01;1832;-0.13971227;0.0;0.024663793;1002.0194;  4.0000483E-01;1673.0326;3;-43.697701;0.0;6.8495178;0;-0.6201461;  1.0047814E+04;  0.0000000E+00;  7.2579284E-04;  1.0000000E+04;  0.0000000E+00;  9.9924004E+03;-0.72272074;0.0;0.10257465;3823.4299
  4.9966136E-01;  9.9999998E-03;  2.8007475E-01;1833;-0.13602318;0.0;0.02709293;1002.0317;  4.0000492E-01;1683.2051;3;-49.364925;0.0;8.651638;0;-0.62180734;  1.0048696E+04;  0.0000000E+00;  8.8414201E-04;  1.0000000E+04;  0.0000000E+00;  9.9917588E+03;-0.7267502;0.0;0.10494286;4136.7627
  4.9967229E-01;  9.9999998E-03;  3.0008698E-01;1834;-0.13068515;0.0;0.029492095;1002.0233;  4.0000480E-01;1676.2917;3;-56.523884;0.0;11.341725;0;-0.62201732;  1.0049442E+04;  0.0000000E+00;  2.4751193E-04;  1.0000000E+04;  0.0000000E+00;  9.9908428E+03;-0.73053581;0.0;0.10851848;4587.792
  5.1963013E-01;  9.9999998E-03;  1.6003832E-01;1858;-0.15614264;0.0;0.016637735;1002.0104;  4.0001345E-01;1665.5242;3;-42.762375;0.0;4.2747564;0;-0.62909007;  1.0045833E+04;  0.0000000E+00;  3.1426385E-05;  1.0000000E+04;  0.0000000E+00;  9.9937490E+03;-0.73943388;0.0;0.11034382;3140.3904
  5.1962179E-01;  9.9999998E-03;  1.8004376E-01;1859;-0.15726952;0.0;0.018811753;1002.0511;  4.0001333E-01;1699.3009;3;-41.839146;0.0;4.5243368;0;-0.63473237;  1.0047017E+04;  0.0000000E+00;  4.2171054E-05;  1.0000000E+04;  0.0000000E+00;  9.9933818E+03;-0.74372417;0.0;0.10899181;3328.6831
  5.1961404E-01;  9.9999998E-03;  2.0004922E-01;1860;-0.15804479;0.0;0.020829543;1002.0891;  4.0001333E-01;1730.7072;3;-41.147655;0.0;4.7349696;0;-0.6399067;  1.0048318E+04;  0.0000000E+00;  8.8350826E-05;  1.0000000E+04;  0.0000000E+00;  9.9928428E+03;-0.74865377;0.0;0.10874708;3599.3313
  5.1960784E-01;  9.9999998E-03;  2.2005501E-01;1861;-0.15817152;0.0;0.022743048;1002.1288;  4.0001330E-01;1763.6937;3;-41.212059;0.0;5.0073814;0;-0.64505339;  1.0049688E+04;  0.0000000E+00;  2.4740573E-04;  1.0000000E+04;  0.0000000E+00;  9.9922803E+03;-0.75430995;0.0;0.10925654;3885.1563
  5.1960433E-01;  9.9999998E-03;  2.4006185E-01;1862;-0.15728532;0.0;0.024602899;1002.1803;  4.0001333E-01;1806.359;3;-42.787296;0.0;5.5361209;0;-0.65208364;  1.0051062E+04;  0.0000000E+00;  5.9959327E-04;  1.0000000E+04;  0.0000000E+00;  9.9919424E+03;-0.76059341;0.0;0.1085098;4056.3936
  5.1960456E-01;  9.9999998E-03;  2.6007161E-01;1863;-0.15501517;0.0;0.026963482;1002.2449;  4.0001324E-01;1859.8881;3;-46.645374;0.0;6.652926;0;-0.66031033;  1.0052363E+04;  0.0000000E+00;  1.0840427E-03;  1.0000000E+04;  0.0000000E+00;  9.9919258E+03;-0.76729709;0.0;0.10698675;4069.9619
  5.1960945E-01;  9.9999998E-03;  2.8008652E-01;1864;-0.15124708;0.0;0.029859312;1002.2677;  4.0001333E-01;1878.7516;3;-53.038498;0.0;8.6091328;0;-0.66341287;  1.0053560E+04;  0.0000000E+00;  1.2312818E-03;  1.0000000E+04;  0.0000000E+00;  9.9911836E+03;-0.77412826;0.0;0.1107154;4433.0132
  5.1961970E-01;  9.9999998E-03;  3.0010143E-01;1865;-0.1457814;0.0;0.032521613;1002.2565;  4.0001333E-01;1869.468;3;-61.173512;0.0;11.638324;0;-0.66636652;  1.0054606E+04;  0.0000000E+00;  2.1534759E-04;  1.0000000E+04;  0.0000000E+00;  9.9899219E+03;-0.78075188;0.0;0.11438538;5056.7832
  5.3958082E-01;  9.9999998E-03;  1.6004947E-01;1889;-0.17232125;0.0;0.019155743;1002.1406;  4.0003607E-01;1773.3693;3;-45.370136;0.0;3.8701122;0;-0.63942474;  1.0048389E+04;  0.0000000E+00;  5.8570105E-05;  1.0000000E+04;  0.0000000E+00;  9.9926484E+03;-0.76138353;0.0;0.12195877;3680.6934
  5.3957123E-01;  9.9999998E-03;  1.8005553E-01;1890;-0.17350826;0.0;0.021474697;1002.1885;  4.0003586E-01;1813.0715;3;-44.293789;0.0;4.1283226;0;-0.64655459;  1.0049654E+04;  0.0000000E+00;  7.1829207E-05;  1.0000000E+04;  0.0000000E+00;  9.9923535E+03;-0.76576602;0.0;0.11921144;3836.4216
  5.3956205E-01;  9.9999998E-03;  2.0006125E-01;1891;-0.17435575;0.0;0.023525909;1002.2332;  4.0003598E-01;1850.2061;3;-43.496754;0.0;4.3307514;0;-0.65315908;  1.0051079E+04;  0.0000000E+00;  1.5441641E-04;  1.0000000E+04;  0.0000000E+00;  9.9918242E+03;-0.77130085;0.0;0.11814176;4104.7202
  5.3955430E-01;  9.9999998E-03;  2.2006679E-01;1892;-0.17457043;0.0;0.025348201;1002.2817;  4.0003601E-01;1890.3033;3;-43.562603;0.0;4.5426373;0;-0.66020036;  1.0052628E+04;  0.0000000E+00;  4.3161155E-04;  1.0000000E+04;  0.0000000E+00;  9.9912549E+03;-0.77813941;0.0;0.11793908;4392.6587
  5.3954911E-01;  9.9999998E-03;  2.4007310E-01;1893;-0.17378405;0.0;0.027038269;1002.3513;  4.0003595E-01;1947.9803;3;-45.33181;0.0;5.0498719;0;-0.67106074;  1.0054220E+04;  0.0000000E+00;  1.0054936E-03;  1.0000000E+04;  0.0000000E+00;  9.9910576E+03;-0.78617555;0.0;0.11511479;4498.9824
  5.3954744E-01;  9.9999998E-03;  2.6008311E-01;1894;-0.1716112;0.0;0.029523974;1002.449;  4.0003592E-01;2028.8663;3;-49.666637;0.0;6.255578;0;-0.68509501;  1.0055785E+04;  0.0000000E+00;  1.7254009E-03;  1.0000000E+04;  0.0000000E+00;  9.9914395E+03;-0.79514921;0.0;0.11005422;4319.6729
  5.3955013E-01;  9.9999998E-03;  2.8010094E-01;1895;-0.16800664;0.0;0.033015102;1002.4905;  4.0003586E-01;2063.3342;3;-56.916233;0.0;8.3949137;0;-0.69015074;  1.0057262E+04;  0.0000000E+00;  1.8272961E-03;  1.0000000E+04;  0.0000000E+00;  9.9907969E+03;-0.8046158;0.0;0.11446506;4636.417
  5.3955781E-01;  9.9999998E-03;  3.0011919E-01;1896;-0.16282175;0.0;0.03600499;1002.4758;  4.0003589E-01;2051.0879;3;-66.25811;0.0;11.819847;0;-0.69616008;  1.0058587E+04;  0.0000000E+00;  2.3484955E-04;  1.0000000E+04;  0.0000000E+00;  9.9891729E+03;-0.81394333;0.0;0.11778322;5438.8345
  5.5952787E-01;  9.9999998E-03;  1.6006453E-01;1920;-0.18925862;0.0;0.022433219;1002.2664;  4.0009686E-01;1877.6573;3;-47.942127;0.0;3.2922404;0;-0.62271649;  1.0049365E+04;  0.0000000E+00;  7.2821167E-05;  1.0000000E+04;  0.0000000E+00;  9.9911201E+03;-0.75932759;0.0;0.13661109;4423.9668
  5.5951703E-01;  9.9999998E-03;  1.8007164E-01;1921;-0.19046338;0.0;0.024950169;1002.3164;  4.0009671E-01;1919.0385;3;-46.686295;0.0;3.5991359;0;-0.63048041;  1.0050633E+04;  0.0000000E+00;  8.6189844E-05;  1.0000000E+04;  0.0000000E+00;  9.9908594E+03;-0.76328117;0.0;0.13280076;4564.1929
  5.5950648E-01;  9.9999998E-03;  2.0007798E-01;1922;-0.19135544;0.0;0.027078003;1002.3618;  4.0009677E-01;1956.6666;3;-45.766521;0.0;3.7644835;0;-0.63754058;  1.0052103E+04;  0.0000000E+00;  2.4611602E-04;  1.0000000E+04;  0.0000000E+00;  9.9903057E+03;-0.76874268;0.0;0.13120212;4845.7388
  5.5949712E-01;  9.9999998E-03;  2.2008352E-01;1923;-0.19164854;0.0;0.028829807;1002.4128;  4.0009686E-01;1998.9366;3;-45.826088;0.0;3.9375701;0;-0.6455102;  1.0053715E+04;  0.0000000E+00;  7.5645000E-04;  1.0000000E+04;  0.0000000E+00;  9.9897236E+03;-0.77587366;0.0;0.13036343;5142.064
  5.5948979E-01;  9.9999998E-03;  2.4008897E-01;1924;-0.19103155;0.0;0.030220056;1002.4973;  4.0009671E-01;2068.8599;3;-47.835922;0.0;4.3724971;0;-0.65984243;  1.0055407E+04;  0.0000000E+00;  1.7358367E-03;  1.0000000E+04;  0.0000000E+00;  9.9897236E+03;-0.78452885;0.0;0.12468644;5153.4814
  5.5948526E-01;  9.9999998E-03;  2.6009873E-01;1925;-0.18918635;0.0;0.032616377;1002.6321;  4.0009663E-01;2180.6582;3;-52.708115;0.0;5.650156;0;-0.68116421;  1.0057100E+04;  0.0000000E+00;  2.8474112E-03;  1.0000000E+04;  0.0000000E+00;  9.9907197E+03;-0.79446942;0.0;0.11330519;4677.6104
  5.5948412E-01;  9.9999998E-03;  2.8011942E-01;1926;-0.18608363;0.0;0.036761429;1002.702;  4.0009665E-01;2238.5325;3;-60.947849;0.0;8.0047121;0;-0.68904179;  1.0058737E+04;  0.0000000E+00;  2.8242704E-03;  1.0000000E+04;  0.0000000E+00;  9.9904775E+03;-0.80524629;0.0;0.11620452;4798.3276
  5.5948651E-01;  9.9999998E-03;  3.0014142E-01;1927;-0.18177521;0.0;0.040128529;1002.685;  4.0009663E-01;2224.4097;3;-71.765945;0.0;11.885464;0;-0.69806087;  1.0060234E+04;  0.0000000E+00;  3.7525326E-04;  1.0000000E+04;  0.0000000E+00;  9.9886357E+03;-0.81604379;0.0;0.11798292;5712.2446
  5.7947332E-01;  9.9999998E-03;  1.6008377E-01;1951;-0.20630719;0.0;0.026469184;1002.4921;  4.0025809E-01;2064.6064;3;-50.393925;0.0;2.4603264;0;-0.56714869;  1.0047918E+04;  0.0000000E+00;  3.5896155E-05;  1.0000000E+04;  0.0000000E+00;  9.9889951E+03;-0.72301477;0.0;0.1558661;5449.7539
  5.7946140E-01;  9.9999998E-03;  1.8009268E-01;1952;-0.20744172;0.0;0.029327651;1002.5355;  4.0025818E-01;2100.5554;3;-48.925358;0.0;2.8312299;0;-0.57393336;  1.0049094E+04;  0.0000000E+00;  5.4209195E-05;  1.0000000E+04;  0.0000000E+00;  9.9886943E+03;-0.72559762;0.0;0.15166423;5608.9556
  5.7944965E-01;  9.9999998E-03;  2.0010017E-01;1953;-0.20827486;0.0;0.031659231;1002.5712;  4.0025815E-01;2130.1838;3;-47.822495;0.0;3.0816829;0;-0.57970184;  1.0050452E+04;  0.0000000E+00;  3.6638923E-04;  1.0000000E+04;  0.0000000E+00;  9.9880615E+03;-0.72962064;0.0;0.14991881;5928.252
  5.7943869E-01;  9.9999998E-03;  2.2010629E-01;1954;-0.20861091;0.0;0.033402994;1002.6148;  4.0025800E-01;2166.3306;3;-47.827148;0.0;3.2978649;0;-0.58668667;  1.0051938E+04;  0.0000000E+00;  1.2944507E-03;  1.0000000E+04;  0.0000000E+00;  9.9874482E+03;-0.73502636;0.0;0.14833969;6238.9351
  5.7942891E-01;  9.9999998E-03;  2.4011134E-01;1955;-0.20826378;0.0;0.034573227;1002.7039;  4.0025797E-01;2240.1052;3;-50.118565;0.0;3.6252456;0;-0.60225594;  1.0053487E+04;  0.0000000E+00;  2.9691991E-03;  1.0000000E+04;  0.0000000E+00;  9.9876807E+03;-0.74164289;0.0;0.13938698;6138.1885
  5.7942098E-01;  9.9999998E-03;  2.6012117E-01;1956;-0.20691431;0.0;0.036791857;1002.8691;  4.0025795E-01;2376.9885;3;-55.646091;0.0;4.8147879;0;-0.62960112;  1.0055056E+04;  0.0000000E+00;  4.7167456E-03;  1.0000000E+04;  0.0000000E+00;  9.9894072E+03;-0.74950397;0.0;0.11990288;5310.2202
  5.7941455E-01;  9.9999998E-03;  2.8014448E-01;1957;-0.20464404;0.0;0.041472826;1002.9694;  4.0025786E-01;2460.0469;3;-64.942863;0.0;7.469697;0;-0.64091474;  1.0056600E+04;  0.0000000E+00;  4.4421204E-03;  1.0000000E+04;  0.0000000E+00;  9.9898594E+03;-0.75851518;0.0;0.11760046;5090.7202
  5.7940871E-01;  9.9999998E-03;  3.0017000E-01;1958;-0.20185935;0.0;0.045216195;1002.9542;  4.0025771E-01;2447.4053;3;-77.45533;0.0;11.923805;0;-0.65218806;  1.0058036E+04;  0.0000000E+00;  7.5590290E-04;  1.0000000E+04;  0.0000000E+00;  9.9881162E+03;-0.76799607;0.0;0.11580804;5959.127
  5.9942043E-01;  9.9999998E-03;  1.6010669E-01;1982;-0.22241306;0.0;0.031223811;1003.1215;  4.0066820E-01;2586.0549;3;-52.565006;0.0;1.4011461;0;-0.45592546;  1.0042896E+04;  0.0000000E+00; -9.1282447E-05;  1.0000000E+04;  0.0000000E+00;  9.9861113E+03;-0.63712239;0.0;0.18119693;6827.8989
  5.9940737E-01;  9.9999998E-03;  1.8011756E-01;1983;-0.22350748;0.0;0.034406751;1003.1459;  4.0066791E-01;2606.301;3;-50.901337;0.0;1.8098931;0;-0.45958549;  1.0043818E+04;  0.0000000E+00; -5.2874391E-05;  1.0000000E+04;  0.0000000E+00;  9.9856953E+03;-0.63672858;0.0;0.17714308;7043.0313
  5.9939444E-01;  9.9999998E-03;  2.0012712E-01;1984;-0.2242945;0.0;0.036995653;1003.1597;  4.0066788E-01;2617.6584;3;-49.626442;0.0;2.1399674;0;-0.46158916;  1.0044847E+04;  0.0000000E+00;  5.2269537E-04;  1.0000000E+04;  0.0000000E+00;  9.9849512E+03;-0.63676894;0.0;0.17517976;7415.9961
  5.9938198E-01;  9.9999998E-03;  2.2013506E-01;1985;-0.22465552;0.0;0.03894943;1003.1816;  4.0066794E-01;2635.8306;3;-49.556499;0.0;2.3813469;0;-0.46478766;  1.0045917E+04;  0.0000000E+00;  2.1391246E-03;  1.0000000E+04;  0.0000000E+00;  9.9843271E+03;-0.63689584;0.0;0.17210816;7731.1567
  5.9937018E-01;  9.9999998E-03;  2.4014167E-01;1986;-0.22436067;0.0;0.040352758;1003.2595;  4.0066761E-01;2700.3215;3;-51.960964;0.0;2.9342415;0;-0.47807723;  1.0046991E+04;  0.0000000E+00;  4.9256147E-03;  1.0000000E+04;  0.0000000E+00;  9.9848145E+03;-0.63722205;0.0;0.15914483;7507.4136
  5.9935892E-01;  9.9999998E-03;  2.6015407E-01;1987;-0.2234199;0.0;0.043062836;1003.4275;  4.0066734E-01;2839.5742;3;-58.260899;0.0;3.9251926;0;-0.50358164;  1.0048072E+04;  0.0000000E+00;  7.6605855E-03;  1.0000000E+04;  0.0000000E+00;  9.9870781E+03;-0.63843328;0.0;0.13485163;6418.5806
  5.9934646E-01;  9.9999998E-03;  2.8018007E-01;1988;-0.22231737;0.0;0.047779933;1003.5381;  4.0066713E-01;2931.2244;3;-68.631401;0.0;6.8338332;0;-0.51810515;  1.0049157E+04;  0.0000000E+00;  6.9821314E-03;  1.0000000E+04;  0.0000000E+00;  9.9881953E+03;-0.64109111;0.0;0.12298593;5878.5693
  5.9933108E-01;  9.9999998E-03;  3.0020797E-01;1989;-0.22143981;0.0;0.051693764;1003.5287;  4.0066683E-01;2923.4224;3;-82.939362;0.0;12.084048;0;-0.53092909;  1.0050199E+04;  0.0000000E+00;  1.5339802E-03;  1.0000000E+04;  0.0000000E+00;  9.9869697E+03;-0.64495617;0.0;0.11402711;6495.77
  6.1937261E-01;  9.9999998E-03;  1.6013303E-01;2013;-0.23656993;0.0;0.036333714;1004.7745;  4.0160823E-01;3955.5491;3;-54.367069;0.0;-0.034910716;0;-0.2642467;  1.0032746E+04;  0.0000000E+00; -3.1932388E-04;  1.0000000E+04;  0.0000000E+00;  9.9824043E+03;-0.47753957;0.0;0.21329288;8586.2705
  6.1935812E-01;  9.9999998E-03;  1.8014598E-01;2014;-0.23768388;0.0;0.039845128;1004.7689;  4.0160778E-01;3950.9072;3;-52.518383;0.0;0.47011459;0;-0.26272207;  1.0033222E+04;  0.0000000E+00; -2.2083250E-04;  1.0000000E+04;  0.0000000E+00;  9.9818320E+03;-0.47187853;0.0;0.20915645;8875.6475
  6.1934364E-01;  9.9999998E-03;  2.0015804E-01;2015;-0.23857562;0.0;0.042865336;1004.7477;  4.0160757E-01;3933.3279;3;-51.105434;0.0;0.82520479;0;-0.25867188;  1.0033652E+04;  0.0000000E+00;  7.7743188E-04;  1.0000000E+04;  0.0000000E+00;  9.9810029E+03;-0.46460041;0.0;0.20592852;9291.0049
  6.1932975E-01;  9.9999998E-03;  2.2016977E-01;2016;-0.23895711;0.0;0.04552196;1004.7354;  4.0160736E-01;3923.1555;3;-50.998516;0.0;1.2703439;0;-0.25568414;  1.0033983E+04;  0.0000000E+00;  3.4133620E-03;  1.0000000E+04;  0.0000000E+00;  9.9804482E+03;-0.45533755;0.0;0.19965343;9573.3457
  6.1931562E-01;  9.9999998E-03;  2.4018131E-01;2017;-0.23896106;0.0;0.047580823;1004.7834;  4.0160692E-01;3962.8572;3;-53.520187;0.0;1.9687194;0;-0.26373175;  1.0034217E+04;  0.0000000E+00;  7.7362712E-03;  1.0000000E+04;  0.0000000E+00;  9.9811719E+03;-0.4448784;0.0;0.18114665;9235.585
  6.1930150E-01;  9.9999998E-03;  2.6020038E-01;2018;-0.23826072;0.0;0.051588032;1004.909;  4.0160641E-01;4066.9507;3;-60.042507;0.0;3.7000141;0;-0.2803368;  1.0034439E+04;  0.0000000E+00;  1.1684521E-02;  1.0000000E+04;  0.0000000E+00;  9.9834541E+03;-0.43477938;0.0;0.15444259;8134.5098
  6.1928576E-01;  9.9999998E-03;  2.8023180E-01;2019;-0.23751786;0.0;0.056980208;1004.9593;  4.0160576E-01;4108.6274;3;-71.603294;0.0;6.4486074;0;-0.28189987;  1.0034700E+04;  0.0000000E+00;  1.0467315E-02;  1.0000000E+04;  0.0000000E+00;  9.9841943E+03;-0.42632374;0.0;0.14442386;7775.4214
  6.1926252E-01;  9.9999998E-03;  3.0025995E-01;2020;-0.23844209;0.0;0.060373675;1004.947;  4.0160507E-01;4098.4551;3;-87.547081;0.0;12.247757;0;-0.29544607;  1.0034979E+04;  0.0000000E+00;  2.7380234E-03;  1.0000000E+04;  0.0000000E+00;  9.9837061E+03;-0.41975331;0.0;0.12430725;8035.5044
  6.3933200E-01;  9.9999998E-03;  1.6016199E-01;2044;-0.24815758;0.0;0.041469552;1008.0231;  4.0333632E-01;6646.813;3;-55.735481;0.0;-1.8412733;0;0.034958586;  1.0015973E+04;  0.0000000E+00; -5.6773459E-04;  1.0000000E+04;  0.0000000E+00;  9.9779512E+03;-0.21641906;0.0;0.25137764;10678.759
  6.3931650E-01;  9.9999998E-03;  1.8017790E-01;2045;-0.24926059;0.0;0.045477398;1007.9792;  4.0333599E-01;6610.4692;3;-53.747288;0.0;-1.1964619;0;0.042244598;  1.0015808E+04;  0.0000000E+00; -3.2070905E-04;  1.0000000E+04;  0.0000000E+00;  9.9772695E+03;-0.20342553;0.0;0.24567012;11022.753
  6.3930011E-01;  9.9999998E-03;  2.0019357E-01;2046;-0.25034955;0.0;0.049254593;1007.9163;  4.0333539E-01;6558.3242;3;-52.209606;0.0;-0.66925496;0;0.052570254;  1.0015412E+04;  0.0000000E+00;  1.2713481E-03;  1.0000000E+04;  0.0000000E+00;  9.9764512E+03;-0.18629974;0.0;0.23886999;11433.309
  6.3928419E-01;  9.9999998E-03;  2.2021168E-01;2047;-0.25101292;0.0;0.053048067;1007.863;  4.0333498E-01;6514.1787;3;-52.04525;0.0;-0.013943747;0;0.061539531;  1.0014748E+04;  0.0000000E+00;  5.1301215E-03;  1.0000000E+04;  0.0000000E+00;  9.9760801E+03;-0.16498713;0.0;0.22652666;11628.384
  6.3926917E-01;  9.9999998E-03;  2.4023670E-01;2048;-0.25114962;0.0;0.0577338;1007.8468;  4.0333432E-01;6500.7476;3;-54.795155;0.0;1.1706226;0;0.064283878;  1.0013904E+04;  0.0000000E+00;  1.1045951E-02;  1.0000000E+04;  0.0000000E+00;  9.9766201E+03;-0.14104193;0.0;0.20532581;11381.092
  6.3925457E-01;  9.9999998E-03;  2.6026973E-01;2049;-0.25043839;0.0;0.063885234;1007.8375;  4.0333366E-01;6493.0439;3;-61.659309;0.0;3.5655975;0;0.070067577;  1.0013014E+04;  0.0000000E+00;  1.5960945E-02;  1.0000000E+04;  0.0000000E+00;  9.9773320E+03;-0.11677685;0.0;0.18684442;11042.91
  6.3923723E-01;  9.9999998E-03;  2.8030312E-01;2050;-0.24963133;0.0;0.06949228;1007.7761;  4.0333286E-01;6442.1831;3;-74.005249;0.0;6.5563745;0;0.091893524;  1.0012171E+04;  0.0000000E+00;  1.3810081E-02;  1.0000000E+04;  0.0000000E+00;  9.9769688E+03;-0.094008207;0.0;0.18590173;11213.58
  6.3921171E-01;  9.9999998E-03;  3.0032900E-01;2051;-0.25069648;0.0;0.071538828;1007.7345;  4.0333158E-01;6407.7158;3;-90.75679;0.0;12.620638;0;0.078399934;  1.0011399E+04;  0.0000000E+00;  3.9217700E-03;  1.0000000E+04;  0.0000000E+00;  9.9769736E+03;-0.073370911;0.0;0.15177085;11239.054
  6.5930235E-01;  9.9999998E-03;  1.6019583E-01;2075;-0.25653559;0.0;0.047007725;1012.0189;  4.0552068E-01;9957.0254;3;-56.654068;0.0;-3.9990604;0;0.45604891;  9.9920244E+03;  0.0000000E+00; -6.5231911E-04;  1.0000000E+04;  0.0000000E+00;  9.9730352E+03;0.16320406;0.0;0.29284483;12969.513
  6.5928656E-01;  9.9999998E-03;  1.8021628E-01;2076;-0.25749591;0.0;0.051896919;1011.9385;  4.0552020E-01;9890.4619;3;-54.528305;0.0;-3.0941331;0;0.46662229;  9.9911172E+03;  0.0000000E+00; -1.4225423E-04;  1.0000000E+04;  0.0000000E+00;  9.9723799E+03;0.1838652;0.0;0.28275707;13303.083
  6.5926993E-01;  9.9999998E-03;  2.0023967E-01;2077;-0.2584177;0.0;0.057342038;1011.8374;  4.0552002E-01;9806.6162;3;-52.847904;0.0;-2.1179736;0;0.47999212;  9.9898066E+03;  0.0000000E+00;  2.0774039E-03;  1.0000000E+04;  0.0000000E+00;  9.9717080E+03;0.21065208;0.0;0.26934004;13643.785
  6.5925437E-01;  9.9999998E-03;  2.2027230E-01;2078;-0.25877067;0.0;0.064346641;1011.7357;  4.0551963E-01;9722.375;3;-52.569599;0.0;-0.76754415;0;0.49377301;  9.9881143E+03;  0.0000000E+00;  6.9258218E-03;  1.0000000E+04;  0.0000000E+00;  9.9714033E+03;0.24321178;0.0;0.25056124;13810.657
  6.5924120E-01;  9.9999998E-03;  2.4031803E-01;2079;-0.25818947;0.0;0.073440351;1011.6091;  4.0551934E-01;9617.4941;3;-55.155487;0.0;1.4707859;0;0.51466429;  9.9861602E+03;  0.0000000E+00;  1.3758470E-02;  1.0000000E+04;  0.0000000E+00;  9.9708506E+03;0.27958456;0.0;0.23507972;14091.742
  6.5922689E-01;  9.9999998E-03;  2.6036093E-01;2080;-0.25738898;0.0;0.08017157;1011.4162;  4.0551922E-01;9457.7021;3;-62.094112;0.0;4.2526436;0;0.54644644;  9.9841182E+03;  0.0000000E+00;  1.8606899E-02;  1.0000000E+04;  0.0000000E+00;  9.9690732E+03;0.31720454;0.0;0.22924188;14970.977
  6.5920860E-01;  9.9999998E-03;  2.8038713E-01;2081;-0.25615531;0.0;0.084985837;1011.2626;  4.0551880E-01;9330.4033;3;-74.88974;0.0;7.3710036;0;0.5961225;  9.9821113E+03;  0.0000000E+00;  1.4927990E-02;  1.0000000E+04;  0.0000000E+00;  9.9680537E+03;0.35411629;0.0;0.24200618;15443.074
  6.5918469E-01;  9.9999998E-03;  3.0040950E-01;2082;-0.25675243;0.0;0.084241062;1011.1685;  4.0551752E-01;9252.4824;3;-92.353691;0.0;12.853727;0;0.5716508;  9.9802041E+03;  0.0000000E+00;  3.7300445E-03;  1.0000000E+04;  0.0000000E+00;  9.9681572E+03;0.38909486;0.0;0.18255593;15449.374
  6.7929107E-01;  9.9999998E-03;  1.6024265E-01;2106;-0.2596865;0.0;0.056280214;1014.6386;  4.0727472E-01;12127.162;3;-57.007679;0.0;-6.2082419;0;0.98239553;  9.9623203E+03;  0.0000000E+00; -4.3834109E-04;  1.0000000E+04;  0.0000000E+00;  9.9680967E+03;0.64890444;0.0;0.33349109;15247.685
  6.7927563E-01;  9.9999998E-03;  1.8026957E-01;2107;-0.2604076;0.0;0.062664047;1014.535;  4.0727481E-01;12041.342;3;-54.645653;0.0;-4.8530836;0;0.99038512;  9.9607119E+03;  0.0000000E+00;  3.5590227E-04;  1.0000000E+04;  0.0000000E+00;  9.9676660E+03;0.67474598;0.0;0.31563914;15473.506
  6.7925984E-01;  9.9999998E-03;  2.0030311E-01;2108;-0.26094967;0.0;0.070391923;1014.4099;  4.0727508E-01;11937.647;3;-52.79488;0.0;-3.2491879;0;1.0004246;  9.9586279E+03;  0.0000000E+00;  2.9176597E-03;  1.0000000E+04;  0.0000000E+00;  9.9672881E+03;0.70713699;0.0;0.29328761;15679.939
  6.7924678E-01;  9.9999998E-03;  2.2035214E-01;2109;-0.26050672;0.0;0.081121229;1014.2643;  4.0727520E-01;11817.065;3;-52.250946;0.0;-0.86607289;0;1.0150568;  9.9561211E+03;  0.0000000E+00;  7.9201991E-03;  1.0000000E+04;  0.0000000E+00;  9.9669180E+03;0.74555683;0.0;0.26950002;15879.78
  6.7923737E-01;  9.9999998E-03;  2.4041303E-01;2110;-0.25887209;0.0;0.092884958;1014.0299;  4.0727586E-01;11622.81;3;-54.37249;0.0;1.7941176;0;1.0508064;  9.9533252E+03;  0.0000000E+00;  1.4256620E-02;  1.0000000E+04;  0.0000000E+00;  9.9650732E+03;0.78835475;0.0;0.26245162;16792.666
  6.7922378E-01;  9.9999998E-03;  2.6045004E-01;2111;-0.25807905;0.0;0.096716955;1013.7361;  4.0727657E-01;11379.473;3;-61.093536;0.0;5.2271624;0;1.089103;  9.9503965E+03;  0.0000000E+00;  1.7489349E-02;  1.0000000E+04;  0.0000000E+00;  9.9621738E+03;0.8334251;0.0;0.25567785;18224.787
  6.7920649E-01;  9.9999998E-03;  2.8046519E-01;2112;-0.25554377;0.0;0.099735826;1013.5589;  4.0727672E-01;11232.622;3;-73.067024;0.0;7.1916513;0;1.1530426;  9.9474648E+03;  0.0000000E+00;  1.1883864E-02;  1.0000000E+04;  0.0000000E+00;  9.9615967E+03;0.87904447;0.0;0.27399814;18468.443
  6.7919481E-01;  9.9999998E-03;  3.0048430E-01;2113;-0.25219777;0.0;0.094467454;1013.4258;  4.0727627E-01;11122.409;3;-89.021942;0.0;11.524247;0;1.0854396;  9.9446973E+03;  0.0000000E+00;  1.3980537E-03;  1.0000000E+04;  0.0000000E+00;  9.9617549E+03;0.92273843;0.0;0.1627011;18514.84
  6.9931263E-01;  9.9999998E-03;  1.6030757E-01;2137;-0.2536253;0.0;0.073846817;1015.213;  4.0824023E-01;12602.721;3;-56.218231;0.0;-7.2028694;0;1.5542024;  9.9307813E+03;  0.0000000E+00; -4.5892361E-05;  1.0000000E+04;  0.0000000E+00;  9.9636543E+03;1.185752;0.0;0.36845043;17275.92
  6.9929910E-01;  9.9999998E-03;  1.8034266E-01;2138;-0.25350776;0.0;0.082442366;1015.1053;  4.0824094E-01;12513.545;3;-53.449585;0.0;-5.0557356;0;1.5520332;  9.9286523E+03;  0.0000000E+00;  8.5130509E-04;  1.0000000E+04;  0.0000000E+00;  9.9636553E+03;1.2116452;0.0;0.34038788;17300.402
  6.9928604E-01;  9.9999998E-03;  2.0038600E-01;2139;-0.25305918;0.0;0.092896521;1014.9755;  4.0824148E-01;12405.902;3;-51.138912;0.0;-2.4244475;0;1.551955;  9.9261270E+03;  0.0000000E+00;  3.1840974E-03;  1.0000000E+04;  0.0000000E+00;  9.9636182E+03;1.2422276;0.0;0.30972743;17343.996
  6.9927758E-01;  9.9999998E-03;  2.2044380E-01;2140;-0.25125957;0.0;0.10527449;1014.805;  4.0824214E-01;12264.683;3;-49.881836;0.0;0.24944174;0;1.5631218;  9.9232676E+03;  0.0000000E+00;  7.2948788E-03;  1.0000000E+04;  0.0000000E+00;  9.9630996E+03;1.2770249;0.0;0.2860969;17615.508
  6.9927329E-01;  9.9999998E-03;  2.4050109E-01;2141;-0.24889152;0.0;0.11331887;1014.5245;  4.0824339E-01;12032.411;3;-51.251274;0.0;1.9381796;0;1.5976827;  9.9201846E+03;  0.0000000E+00;  1.1903560E-02;  1.0000000E+04;  0.0000000E+00;  9.9606309E+03;1.3153592;0.0;0.28232354;18833.432
  6.9926202E-01;  9.9999998E-03;  2.6052317E-01;2142;-0.24870169;0.0;0.11025725;1014.2297;  4.0824458E-01;11788.189;3;-57.803795;0.0;5.3743558;0;1.6100662;  9.9169844E+03;  0.0000000E+00;  1.2883927E-02;  1.0000000E+04;  0.0000000E+00;  9.9579854E+03;1.3561919;0.0;0.25387424;20167.563
  6.9926357E-01;  9.9999998E-03;  2.8052571E-01;2143;-0.23977351;0.0;0.11175433;1014.1269;  4.0824515E-01;11702.964;3;-67.032852;0.0;8.4012308;0;1.6670599;  9.9138037E+03;  0.0000000E+00;  7.6086586E-03;  1.0000000E+04;  0.0000000E+00;  9.9591016E+03;1.3980222;0.0;0.26903769;19566.375
  6.9931072E-01;  9.9999998E-03;  3.0054218E-01;2144;-0.21432079;0.0;0.10468887;1014.0199;  4.0824538E-01;11614.282;3;-72.28006;0.0;12.651426;0;1.5821664;  9.9109189E+03;  0.0000000E+00;  4.0968517E-03;  1.0000000E+04;  0.0000000E+00;  9.9598262E+03;1.4367518;0.0;0.14541458;19346.648
  7.1941662E-01;  9.9999998E-03;  1.6038319E-01;2168;-0.22532149;0.0;0.10397083;1014.6851;  4.0866539E-01;12165.104;3;-50.974529;0.0;-3.1156898;0;2.0736742;  9.9032393E+03;  0.0000000E+00;  2.3658991E-04;  1.0000000E+04;  0.0000000E+00;  9.9601602E+03;1.679878;0.0;0.39379618;18861.607
  7.1940386E-01;  9.9999998E-03;  1.8042412E-01;2169;-0.22462206;0.0;0.1136159;1014.5917;  4.0866625E-01;12087.682;3;-47.950302;0.0;-0.669267;0;2.0554738;  9.9008643E+03;  0.0000000E+00;  9.4326568E-04;  1.0000000E+04;  0.0000000E+00;  9.9606787E+03;1.6996913;0.0;0.35578251;18637.809
  7.1939290E-01;  9.9999998E-03;  2.0047189E-01;2170;-0.22307447;0.0;0.12398305;1014.4772;  4.0866709E-01;11992.88;3;-45.089008;0.0;0.94347149;0;2.0404415;  9.8983057E+03;  0.0000000E+00;  2.5450571E-03;  1.0000000E+04;  0.0000000E+00;  9.9609736E+03;1.7199044;0.0;0.32053703;18521.158
  7.1938819E-01;  9.9999998E-03;  2.2052228E-01;2171;-0.21988811;0.0;0.12947251;1014.3197;  4.0866774E-01;11862.329;3;-43.75914;0.0;0.88299793;0;2.0373566;  9.8956758E+03;  0.0000000E+00;  5.2230959E-03;  1.0000000E+04;  0.0000000E+00;  9.9604834E+03;1.7398858;0.0;0.29747081;18779.211
  7.1939725E-01;  9.9999998E-03;  2.4056233E-01;2172;-0.21196927;0.0;0.12839951;1014.0773;  4.0866894E-01;11661.565;3;-44.346569;0.0;1.800702;0;2.0458491;  9.8930498E+03;  0.0000000E+00;  8.2704220E-03;  1.0000000E+04;  0.0000000E+00;  9.9583105E+03;1.7599517;0.0;0.2858974;19860.818
  7.1942329E-01;  9.9999998E-03;  2.6057023E-01;2173;-0.19524422;0.0;0.12110236;1013.8796;  4.0867046E-01;11497.834;3;-44.701866;0.0;5.675271;0;2.0256028;  9.8904668E+03;  0.0000000E+00;  1.0427258E-02;  1.0000000E+04;  0.0000000E+00;  9.9569443E+03;1.7803866;0.0;0.24521619;20575.121
  7.1946841E-01;  9.9999998E-03;  2.8056833E-01;2174;-0.17009395;0.0;0.11980303;1013.8828;  4.0867075E-01;11500.4;3;-44.718117;0.0;7.4427872;0;2.0371809;  9.8880498E+03;  0.0000000E+00;  1.1025604E-02;  1.0000000E+04;  0.0000000E+00;  9.9593711E+03;1.7998716;0.0;0.23730929;19358.514
  7.1952671E-01;  9.9999998E-03;  3.0058506E-01;2175;-0.14268409;0.0;0.11189736;1013.8268;  4.0867072E-01;11454.085;3;-45.592171;0.0;14.104077;0;1.9150951;  9.8860146E+03;  0.0000000E+00;  7.8782924E-03;  1.0000000E+04;  0.0000000E+00;  9.9602715E+03;1.8152864;0.0;0.099808738;19070.334
  7.3962218E-01;  9.9999998E-03;  1.6040581E-01;2199;-0.14800228;0.0;0.10833064;1014.0613;  4.0883386E-01;11647.902;3;-33.50946;0.0;-5.1228232;0;2.4357381;  9.8852490E+03;  0.0000000E+00;  2.7887872E-04;  1.0000000E+04;  0.0000000E+00;  9.9578115E+03;2.0273323;0.0;0.40840566;19923.031
  7.3961449E-01;  9.9999998E-03;  1.8044628E-01;2200;-0.14661777;0.0;0.11725662;1013.9962;  4.0883443E-01;11593.986;3;-30.975254;0.0;-2.6738958;0;2.3984482;  9.8828965E+03;  0.0000000E+00;  6.4194767E-04;  1.0000000E+04;  0.0000000E+00;  9.9588555E+03;2.0367272;0.0;0.36172113;19447.176
  7.3960876E-01;  9.9999998E-03;  2.0049138E-01;2201;-0.14446443;0.0;0.12652968;1013.928;  4.0883541E-01;11537.503;3;-28.791805;0.0;-0.14116798;0;2.3579898;  9.8806709E+03;  0.0000000E+00;  1.4414646E-03;  1.0000000E+04;  0.0000000E+00;  9.9597285E+03;2.0407085;0.0;0.31728131;19057.072
  7.3960942E-01;  9.9999998E-03;  2.2053796E-01;2202;-0.13994324;0.0;0.13092211;1013.8445;  4.0883616E-01;11468.279;3;-27.09763;0.0;0.67544645;0;2.3203523;  9.8787246E+03;  0.0000000E+00;  2.9037162E-03;  1.0000000E+04;  0.0000000E+00;  9.9600166E+03;2.0382648;0.0;0.28208759;18948.084
  7.3962098E-01;  9.9999998E-03;  2.4057461E-01;2203;-0.13135138;0.0;0.12948717;1013.7225;  4.0883714E-01;11367.16;3;-26.073116;0.0;1.8526716;0;2.2824986;  9.8771318E+03;  0.0000000E+00;  4.9936967E-03;  1.0000000E+04;  0.0000000E+00;  9.9591777E+03;2.0301356;0.0;0.25236303;19393.236
  7.3964363E-01;  9.9999998E-03;  2.6058593E-01;2204;-0.118487;0.0;0.12449903;1013.6625;  4.0883818E-01;11317.489;3;-26.053387;0.0;5.9448295;0;2.2215202;  9.8758623E+03;  0.0000000E+00;  7.1860431E-03;  1.0000000E+04;  0.0000000E+00;  9.9592207E+03;2.0181289;0.0;0.20339134;19422.561
  7.3967510E-01;  9.9999998E-03;  2.8059667E-01;2205;-0.10234123;0.0;0.1270327;1013.6764;  4.0883827E-01;11329.042;3;-26.283056;0.0;5.1290445;0;2.2372;  9.8748877E+03;  0.0000000E+00;  7.5130593E-03;  1.0000000E+04;  0.0000000E+00;  9.9604453E+03;2.0040438;0.0;0.23315628;18769.707
  7.3971373E-01;  9.9999998E-03;  3.0061680E-01;2206;-0.08529143;0.0;0.11571325;1013.6548;  4.0883806E-01;11311.168;3;-26.960091;0.0;11.670567;0;2.0325172;  9.8741699E+03;  0.0000000E+00;  1.7293884E-03;  1.0000000E+04;  0.0000000E+00;  9.9607227E+03;1.9896539;0.0;0.042863213;18868.15
  7.5978702E-01;  9.9999998E-03;  1.6041480E-01;2230;-0.085659593;0.0;0.10689512;1013.8111;  4.0889710E-01;11440.061;3;-20.122934;0.0;-8.3935099;0;2.5953736;  9.8786230E+03;  0.0000000E+00;  1.6965102E-04;  1.0000000E+04;  0.0000000E+00;  9.9565273E+03;2.1807828;0.0;0.41459078;20508.406
  7.5978434E-01;  9.9999998E-03;  1.8045288E-01;2231;-0.083765984;0.0;0.11449627;1013.775;  4.0889782E-01;11410.141;3;-18.284611;0.0;-6.1392069;0;2.5430081;  9.8764961E+03;  0.0000000E+00;  2.6393344E-04;  1.0000000E+04;  0.0000000E+00;  9.9579150E+03;2.1790688;0.0;0.3639392;19867.166
  7.5978327E-01;  9.9999998E-03;  2.0049439E-01;2232;-0.081425786;0.0;0.12242564;1013.7515;  4.0889877E-01;11390.688;3;-16.811338;0.0;-3.3401237;0;2.4814167;  9.8747852E+03;  0.0000000E+00;  4.9743027E-04;  1.0000000E+04;  0.0000000E+00;  9.9591416E+03;2.1666915;0.0;0.31472525;19309.697
  7.5978619E-01;  9.9999998E-03;  2.2053847E-01;2233;-0.077860668;0.0;0.12755348;1013.7382;  4.0889946E-01;11379.728;3;-15.776482;0.0;-0.63564724;0;2.4139512;  9.8736758E+03;  0.0000000E+00;  9.8754885E-04;  1.0000000E+04;  0.0000000E+00;  9.9599697E+03;2.1424956;0.0;0.27145559;18945.564
  7.5979501E-01;  9.9999998E-03;  2.4057466E-01;2234;-0.072373725;0.0;0.12771568;1013.723;  4.0890011E-01;11367.088;3;-15.358065;0.0;1.9389253;0;2.3374095;  9.8732031E+03;  0.0000000E+00;  1.7634273E-03;  1.0000000E+04;  0.0000000E+00;  9.9601074E+03;2.1080143;0.0;0.22939505;18926.727
  7.5980937E-01;  9.9999998E-03;  2.6059207E-01;2235;-0.065005906;0.0;0.126118;1013.7729;  4.0890080E-01;11408.362;3;-15.559169;0.0;6.5492811;0;2.2461431;  9.8732754E+03;  0.0000000E+00;  2.4601328E-03;  1.0000000E+04;  0.0000000E+00;  9.9609814E+03;2.0669558;0.0;0.17918727;18550.629
  7.5982708E-01;  9.9999998E-03;  2.8061718E-01;2236;-0.056596369;0.0;0.13341127;1013.7599;  4.0890065E-01;11397.697;3;-16.178553;0.0;3.4978497;0;2.2833424;  9.8736924E+03;  0.0000000E+00;  1.5035481E-03;  1.0000000E+04;  0.0000000E+00;  9.9602891E+03;2.0240674;0.0;0.25927487;18795.322
  7.5984919E-01;  9.9999998E-03;  3.0063969E-01;2237;-0.04767181;0.0;0.11879685;1013.7863;  4.0890041E-01;11419.421;3;-16.980648;0.0;9.192317;0;2.0004284;  9.8742188E+03;  0.0000000E+00; -3.7671025E-03;  1.0000000E+04;  0.0000000E+00;  9.9602715E+03;1.9848146;0.0;0.015613807;19122.939
  7.7991045E-01;  9.9999998E-03;  1.6041686E-01;2261;-0.039809238;0.0;0.10447107;1013.9492;  4.0891987E-01;11553.629;3;-11.185317;0.0;-10.746172;0;2.5971534;  9.8807236E+03;  0.0000000E+00;  5.4920947E-05;  1.0000000E+04;  0.0000000E+00;  9.9560244E+03;2.180572;0.0;0.41658136;20738.125
  7.7991086E-01;  9.9999998E-03;  1.8045282E-01;2262;-0.038234029;0.0;0.11116736;1013.9333;  4.0892065E-01;11540.497;3;-10.252882;0.0;-8.5303469;0;2.5377178;  9.8788779E+03;  0.0000000E+00;  4.2925949E-05;  1.0000000E+04;  0.0000000E+00;  9.9575361E+03;2.1710942;0.0;0.36662358;20038.951
  7.7991229E-01;  9.9999998E-03;  2.0049210E-01;2263;-0.036556963;0.0;0.11842695;1013.9384;  4.0892133E-01;11544.644;3;-9.6289349;0.0;-5.6783137;0;2.4655733;  9.8776523E+03;  0.0000000E+00;  4.7449517E-05;  1.0000000E+04;  0.0000000E+00;  9.9588320E+03;2.1476669;0.0;0.31790629;19446.502
  7.7991551E-01;  9.9999998E-03;  2.2053565E-01;2264;-0.034526668;0.0;0.12425876;1013.9678;  4.0892190E-01;11569.131;3;-9.3728161;0.0;-2.2484007;0;2.3819251;  9.8772227E+03;  0.0000000E+00;  9.1869057E-05;  1.0000000E+04;  0.0000000E+00;  9.9598135E+03;2.1092317;0.0;0.27269343;19012.84
  7.7992088E-01;  9.9999998E-03;  2.4057318E-01;2265;-0.0320573;0.0;0.1265443;1014.014;  4.0892240E-01;11607.341;3;-9.5181808;0.0;1.8764724;0;2.2856038;  9.8776074E+03;  0.0000000E+00;  1.6140706E-04;  1.0000000E+04;  0.0000000E+00;  9.9603037E+03;2.0580397;0.0;0.22756408;18824.523
  7.7992749E-01;  9.9999998E-03;  2.6059625E-01;2266;-0.029349601;0.0;0.12875091;1014.1195;  4.0892297E-01;11694.724;3;-10.051037;0.0;8.2199373;0;2.1870074;  9.8786348E+03;  0.0000000E+00;  6.8480200E-05;  1.0000000E+04;  0.0000000E+00;  9.9613115E+03;1.9990438;0.0;0.1879636;18374.41
  7.7993405E-01;  9.9999998E-03;  2.8063059E-01;2267;-0.026719838;0.0;0.13745573;1014.085;  4.0892291E-01;11666.188;3;-10.887121;0.0;2.1128092;0;2.2257247;  9.8800342E+03;  0.0000000E+00; -7.8807160E-04;  1.0000000E+04;  0.0000000E+00;  9.9592119E+03;1.938544;0.0;0.28718072;19301.922
  7.7994257E-01;  9.9999998E-03;  3.0065468E-01;2268;-0.023790134;0.0;0.12117349;1014.1521;  4.0892249E-01;11721.679;3;-11.770676;0.0;8.0324678;0;1.8951186;  9.8814648E+03;  0.0000000E+00; -3.1725697E-03;  1.0000000E+04;  0.0000000E+00;  9.9590889E+03;1.883521;0.0;0.011597631;19728.74
  8.0001163E-01;  9.9999998E-03;  1.6041441E-01;2292;-0.0018036456;0.0;0.10219391;1014.3066;  4.0892631E-01;11848.567;3;-3.7255666;0.0;-11.833478;0;2.5167363;  9.8873486E+03;  0.0000000E+00;  3.2355867E-06;  1.0000000E+04;  0.0000000E+00;  9.9560273E+03;2.0988717;0.0;0.4178645;20729.316
  8.0001420E-01;  9.9999998E-03;  1.8044916E-01;2293;-0.00079424342;0.0;0.10859536;1014.2974;  4.0892705E-01;11840.965;3;-3.6347556;0.0;-9.4909735;0;2.4591651;  9.8856992E+03;  0.0000000E+00; -7.9611091E-06;  1.0000000E+04;  0.0000000E+00;  9.9574688E+03;2.0876317;0.0;0.37153327;20060.014
  8.0001694E-01;  9.9999998E-03;  2.0048775E-01;2294;1.9831648e-05;0.0;0.11597443;1014.3104;  4.0892774E-01;11851.825;3;-3.7531176;0.0;-6.4174581;0;2.3876941;  9.8847529E+03;  0.0000000E+00; -2.1433530E-05;  1.0000000E+04;  0.0000000E+00;  9.9586436E+03;2.0612814;0.0;0.32641259;19528.234
  8.0001968E-01;  9.9999998E-03;  2.2053339E-01;2295;0.00051049667;0.0;0.12325188;1014.351;  4.0892836E-01;11885.393;3;-4.0706244;0.0;-2.5918195;0;2.3028393;  9.8846934E+03;  0.0000000E+00; -4.1334835E-05;  1.0000000E+04;  0.0000000E+00;  9.9594688E+03;2.0186744;0.0;0.28416494;19169.361
  8.0002147E-01;  9.9999998E-03;  2.4057323E-01;2296;0.00036449757;0.0;0.12715009;1014.4111;  4.0892869E-01;11935.151;3;-4.5754666;0.0;2.2129042;0;2.204797;  9.8855078E+03;  0.0000000E+00; -8.2609447E-05;  1.0000000E+04;  0.0000000E+00;  9.9598105E+03;1.9623282;0.0;0.24246879;19053.984
  8.0002129E-01;  9.9999998E-03;  2.6059985E-01;2297;-0.00069086574;0.0;0.13122638;1014.5229;  4.0892917E-01;12027.759;3;-5.2351179;0.0;8.84655;0;2.1109726;  9.8869971E+03;  0.0000000E+00; -1.7493780E-04;  1.0000000E+04;  0.0000000E+00;  9.9604775E+03;1.8976277;0.0;0.21334493;18760.086
  8.0001909E-01;  9.9999998E-03;  2.8063762E-01;2298;-0.0024012439;0.0;0.13928065;1014.479;  4.0892923E-01;11991.427;3;-5.9841003;0.0;0.97477627;0;2.1385834;  9.8888682E+03;  0.0000000E+00; -3.4564297E-04;  1.0000000E+04;  0.0000000E+00;  9.9577246E+03;1.8311981;0.0;0.30738527;20022.469
  8.0001640E-01;  9.9999998E-03;  3.0066225E-01;2299;-0.0041129333;0.0;0.12255005;1014.5764;  4.0892881E-01;12071.989;3;-6.6918182;0.0;7.9230556;0;1.7859415;  9.8907676E+03;  0.0000000E+00; -5.5298320E-04;  1.0000000E+04;  0.0000000E+00;  9.9577314E+03;1.7699344;0.0;0.016007014;20406.867
  8.2010853E-01;  9.9999998E-03;  1.6040878E-01;2323;0.035774108;0.0;0.10046844;1014.706;  4.0891427E-01;12177.913;3;4.4439621;0.0;-11.679495;0;2.4099109;  9.8953516E+03;  0.0000000E+00;  2.2233319E-06;  1.0000000E+04;  0.0000000E+00;  9.9563584E+03;1.9900593;0.0;0.41985175;20553.447
  8.2011312E-01;  9.9999998E-03;  1.8044320E-01;2324;0.036496527;0.0;0.10708962;1014.6896;  4.0891513E-01;12164.29;3;3.9568801;0.0;-9.1160021;0;2.3614783;  9.8937275E+03;  0.0000000E+00;  2.2062599E-05;  1.0000000E+04;  0.0000000E+00;  9.9576289E+03;1.9834043;0.0;0.37807417;19964.143
  8.2011735E-01;  9.9999998E-03;  2.0048213E-01;2325;0.036850829;0.0;0.11504009;1014.6921;  4.0891570E-01;12166.362;3;3.4114392;0.0;-5.7629676;0;2.299432;  9.8928027E+03;  0.0000000E+00;  6.5805296E-05;  1.0000000E+04;  0.0000000E+00;  9.9585801E+03;1.9621285;0.0;0.33730361;19537.252
  8.2011992E-01;  9.9999998E-03;  2.2053161E-01;2326;0.036312953;0.0;0.1242632;1014.7174;  4.0891626E-01;12187.389;3;2.8606329;0.0;-1.600264;0;2.2248356;  9.8927549E+03;  0.0000000E+00;  1.3528371E-04;  1.0000000E+04;  0.0000000E+00;  9.9590908E+03;1.9245546;0.0;0.30028114;19327.621
  8.2011861E-01;  9.9999998E-03;  2.4057443E-01;2327;0.034131434;0.0;0.12930089;1014.754;  4.0891686E-01;12217.596;3;2.3427107;0.0;3.221853;0;2.1387594;  9.8935771E+03;  0.0000000E+00;  2.1476965E-04;  1.0000000E+04;  0.0000000E+00;  9.9589648E+03;1.8729059;0.0;0.26585358;19436.916
  8.2011265E-01;  9.9999998E-03;  2.6060185E-01;2328;0.030052442;0.0;0.13268065;1014.8395;  4.0891731E-01;12288.475;3;1.8877499;0.0;8.6413383;0;2.0511708;  9.8950615E+03;  0.0000000E+00;  2.8213020E-04;  1.0000000E+04;  0.0000000E+00;  9.9591230E+03;1.8124137;0.0;0.23875709;19392.904
  8.2010388E-01;  9.9999998E-03;  2.8063831E-01;2329;0.024793217;0.0;0.13929033;1014.7977;  4.0891725E-01;12253.825;3;1.5196991;0.0;0.35411835;0;2.0656531;  9.8969365E+03;  0.0000000E+00;  2.9482081E-04;  1.0000000E+04;  0.0000000E+00;  9.9564111E+03;1.7494135;0.0;0.31623966;20657.326
  8.2009095E-01;  9.9999998E-03;  3.0066267E-01;2330;0.018866945;0.0;0.12282901;1014.9096;  4.0891680E-01;12346.521;3;1.2246125;0.0;8.1245575;0;1.7116994;  9.8988818E+03;  0.0000000E+00;  1.8785293E-04;  1.0000000E+04;  0.0000000E+00;  9.9566533E+03;1.6900862;0.0;0.021613162;20924.893
  8.4020919E-01;  9.9999998E-03;  1.6040029E-01;2354;0.075903244;0.0;0.09908013;1014.8071;  4.0876913E-01;12259.593;3;13.991581;0.0;-10.587251;0;2.2914076;  9.9037373E+03;  0.0000000E+00;  1.9399729E-05;  1.0000000E+04;  0.0000000E+00;  9.9569629E+03;1.8694414;0.0;0.42196631;20230.803
  8.4021634E-01;  9.9999998E-03;  1.8043472E-01;2355;0.076877162;0.0;0.10613729;1014.7728;  4.0876985E-01;12231.166;3;13.253233;0.0;-7.8145823;0;2.2563913;  9.9019697E+03;  0.0000000E+00;  6.8717229E-05;  1.0000000E+04;  0.0000000E+00;  9.9580381E+03;1.8721915;0.0;0.38419977;19734.672
  8.4022290E-01;  9.9999998E-03;  2.0047408E-01;2356;0.077448361;0.0;0.11468543;1014.7526;  4.0877044E-01;12214.386;3;12.639089;0.0;-4.2868705;0;2.208858;  9.9008115E+03;  0.0000000E+00;  1.9690716E-04;  1.0000000E+04;  0.0000000E+00;  9.9587686E+03;1.8619273;0.0;0.34693071;19412.016
  8.4022623E-01;  9.9999998E-03;  2.2052582E-01;2357;0.076634862;0.0;0.12509553;1014.7487;  4.0877104E-01;12211.227;3;12.212724;0.0;-0.062800996;0;2.1499894;  9.9004736E+03;  0.0000000E+00;  4.3821658E-04;  1.0000000E+04;  0.0000000E+00;  9.9590088E+03;1.8360817;0.0;0.31390753;19331.785
  8.4022260E-01;  9.9999998E-03;  2.4057026E-01;2358;0.072981685;0.0;0.13035746;1014.7486;  4.0877163E-01;12211.128;3;11.944195;0.0;3.8414173;0;2.0801926;  9.9009570E+03;  0.0000000E+00;  7.5894239E-04;  1.0000000E+04;  0.0000000E+00;  9.9584941E+03;1.7960719;0.0;0.28412068;19622.314
  8.4021205E-01;  9.9999998E-03;  2.6059660E-01;2359;0.06642174;0.0;0.13220645;1014.8051;  4.0877214E-01;12257.914;3;12.001782;0.0;8.2184954;0;1.9982513;  9.9020850E+03;  0.0000000E+00;  1.0161742E-03;  1.0000000E+04;  0.0000000E+00;  9.9584385E+03;1.7465488;0.0;0.25170255;19692.203
  8.4019756E-01;  9.9999998E-03;  2.8063059E-01;2360;0.057805285;0.0;0.13754585;1014.7672;  4.0877229E-01;12226.529;3;12.179935;0.0;0.28137329;0;2.0036027;  9.9036064E+03;  0.0000000E+00;  8.5326930E-04;  1.0000000E+04;  0.0000000E+00;  9.9561553E+03;1.6933552;0.0;0.31024745;20764.023
  8.4017533E-01;  9.9999998E-03;  3.0065456E-01;2361;0.047601391;0.0;0.12190693;1014.8788;  4.0877190E-01;12318.915;3;12.414389;0.0;8.7347555;0;1.6630422;  9.9052598E+03;  0.0000000E+00; -2.5913160E-04;  1.0000000E+04;  0.0000000E+00;  9.9566816E+03;1.6420107;0.0;0.021031449;20879.373
  8.6031175E-01;  9.9999998E-03;  1.6038857E-01;2385;0.11748035;0.0;0.097472817;1014.634;  4.0848407E-01;12113.567;3;24.425238;0.0;-8.9758501;0;2.1425362;  9.9133008E+03;  0.0000000E+00;  3.1610125E-05;  1.0000000E+04;  0.0000000E+00;  9.9578701E+03;1.7199689;0.0;0.42256734;19749.307
  8.6032206E-01;  9.9999998E-03;  1.8042289E-01;2386;0.11920849;0.0;0.1049357;1014.5773;  4.0848485E-01;12066.596;3;23.702347;0.0;-6.072372;0;2.1223156;  9.9112627E+03;  0.0000000E+00;  1.1064574E-04;  1.0000000E+04;  0.0000000E+00;  9.9587725E+03;1.7346117;0.0;0.38770381;19335.635
  8.6033165E-01;  9.9999998E-03;  2.0046221E-01;2387;0.12059648;0.0;0.11387528;1014.5273;  4.0848544E-01;12025.248;3;23.284145;0.0;-2.5031822;0;2.09131;  9.9096943E+03;  0.0000000E+00;  3.5803384E-04;  1.0000000E+04;  0.0000000E+00;  9.9593311E+03;1.7386744;0.0;0.35263568;19093.273
  8.6033696E-01;  9.9999998E-03;  2.2051415E-01;2388;0.12015167;0.0;0.12466861;1014.4875;  4.0848595E-01;11992.288;3;23.183905;0.0;1.4479918;0;2.0503962;  9.9088330E+03;  0.0000000E+00;  8.8129542E-04;  1.0000000E+04;  0.0000000E+00;  9.9593994E+03;1.7286251;0.0;0.32177114;19095.047
  8.6033171E-01;  9.9999998E-03;  2.4055845E-01;2389;0.11545195;0.0;0.12952125;1014.4481;  4.0848660E-01;11959.726;3;23.242439;0.0;4.1473494;0;1.9981859;  9.9087246E+03;  0.0000000E+00;  1.6279893E-03;  1.0000000E+04;  0.0000000E+00;  9.9587051E+03;1.7046744;0.0;0.29351145;19469.744
  8.6031747E-01;  9.9999998E-03;  2.6058325E-01;2390;0.10666152;0.0;0.13002716;1014.4745;  4.0848723E-01;11981.536;3;23.696985;0.0;7.4473963;0;1.9248649;  9.9092412E+03;  0.0000000E+00;  2.2666033E-03;  1.0000000E+04;  0.0000000E+00;  9.9586631E+03;1.670451;0.0;0.25441387;19538.236
  8.6029798E-01;  9.9999998E-03;  2.8061512E-01;2391;0.094795808;0.0;0.13462912;1014.4328;  4.0848732E-01;11947.001;3;24.739353;0.0;0.74881142;0;1.9283111;  9.9101768E+03;  0.0000000E+00;  2.0670064E-03;  1.0000000E+04;  0.0000000E+00;  9.9568857E+03;1.6310961;0.0;0.29721493;20373.859
  8.6026663E-01;  9.9999998E-03;  3.0063874E-01;2392;0.080125161;0.0;0.11996569;1014.53;  4.0848705E-01;12027.528;3;25.531303;0.0;9.4727745;0;1.6110177;  9.9113086E+03;  0.0000000E+00;  9.9722158E-05;  1.0000000E+04;  0.0000000E+00;  9.9576533E+03;1.5916204;0.0;0.01939729;20351.521
  8.8040954E-01;  9.9999998E-03;  1.6037323E-01;2416;0.15769453;0.0;0.09508013;1014.2962;  4.0807524E-01;11830.338;3;34.942913;0.0;-7.2387395;0;1.9355187;  9.9253379E+03;  0.0000000E+00;  2.1150487E-05;  1.0000000E+04;  0.0000000E+00;  9.9591338E+03;1.5155189;0.0;0.41999981;19090.107
  8.8042319E-01;  9.9999998E-03;  1.8040697E-01;2417;0.16045021;0.0;0.1027657;1014.2165;  4.0807599E-01;11764.438;3;34.378056;0.0;-4.3046517;0;1.9295127;  9.9229834E+03;  0.0000000E+00;  1.2966874E-04;  1.0000000E+04;  0.0000000E+00;  9.9599043E+03;1.5423836;0.0;0.38712916;18739.426
  8.8043624E-01;  9.9999998E-03;  2.0044550E-01;2418;0.1629642;0.0;0.11182515;1014.1346;  4.0807655E-01;11696.664;3;34.267765;0.0;-0.79024762;0;1.9152778;  9.9209063E+03;  0.0000000E+00;  5.2802160E-04;  1.0000000E+04;  0.0000000E+00;  9.9603516E+03;1.5619229;0.0;0.3533549;18549.473
  8.8044399E-01;  9.9999998E-03;  2.2049606E-01;2419;0.16317211;0.0;0.1224669;1014.0559;  4.0807709E-01;11631.555;3;34.533558;0.0;2.7336111;0;1.8933127;  9.9193643E+03;  0.0000000E+00;  1.4362782E-03;  1.0000000E+04;  0.0000000E+00;  9.9603242E+03;1.5698333;0.0;0.32347938;18589.238
  8.8043779E-01;  9.9999998E-03;  2.4053885E-01;2420;0.15769491;0.0;0.12686382;1013.9761;  4.0807787E-01;11565.462;3;34.982426;0.0;4.7792344;0;1.860045;  9.9184766E+03;  0.0000000E+00;  2.7869712E-03;  1.0000000E+04;  0.0000000E+00;  9.9596221E+03;1.5648723;0.0;0.29517272;18966.824
  8.8042015E-01;  9.9999998E-03;  2.6056254E-01;2421;0.14676291;0.0;0.12667063;1013.9672;  4.0807852E-01;11558.166;3;35.717911;0.0;7.3023133;0;1.8011645;  9.9182031E+03;  0.0000000E+00;  4.0262211E-03;  1.0000000E+04;  0.0000000E+00;  9.9596855E+03;1.5490808;0.0;0.25208366;18986.277
  8.8039649E-01;  9.9999998E-03;  2.8059307E-01;2422;0.13167946;0.0;0.13081445;1013.908;  4.0807867E-01;11509.143;3;37.181854;0.0;1.5664399;0;1.8090341;  9.9183828E+03;  0.0000000E+00;  4.0426180E-03;  1.0000000E+04;  0.0000000E+00;  9.9583027E+03;1.5264426;0.0;0.28259146;19634.91
  8.8035691E-01;  9.9999998E-03;  3.0061638E-01;2423;0.11294925;0.0;0.11755542;1013.9792;  4.0807864E-01;11568.044;3;39.212776;0.0;11.217134;0;1.5251858;  9.9188633E+03;  0.0000000E+00;  1.7383567E-03;  1.0000000E+04;  0.0000000E+00;  9.9592012E+03;1.5013958;0.0;0.023790047;19516.348
  9.0049553E-01;  9.9999998E-03;  1.6035412E-01;2447;0.1939038;0.0;0.091544516;1013.8725;  4.0756521E-01;11475.06;3;44.977123;0.0;-5.6555552;0;1.6594696;  9.9403076E+03;  0.0000000E+00; -1.6458196E-05;  1.0000000E+04;  0.0000000E+00;  9.9607656E+03;1.246141;0.0;0.41332862;18247.322
  9.0051234E-01;  9.9999998E-03;  1.8038669E-01;2448;0.19768602;0.0;0.099216163;1013.7734;  4.0756586E-01;11393.111;3;44.587376;0.0;-2.7805326;0;1.6657379;  9.9376680E+03;  0.0000000E+00;  9.9965066E-05;  1.0000000E+04;  0.0000000E+00;  9.9614434E+03;1.2837284;0.0;0.38200954;17940.781
  9.0052867E-01;  9.9999998E-03;  2.0042367E-01;2449;0.20130232;0.0;0.1081427;1013.6614;  4.0756634E-01;11300.416;3;44.752796;0.0;0.63235366;0;1.6675266;  9.9350615E+03;  0.0000000E+00;  6.2292314E-04;  1.0000000E+04;  0.0000000E+00;  9.9618281E+03;1.3183165;0.0;0.34921017;17780.262
  9.0053791E-01;  9.9999998E-03;  2.2047059E-01;2450;0.20181571;0.0;0.11793356;1013.5439;  4.0756676E-01;11203.286;3;45.158417;0.0;3.5846441;0;1.664567;  9.9327588E+03;  0.0000000E+00;  1.9087601E-03;  1.0000000E+04;  0.0000000E+00;  9.9618135E+03;1.3452005;0.0;0.31936648;17811.82
  9.0053058E-01;  9.9999998E-03;  2.4051175E-01;2451;0.19549865;0.0;0.12239686;1013.423;  4.0756750E-01;11103.3;3;45.645222;0.0;5.2863474;0;1.6527171;  9.9309619E+03;  0.0000000E+00;  3.9025226E-03;  1.0000000E+04;  0.0000000E+00;  9.9612002E+03;1.3614517;0.0;0.29126537;18136.455
  9.0051061E-01;  9.9999998E-03;  2.6053554E-01;2452;0.18293884;0.0;0.12264405;1013.3706;  4.0756825E-01;11059.918;3;46.890373;0.0;8.021102;0;1.616751;  9.9297500E+03;  0.0000000E+00;  5.8265394E-03;  1.0000000E+04;  0.0000000E+00;  9.9613369E+03;1.3668554;0.0;0.24989563;18114.332
  9.0048414E-01;  9.9999998E-03;  2.8056559E-01;2453;0.16470346;0.0;0.12626393;1013.2766;  4.0756851E-01;10982.123;3;48.220058;0.0;2.730042;0;1.6347514;  9.9290645E+03;  0.0000000E+00;  6.1920718E-03;  1.0000000E+04;  0.0000000E+00;  9.9601416E+03;1.3636367;0.0;0.27111471;18674.947
  9.0043825E-01;  9.9999998E-03;  3.0058882E-01;2454;0.14314683;0.0;0.11492781;1013.3081;  4.0756860E-01;11008.168;3;52.085014;0.0;12.834701;0;1.3971536;  9.9287764E+03;  0.0000000E+00;  3.8385706E-03;  1.0000000E+04;  0.0000000E+00;  9.9610088E+03;1.3554081;0.0;0.041745573;18525.67
  9.2055362E-01;  9.9999998E-03;  1.6033170E-01;2478;0.2210298;0.0;0.086826086;1013.3698;  4.0698034E-01;11053.152;3;54.213879;0.0;-4.3665538;0;1.3350317;  9.9570908E+03;  0.0000000E+00; -5.6955778E-05;  1.0000000E+04;  0.0000000E+00;  9.9627334E+03;0.93249416;0.0;0.40253755;17234.9
  9.2057610E-01;  9.9999998E-03;  1.8036270E-01;2479;0.22661328;0.0;0.094318181;1013.2597;  4.0698060E-01;10962.081;3;53.946014;0.0;-1.6176442;0;1.3501251;  9.9543027E+03;  0.0000000E+00;  2.8941133E-05;  1.0000000E+04;  0.0000000E+00;  9.9633486E+03;0.97749239;0.0;0.37263268;16957.27
  9.2059892E-01;  9.9999998E-03;  2.0039739E-01;2480;0.2322129;0.0;0.10286824;1013.1233;  4.0698102E-01;10849.329;3;54.251114;0.0;1.638662;0;1.365569;  9.9512588E+03;  0.0000000E+00;  5.7168602E-04;  1.0000000E+04;  0.0000000E+00;  9.9637031E+03;1.0247822;0.0;0.34078684;16808.859
  9.2061138E-01;  9.9999998E-03;  2.2043855E-01;2481;0.23326123;0.0;0.11115053;1012.9737;  4.0698153E-01;10725.64;3;54.539364;0.0;4.1578484;0;1.3800721;  9.9482100E+03;  0.0000000E+00;  2.0538075E-03;  1.0000000E+04;  0.0000000E+00;  9.9637832E+03;1.0699917;0.0;0.31008035;16791.344
  9.2060292E-01;  9.9999998E-03;  2.4047829E-01;2482;0.22591093;0.0;0.11609482;1012.8129;  4.0698218E-01;10592.792;3;54.69582;0.0;5.6889114;0;1.3903266;  9.9454580E+03;  0.0000000E+00;  4.5152763E-03;  1.0000000E+04;  0.0000000E+00;  9.9633457E+03;1.1084641;0.0;0.2818625;17023.256
  9.2058253E-01;  9.9999998E-03;  2.6050365E-01;2483;0.21229649;0.0;0.11756143;1012.7068;  4.0698284E-01;10505.087;3;55.853943;0.0;8.7302647;0;1.382983;  9.9432119E+03;  0.0000000E+00;  7.0251920E-03;  1.0000000E+04;  0.0000000E+00;  9.9634590E+03;1.1370183;0.0;0.24596469;17003.471
  9.2055362E-01;  9.9999998E-03;  2.8053382E-01;2484;0.19170712;0.0;0.12142137;1012.5649;  4.0698332E-01;10387.721;3;57.731678;0.0;4.4730306;0;1.4221873;  9.9415537E+03;  0.0000000E+00;  7.8599304E-03;  1.0000000E+04;  0.0000000E+00;  9.9622754E+03;1.1555252;0.0;0.26666209;17546.248
  9.2050463E-01;  9.9999998E-03;  3.0055720E-01;2485;0.16885412;0.0;0.11204424;1012.5427;  4.0698358E-01;10369.307;3;63.560196;0.0;13.948049;0;1.2374506;  9.9404170E+03;  0.0000000E+00;  5.4328782E-03;  1.0000000E+04;  0.0000000E+00;  9.9629258E+03;1.16629;0.0;0.071160555;17454.336
  9.4056815E-01;  9.9999998E-03;  1.6030729E-01;2509;0.2310379;0.0;0.081483833;1012.7401;  4.0634882E-01;10524.807;3;60.707127;0.0;-3.1881328;0;1.0069987;  9.9734395E+03;  0.0000000E+00; -6.2070307E-05;  1.0000000E+04;  0.0000000E+00;  9.9649590E+03;0.61882561;0.0;0.38817307;16080.941
  9.4059342E-01;  9.9999998E-03;  1.8033691E-01;2510;0.23781762;0.0;0.088950232;1012.6295;  4.0634903E-01;10433.405;3;60.853706;0.0;-0.59509099;0;1.0266119;  9.9706738E+03;  0.0000000E+00; -2.6987660E-05;  1.0000000E+04;  0.0000000E+00;  9.9655391E+03;0.66699636;0.0;0.35961556;15821.2
  9.4062191E-01;  9.9999998E-03;  2.0036921E-01;2511;0.24545942;0.0;0.097170427;1012.4796;  4.0634936E-01;10309.505;3;61.563267;0.0;2.5200911;0;1.0517652;  9.9673770E+03;  0.0000000E+00;  4.2256052E-04;  1.0000000E+04;  0.0000000E+00;  9.9658770E+03;0.72275478;0.0;0.32901049;15676.604
  9.4064808E-01;  9.9999998E-03;  2.2040580E-01;2512;0.25167739;0.0;0.10445461;1012.3028;  4.0634969E-01;10163.447;3;62.455482;0.0;4.9046721;0;1.0813575;  9.9637529E+03;  0.0000000E+00;  1.8520827E-03;  1.0000000E+04;  0.0000000E+00;  9.9660225E+03;0.78261566;0.0;0.29874179;15624.549
  9.4065285E-01;  9.9999998E-03;  2.4044089E-01;2513;0.24818286;0.0;0.1084499;1012.1152;  4.0635011E-01;10008.438;3;62.17178;0.0;6.009131;0;1.1086392;  9.9601318E+03;  0.0000000E+00;  4.3732612E-03;  1.0000000E+04;  0.0000000E+00;  9.9659150E+03;0.84112132;0.0;0.26751789;15695.283
  9.4063407E-01;  9.9999998E-03;  2.6046851E-01;2514;0.23396417;0.0;0.11139364;1011.9538;  4.0635085E-01;9875.2012;3;62.948475;0.0;9.3734531;0;1.1302013;  9.9568818E+03;  0.0000000E+00;  7.2836429E-03;  1.0000000E+04;  0.0000000E+00;  9.9659346E+03;0.89245778;0.0;0.23774362;15703.632
  9.4060338E-01;  9.9999998E-03;  2.8049856E-01;2515;0.21191309;0.0;0.1162907;1011.7622;  4.0635121E-01;9716.9561;3;65.887665;0.0;7.2994099;0;1.1985121;  9.9542188E+03;  0.0000000E+00;  8.8342298E-03;  1.0000000E+04;  0.0000000E+00;  9.9647725E+03;0.93337113;0.0;0.26514092;16214.421
  9.4055289E-01;  9.9999998E-03;  3.0052242E-01;2516;0.18899371;0.0;0.10891143;1011.6724;  4.0635163E-01;9642.7236;3;73.551132;0.0;15.581834;0;1.0700964;  9.9521709E+03;  0.0000000E+00;  6.0112090E-03;  1.0000000E+04;  0.0000000E+00;  9.9649873E+03;0.96417123;0.0;0.1059251;16280.795
  9.6056777E-01;  9.9999998E-03;  1.6028246E-01;2540;0.23315655;0.0;0.076175407;1011.941;  4.0569821E-01;9854.7842;3;63.105789;0.0;-1.8709265;0;0.71878499;  9.9872637E+03;  0.0000000E+00; -2.5118279E-05;  1.0000000E+04;  0.0000000E+00;  9.9673457E+03;0.34802881;0.0;0.37075618;14818.685
  9.6059388E-01;  9.9999998E-03;  1.8031064E-01;2541;0.24037005;0.0;0.083630063;1011.837;  4.0569854E-01;9768.9795;3;63.515057;0.0;0.64944649;0;0.73903131;  9.9846455E+03;  0.0000000E+00; -2.7205395E-05;  1.0000000E+04;  0.0000000E+00;  9.9679102E+03;0.3957254;0.0;0.34330595;14568.275
  9.6062344E-01;  9.9999998E-03;  2.0034026E-01;2542;0.24857019;0.0;0.091480173;1011.6835;  4.0569869E-01;9642.3447;3;64.650085;0.0;3.6413434;0;0.76935291;  9.9812715E+03;  0.0000000E+00;  2.6818499E-04;  1.0000000E+04;  0.0000000E+00;  9.9682578E+03;0.45530659;0.0;0.31404632;14420.82
  9.6065396E-01;  9.9999998E-03;  2.2037543E-01;2543;0.25672668;0.0;0.099136285;1011.4878;  4.0569890E-01;9480.7842;3;66.815216;0.0;6.3213115;0;0.81114513;  9.9772891E+03;  0.0000000E+00;  1.6906001E-03;  1.0000000E+04;  0.0000000E+00;  9.9683750E+03;0.52449369;0.0;0.28665143;14373.156
  9.6067542E-01;  9.9999998E-03;  2.4040572E-01;2544;0.2602742;0.0;0.10202799;1011.2758;  4.0569919E-01;9305.751;3;68.538391;0.0;7.1134443;0;0.85397726;  9.9730273E+03;  0.0000000E+00;  6.1541363E-03;  1.0000000E+04;  0.0000000E+00;  9.9684395E+03;0.59789038;0.0;0.25608689;14355.997
  9.6066850E-01;  9.9999998E-03;  2.6043129E-01;2545;0.24980164;0.0;0.10474419;1011.082;  4.0569976E-01;9145.7861;3;69.380783;0.0;10.361402;0;0.89513791;  9.9689131E+03;  0.0000000E+00;  1.2720051E-02;  1.0000000E+04;  0.0000000E+00;  9.9686904E+03;0.66848606;0.0;0.22665183;14248.767
  9.6063823E-01;  9.9999998E-03;  2.8046119E-01;2546;0.22739679;0.0;0.11085069;1010.843;  4.0570015E-01;8948.6436;3;73.260742;0.0;10.377052;0;0.99503708;  9.9653076E+03;  0.0000000E+00;  1.5702596E-02;  1.0000000E+04;  0.0000000E+00;  9.9675234E+03;0.72993898;0.0;0.26509812;14727.775
  9.6058810E-01;  9.9999998E-03;  3.0048525E-01;2547;0.2049607;0.0;0.10516912;1010.6864;  4.0570065E-01;8819.3955;3;82.311386;0.0;16.851011;0;0.91965789;  9.9623633E+03;  0.0000000E+00;  5.3257574E-03;  1.0000000E+04;  0.0000000E+00;  9.9673154E+03;0.77973896;0.0;0.13991891;14947.976
  9.8056161E-01;  9.9999998E-03;  1.6025878E-01;2571;0.23267213;0.0;0.071423613;1010.9776;  4.0505376E-01;9047.6416;3;64.033066;0.0;-0.49279565;0;0.49393621;  9.9975195E+03;  0.0000000E+00;  1.4860314E-05;  1.0000000E+04;  0.0000000E+00;  9.9698184E+03;0.1433824;0.0;0.35055381;13482.396
  9.8058832E-01;  9.9999998E-03;  1.8028523E-01;2572;0.24016441;0.0;0.078644775;1010.8826;  4.0505391E-01;8969.3164;3;64.530067;0.0;1.8930737;0;0.51231825;  9.9950664E+03;  0.0000000E+00; -1.4635000E-06;  1.0000000E+04;  0.0000000E+00;  9.9703857E+03;0.18856241;0.0;0.32375586;13235.34
  9.8061877E-01;  9.9999998E-03;  2.0031179E-01;2573;0.24868973;0.0;0.085785761;1010.7311;  4.0505391E-01;8844.4189;3;65.729172;0.0;4.6411476;0;0.54394805;  9.9917246E+03;  0.0000000E+00;  5.0295726E-04;  1.0000000E+04;  0.0000000E+00;  9.9707393E+03;0.24830201;0.0;0.29564607;13082.227
  9.8065144E-01;  9.9999998E-03;  2.2034460E-01;2574;0.25759166;0.0;0.093282014;1010.5271;  4.0505421E-01;8676.291;3;68.405251;0.0;7.4981322;0;0.59215283;  9.9875791E+03;  0.0000000E+00;  5.3604976E-03;  1.0000000E+04;  0.0000000E+00;  9.9708467E+03;0.32143176;0.0;0.27072108;13035.244
  9.8067909E-01;  9.9999998E-03;  2.4037270E-01;2575;0.26413357;0.0;0.096619934;1010.2934;  4.0505430E-01;8483.6035;3;72.860863;0.0;9.3345432;0;0.64923871;  9.9829355E+03;  0.0000000E+00;  1.9517271E-02;  1.0000000E+04;  0.0000000E+00;  9.9708721E+03;0.40347427;0.0;0.24576443;13024.551
  9.8068905E-01;  9.9999998E-03;  2.6039398E-01;2576;0.26108986;0.0;0.098050967;1010.0857;  4.0505472E-01;8312.4453;3;75.75264;0.0;11.478673;0;0.70216417;  9.9781982E+03;  0.0000000E+00;  3.6692102E-02;  1.0000000E+04;  0.0000000E+00;  9.9714785E+03;0.48744613;0.0;0.21471803;12752.686
  9.8066586E-01;  9.9999998E-03;  2.8042260E-01;2577;0.24092942;0.0;0.10473421;1009.8168;  4.0505505E-01;8090.9063;3;80.177643;0.0;12.501074;0;0.82500827;  9.9738232E+03;  0.0000000E+00;  4.0863186E-02;  1.0000000E+04;  0.0000000E+00;  9.9704854E+03;0.56442267;0.0;0.26058558;13122.957
  9.8061907E-01;  9.9999998E-03;  3.0044657E-01;2578;0.21949759;0.0;0.10014451;1009.608;  4.0505561E-01;7918.7998;3;90.357948;0.0;17.312366;0;0.7872982;  9.9701338E+03;  0.0000000E+00;  3.2634251E-03;  1.0000000E+04;  0.0000000E+00;  9.9699834E+03;0.62912941;0.0;0.15816882;13442.693
  1.0005527E+00;  9.9999998E-03;  1.6023706E-01;2602;0.2309951;0.0;0.067059591;1009.9022;  4.0443638E-01;8146.667;3;64.362762;0.0;0.71217871;0;0.3338899;  1.0004233E+04;  0.0000000E+00;  8.0041536E-06;  1.0000000E+04;  0.0000000E+00;  9.9723057E+03;0.0062094098;0.0;0.3276805;12106.125
  1.0005798E+00;  9.9999998E-03;  1.8026108E-01;2603;0.23877421;0.0;0.073668763;1009.8138;  4.0443632E-01;8073.8726;3;64.983185;0.0;2.8762145;0;0.34940964;  1.0001912E+04;  0.0000000E+00; -1.4502634E-04;  1.0000000E+04;  0.0000000E+00;  9.9728721E+03;0.048331868;0.0;0.30107778;11863.707
  1.0006109E+00;  9.9999998E-03;  2.0028530E-01;2604;0.24762329;0.0;0.080458723;1009.6663;  4.0443638E-01;7952.4312;3;66.372406;0.0;5.4036045;0;0.37988624;  9.9986523E+03;  0.0000000E+00;  5.7196448E-04;  1.0000000E+04;  0.0000000E+00;  9.9732100E+03;0.10558352;0.0;0.27430272;11718.28
  1.0006450E+00;  9.9999998E-03;  2.2031341E-01;2605;0.25700486;0.0;0.086862013;1009.4633;  4.0443653E-01;7785.4814;3;69.206192;0.0;7.9535332;0;0.42922255;  9.9945381E+03;  0.0000000E+00;  1.1744902E-02;  1.0000000E+04;  0.0000000E+00;  9.9733125E+03;0.17773077;0.0;0.25149179;11668.975
  1.0006775E+00;  9.9999998E-03;  2.4033980E-01;2606;0.26496592;0.0;0.09007936;1009.2211;  4.0443662E-01;7586.1704;3;74.77903;0.0;10.344084;0;0.49225274;  9.9897725E+03;  0.0000000E+00;  4.4144448E-02;  1.0000000E+04;  0.0000000E+00;  9.9732803E+03;0.26197508;0.0;0.23027766;11675.923
  1.0006980E+00;  9.9999998E-03;  2.6035744E-01;2607;0.26743346;0.0;0.090946667;1009.009;  4.0443677E-01;7411.6821;3;81.781418;0.0;12.83306;0;0.55155945;  9.9846816E+03;  0.0000000E+00;  8.0218703E-02;  1.0000000E+04;  0.0000000E+00;  9.9741631E+03;0.3527877;0.0;0.19877177;11283.427
  1.0006902E+00;  9.9999998E-03;  2.8038359E-01;2608;0.25336885;0.0;0.097791083;1008.7389;  4.0443715E-01;7189.4541;3;86.944107;0.0;13.56979;0;0.68585658;  9.9797764E+03;  0.0000000E+00;  8.1418730E-02;  1.0000000E+04;  0.0000000E+00;  9.9736914E+03;0.4388006;0.0;0.24705596;11401.662
  1.0006530E+00;  9.9999998E-03;  3.0040741E-01;2609;0.23456554;0.0;0.093852706;1008.499;  4.0443748E-01;6992.1572;3;98.803497;0.0;17.368332;0;0.66870993;  9.9756016E+03;  0.0000000E+00; -7.5792158E-03;  1.0000000E+04;  0.0000000E+00;  9.9730586E+03;0.51170057;0.0;0.15700936;11747.693
  1.0205418E+00;  9.9999998E-03;  1.6021647E-01;2633;0.22855617;0.0;0.062837705;1008.7885;  4.0386263E-01;7212.9565;3;64.447578;0.0;1.7398449;0;0.2260617;  1.0008101E+04;  0.0000000E+00; -1.5198691E-04;  1.0000000E+04;  0.0000000E+00;  9.9747412E+03;-0.076261543;0.0;0.30232325;10725.097
  1.0205698E+00;  9.9999998E-03;  1.8023871E-01;2634;0.23664176;0.0;0.069263175;1008.7016;  4.0386271E-01;7141.6045;3;65.211021;0.0;3.7832425;0;0.2388691;  1.0005851E+04;  0.0000000E+00; -2.8942095E-03;  1.0000000E+04;  0.0000000E+00;  9.9752695E+03;-0.037130084;0.0;0.27599919;10504.531
  1.0206020E+00;  9.9999998E-03;  2.0026112E-01;2635;0.24595758;0.0;0.075471163;1008.5593;  4.0386271E-01;7024.7539;3;66.678032;0.0;6.0334311;0;0.26664293;  1.0002771E+04;  0.0000000E+00; -8.9418450E-03;  1.0000000E+04;  0.0000000E+00;  9.9755264E+03;0.015342412;0.0;0.25130051;10395.601
  1.0206378E+00;  9.9999998E-03;  2.2028455E-01;2636;0.25583035;0.0;0.080563717;1008.3647;  4.0386266E-01;6865.0488;3;69.83831;0.0;8.3574371;0;0.31338447;  9.9988936E+03;  0.0000000E+00;  1.4723735E-03;  1.0000000E+04;  0.0000000E+00;  9.9755508E+03;0.081924111;0.0;0.23146038;10375.085
  1.0206745E+00;  9.9999998E-03;  2.4030760E-01;2637;0.26478714;0.0;0.082950346;1008.1299;  4.0386277E-01;6672.3726;3;75.770172;0.0;10.398458;0;0.37500337;  9.9942959E+03;  0.0000000E+00;  5.0832562E-02;  1.0000000E+04;  0.0000000E+00;  9.9755039E+03;0.16212758;0.0;0.21287578;10384.303
  1.0207028E+00;  9.9999998E-03;  2.6032239E-01;2638;0.27047208;0.0;0.083224908;1007.9285;  4.0386286E-01;6507.0024;3;85.431076;0.0;13.355621;0;0.43222353;  9.9891504E+03;  0.0000000E+00;  1.0930050E-01;  1.0000000E+04;  0.0000000E+00;  9.9766514E+03;0.25305891;0.0;0.17916462;9891.1523
  1.0207140E+00;  9.9999998E-03;  2.8034544E-01;2639;0.26618946;0.0;0.090182461;1007.6791;  4.0386280E-01;6302.3188;3;95.026825;0.0;14.568523;0;0.56912994;  9.9838945E+03;  0.0000000E+00;  9.9530049E-02;  1.0000000E+04;  0.0000000E+00;  9.9769590E+03;0.34385484;0.0;0.22527511;9660.2314
  1.0206956E+00;  9.9999998E-03;  3.0036882E-01;2640;0.25137174;0.0;0.086259142;1007.431;  4.0386286E-01;6098.7373;3;107.96043;0.0;16.905075;0;0.55267179;  9.9793740E+03;  0.0000000E+00; -2.8100919E-02;  1.0000000E+04;  0.0000000E+00;  9.9765303E+03;0.41837421;0.0;0.13429759;9898.9912
  1.0405289E+00;  9.9999998E-03;  1.6019696E-01;2664;0.22546566;0.0;0.058851194;1007.7048;  4.0334418E-01;6303.2529;3;64.521454;0.0;2.7512593;0;0.15379646;  1.0009971E+04;  0.0000000E+00; -1.7271591E-03;  1.0000000E+04;  0.0000000E+00;  9.9770547E+03;-0.12121219;0.0;0.27500865;9378.4707
  1.0405585E+00;  9.9999998E-03;  1.8021783E-01;2665;0.23408748;0.0;0.064716108;1007.6164;  4.0334427E-01;6230.856;3;65.227768;0.0;4.4368677;0;0.16452242;  1.0007799E+04;  0.0000000E+00; -1.6772967E-02;  1.0000000E+04;  0.0000000E+00;  9.9774727E+03;-0.085283414;0.0;0.24980584;9211.2539
  1.0405921E+00;  9.9999998E-03;  2.0023711E-01;2666;0.24394009;0.0;0.06986513;1007.4825;  4.0334412E-01;6121.2993;3;66.943497;0.0;6.3640971;0;0.18832411;  1.0005036E+04;  0.0000000E+00; -5.0382409E-02;  1.0000000E+04;  0.0000000E+00;  9.9775781E+03;-0.03987132;0.0;0.22819543;9168.1055
  1.0406307E+00;  9.9999998E-03;  2.2025792E-01;2667;0.25454247;0.0;0.074120864;1007.3043;  4.0334412E-01;5975.4604;3;70.544998;0.0;8.4027386;0;0.22966383;  1.0001654E+04;  0.0000000E+00; -6.6352919E-02;  1.0000000E+04;  0.0000000E+00;  9.9774326E+03;0.016957212;0.0;0.21270663;9216.2881
  1.0406716E+00;  9.9999998E-03;  2.4027771E-01;2668;0.26440188;0.0;0.075847909;1007.0912;  4.0334409E-01;5801.1445;3;76.951653;0.0;10.274482;0;0.28473914;  9.9975410E+03;  0.0000000E+00; -2.1114822E-02;  1.0000000E+04;  0.0000000E+00;  9.9773291E+03;0.087360024;0.0;0.19737911;9235.6787
  1.0407084E+00;  9.9999998E-03;  2.6029068E-01;2669;0.27253726;0.0;0.076141156;1006.9094;  4.0334398E-01;5652.2881;3;88.149178;0.0;13.383254;0;0.33848208;  9.9926328E+03;  0.0000000E+00;  4.6539582E-02;  1.0000000E+04;  0.0000000E+00;  9.9786348E+03;0.17211282;0.0;0.16636926;8680.4482
  1.0407416E+00;  9.9999998E-03;  2.8031024E-01;2670;0.27881509;0.0;0.081162311;1006.6832;  4.0334380E-01;5467.1606;3;103.594;0.0;15.066718;0;0.45704502;  9.9869668E+03;  0.0000000E+00;  1.2639114E-02;  1.0000000E+04;  0.0000000E+00;  9.9798281E+03;0.2692329;0.0;0.18781212;8102.9849
  1.0407542E+00;  9.9999998E-03;  3.0033177E-01;2671;0.27278629;0.0;0.077988379;1006.424;  4.0334377E-01;5255.2378;3;117.50477;0.0;15.02719;0;0.45165384;  9.9814453E+03;  0.0000000E+00;  1.1043451E-02;  1.0000000E+04;  0.0000000E+00;  9.9802061E+03;0.35123917;0.0;0.10041467;7997.2202
  1.0605149E+00;  9.9999998E-03;  1.6017835E-01;2695;0.22189145;0.0;0.054664258;1006.7;  4.0288764E-01;5457.6108;3;64.30439;0.0;3.4011245;0;0.10372923;  1.0010541E+04;  0.0000000E+00; -9.4375350E-03;  1.0000000E+04;  0.0000000E+00;  9.9791719E+03;-0.14314334;0.0;0.24687257;8108.4287
  1.0605460E+00;  9.9999998E-03;  1.8019712E-01;2696;0.23119813;0.0;0.059750095;1006.6097;  4.0288761E-01;5384.1582;3;65.283257;0.0;4.8518343;0;0.11287192;  1.0008539E+04;  0.0000000E+00; -5.8397200E-02;  1.0000000E+04;  0.0000000E+00;  9.9793818E+03;-0.11140931;0.0;0.22428122;8029.9326
  1.0605822E+00;  9.9999998E-03;  2.0021404E-01;2697;0.24172892;0.0;0.064011395;1006.4906;  4.0288755E-01;5287.0063;3;67.403076;0.0;6.6348791;0;0.13183752;  1.0006290E+04;  0.0000000E+00; -1.5522686E-01;  1.0000000E+04;  0.0000000E+00;  9.9792666E+03;-0.075364739;0.0;0.20720226;8094.2241
  1.0606247E+00;  9.9999998E-03;  2.2023305E-01;2698;0.25322914;0.0;0.067449011;1006.3387;  4.0288746E-01;5163.2417;3;71.432175;0.0;8.3551464;0;0.16543749;  1.0003651E+04;  0.0000000E+00; -2.3879053E-01;  1.0000000E+04;  0.0000000E+00;  9.9789014E+03;-0.031536903;0.0;0.1969744;8259.1699
  1.0606698E+00;  9.9999998E-03;  2.4025136E-01;2699;0.264018;0.0;0.068823293;1006.1549;  4.0288725E-01;5013.4531;3;78.706963;0.0;10.017049;0;0.21072266;  1.0000298E+04;  0.0000000E+00; -2.3758535E-01;  1.0000000E+04;  0.0000000E+00;  9.9786221E+03;0.024847358;0.0;0.1858753;8346.2002
  1.0607176E+00;  9.9999998E-03;  2.6026392E-01;2700;0.27478626;0.0;0.069234528;1005.9855;  4.0288711E-01;4875.4141;3;91.372986;0.0;13.033532;0;0.25888148;  9.9957285E+03;  0.0000000E+00; -2.0658170E-01;  1.0000000E+04;  0.0000000E+00;  9.9798359E+03;0.10031334;0.0;0.15856814;7832.4917
  1.0607674E+00;  9.9999998E-03;  2.8028062E-01;2701;0.2861748;0.0;0.072856501;1005.7558;  4.0288699E-01;4688.2437;3;108.9531;0.0;16.233335;0;0.36112341;  9.9894023E+03;  0.0000000E+00; -2.2724527E-01;  1.0000000E+04;  0.0000000E+00;  9.9816289E+03;0.20302667;0.0;0.15809675;7072.7466
  1.0608112E+00;  9.9999998E-03;  3.0029765E-01;2702;0.29273897;0.0;0.07248868;1005.4471;  4.0288690E-01;4436.8057;3;129.42667;0.0;19.543493;0;0.41899151;  9.9813682E+03;  0.0000000E+00;  3.2042831E-01;  1.0000000E+04;  0.0000000E+00;  9.9835674E+03;0.31887633;0.0;0.10011517;6369.0459
  1.0805010E+00;  9.9999998E-03;  1.6016053E-01;2726;0.21808803;0.0;0.050237555;1005.7969;  4.0249568E-01;4695.1377;3;64.062836;0.0;3.9396002;0;0.068461359;  1.0010234E+04;  0.0000000E+00; -3.7300859E-02;  1.0000000E+04;  0.0000000E+00;  9.9809922E+03;-0.1513238;0.0;0.21978515;6957.5103
  1.0805335E+00;  9.9999998E-03;  1.8017597E-01;2727;0.22797047;0.0;0.054121848;1005.7111;  4.0249559E-01;4625.5708;3;65.340248;0.0;5.1235003;0;0.075692609;  1.0008576E+04;  0.0000000E+00; -1.5459090E-01;  1.0000000E+04;  0.0000000E+00;  9.9809404E+03;-0.12559606;0.0;0.20128867;7001.3755
  1.0805732E+00;  9.9999998E-03;  2.0019193E-01;2728;0.23957554;0.0;0.05765526;1005.6146;  4.0249550E-01;4547.4014;3;68.085373;0.0;6.5488815;0;0.088859312;  1.0007035E+04;  0.0000000E+00; -3.5556880E-01;  1.0000000E+04;  0.0000000E+00;  9.9805781E+03;-0.10071497;0.0;0.18957429;7245.0371
  1.0806198E+00;  9.9999998E-03;  2.2021043E-01;2729;0.25198811;0.0;0.060749959;1005.4966;  4.0249524E-01;4451.749;3;72.999222;0.0;8.061944;0;0.11396944;  1.0005312E+04;  0.0000000E+00; -5.4641896E-01;  1.0000000E+04;  0.0000000E+00;  9.9799717E+03;-0.07131175;0.0;0.18528119;7636.1992
  1.0806693E+00;  9.9999998E-03;  2.4022673E-01;2730;0.2633881;0.0;0.061456956;1005.3555;  4.0249521E-01;4337.3657;3;81.451004;0.0;9.5741434;0;0.14482707;  1.0002831E+04;  0.0000000E+00; -6.2362641E-01;  1.0000000E+04;  0.0000000E+00;  9.9796641E+03;-0.030506751;0.0;0.17533381;7823.3442
  1.0807252E+00;  9.9999998E-03;  2.6023939E-01;2731;0.27570146;0.0;0.06205824;1005.1995;  4.0249488E-01;4211.0049;3;95.35141;0.0;12.498666;0;0.18403965;  9.9985098E+03;  0.0000000E+00; -6.4432788E-01;  1.0000000E+04;  0.0000000E+00;  9.9809043E+03;0.03513772;0.0;0.14890192;7395.5771
  1.0807846E+00;  9.9999998E-03;  2.8025556E-01;2732;0.28943434;0.0;0.065267533;1004.9286;  4.0249494E-01;3991.48;3;114.92463;0.0;16.321985;0;0.28301817;  9.9912432E+03;  0.0000000E+00; -4.8172733E-01;  1.0000000E+04;  0.0000000E+00;  9.9828047E+03;0.14382534;0.0;0.13919283;6438.1543
  1.0808392E+00;  9.9999998E-03;  3.0026940E-01;2733;0.29865852;0.0;0.065821275;1004.5397;  4.0249470E-01;3676.4902;3;137.06328;0.0;20.992477;0;0.36650303;  9.9806230E+03;  0.0000000E+00;  1.1199346E+00;  1.0000000E+04;  0.0000000E+00;  9.9857344E+03;0.27970561;0.0;0.086797409;6739.1797
  1.1004870E+00;  9.9999998E-03;  1.6014151E-01;2756;0.21414439;0.0;0.045007952;1005.0024;  4.0216678E-01;4021.2322;3;63.826;0.0;4.3033948;0;0.045002788;  1.0009314E+04;  0.0000000E+00; -1.1308568E-01;  1.0000000E+04;  0.0000000E+00;  9.9824512E+03;-0.15084799;0.0;0.19585077;5960.4702
  1.1005225E+00;  9.9999998E-03;  1.8015562E-01;2757;0.22501348;0.0;0.048166495;1004.9301;  4.0216655E-01;3962.9094;3;65.649902;0.0;5.1292591;0;0.049142241;  1.0008201E+04;  0.0000000E+00; -3.3953241E-01;  1.0000000E+04;  0.0000000E+00;  9.9821309E+03;-0.13316165;0.0;0.18230389;6182.2729
  1.1005661E+00;  9.9999998E-03;  2.0017137E-01;2758;0.23764993;0.0;0.051167767;1004.8651;  4.0216652E-01;3910.6116;3;69.35247;0.0;6.2358494;0;0.055892333;  1.0007485E+04;  0.0000000E+00; -6.7403334E-01;  1.0000000E+04;  0.0000000E+00;  9.9815615E+03;-0.11994992;0.0;0.17584226;6726.1221
  1.1006165E+00;  9.9999998E-03;  2.2018865E-01;2759;0.25064969;0.0;0.053272579;1004.7881;  4.0216643E-01;3848.6262;3;75.369896;0.0;7.3964043;0;0.069991477;  1.0006658E+04;  0.0000000E+00; -9.8356199E-01;  1.0000000E+04;  0.0000000E+00;  9.9808760E+03;-0.10391466;0.0;0.17390613;7430.4653
  1.1006700E+00;  9.9999998E-03;  2.4020310E-01;2760;0.26223338;0.0;0.053215839;1004.6945;  4.0216622E-01;3773.3198;3;85.205223;0.0;8.8211403;0;0.080833085;  1.0004844E+04;  0.0000000E+00; -1.1298912E+00;  1.0000000E+04;  0.0000000E+00;  9.9808516E+03;-0.076564945;0.0;0.15739803;7716.897
  1.1007282E+00;  9.9999998E-03;  2.6021555E-01;2761;0.27480549;0.0;0.054424848;1004.5635;  4.0216601E-01;3668.019;3;100.50512;0.0;11.965427;0;0.110565;  1.0000591E+04;  0.0000000E+00; -1.0839396E+00;  1.0000000E+04;  0.0000000E+00;  9.9825088E+03;-0.01843656;0.0;0.12900156;7125.7808
  1.1007905E+00;  9.9999998E-03;  2.8023276E-01;2762;0.28932017;0.0;0.05809968;1004.2311;  4.0216601E-01;3400.6968;3;121.67452;0.0;16.31538;0;0.21795383;  9.9922705E+03;  0.0000000E+00; -3.9415231E-01;  1.0000000E+04;  0.0000000E+00;  9.9842432E+03;0.098164141;0.0;0.11978969;5373.0879
  1.1204753E+00;  9.9999998E-03;  1.6012309E-01;2785;0.21063283;0.0;0.03932187;1004.3192;  4.0189716E-01;3437.7065;3;63.80323;0.0;4.2307453;0;0.030897468;  1.0008052E+04;  0.0000000E+00; -2.8483450E-01;  1.0000000E+04;  0.0000000E+00;  9.9835225E+03;-0.14590286;0.0;0.17680033;5166.2896
  1.1205142E+00;  9.9999998E-03;  1.8013665E-01;2786;0.22252053;0.0;0.041947488;1004.2719;  4.0189689E-01;3399.9641;3;66.52681;0.0;4.8964767;0;0.030330613;  1.0007633E+04;  0.0000000E+00; -6.5285730E-01;  1.0000000E+04;  0.0000000E+00;  9.9830107E+03;-0.13744904;0.0;0.16777965;5674.8364
  1.1205612E+00;  9.9999998E-03;  2.0015211E-01;2787;0.23589759;0.0;0.044281252;1004.2431;  4.0189686E-01;3377.0083;3;71.411522;0.0;5.7726851;0;0.029753581;  1.0007697E+04;  0.0000000E+00; -1.1169256E+00;  1.0000000E+04;  0.0000000E+00;  9.9823848E+03;-0.13422014;0.0;0.16397372;6597.7251
  1.1206152E+00;  9.9999998E-03;  2.2016843E-01;2788;0.24907501;0.0;0.045452863;1004.204;  4.0189660E-01;3345.7869;3;78.753555;0.0;6.7282825;0;0.030890584;  1.0007451E+04;  0.0000000E+00; -1.5046424E+00;  1.0000000E+04;  0.0000000E+00;  9.9818652E+03;-0.12736604;0.0;0.15825662;7534.2666
  1.1206710E+00;  9.9999998E-03;  2.4018167E-01;2789;0.26043922;0.0;0.045240402;1004.1482;  4.0189660E-01;3301.2822;3;90.392296;0.0;8.3600512;0;0.022764176;  1.0005764E+04;  0.0000000E+00; -1.6176811E+00;  1.0000000E+04;  0.0000000E+00;  9.9824570E+03;-0.10738933;0.0;0.13015351;7670.9351
  1.1207291E+00;  9.9999998E-03;  2.6019636E-01;2790;0.27326107;0.0;0.048049249;1003.9943;  4.0189648E-01;3178.6057;3;107.1834;0.0;11.964811;0;0.063795194;  1.0001065E+04;  0.0000000E+00; -1.2669402E+00;  1.0000000E+04;  0.0000000E+00;  9.9841074E+03;-0.046153385;0.0;0.10994858;6448.061
  1.1207852E+00;  9.9999998E-03;  2.8021336E-01;2791;0.28621858;0.0;0.051741745;1003.6378;  4.0189636E-01;2894.8621;3;129.41266;0.0;16.435919;0;0.17050698;  9.9923389E+03;  0.0000000E+00;  3.8244894E-01;  1.0000000E+04;  0.0000000E+00;  9.9857539E+03;0.070481963;0.0;0.10002501;4397.2896
  1.1404665E+00;  9.9999998E-03;  1.6010639E-01;2813;0.20779358;0.0;0.033581972;1003.7527;  4.0168071E-01;2948.5496;3;64.316856;0.0;3.9689939;0;0.022093892;  1.0006777E+04;  0.0000000E+00; -6.0949385E-01;  1.0000000E+04;  0.0000000E+00;  9.9842783E+03;-0.14105693;0.0;0.16315082;4684.1436
  1.1405088E+00;  9.9999998E-03;  1.8012013E-01;2814;0.2205556;0.0;0.035830632;1003.7384;  4.0168083E-01;2937.2188;3;68.133118;0.0;4.5566692;0;0.015936181;  1.0007067E+04;  0.0000000E+00; -1.1181812E+00;  1.0000000E+04;  0.0000000E+00;  9.9837080E+03;-0.14090686;0.0;0.15684304;5573.9932
  1.1405602E+00;  9.9999998E-03;  2.0013651E-01;2815;0.23436427;0.0;0.037853345;1003.7356;  4.0168053E-01;2934.8606;3;74.38623;0.0;5.3013296;0;0.0095801651;  1.0007591E+04;  0.0000000E+00; -1.6602633E+00;  1.0000000E+04;  0.0000000E+00;  9.9831436E+03;-0.14294812;0.0;0.15252829;6764.0659
  1.1406175E+00;  9.9999998E-03;  2.2015308E-01;2816;0.24726158;0.0;0.038443744;1003.7029;  4.0168041E-01;2909.1699;3;83.411324;0.0;5.9510875;0;-0.00032314658;  1.0007222E+04;  0.0000000E+00; -2.0248833E+00;  1.0000000E+04;  0.0000000E+00;  9.9828760E+03;-0.13814789;0.0;0.13782474;7638.4487
  1.1406721E+00;  9.9999998E-03;  2.4016656E-01;2817;0.25840187;0.0;0.039295252;1003.6425;  4.0168026E-01;2861.479;3;96.894829;0.0;8.1356001;0;-0.0082105622;  1.0004966E+04;  0.0000000E+00; -1.8658290E+00;  1.0000000E+04;  0.0000000E+00;  9.9839385E+03;-0.11405178;0.0;0.10584122;7087.5493
  1.1407272E+00;  9.9999998E-03;  2.6018369E-01;2818;0.27136731;0.0;0.043426;1003.4147;  4.0168026E-01;2682.4988;3;115.52961;0.0;12.02525;0;0.06355083;  9.9993564E+03;  0.0000000E+00; -8.0062675E-01;  1.0000000E+04;  0.0000000E+00;  9.9850225E+03;-0.037799828;0.0;0.10135066;4679.7314
  1.1604617E+00;  9.9999998E-03;  1.6009292E-01;2840;0.20573607;0.0;0.028182609;1003.3099;  4.0151116E-01;2557.79;3;65.64386;0.0;3.587379;0;0.013615981;  1.0005813E+04;  0.0000000E+00; -1.1154920E+00;  1.0000000E+04;  0.0000000E+00;  9.9848701E+03;-0.14014859;0.0;0.15376458;4626.1807
  1.1605085E+00;  9.9999998E-03;  1.8010852E-01;2841;0.21922843;0.0;0.03050115;1003.3177;  4.0151098E-01;2563.7576;3;70.825821;0.0;4.0797315;0;0.0042238384;  1.0006535E+04;  0.0000000E+00; -1.7078650E+00;  1.0000000E+04;  0.0000000E+00;  9.9843115E+03;-0.14402972;0.0;0.14825356;5776.1655
  1.1605649E+00;  9.9999998E-03;  2.0012711E-01;2842;0.23314811;0.0;0.032387871;1003.2966;  4.0151092E-01;2547.3186;3;78.392265;0.0;4.5178776;0;-0.0022056103;  1.0006700E+04;  0.0000000E+00; -2.2224000E+00;  1.0000000E+04;  0.0000000E+00;  9.9837451E+03;-0.14252168;0.0;0.14031607;6904.1812
  1.1606220E+00;  9.9999998E-03;  2.2014354E-01;2843;0.24544059;0.0;0.033120424;1003.2289;  4.0151075E-01;2494.8643;3;89.302376;0.0;5.2363977;0;-0.012854896;  1.0005356E+04;  0.0000000E+00; -2.3292081E+00;  1.0000000E+04;  0.0000000E+00;  9.9837520E+03;-0.12956077;0.0;0.11670587;7135.5713
  1.1606746E+00;  9.9999998E-03;  2.4015975E-01;2844;0.25722361;0.0;0.036054362;1003.0795;  4.0151072E-01;2379.3347;3;104.78212;0.0;8.1360435;0;0.017144337;  1.0001750E+04;  0.0000000E+00; -1.5336460E+00;  1.0000000E+04;  0.0000000E+00;  9.9843828E+03;-0.083596438;0.0;0.10074078;5407.9751
  1.1607186E+00;  9.9999998E-03;  2.6017421E-01;2845;0.2676692;0.0;0.039722383;1002.8679;  4.0151072E-01;2215.6658;3;124.9295;0.0;12.237427;0;0.088255636;  9.9961650E+03;  0.0000000E+00;  7.1797115E-01;  1.0000000E+04;  0.0000000E+00;  9.9857520E+03;-0.0071394225;0.0;0.095395058;3767.0747
  1.1804636E+00;  9.9999998E-03;  1.6008589E-01;2866;0.20473339;0.0;0.023994958;1002.9747;  4.0138054E-01;2250.9907;3;68.461288;0.0;3.0191956;0;0.0043376684;  1.0005151E+04;  0.0000000E+00; -1.7533804E+00;  1.0000000E+04;  0.0000000E+00;  9.9853467E+03;-0.14308475;0.0;0.14742242;4848.3867
  1.1805176E+00;  9.9999998E-03;  1.8010545E-01;2867;0.21915923;0.0;0.02684398;1002.9441;  4.0138069E-01;2227.6663;3;74.982132;0.0;3.2402511;0;0.0037041306;  1.0005310E+04;  0.0000000E+00; -2.3278842E+00;  1.0000000E+04;  0.0000000E+00;  9.9845908E+03;-0.13945302;0.0;0.14315715;5947.0078
  1.1805743E+00;  9.9999998E-03;  2.0012444E-01;2868;0.23273303;0.0;0.028827233;1002.8511;  4.0138054E-01;2157.1665;3;84.302414;0.0;3.7506957;0;0.010132656;  1.0004104E+04;  0.0000000E+00; -2.5695829E+00;  1.0000000E+04;  0.0000000E+00;  9.9839512E+03;-0.12178795;0.0;0.13192061;6456.0356
  1.1806267E+00;  9.9999998E-03;  2.2014059E-01;2869;0.24428298;0.0;0.030620305;1002.7122;  4.0138051E-01;2051.9644;3;97.20343;0.0;5.3525095;0;0.022356056;  1.0001302E+04;  0.0000000E+00; -1.9698949E+00;  1.0000000E+04;  0.0000000E+00;  9.9839912E+03;-0.088752992;0.0;0.11110905;5365.3394
  1.1806706E+00;  9.9999998E-03;  2.4015608E-01;2870;0.25477728;0.0;0.034359396;1002.5239;  4.0138048E-01;1909.3682;3;114.83965;0.0;8.8495731;0;0.081148773;  9.9970752E+03;  0.0000000E+00; -1.4531259E-02;  1.0000000E+04;  0.0000000E+00;  9.9844619E+03;-0.027715696;0.0;0.10886447;3093.7568
  1.2004775E+00;  9.9999998E-03;  1.6008893E-01;2890;0.20575623;0.0;0.022107307;1002.6533;  4.0128258E-01;1955.9365;3;72.8759;0.0;2.2133973;0;0.011427224;  1.0003599E+04;  0.0000000E+00; -2.4035244E+00;  1.0000000E+04;  0.0000000E+00;  9.9853857E+03;-0.13550463;0.0;0.14693186;4981.2651
  1.2005322E+00;  9.9999998E-03;  1.8010820E-01;2891;0.22004306;0.0;0.02490788;1002.5314;  4.0128249E-01;1865.8921;3;81.443527;0.0;2.6654086;0;0.033145599;  1.0002112E+04;  0.0000000E+00; -2.6962972E+00;  1.0000000E+04;  0.0000000E+00;  9.9844512E+03;-0.11002257;0.0;0.14316817;5502.5371
  1.2005841E+00;  9.9999998E-03;  2.0012635E-01;2892;0.23286217;0.0;0.027631123;1002.3406;  4.0128252E-01;1725.1727;3;93.125923;0.0;4.0085688;0;0.071406871;  9.9990615E+03;  0.0000000E+00; -2.1576698E+00;  1.0000000E+04;  0.0000000E+00;  9.9836992E+03;-0.064411491;0.0;0.13581836;4737.501
  1.2006252E+00;  9.9999998E-03;  2.2014000E-01;2893;0.24188381;0.0;0.029816356;1002.1964;  4.0128261E-01;1618.6754;3;107.55752;0.0;6.365077;0;0.095677018;  9.9959170E+03;  0.0000000E+00; -2.8279206E-01;  1.0000000E+04;  0.0000000E+00;  9.9839658E+03;-0.023883481;0.0;0.1195605;2714.5769
  1.2204956E+00;  9.9999998E-03;  1.6009559E-01;2913;0.20692655;0.0;0.021193573;1002.2577;  4.0121028E-01;1612.179;3;80.030899;0.0;1.737483;0;0.050298974;  9.9996426E+03;  0.0000000E+00; -2.6639540E+00;  1.0000000E+04;  0.0000000E+00;  9.9850615E+03;-0.099096939;0.0;0.14939591;4390.8174
  1.2205423E+00;  9.9999998E-03;  1.8011233E-01;2914;0.21931322;0.0;0.023962963;1002.0767;  4.0121028E-01;1482.7543;3;90.675209;0.0;2.989893;0;0.091806874;  9.9969277E+03;  0.0000000E+00; -2.1319652E+00;  1.0000000E+04;  0.0000000E+00;  9.9841660E+03;-0.053933639;0.0;0.14574051;3783.2136
  1.2205836E+00;  9.9999998E-03;  2.0012784E-01;2915;0.22986144;0.0;0.027080301;1001.8771;  4.0121043E-01;1340.2562;3;103.69631;0.0;5.2478361;0;0.14520982;  9.9935635E+03;  0.0000000E+00; -2.9284698E-01;  1.0000000E+04;  0.0000000E+00;  9.9835527E+03;0.0022147801;0.0;0.14299504;2256.9199
  1.2206054E+00;  9.9999998E-03;  2.2013235E-01;2916;0.23375301;0.0;0.02711652;1001.9984;  4.0121025E-01;1426.6759;3;117.08324;0.0;7.3604717;0;0.088384703;  9.9937910E+03;  0.0000000E+00;  2.5245183E+00;  1.0000000E+04;  0.0000000E+00;  9.9857363E+03;-0.013196213;0.0;0.10158092;4119.3052
  1.2405015E+00;  9.9999998E-03;  1.6009864E-01;2934;0.20447373;0.0;0.019630127;1001.9036;  4.0115806E-01;1309.254;3;89.389214;0.0;2.0450675;0;0.090754911;  9.9951104E+03;  0.0000000E+00; -1.6765168E+00;  1.0000000E+04;  0.0000000E+00;  9.9851250E+03;-0.052315194;0.0;0.1430701;2548.6045
  1.2405354E+00;  9.9999998E-03;  1.8011123E-01;2935;0.21408814;0.0;0.022361556;1001.8127;  4.0115827E-01;1246.6128;3;101.04858;0.0;4.1392336;0;0.12277903;  9.9936514E+03;  0.0000000E+00; -1.5124681E-02;  1.0000000E+04;  0.0000000E+00;  9.9847725E+03;-0.015258788;0.0;0.13803782;1672.9728
  1.2604882E+00;  9.9999998E-03;  1.6009578E-01;2952;0.19751252;0.0;0.017411543;1001.8344;  4.0112132E-01;1208.642;3;99.272018;0.0;2.8319731;0;0.08132121;  9.9945938E+03;  0.0000000E+00;  6.3269770E-01;  1.0000000E+04;  0.0000000E+00;  9.9861016E+03;-0.044079494;0.0;0.12540071;1382.2083
