Pos.x;Pos.y;Pos.z;Idp;Vel.x;Vel.y;Vel.z;Rhop;Mass;Press;Type;Acec.x;Acec.y;Acec.z;CellOffSpring;GradVel;Qfxx;Qfxy;Qfxz;Qfyy;Qfyz;Qfzz;StrainDot.x;StrainDot.y;StrainDot.z;VonMises3D
 -2.2000000E-01;  9.9999998E-03; -3.8000000E-01;0;0.0;0.0;0.0;1000.0;  4.0000001E-01;0.0;0;0.0;0.0;0.0;0;0.0;  1.0000000E+04;  0.0000000E+00;  0.0000000E+00;  1.0000000E+04;  0.0000000E+00;  1.0000000E+04;0.0;0.0;0.0;0.0
 -2.2000000E-01;  9.9999998E-03; -3.6000001E-01;1;0.0;0.0;0.0;1000.0;  4.0000001E-01;0.0;0;0.0;0.0;0.0;0;0.0;  1.0000000E+04;  0.0000000E+00;  0.0000000E+00;  1.0000000E+04;  0.0000000E+00;  1.0000000E+04;0.0;0.0;0.0;0.0
 -2.0000000E-01;  9.9999998E-03; -4.0000001E-01;39;0.0;0.0;0.0;1000.0;  4.0000001E-01;0.0;0;0.0;0.0;0.0;0;0.0;  1.0000000E+04;  0.0000000E+00;  0.0000000E+00;  1.0000000E+04;  0.0000000E+00;  1.0000000E+04;0.0;0.0;0.0;0.0
 -2.0000000E-01;  9.9999998E-03; -3.8000000E-01;40;0.0;0.0;0.0;1000.0;  4.0000001E-01;0.0;0;0.0;0.0;0.0;0;0.0;  1.0000000E+04;  0.0000000E+00;  0.0000000E+00;  1.0000000E+04;  0.0000000E+00;  1.0000000E+04;0.0;0.0;0.0;0.0
 -2.0000000E-01;  9.9999998E-03; -3.6000001E-01;41;0.0;0.0;0.0;1000.0;  4.0000001E-01;0.0;0;0.0;0.0;0.0;0;0.0;  1.0000000E+04;  0.0000000E+00;  0.0000000E+00;  1.0000000E+04;  0.0000000E+00;  1.0000000E+04;0.0;0.0;0.0;0.0
 -1.8000001E-01;  9.9999998E-03; -4.0000001E-01;80;0.0;0.0;0.0;1000.0;  4.0000001E-01;0.0;0;0.0;0.0;0.0;0;0.0;  1.0000000E+04;  0.0000000E+00;  0.0000000E+00;  1.0000000E+04;  0.0000000E+00;  1.0000000E+04;0.0;0.0;0.0;0.0
 -1.8000001E-01;  9.9999998E-03; -3.8000000E-01;81;0.0;0.0;0.0;1000.0;  4.0000001E-01;0.0;0;0.0;0.0;0.0;0;0.0;  1.0000000E+04;  0.0000000E+00;  0.0000000E+00;  1.0000000E+04;  0.0000000E+00;  1.0000000E+04;0.0;0.0;0.0;0.0
 -1.8000001E-01;  9.9999998E-03; -3.6000001E-01;82;0.0;0.0;0.0;1000.0;  4.0000001E-01;0.0;0;0.0;0.0;0.0;0;0.0;  1.0000000E+04;  0.0000000E+00;  0.0000000E+00;  1.0000000E+04;  0.0000000E+00;  1.0000000E+04;0.0;0.0;0.0;0.0
 -1.6000000E-01;  9.9999998E-03; -4.0000001E-01;121;0.0;0.0;0.0;1000.0;  4.0000001E-01;0.0;0;0.0;0.0;0.0;0;0.0;  1.0000000E+04;  0.0000000E+00;  0.0000000E+00;  1.0000000E+04;  0.0000000E+00;  1.0000000E+04;0.0;0.0;0.0;0.0
 -1.6000000E-01;  9.9999998E-03; -3.8000000E-01;122;0.0;0.0;0.0;1000.0;  4.0000001E-01;0.0;0;0.0;0.0;0.0;0;0.0;  1.0000000E+04;  0.0000000E+00;  0.0000000E+00;  1.0000000E+04;  0.0000000E+00;  1.0000000E+04;0.0;0.0;0.0;0.0
 -1.6000000E-01;  9.9999998E-03; -3.6000001E-01;123;0.0;0.0;0.0;1000.0;  4.0000001E-01;0.0;0;0.0;0.0;0.0;0;0.0;  1.0000000E+04;  0.0000000E+00;  0.0000000E+00;  1.0000000E+04;  0.0000000E+00;  1.0000000E+04;0.0;0.0;0.0;0.0
 -1.4000000E-01;  9.9999998E-03; -4.0000001E-01;162;0.0;0.0;0.0;1000.0;  4.0000001E-01;0.0;0;0.0;0.0;0.0;0;0.0;  1.0000000E+04;  0.0000000E+00;  0.0000000E+00;  1.0000000E+04;  0.0000000E+00;  1.0000000E+04;0.0;0.0;0.0;0.0
 -1.4000000E-01;  9.9999998E-03; -3.8000000E-01;163;0.0;0.0;0.0;1000.0;  4.0000001E-01;0.0;0;0.0;0.0;0.0;0;0.0;  1.0000000E+04;  0.0000000E+00;  0.0000000E+00;  1.0000000E+04;  0.0000000E+00;  1.0000000E+04;0.0;0.0;0.0;0.0
 -1.4000000E-01;  9.9999998E-03; -3.6000001E-01;164;0.0;0.0;0.0;1000.0;  4.0000001E-01;0.0;0;0.0;0.0;0.0;0;-1.3705301e-09;  1.0000000E+04;  0.0000000E+00;  0.0000000E+00;  1.0000000E+04;  0.0000000E+00;  1.0000000E+04;-1.0944154e-09;0.0;-2.7611463e-10;5.7448148e-07
 -1.2000000E-01;  9.9999998E-03; -4.0000001E-01;203;0.0;0.0;0.0;1000.0;  4.0000001E-01;0.0;0;0.0;0.0;0.0;0;0.0;  1.0000000E+04;  0.0000000E+00;  0.0000000E+00;  1.0000000E+04;  0.0000000E+00;  1.0000000E+04;0.0;0.0;0.0;0.0
 -1.2000000E-01;  9.9999998E-03; -3.8000000E-01;204;0.0;0.0;0.0;1000.0;  4.0000001E-01;0.0;0;0.0;0.0;0.0;0;-7.4221207e-09;  1.0000000E+04;  0.0000000E+00;  0.0000000E+00;  1.0000000E+04;  0.0000000E+00;  1.0000000E+04;-5.3460374e-09;0.0;-2.0760833e-09;4.3950231e-06
 -1.2000000E-01;  9.9999998E-03; -3.6000001E-01;205;0.0;0.0;0.0;1000.0;  4.0000001E-01;0.0;0;0.0;0.0;0.0;0;-5.0496855e-08;  1.0000000E+04;  0.0000000E+00;  0.0000000E+00;  1.0000000E+04;  0.0000000E+00;  1.0000000E+04;-3.8717278e-08;0.0;-1.1779576e-08;2.4790872e-05
 -1.0000000E-01;  9.9999998E-03; -4.0000001E-01;244;0.0;0.0;0.0;1000.0;  4.0000001E-01;0.0;0;0.0;0.0;0.0;0;-1.4204222e-08;  1.0000000E+04;  0.0000000E+00;  0.0000000E+00;  1.0000000E+04;  0.0000000E+00;  1.0000000E+04;-9.6241841e-09;0.0;-4.5800377e-09;9.8404898e-06
 -1.0000000E-01;  9.9999998E-03; -3.8000000E-01;245;0.0;0.0;0.0;1000.0;  4.0000001E-01;0.0;0;0.0;0.0;0.0;0;-1.0278802e-07;  1.0000000E+04;  0.0000000E+00;  0.0000000E+00;  1.0000000E+04;  0.0000000E+00;  1.0000000E+04;-7.0355057e-08;0.0;-3.2432968e-08;6.9528556e-05
 -1.0000000E-01;  9.9999998E-03; -3.6000001E-01;246;0.0;0.0;0.0;1000.0;  4.0000001E-01;0.0;0;0.0;0.0;0.0;0;-3.2519688e-07;  1.0000000E+04;  0.0000000E+00;  0.0000000E+00;  1.0000000E+04;  0.0000000E+00;  1.0000000E+04;-2.3992092e-07;0.0;-8.527595e-08;0.00018195111
 -7.9999998E-02;  9.9999998E-03; -4.0000001E-01;285;0.0;0.0;0.0;1000.0;  4.0000001E-01;0.0;0;0.0;0.0;0.0;0;-1.230157e-07;  1.0000000E+04;  0.0000000E+00;  0.0000000E+00;  1.0000000E+04;  0.0000000E+00;  1.0000000E+04;-7.8776331e-08;0.0;-4.4239364e-08;9.6104959e-05
 -7.9999998E-02;  9.9999998E-03; -3.8000000E-01;286;0.0;0.0;0.0;1000.0;  4.0000001E-01;0.0;0;0.0;0.0;0.0;0;-4.692977e-07;  1.0000000E+04;  0.0000000E+00;  0.0000000E+00;  1.0000000E+04;  0.0000000E+00;  1.0000000E+04;-3.064975e-07;0.0;-1.6280021e-07;0.00035387647
 -7.9999998E-02;  9.9999998E-03; -3.6000001E-01;287;0.0;0.0;0.0;1000.0;  4.0000001E-01;0.0;0;0.0;0.0;0.0;0;-1.1356467e-06;  1.0000000E+04;  0.0000000E+00;  0.0000000E+00;  1.0000000E+04;  0.0000000E+00;  1.0000000E+04;-8.0801016e-07;0.0;-3.2763651e-07;0.00070917699
 -5.9999999E-02;  9.9999998E-03; -4.0000001E-01;326;0.0;0.0;0.0;1000.0;  4.0000001E-01;0.0;0;0.0;0.0;0.0;0;-4.569504e-07;  1.0000000E+04;  0.0000000E+00;  0.0000000E+00;  1.0000000E+04;  0.0000000E+00;  1.0000000E+04;-2.7682376e-07;0.0;-1.8012665e-07;0.00039707389
 -5.9999999E-02;  9.9999998E-03; -3.8000000E-01;327;0.0;0.0;0.0;1000.0;  4.0000001E-01;0.0;0;0.0;0.0;0.0;0;-1.3506292e-06;  1.0000000E+04;  0.0000000E+00;  0.0000000E+00;  1.0000000E+04;  0.0000000E+00;  1.0000000E+04;-8.4054784e-07;0.0;-5.1008141e-07;0.0011269214
 -5.9999999E-02;  9.9999998E-03; -3.6000001E-01;328;0.0;0.0;0.0;1000.0;  4.0000001E-01;0.0;0;0.0;0.0;0.0;0;-2.8656495e-06;  1.0000000E+04;  0.0000000E+00;  0.0000000E+00;  1.0000000E+04;  0.0000000E+00;  1.0000000E+04;-1.9632366e-06;0.0;-9.0241303e-07;0.00198776
 -3.9999999E-02;  9.9999998E-03; -4.0000001E-01;367;0.0;0.0;0.0;1000.0;  4.0000001E-01;0.0;0;0.0;0.0;0.0;0;-1.143947e-06;  1.0000000E+04;  0.0000000E+00;  0.0000000E+00;  1.0000000E+04;  0.0000000E+00;  1.0000000E+04;-6.5196315e-07;0.0;-4.9198388e-07;0.0011044167
 -3.9999999E-02;  9.9999998E-03; -3.8000000E-01;368;0.0;0.0;0.0;1000.0;  4.0000001E-01;0.0;0;0.0;0.0;0.0;0;-2.978029e-06;  1.0000000E+04;  0.0000000E+00;  0.0000000E+00;  1.0000000E+04;  0.0000000E+00;  1.0000000E+04;-1.7572756e-06;0.0;-1.2207535e-06;0.0027502356
 -3.9999999E-02;  9.9999998E-03; -3.6000001E-01;369;0.0;0.0;0.0;1000.0;  4.0000001E-01;0.0;0;0.0;0.0;0.0;0;-5.8701339e-06;  1.0000000E+04;  0.0000000E+00;  0.0000000E+00;  1.0000000E+04;  0.0000000E+00;  1.0000000E+04;-3.8558323e-06;0.0;-2.0143016e-06;0.004529695
 -2.0000000E-02;  9.9999998E-03; -4.0000001E-01;408;0.0;0.0;0.0;1000.0;  4.0000001E-01;0.0;0;0.0;0.0;0.0;0;-2.2696445e-06;  1.0000000E+04;  0.0000000E+00;  0.0000000E+00;  1.0000000E+04;  0.0000000E+00;  1.0000000E+04;-1.2092398e-06;0.0;-1.0604047e-06;0.0024341105
 -2.0000000E-02;  9.9999998E-03; -3.8000000E-01;409;0.0;0.0;0.0;1000.0;  4.0000001E-01;0.0;0;0.0;0.0;0.0;0;-5.5221462e-06;  1.0000000E+04;  0.0000000E+00;  0.0000000E+00;  1.0000000E+04;  0.0000000E+00;  1.0000000E+04;-3.0756189e-06;0.0;-2.4465273e-06;0.0056428546
 -2.0000000E-02;  9.9999998E-03; -3.6000001E-01;410;0.0;0.0;0.0;1000.0;  4.0000001E-01;0.0;0;0.0;0.0;0.0;0;-1.0422113e-05;  1.0000000E+04;  0.0000000E+00;  0.0000000E+00;  1.0000000E+04;  0.0000000E+00;  1.0000000E+04;-6.5408462e-06;0.0;-3.8812668e-06;0.0089444527
  0.0000000E+00;  9.9999998E-03; -4.0000001E-01;449;0.0;0.0;0.0;1000.0;  4.0000001E-01;0.0;0;0.0;0.0;0.0;0;-3.8803992e-06;  1.0000000E+04;  0.0000000E+00;  0.0000000E+00;  1.0000000E+04;  0.0000000E+00;  1.0000000E+04;-1.9277395e-06;0.0;-1.9526599e-06;0.0046052835
  0.0000000E+00;  9.9999998E-03; -3.8000000E-01;450;0.0;0.0;0.0;1000.0;  4.0000001E-01;0.0;0;0.0;0.0;0.0;0;-9.1095617e-06;  1.0000000E+04;  0.0000000E+00;  0.0000000E+00;  1.0000000E+04;  0.0000000E+00;  1.0000000E+04;-4.7857698e-06;0.0;-4.3237919e-06;0.010256873
  0.0000000E+00;  9.9999998E-03; -3.6000001E-01;451;0.0;0.0;0.0;1000.0;  4.0000001E-01;0.0;0;0.0;0.0;0.0;0;-1.6746548e-05;  1.0000000E+04;  0.0000000E+00;  0.0000000E+00;  1.0000000E+04;  0.0000000E+00;  1.0000000E+04;-1.0040038e-05;0.0;-6.7065098e-06;0.015908511
  2.0000000E-02;  9.9999998E-03; -4.0000001E-01;461;0.0;0.0;0.0;1000.0;  4.0000001E-01;0.0;0;0.0;0.0;0.0;0;-6.0348975e-06;  1.0000000E+04;  0.0000000E+00;  0.0000000E+00;  1.0000000E+04;  0.0000000E+00;  1.0000000E+04;-2.8095494e-06;0.0;-3.2253481e-06;0.0078564351
  2.0000000E-02;  9.9999998E-03; -3.8000000E-01;462;0.0;0.0;0.0;1000.0;  4.0000001E-01;0.0;0;0.0;0.0;0.0;0;-1.3918843e-05;  1.0000000E+04;  0.0000000E+00;  0.0000000E+00;  1.0000000E+04;  0.0000000E+00;  1.0000000E+04;-6.9390153e-06;0.0;-6.9798275e-06;0.017113781
  2.0000000E-02;  9.9999998E-03; -3.6000001E-01;463;0.0;0.0;0.0;1000.0;  4.0000001E-01;0.0;0;0.0;0.0;0.0;0;-2.518208e-05;  1.0000000E+04;  0.0000000E+00;  0.0000000E+00;  1.0000000E+04;  0.0000000E+00;  1.0000000E+04;-1.4500404e-05;0.0;-1.0681676e-05;0.026205892
  3.9999999E-02;  9.9999998E-03; -4.0000001E-01;471;0.0;0.0;0.0;1000.0;  4.0000001E-01;0.0;0;0.0;0.0;0.0;0;-8.8835823e-06;  1.0000000E+04;  0.0000000E+00;  0.0000000E+00;  1.0000000E+04;  0.0000000E+00;  1.0000000E+04;-3.9324195e-06;0.0;-4.9511623e-06;0.012517893
  3.9999999E-02;  9.9999998E-03; -3.8000000E-01;472;0.0;0.0;0.0;1000.0;  4.0000001E-01;0.0;0;0.0;0.0;0.0;0;-2.0329891e-05;  1.0000000E+04;  0.0000000E+00;  0.0000000E+00;  1.0000000E+04;  0.0000000E+00;  1.0000000E+04;-9.7473321e-06;0.0;-1.0582559e-05;0.026943715
  3.9999999E-02;  9.9999998E-03; -3.6000001E-01;473;0.0;0.0;0.0;1000.0;  4.0000001E-01;0.0;0;0.0;0.0;0.0;0;-3.6438782e-05;  1.0000000E+04;  0.0000000E+00;  0.0000000E+00;  1.0000000E+04;  0.0000000E+00;  1.0000000E+04;-2.0380432e-05;0.0;-1.6058351e-05;0.04092915
  5.9999999E-02;  9.9999998E-03; -4.0000001E-01;481;0.0;0.0;0.0;1000.0;  4.0000001E-01;0.0;0;0.0;0.0;0.0;0;-1.275332e-05;  1.0000000E+04;  0.0000000E+00;  0.0000000E+00;  1.0000000E+04;  0.0000000E+00;  1.0000000E+04;-5.4926986e-06;0.0;-7.2606217e-06;0.019126287
  5.9999999E-02;  9.9999998E-03; -3.8000000E-01;482;0.0;0.0;0.0;1000.0;  4.0000001E-01;0.0;0;0.0;0.0;0.0;0;-2.9086623e-05;  1.0000000E+04;  0.0000000E+00;  0.0000000E+00;  1.0000000E+04;  0.0000000E+00;  1.0000000E+04;-1.3666089e-05;0.0;-1.5420534e-05;0.040913079
  5.9999999E-02;  9.9999998E-03; -3.6000001E-01;483;0.0;0.0;0.0;1000.0;  4.0000001E-01;0.0;0;0.0;0.0;0.0;0;-5.1853625e-05;  1.0000000E+04;  0.0000000E+00;  0.0000000E+00;  1.0000000E+04;  0.0000000E+00;  1.0000000E+04;-2.8580551e-05;0.0;-2.3273076e-05;0.061831683
  7.9999998E-02;  9.9999998E-03; -4.0000001E-01;491;0.0;0.0;0.0;1000.0;  4.0000001E-01;0.0;0;0.0;0.0;0.0;0;-1.8262692e-05;  1.0000000E+04;  0.0000000E+00;  0.0000000E+00;  1.0000000E+04;  0.0000000E+00;  1.0000000E+04;-7.8770117e-06;0.0;-1.038568e-05;0.028573472
  7.9999998E-02;  9.9999998E-03; -3.8000000E-01;492;0.0;0.0;0.0;1000.0;  4.0000001E-01;0.0;0;0.0;0.0;0.0;0;-4.1580788e-05;  1.0000000E+04;  0.0000000E+00;  0.0000000E+00;  1.0000000E+04;  0.0000000E+00;  1.0000000E+04;-1.9591731e-05;0.0;-2.1989059e-05;0.060907107
  7.9999998E-02;  9.9999998E-03; -3.6000001E-01;493;0.0;0.0;0.0;1000.0;  4.0000001E-01;0.0;0;0.0;0.0;0.0;0;-7.3928881e-05;  1.0000000E+04;  0.0000000E+00;  0.0000000E+00;  1.0000000E+04;  0.0000000E+00;  1.0000000E+04;-4.0841722e-05;0.0;-3.3087155e-05;0.091861241
  1.0000000E-01;  9.9999998E-03; -4.0000001E-01;501;0.0;0.0;0.0;1000.0;  4.0000001E-01;0.0;0;0.0;0.0;0.0;0;-2.6584687e-05;  1.0000000E+04;  0.0000000E+00;  0.0000000E+00;  1.0000000E+04;  0.0000000E+00;  1.0000000E+04;-1.1845568e-05;0.0;-1.4739117e-05;0.043200232
  1.0000000E-01;  9.9999998E-03; -3.8000000E-01;502;0.0;0.0;0.0;1000.0;  4.0000001E-01;0.0;0;0.0;0.0;0.0;0;-6.0451304e-05;  1.0000000E+04;  0.0000000E+00;  0.0000000E+00;  1.0000000E+04;  0.0000000E+00;  1.0000000E+04;-2.9279488e-05;0.0;-3.1171814e-05;0.090158209
  1.0000000E-01;  9.9999998E-03; -3.6000001E-01;503;0.0;0.0;0.0;1000.0;  4.0000001E-01;0.0;0;0.0;0.0;0.0;0;-0.00010738615;  1.0000000E+04;  0.0000000E+00;  0.0000000E+00;  1.0000000E+04;  0.0000000E+00;  1.0000000E+04;-6.0528164e-05;0.0;-4.6857989e-05;0.13662228
  1.2000000E-01;  9.9999998E-03; -4.0000001E-01;511;0.0;0.0;0.0;1000.0;  4.0000001E-01;0.0;0;0.0;0.0;0.0;0;-4.0028135e-05;  1.0000000E+04;  0.0000000E+00;  0.0000000E+00;  1.0000000E+04;  0.0000000E+00;  1.0000000E+04;-1.8856404e-05;0.0;-2.1171731e-05;0.079591133
  1.2000000E-01;  9.9999998E-03; -3.8000000E-01;512;0.0;0.0;0.0;1000.0;  4.0000001E-01;0.0;0;0.0;0.0;0.0;0;-9.0731395e-05;  1.0000000E+04;  0.0000000E+00;  0.0000000E+00;  1.0000000E+04;  0.0000000E+00;  1.0000000E+04;-4.6021098e-05;0.0;-4.4710298e-05;0.138546
  1.2000000E-01;  9.9999998E-03; -3.6000001E-01;513;0.0;0.0;0.0;1000.0001;  4.0000001E-01;0.098762624;0;0.0;0.0;0.0;0;-0.00016094875;  1.0000000E+04;  0.0000000E+00;  0.0000000E+00;  1.0000000E+04;  0.0000000E+00;  1.0000000E+04;-9.3797658e-05;0.0;-6.7151101e-05;0.20781045
  1.4000000E-01;  9.9999998E-03; -4.0000001E-01;521;0.0;0.0;0.0;1000.0;  4.0000001E-01;0.0;0;0.0;0.0;0.0;0;-6.3405023e-05;  1.0000000E+04;  0.0000000E+00;  0.0000000E+00;  1.0000000E+04;  0.0000000E+00;  1.0000000E+04;-3.1716063e-05;0.0;-3.168896e-05;0.22027741
  1.4000000E-01;  9.9999998E-03; -3.8000000E-01;522;0.0;0.0;0.0;1000.0001;  4.0000001E-01;0.098762624;0;0.0;0.0;0.0;0;-0.00014190331;  1.0000000E+04;  0.0000000E+00;  0.0000000E+00;  1.0000000E+04;  0.0000000E+00;  1.0000000E+04;-7.5728094e-05;0.0;-6.6175213e-05;0.26074028
  1.4000000E-01;  9.9999998E-03; -3.6000001E-01;523;0.0;0.0;0.0;1000.0001;  4.0000001E-01;0.098762624;0;0.0;0.0;0.0;0;-0.00024998974;  1.0000000E+04;  0.0000000E+00;  0.0000000E+00;  1.0000000E+04;  0.0000000E+00;  1.0000000E+04;-0.00015116973;0.0;-9.8820004e-05;0.32786334
  1.6000000E-01;  9.9999998E-03; -4.0000001E-01;531;0.0;0.0;0.0;1000.0;  4.0000001E-01;0.0;0;0.0;0.0;0.0;0;-0.00010651924;  1.0000000E+04;  0.0000000E+00;  0.0000000E+00;  1.0000000E+04;  0.0000000E+00;  1.0000000E+04;-5.5310713e-05;0.0;-5.1208528e-05;0.69110221
  1.6000000E-01;  9.9999998E-03; -3.8000000E-01;532;0.0;0.0;0.0;1000.0001;  4.0000001E-01;0.098762624;0;0.0;0.0;0.0;0;-0.00022982736;  1.0000000E+04;  0.0000000E+00;  0.0000000E+00;  1.0000000E+04;  0.0000000E+00;  1.0000000E+04;-0.00012706153;0.0;-0.00010276583;0.65841907
  1.6000000E-01;  9.9999998E-03; -3.6000001E-01;533;0.0;0.0;0.0;1000.0002;  4.0000001E-01;0.19752525;0;0.0;0.0;0.0;0;-0.00039746944;  1.0000000E+04;  0.0000000E+00;  0.0000000E+00;  1.0000000E+04;  0.0000000E+00;  1.0000000E+04;-0.00024678634;0.0;-0.00015068312;0.52716058
  1.8000001E-01;  9.9999998E-03; -4.0000001E-01;541;0.0;0.0;0.0;1000.0001;  4.0000001E-01;0.098762624;0;0.0;0.0;0.0;0;-0.00018715335;  1.0000000E+04;  0.0000000E+00;  0.0000000E+00;  1.0000000E+04;  0.0000000E+00;  1.0000000E+04;-9.5521769e-05;0.0;-9.1631569e-05;1.9605676
  1.8000001E-01;  9.9999998E-03; -3.8000000E-01;542;0.0;0.0;0.0;1000.0002;  4.0000001E-01;0.19752525;0;0.0;0.0;0.0;0;-0.00037504444;  1.0000000E+04;  0.0000000E+00;  0.0000000E+00;  1.0000000E+04;  0.0000000E+00;  1.0000000E+04;-0.00020646799;0.0;-0.00016857646;1.716073
  1.8000001E-01;  9.9999998E-03; -3.6000001E-01;543;0.0;0.0;0.0;1000.0003;  4.0000001E-01;0.29628786;0;0.0;0.0;0.0;0;-0.000627045;  1.0000000E+04;  0.0000000E+00;  0.0000000E+00;  1.0000000E+04;  0.0000000E+00;  1.0000000E+04;-0.00038905905;0.0;-0.00023798597;0.82815385
  2.0000000E-01;  9.9999998E-03; -3.8000000E-01;551;0.0;0.0;0.0;1000.0003;  4.0000001E-01;0.29628786;0;0.0;0.0;0.0;0;-0.0006004679;  1.0000000E+04;  0.0000000E+00;  0.0000000E+00;  1.0000000E+04;  0.0000000E+00;  1.0000000E+04;-0.00031180072;0.0;-0.00028866719;3.8126771
  2.0000000E-01;  9.9999998E-03; -3.6000001E-01;552;0.0;0.0;0.0;1000.0004;  4.0000001E-01;0.3950505;0;0.0;0.0;0.0;0;-0.00095651869;  1.0000000E+04;  0.0000000E+00;  0.0000000E+00;  1.0000000E+04;  0.0000000E+00;  1.0000000E+04;-0.00057134713;0.0;-0.00038517153;1.3218188
 -2.2000000E-01;  9.9999998E-03; -3.4000000E-01;2;0.0;0.0;0.0;1000.0;  4.0000001E-01;0.0;0;0.0;0.0;0.0;0;0.0;  1.0000000E+04;  0.0000000E+00;  0.0000000E+00;  1.0000000E+04;  0.0000000E+00;  1.0000000E+04;0.0;0.0;0.0;0.0
 -2.2000000E-01;  9.9999998E-03; -3.1999999E-01;3;0.0;0.0;0.0;1000.0;  4.0000001E-01;0.0;0;0.0;0.0;0.0;0;0.0;  1.0000000E+04;  0.0000000E+00;  0.0000000E+00;  1.0000000E+04;  0.0000000E+00;  1.0000000E+04;0.0;0.0;0.0;0.0
 -2.2000000E-01;  9.9999998E-03; -3.0000001E-01;4;0.0;0.0;0.0;1000.0;  4.0000001E-01;0.0;0;0.0;0.0;0.0;0;0.0;  1.0000000E+04;  0.0000000E+00;  0.0000000E+00;  1.0000000E+04;  0.0000000E+00;  1.0000000E+04;0.0;0.0;0.0;0.0
 -2.2000000E-01;  9.9999998E-03; -2.8000000E-01;5;0.0;0.0;0.0;1000.0;  4.0000001E-01;0.0;0;0.0;0.0;0.0;0;0.0;  1.0000000E+04;  0.0000000E+00;  0.0000000E+00;  1.0000000E+04;  0.0000000E+00;  1.0000000E+04;0.0;0.0;0.0;0.0
 -2.2000000E-01;  9.9999998E-03; -2.5999999E-01;6;0.0;0.0;0.0;1000.0;  4.0000001E-01;0.0;0;0.0;0.0;0.0;0;0.0;  1.0000000E+04;  0.0000000E+00;  0.0000000E+00;  1.0000000E+04;  0.0000000E+00;  1.0000000E+04;0.0;0.0;0.0;0.0
 -2.2000000E-01;  9.9999998E-03; -2.3999999E-01;7;0.0;0.0;0.0;1000.0;  4.0000001E-01;0.0;0;0.0;0.0;0.0;0;0.0;  1.0000000E+04;  0.0000000E+00;  0.0000000E+00;  1.0000000E+04;  0.0000000E+00;  1.0000000E+04;0.0;0.0;0.0;0.0
 -2.2000000E-01;  9.9999998E-03; -2.2000000E-01;8;0.0;0.0;0.0;1000.0;  4.0000001E-01;0.0;0;0.0;0.0;0.0;0;0.0;  1.0000000E+04;  0.0000000E+00;  0.0000000E+00;  1.0000000E+04;  0.0000000E+00;  1.0000000E+04;0.0;0.0;0.0;0.0
 -2.2000000E-01;  9.9999998E-03; -2.0000000E-01;9;0.0;0.0;0.0;1000.0;  4.0000001E-01;0.0;0;0.0;0.0;0.0;0;0.0;  1.0000000E+04;  0.0000000E+00;  0.0000000E+00;  1.0000000E+04;  0.0000000E+00;  1.0000000E+04;0.0;0.0;0.0;0.0
 -2.0000000E-01;  9.9999998E-03; -3.4000000E-01;42;0.0;0.0;0.0;1000.0;  4.0000001E-01;0.0;0;0.0;0.0;0.0;0;0.0;  1.0000000E+04;  0.0000000E+00;  0.0000000E+00;  1.0000000E+04;  0.0000000E+00;  1.0000000E+04;0.0;0.0;0.0;0.0
 -2.0000000E-01;  9.9999998E-03; -3.1999999E-01;43;0.0;0.0;0.0;1000.0;  4.0000001E-01;0.0;0;0.0;0.0;0.0;0;0.0;  1.0000000E+04;  0.0000000E+00;  0.0000000E+00;  1.0000000E+04;  0.0000000E+00;  1.0000000E+04;0.0;0.0;0.0;0.0
 -2.0000000E-01;  9.9999998E-03; -3.0000001E-01;44;0.0;0.0;0.0;1000.0;  4.0000001E-01;0.0;0;0.0;0.0;0.0;0;0.0;  1.0000000E+04;  0.0000000E+00;  0.0000000E+00;  1.0000000E+04;  0.0000000E+00;  1.0000000E+04;0.0;0.0;0.0;0.0
 -2.0000000E-01;  9.9999998E-03; -2.8000000E-01;45;0.0;0.0;0.0;1000.0;  4.0000001E-01;0.0;0;0.0;0.0;0.0;0;0.0;  1.0000000E+04;  0.0000000E+00;  0.0000000E+00;  1.0000000E+04;  0.0000000E+00;  1.0000000E+04;0.0;0.0;0.0;0.0
 -2.0000000E-01;  9.9999998E-03; -2.5999999E-01;46;0.0;0.0;0.0;1000.0;  4.0000001E-01;0.0;0;0.0;0.0;0.0;0;0.0;  1.0000000E+04;  0.0000000E+00;  0.0000000E+00;  1.0000000E+04;  0.0000000E+00;  1.0000000E+04;0.0;0.0;0.0;0.0
 -2.0000000E-01;  9.9999998E-03; -2.3999999E-01;47;0.0;0.0;0.0;1000.0;  4.0000001E-01;0.0;0;0.0;0.0;0.0;0;0.0;  1.0000000E+04;  0.0000000E+00;  0.0000000E+00;  1.0000000E+04;  0.0000000E+00;  1.0000000E+04;0.0;0.0;0.0;0.0
 -2.0000000E-01;  9.9999998E-03; -2.2000000E-01;48;0.0;0.0;0.0;1000.0;  4.0000001E-01;0.0;0;0.0;0.0;0.0;0;0.0;  1.0000000E+04;  0.0000000E+00;  0.0000000E+00;  1.0000000E+04;  0.0000000E+00;  1.0000000E+04;0.0;0.0;0.0;0.0
 -2.0000000E-01;  9.9999998E-03; -2.0000000E-01;49;0.0;0.0;0.0;1000.0;  4.0000001E-01;0.0;0;0.0;0.0;0.0;0;0.0;  1.0000000E+04;  0.0000000E+00;  0.0000000E+00;  1.0000000E+04;  0.0000000E+00;  1.0000000E+04;0.0;0.0;0.0;0.0
 -1.8000001E-01;  9.9999998E-03; -3.4000000E-01;83;0.0;0.0;0.0;1000.0;  4.0000001E-01;0.0;0;0.0;0.0;0.0;0;0.0;  1.0000000E+04;  0.0000000E+00;  0.0000000E+00;  1.0000000E+04;  0.0000000E+00;  1.0000000E+04;0.0;0.0;0.0;0.0
 -1.8000001E-01;  9.9999998E-03; -3.1999999E-01;84;0.0;0.0;0.0;1000.0;  4.0000001E-01;0.0;0;0.0;0.0;0.0;0;0.0;  1.0000000E+04;  0.0000000E+00;  0.0000000E+00;  1.0000000E+04;  0.0000000E+00;  1.0000000E+04;0.0;0.0;0.0;0.0
 -1.8000001E-01;  9.9999998E-03; -3.0000001E-01;85;0.0;0.0;0.0;1000.0;  4.0000001E-01;0.0;0;0.0;0.0;0.0;0;0.0;  1.0000000E+04;  0.0000000E+00;  0.0000000E+00;  1.0000000E+04;  0.0000000E+00;  1.0000000E+04;0.0;0.0;0.0;0.0
 -1.8000001E-01;  9.9999998E-03; -2.8000000E-01;86;0.0;0.0;0.0;1000.0;  4.0000001E-01;0.0;0;0.0;0.0;0.0;0;0.0;  1.0000000E+04;  0.0000000E+00;  0.0000000E+00;  1.0000000E+04;  0.0000000E+00;  1.0000000E+04;0.0;0.0;0.0;0.0
 -1.8000001E-01;  9.9999998E-03; -2.5999999E-01;87;0.0;0.0;0.0;1000.0;  4.0000001E-01;0.0;0;0.0;0.0;0.0;0;0.0;  1.0000000E+04;  0.0000000E+00;  0.0000000E+00;  1.0000000E+04;  0.0000000E+00;  1.0000000E+04;0.0;0.0;0.0;0.0
 -1.8000001E-01;  9.9999998E-03; -2.3999999E-01;88;0.0;0.0;0.0;1000.0;  4.0000001E-01;0.0;0;0.0;0.0;0.0;0;0.0;  1.0000000E+04;  0.0000000E+00;  0.0000000E+00;  1.0000000E+04;  0.0000000E+00;  1.0000000E+04;0.0;0.0;0.0;0.0
 -1.8000001E-01;  9.9999998E-03; -2.2000000E-01;89;0.0;0.0;0.0;1000.0;  4.0000001E-01;0.0;0;0.0;0.0;0.0;0;0.0;  1.0000000E+04;  0.0000000E+00;  0.0000000E+00;  1.0000000E+04;  0.0000000E+00;  1.0000000E+04;0.0;0.0;0.0;0.0
 -1.8000001E-01;  9.9999998E-03; -2.0000000E-01;90;0.0;0.0;0.0;1000.0;  4.0000001E-01;0.0;0;0.0;0.0;0.0;0;0.0;  1.0000000E+04;  0.0000000E+00;  0.0000000E+00;  1.0000000E+04;  0.0000000E+00;  1.0000000E+04;0.0;0.0;0.0;0.0
 -1.6000000E-01;  9.9999998E-03; -3.4000000E-01;124;0.0;0.0;0.0;1000.0;  4.0000001E-01;0.0;0;0.0;0.0;0.0;0;0.0;  1.0000000E+04;  0.0000000E+00;  0.0000000E+00;  1.0000000E+04;  0.0000000E+00;  1.0000000E+04;0.0;0.0;0.0;0.0
 -1.6000000E-01;  9.9999998E-03; -3.1999999E-01;125;0.0;0.0;0.0;1000.0;  4.0000001E-01;0.0;0;0.0;0.0;0.0;0;-2.4728325e-10;  1.0000000E+04;  0.0000000E+00;  0.0000000E+00;  1.0000000E+04;  0.0000000E+00;  1.0000000E+04;-2.2856725e-10;0.0;-1.8715987e-11;3.6292914e-08
 -1.6000000E-01;  9.9999998E-03; -3.0000001E-01;126;0.0;0.0;0.0;1000.0;  4.0000001E-01;0.0;0;0.0;0.0;0.0;0;-1.5744718e-09;  1.0000000E+04;  0.0000000E+00;  0.0000000E+00;  1.0000000E+04;  0.0000000E+00;  1.0000000E+04;-1.511262e-09;0.0;-6.3209785e-11;1.118735e-07
 -1.6000000E-01;  9.9999998E-03; -2.8000000E-01;127;0.0;0.0;0.0;1000.0;  4.0000001E-01;0.0;0;0.0;0.0;0.0;0;-3.7183894e-09;  1.0000000E+04;  0.0000000E+00;  0.0000000E+00;  1.0000000E+04;  0.0000000E+00;  1.0000000E+04;-3.661131e-09;0.0;-5.7258462e-11;5.9933342e-08
 -1.6000000E-01;  9.9999998E-03; -2.5999999E-01;128;0.0;0.0;0.0;1000.0;  4.0000001E-01;0.0;0;0.0;0.0;0.0;0;-5.5416995e-09;  1.0000000E+04;  0.0000000E+00;  0.0000000E+00;  1.0000000E+04;  0.0000000E+00;  1.0000000E+04;-5.5341718e-09;0.0;-7.5278768e-12;8.8132452e-08
 -1.6000000E-01;  9.9999998E-03; -2.3999999E-01;129;0.0;0.0;0.0;1000.0;  4.0000001E-01;0.0;0;0.0;0.0;0.0;0;-6.5484111e-09;  1.0000000E+04;  0.0000000E+00;  0.0000000E+00;  1.0000000E+04;  0.0000000E+00;  1.0000000E+04;-6.5606658e-09;0.0;1.2254794e-11;1.4946885e-07
 -1.6000000E-01;  9.9999998E-03; -2.2000000E-01;130;0.0;0.0;0.0;1000.0;  4.0000001E-01;0.0;0;0.0;0.0;0.0;0;-7.2614816e-09;  1.0000000E+04;  0.0000000E+00;  0.0000000E+00;  1.0000000E+04;  0.0000000E+00;  1.0000000E+04;-7.2757862e-09;0.0;1.4304629e-11;1.6751902e-07
 -1.6000000E-01;  9.9999998E-03; -2.0000000E-01;131;0.0;0.0;0.0;1000.0;  4.0000001E-01;0.0;0;0.0;0.0;0.0;0;-7.8456859e-09;  1.0000000E+04;  0.0000000E+00;  0.0000000E+00;  1.0000000E+04;  0.0000000E+00;  1.0000000E+04;-7.8605593e-09;0.0;1.4873632e-11;1.8053137e-07
 -1.4000000E-01;  9.9999998E-03; -3.4000000E-01;165;0.0;0.0;0.0;1000.0;  4.0000001E-01;0.0;0;0.0;0.0;0.0;0;-1.1864827e-08;  1.0000000E+04;  0.0000000E+00;  0.0000000E+00;  1.0000000E+04;  0.0000000E+00;  1.0000000E+04;-1.011313e-08;0.0;-1.7516973e-09;3.5849396e-06
 -1.4000000E-01;  9.9999998E-03; -3.1999999E-01;166;0.0;0.0;0.0;1000.0;  4.0000001E-01;0.0;0;0.0;0.0;0.0;0;-3.8692114e-08;  1.0000000E+04;  0.0000000E+00;  0.0000000E+00;  1.0000000E+04;  0.0000000E+00;  1.0000000E+04;-3.4895457e-08;0.0;-3.7966581e-09;7.5986254e-06
 -1.4000000E-01;  9.9999998E-03; -3.0000001E-01;167;0.0;0.0;0.0;1000.0;  4.0000001E-01;0.0;0;0.0;0.0;0.0;0;-8.2456822e-08;  1.0000000E+04;  0.0000000E+00;  0.0000000E+00;  1.0000000E+04;  0.0000000E+00;  1.0000000E+04;-7.7526508e-08;0.0;-4.9303122e-09;9.2022092e-06
 -1.4000000E-01;  9.9999998E-03; -2.8000000E-01;168;0.0;0.0;0.0;1000.0;  4.0000001E-01;0.0;0;0.0;0.0;0.0;0;-1.3621923e-07;  1.0000000E+04;  0.0000000E+00;  0.0000000E+00;  1.0000000E+04;  0.0000000E+00;  1.0000000E+04;-1.3190524e-07;0.0;-4.3139852e-09;6.762029e-06
 -1.4000000E-01;  9.9999998E-03; -2.5999999E-01;169;0.0;0.0;0.0;1000.0;  4.0000001E-01;0.0;0;0.0;0.0;0.0;0;-1.8907332e-07;  1.0000000E+04;  0.0000000E+00;  0.0000000E+00;  1.0000000E+04;  0.0000000E+00;  1.0000000E+04;-1.8684567e-07;0.0;-2.2276567e-09;1.2405015e-06
 -1.4000000E-01;  9.9999998E-03; -2.3999999E-01;170;0.0;0.0;0.0;1000.0;  4.0000001E-01;0.0;0;0.0;0.0;0.0;0;-2.3240588e-07;  1.0000000E+04;  0.0000000E+00;  0.0000000E+00;  1.0000000E+04;  0.0000000E+00;  1.0000000E+04;-2.3254783e-07;0.0;1.4195765e-10;4.6885225e-06
 -1.4000000E-01;  9.9999998E-03; -2.2000000E-01;171;0.0;0.0;0.0;1000.0;  4.0000001E-01;0.0;0;0.0;0.0;0.0;0;-2.636985e-07;  1.0000000E+04;  0.0000000E+00;  0.0000000E+00;  1.0000000E+04;  0.0000000E+00;  1.0000000E+04;-2.6521681e-07;0.0;1.5183101e-09;8.2628649e-06
 -1.4000000E-01;  9.9999998E-03; -2.0000000E-01;172;0.0;0.0;0.0;1000.0;  4.0000001E-01;0.0;0;0.0;0.0;0.0;0;-2.8624748e-07;  1.0000000E+04;  0.0000000E+00;  0.0000000E+00;  1.0000000E+04;  0.0000000E+00;  1.0000000E+04;-2.880353e-07;0.0;1.7878174e-09;9.3159724e-06
 -1.2000000E-01;  9.9999998E-03; -3.4000000E-01;206;0.0;0.0;0.0;1000.0;  4.0000001E-01;0.0;0;0.0;0.0;0.0;0;-1.5157195e-07;  1.0000000E+04;  0.0000000E+00;  0.0000000E+00;  1.0000000E+04;  0.0000000E+00;  1.0000000E+04;-1.2564792e-07;0.0;-2.5924038e-08;5.3967538e-05
 -1.2000000E-01;  9.9999998E-03; -3.1999999E-01;207;0.0;0.0;0.0;1000.0;  4.0000001E-01;0.0;0;0.0;0.0;0.0;0;-3.2103392e-07;  1.0000000E+04;  0.0000000E+00;  0.0000000E+00;  1.0000000E+04;  0.0000000E+00;  1.0000000E+04;-2.8410292e-07;0.0;-3.6931009e-08;7.4695723e-05
 -1.2000000E-01;  9.9999998E-03; -3.0000001E-01;208;0.0;0.0;0.0;1000.0;  4.0000001E-01;0.0;0;0.0;0.0;0.0;0;-5.521033e-07;  1.0000000E+04;  0.0000000E+00;  0.0000000E+00;  1.0000000E+04;  0.0000000E+00;  1.0000000E+04;-5.1249714e-07;0.0;-3.9606149e-08;7.5694959e-05
 -1.2000000E-01;  9.9999998E-03; -2.8000000E-01;209;0.0;0.0;0.0;1000.0;  4.0000001E-01;0.0;0;0.0;0.0;0.0;0;-8.1701603e-07;  1.0000000E+04;  0.0000000E+00;  0.0000000E+00;  1.0000000E+04;  0.0000000E+00;  1.0000000E+04;-7.8453292e-07;0.0;-3.2483108e-08;5.4856049e-05
 -1.2000000E-01;  9.9999998E-03; -2.5999999E-01;210;0.0;0.0;0.0;1000.0;  4.0000001E-01;0.0;0;0.0;0.0;0.0;0;-1.0766371e-06;  1.0000000E+04;  0.0000000E+00;  0.0000000E+00;  1.0000000E+04;  0.0000000E+00;  1.0000000E+04;-1.0586771e-06;0.0;-1.7959975e-08;1.8256469e-05
 -1.2000000E-01;  9.9999998E-03; -2.3999999E-01;211;0.0;0.0;0.0;1000.0;  4.0000001E-01;0.0;0;0.0;0.0;0.0;0;-1.3002816e-06;  1.0000000E+04;  0.0000000E+00;  0.0000000E+00;  1.0000000E+04;  0.0000000E+00;  1.0000000E+04;-1.2985507e-06;0.0;-1.7309038e-09;2.1231179e-05
 -1.2000000E-01;  9.9999998E-03; -2.2000000E-01;212;0.0;0.0;0.0;1000.0;  4.0000001E-01;0.0;0;0.0;0.0;0.0;0;-1.477429e-06;  1.0000000E+04;  0.0000000E+00;  0.0000000E+00;  1.0000000E+04;  0.0000000E+00;  1.0000000E+04;-1.4877636e-06;0.0;1.033461e-08;5.0834442e-05
 -1.2000000E-01;  9.9999998E-03; -2.0000000E-01;213;0.0;0.0;0.0;1000.0;  4.0000001E-01;0.0;0;0.0;0.0;0.0;0;-1.6131378e-06;  1.0000000E+04;  0.0000000E+00;  0.0000000E+00;  1.0000000E+04;  0.0000000E+00;  1.0000000E+04;-1.629234e-06;0.0;1.6096219e-08;6.6189707e-05
 -1.0000000E-01;  9.9999998E-03; -3.4000000E-01;247;0.0;0.0;0.0;1000.0;  4.0000001E-01;0.0;0;0.0;0.0;0.0;0;-7.1340196e-07;  1.0000000E+04;  0.0000000E+00;  0.0000000E+00;  1.0000000E+04;  0.0000000E+00;  1.0000000E+04;-5.7571634e-07;0.0;-1.376856e-07;0.00028996138
 -1.0000000E-01;  9.9999998E-03; -3.1999999E-01;248;0.0;0.0;0.0;1000.0;  4.0000001E-01;0.0;0;0.0;0.0;0.0;0;-1.2822375e-06;  1.0000000E+04;  0.0000000E+00;  0.0000000E+00;  1.0000000E+04;  0.0000000E+00;  1.0000000E+04;-1.11458e-06;0.0;-1.676575e-07;0.00034427183
 -1.0000000E-01;  9.9999998E-03; -3.0000001E-01;249;0.0;0.0;0.0;1000.0;  4.0000001E-01;0.0;0;0.0;0.0;0.0;0;-2.0092152e-06;  1.0000000E+04;  0.0000000E+00;  0.0000000E+00;  1.0000000E+04;  0.0000000E+00;  1.0000000E+04;-1.8437565e-06;0.0;-1.6545872e-07;0.00032427392
 -1.0000000E-01;  9.9999998E-03; -2.8000000E-01;250;0.0;0.0;0.0;1000.0;  4.0000001E-01;0.0;0;0.0;0.0;0.0;0;-2.8178777e-06;  1.0000000E+04;  0.0000000E+00;  0.0000000E+00;  1.0000000E+04;  0.0000000E+00;  1.0000000E+04;-2.6874982e-06;0.0;-1.3037956e-07;0.00023045618
 -1.0000000E-01;  9.9999998E-03; -2.5999999E-01;251;0.0;0.0;0.0;1000.0;  4.0000001E-01;0.0;0;0.0;0.0;0.0;0;-3.6037657e-06;  1.0000000E+04;  0.0000000E+00;  0.0000000E+00;  1.0000000E+04;  0.0000000E+00;  1.0000000E+04;-3.5322869e-06;0.0;-7.1478723e-08;8.5317341e-05
 -1.0000000E-01;  9.9999998E-03; -2.3999999E-01;252;0.0;0.0;0.0;1000.0;  4.0000001E-01;0.0;0;0.0;0.0;0.0;0;-4.2892079e-06;  1.0000000E+04;  0.0000000E+00;  0.0000000E+00;  1.0000000E+04;  0.0000000E+00;  1.0000000E+04;-4.2815382e-06;0.0;-7.6695423e-09;6.7919296e-05
 -1.0000000E-01;  9.9999998E-03; -2.2000000E-01;253;0.0;0.0;0.0;1000.0;  4.0000001E-01;0.0;0;0.0;0.0;0.0;0;-4.8487327e-06;  1.0000000E+04;  0.0000000E+00;  0.0000000E+00;  1.0000000E+04;  0.0000000E+00;  1.0000000E+04;-4.8903071e-06;0.0;4.1574452e-08;0.00018659676
 -1.0000000E-01;  9.9999998E-03; -2.0000000E-01;254;0.0;0.0;0.0;1000.0;  4.0000001E-01;0.0;0;0.0;0.0;0.0;0;-5.2929054e-06;  1.0000000E+04;  0.0000000E+00;  0.0000000E+00;  1.0000000E+04;  0.0000000E+00;  1.0000000E+04;-5.3615368e-06;0.0;6.8631429e-08;0.00025501451
 -7.9999998E-02;  9.9999998E-03; -3.4000000E-01;288;0.0;0.0;0.0;1000.0;  4.0000001E-01;0.0;0;0.0;0.0;0.0;0;-2.163227e-06;  1.0000000E+04;  0.0000000E+00;  0.0000000E+00;  1.0000000E+04;  0.0000000E+00;  1.0000000E+04;-1.7016423e-06;0.0;-4.6158479e-07;0.00098771381
 -7.9999998E-02;  9.9999998E-03; -3.1999999E-01;289;0.0;0.0;0.0;1000.0;  4.0000001E-01;0.0;0;0.0;0.0;0.0;0;-3.5808564e-06;  1.0000000E+04;  0.0000000E+00;  0.0000000E+00;  1.0000000E+04;  0.0000000E+00;  1.0000000E+04;-3.0600645e-06;0.0;-5.207919e-07;0.0010900162
 -7.9999998E-02;  9.9999998E-03; -3.0000001E-01;290;0.0;0.0;0.0;1000.0;  4.0000001E-01;0.0;0;0.0;0.0;0.0;0;-5.3358713e-06;  1.0000000E+04;  0.0000000E+00;  0.0000000E+00;  1.0000000E+04;  0.0000000E+00;  1.0000000E+04;-4.8441675e-06;0.0;-4.917037e-07;0.00098718447
 -7.9999998E-02;  9.9999998E-03; -2.8000000E-01;291;0.0;0.0;0.0;1000.0;  4.0000001E-01;0.0;0;0.0;0.0;0.0;0;-7.251736e-06;  1.0000000E+04;  0.0000000E+00;  0.0000000E+00;  1.0000000E+04;  0.0000000E+00;  1.0000000E+04;-6.8744639e-06;0.0;-3.7727213e-07;0.00069090334
 -7.9999998E-02;  9.9999998E-03; -2.5999999E-01;292;0.0;0.0;0.0;1000.0;  4.0000001E-01;0.0;0;0.0;0.0;0.0;0;-9.097279e-06;  1.0000000E+04;  0.0000000E+00;  0.0000000E+00;  1.0000000E+04;  0.0000000E+00;  1.0000000E+04;-8.8946672e-06;0.0;-2.0261197e-07;0.00026371927
 -7.9999998E-02;  9.9999998E-03; -2.3999999E-01;293;0.0;0.0;0.0;1000.0;  4.0000001E-01;0.0;0;0.0;0.0;0.0;0;-1.0708827e-05;  1.0000000E+04;  0.0000000E+00;  0.0000000E+00;  1.0000000E+04;  0.0000000E+00;  1.0000000E+04;-1.0691306e-05;0.0;-1.7521559e-08;0.00017949157
 -7.9999998E-02;  9.9999998E-03; -2.2000000E-01;294;0.0;0.0;0.0;1000.0;  4.0000001E-01;0.0;0;0.0;0.0;0.0;0;-1.2039484e-05;  1.0000000E+04;  0.0000000E+00;  0.0000000E+00;  1.0000000E+04;  0.0000000E+00;  1.0000000E+04;-1.216622e-05;0.0;1.2673554e-07;0.00052516256
 -7.9999998E-02;  9.9999998E-03; -2.0000000E-01;295;0.0;0.0;0.0;1000.0;  4.0000001E-01;0.0;0;0.0;0.0;0.0;0;-1.3114448e-05;  1.0000000E+04;  0.0000000E+00;  0.0000000E+00;  1.0000000E+04;  0.0000000E+00;  1.0000000E+04;-1.3323686e-05;0.0;2.0923869e-07;0.00072965404
 -5.9999999E-02;  9.9999998E-03; -3.4000000E-01;329;0.0;0.0;0.0;1000.0;  4.0000001E-01;0.0;0;0.0;0.0;0.0;0;-5.0521412e-06;  1.0000000E+04;  0.0000000E+00;  0.0000000E+00;  1.0000000E+04;  0.0000000E+00;  1.0000000E+04;-3.8679846e-06;0.0;-1.1841566e-06;0.0025824506
 -5.9999999E-02;  9.9999998E-03; -3.1999999E-01;330;0.0;0.0;0.0;1000.0;  4.0000001E-01;0.0;0;0.0;0.0;0.0;0;-7.9681686e-06;  1.0000000E+04;  0.0000000E+00;  0.0000000E+00;  1.0000000E+04;  0.0000000E+00;  1.0000000E+04;-6.6868024e-06;0.0;-1.2813659e-06;0.0027391161
 -5.9999999E-02;  9.9999998E-03; -3.0000001E-01;331;0.0;0.0;0.0;1000.0;  4.0000001E-01;0.0;0;0.0;0.0;0.0;0;-1.1508146e-05;  1.0000000E+04;  0.0000000E+00;  0.0000000E+00;  1.0000000E+04;  0.0000000E+00;  1.0000000E+04;-1.0330151e-05;0.0;-1.1779948e-06;0.0024245162
 -5.9999999E-02;  9.9999998E-03; -2.8000000E-01;332;0.0;0.0;0.0;1000.0;  4.0000001E-01;0.0;0;0.0;0.0;0.0;0;-1.5318688e-05;  1.0000000E+04;  0.0000000E+00;  0.0000000E+00;  1.0000000E+04;  0.0000000E+00;  1.0000000E+04;-1.443328e-05;0.0;-8.8540793e-07;0.0016759547
 -5.9999999E-02;  9.9999998E-03; -2.5999999E-01;333;0.0;0.0;0.0;1000.0;  4.0000001E-01;0.0;0;0.0;0.0;0.0;0;-1.8949231e-05;  1.0000000E+04;  0.0000000E+00;  0.0000000E+00;  1.0000000E+04;  0.0000000E+00;  1.0000000E+04;-1.8486282e-05;0.0;-4.6294949e-07;0.00064196455
 -5.9999999E-02;  9.9999998E-03; -2.3999999E-01;334;0.0;0.0;0.0;1000.0;  4.0000001E-01;0.0;0;0.0;0.0;0.0;0;-2.2103148e-05;  1.0000000E+04;  0.0000000E+00;  0.0000000E+00;  1.0000000E+04;  0.0000000E+00;  1.0000000E+04;-2.2078915e-05;0.0;-2.423192e-08;0.00041235104
 -5.9999999E-02;  9.9999998E-03; -2.2000000E-01;335;0.0;0.0;0.0;1000.0;  4.0000001E-01;0.0;0;0.0;0.0;0.0;0;-2.4715999e-05;  1.0000000E+04;  0.0000000E+00;  0.0000000E+00;  1.0000000E+04;  0.0000000E+00;  1.0000000E+04;-2.5033014e-05;0.0;3.1701498e-07;0.0012314682
 -5.9999999E-02;  9.9999998E-03; -2.0000000E-01;336;0.0;0.0;0.0;1000.0;  4.0000001E-01;0.0;0;0.0;0.0;0.0;0;-2.684693e-05;  1.0000000E+04;  0.0000000E+00;  0.0000000E+00;  1.0000000E+04;  0.0000000E+00;  1.0000000E+04;-2.7361788e-05;0.0;5.1485802e-07;0.0017182784
 -3.9999999E-02;  9.9999998E-03; -3.4000000E-01;370;0.0;0.0;0.0;1000.0;  4.0000001E-01;0.0;0;0.0;0.0;0.0;0;-9.8729315e-06;  1.0000000E+04;  0.0000000E+00;  0.0000000E+00;  1.0000000E+04;  0.0000000E+00;  1.0000000E+04;-7.3319056e-06;0.0;-2.5410259e-06;0.0056646783
 -3.9999999E-02;  9.9999998E-03; -3.1999999E-01;371;0.0;0.0;0.0;1000.0;  4.0000001E-01;0.0;0;0.0;0.0;0.0;0;-1.5093463e-05;  1.0000000E+04;  0.0000000E+00;  0.0000000E+00;  1.0000000E+04;  0.0000000E+00;  1.0000000E+04;-1.2408754e-05;0.0;-2.6847094e-06;0.0058771325
 -3.9999999E-02;  9.9999998E-03; -3.0000001E-01;372;0.0;0.0;0.0;1000.0;  4.0000001E-01;0.0;0;0.0;0.0;0.0;0;-2.133889e-05;  1.0000000E+04;  0.0000000E+00;  0.0000000E+00;  1.0000000E+04;  0.0000000E+00;  1.0000000E+04;-1.8913397e-05;0.0;-2.4254934e-06;0.0051283538
 -3.9999999E-02;  9.9999998E-03; -2.8000000E-01;373;0.0;0.0;0.0;1000.0;  4.0000001E-01;0.0;0;0.0;0.0;0.0;0;-2.7965441e-05;  1.0000000E+04;  0.0000000E+00;  0.0000000E+00;  1.0000000E+04;  0.0000000E+00;  1.0000000E+04;-2.6176742e-05;0.0;-1.7887002e-06;0.0035012397
 -3.9999999E-02;  9.9999998E-03; -2.5999999E-01;374;0.0;0.0;0.0;1000.0;  4.0000001E-01;0.0;0;0.0;0.0;0.0;0;-3.4186261e-05;  1.0000000E+04;  0.0000000E+00;  0.0000000E+00;  1.0000000E+04;  0.0000000E+00;  1.0000000E+04;-3.3282562e-05;0.0;-9.0369895e-07;0.0013212918
 -3.9999999E-02;  9.9999998E-03; -2.3999999E-01;375;0.0;0.0;0.0;1000.0;  4.0000001E-01;0.0;0;0.0;0.0;0.0;0;-3.9541595e-05;  1.0000000E+04;  0.0000000E+00;  0.0000000E+00;  1.0000000E+04;  0.0000000E+00;  1.0000000E+04;-3.9535611e-05;0.0;-5.9837038e-09;0.00085531175
 -3.9999999E-02;  9.9999998E-03; -2.2000000E-01;376;0.0;0.0;0.0;1000.0;  4.0000001E-01;0.0;0;0.0;0.0;0.0;0;-4.3976717e-05;  1.0000000E+04;  0.0000000E+00;  0.0000000E+00;  1.0000000E+04;  0.0000000E+00;  1.0000000E+04;-4.4661425e-05;0.0;6.8470689e-07;0.0025262798
 -3.9999999E-02;  9.9999998E-03; -2.0000000E-01;377;0.0;0.0;0.0;1000.0;  4.0000001E-01;0.0;0;0.0;0.0;0.0;0;-4.7614802e-05;  1.0000000E+04;  0.0000000E+00;  0.0000000E+00;  1.0000000E+04;  0.0000000E+00;  1.0000000E+04;-4.8699945e-05;0.0;1.0851437e-06;0.0035130016
 -2.0000000E-02;  9.9999998E-03; -3.4000000E-01;411;0.0;0.0;0.0;1000.0;  4.0000001E-01;0.0;0;0.0;0.0;0.0;0;-1.7005243e-05;  1.0000000E+04;  0.0000000E+00;  0.0000000E+00;  1.0000000E+04;  0.0000000E+00;  1.0000000E+04;-1.2216095e-05;0.0;-4.7891481e-06;0.010952701
 -2.0000000E-02;  9.9999998E-03; -3.1999999E-01;412;0.0;0.0;0.0;1000.0;  4.0000001E-01;0.0;0;0.0;0.0;0.0;0;-2.5435793e-05;  1.0000000E+04;  0.0000000E+00;  0.0000000E+00;  1.0000000E+04;  0.0000000E+00;  1.0000000E+04;-2.0446549e-05;0.0;-4.9892437e-06;0.011221477
 -2.0000000E-02;  9.9999998E-03; -3.0000001E-01;413;0.0;0.0;0.0;1000.0;  4.0000001E-01;0.0;0;0.0;0.0;0.0;0;-3.5363308e-05;  1.0000000E+04;  0.0000000E+00;  0.0000000E+00;  1.0000000E+04;  0.0000000E+00;  1.0000000E+04;-3.0914922e-05;0.0;-4.4483863e-06;0.009688491
 -2.0000000E-02;  9.9999998E-03; -2.8000000E-01;414;0.0;0.0;0.0;1000.0;  4.0000001E-01;0.0;0;0.0;0.0;0.0;0;-4.5707504e-05;  1.0000000E+04;  0.0000000E+00;  0.0000000E+00;  1.0000000E+04;  0.0000000E+00;  1.0000000E+04;-4.2493702e-05;0.0;-3.2138005e-06;0.0065142005
 -2.0000000E-02;  9.9999998E-03; -2.5999999E-01;415;0.0;0.0;0.0;1000.0;  4.0000001E-01;0.0;0;0.0;0.0;0.0;0;-5.5239256e-05;  1.0000000E+04;  0.0000000E+00;  0.0000000E+00;  1.0000000E+04;  0.0000000E+00;  1.0000000E+04;-5.3684198e-05;0.0;-1.5550582e-06;0.0023793171
 -2.0000000E-02;  9.9999998E-03; -2.3999999E-01;416;0.0;0.0;0.0;1000.0;  4.0000001E-01;0.0;0;0.0;0.0;0.0;0;-6.3367515e-05;  1.0000000E+04;  0.0000000E+00;  0.0000000E+00;  1.0000000E+04;  0.0000000E+00;  1.0000000E+04;-6.3446925e-05;0.0;7.9408153e-08;0.0016426129
 -2.0000000E-02;  9.9999998E-03; -2.2000000E-01;417;0.0;0.0;0.0;1000.0;  4.0000001E-01;0.0;0;0.0;0.0;0.0;0;-7.0090187e-05;  1.0000000E+04;  0.0000000E+00;  0.0000000E+00;  1.0000000E+04;  0.0000000E+00;  1.0000000E+04;-7.1407208e-05;0.0;1.3170214e-06;0.0046798359
 -2.0000000E-02;  9.9999998E-03; -2.0000000E-01;418;0.0;0.0;0.0;1000.0;  4.0000001E-01;0.0;0;0.0;0.0;0.0;0;-7.5623997e-05;  1.0000000E+04;  0.0000000E+00;  0.0000000E+00;  1.0000000E+04;  0.0000000E+00;  1.0000000E+04;-7.7652992e-05;0.0;2.0289976e-06;0.0064504854
  0.0000000E+00;  9.9999998E-03; -3.4000000E-01;452;0.0;0.0;0.0;1000.0;  4.0000001E-01;0.0;0;0.0;0.0;0.0;0;-2.6766034e-05;  1.0000000E+04;  0.0000000E+00;  0.0000000E+00;  1.0000000E+04;  0.0000000E+00;  1.0000000E+04;-1.8594372e-05;0.0;-8.1716626e-06;0.019252665
  0.0000000E+00;  9.9999998E-03; -3.1999999E-01;453;0.0;0.0;0.0;1000.0;  4.0000001E-01;0.0;0;0.0;0.0;0.0;0;-3.9372975e-05;  1.0000000E+04;  0.0000000E+00;  0.0000000E+00;  1.0000000E+04;  0.0000000E+00;  1.0000000E+04;-3.0937063e-05;0.0;-8.4359135e-06;0.019570479
  0.0000000E+00;  9.9999998E-03; -3.0000001E-01;454;0.0;0.0;0.0;1000.0;  4.0000001E-01;0.0;0;0.0;0.0;0.0;0;-5.3895546e-05;  1.0000000E+04;  0.0000000E+00;  0.0000000E+00;  1.0000000E+04;  0.0000000E+00;  1.0000000E+04;-4.6481338e-05;0.0;-7.4142076e-06;0.016693292
  2.0000000E-02;  9.9999998E-03; -3.4000000E-01;464;0.0;0.0;0.0;1000.0;  4.0000001E-01;0.0;0;0.0;0.0;0.0;0;-3.9663322e-05;  1.0000000E+04;  0.0000000E+00;  0.0000000E+00;  1.0000000E+04;  0.0000000E+00;  1.0000000E+04;-2.6756094e-05;0.0;-1.2907229e-05;0.031473193
  2.0000000E-02;  9.9999998E-03; -3.1999999E-01;465;0.0;0.0;0.0;1000.0;  4.0000001E-01;0.0;0;0.0;0.0;0.0;0;-5.7564044e-05;  1.0000000E+04;  0.0000000E+00;  0.0000000E+00;  1.0000000E+04;  0.0000000E+00;  1.0000000E+04;-4.4336048e-05;0.0;-1.3227997e-05;0.031794116
  3.9999999E-02;  9.9999998E-03; -3.4000000E-01;474;0.0;0.0;0.0;1000.0;  4.0000001E-01;0.0;0;0.0;0.0;0.0;0;-5.6831872e-05;  1.0000000E+04;  0.0000000E+00;  0.0000000E+00;  1.0000000E+04;  0.0000000E+00;  1.0000000E+04;-3.7558373e-05;0.0;-1.9273499e-05;0.048855036
  3.9999999E-02;  9.9999998E-03; -3.1999999E-01;475;0.0;0.0;0.0;1000.0;  4.0000001E-01;0.0;0;0.0;0.0;0.0;0;-8.1684411e-05;  1.0000000E+04;  0.0000000E+00;  0.0000000E+00;  1.0000000E+04;  0.0000000E+00;  1.0000000E+04;-6.2079474e-05;0.0;-1.9604937e-05;0.049030233
  5.9999999E-02;  9.9999998E-03; -3.4000000E-01;484;0.0;0.0;0.0;1000.0;  4.0000001E-01;0.0;0;0.0;0.0;0.0;0;-8.0374535e-05;  1.0000000E+04;  0.0000000E+00;  0.0000000E+00;  1.0000000E+04;  0.0000000E+00;  1.0000000E+04;-5.2592779e-05;0.0;-2.7781758e-05;0.073438406
  5.9999999E-02;  9.9999998E-03; -3.1999999E-01;485;0.0;0.0;0.0;1000.0;  4.0000001E-01;0.0;0;0.0;0.0;0.0;0;-0.00011482565;  1.0000000E+04;  0.0000000E+00;  0.0000000E+00;  1.0000000E+04;  0.0000000E+00;  1.0000000E+04;-8.6746557e-05;0.0;-2.8079094e-05;0.073277034
  7.9999998E-02;  9.9999998E-03; -3.4000000E-01;494;0.0;0.0;0.0;1000.0;  4.0000001E-01;0.0;0;0.0;0.0;0.0;0;-0.00011411624;  1.0000000E+04;  0.0000000E+00;  0.0000000E+00;  1.0000000E+04;  0.0000000E+00;  1.0000000E+04;-7.4772885e-05;0.0;-3.9343347e-05;0.10875984
  7.9999998E-02;  9.9999998E-03; -3.1999999E-01;495;0.0;0.0;0.0;1000.0001;  4.0000001E-01;0.098762624;0;0.0;0.0;0.0;0;-0.00016214068;  1.0000000E+04;  0.0000000E+00;  0.0000000E+00;  1.0000000E+04;  0.0000000E+00;  1.0000000E+04;-0.00012259296;0.0;-3.9547729e-05;0.10793457
  1.0000000E-01;  9.9999998E-03; -3.4000000E-01;504;0.0;0.0;0.0;1000.0001;  4.0000001E-01;0.098762624;0;0.0;0.0;0.0;0;-0.00016519395;  1.0000000E+04;  0.0000000E+00;  0.0000000E+00;  1.0000000E+04;  0.0000000E+00;  1.0000000E+04;-0.00010961894;0.0;-5.5575016e-05;0.16413973
  1.0000000E-01;  9.9999998E-03; -3.1999999E-01;505;0.0;0.0;0.0;1000.0001;  4.0000001E-01;0.098762624;0;0.0;0.0;0.0;0;-0.00023301446;  1.0000000E+04;  0.0000000E+00;  0.0000000E+00;  1.0000000E+04;  0.0000000E+00;  1.0000000E+04;-0.00017744643;0.0;-5.5568024e-05;0.16427407
  1.2000000E-01;  9.9999998E-03; -3.4000000E-01;514;0.0;0.0;0.0;1000.0001;  4.0000001E-01;0.098762624;0;0.0;0.0;0.0;0;-0.00024642376;  1.0000000E+04;  0.0000000E+00;  0.0000000E+00;  1.0000000E+04;  0.0000000E+00;  1.0000000E+04;-0.00016695753;0.0;-7.9466234e-05;0.27941605
  1.2000000E-01;  9.9999998E-03; -3.1999999E-01;515;0.0;0.0;0.0;1000.0001;  4.0000001E-01;0.098762624;0;0.0;0.0;0.0;0;-0.00034374578;  1.0000000E+04;  0.0000000E+00;  0.0000000E+00;  1.0000000E+04;  0.0000000E+00;  1.0000000E+04;-0.00026477076;0.0;-7.8975012e-05;0.31135258
  1.4000000E-01;  9.9999998E-03; -3.4000000E-01;524;0.0;0.0;0.0;1000.0002;  4.0000001E-01;0.19752525;0;0.0;0.0;0.0;0;-0.00037955798;  1.0000000E+04;  0.0000000E+00;  0.0000000E+00;  1.0000000E+04;  0.0000000E+00;  1.0000000E+04;-0.00026298437;0.0;-0.00011657362;0.59093422
  1.4000000E-01;  9.9999998E-03; -3.1999999E-01;525;0.0;0.0;0.0;1000.0002;  4.0000001E-01;0.19752525;0;0.0;0.0;0.0;0;-0.00052086276;  1.0000000E+04;  0.0000000E+00;  0.0000000E+00;  1.0000000E+04;  0.0000000E+00;  1.0000000E+04;-0.00040581674;0.0;-0.00011504604;0.78725457
  1.6000000E-01;  9.9999998E-03; -3.4000000E-01;534;0.0;0.0;0.0;1000.0003;  4.0000001E-01;0.29628786;0;0.0;0.0;0.0;0;-0.0005960674;  1.0000000E+04;  0.0000000E+00;  0.0000000E+00;  1.0000000E+04;  0.0000000E+00;  1.0000000E+04;-0.00041911798;0.0;-0.00017694943;1.3751028
  1.6000000E-01;  9.9999998E-03; -3.1999999E-01;535;0.0;0.0;0.0;1000.0004;  4.0000001E-01;0.29628786;0;0.0;0.0;0.0;0;-0.00080189831;  1.0000000E+04;  0.0000000E+00;  0.0000000E+00;  1.0000000E+04;  0.0000000E+00;  1.0000000E+04;-0.00062832318;0.0;-0.00017357514;2.0472667
  1.8000001E-01;  9.9999998E-03; -3.4000000E-01;544;0.0;0.0;0.0;1000.0004;  4.0000001E-01;0.3950505;0;0.0;0.0;0.0;0;-0.00092731975;  1.0000000E+04;  0.0000000E+00;  0.0000000E+00;  1.0000000E+04;  0.0000000E+00;  1.0000000E+04;-0.00064962293;0.0;-0.00027769685;2.9376242
  1.8000001E-01;  9.9999998E-03; -3.1999999E-01;545;0.0;0.0;0.0;1000.0006;  4.0000001E-01;0.49381313;0;0.0;0.0;0.0;0;-0.0012260741;  1.0000000E+04;  0.0000000E+00;  0.0000000E+00;  1.0000000E+04;  0.0000000E+00;  1.0000000E+04;-0.00095421332;0.0;-0.00027186077;4.6857605
  2.0000000E-01;  9.9999998E-03; -3.4000000E-01;553;0.0;0.0;0.0;1000.0007;  4.0000001E-01;0.59257573;0;0.0;0.0;0.0;0;-0.0013913098;  1.0000000E+04;  0.0000000E+00;  0.0000000E+00;  1.0000000E+04;  0.0000000E+00;  1.0000000E+04;-0.00094670465;0.0;-0.00044460516;5.2339201
  2.0000000E-01;  9.9999998E-03; -3.1999999E-01;554;0.0;0.0;0.0;1000.0009;  4.0000001E-01;0.79010099;0;0.0;0.0;0.0;0;-0.0018186105;  1.0000000E+04;  0.0000000E+00;  0.0000000E+00;  1.0000000E+04;  0.0000000E+00;  1.0000000E+04;-0.0013822587;0.0;-0.00043635172;8.8930311
 -2.2000000E-01;  9.9999998E-03; -1.8000001E-01;10;0.0;0.0;0.0;1000.0;  4.0000001E-01;0.0;0;0.0;0.0;0.0;0;0.0;  1.0000000E+04;  0.0000000E+00;  0.0000000E+00;  1.0000000E+04;  0.0000000E+00;  1.0000000E+04;0.0;0.0;0.0;0.0
 -2.2000000E-01;  9.9999998E-03; -1.6000000E-01;11;0.0;0.0;0.0;1000.0;  4.0000001E-01;0.0;0;0.0;0.0;0.0;0;0.0;  1.0000000E+04;  0.0000000E+00;  0.0000000E+00;  1.0000000E+04;  0.0000000E+00;  1.0000000E+04;0.0;0.0;0.0;0.0
 -2.2000000E-01;  9.9999998E-03; -1.4000000E-01;12;0.0;0.0;0.0;1000.0;  4.0000001E-01;0.0;0;0.0;0.0;0.0;0;0.0;  1.0000000E+04;  0.0000000E+00;  0.0000000E+00;  1.0000000E+04;  0.0000000E+00;  1.0000000E+04;0.0;0.0;0.0;0.0
 -2.2000000E-01;  9.9999998E-03; -1.2000000E-01;13;0.0;0.0;0.0;1000.0;  4.0000001E-01;0.0;0;0.0;0.0;0.0;0;0.0;  1.0000000E+04;  0.0000000E+00;  0.0000000E+00;  1.0000000E+04;  0.0000000E+00;  1.0000000E+04;0.0;0.0;0.0;0.0
 -2.2000000E-01;  9.9999998E-03; -1.0000000E-01;14;0.0;0.0;0.0;1000.0;  4.0000001E-01;0.0;0;0.0;0.0;0.0;0;0.0;  1.0000000E+04;  0.0000000E+00;  0.0000000E+00;  1.0000000E+04;  0.0000000E+00;  1.0000000E+04;0.0;0.0;0.0;0.0
 -2.2000000E-01;  9.9999998E-03; -7.9999998E-02;15;0.0;0.0;0.0;1000.0;  4.0000001E-01;0.0;0;0.0;0.0;0.0;0;0.0;  1.0000000E+04;  0.0000000E+00;  0.0000000E+00;  1.0000000E+04;  0.0000000E+00;  1.0000000E+04;0.0;0.0;0.0;0.0
 -2.2000000E-01;  9.9999998E-03; -5.9999999E-02;16;0.0;0.0;0.0;1000.0;  4.0000001E-01;0.0;0;0.0;0.0;0.0;0;0.0;  1.0000000E+04;  0.0000000E+00;  0.0000000E+00;  1.0000000E+04;  0.0000000E+00;  1.0000000E+04;0.0;0.0;0.0;0.0
 -2.2000000E-01;  9.9999998E-03; -3.9999999E-02;17;0.0;0.0;0.0;1000.0;  4.0000001E-01;0.0;0;0.0;0.0;0.0;0;0.0;  1.0000000E+04;  0.0000000E+00;  0.0000000E+00;  1.0000000E+04;  0.0000000E+00;  1.0000000E+04;0.0;0.0;0.0;0.0
 -2.2000000E-01;  9.9999998E-03; -2.0000000E-02;18;0.0;0.0;0.0;1000.0;  4.0000001E-01;0.0;0;0.0;0.0;0.0;0;0.0;  1.0000000E+04;  0.0000000E+00;  0.0000000E+00;  1.0000000E+04;  0.0000000E+00;  1.0000000E+04;0.0;0.0;0.0;0.0
 -2.0000000E-01;  9.9999998E-03; -1.8000001E-01;50;0.0;0.0;0.0;1000.0;  4.0000001E-01;0.0;0;0.0;0.0;0.0;0;0.0;  1.0000000E+04;  0.0000000E+00;  0.0000000E+00;  1.0000000E+04;  0.0000000E+00;  1.0000000E+04;0.0;0.0;0.0;0.0
 -2.0000000E-01;  9.9999998E-03; -1.6000000E-01;51;0.0;0.0;0.0;1000.0;  4.0000001E-01;0.0;0;0.0;0.0;0.0;0;0.0;  1.0000000E+04;  0.0000000E+00;  0.0000000E+00;  1.0000000E+04;  0.0000000E+00;  1.0000000E+04;0.0;0.0;0.0;0.0
 -2.0000000E-01;  9.9999998E-03; -1.4000000E-01;52;0.0;0.0;0.0;1000.0;  4.0000001E-01;0.0;0;0.0;0.0;0.0;0;0.0;  1.0000000E+04;  0.0000000E+00;  0.0000000E+00;  1.0000000E+04;  0.0000000E+00;  1.0000000E+04;0.0;0.0;0.0;0.0
 -2.0000000E-01;  9.9999998E-03; -1.2000000E-01;53;0.0;0.0;0.0;1000.0;  4.0000001E-01;0.0;0;0.0;0.0;0.0;0;0.0;  1.0000000E+04;  0.0000000E+00;  0.0000000E+00;  1.0000000E+04;  0.0000000E+00;  1.0000000E+04;0.0;0.0;0.0;0.0
 -2.0000000E-01;  9.9999998E-03; -1.0000000E-01;54;0.0;0.0;0.0;1000.0;  4.0000001E-01;0.0;0;0.0;0.0;0.0;0;0.0;  1.0000000E+04;  0.0000000E+00;  0.0000000E+00;  1.0000000E+04;  0.0000000E+00;  1.0000000E+04;0.0;0.0;0.0;0.0
 -2.0000000E-01;  9.9999998E-03; -7.9999998E-02;55;0.0;0.0;0.0;1000.0;  4.0000001E-01;0.0;0;0.0;0.0;0.0;0;0.0;  1.0000000E+04;  0.0000000E+00;  0.0000000E+00;  1.0000000E+04;  0.0000000E+00;  1.0000000E+04;0.0;0.0;0.0;0.0
 -2.0000000E-01;  9.9999998E-03; -5.9999999E-02;56;0.0;0.0;0.0;1000.0;  4.0000001E-01;0.0;0;0.0;0.0;0.0;0;0.0;  1.0000000E+04;  0.0000000E+00;  0.0000000E+00;  1.0000000E+04;  0.0000000E+00;  1.0000000E+04;0.0;0.0;0.0;0.0
 -2.0000000E-01;  9.9999998E-03; -3.9999999E-02;57;0.0;0.0;0.0;1000.0;  4.0000001E-01;0.0;0;0.0;0.0;0.0;0;0.0;  1.0000000E+04;  0.0000000E+00;  0.0000000E+00;  1.0000000E+04;  0.0000000E+00;  1.0000000E+04;0.0;0.0;0.0;0.0
 -2.0000000E-01;  9.9999998E-03; -2.0000000E-02;58;0.0;0.0;0.0;1000.0;  4.0000001E-01;0.0;0;0.0;0.0;0.0;0;0.0;  1.0000000E+04;  0.0000000E+00;  0.0000000E+00;  1.0000000E+04;  0.0000000E+00;  1.0000000E+04;0.0;0.0;0.0;0.0
 -1.8000001E-01;  9.9999998E-03; -1.8000001E-01;91;0.0;0.0;0.0;1000.0;  4.0000001E-01;0.0;0;0.0;0.0;0.0;0;0.0;  1.0000000E+04;  0.0000000E+00;  0.0000000E+00;  1.0000000E+04;  0.0000000E+00;  1.0000000E+04;0.0;0.0;0.0;0.0
 -1.8000001E-01;  9.9999998E-03; -1.6000000E-01;92;0.0;0.0;0.0;1000.0;  4.0000001E-01;0.0;0;0.0;0.0;0.0;0;0.0;  1.0000000E+04;  0.0000000E+00;  0.0000000E+00;  1.0000000E+04;  0.0000000E+00;  1.0000000E+04;0.0;0.0;0.0;0.0
 -1.8000001E-01;  9.9999998E-03; -1.4000000E-01;93;0.0;0.0;0.0;1000.0;  4.0000001E-01;0.0;0;0.0;0.0;0.0;0;0.0;  1.0000000E+04;  0.0000000E+00;  0.0000000E+00;  1.0000000E+04;  0.0000000E+00;  1.0000000E+04;0.0;0.0;0.0;0.0
 -1.8000001E-01;  9.9999998E-03; -1.2000000E-01;94;0.0;0.0;0.0;1000.0;  4.0000001E-01;0.0;0;0.0;0.0;0.0;0;0.0;  1.0000000E+04;  0.0000000E+00;  0.0000000E+00;  1.0000000E+04;  0.0000000E+00;  1.0000000E+04;0.0;0.0;0.0;0.0
 -1.8000001E-01;  9.9999998E-03; -1.0000000E-01;95;0.0;0.0;0.0;1000.0;  4.0000001E-01;0.0;0;0.0;0.0;0.0;0;0.0;  1.0000000E+04;  0.0000000E+00;  0.0000000E+00;  1.0000000E+04;  0.0000000E+00;  1.0000000E+04;0.0;0.0;0.0;0.0
 -1.8000001E-01;  9.9999998E-03; -7.9999998E-02;96;0.0;0.0;0.0;1000.0;  4.0000001E-01;0.0;0;0.0;0.0;0.0;0;0.0;  1.0000000E+04;  0.0000000E+00;  0.0000000E+00;  1.0000000E+04;  0.0000000E+00;  1.0000000E+04;0.0;0.0;0.0;0.0
 -1.8000001E-01;  9.9999998E-03; -5.9999999E-02;97;0.0;0.0;0.0;1000.0;  4.0000001E-01;0.0;0;0.0;0.0;0.0;0;0.0;  1.0000000E+04;  0.0000000E+00;  0.0000000E+00;  1.0000000E+04;  0.0000000E+00;  1.0000000E+04;0.0;0.0;0.0;0.0
 -1.8000001E-01;  9.9999998E-03; -3.9999999E-02;98;0.0;0.0;0.0;1000.0;  4.0000001E-01;0.0;0;0.0;0.0;0.0;0;0.0;  1.0000000E+04;  0.0000000E+00;  0.0000000E+00;  1.0000000E+04;  0.0000000E+00;  1.0000000E+04;0.0;0.0;0.0;0.0
 -1.8000001E-01;  9.9999998E-03; -2.0000000E-02;99;0.0;0.0;0.0;1000.0;  4.0000001E-01;0.0;0;0.0;0.0;0.0;0;0.0;  1.0000000E+04;  0.0000000E+00;  0.0000000E+00;  1.0000000E+04;  0.0000000E+00;  1.0000000E+04;0.0;0.0;0.0;0.0
 -1.6000000E-01;  9.9999998E-03; -1.8000001E-01;132;0.0;0.0;0.0;1000.0;  4.0000001E-01;0.0;0;0.0;0.0;0.0;0;-8.3186018e-09;  1.0000000E+04;  0.0000000E+00;  0.0000000E+00;  1.0000000E+04;  0.0000000E+00;  1.0000000E+04;-8.3328562e-09;0.0;1.4254182e-11;1.891743e-07
 -1.6000000E-01;  9.9999998E-03; -1.6000000E-01;133;0.0;0.0;0.0;1000.0;  4.0000001E-01;0.0;0;0.0;0.0;0.0;0;-8.6975946e-09;  1.0000000E+04;  0.0000000E+00;  0.0000000E+00;  1.0000000E+04;  0.0000000E+00;  1.0000000E+04;-8.7106518e-09;0.0;1.3056722e-11;1.9469073e-07
 -1.6000000E-01;  9.9999998E-03; -1.4000000E-01;134;0.0;0.0;0.0;1000.0;  4.0000001E-01;0.0;0;0.0;0.0;0.0;0;-8.9994581e-09;  1.0000000E+04;  0.0000000E+00;  0.0000000E+00;  1.0000000E+04;  0.0000000E+00;  1.0000000E+04;-9.0113312e-09;0.0;1.1872869e-11;1.9814657e-07
 -1.6000000E-01;  9.9999998E-03; -1.2000000E-01;135;0.0;0.0;0.0;1000.0;  4.0000001E-01;0.0;0;0.0;0.0;0.0;0;-9.2386996e-09;  1.0000000E+04;  0.0000000E+00;  0.0000000E+00;  1.0000000E+04;  0.0000000E+00;  1.0000000E+04;-9.24961e-09;0.0;1.0910271e-11;2.0015189e-07
 -1.6000000E-01;  9.9999998E-03; -1.0000000E-01;136;0.0;0.0;0.0;1000.0;  4.0000001E-01;0.0;0;0.0;0.0;0.0;0;-9.4262518e-09;  1.0000000E+04;  0.0000000E+00;  0.0000000E+00;  1.0000000E+04;  0.0000000E+00;  1.0000000E+04;-9.4363752e-09;0.0;1.0123662e-11;2.012507e-07
 -1.6000000E-01;  9.9999998E-03; -7.9999998E-02;137;0.0;0.0;0.0;1000.0;  4.0000001E-01;0.0;0;0.0;0.0;0.0;0;-9.5697619e-09;  1.0000000E+04;  0.0000000E+00;  0.0000000E+00;  1.0000000E+04;  0.0000000E+00;  1.0000000E+04;-9.5792068e-09;0.0;9.4450142e-12;2.0186266e-07
 -1.6000000E-01;  9.9999998E-03; -5.9999999E-02;138;0.0;0.0;0.0;1000.0;  4.0000001E-01;0.0;0;0.0;0.0;0.0;0;-9.6750705e-09;  1.0000000E+04;  0.0000000E+00;  0.0000000E+00;  1.0000000E+04;  0.0000000E+00;  1.0000000E+04;-9.6838395e-09;0.0;8.7689604e-12;2.0215123e-07
 -1.6000000E-01;  9.9999998E-03; -3.9999999E-02;139;0.0;0.0;0.0;1000.0;  4.0000001E-01;0.0;0;0.0;0.0;0.0;0;-9.7467661e-09;  1.0000000E+04;  0.0000000E+00;  0.0000000E+00;  1.0000000E+04;  0.0000000E+00;  1.0000000E+04;-9.7549044e-09;0.0;8.1384292e-12;2.0226793e-07
 -1.6000000E-01;  9.9999998E-03; -2.0000000E-02;140;0.0;0.0;0.0;1000.0;  4.0000001E-01;0.0;0;0.0;0.0;0.0;0;-9.7883168e-09;  1.0000000E+04;  0.0000000E+00;  0.0000000E+00;  1.0000000E+04;  0.0000000E+00;  1.0000000E+04;-9.7960076e-09;0.0;7.6905019e-12;2.0231168e-07
 -1.4000000E-01;  9.9999998E-03; -1.8000001E-01;173;0.0;0.0;0.0;1000.0;  4.0000001E-01;0.0;0;0.0;0.0;0.0;0;-3.0424607e-07;  1.0000000E+04;  0.0000000E+00;  0.0000000E+00;  1.0000000E+04;  0.0000000E+00;  1.0000000E+04;-3.0600063e-07;0.0;1.7545675e-09;9.6520725e-06
 -1.4000000E-01;  9.9999998E-03; -1.6000000E-01;174;0.0;0.0;0.0;1000.0;  4.0000001E-01;0.0;0;0.0;0.0;0.0;0;-3.1879375e-07;  1.0000000E+04;  0.0000000E+00;  0.0000000E+00;  1.0000000E+04;  0.0000000E+00;  1.0000000E+04;-3.2044036e-07;0.0;1.6466064e-09;9.74675e-06
 -1.4000000E-01;  9.9999998E-03; -1.4000000E-01;175;0.0;0.0;0.0;1000.0;  4.0000001E-01;0.0;0;0.0;0.0;0.0;0;-3.3043918e-07;  1.0000000E+04;  0.0000000E+00;  0.0000000E+00;  1.0000000E+04;  0.0000000E+00;  1.0000000E+04;-3.3195428e-07;0.0;1.5151111e-09;9.68944e-06
 -1.4000000E-01;  9.9999998E-03; -1.2000000E-01;176;0.0;0.0;0.0;1000.0;  4.0000001E-01;0.0;0;0.0;0.0;0.0;0;-3.3966759e-07;  1.0000000E+04;  0.0000000E+00;  0.0000000E+00;  1.0000000E+04;  0.0000000E+00;  1.0000000E+04;-3.4106009e-07;0.0;1.3924848e-09;9.5536871e-06
 -1.4000000E-01;  9.9999998E-03; -1.0000000E-01;177;0.0;0.0;0.0;1000.0;  4.0000001E-01;0.0;0;0.0;0.0;0.0;0;-3.4688563e-07;  1.0000000E+04;  0.0000000E+00;  0.0000000E+00;  1.0000000E+04;  0.0000000E+00;  1.0000000E+04;-3.4817293e-07;0.0;1.2872995e-09;9.3889284e-06
 -1.4000000E-01;  9.9999998E-03; -7.9999998E-02;178;0.0;0.0;0.0;1000.0;  4.0000001E-01;0.0;0;0.0;0.0;0.0;0;-3.5241192e-07;  1.0000000E+04;  0.0000000E+00;  0.0000000E+00;  1.0000000E+04;  0.0000000E+00;  1.0000000E+04;-3.5360728e-07;0.0;1.1953551e-09;9.2273849e-06
 -1.4000000E-01;  9.9999998E-03; -5.9999999E-02;179;0.0;0.0;0.0;1000.0;  4.0000001E-01;0.0;0;0.0;0.0;0.0;0;-3.5648461e-07;  1.0000000E+04;  0.0000000E+00;  0.0000000E+00;  1.0000000E+04;  0.0000000E+00;  1.0000000E+04;-3.5759726e-07;0.0;1.1126584e-09;9.0889525e-06
 -1.4000000E-01;  9.9999998E-03; -3.9999999E-02;180;0.0;0.0;0.0;1000.0;  4.0000001E-01;0.0;0;0.0;0.0;0.0;0;-3.5927562e-07;  1.0000000E+04;  0.0000000E+00;  0.0000000E+00;  1.0000000E+04;  0.0000000E+00;  1.0000000E+04;-3.6031813e-07;0.0;1.042495e-09;8.9845316e-06
 -1.4000000E-01;  9.9999998E-03; -2.0000000E-02;181;0.0;0.0;0.0;1000.0;  4.0000001E-01;0.0;0;0.0;0.0;0.0;0;-3.6090358e-07;  1.0000000E+04;  0.0000000E+00;  0.0000000E+00;  1.0000000E+04;  0.0000000E+00;  1.0000000E+04;-3.6189741e-07;0.0;9.9382325e-10;8.9197274e-06
 -1.2000000E-01;  9.9999998E-03; -1.8000001E-01;214;0.0;0.0;0.0;1000.0;  4.0000001E-01;0.0;0;0.0;0.0;0.0;0;-1.7180649e-06;  1.0000000E+04;  0.0000000E+00;  0.0000000E+00;  1.0000000E+04;  0.0000000E+00;  1.0000000E+04;-1.7349792e-06;0.0;1.69142e-08;7.0384631e-05
 -1.2000000E-01;  9.9999998E-03; -1.6000000E-01;215;0.0;0.0;0.0;1000.0;  4.0000001E-01;0.0;0;0.0;0.0;0.0;0;-1.8021053e-06;  1.0000000E+04;  0.0000000E+00;  0.0000000E+00;  1.0000000E+04;  0.0000000E+00;  1.0000000E+04;-1.818203e-06;0.0;1.6097765e-08;7.0537404e-05
 -1.2000000E-01;  9.9999998E-03; -1.4000000E-01;216;0.0;0.0;0.0;1000.0;  4.0000001E-01;0.0;0;0.0;0.0;0.0;0;-1.8695404e-06;  1.0000000E+04;  0.0000000E+00;  0.0000000E+00;  1.0000000E+04;  0.0000000E+00;  1.0000000E+04;-1.8844914e-06;0.0;1.4951071e-08;6.9335125e-05
 -1.2000000E-01;  9.9999998E-03; -1.2000000E-01;217;0.0;0.0;0.0;1000.0;  4.0000001E-01;0.0;0;0.0;0.0;0.0;0;-1.9230106e-06;  1.0000000E+04;  0.0000000E+00;  0.0000000E+00;  1.0000000E+04;  0.0000000E+00;  1.0000000E+04;-1.9367924e-06;0.0;1.3781862e-08;6.7450535e-05
 -1.2000000E-01;  9.9999998E-03; -1.0000000E-01;218;0.0;0.0;0.0;1000.0;  4.0000001E-01;0.0;0;0.0;0.0;0.0;0;-1.9647962e-06;  1.0000000E+04;  0.0000000E+00;  0.0000000E+00;  1.0000000E+04;  0.0000000E+00;  1.0000000E+04;-1.9775221e-06;0.0;1.2725851e-08;6.5370397e-05
 -1.2000000E-01;  9.9999998E-03; -7.9999998E-02;219;0.0;0.0;0.0;1000.0;  4.0000001E-01;0.0;0;0.0;0.0;0.0;0;-1.9967595e-06;  1.0000000E+04;  0.0000000E+00;  0.0000000E+00;  1.0000000E+04;  0.0000000E+00;  1.0000000E+04;-2.0085613e-06;0.0;1.1801943e-08;6.3408312e-05
 -1.2000000E-01;  9.9999998E-03; -5.9999999E-02;220;0.0;0.0;0.0;1000.0;  4.0000001E-01;0.0;0;0.0;0.0;0.0;0;-2.0203252e-06;  1.0000000E+04;  0.0000000E+00;  0.0000000E+00;  1.0000000E+04;  0.0000000E+00;  1.0000000E+04;-2.0313273e-06;0.0;1.1002106e-08;6.1754094e-05
 -1.2000000E-01;  9.9999998E-03; -3.9999999E-02;221;0.0;0.0;0.0;1000.0;  4.0000001E-01;0.0;0;0.0;0.0;0.0;0;-2.0365064e-06;  1.0000000E+04;  0.0000000E+00;  0.0000000E+00;  1.0000000E+04;  0.0000000E+00;  1.0000000E+04;-2.0468588e-06;0.0;1.0352433e-08;6.0516562e-05
 -1.2000000E-01;  9.9999998E-03; -2.0000000E-02;222;0.0;0.0;0.0;1000.0;  4.0000001E-01;0.0;0;0.0;0.0;0.0;0;-2.0459668e-06;  1.0000000E+04;  0.0000000E+00;  0.0000000E+00;  1.0000000E+04;  0.0000000E+00;  1.0000000E+04;-2.0558839e-06;0.0;9.9171578e-09;5.9754202e-05
 -1.0000000E-01;  9.9999998E-03; -1.8000001E-01;255;0.0;0.0;0.0;1000.0;  4.0000001E-01;0.0;0;0.0;0.0;0.0;0;-5.644144e-06;  1.0000000E+04;  0.0000000E+00;  0.0000000E+00;  1.0000000E+04;  0.0000000E+00;  1.0000000E+04;-5.7213074e-06;0.0;7.7163165e-08;0.00028165829
 -1.0000000E-01;  9.9999998E-03; -1.6000000E-01;256;0.0;0.0;0.0;1000.0;  4.0000001E-01;0.0;0;0.0;0.0;0.0;0;-5.9240192e-06;  1.0000000E+04;  0.0000000E+00;  0.0000000E+00;  1.0000000E+04;  0.0000000E+00;  1.0000000E+04;-5.9992094e-06;0.0;7.519013e-08;0.00028370309
 -1.0000000E-01;  9.9999998E-03; -1.4000000E-01;257;0.0;0.0;0.0;1000.0;  4.0000001E-01;0.0;0;0.0;0.0;0.0;0;-6.1482992e-06;  1.0000000E+04;  0.0000000E+00;  0.0000000E+00;  1.0000000E+04;  0.0000000E+00;  1.0000000E+04;-6.2186282e-06;0.0;7.0329008e-08;0.00027723968
 -1.0000000E-01;  9.9999998E-03; -1.2000000E-01;258;0.0;0.0;0.0;1000.0;  4.0000001E-01;0.0;0;0.0;0.0;0.0;0;-6.3262064e-06;  1.0000000E+04;  0.0000000E+00;  0.0000000E+00;  1.0000000E+04;  0.0000000E+00;  1.0000000E+04;-6.3912403e-06;0.0;6.5033788e-08;0.00026759345
 -1.0000000E-01;  9.9999998E-03; -1.0000000E-01;259;0.0;0.0;0.0;1000.0;  4.0000001E-01;0.0;0;0.0;0.0;0.0;0;-6.4651617e-06;  1.0000000E+04;  0.0000000E+00;  0.0000000E+00;  1.0000000E+04;  0.0000000E+00;  1.0000000E+04;-6.5252279e-06;0.0;6.0066e-08;0.00025706395
 -1.0000000E-01;  9.9999998E-03; -7.9999998E-02;260;0.0;0.0;0.0;1000.0;  4.0000001E-01;0.0;0;0.0;0.0;0.0;0;-6.5713552e-06;  1.0000000E+04;  0.0000000E+00;  0.0000000E+00;  1.0000000E+04;  0.0000000E+00;  1.0000000E+04;-6.6270395e-06;0.0;5.5684367e-08;0.00024717028
 -1.0000000E-01;  9.9999998E-03; -5.9999999E-02;261;0.0;0.0;0.0;1000.0;  4.0000001E-01;0.0;0;0.0;0.0;0.0;0;-6.6496054e-06;  1.0000000E+04;  0.0000000E+00;  0.0000000E+00;  1.0000000E+04;  0.0000000E+00;  1.0000000E+04;-6.7015626e-06;0.0;5.1957183e-08;0.00023883287
 -1.0000000E-01;  9.9999998E-03; -3.9999999E-02;262;0.0;0.0;0.0;1000.0;  4.0000001E-01;0.0;0;0.0;0.0;0.0;0;-6.7033488e-06;  1.0000000E+04;  0.0000000E+00;  0.0000000E+00;  1.0000000E+04;  0.0000000E+00;  1.0000000E+04;-6.7523583e-06;0.0;4.9009561e-08;0.00023258905
 -1.0000000E-01;  9.9999998E-03; -2.0000000E-02;263;0.0;0.0;0.0;1000.0;  4.0000001E-01;0.0;0;0.0;0.0;0.0;0;-6.7347964e-06;  1.0000000E+04;  0.0000000E+00;  0.0000000E+00;  1.0000000E+04;  0.0000000E+00;  1.0000000E+04;-6.7818733e-06;0.0;4.7076995e-08;0.00022874022
 -7.9999998E-02;  9.9999998E-03; -1.8000001E-01;296;0.0;0.0;0.0;1000.0;  4.0000001E-01;0.0;0;0.0;0.0;0.0;0;-1.397892e-05;  1.0000000E+04;  0.0000000E+00;  0.0000000E+00;  1.0000000E+04;  0.0000000E+00;  1.0000000E+04;-1.4218442e-05;0.0;2.3952194e-07;0.00081568683
 -7.9999998E-02;  9.9999998E-03; -1.6000000E-01;297;0.0;0.0;0.0;1000.0;  4.0000001E-01;0.0;0;0.0;0.0;0.0;0;-1.4673598e-05;  1.0000000E+04;  0.0000000E+00;  0.0000000E+00;  1.0000000E+04;  0.0000000E+00;  1.0000000E+04;-1.4912222e-05;0.0;2.3862415e-07;0.00082904164
 -7.9999998E-02;  9.9999998E-03; -1.4000000E-01;298;0.0;0.0;0.0;1000.0;  4.0000001E-01;0.0;0;0.0;0.0;0.0;0;-1.5229983e-05;  1.0000000E+04;  0.0000000E+00;  0.0000000E+00;  1.0000000E+04;  0.0000000E+00;  1.0000000E+04;-1.5454634e-05;0.0;2.2465163e-07;0.00080814766
 -7.9999998E-02;  9.9999998E-03; -1.2000000E-01;299;0.0;0.0;0.0;1000.0;  4.0000001E-01;0.0;0;0.0;0.0;0.0;0;-1.5671263e-05;  1.0000000E+04;  0.0000000E+00;  0.0000000E+00;  1.0000000E+04;  0.0000000E+00;  1.0000000E+04;-1.5879552e-05;0.0;2.0828836e-07;0.00077626569
 -7.9999998E-02;  9.9999998E-03; -1.0000000E-01;300;0.0;0.0;0.0;1000.0;  4.0000001E-01;0.0;0;0.0;0.0;0.0;0;-1.6015696e-05;  1.0000000E+04;  0.0000000E+00;  0.0000000E+00;  1.0000000E+04;  0.0000000E+00;  1.0000000E+04;-1.6208189e-05;0.0;1.9249282e-07;0.0007414415
 -7.9999998E-02;  9.9999998E-03; -7.9999998E-02;301;0.0;0.0;0.0;1000.0;  4.0000001E-01;0.0;0;0.0;0.0;0.0;0;-1.6278649e-05;  1.0000000E+04;  0.0000000E+00;  0.0000000E+00;  1.0000000E+04;  0.0000000E+00;  1.0000000E+04;-1.6457079e-05;0.0;1.7843097e-07;0.00070865743
 -7.9999998E-02;  9.9999998E-03; -5.9999999E-02;302;0.0;0.0;0.0;1000.0;  4.0000001E-01;0.0;0;0.0;0.0;0.0;0;-1.6472222e-05;  1.0000000E+04;  0.0000000E+00;  0.0000000E+00;  1.0000000E+04;  0.0000000E+00;  1.0000000E+04;-1.6638784e-05;0.0;1.6656186e-07;0.00068097311
 -7.9999998E-02;  9.9999998E-03; -3.9999999E-02;303;0.0;0.0;0.0;1000.0;  4.0000001E-01;0.0;0;0.0;0.0;0.0;0;-1.6605096e-05;  1.0000000E+04;  0.0000000E+00;  0.0000000E+00;  1.0000000E+04;  0.0000000E+00;  1.0000000E+04;-1.676242e-05;0.0;1.5732461e-07;0.00066019362
 -7.9999998E-02;  9.9999998E-03; -2.0000000E-02;304;0.0;0.0;0.0;1000.0;  4.0000001E-01;0.0;0;0.0;0.0;0.0;0;-1.6682841e-05;  1.0000000E+04;  0.0000000E+00;  0.0000000E+00;  1.0000000E+04;  0.0000000E+00;  1.0000000E+04;-1.6834198e-05;0.0;1.5135718e-07;0.00064736389
 -5.9999999E-02;  9.9999998E-03; -1.8000001E-01;337;0.0;0.0;0.0;1000.0;  4.0000001E-01;0.0;0;0.0;0.0;0.0;0;-2.8579969e-05;  1.0000000E+04;  0.0000000E+00;  0.0000000E+00;  1.0000000E+04;  0.0000000E+00;  1.0000000E+04;-2.9170549e-05;0.0;5.905805e-07;0.0019249419
 -5.9999999E-02;  9.9999998E-03; -1.6000000E-01;338;0.0;0.0;0.0;1000.0;  4.0000001E-01;0.0;0;0.0;0.0;0.0;0;-2.9984358e-05;  1.0000000E+04;  0.0000000E+00;  0.0000000E+00;  1.0000000E+04;  0.0000000E+00;  1.0000000E+04;-3.0577219e-05;0.0;5.9286117e-07;0.001959861
 -5.9999999E-02;  9.9999998E-03; -1.4000000E-01;339;0.0;0.0;0.0;1000.0;  4.0000001E-01;0.0;0;0.0;0.0;0.0;0;-3.1112253e-05;  1.0000000E+04;  0.0000000E+00;  0.0000000E+00;  1.0000000E+04;  0.0000000E+00;  1.0000000E+04;-3.1674062e-05;0.0;5.6180932e-07;0.0019095496
 -5.9999999E-02;  9.9999998E-03; -1.2000000E-01;340;0.0;0.0;0.0;1000.0;  4.0000001E-01;0.0;0;0.0;0.0;0.0;0;-3.200653e-05;  1.0000000E+04;  0.0000000E+00;  0.0000000E+00;  1.0000000E+04;  0.0000000E+00;  1.0000000E+04;-3.2528402e-05;0.0;5.2187045e-07;0.0018275983
 -5.9999999E-02;  9.9999998E-03; -1.0000000E-01;341;0.0;0.0;0.0;1000.0;  4.0000001E-01;0.0;0;0.0;0.0;0.0;0;-3.2703923e-05;  1.0000000E+04;  0.0000000E+00;  0.0000000E+00;  1.0000000E+04;  0.0000000E+00;  1.0000000E+04;-3.3186432e-05;0.0;4.8251002e-07;0.0017380699
 -5.9999999E-02;  9.9999998E-03; -7.9999998E-02;342;0.0;0.0;0.0;1000.0;  4.0000001E-01;0.0;0;0.0;0.0;0.0;0;-3.3235738e-05;  1.0000000E+04;  0.0000000E+00;  0.0000000E+00;  1.0000000E+04;  0.0000000E+00;  1.0000000E+04;-3.3682914e-05;0.0;4.4717495e-07;0.0016536611
 -5.9999999E-02;  9.9999998E-03; -5.9999999E-02;343;0.0;0.0;0.0;1000.0;  4.0000001E-01;0.0;0;0.0;0.0;0.0;0;-3.3626788e-05;  1.0000000E+04;  0.0000000E+00;  0.0000000E+00;  1.0000000E+04;  0.0000000E+00;  1.0000000E+04;-3.4044224e-05;0.0;4.1743641e-07;0.0015822611
 -5.9999999E-02;  9.9999998E-03; -3.9999999E-02;344;0.0;0.0;0.0;1000.0;  4.0000001E-01;0.0;0;0.0;0.0;0.0;0;-3.3894983e-05;  1.0000000E+04;  0.0000000E+00;  0.0000000E+00;  1.0000000E+04;  0.0000000E+00;  1.0000000E+04;-3.4289489e-05;0.0;3.945068e-07;0.0015285671
 -5.9999999E-02;  9.9999998E-03; -2.0000000E-02;345;0.0;0.0;0.0;1000.0;  4.0000001E-01;0.0;0;0.0;0.0;0.0;0;-3.4051813e-05;  1.0000000E+04;  0.0000000E+00;  0.0000000E+00;  1.0000000E+04;  0.0000000E+00;  1.0000000E+04;-3.443165e-05;0.0;3.7983887e-07;0.0014953614
 -3.9999999E-02;  9.9999998E-03; -1.8000001E-01;378;0.0;0.0;0.0;1000.0;  4.0000001E-01;0.0;0;0.0;0.0;0.0;0;-5.0597282e-05;  1.0000000E+04;  0.0000000E+00;  0.0000000E+00;  1.0000000E+04;  0.0000000E+00;  1.0000000E+04;-5.1836618e-05;0.0;1.239336e-06;0.003925744
 -3.9999999E-02;  9.9999998E-03; -1.6000000E-01;379;0.0;0.0;0.0;1000.0;  4.0000001E-01;0.0;0;0.0;0.0;0.0;0;-5.303037e-05;  1.0000000E+04;  0.0000000E+00;  0.0000000E+00;  1.0000000E+04;  0.0000000E+00;  1.0000000E+04;-5.427506e-05;0.0;1.2446924e-06;0.0039871344
 -3.9999999E-02;  9.9999998E-03; -1.4000000E-01;380;0.0;0.0;0.0;1000.0;  4.0000001E-01;0.0;0;0.0;0.0;0.0;0;-5.4990003e-05;  1.0000000E+04;  0.0000000E+00;  0.0000000E+00;  1.0000000E+04;  0.0000000E+00;  1.0000000E+04;-5.6173008e-05;0.0;1.183005e-06;0.0038777292
 -3.9999999E-02;  9.9999998E-03; -1.2000000E-01;381;0.0;0.0;0.0;1000.0;  4.0000001E-01;0.0;0;0.0;0.0;0.0;0;-5.6543646e-05;  1.0000000E+04;  0.0000000E+00;  0.0000000E+00;  1.0000000E+04;  0.0000000E+00;  1.0000000E+04;-5.7643658e-05;0.0;1.1000105e-06;0.0036991234
 -3.9999999E-02;  9.9999998E-03; -1.0000000E-01;382;0.0;0.0;0.0;1000.0;  4.0000001E-01;0.0;0;0.0;0.0;0.0;0;-5.7753809e-05;  1.0000000E+04;  0.0000000E+00;  0.0000000E+00;  1.0000000E+04;  0.0000000E+00;  1.0000000E+04;-5.8770853e-05;0.0;1.0170452e-06;0.0035046304
 -3.9999999E-02;  9.9999998E-03; -7.9999998E-02;383;0.0;0.0;0.0;1000.0;  4.0000001E-01;0.0;0;0.0;0.0;0.0;0;-5.8675483e-05;  1.0000000E+04;  0.0000000E+00;  0.0000000E+00;  1.0000000E+04;  0.0000000E+00;  1.0000000E+04;-5.9617563e-05;0.0;9.4207928e-07;0.003321389
 -3.9999999E-02;  9.9999998E-03; -5.9999999E-02;384;0.0;0.0;0.0;1000.0;  4.0000001E-01;0.0;0;0.0;0.0;0.0;0;-5.9352369e-05;  1.0000000E+04;  0.0000000E+00;  0.0000000E+00;  1.0000000E+04;  0.0000000E+00;  1.0000000E+04;-6.0231388e-05;0.0;8.7901861e-07;0.0031663156
 -3.9999999E-02;  9.9999998E-03; -3.9999999E-02;385;0.0;0.0;0.0;1000.0;  4.0000001E-01;0.0;0;0.0;0.0;0.0;0;-5.9816193e-05;  1.0000000E+04;  0.0000000E+00;  0.0000000E+00;  1.0000000E+04;  0.0000000E+00;  1.0000000E+04;-6.0646846e-05;0.0;8.3065135e-07;0.0030495732
 -3.9999999E-02;  9.9999998E-03; -2.0000000E-02;386;0.0;0.0;0.0;1000.0;  4.0000001E-01;0.0;0;0.0;0.0;0.0;0;-6.0087299e-05;  1.0000000E+04;  0.0000000E+00;  0.0000000E+00;  1.0000000E+04;  0.0000000E+00;  1.0000000E+04;-6.0887203e-05;0.0;7.9990451e-07;0.0029772848
 -2.0000000E-02;  9.9999998E-03; -1.8000001E-01;419;0.0;0.0;0.0;1000.0;  4.0000001E-01;0.0;0;0.0;0.0;0.0;0;-8.0185404e-05;  1.0000000E+04;  0.0000000E+00;  0.0000000E+00;  1.0000000E+04;  0.0000000E+00;  1.0000000E+04;-8.2485036e-05;0.0;2.2996305e-06;0.0071701845
 -2.0000000E-02;  9.9999998E-03; -1.6000000E-01;420;0.0;0.0;0.0;1000.0;  4.0000001E-01;0.0;0;0.0;0.0;0.0;0;-8.3924126e-05;  1.0000000E+04;  0.0000000E+00;  0.0000000E+00;  1.0000000E+04;  0.0000000E+00;  1.0000000E+04;-8.6227483e-05;0.0;2.3033544e-06;0.007249617
 -2.0000000E-02;  9.9999998E-03; -1.4000000E-01;421;0.0;0.0;0.0;1000.0;  4.0000001E-01;0.0;0;0.0;0.0;0.0;0;-8.6940447e-05;  1.0000000E+04;  0.0000000E+00;  0.0000000E+00;  1.0000000E+04;  0.0000000E+00;  1.0000000E+04;-8.9129448e-05;0.0;2.1890035e-06;0.0070267268
 -2.0000000E-02;  9.9999998E-03; -1.2000000E-01;422;0.0;0.0;0.0;1000.0;  4.0000001E-01;0.0;0;0.0;0.0;0.0;0;-8.9330024e-05;  1.0000000E+04;  0.0000000E+00;  0.0000000E+00;  1.0000000E+04;  0.0000000E+00;  1.0000000E+04;-9.1365822e-05;0.0;2.0358016e-06;0.0066811121
 -2.0000000E-02;  9.9999998E-03; -1.0000000E-01;423;0.0;0.0;0.0;1000.0;  4.0000001E-01;0.0;0;0.0;0.0;0.0;0;-9.1188325e-05;  1.0000000E+04;  0.0000000E+00;  0.0000000E+00;  1.0000000E+04;  0.0000000E+00;  1.0000000E+04;-9.3069517e-05;0.0;1.8811913e-06;0.0063072089
 -2.0000000E-02;  9.9999998E-03; -7.9999998E-02;424;0.0;0.0;0.0;1000.0;  4.0000001E-01;0.0;0;0.0;0.0;0.0;0;-9.2601542e-05;  1.0000000E+04;  0.0000000E+00;  0.0000000E+00;  1.0000000E+04;  0.0000000E+00;  1.0000000E+04;-9.4342366e-05;0.0;1.7408203e-06;0.0059559424
 -2.0000000E-02;  9.9999998E-03; -5.9999999E-02;425;0.0;0.0;0.0;1000.0;  4.0000001E-01;0.0;0;0.0;0.0;0.0;0;-9.363814e-05;  1.0000000E+04;  0.0000000E+00;  0.0000000E+00;  1.0000000E+04;  0.0000000E+00;  1.0000000E+04;-9.5260817e-05;0.0;1.6226749e-06;0.0056588831
 -2.0000000E-02;  9.9999998E-03; -3.9999999E-02;426;0.0;0.0;0.0;1000.0;  4.0000001E-01;0.0;0;0.0;0.0;0.0;0;-9.4347975e-05;  1.0000000E+04;  0.0000000E+00;  0.0000000E+00;  1.0000000E+04;  0.0000000E+00;  1.0000000E+04;-9.5880299e-05;0.0;1.5323213e-06;0.0054351641
 -2.0000000E-02;  9.9999998E-03; -2.0000000E-02;427;0.0;0.0;0.0;1000.0;  4.0000001E-01;0.0;0;0.0;0.0;0.0;0;-9.4762639e-05;  1.0000000E+04;  0.0000000E+00;  0.0000000E+00;  1.0000000E+04;  0.0000000E+00;  1.0000000E+04;-9.6237753e-05;0.0;1.4751149e-06;0.0052965116
 -2.2000000E-01;  9.9999998E-03;  0.0000000E+00;19;0.0;0.0;0.0;1000.0;  4.0000001E-01;0.0;0;0.0;0.0;0.0;0;0.0;  1.0000000E+04;  0.0000000E+00;  0.0000000E+00;  1.0000000E+04;  0.0000000E+00;  1.0000000E+04;0.0;0.0;0.0;0.0
 -2.2000000E-01;  9.9999998E-03;  2.0000000E-02;20;0.0;0.0;0.0;1000.0;  4.0000001E-01;0.0;0;0.0;0.0;0.0;0;0.0;  1.0000000E+04;  0.0000000E+00;  0.0000000E+00;  1.0000000E+04;  0.0000000E+00;  1.0000000E+04;0.0;0.0;0.0;0.0
 -2.2000000E-01;  9.9999998E-03;  3.9999999E-02;21;0.0;0.0;0.0;1000.0;  4.0000001E-01;0.0;0;0.0;0.0;0.0;0;0.0;  1.0000000E+04;  0.0000000E+00;  0.0000000E+00;  1.0000000E+04;  0.0000000E+00;  1.0000000E+04;0.0;0.0;0.0;0.0
 -2.2000000E-01;  9.9999998E-03;  5.9999999E-02;22;0.0;0.0;0.0;1000.0;  4.0000001E-01;0.0;0;0.0;0.0;0.0;0;0.0;  1.0000000E+04;  0.0000000E+00;  0.0000000E+00;  1.0000000E+04;  0.0000000E+00;  1.0000000E+04;0.0;0.0;0.0;0.0
 -2.2000000E-01;  9.9999998E-03;  7.9999998E-02;23;0.0;0.0;0.0;1000.0;  4.0000001E-01;0.0;0;0.0;0.0;0.0;0;0.0;  1.0000000E+04;  0.0000000E+00;  0.0000000E+00;  1.0000000E+04;  0.0000000E+00;  1.0000000E+04;0.0;0.0;0.0;0.0
 -2.2000000E-01;  9.9999998E-03;  1.0000000E-01;24;0.0;0.0;0.0;1000.0;  4.0000001E-01;0.0;0;0.0;0.0;0.0;0;0.0;  1.0000000E+04;  0.0000000E+00;  0.0000000E+00;  1.0000000E+04;  0.0000000E+00;  1.0000000E+04;0.0;0.0;0.0;0.0
 -2.2000000E-01;  9.9999998E-03;  1.2000000E-01;25;0.0;0.0;0.0;1000.0;  4.0000001E-01;0.0;0;0.0;0.0;0.0;0;0.0;  1.0000000E+04;  0.0000000E+00;  0.0000000E+00;  1.0000000E+04;  0.0000000E+00;  1.0000000E+04;0.0;0.0;0.0;0.0
 -2.2000000E-01;  9.9999998E-03;  1.4000000E-01;26;0.0;0.0;0.0;1000.0;  4.0000001E-01;0.0;0;0.0;0.0;0.0;0;0.0;  1.0000000E+04;  0.0000000E+00;  0.0000000E+00;  1.0000000E+04;  0.0000000E+00;  1.0000000E+04;0.0;0.0;0.0;0.0
 -2.0000000E-01;  9.9999998E-03;  0.0000000E+00;59;0.0;0.0;0.0;1000.0;  4.0000001E-01;0.0;0;0.0;0.0;0.0;0;0.0;  1.0000000E+04;  0.0000000E+00;  0.0000000E+00;  1.0000000E+04;  0.0000000E+00;  1.0000000E+04;0.0;0.0;0.0;0.0
 -2.0000000E-01;  9.9999998E-03;  2.0000000E-02;60;0.0;0.0;0.0;1000.0;  4.0000001E-01;0.0;0;0.0;0.0;0.0;0;0.0;  1.0000000E+04;  0.0000000E+00;  0.0000000E+00;  1.0000000E+04;  0.0000000E+00;  1.0000000E+04;0.0;0.0;0.0;0.0
 -2.0000000E-01;  9.9999998E-03;  3.9999999E-02;61;0.0;0.0;0.0;1000.0;  4.0000001E-01;0.0;0;0.0;0.0;0.0;0;0.0;  1.0000000E+04;  0.0000000E+00;  0.0000000E+00;  1.0000000E+04;  0.0000000E+00;  1.0000000E+04;0.0;0.0;0.0;0.0
 -2.0000000E-01;  9.9999998E-03;  5.9999999E-02;62;0.0;0.0;0.0;1000.0;  4.0000001E-01;0.0;0;0.0;0.0;0.0;0;0.0;  1.0000000E+04;  0.0000000E+00;  0.0000000E+00;  1.0000000E+04;  0.0000000E+00;  1.0000000E+04;0.0;0.0;0.0;0.0
 -2.0000000E-01;  9.9999998E-03;  7.9999998E-02;63;0.0;0.0;0.0;1000.0;  4.0000001E-01;0.0;0;0.0;0.0;0.0;0;0.0;  1.0000000E+04;  0.0000000E+00;  0.0000000E+00;  1.0000000E+04;  0.0000000E+00;  1.0000000E+04;0.0;0.0;0.0;0.0
 -2.0000000E-01;  9.9999998E-03;  1.0000000E-01;64;0.0;0.0;0.0;1000.0;  4.0000001E-01;0.0;0;0.0;0.0;0.0;0;0.0;  1.0000000E+04;  0.0000000E+00;  0.0000000E+00;  1.0000000E+04;  0.0000000E+00;  1.0000000E+04;0.0;0.0;0.0;0.0
 -2.0000000E-01;  9.9999998E-03;  1.2000000E-01;65;0.0;0.0;0.0;1000.0;  4.0000001E-01;0.0;0;0.0;0.0;0.0;0;0.0;  1.0000000E+04;  0.0000000E+00;  0.0000000E+00;  1.0000000E+04;  0.0000000E+00;  1.0000000E+04;0.0;0.0;0.0;0.0
 -2.0000000E-01;  9.9999998E-03;  1.4000000E-01;66;0.0;0.0;0.0;1000.0;  4.0000001E-01;0.0;0;0.0;0.0;0.0;0;0.0;  1.0000000E+04;  0.0000000E+00;  0.0000000E+00;  1.0000000E+04;  0.0000000E+00;  1.0000000E+04;0.0;0.0;0.0;0.0
 -1.8000001E-01;  9.9999998E-03;  0.0000000E+00;100;0.0;0.0;0.0;1000.0;  4.0000001E-01;0.0;0;0.0;0.0;0.0;0;0.0;  1.0000000E+04;  0.0000000E+00;  0.0000000E+00;  1.0000000E+04;  0.0000000E+00;  1.0000000E+04;0.0;0.0;0.0;0.0
 -1.8000001E-01;  9.9999998E-03;  2.0000000E-02;101;0.0;0.0;0.0;1000.0;  4.0000001E-01;0.0;0;0.0;0.0;0.0;0;0.0;  1.0000000E+04;  0.0000000E+00;  0.0000000E+00;  1.0000000E+04;  0.0000000E+00;  1.0000000E+04;0.0;0.0;0.0;0.0
 -1.8000001E-01;  9.9999998E-03;  3.9999999E-02;102;0.0;0.0;0.0;1000.0;  4.0000001E-01;0.0;0;0.0;0.0;0.0;0;0.0;  1.0000000E+04;  0.0000000E+00;  0.0000000E+00;  1.0000000E+04;  0.0000000E+00;  1.0000000E+04;0.0;0.0;0.0;0.0
 -1.8000001E-01;  9.9999998E-03;  5.9999999E-02;103;0.0;0.0;0.0;1000.0;  4.0000001E-01;0.0;0;0.0;0.0;0.0;0;0.0;  1.0000000E+04;  0.0000000E+00;  0.0000000E+00;  1.0000000E+04;  0.0000000E+00;  1.0000000E+04;0.0;0.0;0.0;0.0
 -1.8000001E-01;  9.9999998E-03;  7.9999998E-02;104;0.0;0.0;0.0;1000.0;  4.0000001E-01;0.0;0;0.0;0.0;0.0;0;0.0;  1.0000000E+04;  0.0000000E+00;  0.0000000E+00;  1.0000000E+04;  0.0000000E+00;  1.0000000E+04;0.0;0.0;0.0;0.0
 -1.8000001E-01;  9.9999998E-03;  1.0000000E-01;105;0.0;0.0;0.0;1000.0;  4.0000001E-01;0.0;0;0.0;0.0;0.0;0;0.0;  1.0000000E+04;  0.0000000E+00;  0.0000000E+00;  1.0000000E+04;  0.0000000E+00;  1.0000000E+04;0.0;0.0;0.0;0.0
 -1.8000001E-01;  9.9999998E-03;  1.2000000E-01;106;0.0;0.0;0.0;1000.0;  4.0000001E-01;0.0;0;0.0;0.0;0.0;0;0.0;  1.0000000E+04;  0.0000000E+00;  0.0000000E+00;  1.0000000E+04;  0.0000000E+00;  1.0000000E+04;0.0;0.0;0.0;0.0
 -1.8000001E-01;  9.9999998E-03;  1.4000000E-01;107;0.0;0.0;0.0;1000.0;  4.0000001E-01;0.0;0;0.0;0.0;0.0;0;0.0;  1.0000000E+04;  0.0000000E+00;  0.0000000E+00;  1.0000000E+04;  0.0000000E+00;  1.0000000E+04;0.0;0.0;0.0;0.0
 -1.6000000E-01;  9.9999998E-03;  0.0000000E+00;141;0.0;0.0;0.0;1000.0;  4.0000001E-01;0.0;0;0.0;0.0;0.0;0;-9.8019246e-09;  1.0000000E+04;  0.0000000E+00;  0.0000000E+00;  1.0000000E+04;  0.0000000E+00;  1.0000000E+04;-9.809451e-09;0.0;7.5264257e-12;2.0231857e-07
 -1.6000000E-01;  9.9999998E-03;  2.0000000E-02;142;0.0;0.0;0.0;1000.0;  4.0000001E-01;0.0;0;0.0;0.0;0.0;0;-9.7883195e-09;  1.0000000E+04;  0.0000000E+00;  0.0000000E+00;  1.0000000E+04;  0.0000000E+00;  1.0000000E+04;-9.7960102e-09;0.0;7.6904819e-12;2.0231168e-07
 -1.6000000E-01;  9.9999998E-03;  3.9999999E-02;143;0.0;0.0;0.0;1000.0;  4.0000001E-01;0.0;0;0.0;0.0;0.0;0;-9.7467669e-09;  1.0000000E+04;  0.0000000E+00;  0.0000000E+00;  1.0000000E+04;  0.0000000E+00;  1.0000000E+04;-9.7549053e-09;0.0;8.1384361e-12;2.0226793e-07
 -1.6000000E-01;  9.9999998E-03;  5.9999999E-02;144;0.0;0.0;0.0;1000.0;  4.0000001E-01;0.0;0;0.0;0.0;0.0;0;-9.6750714e-09;  1.0000000E+04;  0.0000000E+00;  0.0000000E+00;  1.0000000E+04;  0.0000000E+00;  1.0000000E+04;-9.6838404e-09;0.0;8.7689847e-12;2.0215124e-07
 -1.6000000E-01;  9.9999998E-03;  7.9999998E-02;145;0.0;0.0;0.0;1000.0;  4.0000001E-01;0.0;0;0.0;0.0;0.0;0;-9.5697619e-09;  1.0000000E+04;  0.0000000E+00;  0.0000000E+00;  1.0000000E+04;  0.0000000E+00;  1.0000000E+04;-9.5792068e-09;0.0;9.4450316e-12;2.0186269e-07
 -1.6000000E-01;  9.9999998E-03;  1.0000000E-01;146;0.0;0.0;0.0;1000.0;  4.0000001E-01;0.0;0;0.0;0.0;0.0;0;-9.4262536e-09;  1.0000000E+04;  0.0000000E+00;  0.0000000E+00;  1.0000000E+04;  0.0000000E+00;  1.0000000E+04;-9.436377e-09;0.0;1.0123666e-11;2.0125074e-07
 -1.6000000E-01;  9.9999998E-03;  1.2000000E-01;147;0.0;0.0;0.0;1000.0;  4.0000001E-01;0.0;0;0.0;0.0;0.0;0;-9.2387005e-09;  1.0000000E+04;  0.0000000E+00;  0.0000000E+00;  1.0000000E+04;  0.0000000E+00;  1.0000000E+04;-9.2496109e-09;0.0;1.0910254e-11;2.0015186e-07
 -1.6000000E-01;  9.9999998E-03;  1.4000000E-01;148;0.0;0.0;0.0;1000.0;  4.0000001E-01;0.0;0;0.0;0.0;0.0;0;-8.9994554e-09;  1.0000000E+04;  0.0000000E+00;  0.0000000E+00;  1.0000000E+04;  0.0000000E+00;  1.0000000E+04;-9.0113286e-09;0.0;1.1872866e-11;1.9814657e-07
 -1.4000000E-01;  9.9999998E-03;  0.0000000E+00;182;0.0;0.0;0.0;1000.0;  4.0000001E-01;0.0;0;0.0;0.0;0.0;0;-3.6143854e-07;  1.0000000E+04;  0.0000000E+00;  0.0000000E+00;  1.0000000E+04;  0.0000000E+00;  1.0000000E+04;-3.624148e-07;0.0;9.7624464e-10;8.8978004e-06
 -1.4000000E-01;  9.9999998E-03;  2.0000000E-02;183;0.0;0.0;0.0;1000.0;  4.0000001E-01;0.0;0;0.0;0.0;0.0;0;-3.6090361e-07;  1.0000000E+04;  0.0000000E+00;  0.0000000E+00;  1.0000000E+04;  0.0000000E+00;  1.0000000E+04;-3.6189743e-07;0.0;9.9382336e-10;8.9197256e-06
 -1.4000000E-01;  9.9999998E-03;  3.9999999E-02;184;0.0;0.0;0.0;1000.0;  4.0000001E-01;0.0;0;0.0;0.0;0.0;0;-3.5927553e-07;  1.0000000E+04;  0.0000000E+00;  0.0000000E+00;  1.0000000E+04;  0.0000000E+00;  1.0000000E+04;-3.6031804e-07;0.0;1.0424958e-09;8.984528e-06
 -1.4000000E-01;  9.9999998E-03;  5.9999999E-02;185;0.0;0.0;0.0;1000.0;  4.0000001E-01;0.0;0;0.0;0.0;0.0;0;-3.5648463e-07;  1.0000000E+04;  0.0000000E+00;  0.0000000E+00;  1.0000000E+04;  0.0000000E+00;  1.0000000E+04;-3.5759729e-07;0.0;1.1126597e-09;9.0889525e-06
 -1.4000000E-01;  9.9999998E-03;  7.9999998E-02;186;0.0;0.0;0.0;1000.0;  4.0000001E-01;0.0;0;0.0;0.0;0.0;0;-3.5241192e-07;  1.0000000E+04;  0.0000000E+00;  0.0000000E+00;  1.0000000E+04;  0.0000000E+00;  1.0000000E+04;-3.5360728e-07;0.0;1.1953565e-09;9.2273858e-06
 -1.4000000E-01;  9.9999998E-03;  1.0000000E-01;187;0.0;0.0;0.0;1000.0;  4.0000001E-01;0.0;0;0.0;0.0;0.0;0;-3.4688557e-07;  1.0000000E+04;  0.0000000E+00;  0.0000000E+00;  1.0000000E+04;  0.0000000E+00;  1.0000000E+04;-3.4817288e-07;0.0;1.2872998e-09;9.3889284e-06
 -1.4000000E-01;  9.9999998E-03;  1.2000000E-01;188;0.0;0.0;0.0;1000.0;  4.0000001E-01;0.0;0;0.0;0.0;0.0;0;-3.3966765e-07;  1.0000000E+04;  0.0000000E+00;  0.0000000E+00;  1.0000000E+04;  0.0000000E+00;  1.0000000E+04;-3.4106014e-07;0.0;1.3924846e-09;9.5536889e-06
 -1.4000000E-01;  9.9999998E-03;  1.4000000E-01;189;0.0;0.0;0.0;1000.0;  4.0000001E-01;0.0;0;0.0;0.0;0.0;0;-3.3043921e-07;  1.0000000E+04;  0.0000000E+00;  0.0000000E+00;  1.0000000E+04;  0.0000000E+00;  1.0000000E+04;-3.3195431e-07;0.0;1.5151118e-09;9.6894428e-06
 -1.2000000E-01;  9.9999998E-03;  0.0000000E+00;223;0.0;0.0;0.0;1000.0;  4.0000001E-01;0.0;0;0.0;0.0;0.0;0;-2.0490797e-06;  1.0000000E+04;  0.0000000E+00;  0.0000000E+00;  1.0000000E+04;  0.0000000E+00;  1.0000000E+04;-2.0588425e-06;0.0;9.7626431e-09;5.949671e-05
 -1.2000000E-01;  9.9999998E-03;  2.0000000E-02;224;0.0;0.0;0.0;1000.0;  4.0000001E-01;0.0;0;0.0;0.0;0.0;0;-2.0459668e-06;  1.0000000E+04;  0.0000000E+00;  0.0000000E+00;  1.0000000E+04;  0.0000000E+00;  1.0000000E+04;-2.0558839e-06;0.0;9.9171586e-09;5.9754198e-05
 -1.2000000E-01;  9.9999998E-03;  3.9999999E-02;225;0.0;0.0;0.0;1000.0;  4.0000001E-01;0.0;0;0.0;0.0;0.0;0;-2.0365062e-06;  1.0000000E+04;  0.0000000E+00;  0.0000000E+00;  1.0000000E+04;  0.0000000E+00;  1.0000000E+04;-2.0468588e-06;0.0;1.0352439e-08;6.0516562e-05
 -1.2000000E-01;  9.9999998E-03;  5.9999999E-02;226;0.0;0.0;0.0;1000.0;  4.0000001E-01;0.0;0;0.0;0.0;0.0;0;-2.0203247e-06;  1.0000000E+04;  0.0000000E+00;  0.0000000E+00;  1.0000000E+04;  0.0000000E+00;  1.0000000E+04;-2.0313269e-06;0.0;1.1002115e-08;6.1754094e-05
 -1.2000000E-01;  9.9999998E-03;  7.9999998E-02;227;0.0;0.0;0.0;1000.0;  4.0000001E-01;0.0;0;0.0;0.0;0.0;0;-1.9967597e-06;  1.0000000E+04;  0.0000000E+00;  0.0000000E+00;  1.0000000E+04;  0.0000000E+00;  1.0000000E+04;-2.0085618e-06;0.0;1.1801949e-08;6.3408319e-05
 -1.2000000E-01;  9.9999998E-03;  1.0000000E-01;228;0.0;0.0;0.0;1000.0;  4.0000001E-01;0.0;0;0.0;0.0;0.0;0;-1.9647966e-06;  1.0000000E+04;  0.0000000E+00;  0.0000000E+00;  1.0000000E+04;  0.0000000E+00;  1.0000000E+04;-1.9775225e-06;0.0;1.2725855e-08;6.5370412e-05
 -1.2000000E-01;  9.9999998E-03;  1.2000000E-01;229;0.0;0.0;0.0;1000.0;  4.0000001E-01;0.0;0;0.0;0.0;0.0;0;-1.9230108e-06;  1.0000000E+04;  0.0000000E+00;  0.0000000E+00;  1.0000000E+04;  0.0000000E+00;  1.0000000E+04;-1.9367926e-06;0.0;1.3781864e-08;6.7450543e-05
 -1.2000000E-01;  9.9999998E-03;  1.4000000E-01;230;0.0;0.0;0.0;1000.0;  4.0000001E-01;0.0;0;0.0;0.0;0.0;0;-1.8695405e-06;  1.0000000E+04;  0.0000000E+00;  0.0000000E+00;  1.0000000E+04;  0.0000000E+00;  1.0000000E+04;-1.8844916e-06;0.0;1.4951075e-08;6.9335132e-05
 -1.0000000E-01;  9.9999998E-03;  0.0000000E+00;264;0.0;0.0;0.0;1000.0;  4.0000001E-01;0.0;0;0.0;0.0;0.0;0;-6.7451529e-06;  1.0000000E+04;  0.0000000E+00;  0.0000000E+00;  1.0000000E+04;  0.0000000E+00;  1.0000000E+04;-6.7915526e-06;0.0;4.6399581e-08;0.00022744146
 -1.0000000E-01;  9.9999998E-03;  2.0000000E-02;265;0.0;0.0;0.0;1000.0;  4.0000001E-01;0.0;0;0.0;0.0;0.0;0;-6.7347964e-06;  1.0000000E+04;  0.0000000E+00;  0.0000000E+00;  1.0000000E+04;  0.0000000E+00;  1.0000000E+04;-6.7818733e-06;0.0;4.7076998e-08;0.00022874016
 -1.0000000E-01;  9.9999998E-03;  3.9999999E-02;266;0.0;0.0;0.0;1000.0;  4.0000001E-01;0.0;0;0.0;0.0;0.0;0;-6.7033493e-06;  1.0000000E+04;  0.0000000E+00;  0.0000000E+00;  1.0000000E+04;  0.0000000E+00;  1.0000000E+04;-6.7523588e-06;0.0;4.9009564e-08;0.00023258899
 -1.0000000E-01;  9.9999998E-03;  5.9999999E-02;267;0.0;0.0;0.0;1000.0;  4.0000001E-01;0.0;0;0.0;0.0;0.0;0;-6.6496068e-06;  1.0000000E+04;  0.0000000E+00;  0.0000000E+00;  1.0000000E+04;  0.0000000E+00;  1.0000000E+04;-6.701564e-06;0.0;5.1957198e-08;0.00023883287
 -1.0000000E-01;  9.9999998E-03;  7.9999998E-02;268;0.0;0.0;0.0;1000.0;  4.0000001E-01;0.0;0;0.0;0.0;0.0;0;-6.5713571e-06;  1.0000000E+04;  0.0000000E+00;  0.0000000E+00;  1.0000000E+04;  0.0000000E+00;  1.0000000E+04;-6.6270413e-06;0.0;5.5684389e-08;0.00024717028
 -1.0000000E-01;  9.9999998E-03;  1.0000000E-01;269;0.0;0.0;0.0;1000.0;  4.0000001E-01;0.0;0;0.0;0.0;0.0;0;-6.4651626e-06;  1.0000000E+04;  0.0000000E+00;  0.0000000E+00;  1.0000000E+04;  0.0000000E+00;  1.0000000E+04;-6.5252289e-06;0.0;6.0066043e-08;0.00025706401
 -1.0000000E-01;  9.9999998E-03;  1.2000000E-01;270;0.0;0.0;0.0;1000.0;  4.0000001E-01;0.0;0;0.0;0.0;0.0;0;-6.3262064e-06;  1.0000000E+04;  0.0000000E+00;  0.0000000E+00;  1.0000000E+04;  0.0000000E+00;  1.0000000E+04;-6.3912403e-06;0.0;6.5033781e-08;0.00026759351
 -1.0000000E-01;  9.9999998E-03;  1.4000000E-01;271;0.0;0.0;0.0;1000.0;  4.0000001E-01;0.0;0;0.0;0.0;0.0;0;-6.1482997e-06;  1.0000000E+04;  0.0000000E+00;  0.0000000E+00;  1.0000000E+04;  0.0000000E+00;  1.0000000E+04;-6.2186286e-06;0.0;7.032903e-08;0.00027723971
 -7.9999998E-02;  9.9999998E-03;  0.0000000E+00;305;0.0;0.0;0.0;1000.0;  4.0000001E-01;0.0;0;0.0;0.0;0.0;0;-1.670844e-05;  1.0000000E+04;  0.0000000E+00;  0.0000000E+00;  1.0000000E+04;  0.0000000E+00;  1.0000000E+04;-1.6857721e-05;0.0;1.4928143e-07;0.00064303051
 -7.9999998E-02;  9.9999998E-03;  2.0000000E-02;306;0.0;0.0;0.0;1000.0;  4.0000001E-01;0.0;0;0.0;0.0;0.0;0;-1.6682838e-05;  1.0000000E+04;  0.0000000E+00;  0.0000000E+00;  1.0000000E+04;  0.0000000E+00;  1.0000000E+04;-1.6834196e-05;0.0;1.5135721e-07;0.00064736378
 -7.9999998E-02;  9.9999998E-03;  3.9999999E-02;307;0.0;0.0;0.0;1000.0;  4.0000001E-01;0.0;0;0.0;0.0;0.0;0;-1.6605096e-05;  1.0000000E+04;  0.0000000E+00;  0.0000000E+00;  1.0000000E+04;  0.0000000E+00;  1.0000000E+04;-1.676242e-05;0.0;1.5732468e-07;0.0006601935
 -7.9999998E-02;  9.9999998E-03;  5.9999999E-02;308;0.0;0.0;0.0;1000.0;  4.0000001E-01;0.0;0;0.0;0.0;0.0;0;-1.6472226e-05;  1.0000000E+04;  0.0000000E+00;  0.0000000E+00;  1.0000000E+04;  0.0000000E+00;  1.0000000E+04;-1.6638787e-05;0.0;1.665619e-07;0.00068097317
 -7.9999998E-02;  9.9999998E-03;  7.9999998E-02;309;0.0;0.0;0.0;1000.0;  4.0000001E-01;0.0;0;0.0;0.0;0.0;0;-1.6278647e-05;  1.0000000E+04;  0.0000000E+00;  0.0000000E+00;  1.0000000E+04;  0.0000000E+00;  1.0000000E+04;-1.6457079e-05;0.0;1.7843105e-07;0.00070865755
 -7.9999998E-02;  9.9999998E-03;  1.0000000E-01;310;0.0;0.0;0.0;1000.0;  4.0000001E-01;0.0;0;0.0;0.0;0.0;0;-1.6015696e-05;  1.0000000E+04;  0.0000000E+00;  0.0000000E+00;  1.0000000E+04;  0.0000000E+00;  1.0000000E+04;-1.6208189e-05;0.0;1.9249292e-07;0.00074144162
 -7.9999998E-02;  9.9999998E-03;  1.2000000E-01;311;0.0;0.0;0.0;1000.0;  4.0000001E-01;0.0;0;0.0;0.0;0.0;0;-1.5671267e-05;  1.0000000E+04;  0.0000000E+00;  0.0000000E+00;  1.0000000E+04;  0.0000000E+00;  1.0000000E+04;-1.5879556e-05;0.0;2.0828847e-07;0.00077626592
 -7.9999998E-02;  9.9999998E-03;  1.4000000E-01;312;0.0;0.0;0.0;1000.0;  4.0000001E-01;0.0;0;0.0;0.0;0.0;0;-1.5229988e-05;  1.0000000E+04;  0.0000000E+00;  0.0000000E+00;  1.0000000E+04;  0.0000000E+00;  1.0000000E+04;-1.545464e-05;0.0;2.2465164e-07;0.00080814777
 -5.9999999E-02;  9.9999998E-03;  0.0000000E+00;346;0.0;0.0;0.0;1000.0;  4.0000001E-01;0.0;0;0.0;0.0;0.0;0;-3.4103468e-05;  1.0000000E+04;  0.0000000E+00;  0.0000000E+00;  1.0000000E+04;  0.0000000E+00;  1.0000000E+04;-3.4478235e-05;0.0;3.7476548e-07;0.0014841354
 -5.9999999E-02;  9.9999998E-03;  2.0000000E-02;347;0.0;0.0;0.0;1000.0;  4.0000001E-01;0.0;0;0.0;0.0;0.0;0;-3.405182e-05;  1.0000000E+04;  0.0000000E+00;  0.0000000E+00;  1.0000000E+04;  0.0000000E+00;  1.0000000E+04;-3.4431658e-05;0.0;3.7983881e-07;0.0014953616
 -5.9999999E-02;  9.9999998E-03;  3.9999999E-02;348;0.0;0.0;0.0;1000.0;  4.0000001E-01;0.0;0;0.0;0.0;0.0;0;-3.3894994e-05;  1.0000000E+04;  0.0000000E+00;  0.0000000E+00;  1.0000000E+04;  0.0000000E+00;  1.0000000E+04;-3.42895e-05;0.0;3.9450691e-07;0.0015285669
 -5.9999999E-02;  9.9999998E-03;  5.9999999E-02;349;0.0;0.0;0.0;1000.0;  4.0000001E-01;0.0;0;0.0;0.0;0.0;0;-3.3626777e-05;  1.0000000E+04;  0.0000000E+00;  0.0000000E+00;  1.0000000E+04;  0.0000000E+00;  1.0000000E+04;-3.4044213e-05;0.0;4.1743644e-07;0.0015822611
 -5.9999999E-02;  9.9999998E-03;  7.9999998E-02;350;0.0;0.0;0.0;1000.0;  4.0000001E-01;0.0;0;0.0;0.0;0.0;0;-3.3235745e-05;  1.0000000E+04;  0.0000000E+00;  0.0000000E+00;  1.0000000E+04;  0.0000000E+00;  1.0000000E+04;-3.3682922e-05;0.0;4.4717521e-07;0.0016536609
 -5.9999999E-02;  9.9999998E-03;  1.0000000E-01;351;0.0;0.0;0.0;1000.0;  4.0000001E-01;0.0;0;0.0;0.0;0.0;0;-3.2703927e-05;  1.0000000E+04;  0.0000000E+00;  0.0000000E+00;  1.0000000E+04;  0.0000000E+00;  1.0000000E+04;-3.3186436e-05;0.0;4.8251013e-07;0.0017380703
 -5.9999999E-02;  9.9999998E-03;  1.2000000E-01;352;0.0;0.0;0.0;1000.0;  4.0000001E-01;0.0;0;0.0;0.0;0.0;0;-3.2006508e-05;  1.0000000E+04;  0.0000000E+00;  0.0000000E+00;  1.0000000E+04;  0.0000000E+00;  1.0000000E+04;-3.252838e-05;0.0;5.2187062e-07;0.0018275987
 -5.9999999E-02;  9.9999998E-03;  1.4000000E-01;353;0.0;0.0;0.0;1000.0;  4.0000001E-01;0.0;0;0.0;0.0;0.0;0;-3.1112246e-05;  1.0000000E+04;  0.0000000E+00;  0.0000000E+00;  1.0000000E+04;  0.0000000E+00;  1.0000000E+04;-3.1674055e-05;0.0;5.6180943e-07;0.0019095499
 -3.9999999E-02;  9.9999998E-03;  0.0000000E+00;387;0.0;0.0;0.0;1000.0;  4.0000001E-01;0.0;0;0.0;0.0;0.0;0;-6.0176564e-05;  1.0000000E+04;  0.0000000E+00;  0.0000000E+00;  1.0000000E+04;  0.0000000E+00;  1.0000000E+04;-6.0965878e-05;0.0;7.8931328e-07;0.0029528257
 -3.9999999E-02;  9.9999998E-03;  2.0000000E-02;388;0.0;0.0;0.0;1000.0;  4.0000001E-01;0.0;0;0.0;0.0;0.0;0;-6.0087317e-05;  1.0000000E+04;  0.0000000E+00;  0.0000000E+00;  1.0000000E+04;  0.0000000E+00;  1.0000000E+04;-6.0887221e-05;0.0;7.9990457e-07;0.0029772848
 -3.9999999E-02;  9.9999998E-03;  3.9999999E-02;389;0.0;0.0;0.0;1000.0;  4.0000001E-01;0.0;0;0.0;0.0;0.0;0;-5.9816208e-05;  1.0000000E+04;  0.0000000E+00;  0.0000000E+00;  1.0000000E+04;  0.0000000E+00;  1.0000000E+04;-6.064686e-05;0.0;8.306514e-07;0.0030495729
 -3.9999999E-02;  9.9999998E-03;  5.9999999E-02;390;0.0;0.0;0.0;1000.0;  4.0000001E-01;0.0;0;0.0;0.0;0.0;0;-5.9352395e-05;  1.0000000E+04;  0.0000000E+00;  0.0000000E+00;  1.0000000E+04;  0.0000000E+00;  1.0000000E+04;-6.0231414e-05;0.0;8.7901884e-07;0.0031663158
 -3.9999999E-02;  9.9999998E-03;  7.9999998E-02;391;0.0;0.0;0.0;1000.0;  4.0000001E-01;0.0;0;0.0;0.0;0.0;0;-5.8675487e-05;  1.0000000E+04;  0.0000000E+00;  0.0000000E+00;  1.0000000E+04;  0.0000000E+00;  1.0000000E+04;-5.9617567e-05;0.0;9.4207996e-07;0.0033213894
 -3.9999999E-02;  9.9999998E-03;  1.0000000E-01;392;0.0;0.0;0.0;1000.0;  4.0000001E-01;0.0;0;0.0;0.0;0.0;0;-5.7753798e-05;  1.0000000E+04;  0.0000000E+00;  0.0000000E+00;  1.0000000E+04;  0.0000000E+00;  1.0000000E+04;-5.8770842e-05;0.0;1.0170459e-06;0.0035046309
 -3.9999999E-02;  9.9999998E-03;  1.2000000E-01;393;0.0;0.0;0.0;1000.0;  4.0000001E-01;0.0;0;0.0;0.0;0.0;0;-5.6543631e-05;  1.0000000E+04;  0.0000000E+00;  0.0000000E+00;  1.0000000E+04;  0.0000000E+00;  1.0000000E+04;-5.7643643e-05;0.0;1.1000111e-06;0.0036991234
 -3.9999999E-02;  9.9999998E-03;  1.4000000E-01;394;0.0;0.0;0.0;1000.0;  4.0000001E-01;0.0;0;0.0;0.0;0.0;0;-5.499e-05;  1.0000000E+04;  0.0000000E+00;  0.0000000E+00;  1.0000000E+04;  0.0000000E+00;  1.0000000E+04;-5.6173005e-05;0.0;1.1830047e-06;0.0038777303
 -2.0000000E-02;  9.9999998E-03;  0.0000000E+00;428;0.0;0.0;0.0;1000.0;  4.0000001E-01;0.0;0;0.0;0.0;0.0;0;-9.4899107e-05;  1.0000000E+04;  0.0000000E+00;  0.0000000E+00;  1.0000000E+04;  0.0000000E+00;  1.0000000E+04;-9.6354568e-05;0.0;1.4554624e-06;0.0052495641
 -2.0000000E-02;  9.9999998E-03;  2.0000000E-02;429;0.0;0.0;0.0;1000.0;  4.0000001E-01;0.0;0;0.0;0.0;0.0;0;-9.4762625e-05;  1.0000000E+04;  0.0000000E+00;  0.0000000E+00;  1.0000000E+04;  0.0000000E+00;  1.0000000E+04;-9.6237738e-05;0.0;1.4751145e-06;0.0052965116
 -2.0000000E-02;  9.9999998E-03;  3.9999999E-02;430;0.0;0.0;0.0;1000.0;  4.0000001E-01;0.0;0;0.0;0.0;0.0;0;-9.4347954e-05;  1.0000000E+04;  0.0000000E+00;  0.0000000E+00;  1.0000000E+04;  0.0000000E+00;  1.0000000E+04;-9.5880278e-05;0.0;1.5323213e-06;0.0054351636
 -2.0000000E-02;  9.9999998E-03;  5.9999999E-02;431;0.0;0.0;0.0;1000.0;  4.0000001E-01;0.0;0;0.0;0.0;0.0;0;-9.3638162e-05;  1.0000000E+04;  0.0000000E+00;  0.0000000E+00;  1.0000000E+04;  0.0000000E+00;  1.0000000E+04;-9.5260839e-05;0.0;1.6226752e-06;0.0056588831
 -2.0000000E-02;  9.9999998E-03;  7.9999998E-02;432;0.0;0.0;0.0;1000.0;  4.0000001E-01;0.0;0;0.0;0.0;0.0;0;-9.2601527e-05;  1.0000000E+04;  0.0000000E+00;  0.0000000E+00;  1.0000000E+04;  0.0000000E+00;  1.0000000E+04;-9.4342351e-05;0.0;1.7408207e-06;0.005955942
 -2.0000000E-02;  9.9999998E-03;  1.0000000E-01;433;0.0;0.0;0.0;1000.0;  4.0000001E-01;0.0;0;0.0;0.0;0.0;0;-9.118834e-05;  1.0000000E+04;  0.0000000E+00;  0.0000000E+00;  1.0000000E+04;  0.0000000E+00;  1.0000000E+04;-9.3069531e-05;0.0;1.8811917e-06;0.0063072094
 -2.0000000E-02;  9.9999998E-03;  1.2000000E-01;434;0.0;0.0;0.0;1000.0;  4.0000001E-01;0.0;0;0.0;0.0;0.0;0;-8.9330009e-05;  1.0000000E+04;  0.0000000E+00;  0.0000000E+00;  1.0000000E+04;  0.0000000E+00;  1.0000000E+04;-9.1365815e-05;0.0;2.0358023e-06;0.006681114
 -2.0000000E-02;  9.9999998E-03;  1.4000000E-01;435;0.0;0.0;0.0;1000.0;  4.0000001E-01;0.0;0;0.0;0.0;0.0;0;-8.6940468e-05;  1.0000000E+04;  0.0000000E+00;  0.0000000E+00;  1.0000000E+04;  0.0000000E+00;  1.0000000E+04;-8.9129469e-05;0.0;2.1890035e-06;0.0070267282
 -2.2000000E-01;  9.9999998E-03;  1.6000000E-01;27;0.0;0.0;0.0;1000.0;  4.0000001E-01;0.0;0;0.0;0.0;0.0;0;0.0;  1.0000000E+04;  0.0000000E+00;  0.0000000E+00;  1.0000000E+04;  0.0000000E+00;  1.0000000E+04;0.0;0.0;0.0;0.0
 -2.2000000E-01;  9.9999998E-03;  1.8000001E-01;28;0.0;0.0;0.0;1000.0;  4.0000001E-01;0.0;0;0.0;0.0;0.0;0;0.0;  1.0000000E+04;  0.0000000E+00;  0.0000000E+00;  1.0000000E+04;  0.0000000E+00;  1.0000000E+04;0.0;0.0;0.0;0.0
 -2.2000000E-01;  9.9999998E-03;  2.0000000E-01;29;0.0;0.0;0.0;1000.0;  4.0000001E-01;0.0;0;0.0;0.0;0.0;0;0.0;  1.0000000E+04;  0.0000000E+00;  0.0000000E+00;  1.0000000E+04;  0.0000000E+00;  1.0000000E+04;0.0;0.0;0.0;0.0
 -2.2000000E-01;  9.9999998E-03;  2.2000000E-01;30;0.0;0.0;0.0;1000.0;  4.0000001E-01;0.0;0;0.0;0.0;0.0;0;0.0;  1.0000000E+04;  0.0000000E+00;  0.0000000E+00;  1.0000000E+04;  0.0000000E+00;  1.0000000E+04;0.0;0.0;0.0;0.0
 -2.2000000E-01;  9.9999998E-03;  2.3999999E-01;31;0.0;0.0;0.0;1000.0;  4.0000001E-01;0.0;0;0.0;0.0;0.0;0;0.0;  1.0000000E+04;  0.0000000E+00;  0.0000000E+00;  1.0000000E+04;  0.0000000E+00;  1.0000000E+04;0.0;0.0;0.0;0.0
 -2.2000000E-01;  9.9999998E-03;  2.5999999E-01;32;0.0;0.0;0.0;1000.0;  4.0000001E-01;0.0;0;0.0;0.0;0.0;0;0.0;  1.0000000E+04;  0.0000000E+00;  0.0000000E+00;  1.0000000E+04;  0.0000000E+00;  1.0000000E+04;0.0;0.0;0.0;0.0
 -2.2000000E-01;  9.9999998E-03;  2.8000000E-01;33;0.0;0.0;0.0;1000.0;  4.0000001E-01;0.0;0;0.0;0.0;0.0;0;0.0;  1.0000000E+04;  0.0000000E+00;  0.0000000E+00;  1.0000000E+04;  0.0000000E+00;  1.0000000E+04;0.0;0.0;0.0;0.0
 -2.2000000E-01;  9.9999998E-03;  3.0000001E-01;34;0.0;0.0;0.0;1000.0;  4.0000001E-01;0.0;0;0.0;0.0;0.0;0;0.0;  1.0000000E+04;  0.0000000E+00;  0.0000000E+00;  1.0000000E+04;  0.0000000E+00;  1.0000000E+04;0.0;0.0;0.0;0.0
 -2.2000000E-01;  9.9999998E-03;  3.1999999E-01;35;0.0;0.0;0.0;1000.0;  4.0000001E-01;0.0;0;0.0;0.0;0.0;0;0.0;  1.0000000E+04;  0.0000000E+00;  0.0000000E+00;  1.0000000E+04;  0.0000000E+00;  1.0000000E+04;0.0;0.0;0.0;0.0
 -2.0000000E-01;  9.9999998E-03;  1.6000000E-01;67;0.0;0.0;0.0;1000.0;  4.0000001E-01;0.0;0;0.0;0.0;0.0;0;0.0;  1.0000000E+04;  0.0000000E+00;  0.0000000E+00;  1.0000000E+04;  0.0000000E+00;  1.0000000E+04;0.0;0.0;0.0;0.0
 -2.0000000E-01;  9.9999998E-03;  1.8000001E-01;68;0.0;0.0;0.0;1000.0;  4.0000001E-01;0.0;0;0.0;0.0;0.0;0;0.0;  1.0000000E+04;  0.0000000E+00;  0.0000000E+00;  1.0000000E+04;  0.0000000E+00;  1.0000000E+04;0.0;0.0;0.0;0.0
 -2.0000000E-01;  9.9999998E-03;  2.0000000E-01;69;0.0;0.0;0.0;1000.0;  4.0000001E-01;0.0;0;0.0;0.0;0.0;0;0.0;  1.0000000E+04;  0.0000000E+00;  0.0000000E+00;  1.0000000E+04;  0.0000000E+00;  1.0000000E+04;0.0;0.0;0.0;0.0
 -2.0000000E-01;  9.9999998E-03;  2.2000000E-01;70;0.0;0.0;0.0;1000.0;  4.0000001E-01;0.0;0;0.0;0.0;0.0;0;0.0;  1.0000000E+04;  0.0000000E+00;  0.0000000E+00;  1.0000000E+04;  0.0000000E+00;  1.0000000E+04;0.0;0.0;0.0;0.0
 -2.0000000E-01;  9.9999998E-03;  2.3999999E-01;71;0.0;0.0;0.0;1000.0;  4.0000001E-01;0.0;0;0.0;0.0;0.0;0;0.0;  1.0000000E+04;  0.0000000E+00;  0.0000000E+00;  1.0000000E+04;  0.0000000E+00;  1.0000000E+04;0.0;0.0;0.0;0.0
 -2.0000000E-01;  9.9999998E-03;  2.5999999E-01;72;0.0;0.0;0.0;1000.0;  4.0000001E-01;0.0;0;0.0;0.0;0.0;0;0.0;  1.0000000E+04;  0.0000000E+00;  0.0000000E+00;  1.0000000E+04;  0.0000000E+00;  1.0000000E+04;0.0;0.0;0.0;0.0
 -2.0000000E-01;  9.9999998E-03;  2.8000000E-01;73;0.0;0.0;0.0;1000.0;  4.0000001E-01;0.0;0;0.0;0.0;0.0;0;0.0;  1.0000000E+04;  0.0000000E+00;  0.0000000E+00;  1.0000000E+04;  0.0000000E+00;  1.0000000E+04;0.0;0.0;0.0;0.0
 -2.0000000E-01;  9.9999998E-03;  3.0000001E-01;74;0.0;0.0;0.0;1000.0;  4.0000001E-01;0.0;0;0.0;0.0;0.0;0;0.0;  1.0000000E+04;  0.0000000E+00;  0.0000000E+00;  1.0000000E+04;  0.0000000E+00;  1.0000000E+04;0.0;0.0;0.0;0.0
 -2.0000000E-01;  9.9999998E-03;  3.1999999E-01;75;0.0;0.0;0.0;1000.0;  4.0000001E-01;0.0;0;0.0;0.0;0.0;0;0.0;  1.0000000E+04;  0.0000000E+00;  0.0000000E+00;  1.0000000E+04;  0.0000000E+00;  1.0000000E+04;0.0;0.0;0.0;0.0
 -1.8000001E-01;  9.9999998E-03;  1.6000000E-01;108;0.0;0.0;0.0;1000.0;  4.0000001E-01;0.0;0;0.0;0.0;0.0;0;0.0;  1.0000000E+04;  0.0000000E+00;  0.0000000E+00;  1.0000000E+04;  0.0000000E+00;  1.0000000E+04;0.0;0.0;0.0;0.0
 -1.8000001E-01;  9.9999998E-03;  1.8000001E-01;109;0.0;0.0;0.0;1000.0;  4.0000001E-01;0.0;0;0.0;0.0;0.0;0;0.0;  1.0000000E+04;  0.0000000E+00;  0.0000000E+00;  1.0000000E+04;  0.0000000E+00;  1.0000000E+04;0.0;0.0;0.0;0.0
 -1.8000001E-01;  9.9999998E-03;  2.0000000E-01;110;0.0;0.0;0.0;1000.0;  4.0000001E-01;0.0;0;0.0;0.0;0.0;0;0.0;  1.0000000E+04;  0.0000000E+00;  0.0000000E+00;  1.0000000E+04;  0.0000000E+00;  1.0000000E+04;0.0;0.0;0.0;0.0
 -1.8000001E-01;  9.9999998E-03;  2.2000000E-01;111;0.0;0.0;0.0;1000.0;  4.0000001E-01;0.0;0;0.0;0.0;0.0;0;0.0;  1.0000000E+04;  0.0000000E+00;  0.0000000E+00;  1.0000000E+04;  0.0000000E+00;  1.0000000E+04;0.0;0.0;0.0;0.0
 -1.8000001E-01;  9.9999998E-03;  2.3999999E-01;112;0.0;0.0;0.0;1000.0;  4.0000001E-01;0.0;0;0.0;0.0;0.0;0;0.0;  1.0000000E+04;  0.0000000E+00;  0.0000000E+00;  1.0000000E+04;  0.0000000E+00;  1.0000000E+04;0.0;0.0;0.0;0.0
 -1.8000001E-01;  9.9999998E-03;  2.5999999E-01;113;0.0;0.0;0.0;1000.0;  4.0000001E-01;0.0;0;0.0;0.0;0.0;0;0.0;  1.0000000E+04;  0.0000000E+00;  0.0000000E+00;  1.0000000E+04;  0.0000000E+00;  1.0000000E+04;0.0;0.0;0.0;0.0
 -1.8000001E-01;  9.9999998E-03;  2.8000000E-01;114;0.0;0.0;0.0;1000.0;  4.0000001E-01;0.0;0;0.0;0.0;0.0;0;0.0;  1.0000000E+04;  0.0000000E+00;  0.0000000E+00;  1.0000000E+04;  0.0000000E+00;  1.0000000E+04;0.0;0.0;0.0;0.0
 -1.8000001E-01;  9.9999998E-03;  3.0000001E-01;115;0.0;0.0;0.0;1000.0;  4.0000001E-01;0.0;0;0.0;0.0;0.0;0;0.0;  1.0000000E+04;  0.0000000E+00;  0.0000000E+00;  1.0000000E+04;  0.0000000E+00;  1.0000000E+04;0.0;0.0;0.0;0.0
 -1.8000001E-01;  9.9999998E-03;  3.1999999E-01;116;0.0;0.0;0.0;1000.0;  4.0000001E-01;0.0;0;0.0;0.0;0.0;0;0.0;  1.0000000E+04;  0.0000000E+00;  0.0000000E+00;  1.0000000E+04;  0.0000000E+00;  1.0000000E+04;0.0;0.0;0.0;0.0
 -1.6000000E-01;  9.9999998E-03;  1.6000000E-01;149;0.0;0.0;0.0;1000.0;  4.0000001E-01;0.0;0;0.0;0.0;0.0;0;-8.6975938e-09;  1.0000000E+04;  0.0000000E+00;  0.0000000E+00;  1.0000000E+04;  0.0000000E+00;  1.0000000E+04;-8.7106509e-09;0.0;1.3056759e-11;1.9469076e-07
 -1.6000000E-01;  9.9999998E-03;  1.8000001E-01;150;0.0;0.0;0.0;1000.0;  4.0000001E-01;0.0;0;0.0;0.0;0.0;0;-8.3186036e-09;  1.0000000E+04;  0.0000000E+00;  0.0000000E+00;  1.0000000E+04;  0.0000000E+00;  1.0000000E+04;-8.332858e-09;0.0;1.4254206e-11;1.8917437e-07
 -1.6000000E-01;  9.9999998E-03;  2.0000000E-01;151;0.0;0.0;0.0;1000.0;  4.0000001E-01;0.0;0;0.0;0.0;0.0;0;-7.8456894e-09;  1.0000000E+04;  0.0000000E+00;  0.0000000E+00;  1.0000000E+04;  0.0000000E+00;  1.0000000E+04;-7.8605629e-09;0.0;1.487362e-11;1.8053143e-07
 -1.6000000E-01;  9.9999998E-03;  2.2000000E-01;152;0.0;0.0;0.0;1000.0;  4.0000001E-01;0.0;0;0.0;0.0;0.0;0;-7.2614816e-09;  1.0000000E+04;  0.0000000E+00;  0.0000000E+00;  1.0000000E+04;  0.0000000E+00;  1.0000000E+04;-7.2757862e-09;0.0;1.4304604e-11;1.67519e-07
 -1.6000000E-01;  9.9999998E-03;  2.3999999E-01;153;0.0;0.0;0.0;1000.0;  4.0000001E-01;0.0;0;0.0;0.0;0.0;0;-6.5484111e-09;  1.0000000E+04;  0.0000000E+00;  0.0000000E+00;  1.0000000E+04;  0.0000000E+00;  1.0000000E+04;-6.5606658e-09;0.0;1.2254777e-11;1.4946883e-07
 -1.6000000E-01;  9.9999998E-03;  2.5999999E-01;154;0.0;0.0;0.0;1000.0;  4.0000001E-01;0.0;0;0.0;0.0;0.0;0;-5.5417022e-09;  1.0000000E+04;  0.0000000E+00;  0.0000000E+00;  1.0000000E+04;  0.0000000E+00;  1.0000000E+04;-5.5341745e-09;0.0;-7.5278776e-12;8.8132524e-08
 -1.6000000E-01;  9.9999998E-03;  2.8000000E-01;155;0.0;0.0;0.0;1000.0;  4.0000001E-01;0.0;0;0.0;0.0;0.0;0;-3.7183903e-09;  1.0000000E+04;  0.0000000E+00;  0.0000000E+00;  1.0000000E+04;  0.0000000E+00;  1.0000000E+04;-3.6611318e-09;0.0;-5.7258472e-11;5.9933328e-08
 -1.6000000E-01;  9.9999998E-03;  3.0000001E-01;156;0.0;0.0;0.0;1000.0;  4.0000001E-01;0.0;0;0.0;0.0;0.0;0;-1.5744722e-09;  1.0000000E+04;  0.0000000E+00;  0.0000000E+00;  1.0000000E+04;  0.0000000E+00;  1.0000000E+04;-1.5112624e-09;0.0;-6.3209778e-11;1.1187348e-07
 -1.6000000E-01;  9.9999998E-03;  3.1999999E-01;157;0.0;0.0;0.0;1000.0;  4.0000001E-01;0.0;0;0.0;0.0;0.0;0;-2.472833e-10;  1.0000000E+04;  0.0000000E+00;  0.0000000E+00;  1.0000000E+04;  0.0000000E+00;  1.0000000E+04;-2.2856733e-10;0.0;-1.8715982e-11;3.6292892e-08
 -1.4000000E-01;  9.9999998E-03;  1.6000000E-01;190;0.0;0.0;0.0;1000.0;  4.0000001E-01;0.0;0;0.0;0.0;0.0;0;-3.1879375e-07;  1.0000000E+04;  0.0000000E+00;  0.0000000E+00;  1.0000000E+04;  0.0000000E+00;  1.0000000E+04;-3.2044036e-07;0.0;1.6466077e-09;9.7467509e-06
 -1.4000000E-01;  9.9999998E-03;  1.8000001E-01;191;0.0;0.0;0.0;1000.0;  4.0000001E-01;0.0;0;0.0;0.0;0.0;0;-3.0424619e-07;  1.0000000E+04;  0.0000000E+00;  0.0000000E+00;  1.0000000E+04;  0.0000000E+00;  1.0000000E+04;-3.0600074e-07;0.0;1.7545686e-09;9.6520762e-06
 -1.4000000E-01;  9.9999998E-03;  2.0000000E-01;192;0.0;0.0;0.0;1000.0;  4.0000001E-01;0.0;0;0.0;0.0;0.0;0;-2.8624751e-07;  1.0000000E+04;  0.0000000E+00;  0.0000000E+00;  1.0000000E+04;  0.0000000E+00;  1.0000000E+04;-2.8803532e-07;0.0;1.7878173e-09;9.3159724e-06
 -1.4000000E-01;  9.9999998E-03;  2.2000000E-01;193;0.0;0.0;0.0;1000.0;  4.0000001E-01;0.0;0;0.0;0.0;0.0;0;-2.636985e-07;  1.0000000E+04;  0.0000000E+00;  0.0000000E+00;  1.0000000E+04;  0.0000000E+00;  1.0000000E+04;-2.6521681e-07;0.0;1.5183088e-09;8.262863e-06
 -1.4000000E-01;  9.9999998E-03;  2.3999999E-01;194;0.0;0.0;0.0;1000.0;  4.0000001E-01;0.0;0;0.0;0.0;0.0;0;-2.3240592e-07;  1.0000000E+04;  0.0000000E+00;  0.0000000E+00;  1.0000000E+04;  0.0000000E+00;  1.0000000E+04;-2.3254788e-07;0.0;1.419564e-10;4.6885229e-06
 -1.4000000E-01;  9.9999998E-03;  2.5999999E-01;195;0.0;0.0;0.0;1000.0;  4.0000001E-01;0.0;0;0.0;0.0;0.0;0;-1.8907336e-07;  1.0000000E+04;  0.0000000E+00;  0.0000000E+00;  1.0000000E+04;  0.0000000E+00;  1.0000000E+04;-1.8684571e-07;0.0;-2.2276569e-09;1.2405005e-06
 -1.4000000E-01;  9.9999998E-03;  2.8000000E-01;196;0.0;0.0;0.0;1000.0;  4.0000001E-01;0.0;0;0.0;0.0;0.0;0;-1.3621926e-07;  1.0000000E+04;  0.0000000E+00;  0.0000000E+00;  1.0000000E+04;  0.0000000E+00;  1.0000000E+04;-1.3190527e-07;0.0;-4.3139856e-09;6.7620299e-06
 -1.4000000E-01;  9.9999998E-03;  3.0000001E-01;197;0.0;0.0;0.0;1000.0;  4.0000001E-01;0.0;0;0.0;0.0;0.0;0;-8.2456857e-08;  1.0000000E+04;  0.0000000E+00;  0.0000000E+00;  1.0000000E+04;  0.0000000E+00;  1.0000000E+04;-7.7526543e-08;0.0;-4.9303113e-09;9.2022074e-06
 -1.4000000E-01;  9.9999998E-03;  3.1999999E-01;198;0.0;0.0;0.0;1000.0;  4.0000001E-01;0.0;0;0.0;0.0;0.0;0;-3.8692122e-08;  1.0000000E+04;  0.0000000E+00;  0.0000000E+00;  1.0000000E+04;  0.0000000E+00;  1.0000000E+04;-3.4895464e-08;0.0;-3.7966577e-09;7.5986213e-06
 -1.2000000E-01;  9.9999998E-03;  1.6000000E-01;231;0.0;0.0;0.0;1000.0;  4.0000001E-01;0.0;0;0.0;0.0;0.0;0;-1.8021053e-06;  1.0000000E+04;  0.0000000E+00;  0.0000000E+00;  1.0000000E+04;  0.0000000E+00;  1.0000000E+04;-1.818203e-06;0.0;1.6097768e-08;7.0537419e-05
 -1.2000000E-01;  9.9999998E-03;  1.8000001E-01;232;0.0;0.0;0.0;1000.0;  4.0000001E-01;0.0;0;0.0;0.0;0.0;0;-1.7180651e-06;  1.0000000E+04;  0.0000000E+00;  0.0000000E+00;  1.0000000E+04;  0.0000000E+00;  1.0000000E+04;-1.7349793e-06;0.0;1.6914198e-08;7.0384645e-05
 -1.2000000E-01;  9.9999998E-03;  2.0000000E-01;233;0.0;0.0;0.0;1000.0;  4.0000001E-01;0.0;0;0.0;0.0;0.0;0;-1.613138e-06;  1.0000000E+04;  0.0000000E+00;  0.0000000E+00;  1.0000000E+04;  0.0000000E+00;  1.0000000E+04;-1.6292342e-06;0.0;1.6096221e-08;6.6189707e-05
 -1.2000000E-01;  9.9999998E-03;  2.2000000E-01;234;0.0;0.0;0.0;1000.0;  4.0000001E-01;0.0;0;0.0;0.0;0.0;0;-1.4774289e-06;  1.0000000E+04;  0.0000000E+00;  0.0000000E+00;  1.0000000E+04;  0.0000000E+00;  1.0000000E+04;-1.4877635e-06;0.0;1.0334608e-08;5.0834442e-05
 -1.2000000E-01;  9.9999998E-03;  2.3999999E-01;235;0.0;0.0;0.0;1000.0;  4.0000001E-01;0.0;0;0.0;0.0;0.0;0;-1.3002815e-06;  1.0000000E+04;  0.0000000E+00;  0.0000000E+00;  1.0000000E+04;  0.0000000E+00;  1.0000000E+04;-1.2985506e-06;0.0;-1.7309112e-09;2.1231173e-05
 -1.2000000E-01;  9.9999998E-03;  2.5999999E-01;236;0.0;0.0;0.0;1000.0;  4.0000001E-01;0.0;0;0.0;0.0;0.0;0;-1.0766373e-06;  1.0000000E+04;  0.0000000E+00;  0.0000000E+00;  1.0000000E+04;  0.0000000E+00;  1.0000000E+04;-1.0586773e-06;0.0;-1.7959977e-08;1.8256475e-05
 -1.2000000E-01;  9.9999998E-03;  2.8000000E-01;237;0.0;0.0;0.0;1000.0;  4.0000001E-01;0.0;0;0.0;0.0;0.0;0;-8.1701626e-07;  1.0000000E+04;  0.0000000E+00;  0.0000000E+00;  1.0000000E+04;  0.0000000E+00;  1.0000000E+04;-7.8453314e-07;0.0;-3.2483108e-08;5.4856049e-05
 -1.2000000E-01;  9.9999998E-03;  3.0000001E-01;238;0.0;0.0;0.0;1000.0;  4.0000001E-01;0.0;0;0.0;0.0;0.0;0;-5.5210336e-07;  1.0000000E+04;  0.0000000E+00;  0.0000000E+00;  1.0000000E+04;  0.0000000E+00;  1.0000000E+04;-5.1249719e-07;0.0;-3.9606142e-08;7.5694945e-05
 -1.2000000E-01;  9.9999998E-03;  3.1999999E-01;239;0.0;0.0;0.0;1000.0;  4.0000001E-01;0.0;0;0.0;0.0;0.0;0;-3.2103404e-07;  1.0000000E+04;  0.0000000E+00;  0.0000000E+00;  1.0000000E+04;  0.0000000E+00;  1.0000000E+04;-2.8410304e-07;0.0;-3.6930999e-08;7.4695694e-05
 -1.0000000E-01;  9.9999998E-03;  1.6000000E-01;272;0.0;0.0;0.0;1000.0;  4.0000001E-01;0.0;0;0.0;0.0;0.0;0;-5.9240183e-06;  1.0000000E+04;  0.0000000E+00;  0.0000000E+00;  1.0000000E+04;  0.0000000E+00;  1.0000000E+04;-5.9992085e-06;0.0;7.5190123e-08;0.00028370312
 -1.0000000E-01;  9.9999998E-03;  1.8000001E-01;273;0.0;0.0;0.0;1000.0;  4.0000001E-01;0.0;0;0.0;0.0;0.0;0;-5.6441436e-06;  1.0000000E+04;  0.0000000E+00;  0.0000000E+00;  1.0000000E+04;  0.0000000E+00;  1.0000000E+04;-5.7213069e-06;0.0;7.7163165e-08;0.00028165831
 -1.0000000E-01;  9.9999998E-03;  2.0000000E-01;274;0.0;0.0;0.0;1000.0;  4.0000001E-01;0.0;0;0.0;0.0;0.0;0;-5.2929036e-06;  1.0000000E+04;  0.0000000E+00;  0.0000000E+00;  1.0000000E+04;  0.0000000E+00;  1.0000000E+04;-5.3615349e-06;0.0;6.8631408e-08;0.00025501451
 -1.0000000E-01;  9.9999998E-03;  2.2000000E-01;275;0.0;0.0;0.0;1000.0;  4.0000001E-01;0.0;0;0.0;0.0;0.0;0;-4.8487336e-06;  1.0000000E+04;  0.0000000E+00;  0.0000000E+00;  1.0000000E+04;  0.0000000E+00;  1.0000000E+04;-4.890308e-06;0.0;4.1574438e-08;0.00018659678
 -1.0000000E-01;  9.9999998E-03;  2.3999999E-01;276;0.0;0.0;0.0;1000.0;  4.0000001E-01;0.0;0;0.0;0.0;0.0;0;-4.2892079e-06;  1.0000000E+04;  0.0000000E+00;  0.0000000E+00;  1.0000000E+04;  0.0000000E+00;  1.0000000E+04;-4.2815386e-06;0.0;-7.6695414e-09;6.7919311e-05
 -1.0000000E-01;  9.9999998E-03;  2.5999999E-01;277;0.0;0.0;0.0;1000.0;  4.0000001E-01;0.0;0;0.0;0.0;0.0;0;-3.6037666e-06;  1.0000000E+04;  0.0000000E+00;  0.0000000E+00;  1.0000000E+04;  0.0000000E+00;  1.0000000E+04;-3.5322878e-06;0.0;-7.1478716e-08;8.5317348e-05
 -1.0000000E-01;  9.9999998E-03;  2.8000000E-01;278;0.0;0.0;0.0;1000.0;  4.0000001E-01;0.0;0;0.0;0.0;0.0;0;-2.8178783e-06;  1.0000000E+04;  0.0000000E+00;  0.0000000E+00;  1.0000000E+04;  0.0000000E+00;  1.0000000E+04;-2.6874989e-06;0.0;-1.3037953e-07;0.00023045621
 -1.0000000E-01;  9.9999998E-03;  3.0000001E-01;279;0.0;0.0;0.0;1000.0;  4.0000001E-01;0.0;0;0.0;0.0;0.0;0;-2.0092157e-06;  1.0000000E+04;  0.0000000E+00;  0.0000000E+00;  1.0000000E+04;  0.0000000E+00;  1.0000000E+04;-1.843757e-06;0.0;-1.6545869e-07;0.00032427389
 -1.0000000E-01;  9.9999998E-03;  3.1999999E-01;280;0.0;0.0;0.0;1000.0;  4.0000001E-01;0.0;0;0.0;0.0;0.0;0;-1.2822383e-06;  1.0000000E+04;  0.0000000E+00;  0.0000000E+00;  1.0000000E+04;  0.0000000E+00;  1.0000000E+04;-1.1145808e-06;0.0;-1.6765749e-07;0.0003442718
 -7.9999998E-02;  9.9999998E-03;  1.6000000E-01;313;0.0;0.0;0.0;1000.0;  4.0000001E-01;0.0;0;0.0;0.0;0.0;0;-1.4673599e-05;  1.0000000E+04;  0.0000000E+00;  0.0000000E+00;  1.0000000E+04;  0.0000000E+00;  1.0000000E+04;-1.4912223e-05;0.0;2.3862421e-07;0.00082904182
 -7.9999998E-02;  9.9999998E-03;  1.8000001E-01;314;0.0;0.0;0.0;1000.0;  4.0000001E-01;0.0;0;0.0;0.0;0.0;0;-1.397892e-05;  1.0000000E+04;  0.0000000E+00;  0.0000000E+00;  1.0000000E+04;  0.0000000E+00;  1.0000000E+04;-1.4218442e-05;0.0;2.3952191e-07;0.00081568694
 -7.9999998E-02;  9.9999998E-03;  2.0000000E-01;315;0.0;0.0;0.0;1000.0;  4.0000001E-01;0.0;0;0.0;0.0;0.0;0;-1.3114451e-05;  1.0000000E+04;  0.0000000E+00;  0.0000000E+00;  1.0000000E+04;  0.0000000E+00;  1.0000000E+04;-1.3323689e-05;0.0;2.0923868e-07;0.00072965404
 -7.9999998E-02;  9.9999998E-03;  2.2000000E-01;316;0.0;0.0;0.0;1000.0;  4.0000001E-01;0.0;0;0.0;0.0;0.0;0;-1.2039482e-05;  1.0000000E+04;  0.0000000E+00;  0.0000000E+00;  1.0000000E+04;  0.0000000E+00;  1.0000000E+04;-1.2166217e-05;0.0;1.2673551e-07;0.00052516273
 -7.9999998E-02;  9.9999998E-03;  2.3999999E-01;317;0.0;0.0;0.0;1000.0;  4.0000001E-01;0.0;0;0.0;0.0;0.0;0;-1.0708826e-05;  1.0000000E+04;  0.0000000E+00;  0.0000000E+00;  1.0000000E+04;  0.0000000E+00;  1.0000000E+04;-1.0691305e-05;0.0;-1.7521502e-08;0.00017949153
 -7.9999998E-02;  9.9999998E-03;  2.5999999E-01;318;0.0;0.0;0.0;1000.0;  4.0000001E-01;0.0;0;0.0;0.0;0.0;0;-9.097279e-06;  1.0000000E+04;  0.0000000E+00;  0.0000000E+00;  1.0000000E+04;  0.0000000E+00;  1.0000000E+04;-8.8946672e-06;0.0;-2.0261193e-07;0.0002637193
 -7.9999998E-02;  9.9999998E-03;  2.8000000E-01;319;0.0;0.0;0.0;1000.0;  4.0000001E-01;0.0;0;0.0;0.0;0.0;0;-7.2517378e-06;  1.0000000E+04;  0.0000000E+00;  0.0000000E+00;  1.0000000E+04;  0.0000000E+00;  1.0000000E+04;-6.8744657e-06;0.0;-3.7727219e-07;0.00069090351
 -7.9999998E-02;  9.9999998E-03;  3.0000001E-01;320;0.0;0.0;0.0;1000.0;  4.0000001E-01;0.0;0;0.0;0.0;0.0;0;-5.3358726e-06;  1.0000000E+04;  0.0000000E+00;  0.0000000E+00;  1.0000000E+04;  0.0000000E+00;  1.0000000E+04;-4.8441689e-06;0.0;-4.917037e-07;0.00098718423
 -7.9999998E-02;  9.9999998E-03;  3.1999999E-01;321;0.0;0.0;0.0;1000.0;  4.0000001E-01;0.0;0;0.0;0.0;0.0;0;-3.5808571e-06;  1.0000000E+04;  0.0000000E+00;  0.0000000E+00;  1.0000000E+04;  0.0000000E+00;  1.0000000E+04;-3.0600654e-06;0.0;-5.2079173e-07;0.0010900161
 -5.9999999E-02;  9.9999998E-03;  1.6000000E-01;354;0.0;0.0;0.0;1000.0;  4.0000001E-01;0.0;0;0.0;0.0;0.0;0;-2.9984369e-05;  1.0000000E+04;  0.0000000E+00;  0.0000000E+00;  1.0000000E+04;  0.0000000E+00;  1.0000000E+04;-3.057723e-05;0.0;5.92861e-07;0.0019598615
 -5.9999999E-02;  9.9999998E-03;  1.8000001E-01;355;0.0;0.0;0.0;1000.0;  4.0000001E-01;0.0;0;0.0;0.0;0.0;0;-2.8579976e-05;  1.0000000E+04;  0.0000000E+00;  0.0000000E+00;  1.0000000E+04;  0.0000000E+00;  1.0000000E+04;-2.9170556e-05;0.0;5.9058061e-07;0.0019249421
 -5.9999999E-02;  9.9999998E-03;  2.0000000E-01;356;0.0;0.0;0.0;1000.0;  4.0000001E-01;0.0;0;0.0;0.0;0.0;0;-2.6846941e-05;  1.0000000E+04;  0.0000000E+00;  0.0000000E+00;  1.0000000E+04;  0.0000000E+00;  1.0000000E+04;-2.7361799e-05;0.0;5.148579e-07;0.0017182784
 -5.9999999E-02;  9.9999998E-03;  2.2000000E-01;357;0.0;0.0;0.0;1000.0;  4.0000001E-01;0.0;0;0.0;0.0;0.0;0;-2.4716004e-05;  1.0000000E+04;  0.0000000E+00;  0.0000000E+00;  1.0000000E+04;  0.0000000E+00;  1.0000000E+04;-2.5033019e-05;0.0;3.1701512e-07;0.0012314684
 -5.9999999E-02;  9.9999998E-03;  2.3999999E-01;358;0.0;0.0;0.0;1000.0;  4.0000001E-01;0.0;0;0.0;0.0;0.0;0;-2.2103151e-05;  1.0000000E+04;  0.0000000E+00;  0.0000000E+00;  1.0000000E+04;  0.0000000E+00;  1.0000000E+04;-2.2078919e-05;0.0;-2.4231738e-08;0.00041235122
 -5.9999999E-02;  9.9999998E-03;  2.5999999E-01;359;0.0;0.0;0.0;1000.0;  4.0000001E-01;0.0;0;0.0;0.0;0.0;0;-1.8949233e-05;  1.0000000E+04;  0.0000000E+00;  0.0000000E+00;  1.0000000E+04;  0.0000000E+00;  1.0000000E+04;-1.8486284e-05;0.0;-4.6294952e-07;0.00064196473
 -5.9999999E-02;  9.9999998E-03;  2.8000000E-01;360;0.0;0.0;0.0;1000.0;  4.0000001E-01;0.0;0;0.0;0.0;0.0;0;-1.531869e-05;  1.0000000E+04;  0.0000000E+00;  0.0000000E+00;  1.0000000E+04;  0.0000000E+00;  1.0000000E+04;-1.4433283e-05;0.0;-8.8540816e-07;0.0016759553
 -5.9999999E-02;  9.9999998E-03;  3.0000001E-01;361;0.0;0.0;0.0;1000.0;  4.0000001E-01;0.0;0;0.0;0.0;0.0;0;-1.1508148e-05;  1.0000000E+04;  0.0000000E+00;  0.0000000E+00;  1.0000000E+04;  0.0000000E+00;  1.0000000E+04;-1.0330153e-05;0.0;-1.177995e-06;0.0024245165
 -5.9999999E-02;  9.9999998E-03;  3.1999999E-01;362;0.0;0.0;0.0;1000.0;  4.0000001E-01;0.0;0;0.0;0.0;0.0;0;-7.9681686e-06;  1.0000000E+04;  0.0000000E+00;  0.0000000E+00;  1.0000000E+04;  0.0000000E+00;  1.0000000E+04;-6.6868024e-06;0.0;-1.2813657e-06;0.0027391159
 -3.9999999E-02;  9.9999998E-03;  1.6000000E-01;395;0.0;0.0;0.0;1000.0;  4.0000001E-01;0.0;0;0.0;0.0;0.0;0;-5.3030381e-05;  1.0000000E+04;  0.0000000E+00;  0.0000000E+00;  1.0000000E+04;  0.0000000E+00;  1.0000000E+04;-5.4275071e-05;0.0;1.2446922e-06;0.0039871354
 -3.9999999E-02;  9.9999998E-03;  1.8000001E-01;396;0.0;0.0;0.0;1000.0;  4.0000001E-01;0.0;0;0.0;0.0;0.0;0;-5.05973e-05;  1.0000000E+04;  0.0000000E+00;  0.0000000E+00;  1.0000000E+04;  0.0000000E+00;  1.0000000E+04;-5.1836636e-05;0.0;1.2393359e-06;0.0039257454
 -3.9999999E-02;  9.9999998E-03;  2.0000000E-01;397;0.0;0.0;0.0;1000.0;  4.0000001E-01;0.0;0;0.0;0.0;0.0;0;-4.7614813e-05;  1.0000000E+04;  0.0000000E+00;  0.0000000E+00;  1.0000000E+04;  0.0000000E+00;  1.0000000E+04;-4.8699956e-05;0.0;1.085145e-06;0.0035130035
 -3.9999999E-02;  9.9999998E-03;  2.2000000E-01;398;0.0;0.0;0.0;1000.0;  4.0000001E-01;0.0;0;0.0;0.0;0.0;0;-4.3976732e-05;  1.0000000E+04;  0.0000000E+00;  0.0000000E+00;  1.0000000E+04;  0.0000000E+00;  1.0000000E+04;-4.4661439e-05;0.0;6.8470706e-07;0.0025262812
 -3.9999999E-02;  9.9999998E-03;  2.3999999E-01;399;0.0;0.0;0.0;1000.0;  4.0000001E-01;0.0;0;0.0;0.0;0.0;0;-3.9541599e-05;  1.0000000E+04;  0.0000000E+00;  0.0000000E+00;  1.0000000E+04;  0.0000000E+00;  1.0000000E+04;-3.9535615e-05;0.0;-5.9833951e-09;0.00085531233
 -3.9999999E-02;  9.9999998E-03;  2.5999999E-01;400;0.0;0.0;0.0;1000.0;  4.0000001E-01;0.0;0;0.0;0.0;0.0;0;-3.4186269e-05;  1.0000000E+04;  0.0000000E+00;  0.0000000E+00;  1.0000000E+04;  0.0000000E+00;  1.0000000E+04;-3.3282569e-05;0.0;-9.0369866e-07;0.0013212909
 -3.9999999E-02;  9.9999998E-03;  2.8000000E-01;401;0.0;0.0;0.0;1000.0;  4.0000001E-01;0.0;0;0.0;0.0;0.0;0;-2.796544e-05;  1.0000000E+04;  0.0000000E+00;  0.0000000E+00;  1.0000000E+04;  0.0000000E+00;  1.0000000E+04;-2.617674e-05;0.0;-1.7887004e-06;0.0035012404
 -3.9999999E-02;  9.9999998E-03;  3.0000001E-01;402;0.0;0.0;0.0;1000.0;  4.0000001E-01;0.0;0;0.0;0.0;0.0;0;-2.133889e-05;  1.0000000E+04;  0.0000000E+00;  0.0000000E+00;  1.0000000E+04;  0.0000000E+00;  1.0000000E+04;-1.8913397e-05;0.0;-2.4254939e-06;0.0051283538
 -3.9999999E-02;  9.9999998E-03;  3.1999999E-01;403;0.0;0.0;0.0;1000.0;  4.0000001E-01;0.0;0;0.0;0.0;0.0;0;-1.5093467e-05;  1.0000000E+04;  0.0000000E+00;  0.0000000E+00;  1.0000000E+04;  0.0000000E+00;  1.0000000E+04;-1.2408756e-05;0.0;-2.6847099e-06;0.0058771325
 -2.0000000E-02;  9.9999998E-03;  1.6000000E-01;436;0.0;0.0;0.0;1000.0;  4.0000001E-01;0.0;0;0.0;0.0;0.0;0;-8.392414e-05;  1.0000000E+04;  0.0000000E+00;  0.0000000E+00;  1.0000000E+04;  0.0000000E+00;  1.0000000E+04;-8.6227497e-05;0.0;2.3033549e-06;0.0072496198
 -2.0000000E-02;  9.9999998E-03;  1.8000001E-01;437;0.0;0.0;0.0;1000.0;  4.0000001E-01;0.0;0;0.0;0.0;0.0;0;-8.0185411e-05;  1.0000000E+04;  0.0000000E+00;  0.0000000E+00;  1.0000000E+04;  0.0000000E+00;  1.0000000E+04;-8.2485043e-05;0.0;2.2996298e-06;0.0071701836
 -2.0000000E-02;  9.9999998E-03;  2.0000000E-01;438;0.0;0.0;0.0;1000.0;  4.0000001E-01;0.0;0;0.0;0.0;0.0;0;-7.562399e-05;  1.0000000E+04;  0.0000000E+00;  0.0000000E+00;  1.0000000E+04;  0.0000000E+00;  1.0000000E+04;-7.7652985e-05;0.0;2.0289976e-06;0.0064504873
 -2.0000000E-02;  9.9999998E-03;  2.2000000E-01;439;0.0;0.0;0.0;1000.0;  4.0000001E-01;0.0;0;0.0;0.0;0.0;0;-7.0090202e-05;  1.0000000E+04;  0.0000000E+00;  0.0000000E+00;  1.0000000E+04;  0.0000000E+00;  1.0000000E+04;-7.1407223e-05;0.0;1.3170214e-06;0.0046798368
 -2.0000000E-02;  9.9999998E-03;  2.3999999E-01;440;0.0;0.0;0.0;1000.0;  4.0000001E-01;0.0;0;0.0;0.0;0.0;0;-6.336753e-05;  1.0000000E+04;  0.0000000E+00;  0.0000000E+00;  1.0000000E+04;  0.0000000E+00;  1.0000000E+04;-6.344694e-05;0.0;7.9408863e-08;0.0016426136
 -2.0000000E-02;  9.9999998E-03;  2.5999999E-01;441;0.0;0.0;0.0;1000.0;  4.0000001E-01;0.0;0;0.0;0.0;0.0;0;-5.5239263e-05;  1.0000000E+04;  0.0000000E+00;  0.0000000E+00;  1.0000000E+04;  0.0000000E+00;  1.0000000E+04;-5.3684205e-05;0.0;-1.5550584e-06;0.0023793164
 -2.0000000E-02;  9.9999998E-03;  2.8000000E-01;442;0.0;0.0;0.0;1000.0;  4.0000001E-01;0.0;0;0.0;0.0;0.0;0;-4.5707508e-05;  1.0000000E+04;  0.0000000E+00;  0.0000000E+00;  1.0000000E+04;  0.0000000E+00;  1.0000000E+04;-4.2493706e-05;0.0;-3.2138012e-06;0.0065142005
 -2.0000000E-02;  9.9999998E-03;  3.0000001E-01;443;0.0;0.0;0.0;1000.0;  4.0000001E-01;0.0;0;0.0;0.0;0.0;0;-3.5363326e-05;  1.0000000E+04;  0.0000000E+00;  0.0000000E+00;  1.0000000E+04;  0.0000000E+00;  1.0000000E+04;-3.091494e-05;0.0;-4.4483863e-06;0.009688491
 -2.0000000E-02;  9.9999998E-03;  3.1999999E-01;444;0.0;0.0;0.0;1000.0;  4.0000001E-01;0.0;0;0.0;0.0;0.0;0;-2.5435796e-05;  1.0000000E+04;  0.0000000E+00;  0.0000000E+00;  1.0000000E+04;  0.0000000E+00;  1.0000000E+04;-2.0446552e-05;0.0;-4.9892437e-06;0.011221474
  0.0000000E+00;  9.9999998E-03;  3.0000001E-01;455;0.0;0.0;0.0;1000.0;  4.0000001E-01;0.0;0;0.0;0.0;0.0;0;-5.389555e-05;  1.0000000E+04;  0.0000000E+00;  0.0000000E+00;  1.0000000E+04;  0.0000000E+00;  1.0000000E+04;-4.6481342e-05;0.0;-7.4142085e-06;0.016693294
  0.0000000E+00;  9.9999998E-03;  3.1999999E-01;456;0.0;0.0;0.0;1000.0;  4.0000001E-01;0.0;0;0.0;0.0;0.0;0;-3.9372979e-05;  1.0000000E+04;  0.0000000E+00;  0.0000000E+00;  1.0000000E+04;  0.0000000E+00;  1.0000000E+04;-3.0937063e-05;0.0;-8.4359153e-06;0.019570479
  2.0000000E-02;  9.9999998E-03;  3.1999999E-01;466;0.0;0.0;0.0;1000.0;  4.0000001E-01;0.0;0;0.0;0.0;0.0;0;-5.7564055e-05;  1.0000000E+04;  0.0000000E+00;  0.0000000E+00;  1.0000000E+04;  0.0000000E+00;  1.0000000E+04;-4.4336055e-05;0.0;-1.3227999e-05;0.03179412
  3.9999999E-02;  9.9999998E-03;  3.1999999E-01;476;0.0;0.0;0.0;1000.0;  4.0000001E-01;0.0;0;0.0;0.0;0.0;0;-8.1684426e-05;  1.0000000E+04;  0.0000000E+00;  0.0000000E+00;  1.0000000E+04;  0.0000000E+00;  1.0000000E+04;-6.2079482e-05;0.0;-1.960494e-05;0.049030248
  5.9999999E-02;  9.9999998E-03;  3.1999999E-01;486;0.0;0.0;0.0;1000.0;  4.0000001E-01;0.0;0;0.0;0.0;0.0;0;-0.00011482569;  1.0000000E+04;  0.0000000E+00;  0.0000000E+00;  1.0000000E+04;  0.0000000E+00;  1.0000000E+04;-8.6746586e-05;0.0;-2.8079108e-05;0.073277041
  7.9999998E-02;  9.9999998E-03;  3.1999999E-01;496;0.0;0.0;0.0;1000.0001;  4.0000001E-01;0.098762624;0;0.0;0.0;0.0;0;-0.00016214074;  1.0000000E+04;  0.0000000E+00;  0.0000000E+00;  1.0000000E+04;  0.0000000E+00;  1.0000000E+04;-0.00012259302;0.0;-3.9547729e-05;0.10793459
  1.0000000E-01;  9.9999998E-03;  3.1999999E-01;506;0.0;0.0;0.0;1000.0001;  4.0000001E-01;0.098762624;0;0.0;0.0;0.0;0;-0.00023301455;  1.0000000E+04;  0.0000000E+00;  0.0000000E+00;  1.0000000E+04;  0.0000000E+00;  1.0000000E+04;-0.00017744653;0.0;-5.556802e-05;0.16427414
  1.2000000E-01;  9.9999998E-03;  3.1999999E-01;516;0.0;0.0;0.0;1000.0001;  4.0000001E-01;0.098762624;0;0.0;0.0;0.0;0;-0.00034374575;  1.0000000E+04;  0.0000000E+00;  0.0000000E+00;  1.0000000E+04;  0.0000000E+00;  1.0000000E+04;-0.00026477073;0.0;-7.8975027e-05;0.31135267
  1.4000000E-01;  9.9999998E-03;  3.1999999E-01;526;0.0;0.0;0.0;1000.0002;  4.0000001E-01;0.19752525;0;0.0;0.0;0.0;0;-0.00052086276;  1.0000000E+04;  0.0000000E+00;  0.0000000E+00;  1.0000000E+04;  0.0000000E+00;  1.0000000E+04;-0.00040581671;0.0;-0.00011504602;0.78725481
  1.6000000E-01;  9.9999998E-03;  3.1999999E-01;536;0.0;0.0;0.0;1000.0004;  4.0000001E-01;0.29628786;0;0.0;0.0;0.0;0;-0.00080189825;  1.0000000E+04;  0.0000000E+00;  0.0000000E+00;  1.0000000E+04;  0.0000000E+00;  1.0000000E+04;-0.00062832306;0.0;-0.00017357519;2.0472677
  1.8000001E-01;  9.9999998E-03;  3.1999999E-01;546;0.0;0.0;0.0;1000.0006;  4.0000001E-01;0.49381313;0;0.0;0.0;0.0;0;-0.0012260744;  1.0000000E+04;  0.0000000E+00;  0.0000000E+00;  1.0000000E+04;  0.0000000E+00;  1.0000000E+04;-0.00095421361;0.0;-0.00027186083;4.6857605
  2.0000000E-01;  9.9999998E-03;  3.1999999E-01;555;0.0;0.0;0.0;1000.0009;  4.0000001E-01;0.79010099;0;0.0;0.0;0.0;0;-0.0018186111;  1.0000000E+04;  0.0000000E+00;  0.0000000E+00;  1.0000000E+04;  0.0000000E+00;  1.0000000E+04;-0.0013822593;0.0;-0.00043635175;8.893034
 -2.2000000E-01;  9.9999998E-03;  3.4000000E-01;36;0.0;0.0;0.0;1000.0;  4.0000001E-01;0.0;0;0.0;0.0;0.0;0;0.0;  1.0000000E+04;  0.0000000E+00;  0.0000000E+00;  1.0000000E+04;  0.0000000E+00;  1.0000000E+04;0.0;0.0;0.0;0.0
 -2.2000000E-01;  9.9999998E-03;  3.6000001E-01;37;0.0;0.0;0.0;1000.0;  4.0000001E-01;0.0;0;0.0;0.0;0.0;0;0.0;  1.0000000E+04;  0.0000000E+00;  0.0000000E+00;  1.0000000E+04;  0.0000000E+00;  1.0000000E+04;0.0;0.0;0.0;0.0
 -2.2000000E-01;  9.9999998E-03;  3.8000000E-01;38;0.0;0.0;0.0;1000.0;  4.0000001E-01;0.0;0;0.0;0.0;0.0;0;0.0;  1.0000000E+04;  0.0000000E+00;  0.0000000E+00;  1.0000000E+04;  0.0000000E+00;  1.0000000E+04;0.0;0.0;0.0;0.0
 -2.0000000E-01;  9.9999998E-03;  3.4000000E-01;76;0.0;0.0;0.0;1000.0;  4.0000001E-01;0.0;0;0.0;0.0;0.0;0;0.0;  1.0000000E+04;  0.0000000E+00;  0.0000000E+00;  1.0000000E+04;  0.0000000E+00;  1.0000000E+04;0.0;0.0;0.0;0.0
 -2.0000000E-01;  9.9999998E-03;  3.6000001E-01;77;0.0;0.0;0.0;1000.0;  4.0000001E-01;0.0;0;0.0;0.0;0.0;0;0.0;  1.0000000E+04;  0.0000000E+00;  0.0000000E+00;  1.0000000E+04;  0.0000000E+00;  1.0000000E+04;0.0;0.0;0.0;0.0
 -2.0000000E-01;  9.9999998E-03;  3.8000000E-01;78;0.0;0.0;0.0;1000.0;  4.0000001E-01;0.0;0;0.0;0.0;0.0;0;0.0;  1.0000000E+04;  0.0000000E+00;  0.0000000E+00;  1.0000000E+04;  0.0000000E+00;  1.0000000E+04;0.0;0.0;0.0;0.0
 -2.0000000E-01;  9.9999998E-03;  4.0000001E-01;79;0.0;0.0;0.0;1000.0;  4.0000001E-01;0.0;0;0.0;0.0;0.0;0;0.0;  1.0000000E+04;  0.0000000E+00;  0.0000000E+00;  1.0000000E+04;  0.0000000E+00;  1.0000000E+04;0.0;0.0;0.0;0.0
 -1.8000001E-01;  9.9999998E-03;  3.4000000E-01;117;0.0;0.0;0.0;1000.0;  4.0000001E-01;0.0;0;0.0;0.0;0.0;0;0.0;  1.0000000E+04;  0.0000000E+00;  0.0000000E+00;  1.0000000E+04;  0.0000000E+00;  1.0000000E+04;0.0;0.0;0.0;0.0
 -1.8000001E-01;  9.9999998E-03;  3.6000001E-01;118;0.0;0.0;0.0;1000.0;  4.0000001E-01;0.0;0;0.0;0.0;0.0;0;0.0;  1.0000000E+04;  0.0000000E+00;  0.0000000E+00;  1.0000000E+04;  0.0000000E+00;  1.0000000E+04;0.0;0.0;0.0;0.0
 -1.8000001E-01;  9.9999998E-03;  3.8000000E-01;119;0.0;0.0;0.0;1000.0;  4.0000001E-01;0.0;0;0.0;0.0;0.0;0;0.0;  1.0000000E+04;  0.0000000E+00;  0.0000000E+00;  1.0000000E+04;  0.0000000E+00;  1.0000000E+04;0.0;0.0;0.0;0.0
 -1.8000001E-01;  9.9999998E-03;  4.0000001E-01;120;0.0;0.0;0.0;1000.0;  4.0000001E-01;0.0;0;0.0;0.0;0.0;0;0.0;  1.0000000E+04;  0.0000000E+00;  0.0000000E+00;  1.0000000E+04;  0.0000000E+00;  1.0000000E+04;0.0;0.0;0.0;0.0
 -1.6000000E-01;  9.9999998E-03;  3.4000000E-01;158;0.0;0.0;0.0;1000.0;  4.0000001E-01;0.0;0;0.0;0.0;0.0;0;0.0;  1.0000000E+04;  0.0000000E+00;  0.0000000E+00;  1.0000000E+04;  0.0000000E+00;  1.0000000E+04;0.0;0.0;0.0;0.0
 -1.6000000E-01;  9.9999998E-03;  3.6000001E-01;159;0.0;0.0;0.0;1000.0;  4.0000001E-01;0.0;0;0.0;0.0;0.0;0;0.0;  1.0000000E+04;  0.0000000E+00;  0.0000000E+00;  1.0000000E+04;  0.0000000E+00;  1.0000000E+04;0.0;0.0;0.0;0.0
 -1.6000000E-01;  9.9999998E-03;  3.8000000E-01;160;0.0;0.0;0.0;1000.0;  4.0000001E-01;0.0;0;0.0;0.0;0.0;0;0.0;  1.0000000E+04;  0.0000000E+00;  0.0000000E+00;  1.0000000E+04;  0.0000000E+00;  1.0000000E+04;0.0;0.0;0.0;0.0
 -1.6000000E-01;  9.9999998E-03;  4.0000001E-01;161;0.0;0.0;0.0;1000.0;  4.0000001E-01;0.0;0;0.0;0.0;0.0;0;0.0;  1.0000000E+04;  0.0000000E+00;  0.0000000E+00;  1.0000000E+04;  0.0000000E+00;  1.0000000E+04;0.0;0.0;0.0;0.0
 -1.4000000E-01;  9.9999998E-03;  3.4000000E-01;199;0.0;0.0;0.0;1000.0;  4.0000001E-01;0.0;0;0.0;0.0;0.0;0;-1.186483e-08;  1.0000000E+04;  0.0000000E+00;  0.0000000E+00;  1.0000000E+04;  0.0000000E+00;  1.0000000E+04;-1.0113133e-08;0.0;-1.7516965e-09;3.5849382e-06
 -1.4000000E-01;  9.9999998E-03;  3.6000001E-01;200;0.0;0.0;0.0;1000.0;  4.0000001E-01;0.0;0;0.0;0.0;0.0;0;-1.3705306e-09;  1.0000000E+04;  0.0000000E+00;  0.0000000E+00;  1.0000000E+04;  0.0000000E+00;  1.0000000E+04;-1.094416e-09;0.0;-2.7611452e-10;5.7448136e-07
 -1.4000000E-01;  9.9999998E-03;  3.8000000E-01;201;0.0;0.0;0.0;1000.0;  4.0000001E-01;0.0;0;0.0;0.0;0.0;0;0.0;  1.0000000E+04;  0.0000000E+00;  0.0000000E+00;  1.0000000E+04;  0.0000000E+00;  1.0000000E+04;0.0;0.0;0.0;0.0
 -1.4000000E-01;  9.9999998E-03;  4.0000001E-01;202;0.0;0.0;0.0;1000.0;  4.0000001E-01;0.0;0;0.0;0.0;0.0;0;0.0;  1.0000000E+04;  0.0000000E+00;  0.0000000E+00;  1.0000000E+04;  0.0000000E+00;  1.0000000E+04;0.0;0.0;0.0;0.0
 -1.2000000E-01;  9.9999998E-03;  3.4000000E-01;240;0.0;0.0;0.0;1000.0;  4.0000001E-01;0.0;0;0.0;0.0;0.0;0;-1.5157198e-07;  1.0000000E+04;  0.0000000E+00;  0.0000000E+00;  1.0000000E+04;  0.0000000E+00;  1.0000000E+04;-1.2564794e-07;0.0;-2.5924034e-08;5.3967527e-05
 -1.2000000E-01;  9.9999998E-03;  3.6000001E-01;241;0.0;0.0;0.0;1000.0;  4.0000001E-01;0.0;0;0.0;0.0;0.0;0;-5.0496872e-08;  1.0000000E+04;  0.0000000E+00;  0.0000000E+00;  1.0000000E+04;  0.0000000E+00;  1.0000000E+04;-3.87173e-08;0.0;-1.1779571e-08;2.4790863e-05
 -1.2000000E-01;  9.9999998E-03;  3.8000000E-01;242;0.0;0.0;0.0;1000.0;  4.0000001E-01;0.0;0;0.0;0.0;0.0;0;-7.4221225e-09;  1.0000000E+04;  0.0000000E+00;  0.0000000E+00;  1.0000000E+04;  0.0000000E+00;  1.0000000E+04;-5.3460396e-09;0.0;-2.0760831e-09;4.3950226e-06
 -1.2000000E-01;  9.9999998E-03;  4.0000001E-01;243;0.0;0.0;0.0;1000.0;  4.0000001E-01;0.0;0;0.0;0.0;0.0;0;0.0;  1.0000000E+04;  0.0000000E+00;  0.0000000E+00;  1.0000000E+04;  0.0000000E+00;  1.0000000E+04;0.0;0.0;0.0;0.0
 -1.0000000E-01;  9.9999998E-03;  3.4000000E-01;281;0.0;0.0;0.0;1000.0;  4.0000001E-01;0.0;0;0.0;0.0;0.0;0;-7.1340219e-07;  1.0000000E+04;  0.0000000E+00;  0.0000000E+00;  1.0000000E+04;  0.0000000E+00;  1.0000000E+04;-5.7571663e-07;0.0;-1.3768557e-07;0.00028996138
 -1.0000000E-01;  9.9999998E-03;  3.6000001E-01;282;0.0;0.0;0.0;1000.0;  4.0000001E-01;0.0;0;0.0;0.0;0.0;0;-3.2519696e-07;  1.0000000E+04;  0.0000000E+00;  0.0000000E+00;  1.0000000E+04;  0.0000000E+00;  1.0000000E+04;-2.3992101e-07;0.0;-8.5275957e-08;0.00018195111
 -1.0000000E-01;  9.9999998E-03;  3.8000000E-01;283;0.0;0.0;0.0;1000.0;  4.0000001E-01;0.0;0;0.0;0.0;0.0;0;-1.0278804e-07;  1.0000000E+04;  0.0000000E+00;  0.0000000E+00;  1.0000000E+04;  0.0000000E+00;  1.0000000E+04;-7.0355071e-08;0.0;-3.2432965e-08;6.9528556e-05
 -1.0000000E-01;  9.9999998E-03;  4.0000001E-01;284;0.0;0.0;0.0;1000.0;  4.0000001E-01;0.0;0;0.0;0.0;0.0;0;-1.4204224e-08;  1.0000000E+04;  0.0000000E+00;  0.0000000E+00;  1.0000000E+04;  0.0000000E+00;  1.0000000E+04;-9.6241859e-09;0.0;-4.5800381e-09;9.8404898e-06
 -7.9999998E-02;  9.9999998E-03;  3.4000000E-01;322;0.0;0.0;0.0;1000.0;  4.0000001E-01;0.0;0;0.0;0.0;0.0;0;-2.1632281e-06;  1.0000000E+04;  0.0000000E+00;  0.0000000E+00;  1.0000000E+04;  0.0000000E+00;  1.0000000E+04;-1.7016433e-06;0.0;-4.6158473e-07;0.00098771381
 -7.9999998E-02;  9.9999998E-03;  3.6000001E-01;323;0.0;0.0;0.0;1000.0;  4.0000001E-01;0.0;0;0.0;0.0;0.0;0;-1.1356468e-06;  1.0000000E+04;  0.0000000E+00;  0.0000000E+00;  1.0000000E+04;  0.0000000E+00;  1.0000000E+04;-8.0801027e-07;0.0;-3.2763657e-07;0.00070917699
 -7.9999998E-02;  9.9999998E-03;  3.8000000E-01;324;0.0;0.0;0.0;1000.0;  4.0000001E-01;0.0;0;0.0;0.0;0.0;0;-4.6929773e-07;  1.0000000E+04;  0.0000000E+00;  0.0000000E+00;  1.0000000E+04;  0.0000000E+00;  1.0000000E+04;-3.0649753e-07;0.0;-1.6280019e-07;0.00035387641
 -7.9999998E-02;  9.9999998E-03;  4.0000001E-01;325;0.0;0.0;0.0;1000.0;  4.0000001E-01;0.0;0;0.0;0.0;0.0;0;-1.2301575e-07;  1.0000000E+04;  0.0000000E+00;  0.0000000E+00;  1.0000000E+04;  0.0000000E+00;  1.0000000E+04;-7.8776381e-08;0.0;-4.4239371e-08;9.6104966e-05
 -5.9999999E-02;  9.9999998E-03;  3.4000000E-01;363;0.0;0.0;0.0;1000.0;  4.0000001E-01;0.0;0;0.0;0.0;0.0;0;-5.0521421e-06;  1.0000000E+04;  0.0000000E+00;  0.0000000E+00;  1.0000000E+04;  0.0000000E+00;  1.0000000E+04;-3.867985e-06;0.0;-1.1841569e-06;0.0025824504
 -5.9999999E-02;  9.9999998E-03;  3.6000001E-01;364;0.0;0.0;0.0;1000.0;  4.0000001E-01;0.0;0;0.0;0.0;0.0;0;-2.8656509e-06;  1.0000000E+04;  0.0000000E+00;  0.0000000E+00;  1.0000000E+04;  0.0000000E+00;  1.0000000E+04;-1.9632378e-06;0.0;-9.0241321e-07;0.0019877602
 -5.9999999E-02;  9.9999998E-03;  3.8000000E-01;365;0.0;0.0;0.0;1000.0;  4.0000001E-01;0.0;0;0.0;0.0;0.0;0;-1.3506292e-06;  1.0000000E+04;  0.0000000E+00;  0.0000000E+00;  1.0000000E+04;  0.0000000E+00;  1.0000000E+04;-8.4054784e-07;0.0;-5.1008129e-07;0.001126921
 -5.9999999E-02;  9.9999998E-03;  4.0000001E-01;366;0.0;0.0;0.0;1000.0;  4.0000001E-01;0.0;0;0.0;0.0;0.0;0;-4.5695054e-07;  1.0000000E+04;  0.0000000E+00;  0.0000000E+00;  1.0000000E+04;  0.0000000E+00;  1.0000000E+04;-2.768239e-07;0.0;-1.8012665e-07;0.00039707383
 -3.9999999E-02;  9.9999998E-03;  3.4000000E-01;404;0.0;0.0;0.0;1000.0;  4.0000001E-01;0.0;0;0.0;0.0;0.0;0;-9.8729342e-06;  1.0000000E+04;  0.0000000E+00;  0.0000000E+00;  1.0000000E+04;  0.0000000E+00;  1.0000000E+04;-7.3319084e-06;0.0;-2.5410259e-06;0.0056646778
 -3.9999999E-02;  9.9999998E-03;  3.6000001E-01;405;0.0;0.0;0.0;1000.0;  4.0000001E-01;0.0;0;0.0;0.0;0.0;0;-5.8701362e-06;  1.0000000E+04;  0.0000000E+00;  0.0000000E+00;  1.0000000E+04;  0.0000000E+00;  1.0000000E+04;-3.8558342e-06;0.0;-2.0143023e-06;0.0045296964
 -3.9999999E-02;  9.9999998E-03;  3.8000000E-01;406;0.0;0.0;0.0;1000.0;  4.0000001E-01;0.0;0;0.0;0.0;0.0;0;-2.9780297e-06;  1.0000000E+04;  0.0000000E+00;  0.0000000E+00;  1.0000000E+04;  0.0000000E+00;  1.0000000E+04;-1.7572761e-06;0.0;-1.2207536e-06;0.0027502361
 -3.9999999E-02;  9.9999998E-03;  4.0000001E-01;407;0.0;0.0;0.0;1000.0;  4.0000001E-01;0.0;0;0.0;0.0;0.0;0;-1.1439477e-06;  1.0000000E+04;  0.0000000E+00;  0.0000000E+00;  1.0000000E+04;  0.0000000E+00;  1.0000000E+04;-6.519636e-07;0.0;-4.91984e-07;0.0011044167
 -2.0000000E-02;  9.9999998E-03;  3.4000000E-01;445;0.0;0.0;0.0;1000.0;  4.0000001E-01;0.0;0;0.0;0.0;0.0;0;-1.7005248e-05;  1.0000000E+04;  0.0000000E+00;  0.0000000E+00;  1.0000000E+04;  0.0000000E+00;  1.0000000E+04;-1.22161e-05;0.0;-4.7891481e-06;0.010952702
 -2.0000000E-02;  9.9999998E-03;  3.6000001E-01;446;0.0;0.0;0.0;1000.0;  4.0000001E-01;0.0;0;0.0;0.0;0.0;0;-1.0422115e-05;  1.0000000E+04;  0.0000000E+00;  0.0000000E+00;  1.0000000E+04;  0.0000000E+00;  1.0000000E+04;-6.5408481e-06;0.0;-3.8812673e-06;0.0089444546
 -2.0000000E-02;  9.9999998E-03;  3.8000000E-01;447;0.0;0.0;0.0;1000.0;  4.0000001E-01;0.0;0;0.0;0.0;0.0;0;-5.5221467e-06;  1.0000000E+04;  0.0000000E+00;  0.0000000E+00;  1.0000000E+04;  0.0000000E+00;  1.0000000E+04;-3.0756194e-06;0.0;-2.4465273e-06;0.0056428546
 -2.0000000E-02;  9.9999998E-03;  4.0000001E-01;448;0.0;0.0;0.0;1000.0;  4.0000001E-01;0.0;0;0.0;0.0;0.0;0;-2.2696449e-06;  1.0000000E+04;  0.0000000E+00;  0.0000000E+00;  1.0000000E+04;  0.0000000E+00;  1.0000000E+04;-1.2092403e-06;0.0;-1.0604048e-06;0.0024341105
  0.0000000E+00;  9.9999998E-03;  3.4000000E-01;457;0.0;0.0;0.0;1000.0;  4.0000001E-01;0.0;0;0.0;0.0;0.0;0;-2.676604e-05;  1.0000000E+04;  0.0000000E+00;  0.0000000E+00;  1.0000000E+04;  0.0000000E+00;  1.0000000E+04;-1.8594377e-05;0.0;-8.1716635e-06;0.019252663
  0.0000000E+00;  9.9999998E-03;  3.6000001E-01;458;0.0;0.0;0.0;1000.0;  4.0000001E-01;0.0;0;0.0;0.0;0.0;0;-1.6746551e-05;  1.0000000E+04;  0.0000000E+00;  0.0000000E+00;  1.0000000E+04;  0.0000000E+00;  1.0000000E+04;-1.0040041e-05;0.0;-6.7065102e-06;0.015908511
  0.0000000E+00;  9.9999998E-03;  3.8000000E-01;459;0.0;0.0;0.0;1000.0;  4.0000001E-01;0.0;0;0.0;0.0;0.0;0;-9.1095608e-06;  1.0000000E+04;  0.0000000E+00;  0.0000000E+00;  1.0000000E+04;  0.0000000E+00;  1.0000000E+04;-4.7857698e-06;0.0;-4.3237915e-06;0.010256873
  0.0000000E+00;  9.9999998E-03;  4.0000001E-01;460;0.0;0.0;0.0;1000.0;  4.0000001E-01;0.0;0;0.0;0.0;0.0;0;-3.8804001e-06;  1.0000000E+04;  0.0000000E+00;  0.0000000E+00;  1.0000000E+04;  0.0000000E+00;  1.0000000E+04;-1.9277402e-06;0.0;-1.9526597e-06;0.004605283
  2.0000000E-02;  9.9999998E-03;  3.4000000E-01;467;0.0;0.0;0.0;1000.0;  4.0000001E-01;0.0;0;0.0;0.0;0.0;0;-3.9663333e-05;  1.0000000E+04;  0.0000000E+00;  0.0000000E+00;  1.0000000E+04;  0.0000000E+00;  1.0000000E+04;-2.6756103e-05;0.0;-1.290723e-05;0.031473193
  2.0000000E-02;  9.9999998E-03;  3.6000001E-01;468;0.0;0.0;0.0;1000.0;  4.0000001E-01;0.0;0;0.0;0.0;0.0;0;-2.5182084e-05;  1.0000000E+04;  0.0000000E+00;  0.0000000E+00;  1.0000000E+04;  0.0000000E+00;  1.0000000E+04;-1.4500406e-05;0.0;-1.0681678e-05;0.026205895
  2.0000000E-02;  9.9999998E-03;  3.8000000E-01;469;0.0;0.0;0.0;1000.0;  4.0000001E-01;0.0;0;0.0;0.0;0.0;0;-1.3918843e-05;  1.0000000E+04;  0.0000000E+00;  0.0000000E+00;  1.0000000E+04;  0.0000000E+00;  1.0000000E+04;-6.9390157e-06;0.0;-6.9798275e-06;0.017113779
  2.0000000E-02;  9.9999998E-03;  4.0000001E-01;470;0.0;0.0;0.0;1000.0;  4.0000001E-01;0.0;0;0.0;0.0;0.0;0;-6.0348984e-06;  1.0000000E+04;  0.0000000E+00;  0.0000000E+00;  1.0000000E+04;  0.0000000E+00;  1.0000000E+04;-2.8095503e-06;0.0;-3.2253481e-06;0.0078564351
  3.9999999E-02;  9.9999998E-03;  3.4000000E-01;477;0.0;0.0;0.0;1000.0;  4.0000001E-01;0.0;0;0.0;0.0;0.0;0;-5.6831886e-05;  1.0000000E+04;  0.0000000E+00;  0.0000000E+00;  1.0000000E+04;  0.0000000E+00;  1.0000000E+04;-3.755838e-05;0.0;-1.9273504e-05;0.048855055
  3.9999999E-02;  9.9999998E-03;  3.6000001E-01;478;0.0;0.0;0.0;1000.0;  4.0000001E-01;0.0;0;0.0;0.0;0.0;0;-3.6438789e-05;  1.0000000E+04;  0.0000000E+00;  0.0000000E+00;  1.0000000E+04;  0.0000000E+00;  1.0000000E+04;-2.0380434e-05;0.0;-1.6058353e-05;0.040929157
  3.9999999E-02;  9.9999998E-03;  3.8000000E-01;479;0.0;0.0;0.0;1000.0;  4.0000001E-01;0.0;0;0.0;0.0;0.0;0;-2.0329891e-05;  1.0000000E+04;  0.0000000E+00;  0.0000000E+00;  1.0000000E+04;  0.0000000E+00;  1.0000000E+04;-9.7473321e-06;0.0;-1.0582558e-05;0.026943715
  3.9999999E-02;  9.9999998E-03;  4.0000001E-01;480;0.0;0.0;0.0;1000.0;  4.0000001E-01;0.0;0;0.0;0.0;0.0;0;-8.8835823e-06;  1.0000000E+04;  0.0000000E+00;  0.0000000E+00;  1.0000000E+04;  0.0000000E+00;  1.0000000E+04;-3.9324214e-06;0.0;-4.9511609e-06;0.012517891
  5.9999999E-02;  9.9999998E-03;  3.4000000E-01;487;0.0;0.0;0.0;1000.0;  4.0000001E-01;0.0;0;0.0;0.0;0.0;0;-8.0374542e-05;  1.0000000E+04;  0.0000000E+00;  0.0000000E+00;  1.0000000E+04;  0.0000000E+00;  1.0000000E+04;-5.2592775e-05;0.0;-2.7781765e-05;0.073438413
  5.9999999E-02;  9.9999998E-03;  3.6000001E-01;488;0.0;0.0;0.0;1000.0;  4.0000001E-01;0.0;0;0.0;0.0;0.0;0;-5.1853647e-05;  1.0000000E+04;  0.0000000E+00;  0.0000000E+00;  1.0000000E+04;  0.0000000E+00;  1.0000000E+04;-2.8580558e-05;0.0;-2.3273089e-05;0.061831683
  5.9999999E-02;  9.9999998E-03;  3.8000000E-01;489;0.0;0.0;0.0;1000.0;  4.0000001E-01;0.0;0;0.0;0.0;0.0;0;-2.9086623e-05;  1.0000000E+04;  0.0000000E+00;  0.0000000E+00;  1.0000000E+04;  0.0000000E+00;  1.0000000E+04;-1.366609e-05;0.0;-1.5420532e-05;0.040913083
  5.9999999E-02;  9.9999998E-03;  4.0000001E-01;490;0.0;0.0;0.0;1000.0;  4.0000001E-01;0.0;0;0.0;0.0;0.0;0;-1.2753322e-05;  1.0000000E+04;  0.0000000E+00;  0.0000000E+00;  1.0000000E+04;  0.0000000E+00;  1.0000000E+04;-5.4927009e-06;0.0;-7.2606217e-06;0.019126287
  7.9999998E-02;  9.9999998E-03;  3.4000000E-01;497;0.0;0.0;0.0;1000.0;  4.0000001E-01;0.0;0;0.0;0.0;0.0;0;-0.00011411625;  1.0000000E+04;  0.0000000E+00;  0.0000000E+00;  1.0000000E+04;  0.0000000E+00;  1.0000000E+04;-7.4772899e-05;0.0;-3.9343355e-05;0.10875984
  7.9999998E-02;  9.9999998E-03;  3.6000001E-01;498;0.0;0.0;0.0;1000.0;  4.0000001E-01;0.0;0;0.0;0.0;0.0;0;-7.3928881e-05;  1.0000000E+04;  0.0000000E+00;  0.0000000E+00;  1.0000000E+04;  0.0000000E+00;  1.0000000E+04;-4.0841729e-05;0.0;-3.3087155e-05;0.091861241
  7.9999998E-02;  9.9999998E-03;  3.8000000E-01;499;0.0;0.0;0.0;1000.0;  4.0000001E-01;0.0;0;0.0;0.0;0.0;0;-4.1580792e-05;  1.0000000E+04;  0.0000000E+00;  0.0000000E+00;  1.0000000E+04;  0.0000000E+00;  1.0000000E+04;-1.9591733e-05;0.0;-2.1989059e-05;0.060907103
  7.9999998E-02;  9.9999998E-03;  4.0000001E-01;500;0.0;0.0;0.0;1000.0;  4.0000001E-01;0.0;0;0.0;0.0;0.0;0;-1.8262694e-05;  1.0000000E+04;  0.0000000E+00;  0.0000000E+00;  1.0000000E+04;  0.0000000E+00;  1.0000000E+04;-7.8770136e-06;0.0;-1.0385681e-05;0.028573478
  1.0000000E-01;  9.9999998E-03;  3.4000000E-01;507;0.0;0.0;0.0;1000.0001;  4.0000001E-01;0.098762624;0;0.0;0.0;0.0;0;-0.00016519403;  1.0000000E+04;  0.0000000E+00;  0.0000000E+00;  1.0000000E+04;  0.0000000E+00;  1.0000000E+04;-0.00010961899;0.0;-5.5575034e-05;0.16413975
  1.0000000E-01;  9.9999998E-03;  3.6000001E-01;508;0.0;0.0;0.0;1000.0;  4.0000001E-01;0.0;0;0.0;0.0;0.0;0;-0.00010738619;  1.0000000E+04;  0.0000000E+00;  0.0000000E+00;  1.0000000E+04;  0.0000000E+00;  1.0000000E+04;-6.0528193e-05;0.0;-4.6857996e-05;0.13662231
  1.0000000E-01;  9.9999998E-03;  3.8000000E-01;509;0.0;0.0;0.0;1000.0;  4.0000001E-01;0.0;0;0.0;0.0;0.0;0;-6.0451286e-05;  1.0000000E+04;  0.0000000E+00;  0.0000000E+00;  1.0000000E+04;  0.0000000E+00;  1.0000000E+04;-2.9279487e-05;0.0;-3.1171799e-05;0.090158202
  1.0000000E-01;  9.9999998E-03;  4.0000001E-01;510;0.0;0.0;0.0;1000.0;  4.0000001E-01;0.0;0;0.0;0.0;0.0;0;-2.6584687e-05;  1.0000000E+04;  0.0000000E+00;  0.0000000E+00;  1.0000000E+04;  0.0000000E+00;  1.0000000E+04;-1.184557e-05;0.0;-1.4739117e-05;0.043200236
  1.2000000E-01;  9.9999998E-03;  3.4000000E-01;517;0.0;0.0;0.0;1000.0001;  4.0000001E-01;0.098762624;0;0.0;0.0;0.0;0;-0.00024642376;  1.0000000E+04;  0.0000000E+00;  0.0000000E+00;  1.0000000E+04;  0.0000000E+00;  1.0000000E+04;-0.00016695754;0.0;-7.9466226e-05;0.27941608
  1.2000000E-01;  9.9999998E-03;  3.6000001E-01;518;0.0;0.0;0.0;1000.0001;  4.0000001E-01;0.098762624;0;0.0;0.0;0.0;0;-0.00016094881;  1.0000000E+04;  0.0000000E+00;  0.0000000E+00;  1.0000000E+04;  0.0000000E+00;  1.0000000E+04;-9.379768e-05;0.0;-6.7151122e-05;0.20781046
  1.2000000E-01;  9.9999998E-03;  3.8000000E-01;519;0.0;0.0;0.0;1000.0;  4.0000001E-01;0.0;0;0.0;0.0;0.0;0;-9.0731395e-05;  1.0000000E+04;  0.0000000E+00;  0.0000000E+00;  1.0000000E+04;  0.0000000E+00;  1.0000000E+04;-4.6021098e-05;0.0;-4.4710301e-05;0.138546
  1.2000000E-01;  9.9999998E-03;  4.0000001E-01;520;0.0;0.0;0.0;1000.0;  4.0000001E-01;0.0;0;0.0;0.0;0.0;0;-4.002815e-05;  1.0000000E+04;  0.0000000E+00;  0.0000000E+00;  1.0000000E+04;  0.0000000E+00;  1.0000000E+04;-1.8856414e-05;0.0;-2.1171734e-05;0.07959114
  1.4000000E-01;  9.9999998E-03;  3.4000000E-01;527;0.0;0.0;0.0;1000.0002;  4.0000001E-01;0.19752525;0;0.0;0.0;0.0;0;-0.00037955804;  1.0000000E+04;  0.0000000E+00;  0.0000000E+00;  1.0000000E+04;  0.0000000E+00;  1.0000000E+04;-0.00026298442;0.0;-0.00011657361;0.59093404
  1.4000000E-01;  9.9999998E-03;  3.6000001E-01;528;0.0;0.0;0.0;1000.0001;  4.0000001E-01;0.098762624;0;0.0;0.0;0.0;0;-0.00024998977;  1.0000000E+04;  0.0000000E+00;  0.0000000E+00;  1.0000000E+04;  0.0000000E+00;  1.0000000E+04;-0.00015116975;0.0;-9.8820012e-05;0.32786334
  1.4000000E-01;  9.9999998E-03;  3.8000000E-01;529;0.0;0.0;0.0;1000.0001;  4.0000001E-01;0.098762624;0;0.0;0.0;0.0;0;-0.00014190332;  1.0000000E+04;  0.0000000E+00;  0.0000000E+00;  1.0000000E+04;  0.0000000E+00;  1.0000000E+04;-7.5728109e-05;0.0;-6.6175206e-05;0.26074028
  1.4000000E-01;  9.9999998E-03;  4.0000001E-01;530;0.0;0.0;0.0;1000.0;  4.0000001E-01;0.0;0;0.0;0.0;0.0;0;-6.3405038e-05;  1.0000000E+04;  0.0000000E+00;  0.0000000E+00;  1.0000000E+04;  0.0000000E+00;  1.0000000E+04;-3.1716067e-05;0.0;-3.1688967e-05;0.22027743
  1.6000000E-01;  9.9999998E-03;  3.4000000E-01;537;0.0;0.0;0.0;1000.0003;  4.0000001E-01;0.29628786;0;0.0;0.0;0.0;0;-0.00059606752;  1.0000000E+04;  0.0000000E+00;  0.0000000E+00;  1.0000000E+04;  0.0000000E+00;  1.0000000E+04;-0.00041911803;0.0;-0.00017694947;1.3751029
  1.6000000E-01;  9.9999998E-03;  3.6000001E-01;538;0.0;0.0;0.0;1000.0002;  4.0000001E-01;0.19752525;0;0.0;0.0;0.0;0;-0.0003974695;  1.0000000E+04;  0.0000000E+00;  0.0000000E+00;  1.0000000E+04;  0.0000000E+00;  1.0000000E+04;-0.0002467864;0.0;-0.0001506831;0.52716053
  1.6000000E-01;  9.9999998E-03;  3.8000000E-01;539;0.0;0.0;0.0;1000.0001;  4.0000001E-01;0.098762624;0;0.0;0.0;0.0;0;-0.00022982733;  1.0000000E+04;  0.0000000E+00;  0.0000000E+00;  1.0000000E+04;  0.0000000E+00;  1.0000000E+04;-0.00012706155;0.0;-0.00010276578;0.65841919
  1.6000000E-01;  9.9999998E-03;  4.0000001E-01;540;0.0;0.0;0.0;1000.0;  4.0000001E-01;0.0;0;0.0;0.0;0.0;0;-0.00010651923;  1.0000000E+04;  0.0000000E+00;  0.0000000E+00;  1.0000000E+04;  0.0000000E+00;  1.0000000E+04;-5.5310713e-05;0.0;-5.1208524e-05;0.69110233
  1.8000001E-01;  9.9999998E-03;  3.4000000E-01;547;0.0;0.0;0.0;1000.0004;  4.0000001E-01;0.3950505;0;0.0;0.0;0.0;0;-0.00092731987;  1.0000000E+04;  0.0000000E+00;  0.0000000E+00;  1.0000000E+04;  0.0000000E+00;  1.0000000E+04;-0.00064962299;0.0;-0.00027769688;2.9376245
  1.8000001E-01;  9.9999998E-03;  3.6000001E-01;548;0.0;0.0;0.0;1000.0003;  4.0000001E-01;0.29628786;0;0.0;0.0;0.0;0;-0.00062704494;  1.0000000E+04;  0.0000000E+00;  0.0000000E+00;  1.0000000E+04;  0.0000000E+00;  1.0000000E+04;-0.00038905902;0.0;-0.00023798594;0.82815367
  1.8000001E-01;  9.9999998E-03;  3.8000000E-01;549;0.0;0.0;0.0;1000.0002;  4.0000001E-01;0.19752525;0;0.0;0.0;0.0;0;-0.00037504444;  1.0000000E+04;  0.0000000E+00;  0.0000000E+00;  1.0000000E+04;  0.0000000E+00;  1.0000000E+04;-0.000206468;0.0;-0.00016857644;1.716073
  1.8000001E-01;  9.9999998E-03;  4.0000001E-01;550;0.0;0.0;0.0;1000.0001;  4.0000001E-01;0.098762624;0;0.0;0.0;0.0;0;-0.00018715338;  1.0000000E+04;  0.0000000E+00;  0.0000000E+00;  1.0000000E+04;  0.0000000E+00;  1.0000000E+04;-9.5521806e-05;0.0;-9.1631577e-05;1.9605682
  2.0000000E-01;  9.9999998E-03;  3.4000000E-01;556;0.0;0.0;0.0;1000.0007;  4.0000001E-01;0.59257573;0;0.0;0.0;0.0;0;-0.0013913098;  1.0000000E+04;  0.0000000E+00;  0.0000000E+00;  1.0000000E+04;  0.0000000E+00;  1.0000000E+04;-0.00094670465;0.0;-0.00044460519;5.2339196
  2.0000000E-01;  9.9999998E-03;  3.6000001E-01;557;0.0;0.0;0.0;1000.0004;  4.0000001E-01;0.3950505;0;0.0;0.0;0.0;0;-0.00095651881;  1.0000000E+04;  0.0000000E+00;  0.0000000E+00;  1.0000000E+04;  0.0000000E+00;  1.0000000E+04;-0.00057134725;0.0;-0.00038517159;1.3218188
  2.0000000E-01;  9.9999998E-03;  3.8000000E-01;558;0.0;0.0;0.0;1000.0003;  4.0000001E-01;0.29628786;0;0.0;0.0;0.0;0;-0.0006004679;  1.0000000E+04;  0.0000000E+00;  0.0000000E+00;  1.0000000E+04;  0.0000000E+00;  1.0000000E+04;-0.00031180069;0.0;-0.00028866719;3.8126767
  1.9200000E+00;  9.9999998E-03; -3.6000001E-01;559;0.0;0.0;0.0;1000.0;  4.0000001E-01;0.0;0;0.0;0.0;0.0;0;0.0;  1.0000000E+04;  0.0000000E+00;  0.0000000E+00;  1.0000000E+04;  0.0000000E+00;  1.0000000E+04;0.0;0.0;0.0;0.0
  1.9200000E+00;  9.9999998E-03; -3.4000000E-01;560;0.0;0.0;0.0;1000.0;  4.0000001E-01;0.0;0;0.0;0.0;0.0;0;0.0;  1.0000000E+04;  0.0000000E+00;  0.0000000E+00;  1.0000000E+04;  0.0000000E+00;  1.0000000E+04;0.0;0.0;0.0;0.0
  1.9200000E+00;  9.9999998E-03; -3.1999999E-01;561;0.0;0.0;0.0;1000.0;  4.0000001E-01;0.0;0;0.0;0.0;0.0;0;0.0;  1.0000000E+04;  0.0000000E+00;  0.0000000E+00;  1.0000000E+04;  0.0000000E+00;  1.0000000E+04;0.0;0.0;0.0;0.0
  1.9400001E+00;  9.9999998E-03; -3.8000000E-01;562;0.0;0.0;0.0;1000.0;  4.0000001E-01;0.0;0;0.0;0.0;0.0;0;0.0;  1.0000000E+04;  0.0000000E+00;  0.0000000E+00;  1.0000000E+04;  0.0000000E+00;  1.0000000E+04;0.0;0.0;0.0;0.0
  1.9400001E+00;  9.9999998E-03; -3.6000001E-01;563;0.0;0.0;0.0;1000.0;  4.0000001E-01;0.0;0;0.0;0.0;0.0;0;0.0;  1.0000000E+04;  0.0000000E+00;  0.0000000E+00;  1.0000000E+04;  0.0000000E+00;  1.0000000E+04;0.0;0.0;0.0;0.0
  1.9400001E+00;  9.9999998E-03; -3.4000000E-01;564;0.0;0.0;0.0;1000.0;  4.0000001E-01;0.0;0;0.0;0.0;0.0;0;0.0;  1.0000000E+04;  0.0000000E+00;  0.0000000E+00;  1.0000000E+04;  0.0000000E+00;  1.0000000E+04;0.0;0.0;0.0;0.0
  1.9400001E+00;  9.9999998E-03; -3.1999999E-01;565;0.0;0.0;0.0;1000.0;  4.0000001E-01;0.0;0;0.0;0.0;0.0;0;0.0;  1.0000000E+04;  0.0000000E+00;  0.0000000E+00;  1.0000000E+04;  0.0000000E+00;  1.0000000E+04;0.0;0.0;0.0;0.0
  1.9400001E+00;  9.9999998E-03; -3.0000001E-01;566;0.0;0.0;0.0;1000.0;  4.0000001E-01;0.0;0;0.0;0.0;0.0;0;0.0;  1.0000000E+04;  0.0000000E+00;  0.0000000E+00;  1.0000000E+04;  0.0000000E+00;  1.0000000E+04;0.0;0.0;0.0;0.0
  1.9400001E+00;  9.9999998E-03; -2.8000000E-01;567;0.0;0.0;0.0;1000.0;  4.0000001E-01;0.0;0;0.0;0.0;0.0;0;0.0;  1.0000000E+04;  0.0000000E+00;  0.0000000E+00;  1.0000000E+04;  0.0000000E+00;  1.0000000E+04;0.0;0.0;0.0;0.0
  1.9400001E+00;  9.9999998E-03; -2.5999999E-01;568;0.0;0.0;0.0;1000.0;  4.0000001E-01;0.0;0;0.0;0.0;0.0;0;0.0;  1.0000000E+04;  0.0000000E+00;  0.0000000E+00;  1.0000000E+04;  0.0000000E+00;  1.0000000E+04;0.0;0.0;0.0;0.0
  1.9400001E+00;  9.9999998E-03; -2.3999999E-01;569;0.0;0.0;0.0;1000.0;  4.0000001E-01;0.0;0;0.0;0.0;0.0;0;0.0;  1.0000000E+04;  0.0000000E+00;  0.0000000E+00;  1.0000000E+04;  0.0000000E+00;  1.0000000E+04;0.0;0.0;0.0;0.0
  1.9400001E+00;  9.9999998E-03; -2.2000000E-01;570;0.0;0.0;0.0;1000.0;  4.0000001E-01;0.0;0;0.0;0.0;0.0;0;0.0;  1.0000000E+04;  0.0000000E+00;  0.0000000E+00;  1.0000000E+04;  0.0000000E+00;  1.0000000E+04;0.0;0.0;0.0;0.0
  1.9600000E+00;  9.9999998E-03; -3.8000000E-01;571;0.0;0.0;0.0;1000.0;  4.0000001E-01;0.0;0;0.0;0.0;0.0;0;0.0;  1.0000000E+04;  0.0000000E+00;  0.0000000E+00;  1.0000000E+04;  0.0000000E+00;  1.0000000E+04;0.0;0.0;0.0;0.0
  1.9600000E+00;  9.9999998E-03; -3.6000001E-01;572;0.0;0.0;0.0;1000.0;  4.0000001E-01;0.0;0;0.0;0.0;0.0;0;0.0;  1.0000000E+04;  0.0000000E+00;  0.0000000E+00;  1.0000000E+04;  0.0000000E+00;  1.0000000E+04;0.0;0.0;0.0;0.0
  1.9600000E+00;  9.9999998E-03; -3.4000000E-01;573;0.0;0.0;0.0;1000.0;  4.0000001E-01;0.0;0;0.0;0.0;0.0;0;0.0;  1.0000000E+04;  0.0000000E+00;  0.0000000E+00;  1.0000000E+04;  0.0000000E+00;  1.0000000E+04;0.0;0.0;0.0;0.0
  1.9600000E+00;  9.9999998E-03; -3.1999999E-01;574;0.0;0.0;0.0;1000.0;  4.0000001E-01;0.0;0;0.0;0.0;0.0;0;0.0;  1.0000000E+04;  0.0000000E+00;  0.0000000E+00;  1.0000000E+04;  0.0000000E+00;  1.0000000E+04;0.0;0.0;0.0;0.0
  1.9600000E+00;  9.9999998E-03; -3.0000001E-01;575;0.0;0.0;0.0;1000.0;  4.0000001E-01;0.0;0;0.0;0.0;0.0;0;0.0;  1.0000000E+04;  0.0000000E+00;  0.0000000E+00;  1.0000000E+04;  0.0000000E+00;  1.0000000E+04;0.0;0.0;0.0;0.0
  1.9600000E+00;  9.9999998E-03; -2.8000000E-01;576;0.0;0.0;0.0;1000.0;  4.0000001E-01;0.0;0;0.0;0.0;0.0;0;0.0;  1.0000000E+04;  0.0000000E+00;  0.0000000E+00;  1.0000000E+04;  0.0000000E+00;  1.0000000E+04;0.0;0.0;0.0;0.0
  1.9600000E+00;  9.9999998E-03; -2.5999999E-01;577;0.0;0.0;0.0;1000.0;  4.0000001E-01;0.0;0;0.0;0.0;0.0;0;0.0;  1.0000000E+04;  0.0000000E+00;  0.0000000E+00;  1.0000000E+04;  0.0000000E+00;  1.0000000E+04;0.0;0.0;0.0;0.0
  1.9600000E+00;  9.9999998E-03; -2.3999999E-01;578;0.0;0.0;0.0;1000.0;  4.0000001E-01;0.0;0;0.0;0.0;0.0;0;0.0;  1.0000000E+04;  0.0000000E+00;  0.0000000E+00;  1.0000000E+04;  0.0000000E+00;  1.0000000E+04;0.0;0.0;0.0;0.0
  1.9600000E+00;  9.9999998E-03; -2.2000000E-01;579;0.0;0.0;0.0;1000.0;  4.0000001E-01;0.0;0;0.0;0.0;0.0;0;0.0;  1.0000000E+04;  0.0000000E+00;  0.0000000E+00;  1.0000000E+04;  0.0000000E+00;  1.0000000E+04;0.0;0.0;0.0;0.0
  1.9600000E+00;  9.9999998E-03; -2.0000000E-01;580;0.0;0.0;0.0;1000.0;  4.0000001E-01;0.0;0;0.0;0.0;0.0;0;0.0;  1.0000000E+04;  0.0000000E+00;  0.0000000E+00;  1.0000000E+04;  0.0000000E+00;  1.0000000E+04;0.0;0.0;0.0;0.0
  1.9600000E+00;  9.9999998E-03; -1.8000001E-01;581;0.0;0.0;0.0;1000.0;  4.0000001E-01;0.0;0;0.0;0.0;0.0;0;0.0;  1.0000000E+04;  0.0000000E+00;  0.0000000E+00;  1.0000000E+04;  0.0000000E+00;  1.0000000E+04;0.0;0.0;0.0;0.0
  1.9600000E+00;  9.9999998E-03; -1.6000000E-01;582;0.0;0.0;0.0;1000.0;  4.0000001E-01;0.0;0;0.0;0.0;0.0;0;0.0;  1.0000000E+04;  0.0000000E+00;  0.0000000E+00;  1.0000000E+04;  0.0000000E+00;  1.0000000E+04;0.0;0.0;0.0;0.0
  1.9600000E+00;  9.9999998E-03; -1.4000000E-01;583;0.0;0.0;0.0;1000.0;  4.0000001E-01;0.0;0;0.0;0.0;0.0;0;0.0;  1.0000000E+04;  0.0000000E+00;  0.0000000E+00;  1.0000000E+04;  0.0000000E+00;  1.0000000E+04;0.0;0.0;0.0;0.0
  1.9600000E+00;  9.9999998E-03; -1.2000000E-01;584;0.0;0.0;0.0;1000.0;  4.0000001E-01;0.0;0;0.0;0.0;0.0;0;0.0;  1.0000000E+04;  0.0000000E+00;  0.0000000E+00;  1.0000000E+04;  0.0000000E+00;  1.0000000E+04;0.0;0.0;0.0;0.0
  1.9800000E+00;  9.9999998E-03; -3.8000000E-01;585;0.0;0.0;0.0;1000.0;  4.0000001E-01;0.0;0;0.0;0.0;0.0;0;0.0;  1.0000000E+04;  0.0000000E+00;  0.0000000E+00;  1.0000000E+04;  0.0000000E+00;  1.0000000E+04;0.0;0.0;0.0;0.0
  1.9800000E+00;  9.9999998E-03; -3.6000001E-01;586;0.0;0.0;0.0;1000.0;  4.0000001E-01;0.0;0;0.0;0.0;0.0;0;0.0;  1.0000000E+04;  0.0000000E+00;  0.0000000E+00;  1.0000000E+04;  0.0000000E+00;  1.0000000E+04;0.0;0.0;0.0;0.0
  1.9800000E+00;  9.9999998E-03; -3.4000000E-01;587;0.0;0.0;0.0;1000.0;  4.0000001E-01;0.0;0;0.0;0.0;0.0;0;0.0;  1.0000000E+04;  0.0000000E+00;  0.0000000E+00;  1.0000000E+04;  0.0000000E+00;  1.0000000E+04;0.0;0.0;0.0;0.0
  1.9800000E+00;  9.9999998E-03; -3.1999999E-01;588;0.0;0.0;0.0;1000.0;  4.0000001E-01;0.0;0;0.0;0.0;0.0;0;0.0;  1.0000000E+04;  0.0000000E+00;  0.0000000E+00;  1.0000000E+04;  0.0000000E+00;  1.0000000E+04;0.0;0.0;0.0;0.0
  1.9800000E+00;  9.9999998E-03; -3.0000001E-01;589;0.0;0.0;0.0;1000.0;  4.0000001E-01;0.0;0;0.0;0.0;0.0;0;0.0;  1.0000000E+04;  0.0000000E+00;  0.0000000E+00;  1.0000000E+04;  0.0000000E+00;  1.0000000E+04;0.0;0.0;0.0;0.0
  1.9800000E+00;  9.9999998E-03; -2.8000000E-01;590;0.0;0.0;0.0;1000.0;  4.0000001E-01;0.0;0;0.0;0.0;0.0;0;0.0;  1.0000000E+04;  0.0000000E+00;  0.0000000E+00;  1.0000000E+04;  0.0000000E+00;  1.0000000E+04;0.0;0.0;0.0;0.0
  1.9800000E+00;  9.9999998E-03; -2.5999999E-01;591;0.0;0.0;0.0;1000.0;  4.0000001E-01;0.0;0;0.0;0.0;0.0;0;0.0;  1.0000000E+04;  0.0000000E+00;  0.0000000E+00;  1.0000000E+04;  0.0000000E+00;  1.0000000E+04;0.0;0.0;0.0;0.0
  1.9800000E+00;  9.9999998E-03; -2.3999999E-01;592;0.0;0.0;0.0;1000.0;  4.0000001E-01;0.0;0;0.0;0.0;0.0;0;0.0;  1.0000000E+04;  0.0000000E+00;  0.0000000E+00;  1.0000000E+04;  0.0000000E+00;  1.0000000E+04;0.0;0.0;0.0;0.0
  1.9800000E+00;  9.9999998E-03; -2.2000000E-01;593;0.0;0.0;0.0;1000.0;  4.0000001E-01;0.0;0;0.0;0.0;0.0;0;0.0;  1.0000000E+04;  0.0000000E+00;  0.0000000E+00;  1.0000000E+04;  0.0000000E+00;  1.0000000E+04;0.0;0.0;0.0;0.0
  1.9800000E+00;  9.9999998E-03; -2.0000000E-01;594;0.0;0.0;0.0;1000.0;  4.0000001E-01;0.0;0;0.0;0.0;0.0;0;0.0;  1.0000000E+04;  0.0000000E+00;  0.0000000E+00;  1.0000000E+04;  0.0000000E+00;  1.0000000E+04;0.0;0.0;0.0;0.0
  1.9800000E+00;  9.9999998E-03; -1.8000001E-01;595;0.0;0.0;0.0;1000.0;  4.0000001E-01;0.0;0;0.0;0.0;0.0;0;0.0;  1.0000000E+04;  0.0000000E+00;  0.0000000E+00;  1.0000000E+04;  0.0000000E+00;  1.0000000E+04;0.0;0.0;0.0;0.0
  1.9800000E+00;  9.9999998E-03; -1.6000000E-01;596;0.0;0.0;0.0;1000.0;  4.0000001E-01;0.0;0;0.0;0.0;0.0;0;0.0;  1.0000000E+04;  0.0000000E+00;  0.0000000E+00;  1.0000000E+04;  0.0000000E+00;  1.0000000E+04;0.0;0.0;0.0;0.0
  1.9800000E+00;  9.9999998E-03; -1.4000000E-01;597;0.0;0.0;0.0;1000.0;  4.0000001E-01;0.0;0;0.0;0.0;0.0;0;0.0;  1.0000000E+04;  0.0000000E+00;  0.0000000E+00;  1.0000000E+04;  0.0000000E+00;  1.0000000E+04;0.0;0.0;0.0;0.0
  1.9800000E+00;  9.9999998E-03; -1.2000000E-01;598;0.0;0.0;0.0;1000.0;  4.0000001E-01;0.0;0;0.0;0.0;0.0;0;0.0;  1.0000000E+04;  0.0000000E+00;  0.0000000E+00;  1.0000000E+04;  0.0000000E+00;  1.0000000E+04;0.0;0.0;0.0;0.0
  1.9800000E+00;  9.9999998E-03; -1.0000000E-01;599;0.0;0.0;0.0;1000.0;  4.0000001E-01;0.0;0;0.0;0.0;0.0;0;0.0;  1.0000000E+04;  0.0000000E+00;  0.0000000E+00;  1.0000000E+04;  0.0000000E+00;  1.0000000E+04;0.0;0.0;0.0;0.0
  1.9800000E+00;  9.9999998E-03; -7.9999998E-02;600;0.0;0.0;0.0;1000.0;  4.0000001E-01;0.0;0;0.0;0.0;0.0;0;0.0;  1.0000000E+04;  0.0000000E+00;  0.0000000E+00;  1.0000000E+04;  0.0000000E+00;  1.0000000E+04;0.0;0.0;0.0;0.0
  1.9800000E+00;  9.9999998E-03; -5.9999999E-02;601;0.0;0.0;0.0;1000.0;  4.0000001E-01;0.0;0;0.0;0.0;0.0;0;0.0;  1.0000000E+04;  0.0000000E+00;  0.0000000E+00;  1.0000000E+04;  0.0000000E+00;  1.0000000E+04;0.0;0.0;0.0;0.0
  1.9800000E+00;  9.9999998E-03; -3.9999999E-02;602;0.0;0.0;0.0;1000.0;  4.0000001E-01;0.0;0;0.0;0.0;0.0;0;0.0;  1.0000000E+04;  0.0000000E+00;  0.0000000E+00;  1.0000000E+04;  0.0000000E+00;  1.0000000E+04;0.0;0.0;0.0;0.0
  1.9800000E+00;  9.9999998E-03; -2.0000000E-02;603;0.0;0.0;0.0;1000.0;  4.0000001E-01;0.0;0;0.0;0.0;0.0;0;0.0;  1.0000000E+04;  0.0000000E+00;  0.0000000E+00;  1.0000000E+04;  0.0000000E+00;  1.0000000E+04;0.0;0.0;0.0;0.0
  2.0000000E+00;  9.9999998E-03; -3.8000000E-01;604;0.0;0.0;0.0;1000.0;  4.0000001E-01;0.0;0;0.0;0.0;0.0;0;0.0;  1.0000000E+04;  0.0000000E+00;  0.0000000E+00;  1.0000000E+04;  0.0000000E+00;  1.0000000E+04;0.0;0.0;0.0;0.0
  2.0000000E+00;  9.9999998E-03; -3.6000001E-01;605;0.0;0.0;0.0;1000.0;  4.0000001E-01;0.0;0;0.0;0.0;0.0;0;0.0;  1.0000000E+04;  0.0000000E+00;  0.0000000E+00;  1.0000000E+04;  0.0000000E+00;  1.0000000E+04;0.0;0.0;0.0;0.0
  2.0000000E+00;  9.9999998E-03; -3.4000000E-01;606;0.0;0.0;0.0;1000.0;  4.0000001E-01;0.0;0;0.0;0.0;0.0;0;0.0;  1.0000000E+04;  0.0000000E+00;  0.0000000E+00;  1.0000000E+04;  0.0000000E+00;  1.0000000E+04;0.0;0.0;0.0;0.0
  2.0000000E+00;  9.9999998E-03; -3.1999999E-01;607;0.0;0.0;0.0;1000.0;  4.0000001E-01;0.0;0;0.0;0.0;0.0;0;0.0;  1.0000000E+04;  0.0000000E+00;  0.0000000E+00;  1.0000000E+04;  0.0000000E+00;  1.0000000E+04;0.0;0.0;0.0;0.0
  2.0000000E+00;  9.9999998E-03; -3.0000001E-01;608;0.0;0.0;0.0;1000.0;  4.0000001E-01;0.0;0;0.0;0.0;0.0;0;0.0;  1.0000000E+04;  0.0000000E+00;  0.0000000E+00;  1.0000000E+04;  0.0000000E+00;  1.0000000E+04;0.0;0.0;0.0;0.0
  2.0000000E+00;  9.9999998E-03; -2.8000000E-01;609;0.0;0.0;0.0;1000.0;  4.0000001E-01;0.0;0;0.0;0.0;0.0;0;0.0;  1.0000000E+04;  0.0000000E+00;  0.0000000E+00;  1.0000000E+04;  0.0000000E+00;  1.0000000E+04;0.0;0.0;0.0;0.0
  2.0000000E+00;  9.9999998E-03; -2.5999999E-01;610;0.0;0.0;0.0;1000.0;  4.0000001E-01;0.0;0;0.0;0.0;0.0;0;0.0;  1.0000000E+04;  0.0000000E+00;  0.0000000E+00;  1.0000000E+04;  0.0000000E+00;  1.0000000E+04;0.0;0.0;0.0;0.0
  2.0000000E+00;  9.9999998E-03; -2.3999999E-01;611;0.0;0.0;0.0;1000.0;  4.0000001E-01;0.0;0;0.0;0.0;0.0;0;0.0;  1.0000000E+04;  0.0000000E+00;  0.0000000E+00;  1.0000000E+04;  0.0000000E+00;  1.0000000E+04;0.0;0.0;0.0;0.0
  2.0000000E+00;  9.9999998E-03; -2.2000000E-01;612;0.0;0.0;0.0;1000.0;  4.0000001E-01;0.0;0;0.0;0.0;0.0;0;0.0;  1.0000000E+04;  0.0000000E+00;  0.0000000E+00;  1.0000000E+04;  0.0000000E+00;  1.0000000E+04;0.0;0.0;0.0;0.0
  2.0000000E+00;  9.9999998E-03; -2.0000000E-01;613;0.0;0.0;0.0;1000.0;  4.0000001E-01;0.0;0;0.0;0.0;0.0;0;0.0;  1.0000000E+04;  0.0000000E+00;  0.0000000E+00;  1.0000000E+04;  0.0000000E+00;  1.0000000E+04;0.0;0.0;0.0;0.0
  2.0000000E+00;  9.9999998E-03; -1.8000001E-01;614;0.0;0.0;0.0;1000.0;  4.0000001E-01;0.0;0;0.0;0.0;0.0;0;0.0;  1.0000000E+04;  0.0000000E+00;  0.0000000E+00;  1.0000000E+04;  0.0000000E+00;  1.0000000E+04;0.0;0.0;0.0;0.0
  2.0000000E+00;  9.9999998E-03; -1.6000000E-01;615;0.0;0.0;0.0;1000.0;  4.0000001E-01;0.0;0;0.0;0.0;0.0;0;0.0;  1.0000000E+04;  0.0000000E+00;  0.0000000E+00;  1.0000000E+04;  0.0000000E+00;  1.0000000E+04;0.0;0.0;0.0;0.0
  2.0000000E+00;  9.9999998E-03; -1.4000000E-01;616;0.0;0.0;0.0;1000.0;  4.0000001E-01;0.0;0;0.0;0.0;0.0;0;0.0;  1.0000000E+04;  0.0000000E+00;  0.0000000E+00;  1.0000000E+04;  0.0000000E+00;  1.0000000E+04;0.0;0.0;0.0;0.0
  2.0000000E+00;  9.9999998E-03; -1.2000000E-01;617;0.0;0.0;0.0;1000.0;  4.0000001E-01;0.0;0;0.0;0.0;0.0;0;0.0;  1.0000000E+04;  0.0000000E+00;  0.0000000E+00;  1.0000000E+04;  0.0000000E+00;  1.0000000E+04;0.0;0.0;0.0;0.0
  2.0000000E+00;  9.9999998E-03; -1.0000000E-01;618;0.0;0.0;0.0;1000.0;  4.0000001E-01;0.0;0;0.0;0.0;0.0;0;0.0;  1.0000000E+04;  0.0000000E+00;  0.0000000E+00;  1.0000000E+04;  0.0000000E+00;  1.0000000E+04;0.0;0.0;0.0;0.0
  2.0000000E+00;  9.9999998E-03; -7.9999998E-02;619;0.0;0.0;0.0;1000.0;  4.0000001E-01;0.0;0;0.0;0.0;0.0;0;0.0;  1.0000000E+04;  0.0000000E+00;  0.0000000E+00;  1.0000000E+04;  0.0000000E+00;  1.0000000E+04;0.0;0.0;0.0;0.0
  2.0000000E+00;  9.9999998E-03; -5.9999999E-02;620;0.0;0.0;0.0;1000.0;  4.0000001E-01;0.0;0;0.0;0.0;0.0;0;0.0;  1.0000000E+04;  0.0000000E+00;  0.0000000E+00;  1.0000000E+04;  0.0000000E+00;  1.0000000E+04;0.0;0.0;0.0;0.0
  2.0000000E+00;  9.9999998E-03; -3.9999999E-02;621;0.0;0.0;0.0;1000.0;  4.0000001E-01;0.0;0;0.0;0.0;0.0;0;0.0;  1.0000000E+04;  0.0000000E+00;  0.0000000E+00;  1.0000000E+04;  0.0000000E+00;  1.0000000E+04;0.0;0.0;0.0;0.0
  2.0000000E+00;  9.9999998E-03; -2.0000000E-02;622;0.0;0.0;0.0;1000.0;  4.0000001E-01;0.0;0;0.0;0.0;0.0;0;0.0;  1.0000000E+04;  0.0000000E+00;  0.0000000E+00;  1.0000000E+04;  0.0000000E+00;  1.0000000E+04;0.0;0.0;0.0;0.0
  2.0000000E+00;  9.9999998E-03;  0.0000000E+00;623;0.0;0.0;0.0;1000.0;  4.0000001E-01;0.0;0;0.0;0.0;0.0;0;0.0;  1.0000000E+04;  0.0000000E+00;  0.0000000E+00;  1.0000000E+04;  0.0000000E+00;  1.0000000E+04;0.0;0.0;0.0;0.0
  2.0000000E+00;  9.9999998E-03;  2.0000000E-02;624;0.0;0.0;0.0;1000.0;  4.0000001E-01;0.0;0;0.0;0.0;0.0;0;0.0;  1.0000000E+04;  0.0000000E+00;  0.0000000E+00;  1.0000000E+04;  0.0000000E+00;  1.0000000E+04;0.0;0.0;0.0;0.0
  2.0000000E+00;  9.9999998E-03;  3.9999999E-02;625;0.0;0.0;0.0;1000.0;  4.0000001E-01;0.0;0;0.0;0.0;0.0;0;0.0;  1.0000000E+04;  0.0000000E+00;  0.0000000E+00;  1.0000000E+04;  0.0000000E+00;  1.0000000E+04;0.0;0.0;0.0;0.0
  2.0000000E+00;  9.9999998E-03;  5.9999999E-02;626;0.0;0.0;0.0;1000.0;  4.0000001E-01;0.0;0;0.0;0.0;0.0;0;0.0;  1.0000000E+04;  0.0000000E+00;  0.0000000E+00;  1.0000000E+04;  0.0000000E+00;  1.0000000E+04;0.0;0.0;0.0;0.0
  2.0000000E+00;  9.9999998E-03;  7.9999998E-02;627;0.0;0.0;0.0;1000.0;  4.0000001E-01;0.0;0;0.0;0.0;0.0;0;0.0;  1.0000000E+04;  0.0000000E+00;  0.0000000E+00;  1.0000000E+04;  0.0000000E+00;  1.0000000E+04;0.0;0.0;0.0;0.0
  2.0200000E+00;  9.9999998E-03; -4.0000001E-01;628;0.0;0.0;0.0;1000.0;  4.0000001E-01;0.0;0;0.0;0.0;0.0;0;0.0;  1.0000000E+04;  0.0000000E+00;  0.0000000E+00;  1.0000000E+04;  0.0000000E+00;  1.0000000E+04;0.0;0.0;0.0;0.0
  2.0200000E+00;  9.9999998E-03; -3.8000000E-01;629;0.0;0.0;0.0;1000.0;  4.0000001E-01;0.0;0;0.0;0.0;0.0;0;0.0;  1.0000000E+04;  0.0000000E+00;  0.0000000E+00;  1.0000000E+04;  0.0000000E+00;  1.0000000E+04;0.0;0.0;0.0;0.0
  2.0200000E+00;  9.9999998E-03; -3.6000001E-01;630;0.0;0.0;0.0;1000.0;  4.0000001E-01;0.0;0;0.0;0.0;0.0;0;0.0;  1.0000000E+04;  0.0000000E+00;  0.0000000E+00;  1.0000000E+04;  0.0000000E+00;  1.0000000E+04;0.0;0.0;0.0;0.0
  2.0200000E+00;  9.9999998E-03; -3.4000000E-01;631;0.0;0.0;0.0;1000.0;  4.0000001E-01;0.0;0;0.0;0.0;0.0;0;0.0;  1.0000000E+04;  0.0000000E+00;  0.0000000E+00;  1.0000000E+04;  0.0000000E+00;  1.0000000E+04;0.0;0.0;0.0;0.0
  2.0200000E+00;  9.9999998E-03; -3.1999999E-01;632;0.0;0.0;0.0;1000.0;  4.0000001E-01;0.0;0;0.0;0.0;0.0;0;0.0;  1.0000000E+04;  0.0000000E+00;  0.0000000E+00;  1.0000000E+04;  0.0000000E+00;  1.0000000E+04;0.0;0.0;0.0;0.0
  2.0200000E+00;  9.9999998E-03; -3.0000001E-01;633;0.0;0.0;0.0;1000.0;  4.0000001E-01;0.0;0;0.0;0.0;0.0;0;0.0;  1.0000000E+04;  0.0000000E+00;  0.0000000E+00;  1.0000000E+04;  0.0000000E+00;  1.0000000E+04;0.0;0.0;0.0;0.0
  2.0200000E+00;  9.9999998E-03; -2.8000000E-01;634;0.0;0.0;0.0;1000.0;  4.0000001E-01;0.0;0;0.0;0.0;0.0;0;0.0;  1.0000000E+04;  0.0000000E+00;  0.0000000E+00;  1.0000000E+04;  0.0000000E+00;  1.0000000E+04;0.0;0.0;0.0;0.0
  2.0200000E+00;  9.9999998E-03; -2.5999999E-01;635;0.0;0.0;0.0;1000.0;  4.0000001E-01;0.0;0;0.0;0.0;0.0;0;0.0;  1.0000000E+04;  0.0000000E+00;  0.0000000E+00;  1.0000000E+04;  0.0000000E+00;  1.0000000E+04;0.0;0.0;0.0;0.0
  2.0200000E+00;  9.9999998E-03; -2.3999999E-01;636;0.0;0.0;0.0;1000.0;  4.0000001E-01;0.0;0;0.0;0.0;0.0;0;0.0;  1.0000000E+04;  0.0000000E+00;  0.0000000E+00;  1.0000000E+04;  0.0000000E+00;  1.0000000E+04;0.0;0.0;0.0;0.0
  2.0200000E+00;  9.9999998E-03; -2.2000000E-01;637;0.0;0.0;0.0;1000.0;  4.0000001E-01;0.0;0;0.0;0.0;0.0;0;0.0;  1.0000000E+04;  0.0000000E+00;  0.0000000E+00;  1.0000000E+04;  0.0000000E+00;  1.0000000E+04;0.0;0.0;0.0;0.0
  2.0200000E+00;  9.9999998E-03; -2.0000000E-01;638;0.0;0.0;0.0;1000.0;  4.0000001E-01;0.0;0;0.0;0.0;0.0;0;0.0;  1.0000000E+04;  0.0000000E+00;  0.0000000E+00;  1.0000000E+04;  0.0000000E+00;  1.0000000E+04;0.0;0.0;0.0;0.0
  2.0200000E+00;  9.9999998E-03; -1.8000001E-01;639;0.0;0.0;0.0;1000.0;  4.0000001E-01;0.0;0;0.0;0.0;0.0;0;0.0;  1.0000000E+04;  0.0000000E+00;  0.0000000E+00;  1.0000000E+04;  0.0000000E+00;  1.0000000E+04;0.0;0.0;0.0;0.0
  2.0200000E+00;  9.9999998E-03; -1.6000000E-01;640;0.0;0.0;0.0;1000.0;  4.0000001E-01;0.0;0;0.0;0.0;0.0;0;0.0;  1.0000000E+04;  0.0000000E+00;  0.0000000E+00;  1.0000000E+04;  0.0000000E+00;  1.0000000E+04;0.0;0.0;0.0;0.0
  2.0200000E+00;  9.9999998E-03; -1.4000000E-01;641;0.0;0.0;0.0;1000.0;  4.0000001E-01;0.0;0;0.0;0.0;0.0;0;0.0;  1.0000000E+04;  0.0000000E+00;  0.0000000E+00;  1.0000000E+04;  0.0000000E+00;  1.0000000E+04;0.0;0.0;0.0;0.0
  2.0200000E+00;  9.9999998E-03; -1.2000000E-01;642;0.0;0.0;0.0;1000.0;  4.0000001E-01;0.0;0;0.0;0.0;0.0;0;0.0;  1.0000000E+04;  0.0000000E+00;  0.0000000E+00;  1.0000000E+04;  0.0000000E+00;  1.0000000E+04;0.0;0.0;0.0;0.0
  2.0200000E+00;  9.9999998E-03; -1.0000000E-01;643;0.0;0.0;0.0;1000.0;  4.0000001E-01;0.0;0;0.0;0.0;0.0;0;0.0;  1.0000000E+04;  0.0000000E+00;  0.0000000E+00;  1.0000000E+04;  0.0000000E+00;  1.0000000E+04;0.0;0.0;0.0;0.0
  2.0200000E+00;  9.9999998E-03; -7.9999998E-02;644;0.0;0.0;0.0;1000.0;  4.0000001E-01;0.0;0;0.0;0.0;0.0;0;0.0;  1.0000000E+04;  0.0000000E+00;  0.0000000E+00;  1.0000000E+04;  0.0000000E+00;  1.0000000E+04;0.0;0.0;0.0;0.0
  2.0200000E+00;  9.9999998E-03; -5.9999999E-02;645;0.0;0.0;0.0;1000.0;  4.0000001E-01;0.0;0;0.0;0.0;0.0;0;0.0;  1.0000000E+04;  0.0000000E+00;  0.0000000E+00;  1.0000000E+04;  0.0000000E+00;  1.0000000E+04;0.0;0.0;0.0;0.0
  2.0200000E+00;  9.9999998E-03; -3.9999999E-02;646;0.0;0.0;0.0;1000.0;  4.0000001E-01;0.0;0;0.0;0.0;0.0;0;0.0;  1.0000000E+04;  0.0000000E+00;  0.0000000E+00;  1.0000000E+04;  0.0000000E+00;  1.0000000E+04;0.0;0.0;0.0;0.0
  2.0200000E+00;  9.9999998E-03; -2.0000000E-02;647;0.0;0.0;0.0;1000.0;  4.0000001E-01;0.0;0;0.0;0.0;0.0;0;0.0;  1.0000000E+04;  0.0000000E+00;  0.0000000E+00;  1.0000000E+04;  0.0000000E+00;  1.0000000E+04;0.0;0.0;0.0;0.0
  2.0200000E+00;  9.9999998E-03;  0.0000000E+00;648;0.0;0.0;0.0;1000.0;  4.0000001E-01;0.0;0;0.0;0.0;0.0;0;0.0;  1.0000000E+04;  0.0000000E+00;  0.0000000E+00;  1.0000000E+04;  0.0000000E+00;  1.0000000E+04;0.0;0.0;0.0;0.0
  2.0200000E+00;  9.9999998E-03;  2.0000000E-02;649;0.0;0.0;0.0;1000.0;  4.0000001E-01;0.0;0;0.0;0.0;0.0;0;0.0;  1.0000000E+04;  0.0000000E+00;  0.0000000E+00;  1.0000000E+04;  0.0000000E+00;  1.0000000E+04;0.0;0.0;0.0;0.0
  2.0200000E+00;  9.9999998E-03;  3.9999999E-02;650;0.0;0.0;0.0;1000.0;  4.0000001E-01;0.0;0;0.0;0.0;0.0;0;0.0;  1.0000000E+04;  0.0000000E+00;  0.0000000E+00;  1.0000000E+04;  0.0000000E+00;  1.0000000E+04;0.0;0.0;0.0;0.0
  2.0200000E+00;  9.9999998E-03;  5.9999999E-02;651;0.0;0.0;0.0;1000.0;  4.0000001E-01;0.0;0;0.0;0.0;0.0;0;0.0;  1.0000000E+04;  0.0000000E+00;  0.0000000E+00;  1.0000000E+04;  0.0000000E+00;  1.0000000E+04;0.0;0.0;0.0;0.0
  2.0200000E+00;  9.9999998E-03;  7.9999998E-02;652;0.0;0.0;0.0;1000.0;  4.0000001E-01;0.0;0;0.0;0.0;0.0;0;0.0;  1.0000000E+04;  0.0000000E+00;  0.0000000E+00;  1.0000000E+04;  0.0000000E+00;  1.0000000E+04;0.0;0.0;0.0;0.0
  2.0200000E+00;  9.9999998E-03;  1.0000000E-01;653;0.0;0.0;0.0;1000.0;  4.0000001E-01;0.0;0;0.0;0.0;0.0;0;0.0;  1.0000000E+04;  0.0000000E+00;  0.0000000E+00;  1.0000000E+04;  0.0000000E+00;  1.0000000E+04;0.0;0.0;0.0;0.0
  2.0200000E+00;  9.9999998E-03;  1.2000000E-01;654;0.0;0.0;0.0;1000.0;  4.0000001E-01;0.0;0;0.0;0.0;0.0;0;0.0;  1.0000000E+04;  0.0000000E+00;  0.0000000E+00;  1.0000000E+04;  0.0000000E+00;  1.0000000E+04;0.0;0.0;0.0;0.0
  2.0200000E+00;  9.9999998E-03;  1.4000000E-01;655;0.0;0.0;0.0;1000.0;  4.0000001E-01;0.0;0;0.0;0.0;0.0;0;0.0;  1.0000000E+04;  0.0000000E+00;  0.0000000E+00;  1.0000000E+04;  0.0000000E+00;  1.0000000E+04;0.0;0.0;0.0;0.0
  2.0200000E+00;  9.9999998E-03;  1.6000000E-01;656;0.0;0.0;0.0;1000.0;  4.0000001E-01;0.0;0;0.0;0.0;0.0;0;0.0;  1.0000000E+04;  0.0000000E+00;  0.0000000E+00;  1.0000000E+04;  0.0000000E+00;  1.0000000E+04;0.0;0.0;0.0;0.0
  2.0200000E+00;  9.9999998E-03;  1.8000001E-01;657;0.0;0.0;0.0;1000.0;  4.0000001E-01;0.0;0;0.0;0.0;0.0;0;0.0;  1.0000000E+04;  0.0000000E+00;  0.0000000E+00;  1.0000000E+04;  0.0000000E+00;  1.0000000E+04;0.0;0.0;0.0;0.0
  2.0400000E+00;  9.9999998E-03; -4.0000001E-01;658;0.0;0.0;0.0;1000.0;  4.0000001E-01;0.0;0;0.0;0.0;0.0;0;0.0;  1.0000000E+04;  0.0000000E+00;  0.0000000E+00;  1.0000000E+04;  0.0000000E+00;  1.0000000E+04;0.0;0.0;0.0;0.0
  2.0400000E+00;  9.9999998E-03; -3.8000000E-01;659;0.0;0.0;0.0;1000.0;  4.0000001E-01;0.0;0;0.0;0.0;0.0;0;0.0;  1.0000000E+04;  0.0000000E+00;  0.0000000E+00;  1.0000000E+04;  0.0000000E+00;  1.0000000E+04;0.0;0.0;0.0;0.0
  2.0400000E+00;  9.9999998E-03; -3.6000001E-01;660;0.0;0.0;0.0;1000.0;  4.0000001E-01;0.0;0;0.0;0.0;0.0;0;0.0;  1.0000000E+04;  0.0000000E+00;  0.0000000E+00;  1.0000000E+04;  0.0000000E+00;  1.0000000E+04;0.0;0.0;0.0;0.0
  2.0400000E+00;  9.9999998E-03; -3.4000000E-01;661;0.0;0.0;0.0;1000.0;  4.0000001E-01;0.0;0;0.0;0.0;0.0;0;0.0;  1.0000000E+04;  0.0000000E+00;  0.0000000E+00;  1.0000000E+04;  0.0000000E+00;  1.0000000E+04;0.0;0.0;0.0;0.0
  2.0400000E+00;  9.9999998E-03; -3.1999999E-01;662;0.0;0.0;0.0;1000.0;  4.0000001E-01;0.0;0;0.0;0.0;0.0;0;0.0;  1.0000000E+04;  0.0000000E+00;  0.0000000E+00;  1.0000000E+04;  0.0000000E+00;  1.0000000E+04;0.0;0.0;0.0;0.0
  2.0400000E+00;  9.9999998E-03; -3.0000001E-01;663;0.0;0.0;0.0;1000.0;  4.0000001E-01;0.0;0;0.0;0.0;0.0;0;0.0;  1.0000000E+04;  0.0000000E+00;  0.0000000E+00;  1.0000000E+04;  0.0000000E+00;  1.0000000E+04;0.0;0.0;0.0;0.0
  2.0400000E+00;  9.9999998E-03; -2.8000000E-01;664;0.0;0.0;0.0;1000.0;  4.0000001E-01;0.0;0;0.0;0.0;0.0;0;0.0;  1.0000000E+04;  0.0000000E+00;  0.0000000E+00;  1.0000000E+04;  0.0000000E+00;  1.0000000E+04;0.0;0.0;0.0;0.0
  2.0400000E+00;  9.9999998E-03; -2.5999999E-01;665;0.0;0.0;0.0;1000.0;  4.0000001E-01;0.0;0;0.0;0.0;0.0;0;0.0;  1.0000000E+04;  0.0000000E+00;  0.0000000E+00;  1.0000000E+04;  0.0000000E+00;  1.0000000E+04;0.0;0.0;0.0;0.0
  2.0400000E+00;  9.9999998E-03; -2.3999999E-01;666;0.0;0.0;0.0;1000.0;  4.0000001E-01;0.0;0;0.0;0.0;0.0;0;0.0;  1.0000000E+04;  0.0000000E+00;  0.0000000E+00;  1.0000000E+04;  0.0000000E+00;  1.0000000E+04;0.0;0.0;0.0;0.0
  2.0400000E+00;  9.9999998E-03; -2.2000000E-01;667;0.0;0.0;0.0;1000.0;  4.0000001E-01;0.0;0;0.0;0.0;0.0;0;0.0;  1.0000000E+04;  0.0000000E+00;  0.0000000E+00;  1.0000000E+04;  0.0000000E+00;  1.0000000E+04;0.0;0.0;0.0;0.0
  2.0400000E+00;  9.9999998E-03; -2.0000000E-01;668;0.0;0.0;0.0;1000.0;  4.0000001E-01;0.0;0;0.0;0.0;0.0;0;0.0;  1.0000000E+04;  0.0000000E+00;  0.0000000E+00;  1.0000000E+04;  0.0000000E+00;  1.0000000E+04;0.0;0.0;0.0;0.0
  2.0400000E+00;  9.9999998E-03; -1.8000001E-01;669;0.0;0.0;0.0;1000.0;  4.0000001E-01;0.0;0;0.0;0.0;0.0;0;0.0;  1.0000000E+04;  0.0000000E+00;  0.0000000E+00;  1.0000000E+04;  0.0000000E+00;  1.0000000E+04;0.0;0.0;0.0;0.0
  2.0400000E+00;  9.9999998E-03; -1.6000000E-01;670;0.0;0.0;0.0;1000.0;  4.0000001E-01;0.0;0;0.0;0.0;0.0;0;0.0;  1.0000000E+04;  0.0000000E+00;  0.0000000E+00;  1.0000000E+04;  0.0000000E+00;  1.0000000E+04;0.0;0.0;0.0;0.0
  2.0400000E+00;  9.9999998E-03; -1.4000000E-01;671;0.0;0.0;0.0;1000.0;  4.0000001E-01;0.0;0;0.0;0.0;0.0;0;0.0;  1.0000000E+04;  0.0000000E+00;  0.0000000E+00;  1.0000000E+04;  0.0000000E+00;  1.0000000E+04;0.0;0.0;0.0;0.0
  2.0400000E+00;  9.9999998E-03; -1.2000000E-01;672;0.0;0.0;0.0;1000.0;  4.0000001E-01;0.0;0;0.0;0.0;0.0;0;0.0;  1.0000000E+04;  0.0000000E+00;  0.0000000E+00;  1.0000000E+04;  0.0000000E+00;  1.0000000E+04;0.0;0.0;0.0;0.0
  2.0400000E+00;  9.9999998E-03; -1.0000000E-01;673;0.0;0.0;0.0;1000.0;  4.0000001E-01;0.0;0;0.0;0.0;0.0;0;0.0;  1.0000000E+04;  0.0000000E+00;  0.0000000E+00;  1.0000000E+04;  0.0000000E+00;  1.0000000E+04;0.0;0.0;0.0;0.0
  2.0400000E+00;  9.9999998E-03; -7.9999998E-02;674;0.0;0.0;0.0;1000.0;  4.0000001E-01;0.0;0;0.0;0.0;0.0;0;0.0;  1.0000000E+04;  0.0000000E+00;  0.0000000E+00;  1.0000000E+04;  0.0000000E+00;  1.0000000E+04;0.0;0.0;0.0;0.0
  2.0400000E+00;  9.9999998E-03; -5.9999999E-02;675;0.0;0.0;0.0;1000.0;  4.0000001E-01;0.0;0;0.0;0.0;0.0;0;0.0;  1.0000000E+04;  0.0000000E+00;  0.0000000E+00;  1.0000000E+04;  0.0000000E+00;  1.0000000E+04;0.0;0.0;0.0;0.0
  2.0400000E+00;  9.9999998E-03; -3.9999999E-02;676;0.0;0.0;0.0;1000.0;  4.0000001E-01;0.0;0;0.0;0.0;0.0;0;0.0;  1.0000000E+04;  0.0000000E+00;  0.0000000E+00;  1.0000000E+04;  0.0000000E+00;  1.0000000E+04;0.0;0.0;0.0;0.0
  2.0400000E+00;  9.9999998E-03; -2.0000000E-02;677;0.0;0.0;0.0;1000.0;  4.0000001E-01;0.0;0;0.0;0.0;0.0;0;0.0;  1.0000000E+04;  0.0000000E+00;  0.0000000E+00;  1.0000000E+04;  0.0000000E+00;  1.0000000E+04;0.0;0.0;0.0;0.0
  2.0400000E+00;  9.9999998E-03;  0.0000000E+00;678;0.0;0.0;0.0;1000.0;  4.0000001E-01;0.0;0;0.0;0.0;0.0;0;0.0;  1.0000000E+04;  0.0000000E+00;  0.0000000E+00;  1.0000000E+04;  0.0000000E+00;  1.0000000E+04;0.0;0.0;0.0;0.0
  2.0400000E+00;  9.9999998E-03;  2.0000000E-02;679;0.0;0.0;0.0;1000.0;  4.0000001E-01;0.0;0;0.0;0.0;0.0;0;0.0;  1.0000000E+04;  0.0000000E+00;  0.0000000E+00;  1.0000000E+04;  0.0000000E+00;  1.0000000E+04;0.0;0.0;0.0;0.0
  2.0400000E+00;  9.9999998E-03;  3.9999999E-02;680;0.0;0.0;0.0;1000.0;  4.0000001E-01;0.0;0;0.0;0.0;0.0;0;0.0;  1.0000000E+04;  0.0000000E+00;  0.0000000E+00;  1.0000000E+04;  0.0000000E+00;  1.0000000E+04;0.0;0.0;0.0;0.0
  2.0400000E+00;  9.9999998E-03;  5.9999999E-02;681;0.0;0.0;0.0;1000.0;  4.0000001E-01;0.0;0;0.0;0.0;0.0;0;0.0;  1.0000000E+04;  0.0000000E+00;  0.0000000E+00;  1.0000000E+04;  0.0000000E+00;  1.0000000E+04;0.0;0.0;0.0;0.0
  2.0400000E+00;  9.9999998E-03;  7.9999998E-02;682;0.0;0.0;0.0;1000.0;  4.0000001E-01;0.0;0;0.0;0.0;0.0;0;0.0;  1.0000000E+04;  0.0000000E+00;  0.0000000E+00;  1.0000000E+04;  0.0000000E+00;  1.0000000E+04;0.0;0.0;0.0;0.0
  2.0400000E+00;  9.9999998E-03;  1.0000000E-01;683;0.0;0.0;0.0;1000.0;  4.0000001E-01;0.0;0;0.0;0.0;0.0;0;0.0;  1.0000000E+04;  0.0000000E+00;  0.0000000E+00;  1.0000000E+04;  0.0000000E+00;  1.0000000E+04;0.0;0.0;0.0;0.0
  2.0400000E+00;  9.9999998E-03;  1.2000000E-01;684;0.0;0.0;0.0;1000.0;  4.0000001E-01;0.0;0;0.0;0.0;0.0;0;0.0;  1.0000000E+04;  0.0000000E+00;  0.0000000E+00;  1.0000000E+04;  0.0000000E+00;  1.0000000E+04;0.0;0.0;0.0;0.0
  2.0400000E+00;  9.9999998E-03;  1.4000000E-01;685;0.0;0.0;0.0;1000.0;  4.0000001E-01;0.0;0;0.0;0.0;0.0;0;0.0;  1.0000000E+04;  0.0000000E+00;  0.0000000E+00;  1.0000000E+04;  0.0000000E+00;  1.0000000E+04;0.0;0.0;0.0;0.0
  2.0400000E+00;  9.9999998E-03;  1.6000000E-01;686;0.0;0.0;0.0;1000.0;  4.0000001E-01;0.0;0;0.0;0.0;0.0;0;0.0;  1.0000000E+04;  0.0000000E+00;  0.0000000E+00;  1.0000000E+04;  0.0000000E+00;  1.0000000E+04;0.0;0.0;0.0;0.0
  2.0400000E+00;  9.9999998E-03;  1.8000001E-01;687;0.0;0.0;0.0;1000.0;  4.0000001E-01;0.0;0;0.0;0.0;0.0;0;0.0;  1.0000000E+04;  0.0000000E+00;  0.0000000E+00;  1.0000000E+04;  0.0000000E+00;  1.0000000E+04;0.0;0.0;0.0;0.0
  2.0400000E+00;  9.9999998E-03;  2.0000000E-01;688;0.0;0.0;0.0;1000.0;  4.0000001E-01;0.0;0;0.0;0.0;0.0;0;0.0;  1.0000000E+04;  0.0000000E+00;  0.0000000E+00;  1.0000000E+04;  0.0000000E+00;  1.0000000E+04;0.0;0.0;0.0;0.0
  2.0400000E+00;  9.9999998E-03;  2.2000000E-01;689;0.0;0.0;0.0;1000.0;  4.0000001E-01;0.0;0;0.0;0.0;0.0;0;0.0;  1.0000000E+04;  0.0000000E+00;  0.0000000E+00;  1.0000000E+04;  0.0000000E+00;  1.0000000E+04;0.0;0.0;0.0;0.0
  2.0400000E+00;  9.9999998E-03;  2.3999999E-01;690;0.0;0.0;0.0;1000.0;  4.0000001E-01;0.0;0;0.0;0.0;0.0;0;0.0;  1.0000000E+04;  0.0000000E+00;  0.0000000E+00;  1.0000000E+04;  0.0000000E+00;  1.0000000E+04;0.0;0.0;0.0;0.0
  2.0400000E+00;  9.9999998E-03;  2.5999999E-01;691;0.0;0.0;0.0;1000.0;  4.0000001E-01;0.0;0;0.0;0.0;0.0;0;0.0;  1.0000000E+04;  0.0000000E+00;  0.0000000E+00;  1.0000000E+04;  0.0000000E+00;  1.0000000E+04;0.0;0.0;0.0;0.0
  2.0400000E+00;  9.9999998E-03;  2.8000000E-01;692;0.0;0.0;0.0;1000.0;  4.0000001E-01;0.0;0;0.0;0.0;0.0;0;0.0;  1.0000000E+04;  0.0000000E+00;  0.0000000E+00;  1.0000000E+04;  0.0000000E+00;  1.0000000E+04;0.0;0.0;0.0;0.0
  2.0599999E+00;  9.9999998E-03; -4.0000001E-01;693;0.0;0.0;0.0;1000.0;  4.0000001E-01;0.0;0;0.0;0.0;0.0;0;0.0;  1.0000000E+04;  0.0000000E+00;  0.0000000E+00;  1.0000000E+04;  0.0000000E+00;  1.0000000E+04;0.0;0.0;0.0;0.0
  2.0599999E+00;  9.9999998E-03; -3.8000000E-01;694;0.0;0.0;0.0;1000.0;  4.0000001E-01;0.0;0;0.0;0.0;0.0;0;0.0;  1.0000000E+04;  0.0000000E+00;  0.0000000E+00;  1.0000000E+04;  0.0000000E+00;  1.0000000E+04;0.0;0.0;0.0;0.0
  2.0599999E+00;  9.9999998E-03; -3.6000001E-01;695;0.0;0.0;0.0;1000.0;  4.0000001E-01;0.0;0;0.0;0.0;0.0;0;0.0;  1.0000000E+04;  0.0000000E+00;  0.0000000E+00;  1.0000000E+04;  0.0000000E+00;  1.0000000E+04;0.0;0.0;0.0;0.0
  2.0599999E+00;  9.9999998E-03; -3.4000000E-01;696;0.0;0.0;0.0;1000.0;  4.0000001E-01;0.0;0;0.0;0.0;0.0;0;0.0;  1.0000000E+04;  0.0000000E+00;  0.0000000E+00;  1.0000000E+04;  0.0000000E+00;  1.0000000E+04;0.0;0.0;0.0;0.0
  2.0599999E+00;  9.9999998E-03; -3.1999999E-01;697;0.0;0.0;0.0;1000.0;  4.0000001E-01;0.0;0;0.0;0.0;0.0;0;0.0;  1.0000000E+04;  0.0000000E+00;  0.0000000E+00;  1.0000000E+04;  0.0000000E+00;  1.0000000E+04;0.0;0.0;0.0;0.0
  2.0599999E+00;  9.9999998E-03; -3.0000001E-01;698;0.0;0.0;0.0;1000.0;  4.0000001E-01;0.0;0;0.0;0.0;0.0;0;0.0;  1.0000000E+04;  0.0000000E+00;  0.0000000E+00;  1.0000000E+04;  0.0000000E+00;  1.0000000E+04;0.0;0.0;0.0;0.0
  2.0599999E+00;  9.9999998E-03; -2.8000000E-01;699;0.0;0.0;0.0;1000.0;  4.0000001E-01;0.0;0;0.0;0.0;0.0;0;0.0;  1.0000000E+04;  0.0000000E+00;  0.0000000E+00;  1.0000000E+04;  0.0000000E+00;  1.0000000E+04;0.0;0.0;0.0;0.0
  2.0599999E+00;  9.9999998E-03; -2.5999999E-01;700;0.0;0.0;0.0;1000.0;  4.0000001E-01;0.0;0;0.0;0.0;0.0;0;0.0;  1.0000000E+04;  0.0000000E+00;  0.0000000E+00;  1.0000000E+04;  0.0000000E+00;  1.0000000E+04;0.0;0.0;0.0;0.0
  2.0599999E+00;  9.9999998E-03; -2.3999999E-01;701;0.0;0.0;0.0;1000.0;  4.0000001E-01;0.0;0;0.0;0.0;0.0;0;0.0;  1.0000000E+04;  0.0000000E+00;  0.0000000E+00;  1.0000000E+04;  0.0000000E+00;  1.0000000E+04;0.0;0.0;0.0;0.0
  2.0599999E+00;  9.9999998E-03; -2.2000000E-01;702;0.0;0.0;0.0;1000.0;  4.0000001E-01;0.0;0;0.0;0.0;0.0;0;0.0;  1.0000000E+04;  0.0000000E+00;  0.0000000E+00;  1.0000000E+04;  0.0000000E+00;  1.0000000E+04;0.0;0.0;0.0;0.0
  2.0599999E+00;  9.9999998E-03; -2.0000000E-01;703;0.0;0.0;0.0;1000.0;  4.0000001E-01;0.0;0;0.0;0.0;0.0;0;0.0;  1.0000000E+04;  0.0000000E+00;  0.0000000E+00;  1.0000000E+04;  0.0000000E+00;  1.0000000E+04;0.0;0.0;0.0;0.0
  2.0599999E+00;  9.9999998E-03; -1.8000001E-01;704;0.0;0.0;0.0;1000.0;  4.0000001E-01;0.0;0;0.0;0.0;0.0;0;0.0;  1.0000000E+04;  0.0000000E+00;  0.0000000E+00;  1.0000000E+04;  0.0000000E+00;  1.0000000E+04;0.0;0.0;0.0;0.0
  2.0599999E+00;  9.9999998E-03; -1.6000000E-01;705;0.0;0.0;0.0;1000.0;  4.0000001E-01;0.0;0;0.0;0.0;0.0;0;0.0;  1.0000000E+04;  0.0000000E+00;  0.0000000E+00;  1.0000000E+04;  0.0000000E+00;  1.0000000E+04;0.0;0.0;0.0;0.0
  2.0599999E+00;  9.9999998E-03; -1.4000000E-01;706;0.0;0.0;0.0;1000.0;  4.0000001E-01;0.0;0;0.0;0.0;0.0;0;0.0;  1.0000000E+04;  0.0000000E+00;  0.0000000E+00;  1.0000000E+04;  0.0000000E+00;  1.0000000E+04;0.0;0.0;0.0;0.0
  2.0599999E+00;  9.9999998E-03; -1.2000000E-01;707;0.0;0.0;0.0;1000.0;  4.0000001E-01;0.0;0;0.0;0.0;0.0;0;0.0;  1.0000000E+04;  0.0000000E+00;  0.0000000E+00;  1.0000000E+04;  0.0000000E+00;  1.0000000E+04;0.0;0.0;0.0;0.0
  2.0599999E+00;  9.9999998E-03; -1.0000000E-01;708;0.0;0.0;0.0;1000.0;  4.0000001E-01;0.0;0;0.0;0.0;0.0;0;0.0;  1.0000000E+04;  0.0000000E+00;  0.0000000E+00;  1.0000000E+04;  0.0000000E+00;  1.0000000E+04;0.0;0.0;0.0;0.0
  2.0599999E+00;  9.9999998E-03; -7.9999998E-02;709;0.0;0.0;0.0;1000.0;  4.0000001E-01;0.0;0;0.0;0.0;0.0;0;0.0;  1.0000000E+04;  0.0000000E+00;  0.0000000E+00;  1.0000000E+04;  0.0000000E+00;  1.0000000E+04;0.0;0.0;0.0;0.0
  2.0599999E+00;  9.9999998E-03; -5.9999999E-02;710;0.0;0.0;0.0;1000.0;  4.0000001E-01;0.0;0;0.0;0.0;0.0;0;0.0;  1.0000000E+04;  0.0000000E+00;  0.0000000E+00;  1.0000000E+04;  0.0000000E+00;  1.0000000E+04;0.0;0.0;0.0;0.0
  2.0599999E+00;  9.9999998E-03; -3.9999999E-02;711;0.0;0.0;0.0;1000.0;  4.0000001E-01;0.0;0;0.0;0.0;0.0;0;0.0;  1.0000000E+04;  0.0000000E+00;  0.0000000E+00;  1.0000000E+04;  0.0000000E+00;  1.0000000E+04;0.0;0.0;0.0;0.0
  2.0599999E+00;  9.9999998E-03; -2.0000000E-02;712;0.0;0.0;0.0;1000.0;  4.0000001E-01;0.0;0;0.0;0.0;0.0;0;0.0;  1.0000000E+04;  0.0000000E+00;  0.0000000E+00;  1.0000000E+04;  0.0000000E+00;  1.0000000E+04;0.0;0.0;0.0;0.0
  2.0599999E+00;  9.9999998E-03;  0.0000000E+00;713;0.0;0.0;0.0;1000.0;  4.0000001E-01;0.0;0;0.0;0.0;0.0;0;0.0;  1.0000000E+04;  0.0000000E+00;  0.0000000E+00;  1.0000000E+04;  0.0000000E+00;  1.0000000E+04;0.0;0.0;0.0;0.0
  2.0599999E+00;  9.9999998E-03;  2.0000000E-02;714;0.0;0.0;0.0;1000.0;  4.0000001E-01;0.0;0;0.0;0.0;0.0;0;0.0;  1.0000000E+04;  0.0000000E+00;  0.0000000E+00;  1.0000000E+04;  0.0000000E+00;  1.0000000E+04;0.0;0.0;0.0;0.0
  2.0599999E+00;  9.9999998E-03;  3.9999999E-02;715;0.0;0.0;0.0;1000.0;  4.0000001E-01;0.0;0;0.0;0.0;0.0;0;0.0;  1.0000000E+04;  0.0000000E+00;  0.0000000E+00;  1.0000000E+04;  0.0000000E+00;  1.0000000E+04;0.0;0.0;0.0;0.0
  2.0599999E+00;  9.9999998E-03;  5.9999999E-02;716;0.0;0.0;0.0;1000.0;  4.0000001E-01;0.0;0;0.0;0.0;0.0;0;0.0;  1.0000000E+04;  0.0000000E+00;  0.0000000E+00;  1.0000000E+04;  0.0000000E+00;  1.0000000E+04;0.0;0.0;0.0;0.0
  2.0599999E+00;  9.9999998E-03;  7.9999998E-02;717;0.0;0.0;0.0;1000.0;  4.0000001E-01;0.0;0;0.0;0.0;0.0;0;0.0;  1.0000000E+04;  0.0000000E+00;  0.0000000E+00;  1.0000000E+04;  0.0000000E+00;  1.0000000E+04;0.0;0.0;0.0;0.0
  2.0599999E+00;  9.9999998E-03;  1.0000000E-01;718;0.0;0.0;0.0;1000.0;  4.0000001E-01;0.0;0;0.0;0.0;0.0;0;0.0;  1.0000000E+04;  0.0000000E+00;  0.0000000E+00;  1.0000000E+04;  0.0000000E+00;  1.0000000E+04;0.0;0.0;0.0;0.0
  2.0599999E+00;  9.9999998E-03;  1.2000000E-01;719;0.0;0.0;0.0;1000.0;  4.0000001E-01;0.0;0;0.0;0.0;0.0;0;0.0;  1.0000000E+04;  0.0000000E+00;  0.0000000E+00;  1.0000000E+04;  0.0000000E+00;  1.0000000E+04;0.0;0.0;0.0;0.0
  2.0599999E+00;  9.9999998E-03;  1.4000000E-01;720;0.0;0.0;0.0;1000.0;  4.0000001E-01;0.0;0;0.0;0.0;0.0;0;0.0;  1.0000000E+04;  0.0000000E+00;  0.0000000E+00;  1.0000000E+04;  0.0000000E+00;  1.0000000E+04;0.0;0.0;0.0;0.0
  2.0599999E+00;  9.9999998E-03;  1.6000000E-01;721;0.0;0.0;0.0;1000.0;  4.0000001E-01;0.0;0;0.0;0.0;0.0;0;0.0;  1.0000000E+04;  0.0000000E+00;  0.0000000E+00;  1.0000000E+04;  0.0000000E+00;  1.0000000E+04;0.0;0.0;0.0;0.0
  2.0599999E+00;  9.9999998E-03;  1.8000001E-01;722;0.0;0.0;0.0;1000.0;  4.0000001E-01;0.0;0;0.0;0.0;0.0;0;0.0;  1.0000000E+04;  0.0000000E+00;  0.0000000E+00;  1.0000000E+04;  0.0000000E+00;  1.0000000E+04;0.0;0.0;0.0;0.0
  2.0599999E+00;  9.9999998E-03;  2.0000000E-01;723;0.0;0.0;0.0;1000.0;  4.0000001E-01;0.0;0;0.0;0.0;0.0;0;0.0;  1.0000000E+04;  0.0000000E+00;  0.0000000E+00;  1.0000000E+04;  0.0000000E+00;  1.0000000E+04;0.0;0.0;0.0;0.0
  2.0599999E+00;  9.9999998E-03;  2.2000000E-01;724;0.0;0.0;0.0;1000.0;  4.0000001E-01;0.0;0;0.0;0.0;0.0;0;0.0;  1.0000000E+04;  0.0000000E+00;  0.0000000E+00;  1.0000000E+04;  0.0000000E+00;  1.0000000E+04;0.0;0.0;0.0;0.0
  2.0599999E+00;  9.9999998E-03;  2.3999999E-01;725;0.0;0.0;0.0;1000.0;  4.0000001E-01;0.0;0;0.0;0.0;0.0;0;0.0;  1.0000000E+04;  0.0000000E+00;  0.0000000E+00;  1.0000000E+04;  0.0000000E+00;  1.0000000E+04;0.0;0.0;0.0;0.0
  2.0599999E+00;  9.9999998E-03;  2.5999999E-01;726;0.0;0.0;0.0;1000.0;  4.0000001E-01;0.0;0;0.0;0.0;0.0;0;0.0;  1.0000000E+04;  0.0000000E+00;  0.0000000E+00;  1.0000000E+04;  0.0000000E+00;  1.0000000E+04;0.0;0.0;0.0;0.0
  2.0599999E+00;  9.9999998E-03;  2.8000000E-01;727;0.0;0.0;0.0;1000.0;  4.0000001E-01;0.0;0;0.0;0.0;0.0;0;0.0;  1.0000000E+04;  0.0000000E+00;  0.0000000E+00;  1.0000000E+04;  0.0000000E+00;  1.0000000E+04;0.0;0.0;0.0;0.0
  2.0599999E+00;  9.9999998E-03;  3.0000001E-01;728;0.0;0.0;0.0;1000.0;  4.0000001E-01;0.0;0;0.0;0.0;0.0;0;0.0;  1.0000000E+04;  0.0000000E+00;  0.0000000E+00;  1.0000000E+04;  0.0000000E+00;  1.0000000E+04;0.0;0.0;0.0;0.0
  2.0599999E+00;  9.9999998E-03;  3.1999999E-01;729;0.0;0.0;0.0;1000.0;  4.0000001E-01;0.0;0;0.0;0.0;0.0;0;0.0;  1.0000000E+04;  0.0000000E+00;  0.0000000E+00;  1.0000000E+04;  0.0000000E+00;  1.0000000E+04;0.0;0.0;0.0;0.0
  2.0599999E+00;  9.9999998E-03;  3.4000000E-01;730;0.0;0.0;0.0;1000.0;  4.0000001E-01;0.0;0;0.0;0.0;0.0;0;0.0;  1.0000000E+04;  0.0000000E+00;  0.0000000E+00;  1.0000000E+04;  0.0000000E+00;  1.0000000E+04;0.0;0.0;0.0;0.0
  2.0599999E+00;  9.9999998E-03;  3.6000001E-01;731;0.0;0.0;0.0;1000.0;  4.0000001E-01;0.0;0;0.0;0.0;0.0;0;0.0;  1.0000000E+04;  0.0000000E+00;  0.0000000E+00;  1.0000000E+04;  0.0000000E+00;  1.0000000E+04;0.0;0.0;0.0;0.0
  2.0599999E+00;  9.9999998E-03;  3.8000000E-01;732;0.0;0.0;0.0;1000.0;  4.0000001E-01;0.0;0;0.0;0.0;0.0;0;0.0;  1.0000000E+04;  0.0000000E+00;  0.0000000E+00;  1.0000000E+04;  0.0000000E+00;  1.0000000E+04;0.0;0.0;0.0;0.0
  2.0799999E+00;  9.9999998E-03; -4.0000001E-01;733;0.0;0.0;0.0;1000.0;  4.0000001E-01;0.0;0;0.0;0.0;0.0;0;0.0;  1.0000000E+04;  0.0000000E+00;  0.0000000E+00;  1.0000000E+04;  0.0000000E+00;  1.0000000E+04;0.0;0.0;0.0;0.0
  2.0799999E+00;  9.9999998E-03; -3.8000000E-01;734;0.0;0.0;0.0;1000.0;  4.0000001E-01;0.0;0;0.0;0.0;0.0;0;0.0;  1.0000000E+04;  0.0000000E+00;  0.0000000E+00;  1.0000000E+04;  0.0000000E+00;  1.0000000E+04;0.0;0.0;0.0;0.0
  2.0799999E+00;  9.9999998E-03; -3.6000001E-01;735;0.0;0.0;0.0;1000.0;  4.0000001E-01;0.0;0;0.0;0.0;0.0;0;0.0;  1.0000000E+04;  0.0000000E+00;  0.0000000E+00;  1.0000000E+04;  0.0000000E+00;  1.0000000E+04;0.0;0.0;0.0;0.0
  2.0799999E+00;  9.9999998E-03; -3.4000000E-01;736;0.0;0.0;0.0;1000.0;  4.0000001E-01;0.0;0;0.0;0.0;0.0;0;0.0;  1.0000000E+04;  0.0000000E+00;  0.0000000E+00;  1.0000000E+04;  0.0000000E+00;  1.0000000E+04;0.0;0.0;0.0;0.0
  2.0799999E+00;  9.9999998E-03; -3.1999999E-01;737;0.0;0.0;0.0;1000.0;  4.0000001E-01;0.0;0;0.0;0.0;0.0;0;0.0;  1.0000000E+04;  0.0000000E+00;  0.0000000E+00;  1.0000000E+04;  0.0000000E+00;  1.0000000E+04;0.0;0.0;0.0;0.0
  2.0799999E+00;  9.9999998E-03; -3.0000001E-01;738;0.0;0.0;0.0;1000.0;  4.0000001E-01;0.0;0;0.0;0.0;0.0;0;0.0;  1.0000000E+04;  0.0000000E+00;  0.0000000E+00;  1.0000000E+04;  0.0000000E+00;  1.0000000E+04;0.0;0.0;0.0;0.0
  2.0799999E+00;  9.9999998E-03; -2.8000000E-01;739;0.0;0.0;0.0;1000.0;  4.0000001E-01;0.0;0;0.0;0.0;0.0;0;0.0;  1.0000000E+04;  0.0000000E+00;  0.0000000E+00;  1.0000000E+04;  0.0000000E+00;  1.0000000E+04;0.0;0.0;0.0;0.0
  2.0799999E+00;  9.9999998E-03; -2.5999999E-01;740;0.0;0.0;0.0;1000.0;  4.0000001E-01;0.0;0;0.0;0.0;0.0;0;0.0;  1.0000000E+04;  0.0000000E+00;  0.0000000E+00;  1.0000000E+04;  0.0000000E+00;  1.0000000E+04;0.0;0.0;0.0;0.0
  2.0799999E+00;  9.9999998E-03; -2.3999999E-01;741;0.0;0.0;0.0;1000.0;  4.0000001E-01;0.0;0;0.0;0.0;0.0;0;0.0;  1.0000000E+04;  0.0000000E+00;  0.0000000E+00;  1.0000000E+04;  0.0000000E+00;  1.0000000E+04;0.0;0.0;0.0;0.0
  2.0799999E+00;  9.9999998E-03; -2.2000000E-01;742;0.0;0.0;0.0;1000.0;  4.0000001E-01;0.0;0;0.0;0.0;0.0;0;0.0;  1.0000000E+04;  0.0000000E+00;  0.0000000E+00;  1.0000000E+04;  0.0000000E+00;  1.0000000E+04;0.0;0.0;0.0;0.0
  2.0799999E+00;  9.9999998E-03; -2.0000000E-01;743;0.0;0.0;0.0;1000.0;  4.0000001E-01;0.0;0;0.0;0.0;0.0;0;0.0;  1.0000000E+04;  0.0000000E+00;  0.0000000E+00;  1.0000000E+04;  0.0000000E+00;  1.0000000E+04;0.0;0.0;0.0;0.0
  2.0799999E+00;  9.9999998E-03; -1.8000001E-01;744;0.0;0.0;0.0;1000.0;  4.0000001E-01;0.0;0;0.0;0.0;0.0;0;0.0;  1.0000000E+04;  0.0000000E+00;  0.0000000E+00;  1.0000000E+04;  0.0000000E+00;  1.0000000E+04;0.0;0.0;0.0;0.0
  2.0799999E+00;  9.9999998E-03; -1.6000000E-01;745;0.0;0.0;0.0;1000.0;  4.0000001E-01;0.0;0;0.0;0.0;0.0;0;0.0;  1.0000000E+04;  0.0000000E+00;  0.0000000E+00;  1.0000000E+04;  0.0000000E+00;  1.0000000E+04;0.0;0.0;0.0;0.0
  2.0799999E+00;  9.9999998E-03; -1.4000000E-01;746;0.0;0.0;0.0;1000.0;  4.0000001E-01;0.0;0;0.0;0.0;0.0;0;0.0;  1.0000000E+04;  0.0000000E+00;  0.0000000E+00;  1.0000000E+04;  0.0000000E+00;  1.0000000E+04;0.0;0.0;0.0;0.0
  2.0799999E+00;  9.9999998E-03; -1.2000000E-01;747;0.0;0.0;0.0;1000.0;  4.0000001E-01;0.0;0;0.0;0.0;0.0;0;0.0;  1.0000000E+04;  0.0000000E+00;  0.0000000E+00;  1.0000000E+04;  0.0000000E+00;  1.0000000E+04;0.0;0.0;0.0;0.0
  2.0799999E+00;  9.9999998E-03; -1.0000000E-01;748;0.0;0.0;0.0;1000.0;  4.0000001E-01;0.0;0;0.0;0.0;0.0;0;0.0;  1.0000000E+04;  0.0000000E+00;  0.0000000E+00;  1.0000000E+04;  0.0000000E+00;  1.0000000E+04;0.0;0.0;0.0;0.0
  2.0799999E+00;  9.9999998E-03; -7.9999998E-02;749;0.0;0.0;0.0;1000.0;  4.0000001E-01;0.0;0;0.0;0.0;0.0;0;0.0;  1.0000000E+04;  0.0000000E+00;  0.0000000E+00;  1.0000000E+04;  0.0000000E+00;  1.0000000E+04;0.0;0.0;0.0;0.0
  2.0799999E+00;  9.9999998E-03; -5.9999999E-02;750;0.0;0.0;0.0;1000.0;  4.0000001E-01;0.0;0;0.0;0.0;0.0;0;0.0;  1.0000000E+04;  0.0000000E+00;  0.0000000E+00;  1.0000000E+04;  0.0000000E+00;  1.0000000E+04;0.0;0.0;0.0;0.0
  2.0799999E+00;  9.9999998E-03; -3.9999999E-02;751;0.0;0.0;0.0;1000.0;  4.0000001E-01;0.0;0;0.0;0.0;0.0;0;0.0;  1.0000000E+04;  0.0000000E+00;  0.0000000E+00;  1.0000000E+04;  0.0000000E+00;  1.0000000E+04;0.0;0.0;0.0;0.0
  2.0799999E+00;  9.9999998E-03; -2.0000000E-02;752;0.0;0.0;0.0;1000.0;  4.0000001E-01;0.0;0;0.0;0.0;0.0;0;0.0;  1.0000000E+04;  0.0000000E+00;  0.0000000E+00;  1.0000000E+04;  0.0000000E+00;  1.0000000E+04;0.0;0.0;0.0;0.0
  2.0799999E+00;  9.9999998E-03;  0.0000000E+00;753;0.0;0.0;0.0;1000.0;  4.0000001E-01;0.0;0;0.0;0.0;0.0;0;0.0;  1.0000000E+04;  0.0000000E+00;  0.0000000E+00;  1.0000000E+04;  0.0000000E+00;  1.0000000E+04;0.0;0.0;0.0;0.0
  2.0799999E+00;  9.9999998E-03;  2.0000000E-02;754;0.0;0.0;0.0;1000.0;  4.0000001E-01;0.0;0;0.0;0.0;0.0;0;0.0;  1.0000000E+04;  0.0000000E+00;  0.0000000E+00;  1.0000000E+04;  0.0000000E+00;  1.0000000E+04;0.0;0.0;0.0;0.0
  2.0799999E+00;  9.9999998E-03;  3.9999999E-02;755;0.0;0.0;0.0;1000.0;  4.0000001E-01;0.0;0;0.0;0.0;0.0;0;0.0;  1.0000000E+04;  0.0000000E+00;  0.0000000E+00;  1.0000000E+04;  0.0000000E+00;  1.0000000E+04;0.0;0.0;0.0;0.0
  2.0799999E+00;  9.9999998E-03;  5.9999999E-02;756;0.0;0.0;0.0;1000.0;  4.0000001E-01;0.0;0;0.0;0.0;0.0;0;0.0;  1.0000000E+04;  0.0000000E+00;  0.0000000E+00;  1.0000000E+04;  0.0000000E+00;  1.0000000E+04;0.0;0.0;0.0;0.0
  2.0799999E+00;  9.9999998E-03;  7.9999998E-02;757;0.0;0.0;0.0;1000.0;  4.0000001E-01;0.0;0;0.0;0.0;0.0;0;0.0;  1.0000000E+04;  0.0000000E+00;  0.0000000E+00;  1.0000000E+04;  0.0000000E+00;  1.0000000E+04;0.0;0.0;0.0;0.0
  2.0799999E+00;  9.9999998E-03;  1.0000000E-01;758;0.0;0.0;0.0;1000.0;  4.0000001E-01;0.0;0;0.0;0.0;0.0;0;0.0;  1.0000000E+04;  0.0000000E+00;  0.0000000E+00;  1.0000000E+04;  0.0000000E+00;  1.0000000E+04;0.0;0.0;0.0;0.0
  2.0799999E+00;  9.9999998E-03;  1.2000000E-01;759;0.0;0.0;0.0;1000.0;  4.0000001E-01;0.0;0;0.0;0.0;0.0;0;0.0;  1.0000000E+04;  0.0000000E+00;  0.0000000E+00;  1.0000000E+04;  0.0000000E+00;  1.0000000E+04;0.0;0.0;0.0;0.0
  2.0799999E+00;  9.9999998E-03;  1.4000000E-01;760;0.0;0.0;0.0;1000.0;  4.0000001E-01;0.0;0;0.0;0.0;0.0;0;0.0;  1.0000000E+04;  0.0000000E+00;  0.0000000E+00;  1.0000000E+04;  0.0000000E+00;  1.0000000E+04;0.0;0.0;0.0;0.0
  2.0799999E+00;  9.9999998E-03;  1.6000000E-01;761;0.0;0.0;0.0;1000.0;  4.0000001E-01;0.0;0;0.0;0.0;0.0;0;0.0;  1.0000000E+04;  0.0000000E+00;  0.0000000E+00;  1.0000000E+04;  0.0000000E+00;  1.0000000E+04;0.0;0.0;0.0;0.0
  2.0799999E+00;  9.9999998E-03;  1.8000001E-01;762;0.0;0.0;0.0;1000.0;  4.0000001E-01;0.0;0;0.0;0.0;0.0;0;0.0;  1.0000000E+04;  0.0000000E+00;  0.0000000E+00;  1.0000000E+04;  0.0000000E+00;  1.0000000E+04;0.0;0.0;0.0;0.0
  2.0799999E+00;  9.9999998E-03;  2.0000000E-01;763;0.0;0.0;0.0;1000.0;  4.0000001E-01;0.0;0;0.0;0.0;0.0;0;0.0;  1.0000000E+04;  0.0000000E+00;  0.0000000E+00;  1.0000000E+04;  0.0000000E+00;  1.0000000E+04;0.0;0.0;0.0;0.0
  2.0799999E+00;  9.9999998E-03;  2.2000000E-01;764;0.0;0.0;0.0;1000.0;  4.0000001E-01;0.0;0;0.0;0.0;0.0;0;0.0;  1.0000000E+04;  0.0000000E+00;  0.0000000E+00;  1.0000000E+04;  0.0000000E+00;  1.0000000E+04;0.0;0.0;0.0;0.0
  2.0799999E+00;  9.9999998E-03;  2.3999999E-01;765;0.0;0.0;0.0;1000.0;  4.0000001E-01;0.0;0;0.0;0.0;0.0;0;0.0;  1.0000000E+04;  0.0000000E+00;  0.0000000E+00;  1.0000000E+04;  0.0000000E+00;  1.0000000E+04;0.0;0.0;0.0;0.0
  2.0799999E+00;  9.9999998E-03;  2.5999999E-01;766;0.0;0.0;0.0;1000.0;  4.0000001E-01;0.0;0;0.0;0.0;0.0;0;0.0;  1.0000000E+04;  0.0000000E+00;  0.0000000E+00;  1.0000000E+04;  0.0000000E+00;  1.0000000E+04;0.0;0.0;0.0;0.0
  2.0799999E+00;  9.9999998E-03;  2.8000000E-01;767;0.0;0.0;0.0;1000.0;  4.0000001E-01;0.0;0;0.0;0.0;0.0;0;0.0;  1.0000000E+04;  0.0000000E+00;  0.0000000E+00;  1.0000000E+04;  0.0000000E+00;  1.0000000E+04;0.0;0.0;0.0;0.0
  2.0799999E+00;  9.9999998E-03;  3.0000001E-01;768;0.0;0.0;0.0;1000.0;  4.0000001E-01;0.0;0;0.0;0.0;0.0;0;0.0;  1.0000000E+04;  0.0000000E+00;  0.0000000E+00;  1.0000000E+04;  0.0000000E+00;  1.0000000E+04;0.0;0.0;0.0;0.0
  2.0799999E+00;  9.9999998E-03;  3.1999999E-01;769;0.0;0.0;0.0;1000.0;  4.0000001E-01;0.0;0;0.0;0.0;0.0;0;0.0;  1.0000000E+04;  0.0000000E+00;  0.0000000E+00;  1.0000000E+04;  0.0000000E+00;  1.0000000E+04;0.0;0.0;0.0;0.0
  2.0799999E+00;  9.9999998E-03;  3.4000000E-01;770;0.0;0.0;0.0;1000.0;  4.0000001E-01;0.0;0;0.0;0.0;0.0;0;0.0;  1.0000000E+04;  0.0000000E+00;  0.0000000E+00;  1.0000000E+04;  0.0000000E+00;  1.0000000E+04;0.0;0.0;0.0;0.0
  2.0799999E+00;  9.9999998E-03;  3.6000001E-01;771;0.0;0.0;0.0;1000.0;  4.0000001E-01;0.0;0;0.0;0.0;0.0;0;0.0;  1.0000000E+04;  0.0000000E+00;  0.0000000E+00;  1.0000000E+04;  0.0000000E+00;  1.0000000E+04;0.0;0.0;0.0;0.0
  2.0799999E+00;  9.9999998E-03;  3.8000000E-01;772;0.0;0.0;0.0;1000.0;  4.0000001E-01;0.0;0;0.0;0.0;0.0;0;0.0;  1.0000000E+04;  0.0000000E+00;  0.0000000E+00;  1.0000000E+04;  0.0000000E+00;  1.0000000E+04;0.0;0.0;0.0;0.0
  2.0799999E+00;  9.9999998E-03;  4.0000001E-01;773;0.0;0.0;0.0;1000.0;  4.0000001E-01;0.0;0;0.0;0.0;0.0;0;0.0;  1.0000000E+04;  0.0000000E+00;  0.0000000E+00;  1.0000000E+04;  0.0000000E+00;  1.0000000E+04;0.0;0.0;0.0;0.0
  2.0999999E+00;  9.9999998E-03; -4.0000001E-01;774;0.0;0.0;0.0;1000.0;  4.0000001E-01;0.0;0;0.0;0.0;0.0;0;0.0;  1.0000000E+04;  0.0000000E+00;  0.0000000E+00;  1.0000000E+04;  0.0000000E+00;  1.0000000E+04;0.0;0.0;0.0;0.0
  2.0999999E+00;  9.9999998E-03; -3.8000000E-01;775;0.0;0.0;0.0;1000.0;  4.0000001E-01;0.0;0;0.0;0.0;0.0;0;0.0;  1.0000000E+04;  0.0000000E+00;  0.0000000E+00;  1.0000000E+04;  0.0000000E+00;  1.0000000E+04;0.0;0.0;0.0;0.0
  2.0999999E+00;  9.9999998E-03; -3.6000001E-01;776;0.0;0.0;0.0;1000.0;  4.0000001E-01;0.0;0;0.0;0.0;0.0;0;0.0;  1.0000000E+04;  0.0000000E+00;  0.0000000E+00;  1.0000000E+04;  0.0000000E+00;  1.0000000E+04;0.0;0.0;0.0;0.0
  2.0999999E+00;  9.9999998E-03; -3.4000000E-01;777;0.0;0.0;0.0;1000.0;  4.0000001E-01;0.0;0;0.0;0.0;0.0;0;0.0;  1.0000000E+04;  0.0000000E+00;  0.0000000E+00;  1.0000000E+04;  0.0000000E+00;  1.0000000E+04;0.0;0.0;0.0;0.0
  2.0999999E+00;  9.9999998E-03; -3.1999999E-01;778;0.0;0.0;0.0;1000.0;  4.0000001E-01;0.0;0;0.0;0.0;0.0;0;0.0;  1.0000000E+04;  0.0000000E+00;  0.0000000E+00;  1.0000000E+04;  0.0000000E+00;  1.0000000E+04;0.0;0.0;0.0;0.0
  2.0999999E+00;  9.9999998E-03; -3.0000001E-01;779;0.0;0.0;0.0;1000.0;  4.0000001E-01;0.0;0;0.0;0.0;0.0;0;0.0;  1.0000000E+04;  0.0000000E+00;  0.0000000E+00;  1.0000000E+04;  0.0000000E+00;  1.0000000E+04;0.0;0.0;0.0;0.0
  2.0999999E+00;  9.9999998E-03; -2.8000000E-01;780;0.0;0.0;0.0;1000.0;  4.0000001E-01;0.0;0;0.0;0.0;0.0;0;0.0;  1.0000000E+04;  0.0000000E+00;  0.0000000E+00;  1.0000000E+04;  0.0000000E+00;  1.0000000E+04;0.0;0.0;0.0;0.0
  2.0999999E+00;  9.9999998E-03; -2.5999999E-01;781;0.0;0.0;0.0;1000.0;  4.0000001E-01;0.0;0;0.0;0.0;0.0;0;0.0;  1.0000000E+04;  0.0000000E+00;  0.0000000E+00;  1.0000000E+04;  0.0000000E+00;  1.0000000E+04;0.0;0.0;0.0;0.0
  2.0999999E+00;  9.9999998E-03; -2.3999999E-01;782;0.0;0.0;0.0;1000.0;  4.0000001E-01;0.0;0;0.0;0.0;0.0;0;0.0;  1.0000000E+04;  0.0000000E+00;  0.0000000E+00;  1.0000000E+04;  0.0000000E+00;  1.0000000E+04;0.0;0.0;0.0;0.0
  2.0999999E+00;  9.9999998E-03; -2.2000000E-01;783;0.0;0.0;0.0;1000.0;  4.0000001E-01;0.0;0;0.0;0.0;0.0;0;0.0;  1.0000000E+04;  0.0000000E+00;  0.0000000E+00;  1.0000000E+04;  0.0000000E+00;  1.0000000E+04;0.0;0.0;0.0;0.0
  2.0999999E+00;  9.9999998E-03; -2.0000000E-01;784;0.0;0.0;0.0;1000.0;  4.0000001E-01;0.0;0;0.0;0.0;0.0;0;0.0;  1.0000000E+04;  0.0000000E+00;  0.0000000E+00;  1.0000000E+04;  0.0000000E+00;  1.0000000E+04;0.0;0.0;0.0;0.0
  2.0999999E+00;  9.9999998E-03; -1.8000001E-01;785;0.0;0.0;0.0;1000.0;  4.0000001E-01;0.0;0;0.0;0.0;0.0;0;0.0;  1.0000000E+04;  0.0000000E+00;  0.0000000E+00;  1.0000000E+04;  0.0000000E+00;  1.0000000E+04;0.0;0.0;0.0;0.0
  2.0999999E+00;  9.9999998E-03; -1.6000000E-01;786;0.0;0.0;0.0;1000.0;  4.0000001E-01;0.0;0;0.0;0.0;0.0;0;0.0;  1.0000000E+04;  0.0000000E+00;  0.0000000E+00;  1.0000000E+04;  0.0000000E+00;  1.0000000E+04;0.0;0.0;0.0;0.0
  2.0999999E+00;  9.9999998E-03; -1.4000000E-01;787;0.0;0.0;0.0;1000.0;  4.0000001E-01;0.0;0;0.0;0.0;0.0;0;0.0;  1.0000000E+04;  0.0000000E+00;  0.0000000E+00;  1.0000000E+04;  0.0000000E+00;  1.0000000E+04;0.0;0.0;0.0;0.0
  2.0999999E+00;  9.9999998E-03; -1.2000000E-01;788;0.0;0.0;0.0;1000.0;  4.0000001E-01;0.0;0;0.0;0.0;0.0;0;0.0;  1.0000000E+04;  0.0000000E+00;  0.0000000E+00;  1.0000000E+04;  0.0000000E+00;  1.0000000E+04;0.0;0.0;0.0;0.0
  2.0999999E+00;  9.9999998E-03; -1.0000000E-01;789;0.0;0.0;0.0;1000.0;  4.0000001E-01;0.0;0;0.0;0.0;0.0;0;0.0;  1.0000000E+04;  0.0000000E+00;  0.0000000E+00;  1.0000000E+04;  0.0000000E+00;  1.0000000E+04;0.0;0.0;0.0;0.0
  2.0999999E+00;  9.9999998E-03; -7.9999998E-02;790;0.0;0.0;0.0;1000.0;  4.0000001E-01;0.0;0;0.0;0.0;0.0;0;0.0;  1.0000000E+04;  0.0000000E+00;  0.0000000E+00;  1.0000000E+04;  0.0000000E+00;  1.0000000E+04;0.0;0.0;0.0;0.0
  2.0999999E+00;  9.9999998E-03; -5.9999999E-02;791;0.0;0.0;0.0;1000.0;  4.0000001E-01;0.0;0;0.0;0.0;0.0;0;0.0;  1.0000000E+04;  0.0000000E+00;  0.0000000E+00;  1.0000000E+04;  0.0000000E+00;  1.0000000E+04;0.0;0.0;0.0;0.0
  2.0999999E+00;  9.9999998E-03; -3.9999999E-02;792;0.0;0.0;0.0;1000.0;  4.0000001E-01;0.0;0;0.0;0.0;0.0;0;0.0;  1.0000000E+04;  0.0000000E+00;  0.0000000E+00;  1.0000000E+04;  0.0000000E+00;  1.0000000E+04;0.0;0.0;0.0;0.0
  2.0999999E+00;  9.9999998E-03; -2.0000000E-02;793;0.0;0.0;0.0;1000.0;  4.0000001E-01;0.0;0;0.0;0.0;0.0;0;0.0;  1.0000000E+04;  0.0000000E+00;  0.0000000E+00;  1.0000000E+04;  0.0000000E+00;  1.0000000E+04;0.0;0.0;0.0;0.0
  2.0999999E+00;  9.9999998E-03;  0.0000000E+00;794;0.0;0.0;0.0;1000.0;  4.0000001E-01;0.0;0;0.0;0.0;0.0;0;0.0;  1.0000000E+04;  0.0000000E+00;  0.0000000E+00;  1.0000000E+04;  0.0000000E+00;  1.0000000E+04;0.0;0.0;0.0;0.0
  2.0999999E+00;  9.9999998E-03;  2.0000000E-02;795;0.0;0.0;0.0;1000.0;  4.0000001E-01;0.0;0;0.0;0.0;0.0;0;0.0;  1.0000000E+04;  0.0000000E+00;  0.0000000E+00;  1.0000000E+04;  0.0000000E+00;  1.0000000E+04;0.0;0.0;0.0;0.0
  2.0999999E+00;  9.9999998E-03;  3.9999999E-02;796;0.0;0.0;0.0;1000.0;  4.0000001E-01;0.0;0;0.0;0.0;0.0;0;0.0;  1.0000000E+04;  0.0000000E+00;  0.0000000E+00;  1.0000000E+04;  0.0000000E+00;  1.0000000E+04;0.0;0.0;0.0;0.0
  2.0999999E+00;  9.9999998E-03;  5.9999999E-02;797;0.0;0.0;0.0;1000.0;  4.0000001E-01;0.0;0;0.0;0.0;0.0;0;0.0;  1.0000000E+04;  0.0000000E+00;  0.0000000E+00;  1.0000000E+04;  0.0000000E+00;  1.0000000E+04;0.0;0.0;0.0;0.0
  2.0999999E+00;  9.9999998E-03;  7.9999998E-02;798;0.0;0.0;0.0;1000.0;  4.0000001E-01;0.0;0;0.0;0.0;0.0;0;0.0;  1.0000000E+04;  0.0000000E+00;  0.0000000E+00;  1.0000000E+04;  0.0000000E+00;  1.0000000E+04;0.0;0.0;0.0;0.0
  2.0999999E+00;  9.9999998E-03;  1.0000000E-01;799;0.0;0.0;0.0;1000.0;  4.0000001E-01;0.0;0;0.0;0.0;0.0;0;0.0;  1.0000000E+04;  0.0000000E+00;  0.0000000E+00;  1.0000000E+04;  0.0000000E+00;  1.0000000E+04;0.0;0.0;0.0;0.0
  2.0999999E+00;  9.9999998E-03;  1.2000000E-01;800;0.0;0.0;0.0;1000.0;  4.0000001E-01;0.0;0;0.0;0.0;0.0;0;0.0;  1.0000000E+04;  0.0000000E+00;  0.0000000E+00;  1.0000000E+04;  0.0000000E+00;  1.0000000E+04;0.0;0.0;0.0;0.0
  2.0999999E+00;  9.9999998E-03;  1.4000000E-01;801;0.0;0.0;0.0;1000.0;  4.0000001E-01;0.0;0;0.0;0.0;0.0;0;0.0;  1.0000000E+04;  0.0000000E+00;  0.0000000E+00;  1.0000000E+04;  0.0000000E+00;  1.0000000E+04;0.0;0.0;0.0;0.0
  2.0999999E+00;  9.9999998E-03;  1.6000000E-01;802;0.0;0.0;0.0;1000.0;  4.0000001E-01;0.0;0;0.0;0.0;0.0;0;0.0;  1.0000000E+04;  0.0000000E+00;  0.0000000E+00;  1.0000000E+04;  0.0000000E+00;  1.0000000E+04;0.0;0.0;0.0;0.0
  2.0999999E+00;  9.9999998E-03;  1.8000001E-01;803;0.0;0.0;0.0;1000.0;  4.0000001E-01;0.0;0;0.0;0.0;0.0;0;0.0;  1.0000000E+04;  0.0000000E+00;  0.0000000E+00;  1.0000000E+04;  0.0000000E+00;  1.0000000E+04;0.0;0.0;0.0;0.0
  2.0999999E+00;  9.9999998E-03;  2.0000000E-01;804;0.0;0.0;0.0;1000.0;  4.0000001E-01;0.0;0;0.0;0.0;0.0;0;0.0;  1.0000000E+04;  0.0000000E+00;  0.0000000E+00;  1.0000000E+04;  0.0000000E+00;  1.0000000E+04;0.0;0.0;0.0;0.0
  2.0999999E+00;  9.9999998E-03;  2.2000000E-01;805;0.0;0.0;0.0;1000.0;  4.0000001E-01;0.0;0;0.0;0.0;0.0;0;0.0;  1.0000000E+04;  0.0000000E+00;  0.0000000E+00;  1.0000000E+04;  0.0000000E+00;  1.0000000E+04;0.0;0.0;0.0;0.0
  2.0999999E+00;  9.9999998E-03;  2.3999999E-01;806;0.0;0.0;0.0;1000.0;  4.0000001E-01;0.0;0;0.0;0.0;0.0;0;0.0;  1.0000000E+04;  0.0000000E+00;  0.0000000E+00;  1.0000000E+04;  0.0000000E+00;  1.0000000E+04;0.0;0.0;0.0;0.0
  2.0999999E+00;  9.9999998E-03;  2.5999999E-01;807;0.0;0.0;0.0;1000.0;  4.0000001E-01;0.0;0;0.0;0.0;0.0;0;0.0;  1.0000000E+04;  0.0000000E+00;  0.0000000E+00;  1.0000000E+04;  0.0000000E+00;  1.0000000E+04;0.0;0.0;0.0;0.0
  2.0999999E+00;  9.9999998E-03;  2.8000000E-01;808;0.0;0.0;0.0;1000.0;  4.0000001E-01;0.0;0;0.0;0.0;0.0;0;0.0;  1.0000000E+04;  0.0000000E+00;  0.0000000E+00;  1.0000000E+04;  0.0000000E+00;  1.0000000E+04;0.0;0.0;0.0;0.0
  2.0999999E+00;  9.9999998E-03;  3.0000001E-01;809;0.0;0.0;0.0;1000.0;  4.0000001E-01;0.0;0;0.0;0.0;0.0;0;0.0;  1.0000000E+04;  0.0000000E+00;  0.0000000E+00;  1.0000000E+04;  0.0000000E+00;  1.0000000E+04;0.0;0.0;0.0;0.0
  2.0999999E+00;  9.9999998E-03;  3.1999999E-01;810;0.0;0.0;0.0;1000.0;  4.0000001E-01;0.0;0;0.0;0.0;0.0;0;0.0;  1.0000000E+04;  0.0000000E+00;  0.0000000E+00;  1.0000000E+04;  0.0000000E+00;  1.0000000E+04;0.0;0.0;0.0;0.0
  2.0999999E+00;  9.9999998E-03;  3.4000000E-01;811;0.0;0.0;0.0;1000.0;  4.0000001E-01;0.0;0;0.0;0.0;0.0;0;0.0;  1.0000000E+04;  0.0000000E+00;  0.0000000E+00;  1.0000000E+04;  0.0000000E+00;  1.0000000E+04;0.0;0.0;0.0;0.0
  2.0999999E+00;  9.9999998E-03;  3.6000001E-01;812;0.0;0.0;0.0;1000.0;  4.0000001E-01;0.0;0;0.0;0.0;0.0;0;0.0;  1.0000000E+04;  0.0000000E+00;  0.0000000E+00;  1.0000000E+04;  0.0000000E+00;  1.0000000E+04;0.0;0.0;0.0;0.0
  2.0999999E+00;  9.9999998E-03;  3.8000000E-01;813;0.0;0.0;0.0;1000.0;  4.0000001E-01;0.0;0;0.0;0.0;0.0;0;0.0;  1.0000000E+04;  0.0000000E+00;  0.0000000E+00;  1.0000000E+04;  0.0000000E+00;  1.0000000E+04;0.0;0.0;0.0;0.0
  2.0999999E+00;  9.9999998E-03;  4.0000001E-01;814;0.0;0.0;0.0;1000.0;  4.0000001E-01;0.0;0;0.0;0.0;0.0;0;0.0;  1.0000000E+04;  0.0000000E+00;  0.0000000E+00;  1.0000000E+04;  0.0000000E+00;  1.0000000E+04;0.0;0.0;0.0;0.0
  2.1199999E+00;  9.9999998E-03; -4.1999999E-01;815;0.0;0.0;0.0;1000.0;  4.0000001E-01;0.0;0;0.0;0.0;0.0;0;0.0;  1.0000000E+04;  0.0000000E+00;  0.0000000E+00;  1.0000000E+04;  0.0000000E+00;  1.0000000E+04;0.0;0.0;0.0;0.0
  2.1199999E+00;  9.9999998E-03; -4.0000001E-01;816;0.0;0.0;0.0;1000.0;  4.0000001E-01;0.0;0;0.0;0.0;0.0;0;0.0;  1.0000000E+04;  0.0000000E+00;  0.0000000E+00;  1.0000000E+04;  0.0000000E+00;  1.0000000E+04;0.0;0.0;0.0;0.0
  2.1199999E+00;  9.9999998E-03; -3.8000000E-01;817;0.0;0.0;0.0;1000.0;  4.0000001E-01;0.0;0;0.0;0.0;0.0;0;0.0;  1.0000000E+04;  0.0000000E+00;  0.0000000E+00;  1.0000000E+04;  0.0000000E+00;  1.0000000E+04;0.0;0.0;0.0;0.0
  2.1199999E+00;  9.9999998E-03; -3.6000001E-01;818;0.0;0.0;0.0;1000.0;  4.0000001E-01;0.0;0;0.0;0.0;0.0;0;0.0;  1.0000000E+04;  0.0000000E+00;  0.0000000E+00;  1.0000000E+04;  0.0000000E+00;  1.0000000E+04;0.0;0.0;0.0;0.0
  2.1199999E+00;  9.9999998E-03; -3.4000000E-01;819;0.0;0.0;0.0;1000.0;  4.0000001E-01;0.0;0;0.0;0.0;0.0;0;0.0;  1.0000000E+04;  0.0000000E+00;  0.0000000E+00;  1.0000000E+04;  0.0000000E+00;  1.0000000E+04;0.0;0.0;0.0;0.0
  2.1199999E+00;  9.9999998E-03; -3.1999999E-01;820;0.0;0.0;0.0;1000.0;  4.0000001E-01;0.0;0;0.0;0.0;0.0;0;0.0;  1.0000000E+04;  0.0000000E+00;  0.0000000E+00;  1.0000000E+04;  0.0000000E+00;  1.0000000E+04;0.0;0.0;0.0;0.0
  2.1199999E+00;  9.9999998E-03; -3.0000001E-01;821;0.0;0.0;0.0;1000.0;  4.0000001E-01;0.0;0;0.0;0.0;0.0;0;0.0;  1.0000000E+04;  0.0000000E+00;  0.0000000E+00;  1.0000000E+04;  0.0000000E+00;  1.0000000E+04;0.0;0.0;0.0;0.0
  2.1199999E+00;  9.9999998E-03; -2.8000000E-01;822;0.0;0.0;0.0;1000.0;  4.0000001E-01;0.0;0;0.0;0.0;0.0;0;0.0;  1.0000000E+04;  0.0000000E+00;  0.0000000E+00;  1.0000000E+04;  0.0000000E+00;  1.0000000E+04;0.0;0.0;0.0;0.0
  2.1199999E+00;  9.9999998E-03; -2.5999999E-01;823;0.0;0.0;0.0;1000.0;  4.0000001E-01;0.0;0;0.0;0.0;0.0;0;0.0;  1.0000000E+04;  0.0000000E+00;  0.0000000E+00;  1.0000000E+04;  0.0000000E+00;  1.0000000E+04;0.0;0.0;0.0;0.0
  2.1199999E+00;  9.9999998E-03; -2.3999999E-01;824;0.0;0.0;0.0;1000.0;  4.0000001E-01;0.0;0;0.0;0.0;0.0;0;0.0;  1.0000000E+04;  0.0000000E+00;  0.0000000E+00;  1.0000000E+04;  0.0000000E+00;  1.0000000E+04;0.0;0.0;0.0;0.0
  2.1199999E+00;  9.9999998E-03; -2.2000000E-01;825;0.0;0.0;0.0;1000.0;  4.0000001E-01;0.0;0;0.0;0.0;0.0;0;0.0;  1.0000000E+04;  0.0000000E+00;  0.0000000E+00;  1.0000000E+04;  0.0000000E+00;  1.0000000E+04;0.0;0.0;0.0;0.0
  2.1199999E+00;  9.9999998E-03; -2.0000000E-01;826;0.0;0.0;0.0;1000.0;  4.0000001E-01;0.0;0;0.0;0.0;0.0;0;0.0;  1.0000000E+04;  0.0000000E+00;  0.0000000E+00;  1.0000000E+04;  0.0000000E+00;  1.0000000E+04;0.0;0.0;0.0;0.0
  2.1199999E+00;  9.9999998E-03; -1.8000001E-01;827;0.0;0.0;0.0;1000.0;  4.0000001E-01;0.0;0;0.0;0.0;0.0;0;0.0;  1.0000000E+04;  0.0000000E+00;  0.0000000E+00;  1.0000000E+04;  0.0000000E+00;  1.0000000E+04;0.0;0.0;0.0;0.0
  2.1199999E+00;  9.9999998E-03; -1.6000000E-01;828;0.0;0.0;0.0;1000.0;  4.0000001E-01;0.0;0;0.0;0.0;0.0;0;0.0;  1.0000000E+04;  0.0000000E+00;  0.0000000E+00;  1.0000000E+04;  0.0000000E+00;  1.0000000E+04;0.0;0.0;0.0;0.0
  2.1199999E+00;  9.9999998E-03; -1.4000000E-01;829;0.0;0.0;0.0;1000.0;  4.0000001E-01;0.0;0;0.0;0.0;0.0;0;0.0;  1.0000000E+04;  0.0000000E+00;  0.0000000E+00;  1.0000000E+04;  0.0000000E+00;  1.0000000E+04;0.0;0.0;0.0;0.0
  2.1199999E+00;  9.9999998E-03; -1.2000000E-01;830;0.0;0.0;0.0;1000.0;  4.0000001E-01;0.0;0;0.0;0.0;0.0;0;0.0;  1.0000000E+04;  0.0000000E+00;  0.0000000E+00;  1.0000000E+04;  0.0000000E+00;  1.0000000E+04;0.0;0.0;0.0;0.0
  2.1199999E+00;  9.9999998E-03; -1.0000000E-01;831;0.0;0.0;0.0;1000.0;  4.0000001E-01;0.0;0;0.0;0.0;0.0;0;0.0;  1.0000000E+04;  0.0000000E+00;  0.0000000E+00;  1.0000000E+04;  0.0000000E+00;  1.0000000E+04;0.0;0.0;0.0;0.0
  2.1199999E+00;  9.9999998E-03; -7.9999998E-02;832;0.0;0.0;0.0;1000.0;  4.0000001E-01;0.0;0;0.0;0.0;0.0;0;0.0;  1.0000000E+04;  0.0000000E+00;  0.0000000E+00;  1.0000000E+04;  0.0000000E+00;  1.0000000E+04;0.0;0.0;0.0;0.0
  2.1199999E+00;  9.9999998E-03; -5.9999999E-02;833;0.0;0.0;0.0;1000.0;  4.0000001E-01;0.0;0;0.0;0.0;0.0;0;0.0;  1.0000000E+04;  0.0000000E+00;  0.0000000E+00;  1.0000000E+04;  0.0000000E+00;  1.0000000E+04;0.0;0.0;0.0;0.0
  2.1199999E+00;  9.9999998E-03; -3.9999999E-02;834;0.0;0.0;0.0;1000.0;  4.0000001E-01;0.0;0;0.0;0.0;0.0;0;0.0;  1.0000000E+04;  0.0000000E+00;  0.0000000E+00;  1.0000000E+04;  0.0000000E+00;  1.0000000E+04;0.0;0.0;0.0;0.0
  2.1199999E+00;  9.9999998E-03; -2.0000000E-02;835;0.0;0.0;0.0;1000.0;  4.0000001E-01;0.0;0;0.0;0.0;0.0;0;0.0;  1.0000000E+04;  0.0000000E+00;  0.0000000E+00;  1.0000000E+04;  0.0000000E+00;  1.0000000E+04;0.0;0.0;0.0;0.0
  2.1199999E+00;  9.9999998E-03;  0.0000000E+00;836;0.0;0.0;0.0;1000.0;  4.0000001E-01;0.0;0;0.0;0.0;0.0;0;0.0;  1.0000000E+04;  0.0000000E+00;  0.0000000E+00;  1.0000000E+04;  0.0000000E+00;  1.0000000E+04;0.0;0.0;0.0;0.0
  2.1199999E+00;  9.9999998E-03;  2.0000000E-02;837;0.0;0.0;0.0;1000.0;  4.0000001E-01;0.0;0;0.0;0.0;0.0;0;0.0;  1.0000000E+04;  0.0000000E+00;  0.0000000E+00;  1.0000000E+04;  0.0000000E+00;  1.0000000E+04;0.0;0.0;0.0;0.0
  2.1199999E+00;  9.9999998E-03;  3.9999999E-02;838;0.0;0.0;0.0;1000.0;  4.0000001E-01;0.0;0;0.0;0.0;0.0;0;0.0;  1.0000000E+04;  0.0000000E+00;  0.0000000E+00;  1.0000000E+04;  0.0000000E+00;  1.0000000E+04;0.0;0.0;0.0;0.0
  2.1199999E+00;  9.9999998E-03;  5.9999999E-02;839;0.0;0.0;0.0;1000.0;  4.0000001E-01;0.0;0;0.0;0.0;0.0;0;0.0;  1.0000000E+04;  0.0000000E+00;  0.0000000E+00;  1.0000000E+04;  0.0000000E+00;  1.0000000E+04;0.0;0.0;0.0;0.0
  2.1199999E+00;  9.9999998E-03;  7.9999998E-02;840;0.0;0.0;0.0;1000.0;  4.0000001E-01;0.0;0;0.0;0.0;0.0;0;0.0;  1.0000000E+04;  0.0000000E+00;  0.0000000E+00;  1.0000000E+04;  0.0000000E+00;  1.0000000E+04;0.0;0.0;0.0;0.0
  2.1199999E+00;  9.9999998E-03;  1.0000000E-01;841;0.0;0.0;0.0;1000.0;  4.0000001E-01;0.0;0;0.0;0.0;0.0;0;0.0;  1.0000000E+04;  0.0000000E+00;  0.0000000E+00;  1.0000000E+04;  0.0000000E+00;  1.0000000E+04;0.0;0.0;0.0;0.0
  2.1199999E+00;  9.9999998E-03;  1.2000000E-01;842;0.0;0.0;0.0;1000.0;  4.0000001E-01;0.0;0;0.0;0.0;0.0;0;0.0;  1.0000000E+04;  0.0000000E+00;  0.0000000E+00;  1.0000000E+04;  0.0000000E+00;  1.0000000E+04;0.0;0.0;0.0;0.0
  2.1199999E+00;  9.9999998E-03;  1.4000000E-01;843;0.0;0.0;0.0;1000.0;  4.0000001E-01;0.0;0;0.0;0.0;0.0;0;0.0;  1.0000000E+04;  0.0000000E+00;  0.0000000E+00;  1.0000000E+04;  0.0000000E+00;  1.0000000E+04;0.0;0.0;0.0;0.0
  2.1199999E+00;  9.9999998E-03;  1.6000000E-01;844;0.0;0.0;0.0;1000.0;  4.0000001E-01;0.0;0;0.0;0.0;0.0;0;0.0;  1.0000000E+04;  0.0000000E+00;  0.0000000E+00;  1.0000000E+04;  0.0000000E+00;  1.0000000E+04;0.0;0.0;0.0;0.0
  2.1199999E+00;  9.9999998E-03;  1.8000001E-01;845;0.0;0.0;0.0;1000.0;  4.0000001E-01;0.0;0;0.0;0.0;0.0;0;0.0;  1.0000000E+04;  0.0000000E+00;  0.0000000E+00;  1.0000000E+04;  0.0000000E+00;  1.0000000E+04;0.0;0.0;0.0;0.0
  2.1199999E+00;  9.9999998E-03;  2.0000000E-01;846;0.0;0.0;0.0;1000.0;  4.0000001E-01;0.0;0;0.0;0.0;0.0;0;0.0;  1.0000000E+04;  0.0000000E+00;  0.0000000E+00;  1.0000000E+04;  0.0000000E+00;  1.0000000E+04;0.0;0.0;0.0;0.0
  2.1199999E+00;  9.9999998E-03;  2.2000000E-01;847;0.0;0.0;0.0;1000.0;  4.0000001E-01;0.0;0;0.0;0.0;0.0;0;0.0;  1.0000000E+04;  0.0000000E+00;  0.0000000E+00;  1.0000000E+04;  0.0000000E+00;  1.0000000E+04;0.0;0.0;0.0;0.0
  2.1199999E+00;  9.9999998E-03;  2.3999999E-01;848;0.0;0.0;0.0;1000.0;  4.0000001E-01;0.0;0;0.0;0.0;0.0;0;0.0;  1.0000000E+04;  0.0000000E+00;  0.0000000E+00;  1.0000000E+04;  0.0000000E+00;  1.0000000E+04;0.0;0.0;0.0;0.0
  2.1199999E+00;  9.9999998E-03;  2.5999999E-01;849;0.0;0.0;0.0;1000.0;  4.0000001E-01;0.0;0;0.0;0.0;0.0;0;0.0;  1.0000000E+04;  0.0000000E+00;  0.0000000E+00;  1.0000000E+04;  0.0000000E+00;  1.0000000E+04;0.0;0.0;0.0;0.0
  2.1199999E+00;  9.9999998E-03;  2.8000000E-01;850;0.0;0.0;0.0;1000.0;  4.0000001E-01;0.0;0;0.0;0.0;0.0;0;0.0;  1.0000000E+04;  0.0000000E+00;  0.0000000E+00;  1.0000000E+04;  0.0000000E+00;  1.0000000E+04;0.0;0.0;0.0;0.0
  2.1199999E+00;  9.9999998E-03;  3.0000001E-01;851;0.0;0.0;0.0;1000.0;  4.0000001E-01;0.0;0;0.0;0.0;0.0;0;0.0;  1.0000000E+04;  0.0000000E+00;  0.0000000E+00;  1.0000000E+04;  0.0000000E+00;  1.0000000E+04;0.0;0.0;0.0;0.0
  2.1199999E+00;  9.9999998E-03;  3.1999999E-01;852;0.0;0.0;0.0;1000.0;  4.0000001E-01;0.0;0;0.0;0.0;0.0;0;0.0;  1.0000000E+04;  0.0000000E+00;  0.0000000E+00;  1.0000000E+04;  0.0000000E+00;  1.0000000E+04;0.0;0.0;0.0;0.0
  2.1199999E+00;  9.9999998E-03;  3.4000000E-01;853;0.0;0.0;0.0;1000.0;  4.0000001E-01;0.0;0;0.0;0.0;0.0;0;0.0;  1.0000000E+04;  0.0000000E+00;  0.0000000E+00;  1.0000000E+04;  0.0000000E+00;  1.0000000E+04;0.0;0.0;0.0;0.0
  2.1199999E+00;  9.9999998E-03;  3.6000001E-01;854;0.0;0.0;0.0;1000.0;  4.0000001E-01;0.0;0;0.0;0.0;0.0;0;0.0;  1.0000000E+04;  0.0000000E+00;  0.0000000E+00;  1.0000000E+04;  0.0000000E+00;  1.0000000E+04;0.0;0.0;0.0;0.0
  2.1199999E+00;  9.9999998E-03;  3.8000000E-01;855;0.0;0.0;0.0;1000.0;  4.0000001E-01;0.0;0;0.0;0.0;0.0;0;0.0;  1.0000000E+04;  0.0000000E+00;  0.0000000E+00;  1.0000000E+04;  0.0000000E+00;  1.0000000E+04;0.0;0.0;0.0;0.0
  2.1199999E+00;  9.9999998E-03;  4.0000001E-01;856;0.0;0.0;0.0;1000.0;  4.0000001E-01;0.0;0;0.0;0.0;0.0;0;0.0;  1.0000000E+04;  0.0000000E+00;  0.0000000E+00;  1.0000000E+04;  0.0000000E+00;  1.0000000E+04;0.0;0.0;0.0;0.0
  2.1400001E+00;  9.9999998E-03; -3.8000000E-01;857;0.0;0.0;0.0;1000.0;  4.0000001E-01;0.0;0;0.0;0.0;0.0;0;0.0;  1.0000000E+04;  0.0000000E+00;  0.0000000E+00;  1.0000000E+04;  0.0000000E+00;  1.0000000E+04;0.0;0.0;0.0;0.0
  2.1400001E+00;  9.9999998E-03; -3.6000001E-01;858;0.0;0.0;0.0;1000.0;  4.0000001E-01;0.0;0;0.0;0.0;0.0;0;0.0;  1.0000000E+04;  0.0000000E+00;  0.0000000E+00;  1.0000000E+04;  0.0000000E+00;  1.0000000E+04;0.0;0.0;0.0;0.0
  2.1400001E+00;  9.9999998E-03; -3.4000000E-01;859;0.0;0.0;0.0;1000.0;  4.0000001E-01;0.0;0;0.0;0.0;0.0;0;0.0;  1.0000000E+04;  0.0000000E+00;  0.0000000E+00;  1.0000000E+04;  0.0000000E+00;  1.0000000E+04;0.0;0.0;0.0;0.0
  2.1400001E+00;  9.9999998E-03; -3.1999999E-01;860;0.0;0.0;0.0;1000.0;  4.0000001E-01;0.0;0;0.0;0.0;0.0;0;0.0;  1.0000000E+04;  0.0000000E+00;  0.0000000E+00;  1.0000000E+04;  0.0000000E+00;  1.0000000E+04;0.0;0.0;0.0;0.0
  2.1400001E+00;  9.9999998E-03; -3.0000001E-01;861;0.0;0.0;0.0;1000.0;  4.0000001E-01;0.0;0;0.0;0.0;0.0;0;0.0;  1.0000000E+04;  0.0000000E+00;  0.0000000E+00;  1.0000000E+04;  0.0000000E+00;  1.0000000E+04;0.0;0.0;0.0;0.0
  2.1400001E+00;  9.9999998E-03; -2.8000000E-01;862;0.0;0.0;0.0;1000.0;  4.0000001E-01;0.0;0;0.0;0.0;0.0;0;0.0;  1.0000000E+04;  0.0000000E+00;  0.0000000E+00;  1.0000000E+04;  0.0000000E+00;  1.0000000E+04;0.0;0.0;0.0;0.0
  2.1400001E+00;  9.9999998E-03; -2.5999999E-01;863;0.0;0.0;0.0;1000.0;  4.0000001E-01;0.0;0;0.0;0.0;0.0;0;0.0;  1.0000000E+04;  0.0000000E+00;  0.0000000E+00;  1.0000000E+04;  0.0000000E+00;  1.0000000E+04;0.0;0.0;0.0;0.0
  2.1400001E+00;  9.9999998E-03; -2.3999999E-01;864;0.0;0.0;0.0;1000.0;  4.0000001E-01;0.0;0;0.0;0.0;0.0;0;0.0;  1.0000000E+04;  0.0000000E+00;  0.0000000E+00;  1.0000000E+04;  0.0000000E+00;  1.0000000E+04;0.0;0.0;0.0;0.0
  2.1400001E+00;  9.9999998E-03; -2.2000000E-01;865;0.0;0.0;0.0;1000.0;  4.0000001E-01;0.0;0;0.0;0.0;0.0;0;0.0;  1.0000000E+04;  0.0000000E+00;  0.0000000E+00;  1.0000000E+04;  0.0000000E+00;  1.0000000E+04;0.0;0.0;0.0;0.0
  2.1400001E+00;  9.9999998E-03; -2.0000000E-01;866;0.0;0.0;0.0;1000.0;  4.0000001E-01;0.0;0;0.0;0.0;0.0;0;0.0;  1.0000000E+04;  0.0000000E+00;  0.0000000E+00;  1.0000000E+04;  0.0000000E+00;  1.0000000E+04;0.0;0.0;0.0;0.0
  2.1400001E+00;  9.9999998E-03; -1.8000001E-01;867;0.0;0.0;0.0;1000.0;  4.0000001E-01;0.0;0;0.0;0.0;0.0;0;0.0;  1.0000000E+04;  0.0000000E+00;  0.0000000E+00;  1.0000000E+04;  0.0000000E+00;  1.0000000E+04;0.0;0.0;0.0;0.0
  2.1400001E+00;  9.9999998E-03; -1.6000000E-01;868;0.0;0.0;0.0;1000.0;  4.0000001E-01;0.0;0;0.0;0.0;0.0;0;0.0;  1.0000000E+04;  0.0000000E+00;  0.0000000E+00;  1.0000000E+04;  0.0000000E+00;  1.0000000E+04;0.0;0.0;0.0;0.0
  2.1400001E+00;  9.9999998E-03; -1.4000000E-01;869;0.0;0.0;0.0;1000.0;  4.0000001E-01;0.0;0;0.0;0.0;0.0;0;0.0;  1.0000000E+04;  0.0000000E+00;  0.0000000E+00;  1.0000000E+04;  0.0000000E+00;  1.0000000E+04;0.0;0.0;0.0;0.0
  2.1400001E+00;  9.9999998E-03; -1.2000000E-01;870;0.0;0.0;0.0;1000.0;  4.0000001E-01;0.0;0;0.0;0.0;0.0;0;0.0;  1.0000000E+04;  0.0000000E+00;  0.0000000E+00;  1.0000000E+04;  0.0000000E+00;  1.0000000E+04;0.0;0.0;0.0;0.0
  2.1400001E+00;  9.9999998E-03; -1.0000000E-01;871;0.0;0.0;0.0;1000.0;  4.0000001E-01;0.0;0;0.0;0.0;0.0;0;0.0;  1.0000000E+04;  0.0000000E+00;  0.0000000E+00;  1.0000000E+04;  0.0000000E+00;  1.0000000E+04;0.0;0.0;0.0;0.0
  2.1400001E+00;  9.9999998E-03; -7.9999998E-02;872;0.0;0.0;0.0;1000.0;  4.0000001E-01;0.0;0;0.0;0.0;0.0;0;0.0;  1.0000000E+04;  0.0000000E+00;  0.0000000E+00;  1.0000000E+04;  0.0000000E+00;  1.0000000E+04;0.0;0.0;0.0;0.0
  2.1400001E+00;  9.9999998E-03; -5.9999999E-02;873;0.0;0.0;0.0;1000.0;  4.0000001E-01;0.0;0;0.0;0.0;0.0;0;0.0;  1.0000000E+04;  0.0000000E+00;  0.0000000E+00;  1.0000000E+04;  0.0000000E+00;  1.0000000E+04;0.0;0.0;0.0;0.0
  2.1400001E+00;  9.9999998E-03; -3.9999999E-02;874;0.0;0.0;0.0;1000.0;  4.0000001E-01;0.0;0;0.0;0.0;0.0;0;0.0;  1.0000000E+04;  0.0000000E+00;  0.0000000E+00;  1.0000000E+04;  0.0000000E+00;  1.0000000E+04;0.0;0.0;0.0;0.0
  2.1400001E+00;  9.9999998E-03; -2.0000000E-02;875;0.0;0.0;0.0;1000.0;  4.0000001E-01;0.0;0;0.0;0.0;0.0;0;0.0;  1.0000000E+04;  0.0000000E+00;  0.0000000E+00;  1.0000000E+04;  0.0000000E+00;  1.0000000E+04;0.0;0.0;0.0;0.0
  2.1400001E+00;  9.9999998E-03;  0.0000000E+00;876;0.0;0.0;0.0;1000.0;  4.0000001E-01;0.0;0;0.0;0.0;0.0;0;0.0;  1.0000000E+04;  0.0000000E+00;  0.0000000E+00;  1.0000000E+04;  0.0000000E+00;  1.0000000E+04;0.0;0.0;0.0;0.0
  2.1400001E+00;  9.9999998E-03;  2.0000000E-02;877;0.0;0.0;0.0;1000.0;  4.0000001E-01;0.0;0;0.0;0.0;0.0;0;0.0;  1.0000000E+04;  0.0000000E+00;  0.0000000E+00;  1.0000000E+04;  0.0000000E+00;  1.0000000E+04;0.0;0.0;0.0;0.0
  2.1400001E+00;  9.9999998E-03;  3.9999999E-02;878;0.0;0.0;0.0;1000.0;  4.0000001E-01;0.0;0;0.0;0.0;0.0;0;0.0;  1.0000000E+04;  0.0000000E+00;  0.0000000E+00;  1.0000000E+04;  0.0000000E+00;  1.0000000E+04;0.0;0.0;0.0;0.0
  2.1400001E+00;  9.9999998E-03;  5.9999999E-02;879;0.0;0.0;0.0;1000.0;  4.0000001E-01;0.0;0;0.0;0.0;0.0;0;0.0;  1.0000000E+04;  0.0000000E+00;  0.0000000E+00;  1.0000000E+04;  0.0000000E+00;  1.0000000E+04;0.0;0.0;0.0;0.0
  2.1400001E+00;  9.9999998E-03;  7.9999998E-02;880;0.0;0.0;0.0;1000.0;  4.0000001E-01;0.0;0;0.0;0.0;0.0;0;0.0;  1.0000000E+04;  0.0000000E+00;  0.0000000E+00;  1.0000000E+04;  0.0000000E+00;  1.0000000E+04;0.0;0.0;0.0;0.0
  2.1400001E+00;  9.9999998E-03;  1.0000000E-01;881;0.0;0.0;0.0;1000.0;  4.0000001E-01;0.0;0;0.0;0.0;0.0;0;0.0;  1.0000000E+04;  0.0000000E+00;  0.0000000E+00;  1.0000000E+04;  0.0000000E+00;  1.0000000E+04;0.0;0.0;0.0;0.0
  2.1400001E+00;  9.9999998E-03;  1.2000000E-01;882;0.0;0.0;0.0;1000.0;  4.0000001E-01;0.0;0;0.0;0.0;0.0;0;0.0;  1.0000000E+04;  0.0000000E+00;  0.0000000E+00;  1.0000000E+04;  0.0000000E+00;  1.0000000E+04;0.0;0.0;0.0;0.0
  2.1400001E+00;  9.9999998E-03;  1.4000000E-01;883;0.0;0.0;0.0;1000.0;  4.0000001E-01;0.0;0;0.0;0.0;0.0;0;0.0;  1.0000000E+04;  0.0000000E+00;  0.0000000E+00;  1.0000000E+04;  0.0000000E+00;  1.0000000E+04;0.0;0.0;0.0;0.0
  2.1400001E+00;  9.9999998E-03;  1.6000000E-01;884;0.0;0.0;0.0;1000.0;  4.0000001E-01;0.0;0;0.0;0.0;0.0;0;0.0;  1.0000000E+04;  0.0000000E+00;  0.0000000E+00;  1.0000000E+04;  0.0000000E+00;  1.0000000E+04;0.0;0.0;0.0;0.0
  2.1400001E+00;  9.9999998E-03;  1.8000001E-01;885;0.0;0.0;0.0;1000.0;  4.0000001E-01;0.0;0;0.0;0.0;0.0;0;0.0;  1.0000000E+04;  0.0000000E+00;  0.0000000E+00;  1.0000000E+04;  0.0000000E+00;  1.0000000E+04;0.0;0.0;0.0;0.0
  2.1400001E+00;  9.9999998E-03;  2.0000000E-01;886;0.0;0.0;0.0;1000.0;  4.0000001E-01;0.0;0;0.0;0.0;0.0;0;0.0;  1.0000000E+04;  0.0000000E+00;  0.0000000E+00;  1.0000000E+04;  0.0000000E+00;  1.0000000E+04;0.0;0.0;0.0;0.0
  2.1400001E+00;  9.9999998E-03;  2.2000000E-01;887;0.0;0.0;0.0;1000.0;  4.0000001E-01;0.0;0;0.0;0.0;0.0;0;0.0;  1.0000000E+04;  0.0000000E+00;  0.0000000E+00;  1.0000000E+04;  0.0000000E+00;  1.0000000E+04;0.0;0.0;0.0;0.0
  2.1400001E+00;  9.9999998E-03;  2.3999999E-01;888;0.0;0.0;0.0;1000.0;  4.0000001E-01;0.0;0;0.0;0.0;0.0;0;0.0;  1.0000000E+04;  0.0000000E+00;  0.0000000E+00;  1.0000000E+04;  0.0000000E+00;  1.0000000E+04;0.0;0.0;0.0;0.0
  2.1400001E+00;  9.9999998E-03;  2.5999999E-01;889;0.0;0.0;0.0;1000.0;  4.0000001E-01;0.0;0;0.0;0.0;0.0;0;0.0;  1.0000000E+04;  0.0000000E+00;  0.0000000E+00;  1.0000000E+04;  0.0000000E+00;  1.0000000E+04;0.0;0.0;0.0;0.0
  2.1400001E+00;  9.9999998E-03;  2.8000000E-01;890;0.0;0.0;0.0;1000.0;  4.0000001E-01;0.0;0;0.0;0.0;0.0;0;0.0;  1.0000000E+04;  0.0000000E+00;  0.0000000E+00;  1.0000000E+04;  0.0000000E+00;  1.0000000E+04;0.0;0.0;0.0;0.0
  2.1400001E+00;  9.9999998E-03;  3.0000001E-01;891;0.0;0.0;0.0;1000.0;  4.0000001E-01;0.0;0;0.0;0.0;0.0;0;0.0;  1.0000000E+04;  0.0000000E+00;  0.0000000E+00;  1.0000000E+04;  0.0000000E+00;  1.0000000E+04;0.0;0.0;0.0;0.0
  2.1400001E+00;  9.9999998E-03;  3.1999999E-01;892;0.0;0.0;0.0;1000.0;  4.0000001E-01;0.0;0;0.0;0.0;0.0;0;0.0;  1.0000000E+04;  0.0000000E+00;  0.0000000E+00;  1.0000000E+04;  0.0000000E+00;  1.0000000E+04;0.0;0.0;0.0;0.0
  2.1400001E+00;  9.9999998E-03;  3.4000000E-01;893;0.0;0.0;0.0;1000.0;  4.0000001E-01;0.0;0;0.0;0.0;0.0;0;0.0;  1.0000000E+04;  0.0000000E+00;  0.0000000E+00;  1.0000000E+04;  0.0000000E+00;  1.0000000E+04;0.0;0.0;0.0;0.0
  2.1400001E+00;  9.9999998E-03;  3.6000001E-01;894;0.0;0.0;0.0;1000.0;  4.0000001E-01;0.0;0;0.0;0.0;0.0;0;0.0;  1.0000000E+04;  0.0000000E+00;  0.0000000E+00;  1.0000000E+04;  0.0000000E+00;  1.0000000E+04;0.0;0.0;0.0;0.0
  2.1400001E+00;  9.9999998E-03;  3.8000000E-01;895;0.0;0.0;0.0;1000.0;  4.0000001E-01;0.0;0;0.0;0.0;0.0;0;0.0;  1.0000000E+04;  0.0000000E+00;  0.0000000E+00;  1.0000000E+04;  0.0000000E+00;  1.0000000E+04;0.0;0.0;0.0;0.0
  2.1400001E+00;  9.9999998E-03;  4.0000001E-01;896;0.0;0.0;0.0;1000.0;  4.0000001E-01;0.0;0;0.0;0.0;0.0;0;0.0;  1.0000000E+04;  0.0000000E+00;  0.0000000E+00;  1.0000000E+04;  0.0000000E+00;  1.0000000E+04;0.0;0.0;0.0;0.0
  2.1600001E+00;  9.9999998E-03; -2.8000000E-01;897;0.0;0.0;0.0;1000.0;  4.0000001E-01;0.0;0;0.0;0.0;0.0;0;0.0;  1.0000000E+04;  0.0000000E+00;  0.0000000E+00;  1.0000000E+04;  0.0000000E+00;  1.0000000E+04;0.0;0.0;0.0;0.0
  2.1600001E+00;  9.9999998E-03; -2.5999999E-01;898;0.0;0.0;0.0;1000.0;  4.0000001E-01;0.0;0;0.0;0.0;0.0;0;0.0;  1.0000000E+04;  0.0000000E+00;  0.0000000E+00;  1.0000000E+04;  0.0000000E+00;  1.0000000E+04;0.0;0.0;0.0;0.0
  2.1600001E+00;  9.9999998E-03; -2.3999999E-01;899;0.0;0.0;0.0;1000.0;  4.0000001E-01;0.0;0;0.0;0.0;0.0;0;0.0;  1.0000000E+04;  0.0000000E+00;  0.0000000E+00;  1.0000000E+04;  0.0000000E+00;  1.0000000E+04;0.0;0.0;0.0;0.0
  2.1600001E+00;  9.9999998E-03; -2.2000000E-01;900;0.0;0.0;0.0;1000.0;  4.0000001E-01;0.0;0;0.0;0.0;0.0;0;0.0;  1.0000000E+04;  0.0000000E+00;  0.0000000E+00;  1.0000000E+04;  0.0000000E+00;  1.0000000E+04;0.0;0.0;0.0;0.0
  2.1600001E+00;  9.9999998E-03; -2.0000000E-01;901;0.0;0.0;0.0;1000.0;  4.0000001E-01;0.0;0;0.0;0.0;0.0;0;0.0;  1.0000000E+04;  0.0000000E+00;  0.0000000E+00;  1.0000000E+04;  0.0000000E+00;  1.0000000E+04;0.0;0.0;0.0;0.0
  2.1600001E+00;  9.9999998E-03; -1.8000001E-01;902;0.0;0.0;0.0;1000.0;  4.0000001E-01;0.0;0;0.0;0.0;0.0;0;0.0;  1.0000000E+04;  0.0000000E+00;  0.0000000E+00;  1.0000000E+04;  0.0000000E+00;  1.0000000E+04;0.0;0.0;0.0;0.0
  2.1600001E+00;  9.9999998E-03; -1.6000000E-01;903;0.0;0.0;0.0;1000.0;  4.0000001E-01;0.0;0;0.0;0.0;0.0;0;0.0;  1.0000000E+04;  0.0000000E+00;  0.0000000E+00;  1.0000000E+04;  0.0000000E+00;  1.0000000E+04;0.0;0.0;0.0;0.0
  2.1600001E+00;  9.9999998E-03; -1.4000000E-01;904;0.0;0.0;0.0;1000.0;  4.0000001E-01;0.0;0;0.0;0.0;0.0;0;0.0;  1.0000000E+04;  0.0000000E+00;  0.0000000E+00;  1.0000000E+04;  0.0000000E+00;  1.0000000E+04;0.0;0.0;0.0;0.0
  2.1600001E+00;  9.9999998E-03; -1.2000000E-01;905;0.0;0.0;0.0;1000.0;  4.0000001E-01;0.0;0;0.0;0.0;0.0;0;0.0;  1.0000000E+04;  0.0000000E+00;  0.0000000E+00;  1.0000000E+04;  0.0000000E+00;  1.0000000E+04;0.0;0.0;0.0;0.0
  2.1600001E+00;  9.9999998E-03; -1.0000000E-01;906;0.0;0.0;0.0;1000.0;  4.0000001E-01;0.0;0;0.0;0.0;0.0;0;0.0;  1.0000000E+04;  0.0000000E+00;  0.0000000E+00;  1.0000000E+04;  0.0000000E+00;  1.0000000E+04;0.0;0.0;0.0;0.0
  2.1600001E+00;  9.9999998E-03; -7.9999998E-02;907;0.0;0.0;0.0;1000.0;  4.0000001E-01;0.0;0;0.0;0.0;0.0;0;0.0;  1.0000000E+04;  0.0000000E+00;  0.0000000E+00;  1.0000000E+04;  0.0000000E+00;  1.0000000E+04;0.0;0.0;0.0;0.0
  2.1600001E+00;  9.9999998E-03; -5.9999999E-02;908;0.0;0.0;0.0;1000.0;  4.0000001E-01;0.0;0;0.0;0.0;0.0;0;0.0;  1.0000000E+04;  0.0000000E+00;  0.0000000E+00;  1.0000000E+04;  0.0000000E+00;  1.0000000E+04;0.0;0.0;0.0;0.0
  2.1600001E+00;  9.9999998E-03; -3.9999999E-02;909;0.0;0.0;0.0;1000.0;  4.0000001E-01;0.0;0;0.0;0.0;0.0;0;0.0;  1.0000000E+04;  0.0000000E+00;  0.0000000E+00;  1.0000000E+04;  0.0000000E+00;  1.0000000E+04;0.0;0.0;0.0;0.0
  2.1600001E+00;  9.9999998E-03; -2.0000000E-02;910;0.0;0.0;0.0;1000.0;  4.0000001E-01;0.0;0;0.0;0.0;0.0;0;0.0;  1.0000000E+04;  0.0000000E+00;  0.0000000E+00;  1.0000000E+04;  0.0000000E+00;  1.0000000E+04;0.0;0.0;0.0;0.0
  2.1600001E+00;  9.9999998E-03;  0.0000000E+00;911;0.0;0.0;0.0;1000.0;  4.0000001E-01;0.0;0;0.0;0.0;0.0;0;0.0;  1.0000000E+04;  0.0000000E+00;  0.0000000E+00;  1.0000000E+04;  0.0000000E+00;  1.0000000E+04;0.0;0.0;0.0;0.0
  2.1600001E+00;  9.9999998E-03;  2.0000000E-02;912;0.0;0.0;0.0;1000.0;  4.0000001E-01;0.0;0;0.0;0.0;0.0;0;0.0;  1.0000000E+04;  0.0000000E+00;  0.0000000E+00;  1.0000000E+04;  0.0000000E+00;  1.0000000E+04;0.0;0.0;0.0;0.0
  2.1600001E+00;  9.9999998E-03;  3.9999999E-02;913;0.0;0.0;0.0;1000.0;  4.0000001E-01;0.0;0;0.0;0.0;0.0;0;0.0;  1.0000000E+04;  0.0000000E+00;  0.0000000E+00;  1.0000000E+04;  0.0000000E+00;  1.0000000E+04;0.0;0.0;0.0;0.0
  2.1600001E+00;  9.9999998E-03;  5.9999999E-02;914;0.0;0.0;0.0;1000.0;  4.0000001E-01;0.0;0;0.0;0.0;0.0;0;0.0;  1.0000000E+04;  0.0000000E+00;  0.0000000E+00;  1.0000000E+04;  0.0000000E+00;  1.0000000E+04;0.0;0.0;0.0;0.0
  2.1600001E+00;  9.9999998E-03;  7.9999998E-02;915;0.0;0.0;0.0;1000.0;  4.0000001E-01;0.0;0;0.0;0.0;0.0;0;0.0;  1.0000000E+04;  0.0000000E+00;  0.0000000E+00;  1.0000000E+04;  0.0000000E+00;  1.0000000E+04;0.0;0.0;0.0;0.0
  2.1600001E+00;  9.9999998E-03;  1.0000000E-01;916;0.0;0.0;0.0;1000.0;  4.0000001E-01;0.0;0;0.0;0.0;0.0;0;0.0;  1.0000000E+04;  0.0000000E+00;  0.0000000E+00;  1.0000000E+04;  0.0000000E+00;  1.0000000E+04;0.0;0.0;0.0;0.0
  2.1600001E+00;  9.9999998E-03;  1.2000000E-01;917;0.0;0.0;0.0;1000.0;  4.0000001E-01;0.0;0;0.0;0.0;0.0;0;0.0;  1.0000000E+04;  0.0000000E+00;  0.0000000E+00;  1.0000000E+04;  0.0000000E+00;  1.0000000E+04;0.0;0.0;0.0;0.0
  2.1600001E+00;  9.9999998E-03;  1.4000000E-01;918;0.0;0.0;0.0;1000.0;  4.0000001E-01;0.0;0;0.0;0.0;0.0;0;0.0;  1.0000000E+04;  0.0000000E+00;  0.0000000E+00;  1.0000000E+04;  0.0000000E+00;  1.0000000E+04;0.0;0.0;0.0;0.0
  2.1600001E+00;  9.9999998E-03;  1.6000000E-01;919;0.0;0.0;0.0;1000.0;  4.0000001E-01;0.0;0;0.0;0.0;0.0;0;0.0;  1.0000000E+04;  0.0000000E+00;  0.0000000E+00;  1.0000000E+04;  0.0000000E+00;  1.0000000E+04;0.0;0.0;0.0;0.0
  2.1600001E+00;  9.9999998E-03;  1.8000001E-01;920;0.0;0.0;0.0;1000.0;  4.0000001E-01;0.0;0;0.0;0.0;0.0;0;0.0;  1.0000000E+04;  0.0000000E+00;  0.0000000E+00;  1.0000000E+04;  0.0000000E+00;  1.0000000E+04;0.0;0.0;0.0;0.0
  2.1600001E+00;  9.9999998E-03;  2.0000000E-01;921;0.0;0.0;0.0;1000.0;  4.0000001E-01;0.0;0;0.0;0.0;0.0;0;0.0;  1.0000000E+04;  0.0000000E+00;  0.0000000E+00;  1.0000000E+04;  0.0000000E+00;  1.0000000E+04;0.0;0.0;0.0;0.0
  2.1600001E+00;  9.9999998E-03;  2.2000000E-01;922;0.0;0.0;0.0;1000.0;  4.0000001E-01;0.0;0;0.0;0.0;0.0;0;0.0;  1.0000000E+04;  0.0000000E+00;  0.0000000E+00;  1.0000000E+04;  0.0000000E+00;  1.0000000E+04;0.0;0.0;0.0;0.0
  2.1600001E+00;  9.9999998E-03;  2.3999999E-01;923;0.0;0.0;0.0;1000.0;  4.0000001E-01;0.0;0;0.0;0.0;0.0;0;0.0;  1.0000000E+04;  0.0000000E+00;  0.0000000E+00;  1.0000000E+04;  0.0000000E+00;  1.0000000E+04;0.0;0.0;0.0;0.0
  2.1600001E+00;  9.9999998E-03;  2.5999999E-01;924;0.0;0.0;0.0;1000.0;  4.0000001E-01;0.0;0;0.0;0.0;0.0;0;0.0;  1.0000000E+04;  0.0000000E+00;  0.0000000E+00;  1.0000000E+04;  0.0000000E+00;  1.0000000E+04;0.0;0.0;0.0;0.0
  2.1600001E+00;  9.9999998E-03;  2.8000000E-01;925;0.0;0.0;0.0;1000.0;  4.0000001E-01;0.0;0;0.0;0.0;0.0;0;0.0;  1.0000000E+04;  0.0000000E+00;  0.0000000E+00;  1.0000000E+04;  0.0000000E+00;  1.0000000E+04;0.0;0.0;0.0;0.0
  2.1600001E+00;  9.9999998E-03;  3.0000001E-01;926;0.0;0.0;0.0;1000.0;  4.0000001E-01;0.0;0;0.0;0.0;0.0;0;0.0;  1.0000000E+04;  0.0000000E+00;  0.0000000E+00;  1.0000000E+04;  0.0000000E+00;  1.0000000E+04;0.0;0.0;0.0;0.0
  2.1600001E+00;  9.9999998E-03;  3.1999999E-01;927;0.0;0.0;0.0;1000.0;  4.0000001E-01;0.0;0;0.0;0.0;0.0;0;0.0;  1.0000000E+04;  0.0000000E+00;  0.0000000E+00;  1.0000000E+04;  0.0000000E+00;  1.0000000E+04;0.0;0.0;0.0;0.0
  2.1600001E+00;  9.9999998E-03;  3.4000000E-01;928;0.0;0.0;0.0;1000.0;  4.0000001E-01;0.0;0;0.0;0.0;0.0;0;0.0;  1.0000000E+04;  0.0000000E+00;  0.0000000E+00;  1.0000000E+04;  0.0000000E+00;  1.0000000E+04;0.0;0.0;0.0;0.0
  2.1600001E+00;  9.9999998E-03;  3.6000001E-01;929;0.0;0.0;0.0;1000.0;  4.0000001E-01;0.0;0;0.0;0.0;0.0;0;0.0;  1.0000000E+04;  0.0000000E+00;  0.0000000E+00;  1.0000000E+04;  0.0000000E+00;  1.0000000E+04;0.0;0.0;0.0;0.0
  2.1600001E+00;  9.9999998E-03;  3.8000000E-01;930;0.0;0.0;0.0;1000.0;  4.0000001E-01;0.0;0;0.0;0.0;0.0;0;0.0;  1.0000000E+04;  0.0000000E+00;  0.0000000E+00;  1.0000000E+04;  0.0000000E+00;  1.0000000E+04;0.0;0.0;0.0;0.0
  2.1600001E+00;  9.9999998E-03;  4.0000001E-01;931;0.0;0.0;0.0;1000.0;  4.0000001E-01;0.0;0;0.0;0.0;0.0;0;0.0;  1.0000000E+04;  0.0000000E+00;  0.0000000E+00;  1.0000000E+04;  0.0000000E+00;  1.0000000E+04;0.0;0.0;0.0;0.0
  2.1800001E+00;  9.9999998E-03; -1.8000001E-01;932;0.0;0.0;0.0;1000.0;  4.0000001E-01;0.0;0;0.0;0.0;0.0;0;0.0;  1.0000000E+04;  0.0000000E+00;  0.0000000E+00;  1.0000000E+04;  0.0000000E+00;  1.0000000E+04;0.0;0.0;0.0;0.0
  2.1800001E+00;  9.9999998E-03; -1.6000000E-01;933;0.0;0.0;0.0;1000.0;  4.0000001E-01;0.0;0;0.0;0.0;0.0;0;0.0;  1.0000000E+04;  0.0000000E+00;  0.0000000E+00;  1.0000000E+04;  0.0000000E+00;  1.0000000E+04;0.0;0.0;0.0;0.0
  2.1800001E+00;  9.9999998E-03; -1.4000000E-01;934;0.0;0.0;0.0;1000.0;  4.0000001E-01;0.0;0;0.0;0.0;0.0;0;0.0;  1.0000000E+04;  0.0000000E+00;  0.0000000E+00;  1.0000000E+04;  0.0000000E+00;  1.0000000E+04;0.0;0.0;0.0;0.0
  2.1800001E+00;  9.9999998E-03; -1.2000000E-01;935;0.0;0.0;0.0;1000.0;  4.0000001E-01;0.0;0;0.0;0.0;0.0;0;0.0;  1.0000000E+04;  0.0000000E+00;  0.0000000E+00;  1.0000000E+04;  0.0000000E+00;  1.0000000E+04;0.0;0.0;0.0;0.0
  2.1800001E+00;  9.9999998E-03; -1.0000000E-01;936;0.0;0.0;0.0;1000.0;  4.0000001E-01;0.0;0;0.0;0.0;0.0;0;0.0;  1.0000000E+04;  0.0000000E+00;  0.0000000E+00;  1.0000000E+04;  0.0000000E+00;  1.0000000E+04;0.0;0.0;0.0;0.0
  2.1800001E+00;  9.9999998E-03; -7.9999998E-02;937;0.0;0.0;0.0;1000.0;  4.0000001E-01;0.0;0;0.0;0.0;0.0;0;0.0;  1.0000000E+04;  0.0000000E+00;  0.0000000E+00;  1.0000000E+04;  0.0000000E+00;  1.0000000E+04;0.0;0.0;0.0;0.0
  2.1800001E+00;  9.9999998E-03; -5.9999999E-02;938;0.0;0.0;0.0;1000.0;  4.0000001E-01;0.0;0;0.0;0.0;0.0;0;0.0;  1.0000000E+04;  0.0000000E+00;  0.0000000E+00;  1.0000000E+04;  0.0000000E+00;  1.0000000E+04;0.0;0.0;0.0;0.0
  2.1800001E+00;  9.9999998E-03; -3.9999999E-02;939;0.0;0.0;0.0;1000.0;  4.0000001E-01;0.0;0;0.0;0.0;0.0;0;0.0;  1.0000000E+04;  0.0000000E+00;  0.0000000E+00;  1.0000000E+04;  0.0000000E+00;  1.0000000E+04;0.0;0.0;0.0;0.0
  2.1800001E+00;  9.9999998E-03; -2.0000000E-02;940;0.0;0.0;0.0;1000.0;  4.0000001E-01;0.0;0;0.0;0.0;0.0;0;0.0;  1.0000000E+04;  0.0000000E+00;  0.0000000E+00;  1.0000000E+04;  0.0000000E+00;  1.0000000E+04;0.0;0.0;0.0;0.0
  2.1800001E+00;  9.9999998E-03;  0.0000000E+00;941;0.0;0.0;0.0;1000.0;  4.0000001E-01;0.0;0;0.0;0.0;0.0;0;0.0;  1.0000000E+04;  0.0000000E+00;  0.0000000E+00;  1.0000000E+04;  0.0000000E+00;  1.0000000E+04;0.0;0.0;0.0;0.0
  2.1800001E+00;  9.9999998E-03;  2.0000000E-02;942;0.0;0.0;0.0;1000.0;  4.0000001E-01;0.0;0;0.0;0.0;0.0;0;0.0;  1.0000000E+04;  0.0000000E+00;  0.0000000E+00;  1.0000000E+04;  0.0000000E+00;  1.0000000E+04;0.0;0.0;0.0;0.0
  2.1800001E+00;  9.9999998E-03;  3.9999999E-02;943;0.0;0.0;0.0;1000.0;  4.0000001E-01;0.0;0;0.0;0.0;0.0;0;0.0;  1.0000000E+04;  0.0000000E+00;  0.0000000E+00;  1.0000000E+04;  0.0000000E+00;  1.0000000E+04;0.0;0.0;0.0;0.0
  2.1800001E+00;  9.9999998E-03;  5.9999999E-02;944;0.0;0.0;0.0;1000.0;  4.0000001E-01;0.0;0;0.0;0.0;0.0;0;0.0;  1.0000000E+04;  0.0000000E+00;  0.0000000E+00;  1.0000000E+04;  0.0000000E+00;  1.0000000E+04;0.0;0.0;0.0;0.0
  2.1800001E+00;  9.9999998E-03;  7.9999998E-02;945;0.0;0.0;0.0;1000.0;  4.0000001E-01;0.0;0;0.0;0.0;0.0;0;0.0;  1.0000000E+04;  0.0000000E+00;  0.0000000E+00;  1.0000000E+04;  0.0000000E+00;  1.0000000E+04;0.0;0.0;0.0;0.0
  2.1800001E+00;  9.9999998E-03;  1.0000000E-01;946;0.0;0.0;0.0;1000.0;  4.0000001E-01;0.0;0;0.0;0.0;0.0;0;0.0;  1.0000000E+04;  0.0000000E+00;  0.0000000E+00;  1.0000000E+04;  0.0000000E+00;  1.0000000E+04;0.0;0.0;0.0;0.0
  2.1800001E+00;  9.9999998E-03;  1.2000000E-01;947;0.0;0.0;0.0;1000.0;  4.0000001E-01;0.0;0;0.0;0.0;0.0;0;0.0;  1.0000000E+04;  0.0000000E+00;  0.0000000E+00;  1.0000000E+04;  0.0000000E+00;  1.0000000E+04;0.0;0.0;0.0;0.0
  2.1800001E+00;  9.9999998E-03;  1.4000000E-01;948;0.0;0.0;0.0;1000.0;  4.0000001E-01;0.0;0;0.0;0.0;0.0;0;0.0;  1.0000000E+04;  0.0000000E+00;  0.0000000E+00;  1.0000000E+04;  0.0000000E+00;  1.0000000E+04;0.0;0.0;0.0;0.0
  2.1800001E+00;  9.9999998E-03;  1.6000000E-01;949;0.0;0.0;0.0;1000.0;  4.0000001E-01;0.0;0;0.0;0.0;0.0;0;0.0;  1.0000000E+04;  0.0000000E+00;  0.0000000E+00;  1.0000000E+04;  0.0000000E+00;  1.0000000E+04;0.0;0.0;0.0;0.0
  2.1800001E+00;  9.9999998E-03;  1.8000001E-01;950;0.0;0.0;0.0;1000.0;  4.0000001E-01;0.0;0;0.0;0.0;0.0;0;0.0;  1.0000000E+04;  0.0000000E+00;  0.0000000E+00;  1.0000000E+04;  0.0000000E+00;  1.0000000E+04;0.0;0.0;0.0;0.0
  2.1800001E+00;  9.9999998E-03;  2.0000000E-01;951;0.0;0.0;0.0;1000.0;  4.0000001E-01;0.0;0;0.0;0.0;0.0;0;0.0;  1.0000000E+04;  0.0000000E+00;  0.0000000E+00;  1.0000000E+04;  0.0000000E+00;  1.0000000E+04;0.0;0.0;0.0;0.0
  2.1800001E+00;  9.9999998E-03;  2.2000000E-01;952;0.0;0.0;0.0;1000.0;  4.0000001E-01;0.0;0;0.0;0.0;0.0;0;0.0;  1.0000000E+04;  0.0000000E+00;  0.0000000E+00;  1.0000000E+04;  0.0000000E+00;  1.0000000E+04;0.0;0.0;0.0;0.0
  2.1800001E+00;  9.9999998E-03;  2.3999999E-01;953;0.0;0.0;0.0;1000.0;  4.0000001E-01;0.0;0;0.0;0.0;0.0;0;0.0;  1.0000000E+04;  0.0000000E+00;  0.0000000E+00;  1.0000000E+04;  0.0000000E+00;  1.0000000E+04;0.0;0.0;0.0;0.0
  2.1800001E+00;  9.9999998E-03;  2.5999999E-01;954;0.0;0.0;0.0;1000.0;  4.0000001E-01;0.0;0;0.0;0.0;0.0;0;0.0;  1.0000000E+04;  0.0000000E+00;  0.0000000E+00;  1.0000000E+04;  0.0000000E+00;  1.0000000E+04;0.0;0.0;0.0;0.0
  2.1800001E+00;  9.9999998E-03;  2.8000000E-01;955;0.0;0.0;0.0;1000.0;  4.0000001E-01;0.0;0;0.0;0.0;0.0;0;0.0;  1.0000000E+04;  0.0000000E+00;  0.0000000E+00;  1.0000000E+04;  0.0000000E+00;  1.0000000E+04;0.0;0.0;0.0;0.0
  2.1800001E+00;  9.9999998E-03;  3.0000001E-01;956;0.0;0.0;0.0;1000.0;  4.0000001E-01;0.0;0;0.0;0.0;0.0;0;0.0;  1.0000000E+04;  0.0000000E+00;  0.0000000E+00;  1.0000000E+04;  0.0000000E+00;  1.0000000E+04;0.0;0.0;0.0;0.0
  2.1800001E+00;  9.9999998E-03;  3.1999999E-01;957;0.0;0.0;0.0;1000.0;  4.0000001E-01;0.0;0;0.0;0.0;0.0;0;0.0;  1.0000000E+04;  0.0000000E+00;  0.0000000E+00;  1.0000000E+04;  0.0000000E+00;  1.0000000E+04;0.0;0.0;0.0;0.0
  2.1800001E+00;  9.9999998E-03;  3.4000000E-01;958;0.0;0.0;0.0;1000.0;  4.0000001E-01;0.0;0;0.0;0.0;0.0;0;0.0;  1.0000000E+04;  0.0000000E+00;  0.0000000E+00;  1.0000000E+04;  0.0000000E+00;  1.0000000E+04;0.0;0.0;0.0;0.0
  2.1800001E+00;  9.9999998E-03;  3.6000001E-01;959;0.0;0.0;0.0;1000.0;  4.0000001E-01;0.0;0;0.0;0.0;0.0;0;0.0;  1.0000000E+04;  0.0000000E+00;  0.0000000E+00;  1.0000000E+04;  0.0000000E+00;  1.0000000E+04;0.0;0.0;0.0;0.0
  2.1800001E+00;  9.9999998E-03;  3.8000000E-01;960;0.0;0.0;0.0;1000.0;  4.0000001E-01;0.0;0;0.0;0.0;0.0;0;0.0;  1.0000000E+04;  0.0000000E+00;  0.0000000E+00;  1.0000000E+04;  0.0000000E+00;  1.0000000E+04;0.0;0.0;0.0;0.0
  2.1800001E+00;  9.9999998E-03;  4.0000001E-01;961;0.0;0.0;0.0;1000.0;  4.0000001E-01;0.0;0;0.0;0.0;0.0;0;0.0;  1.0000000E+04;  0.0000000E+00;  0.0000000E+00;  1.0000000E+04;  0.0000000E+00;  1.0000000E+04;0.0;0.0;0.0;0.0
  2.2000000E+00;  9.9999998E-03; -7.9999998E-02;962;0.0;0.0;0.0;1000.0;  4.0000001E-01;0.0;0;0.0;0.0;0.0;0;0.0;  1.0000000E+04;  0.0000000E+00;  0.0000000E+00;  1.0000000E+04;  0.0000000E+00;  1.0000000E+04;0.0;0.0;0.0;0.0
  2.2000000E+00;  9.9999998E-03; -5.9999999E-02;963;0.0;0.0;0.0;1000.0;  4.0000001E-01;0.0;0;0.0;0.0;0.0;0;0.0;  1.0000000E+04;  0.0000000E+00;  0.0000000E+00;  1.0000000E+04;  0.0000000E+00;  1.0000000E+04;0.0;0.0;0.0;0.0
  2.2000000E+00;  9.9999998E-03; -3.9999999E-02;964;0.0;0.0;0.0;1000.0;  4.0000001E-01;0.0;0;0.0;0.0;0.0;0;0.0;  1.0000000E+04;  0.0000000E+00;  0.0000000E+00;  1.0000000E+04;  0.0000000E+00;  1.0000000E+04;0.0;0.0;0.0;0.0
  2.2000000E+00;  9.9999998E-03; -2.0000000E-02;965;0.0;0.0;0.0;1000.0;  4.0000001E-01;0.0;0;0.0;0.0;0.0;0;0.0;  1.0000000E+04;  0.0000000E+00;  0.0000000E+00;  1.0000000E+04;  0.0000000E+00;  1.0000000E+04;0.0;0.0;0.0;0.0
  2.2000000E+00;  9.9999998E-03;  0.0000000E+00;966;0.0;0.0;0.0;1000.0;  4.0000001E-01;0.0;0;0.0;0.0;0.0;0;0.0;  1.0000000E+04;  0.0000000E+00;  0.0000000E+00;  1.0000000E+04;  0.0000000E+00;  1.0000000E+04;0.0;0.0;0.0;0.0
  2.2000000E+00;  9.9999998E-03;  2.0000000E-02;967;0.0;0.0;0.0;1000.0;  4.0000001E-01;0.0;0;0.0;0.0;0.0;0;0.0;  1.0000000E+04;  0.0000000E+00;  0.0000000E+00;  1.0000000E+04;  0.0000000E+00;  1.0000000E+04;0.0;0.0;0.0;0.0
  2.2000000E+00;  9.9999998E-03;  3.9999999E-02;968;0.0;0.0;0.0;1000.0;  4.0000001E-01;0.0;0;0.0;0.0;0.0;0;0.0;  1.0000000E+04;  0.0000000E+00;  0.0000000E+00;  1.0000000E+04;  0.0000000E+00;  1.0000000E+04;0.0;0.0;0.0;0.0
  2.2000000E+00;  9.9999998E-03;  5.9999999E-02;969;0.0;0.0;0.0;1000.0;  4.0000001E-01;0.0;0;0.0;0.0;0.0;0;0.0;  1.0000000E+04;  0.0000000E+00;  0.0000000E+00;  1.0000000E+04;  0.0000000E+00;  1.0000000E+04;0.0;0.0;0.0;0.0
  2.2000000E+00;  9.9999998E-03;  7.9999998E-02;970;0.0;0.0;0.0;1000.0;  4.0000001E-01;0.0;0;0.0;0.0;0.0;0;0.0;  1.0000000E+04;  0.0000000E+00;  0.0000000E+00;  1.0000000E+04;  0.0000000E+00;  1.0000000E+04;0.0;0.0;0.0;0.0
  2.2000000E+00;  9.9999998E-03;  1.0000000E-01;971;0.0;0.0;0.0;1000.0;  4.0000001E-01;0.0;0;0.0;0.0;0.0;0;0.0;  1.0000000E+04;  0.0000000E+00;  0.0000000E+00;  1.0000000E+04;  0.0000000E+00;  1.0000000E+04;0.0;0.0;0.0;0.0
  2.2000000E+00;  9.9999998E-03;  1.2000000E-01;972;0.0;0.0;0.0;1000.0;  4.0000001E-01;0.0;0;0.0;0.0;0.0;0;0.0;  1.0000000E+04;  0.0000000E+00;  0.0000000E+00;  1.0000000E+04;  0.0000000E+00;  1.0000000E+04;0.0;0.0;0.0;0.0
  2.2000000E+00;  9.9999998E-03;  1.4000000E-01;973;0.0;0.0;0.0;1000.0;  4.0000001E-01;0.0;0;0.0;0.0;0.0;0;0.0;  1.0000000E+04;  0.0000000E+00;  0.0000000E+00;  1.0000000E+04;  0.0000000E+00;  1.0000000E+04;0.0;0.0;0.0;0.0
  2.2000000E+00;  9.9999998E-03;  1.6000000E-01;974;0.0;0.0;0.0;1000.0;  4.0000001E-01;0.0;0;0.0;0.0;0.0;0;0.0;  1.0000000E+04;  0.0000000E+00;  0.0000000E+00;  1.0000000E+04;  0.0000000E+00;  1.0000000E+04;0.0;0.0;0.0;0.0
  2.2000000E+00;  9.9999998E-03;  1.8000001E-01;975;0.0;0.0;0.0;1000.0;  4.0000001E-01;0.0;0;0.0;0.0;0.0;0;0.0;  1.0000000E+04;  0.0000000E+00;  0.0000000E+00;  1.0000000E+04;  0.0000000E+00;  1.0000000E+04;0.0;0.0;0.0;0.0
  2.2000000E+00;  9.9999998E-03;  2.0000000E-01;976;0.0;0.0;0.0;1000.0;  4.0000001E-01;0.0;0;0.0;0.0;0.0;0;0.0;  1.0000000E+04;  0.0000000E+00;  0.0000000E+00;  1.0000000E+04;  0.0000000E+00;  1.0000000E+04;0.0;0.0;0.0;0.0
  2.2000000E+00;  9.9999998E-03;  2.2000000E-01;977;0.0;0.0;0.0;1000.0;  4.0000001E-01;0.0;0;0.0;0.0;0.0;0;0.0;  1.0000000E+04;  0.0000000E+00;  0.0000000E+00;  1.0000000E+04;  0.0000000E+00;  1.0000000E+04;0.0;0.0;0.0;0.0
  2.2000000E+00;  9.9999998E-03;  2.3999999E-01;978;0.0;0.0;0.0;1000.0;  4.0000001E-01;0.0;0;0.0;0.0;0.0;0;0.0;  1.0000000E+04;  0.0000000E+00;  0.0000000E+00;  1.0000000E+04;  0.0000000E+00;  1.0000000E+04;0.0;0.0;0.0;0.0
  2.2000000E+00;  9.9999998E-03;  2.5999999E-01;979;0.0;0.0;0.0;1000.0;  4.0000001E-01;0.0;0;0.0;0.0;0.0;0;0.0;  1.0000000E+04;  0.0000000E+00;  0.0000000E+00;  1.0000000E+04;  0.0000000E+00;  1.0000000E+04;0.0;0.0;0.0;0.0
  2.2000000E+00;  9.9999998E-03;  2.8000000E-01;980;0.0;0.0;0.0;1000.0;  4.0000001E-01;0.0;0;0.0;0.0;0.0;0;0.0;  1.0000000E+04;  0.0000000E+00;  0.0000000E+00;  1.0000000E+04;  0.0000000E+00;  1.0000000E+04;0.0;0.0;0.0;0.0
  2.2000000E+00;  9.9999998E-03;  3.0000001E-01;981;0.0;0.0;0.0;1000.0;  4.0000001E-01;0.0;0;0.0;0.0;0.0;0;0.0;  1.0000000E+04;  0.0000000E+00;  0.0000000E+00;  1.0000000E+04;  0.0000000E+00;  1.0000000E+04;0.0;0.0;0.0;0.0
  2.2000000E+00;  9.9999998E-03;  3.1999999E-01;982;0.0;0.0;0.0;1000.0;  4.0000001E-01;0.0;0;0.0;0.0;0.0;0;0.0;  1.0000000E+04;  0.0000000E+00;  0.0000000E+00;  1.0000000E+04;  0.0000000E+00;  1.0000000E+04;0.0;0.0;0.0;0.0
  2.2000000E+00;  9.9999998E-03;  3.4000000E-01;983;0.0;0.0;0.0;1000.0;  4.0000001E-01;0.0;0;0.0;0.0;0.0;0;0.0;  1.0000000E+04;  0.0000000E+00;  0.0000000E+00;  1.0000000E+04;  0.0000000E+00;  1.0000000E+04;0.0;0.0;0.0;0.0
  2.2000000E+00;  9.9999998E-03;  3.6000001E-01;984;0.0;0.0;0.0;1000.0;  4.0000001E-01;0.0;0;0.0;0.0;0.0;0;0.0;  1.0000000E+04;  0.0000000E+00;  0.0000000E+00;  1.0000000E+04;  0.0000000E+00;  1.0000000E+04;0.0;0.0;0.0;0.0
  2.2000000E+00;  9.9999998E-03;  3.8000000E-01;985;0.0;0.0;0.0;1000.0;  4.0000001E-01;0.0;0;0.0;0.0;0.0;0;0.0;  1.0000000E+04;  0.0000000E+00;  0.0000000E+00;  1.0000000E+04;  0.0000000E+00;  1.0000000E+04;0.0;0.0;0.0;0.0
  2.2200000E+00;  9.9999998E-03;  2.0000000E-02;986;0.0;0.0;0.0;1000.0;  4.0000001E-01;0.0;0;0.0;0.0;0.0;0;0.0;  1.0000000E+04;  0.0000000E+00;  0.0000000E+00;  1.0000000E+04;  0.0000000E+00;  1.0000000E+04;0.0;0.0;0.0;0.0
  2.2200000E+00;  9.9999998E-03;  3.9999999E-02;987;0.0;0.0;0.0;1000.0;  4.0000001E-01;0.0;0;0.0;0.0;0.0;0;0.0;  1.0000000E+04;  0.0000000E+00;  0.0000000E+00;  1.0000000E+04;  0.0000000E+00;  1.0000000E+04;0.0;0.0;0.0;0.0
  2.2200000E+00;  9.9999998E-03;  5.9999999E-02;988;0.0;0.0;0.0;1000.0;  4.0000001E-01;0.0;0;0.0;0.0;0.0;0;0.0;  1.0000000E+04;  0.0000000E+00;  0.0000000E+00;  1.0000000E+04;  0.0000000E+00;  1.0000000E+04;0.0;0.0;0.0;0.0
  2.2200000E+00;  9.9999998E-03;  7.9999998E-02;989;0.0;0.0;0.0;1000.0;  4.0000001E-01;0.0;0;0.0;0.0;0.0;0;0.0;  1.0000000E+04;  0.0000000E+00;  0.0000000E+00;  1.0000000E+04;  0.0000000E+00;  1.0000000E+04;0.0;0.0;0.0;0.0
  2.2200000E+00;  9.9999998E-03;  1.0000000E-01;990;0.0;0.0;0.0;1000.0;  4.0000001E-01;0.0;0;0.0;0.0;0.0;0;0.0;  1.0000000E+04;  0.0000000E+00;  0.0000000E+00;  1.0000000E+04;  0.0000000E+00;  1.0000000E+04;0.0;0.0;0.0;0.0
  2.2200000E+00;  9.9999998E-03;  1.2000000E-01;991;0.0;0.0;0.0;1000.0;  4.0000001E-01;0.0;0;0.0;0.0;0.0;0;0.0;  1.0000000E+04;  0.0000000E+00;  0.0000000E+00;  1.0000000E+04;  0.0000000E+00;  1.0000000E+04;0.0;0.0;0.0;0.0
  2.2200000E+00;  9.9999998E-03;  1.4000000E-01;992;0.0;0.0;0.0;1000.0;  4.0000001E-01;0.0;0;0.0;0.0;0.0;0;0.0;  1.0000000E+04;  0.0000000E+00;  0.0000000E+00;  1.0000000E+04;  0.0000000E+00;  1.0000000E+04;0.0;0.0;0.0;0.0
  2.2200000E+00;  9.9999998E-03;  1.6000000E-01;993;0.0;0.0;0.0;1000.0;  4.0000001E-01;0.0;0;0.0;0.0;0.0;0;0.0;  1.0000000E+04;  0.0000000E+00;  0.0000000E+00;  1.0000000E+04;  0.0000000E+00;  1.0000000E+04;0.0;0.0;0.0;0.0
  2.2200000E+00;  9.9999998E-03;  1.8000001E-01;994;0.0;0.0;0.0;1000.0;  4.0000001E-01;0.0;0;0.0;0.0;0.0;0;0.0;  1.0000000E+04;  0.0000000E+00;  0.0000000E+00;  1.0000000E+04;  0.0000000E+00;  1.0000000E+04;0.0;0.0;0.0;0.0
  2.2200000E+00;  9.9999998E-03;  2.0000000E-01;995;0.0;0.0;0.0;1000.0;  4.0000001E-01;0.0;0;0.0;0.0;0.0;0;0.0;  1.0000000E+04;  0.0000000E+00;  0.0000000E+00;  1.0000000E+04;  0.0000000E+00;  1.0000000E+04;0.0;0.0;0.0;0.0
  2.2200000E+00;  9.9999998E-03;  2.2000000E-01;996;0.0;0.0;0.0;1000.0;  4.0000001E-01;0.0;0;0.0;0.0;0.0;0;0.0;  1.0000000E+04;  0.0000000E+00;  0.0000000E+00;  1.0000000E+04;  0.0000000E+00;  1.0000000E+04;0.0;0.0;0.0;0.0
  2.2200000E+00;  9.9999998E-03;  2.3999999E-01;997;0.0;0.0;0.0;1000.0;  4.0000001E-01;0.0;0;0.0;0.0;0.0;0;0.0;  1.0000000E+04;  0.0000000E+00;  0.0000000E+00;  1.0000000E+04;  0.0000000E+00;  1.0000000E+04;0.0;0.0;0.0;0.0
  2.2200000E+00;  9.9999998E-03;  2.5999999E-01;998;0.0;0.0;0.0;1000.0;  4.0000001E-01;0.0;0;0.0;0.0;0.0;0;0.0;  1.0000000E+04;  0.0000000E+00;  0.0000000E+00;  1.0000000E+04;  0.0000000E+00;  1.0000000E+04;0.0;0.0;0.0;0.0
  2.2200000E+00;  9.9999998E-03;  2.8000000E-01;999;0.0;0.0;0.0;1000.0;  4.0000001E-01;0.0;0;0.0;0.0;0.0;0;0.0;  1.0000000E+04;  0.0000000E+00;  0.0000000E+00;  1.0000000E+04;  0.0000000E+00;  1.0000000E+04;0.0;0.0;0.0;0.0
  2.2200000E+00;  9.9999998E-03;  3.0000001E-01;1000;0.0;0.0;0.0;1000.0;  4.0000001E-01;0.0;0;0.0;0.0;0.0;0;0.0;  1.0000000E+04;  0.0000000E+00;  0.0000000E+00;  1.0000000E+04;  0.0000000E+00;  1.0000000E+04;0.0;0.0;0.0;0.0
  2.2200000E+00;  9.9999998E-03;  3.1999999E-01;1001;0.0;0.0;0.0;1000.0;  4.0000001E-01;0.0;0;0.0;0.0;0.0;0;0.0;  1.0000000E+04;  0.0000000E+00;  0.0000000E+00;  1.0000000E+04;  0.0000000E+00;  1.0000000E+04;0.0;0.0;0.0;0.0
  2.2200000E+00;  9.9999998E-03;  3.4000000E-01;1002;0.0;0.0;0.0;1000.0;  4.0000001E-01;0.0;0;0.0;0.0;0.0;0;0.0;  1.0000000E+04;  0.0000000E+00;  0.0000000E+00;  1.0000000E+04;  0.0000000E+00;  1.0000000E+04;0.0;0.0;0.0;0.0
  2.2200000E+00;  9.9999998E-03;  3.6000001E-01;1003;0.0;0.0;0.0;1000.0;  4.0000001E-01;0.0;0;0.0;0.0;0.0;0;0.0;  1.0000000E+04;  0.0000000E+00;  0.0000000E+00;  1.0000000E+04;  0.0000000E+00;  1.0000000E+04;0.0;0.0;0.0;0.0
  2.2200000E+00;  9.9999998E-03;  3.8000000E-01;1004;0.0;0.0;0.0;1000.0;  4.0000001E-01;0.0;0;0.0;0.0;0.0;0;0.0;  1.0000000E+04;  0.0000000E+00;  0.0000000E+00;  1.0000000E+04;  0.0000000E+00;  1.0000000E+04;0.0;0.0;0.0;0.0
  2.2400000E+00;  9.9999998E-03;  1.2000000E-01;1005;0.0;0.0;0.0;1000.0;  4.0000001E-01;0.0;0;0.0;0.0;0.0;0;0.0;  1.0000000E+04;  0.0000000E+00;  0.0000000E+00;  1.0000000E+04;  0.0000000E+00;  1.0000000E+04;0.0;0.0;0.0;0.0
  2.2400000E+00;  9.9999998E-03;  1.4000000E-01;1006;0.0;0.0;0.0;1000.0;  4.0000001E-01;0.0;0;0.0;0.0;0.0;0;0.0;  1.0000000E+04;  0.0000000E+00;  0.0000000E+00;  1.0000000E+04;  0.0000000E+00;  1.0000000E+04;0.0;0.0;0.0;0.0
  2.2400000E+00;  9.9999998E-03;  1.6000000E-01;1007;0.0;0.0;0.0;1000.0;  4.0000001E-01;0.0;0;0.0;0.0;0.0;0;0.0;  1.0000000E+04;  0.0000000E+00;  0.0000000E+00;  1.0000000E+04;  0.0000000E+00;  1.0000000E+04;0.0;0.0;0.0;0.0
  2.2400000E+00;  9.9999998E-03;  1.8000001E-01;1008;0.0;0.0;0.0;1000.0;  4.0000001E-01;0.0;0;0.0;0.0;0.0;0;0.0;  1.0000000E+04;  0.0000000E+00;  0.0000000E+00;  1.0000000E+04;  0.0000000E+00;  1.0000000E+04;0.0;0.0;0.0;0.0
  2.2400000E+00;  9.9999998E-03;  2.0000000E-01;1009;0.0;0.0;0.0;1000.0;  4.0000001E-01;0.0;0;0.0;0.0;0.0;0;0.0;  1.0000000E+04;  0.0000000E+00;  0.0000000E+00;  1.0000000E+04;  0.0000000E+00;  1.0000000E+04;0.0;0.0;0.0;0.0
  2.2400000E+00;  9.9999998E-03;  2.2000000E-01;1010;0.0;0.0;0.0;1000.0;  4.0000001E-01;0.0;0;0.0;0.0;0.0;0;0.0;  1.0000000E+04;  0.0000000E+00;  0.0000000E+00;  1.0000000E+04;  0.0000000E+00;  1.0000000E+04;0.0;0.0;0.0;0.0
  2.2400000E+00;  9.9999998E-03;  2.3999999E-01;1011;0.0;0.0;0.0;1000.0;  4.0000001E-01;0.0;0;0.0;0.0;0.0;0;0.0;  1.0000000E+04;  0.0000000E+00;  0.0000000E+00;  1.0000000E+04;  0.0000000E+00;  1.0000000E+04;0.0;0.0;0.0;0.0
  2.2400000E+00;  9.9999998E-03;  2.5999999E-01;1012;0.0;0.0;0.0;1000.0;  4.0000001E-01;0.0;0;0.0;0.0;0.0;0;0.0;  1.0000000E+04;  0.0000000E+00;  0.0000000E+00;  1.0000000E+04;  0.0000000E+00;  1.0000000E+04;0.0;0.0;0.0;0.0
  2.2400000E+00;  9.9999998E-03;  2.8000000E-01;1013;0.0;0.0;0.0;1000.0;  4.0000001E-01;0.0;0;0.0;0.0;0.0;0;0.0;  1.0000000E+04;  0.0000000E+00;  0.0000000E+00;  1.0000000E+04;  0.0000000E+00;  1.0000000E+04;0.0;0.0;0.0;0.0
  2.2400000E+00;  9.9999998E-03;  3.0000001E-01;1014;0.0;0.0;0.0;1000.0;  4.0000001E-01;0.0;0;0.0;0.0;0.0;0;0.0;  1.0000000E+04;  0.0000000E+00;  0.0000000E+00;  1.0000000E+04;  0.0000000E+00;  1.0000000E+04;0.0;0.0;0.0;0.0
  2.2400000E+00;  9.9999998E-03;  3.1999999E-01;1015;0.0;0.0;0.0;1000.0;  4.0000001E-01;0.0;0;0.0;0.0;0.0;0;0.0;  1.0000000E+04;  0.0000000E+00;  0.0000000E+00;  1.0000000E+04;  0.0000000E+00;  1.0000000E+04;0.0;0.0;0.0;0.0
  2.2400000E+00;  9.9999998E-03;  3.4000000E-01;1016;0.0;0.0;0.0;1000.0;  4.0000001E-01;0.0;0;0.0;0.0;0.0;0;0.0;  1.0000000E+04;  0.0000000E+00;  0.0000000E+00;  1.0000000E+04;  0.0000000E+00;  1.0000000E+04;0.0;0.0;0.0;0.0
  2.2400000E+00;  9.9999998E-03;  3.6000001E-01;1017;0.0;0.0;0.0;1000.0;  4.0000001E-01;0.0;0;0.0;0.0;0.0;0;0.0;  1.0000000E+04;  0.0000000E+00;  0.0000000E+00;  1.0000000E+04;  0.0000000E+00;  1.0000000E+04;0.0;0.0;0.0;0.0
  2.2400000E+00;  9.9999998E-03;  3.8000000E-01;1018;0.0;0.0;0.0;1000.0;  4.0000001E-01;0.0;0;0.0;0.0;0.0;0;0.0;  1.0000000E+04;  0.0000000E+00;  0.0000000E+00;  1.0000000E+04;  0.0000000E+00;  1.0000000E+04;0.0;0.0;0.0;0.0
  2.2600000E+00;  9.9999998E-03;  2.2000000E-01;1019;0.0;0.0;0.0;1000.0;  4.0000001E-01;0.0;0;0.0;0.0;0.0;0;0.0;  1.0000000E+04;  0.0000000E+00;  0.0000000E+00;  1.0000000E+04;  0.0000000E+00;  1.0000000E+04;0.0;0.0;0.0;0.0
  2.2600000E+00;  9.9999998E-03;  2.3999999E-01;1020;0.0;0.0;0.0;1000.0;  4.0000001E-01;0.0;0;0.0;0.0;0.0;0;0.0;  1.0000000E+04;  0.0000000E+00;  0.0000000E+00;  1.0000000E+04;  0.0000000E+00;  1.0000000E+04;0.0;0.0;0.0;0.0
  2.2600000E+00;  9.9999998E-03;  2.5999999E-01;1021;0.0;0.0;0.0;1000.0;  4.0000001E-01;0.0;0;0.0;0.0;0.0;0;0.0;  1.0000000E+04;  0.0000000E+00;  0.0000000E+00;  1.0000000E+04;  0.0000000E+00;  1.0000000E+04;0.0;0.0;0.0;0.0
  2.2600000E+00;  9.9999998E-03;  2.8000000E-01;1022;0.0;0.0;0.0;1000.0;  4.0000001E-01;0.0;0;0.0;0.0;0.0;0;0.0;  1.0000000E+04;  0.0000000E+00;  0.0000000E+00;  1.0000000E+04;  0.0000000E+00;  1.0000000E+04;0.0;0.0;0.0;0.0
  2.2600000E+00;  9.9999998E-03;  3.0000001E-01;1023;0.0;0.0;0.0;1000.0;  4.0000001E-01;0.0;0;0.0;0.0;0.0;0;0.0;  1.0000000E+04;  0.0000000E+00;  0.0000000E+00;  1.0000000E+04;  0.0000000E+00;  1.0000000E+04;0.0;0.0;0.0;0.0
  2.2600000E+00;  9.9999998E-03;  3.1999999E-01;1024;0.0;0.0;0.0;1000.0;  4.0000001E-01;0.0;0;0.0;0.0;0.0;0;0.0;  1.0000000E+04;  0.0000000E+00;  0.0000000E+00;  1.0000000E+04;  0.0000000E+00;  1.0000000E+04;0.0;0.0;0.0;0.0
  2.2600000E+00;  9.9999998E-03;  3.4000000E-01;1025;0.0;0.0;0.0;1000.0;  4.0000001E-01;0.0;0;0.0;0.0;0.0;0;0.0;  1.0000000E+04;  0.0000000E+00;  0.0000000E+00;  1.0000000E+04;  0.0000000E+00;  1.0000000E+04;0.0;0.0;0.0;0.0
  2.2600000E+00;  9.9999998E-03;  3.6000001E-01;1026;0.0;0.0;0.0;1000.0;  4.0000001E-01;0.0;0;0.0;0.0;0.0;0;0.0;  1.0000000E+04;  0.0000000E+00;  0.0000000E+00;  1.0000000E+04;  0.0000000E+00;  1.0000000E+04;0.0;0.0;0.0;0.0
  2.2600000E+00;  9.9999998E-03;  3.8000000E-01;1027;0.0;0.0;0.0;1000.0;  4.0000001E-01;0.0;0;0.0;0.0;0.0;0;0.0;  1.0000000E+04;  0.0000000E+00;  0.0000000E+00;  1.0000000E+04;  0.0000000E+00;  1.0000000E+04;0.0;0.0;0.0;0.0
  2.2800000E+00;  9.9999998E-03;  3.1999999E-01;1028;0.0;0.0;0.0;1000.0;  4.0000001E-01;0.0;0;0.0;0.0;0.0;0;0.0;  1.0000000E+04;  0.0000000E+00;  0.0000000E+00;  1.0000000E+04;  0.0000000E+00;  1.0000000E+04;0.0;0.0;0.0;0.0
  2.2800000E+00;  9.9999998E-03;  3.4000000E-01;1029;0.0;0.0;0.0;1000.0;  4.0000001E-01;0.0;0;0.0;0.0;0.0;0;0.0;  1.0000000E+04;  0.0000000E+00;  0.0000000E+00;  1.0000000E+04;  0.0000000E+00;  1.0000000E+04;0.0;0.0;0.0;0.0
  2.2800000E+00;  9.9999998E-03;  3.6000001E-01;1030;0.0;0.0;0.0;1000.0;  4.0000001E-01;0.0;0;0.0;0.0;0.0;0;0.0;  1.0000000E+04;  0.0000000E+00;  0.0000000E+00;  1.0000000E+04;  0.0000000E+00;  1.0000000E+04;0.0;0.0;0.0;0.0
 -9.7374331E-10;  9.9999998E-03; -2.8000000E-01;1031;-3.2944913e-06;0.0;-1.2054463e-06;1000.0;  4.0000001E-01;0.0;3;-0.0075845961;0.0;-0.0028034835;0;-6.8557943e-05;  1.0000000E+04;  0.0000000E+00;  4.9546305E-13;  1.0000000E+04;  0.0000000E+00;  1.0000000E+04;-6.3385931e-05;0.0;-5.1720158e-06;0.01087913
 -1.1822030E-09;  9.9999998E-03; -2.5999999E-01;1032;-3.9914253e-06;0.0;-1.1609983e-06;1000.0;  4.0000001E-01;0.0;3;-0.0091088936;0.0;-0.0026877956;0;-8.1977902e-05;  1.0000000E+04;  0.0000000E+00;  1.1869635E-12;  1.0000000E+04;  0.0000000E+00;  1.0000000E+04;-7.9566686e-05;0.0;-2.4112194e-06;0.0038400511
 -1.3593044E-09;  9.9999998E-03; -2.3999999E-01;1033;-4.5828147e-06;0.0;-1.0730472e-06;1000.0;  4.0000001E-01;0.0;3;-0.010396493;0.0;-0.0024727527;0;-9.3308699e-05;  1.0000001E+04;  0.0000000E+00; -3.8785663E-13;  1.0000000E+04;  0.0000000E+00;  1.0000000E+04;-9.359383e-05;0.0;2.8512727e-07;0.0029445966
 -1.5051894E-09;  9.9999998E-03; -2.2000000E-01;1034;-5.0666272e-06;0.0;-9.6567442e-07;1000.0;  4.0000001E-01;0.0;3;-0.011447879;0.0;-0.0022183135;0;-0.00010265318;  1.0000001E+04;  0.0000000E+00;  7.6877948E-12;  1.0000000E+04;  0.0000000E+00;  1.0000000E+04;-0.00010495102;0.0;2.2978311e-06;0.0079917172
 -1.6247842E-09;  9.9999998E-03; -2.0000000E-01;1035;-5.4601887e-06;0.0;-8.4449061e-07;1000.0;  4.0000001E-01;0.0;3;-0.012304686;0.0;-0.0019367934;0;-0.00011034824;  1.0000001E+04;  0.0000000E+00; -4.0037292E-12;  1.0000000E+04;  0.0000000E+00;  1.0000000E+04;-0.0001137912;0.0;3.4429636e-06;0.010887956
  2.0000000E-02;  9.9999998E-03; -3.0000001E-01;1060;-3.7249231e-06;0.0;-1.7889686e-06;1000.0;  4.0000001E-01;0.0;3;-0.0084373243;0.0;-0.0040858304;0;-7.7219665e-05;  1.0000000E+04;  0.0000000E+00;  3.3884408E-12;  1.0000000E+04;  0.0000000E+00;  1.0000000E+04;-6.628695e-05;0.0;-1.0932713e-05;0.025613662
  1.9999998E-02;  9.9999998E-03; -2.8000000E-01;1061;-5.0452886e-06;0.0;-1.7486561e-06;1000.0;  4.0000001E-01;0.0;3;-0.01130175;0.0;-0.0039413152;0;-9.7682925e-05;  1.0000000E+04;  0.0000000E+00;  3.1876377E-12;  1.0000000E+04;  0.0000000E+00;  1.0000000E+04;-8.9904846e-05;0.0;-7.7780805e-06;0.017029725
  1.9999998E-02;  9.9999998E-03; -2.5999999E-01;1062;-6.1827541e-06;0.0;-1.7056462e-06;1000.0001;  4.0000001E-01;0.098762624;3;-0.013718193;0.0;-0.0038278447;0;-0.00011579686;  1.0000001E+04;  0.0000000E+00; -2.6911039E-12;  1.0000000E+04;  0.0000000E+00;  1.0000000E+04;-0.00011232615;0.0;-3.4707095e-06;0.00572317
  1.9999998E-02;  9.9999998E-03; -2.3999999E-01;1063;-7.1154618e-06;0.0;-1.5958893e-06;1000.0001;  4.0000001E-01;0.098762624;3;-0.015681688;0.0;-0.0035665086;0;-0.00013094019;  1.0000001E+04;  0.0000000E+00; -8.6621492E-13;  1.0000000E+04;  0.0000000E+00;  1.0000000E+04;-0.0001315983;0.0;6.5811014e-07;0.0049894867
  1.9999998E-02;  9.9999998E-03; -2.2000000E-01;1064;-7.8617313e-06;0.0;-1.447489e-06;1000.0001;  4.0000001E-01;0.098762624;3;-0.017247546;0.0;-0.0032269815;0;-0.00014333293;  1.0000001E+04;  0.0000000E+00;  9.7234139E-12;  1.0000000E+04;  0.0000000E+00;  1.0000000E+04;-0.00014703721;0.0;3.7042732e-06;0.012856908
  1.9999998E-02;  9.9999998E-03; -2.0000000E-01;1065;-8.4587982e-06;0.0;-1.2678496e-06;1000.0001;  4.0000001E-01;0.098762624;3;-0.018503154;0.0;-0.0028217591;0;-0.00015349446;  1.0000001E+04;  0.0000000E+00;  2.7497564E-12;  1.0000000E+04;  0.0000000E+00;  1.0000000E+04;-0.00015890917;0.0;5.4147131e-06;0.017291818
  3.9999999E-02;  9.9999998E-03; -3.0000001E-01;1091;-5.6977551e-06;0.0;-2.469169e-06;1000.0;  4.0000001E-01;0.0;3;-0.012608686;0.0;-0.0054492638;0;-0.00010858349;  1.0000001E+04;  0.0000000E+00;  1.4242558E-11;  1.0000000E+04;  0.0000000E+00;  1.0000000E+04;-9.2551192e-05;0.0;-1.6032294e-05;0.039120592
  3.9999999E-02;  9.9999998E-03; -2.8000000E-01;1092;-7.6859496e-06;0.0;-2.4714493e-06;1000.0001;  4.0000001E-01;0.098762624;3;-0.016782392;0.0;-0.0053836629;0;-0.00013638732;  1.0000001E+04;  0.0000000E+00;  4.0090990E-12;  1.0000000E+04;  0.0000000E+00;  1.0000000E+04;-0.0001252135;0.0;-1.1173815e-05;0.025516132
  3.9999995E-02;  9.9999998E-03; -2.5999999E-01;1093;-9.3916688e-06;0.0;-2.3946254e-06;1000.0001;  4.0000001E-01;0.098762624;3;-0.020281568;0.0;-0.0051868353;0;-0.00016073784;  1.0000001E+04;  0.0000000E+00; -1.3741381E-12;  1.0000000E+04;  0.0000000E+00;  1.0000000E+04;-0.00015595855;0.0;-4.7792882e-06;0.0081129996
  3.9999995E-02;  9.9999998E-03; -2.3999999E-01;1094;-1.079255e-05;0.0;-2.2351687e-06;1000.0001;  4.0000001E-01;0.098762624;3;-0.023130827;0.0;-0.0048201783;0;-0.0001808185;  1.0000001E+04;  0.0000000E+00;  1.1033196E-11;  1.0000000E+04;  0.0000000E+00;  1.0000000E+04;-0.00018207506;0.0;1.2565574e-06;0.0081434902
  3.9999995E-02;  9.9999998E-03; -2.2000000E-01;1095;-1.1901211e-05;0.0;-2.0285459e-06;1000.0001;  4.0000001E-01;0.098762624;3;-0.025379673;0.0;-0.0043654339;0;-0.00019705007;  1.0000002E+04;  0.0000000E+00;  1.3602882E-11;  1.0000000E+04;  0.0000000E+00;  1.0000000E+04;-0.00020270697;0.0;5.6568997e-06;0.01992904
  3.9999995E-02;  9.9999998E-03; -2.0000000E-01;1096;-1.2775588e-05;0.0;-1.7785584e-06;1000.0001;  4.0000001E-01;0.098762624;3;-0.027158154;0.0;-0.0038221385;0;-0.00021024249;  1.0000002E+04;  0.0000000E+00;  9.6206402E-12;  1.0000000E+04;  0.0000000E+00;  1.0000000E+04;-0.00021833045;0.0;8.0879581e-06;0.026439194
  5.9999999E-02;  9.9999998E-03; -3.0000001E-01;1122;-8.4931107e-06;0.0;-3.404281e-06;1000.0001;  4.0000001E-01;0.098762624;3;-0.018364504;0.0;-0.0072625279;0;-0.00015180648;  1.0000001E+04;  0.0000000E+00; -8.0917495E-09;  1.0000000E+04;  0.0000000E+00;  1.0000000E+04;-0.00012903713;0.0;-2.2769356e-05;0.057991479
  5.9999995E-02;  9.9999998E-03; -2.8000000E-01;1123;-1.1422679e-05;0.0;-3.4137367e-06;1000.0001;  4.0000001E-01;0.098762624;3;-0.024331141;0.0;-0.0071757333;0;-0.00018975261;  1.0000001E+04;  0.0000000E+00; -2.1647029E-09;  1.0000000E+04;  0.0000000E+00;  1.0000000E+04;-0.00017412067;0.0;-1.5631942e-05;0.037256207
  5.9999995E-02;  9.9999998E-03; -2.5999999E-01;1124;-1.3896683e-05;0.0;-3.3070996e-06;1000.0001;  4.0000001E-01;0.098762624;3;-0.029234555;0.0;-0.0069105653;0;-0.00022260936;  1.0000002E+04;  0.0000000E+00;  8.2174523E-13;  1.0000000E+04;  0.0000000E+00;  1.0000000E+04;-0.00021619335;0.0;-6.4160085e-06;0.011137228
  5.9999995E-02;  9.9999998E-03; -2.3999999E-01;1125;-1.591434e-05;0.0;-3.0757467e-06;1000.0001;  4.0000001E-01;0.098762624;3;-0.033198562;0.0;-0.0063969838;0;-0.00024931668;  1.0000002E+04;  0.0000000E+00;  7.4140182E-12;  1.0000000E+04;  0.0000000E+00;  1.0000000E+04;-0.00025149167;0.0;2.1749929e-06;0.012979562
  5.9999995E-02;  9.9999998E-03; -2.2000000E-01;1126;-1.7494451e-05;0.0;-2.7853978e-06;1000.0001;  4.0000001E-01;0.098762624;3;-0.036296014;0.0;-0.0057823448;0;-0.00027059109;  1.0000003E+04;  0.0000000E+00;  6.9952876E-12;  1.0000000E+04;  0.0000000E+00;  1.0000000E+04;-0.00027895207;0.0;8.3609866e-06;0.030236755
  5.9999995E-02;  9.9999998E-03; -2.0000000E-01;1127;-1.8726163e-05;0.0;-2.4375884e-06;1000.0001;  4.0000001E-01;0.098762624;3;-0.038718756;0.0;-0.0050535868;0;-0.00028767908;  1.0000003E+04;  0.0000000E+00;  3.0631608E-12;  1.0000000E+04;  0.0000000E+00;  1.0000000E+04;-0.00029939416;0.0;1.1715078e-05;0.039560985
  7.9999998E-02;  9.9999998E-03; -3.0000001E-01;1153;-1.2409296e-05;0.0;-4.7074186e-06;1000.0001;  4.0000001E-01;0.098762624;3;-0.026227606;0.0;-0.0097254794;0;-0.00021329135;  1.0000001E+04;  0.0000000E+00; -1.0130052E-06;  1.0000000E+04;  0.0000000E+00;  1.0000000E+04;-0.00018151397;0.0;-3.1777374e-05;0.084591031
  7.9999998E-02;  9.9999998E-03; -2.8000000E-01;1154;-1.6631795e-05;0.0;-4.6856389e-06;1000.0001;  4.0000001E-01;0.098762624;3;-0.03458415;0.0;-0.0095153013;0;-0.00026496398;  1.0000002E+04;  0.0000000E+00; -5.8625341E-07;  1.0000000E+04;  0.0000000E+00;  1.0000000E+04;-0.00024344449;0.0;-2.1519489e-05;0.053528629
  7.9999991E-02;  9.9999998E-03; -2.5999999E-01;1155;-2.0146059e-05;0.0;-4.517251e-06;1000.0001;  4.0000001E-01;0.098762624;3;-0.041327011;0.0;-0.0091081196;0;-0.00030911807;  1.0000003E+04;  0.0000000E+00; -2.1332292E-07;  1.0000000E+04;  0.0000000E+00;  1.0000000E+04;-0.0003006646;0.0;-8.4534822e-06;0.01487012
  7.9999991E-02;  9.9999998E-03; -2.3999999E-01;1156;-2.2974536e-05;0.0;-4.1853305e-06;1000.0001;  4.0000001E-01;0.098762624;3;-0.046696968;0.0;-0.0083968192;0;-0.00034457407;  1.0000003E+04;  0.0000000E+00; -2.4637490E-08;  1.0000000E+04;  0.0000000E+00;  1.0000000E+04;-0.00034816228;0.0;3.5882158e-06;0.020441322
  7.9999991E-02;  9.9999998E-03; -2.2000000E-01;1157;-2.5160061e-05;0.0;-3.7826567e-06;1000.0002;  4.0000001E-01;0.19752525;3;-0.050835185;0.0;-0.0075777834;0;-0.00037248083;  1.0000003E+04;  0.0000000E+00;  5.9350268E-12;  1.0000000E+04;  0.0000000E+00;  1.0000000E+04;-0.00038463049;0.0;1.2149661e-05;0.045362331
  7.9999991E-02;  9.9999998E-03; -2.0000000E-01;1158;-2.6842645e-05;0.0;-3.3035135e-06;1000.0002;  4.0000001E-01;0.19752525;3;-0.054032411;0.0;-0.0066102864;0;-0.00039460475;  1.0000003E+04;  0.0000000E+00;  7.6389728E-12;  1.0000000E+04;  0.0000000E+00;  1.0000000E+04;-0.00041130476;0.0;1.6700018e-05;0.058521807
  9.9999994E-02;  9.9999998E-03; -3.0000001E-01;1184;-1.7914079e-05;0.0;-6.5241129e-06;1000.0001;  4.0000001E-01;0.098762624;3;-0.037021305;0.0;-0.013087071;0;-0.00030505002;  1.0000002E+04;  0.0000000E+00; -1.0595325E-05;  1.0000000E+04;  0.0000000E+00;  1.0000000E+04;-0.00026110446;0.0;-4.3945554e-05;0.12773883
  9.9999994E-02;  9.9999998E-03; -2.8000000E-01;1185;-2.3897559e-05;0.0;-6.4074425e-06;1000.0002;  4.0000001E-01;0.19752525;3;-0.048542641;0.0;-0.012579849;0;-0.0003741144;  1.0000003E+04;  0.0000000E+00; -6.9546636E-06;  1.0000000E+04;  0.0000000E+00;  1.0000000E+04;-0.00034485507;0.0;-2.9259323e-05;0.0797019
  9.9999994E-02;  9.9999998E-03; -2.5999999E-01;1186;-2.879947e-05;0.0;-6.1273208e-06;1000.0002;  4.0000001E-01;0.19752525;3;-0.057652585;0.0;-0.011926107;0;-0.00043173652;  1.0000004E+04;  0.0000000E+00; -3.3827102E-06;  1.0000000E+04;  0.0000000E+00;  1.0000000E+04;-0.00042091022;0.0;-1.082631e-05;0.02244723
  9.9999987E-02;  9.9999998E-03; -2.3999999E-01;1187;-3.2685537e-05;0.0;-5.6502199e-06;1000.0002;  4.0000001E-01;0.19752525;3;-0.064780608;0.0;-0.010938995;0;-0.00047740046;  1.0000005E+04;  0.0000000E+00; -1.0050371E-06;  1.0000000E+04;  0.0000000E+00;  1.0000000E+04;-0.00048331544;0.0;5.9149879e-06;0.032621086
  9.9999987E-02;  9.9999998E-03; -2.2000000E-01;1188;-3.5643832e-05;0.0;-5.0957979e-06;1000.0002;  4.0000001E-01;0.19752525;3;-0.070185468;0.0;-0.0098546073;0;-0.00051328423;  1.0000005E+04;  0.0000000E+00; -1.2416075E-07;  1.0000000E+04;  0.0000000E+00;  1.0000000E+04;-0.00053090398;0.0;1.7619721e-05;0.067944705
  9.9999987E-02;  9.9999998E-03; -2.0000000E-01;1189;-3.7890091e-05;0.0;-4.4446524e-06;1000.0002;  4.0000001E-01;0.19752525;3;-0.074300319;0.0;-0.0085878028;0;-0.00054173107;  1.0000006E+04;  0.0000000E+00; -2.5167702E-12;  1.0000000E+04;  0.0000000E+00;  1.0000000E+04;-0.00056542293;0.0;2.3691829e-05;0.086197853
  1.1999999E-01;  9.9999998E-03; -3.0000001E-01;1215;-2.5713063e-05;0.0;-9.0513613e-06;1000.0002;  4.0000001E-01;0.19752525;3;-0.051985297;0.0;-0.017636146;0;-0.00044870589;  1.0000003E+04;  0.0000000E+00; -5.2970681E-05;  1.0000000E+04;  0.0000000E+00;  1.0000000E+04;-0.00038824827;0.0;-6.0457627e-05;0.26083758
  1.1999999E-01;  9.9999998E-03; -2.8000000E-01;1216;-3.4052355e-05;0.0;-8.7666076e-06;1000.0002;  4.0000001E-01;0.19752525;3;-0.067586109;0.0;-0.016654922;0;-0.00053779525;  1.0000005E+04;  0.0000000E+00; -3.7674905E-05;  1.0000000E+04;  0.0000000E+00;  1.0000000E+04;-0.00049863412;0.0;-3.9161136e-05;0.17359783
  1.1999998E-01;  9.9999998E-03; -2.5999999E-01;1217;-4.0783045e-05;0.0;-8.2882898e-06;1000.0003;  4.0000001E-01;0.29628786;3;-0.079691179;0.0;-0.015578945;0;-0.00060831936;  1.0000006E+04;  0.0000000E+00; -2.0013307E-05;  1.0000000E+04;  0.0000000E+00;  1.0000000E+04;-0.00059532409;0.0;-1.2995284e-05;0.076766692
  1.1999998E-01;  9.9999998E-03; -2.4000001E-01;1218;-4.6032146e-05;0.0;-7.6023507e-06;1000.0003;  4.0000001E-01;0.29628786;3;-0.088982217;0.0;-0.014206592;0;-0.00066314498;  1.0000007E+04;  0.0000000E+00; -7.5196326E-06;  1.0000000E+04;  0.0000000E+00;  1.0000000E+04;-0.00067338051;0.0;1.0235509e-05;0.060036622
  1.1999998E-01;  9.9999998E-03; -2.2000000E-01;1219;-4.997518e-05;0.0;-6.8357417e-06;1000.0004;  4.0000001E-01;0.29628786;3;-0.095924065;0.0;-0.01276262;0;-0.00070674735;  1.0000007E+04;  0.0000000E+00; -1.6767399E-06;  1.0000000E+04;  0.0000000E+00;  1.0000000E+04;-0.00073275645;0.0;2.60091e-05;0.10316579
  1.1999998E-01;  9.9999998E-03; -2.0000000E-01;1220;-5.2928855e-05;0.0;-5.9556351e-06;1000.0004;  4.0000001E-01;0.29628786;3;-0.10112932;0.0;-0.01111551;0;-0.00074221217;  1.0000007E+04;  0.0000000E+00; -1.3662176E-07;  1.0000000E+04;  0.0000000E+00;  1.0000000E+04;-0.00077605166;0.0;3.38395e-05;0.12739789
  1.3999999E-01;  9.9999998E-03; -3.0000001E-01;1246;-3.6818983e-05;0.0;-1.2623524e-05;1000.0004;  4.0000001E-01;0.29628786;3;-0.072866097;0.0;-0.02390426;0;-0.00067962019;  1.0000006E+04;  0.0000000E+00; -1.8480793E-04;  1.0000000E+04;  0.0000000E+00;  1.0000000E+04;-0.00059687998;0.0;-8.2740225e-05;0.73003739
  1.3999999E-01;  9.9999998E-03; -2.8000000E-01;1247;-4.8303064e-05;0.0;-1.2011331e-05;1000.0004;  4.0000001E-01;0.29628786;3;-0.093715951;0.0;-0.022096422;0;-0.0007873234;  1.0000007E+04;  0.0000000E+00; -1.3526088E-04;  1.0000000E+04;  0.0000000E+00;  1.0000000E+04;-0.00073623785;0.0;-5.1085539e-05;0.523844
  1.3999999E-01;  9.9999998E-03; -2.5999999E-01;1248;-5.7389829e-05;0.0;-1.1218118e-05;1000.0004;  4.0000001E-01;0.3950505;3;-0.10947573;0.0;-0.020368725;0;-0.00086432311;  1.0000008E+04;  0.0000000E+00; -7.4579773E-05;  1.0000000E+04;  0.0000000E+00;  1.0000000E+04;-0.0008509772;0.0;-1.3345902e-05;0.28002739
  1.3999997E-01;  9.9999998E-03; -2.4000001E-01;1249;-6.4354892e-05;0.0;-1.0243364e-05;1000.0004;  4.0000001E-01;0.3950505;3;-0.12130647;0.0;-0.018492872;0;-0.00092247693;  1.0000009E+04;  0.0000000E+00; -3.0518895E-05;  1.0000000E+04;  0.0000000E+00;  1.0000000E+04;-0.00094145321;0.0;1.8976263e-05;0.14714506
  1.3999997E-01;  9.9999998E-03; -2.2000000E-01;1250;-6.9536698e-05;0.0;-9.1806905e-06;1000.0004;  4.0000001E-01;0.3950505;3;-0.13006255;0.0;-0.016561126;0;-0.0009707305;  1.0000010E+04;  0.0000000E+00; -8.4414914E-06;  1.0000000E+04;  0.0000000E+00;  1.0000000E+04;-0.0010105612;0.0;3.9830735e-05;0.16324626
  1.3999997E-01;  9.9999998E-03; -2.0000000E-01;1251;-7.3373129e-05;0.0;-7.9872789e-06;1000.0004;  4.0000001E-01;0.3950505;3;-0.13654384;0.0;-0.014411578;0;-0.0010126483;  1.0000011E+04;  0.0000000E+00; -1.2415688E-06;  1.0000000E+04;  0.0000000E+00;  1.0000000E+04;-0.001061929;0.0;4.9280701e-05;0.19066991
  1.5999998E-01;  9.9999998E-03; -3.0000001E-01;1277;-5.2731481e-05;0.0;-1.7569291e-05;1000.0005;  4.0000001E-01;0.3950505;3;-0.10205879;0.0;-0.032445937;0;-0.0010471857;  1.0000010E+04;  0.0000000E+00; -5.0935196E-04;  1.0000000E+04;  0.0000000E+00;  1.0000001E+04;-0.00093480333;0.0;-0.00011238236;1.9519989
  1.5999998E-01;  9.9999998E-03; -2.8000000E-01;1278;-6.8205314e-05;0.0;-1.6523256e-05;1000.0006;  4.0000001E-01;0.49381313;3;-0.12932828;0.0;-0.02947842;0;-0.0011623143;  1.0000012E+04;  0.0000000E+00; -3.7102040E-04;  1.0000000E+04;  0.0000000E+00;  1.0000000E+04;-0.0010986163;0.0;-6.3698026e-05;1.4165066
  1.5999997E-01;  9.9999998E-03; -2.6000002E-01;1279;-8.0289356e-05;0.0;-1.5251664e-05;1000.0006;  4.0000001E-01;0.49381313;3;-0.14948103;0.0;-0.026773214;0;-0.0012299535;  1.0000014E+04;  0.0000000E+00; -2.0531149E-04;  1.0000000E+04;  0.0000000E+00;  1.0000000E+04;-0.0012218013;0.0;-8.1522121e-06;0.7815848
  1.5999997E-01;  9.9999998E-03; -2.4000001E-01;1280;-8.9411224e-05;0.0;-1.388724e-05;1000.0007;  4.0000001E-01;0.59257573;3;-0.16430013;0.0;-0.024235994;0;-0.0012796854;  1.0000014E+04;  0.0000000E+00; -8.6394226E-05;  1.0000000E+04;  0.0000000E+00;  1.0000000E+04;-0.0013165977;0.0;3.6912279e-05;0.36991686
  1.5999997E-01;  9.9999998E-03; -2.2000000E-01;1281;-9.6142714e-05;0.0;-1.240531e-05;1000.0007;  4.0000001E-01;0.59257573;3;-0.17514451;0.0;-0.021651242;0;-0.0013268341;  1.0000015E+04;  0.0000000E+00; -2.6201440E-05;  1.0000000E+04;  0.0000000E+00;  1.0000000E+04;-0.0013904929;0.0;6.365875e-05;0.27566546
  1.5999997E-01;  9.9999998E-03; -2.0000000E-01;1282;-0.00010107489;0.0;-1.0742475e-05;1000.0007;  4.0000001E-01;0.59257573;3;-0.1830866;0.0;-0.018761477;0;-0.0013737422;  1.0000015E+04;  0.0000000E+00; -4.8949537E-06;  1.0000000E+04;  0.0000000E+00;  1.0000000E+04;-0.0014474641;0.0;7.372188e-05;0.29090127
  1.7999998E-01;  9.9999998E-03; -3.0000001E-01;1308;-7.5599812e-05;0.0;-2.4274976e-05;1000.0009;  4.0000001E-01;0.69133836;3;-0.14335486;0.0;-0.043497466;0;-0.0015974268;  1.0000015E+04;  0.0000000E+00; -1.1451542E-03;  1.0000000E+04;  0.0000000E+00;  1.0000001E+04;-0.0014475422;0.0;-0.00014988467;4.4087634
  1.7999996E-01;  9.9999998E-03; -2.8000000E-01;1309;-9.6123986e-05;0.0;-2.2522203e-05;1000.0009;  4.0000001E-01;0.69133836;3;-0.17796516;0.0;-0.039048299;0;-0.0016973716;  1.0000017E+04;  0.0000000E+00; -8.1656594E-04;  1.0000000E+04;  0.0000000E+00;  1.0000000E+04;-0.0016242692;0.0;-7.3102456e-05;3.1464615
  1.7999996E-01;  9.9999998E-03; -2.6000002E-01;1310;-0.00011176691;0.0;-2.0777141e-05;1000.0009;  4.0000001E-01;0.79010099;3;-0.20297042;0.0;-0.03532134;0;-0.0017312338;  1.0000018E+04;  0.0000000E+00; -4.4447539E-04;  1.0000000E+04;  0.0000000E+00;  1.0000000E+04;-0.0017413846;0.0;1.0150783e-05;1.7199008
  1.7999995E-01;  9.9999998E-03; -2.4000001E-01;1311;-0.00012356443;0.0;-1.886338e-05;1000.0009;  4.0000001E-01;0.79010099;3;-0.2212117;0.0;-0.03190361;0;-0.0017582544;  1.0000020E+04;  0.0000000E+00; -1.8678347E-04;  1.0000000E+04;  0.0000000E+00;  1.0000000E+04;-0.0018307039;0.0;7.2449606e-05;0.78798687
  1.7999995E-01;  9.9999998E-03; -2.2000001E-01;1312;-0.00013219428;0.0;-1.6804599e-05;1000.0009;  4.0000001E-01;0.79010099;3;-0.23443963;0.0;-0.028407851;0;-0.0017989539;  1.0000020E+04;  0.0000000E+00; -5.8552832E-05;  1.0000000E+04;  0.0000000E+00;  9.9999990E+03;-0.0019038455;0.0;0.00010489163;0.47896308
  1.7999995E-01;  9.9999998E-03; -2.0000000E-01;1313;-0.00013844225;0.0;-1.447633e-05;1000.001;  4.0000001E-01;0.79010099;3;-0.24395807;0.0;-0.024513606;0;-0.0018505157;  1.0000021E+04;  0.0000000E+00; -1.2139488E-05;  1.0000000E+04;  0.0000000E+00;  9.9999990E+03;-0.0019633973;0.0;0.0001128815;0.4514915
  1.9999996E-01;  9.9999998E-03; -3.0000001E-01;1339;-0.00010826695;0.0;-3.3383963e-05;1000.0012;  4.0000001E-01;0.98762625;3;-0.20122662;0.0;-0.057937123;0;-0.002334855;  1.0000021E+04;  0.0000000E+00; -2.0769408E-03;  1.0000000E+04;  0.0000000E+00;  1.0000002E+04;-0.0021425369;0.0;-0.00019231814;8.0974522
  1.9999994E-01;  9.9999998E-03; -2.8000000E-01;1340;-0.00013489934;0.0;-3.0670315e-05;1000.0012;  4.0000001E-01;0.98762625;3;-0.24399486;0.0;-0.051545203;0;-0.0023987892;  1.0000025E+04;  0.0000000E+00; -1.4514861E-03;  1.0000000E+04;  0.0000000E+00;  1.0000000E+04;-0.0023287125;0.0;-7.007664e-05;5.6721268
  1.9999994E-01;  9.9999998E-03; -2.6000002E-01;1341;-0.00015483967;0.0;-2.8248727e-05;1000.0012;  4.0000001E-01;0.98762625;3;-0.27401105;0.0;-0.046807654;0;-0.00237981;  1.0000027E+04;  0.0000000E+00; -7.7204080E-04;  1.0000000E+04;  0.0000000E+00;  1.0000000E+04;-0.0024345955;0.0;5.4785458e-05;3.0413396
  1.9999993E-01;  9.9999998E-03; -2.4000001E-01;1342;-0.00016992106;0.0;-2.554148e-05;1000.0012;  4.0000001E-01;0.98762625;3;-0.29615492;0.0;-0.042043589;0;-0.0023772756;  1.0000028E+04;  0.0000000E+00; -3.1906139E-04;  1.0000000E+04;  0.0000000E+00;  9.9999990E+03;-0.0025158823;0.0;0.00013860666;1.3799181
  1.9999993E-01;  9.9999998E-03; -2.2000001E-01;1343;-0.00018080023;0.0;-2.2746783e-05;1000.0012;  4.0000001E-01;0.98762625;3;-0.31192952;0.0;-0.037403449;0;-0.0024126987;  1.0000028E+04;  0.0000000E+00; -1.0008968E-04;  1.0000000E+04;  0.0000000E+00;  9.9999980E+03;-0.0025868043;0.0;0.00017410573;0.80023807
  1.9999993E-01;  9.9999998E-03; -2.0000000E-01;1344;-0.00018859583;0.0;-1.9477398e-05;1000.0013;  4.0000001E-01;1.0863888;3;-0.32313281;0.0;-0.032024451;0;-0.0024728603;  1.0000028E+04;  0.0000000E+00; -2.1475287E-05;  1.0000000E+04;  0.0000000E+00;  9.9999980E+03;-0.0026474097;0.0;0.00017454935;0.70379215
  2.1999994E-01;  9.9999998E-03; -3.0000001E-01;1370;-0.00015273207;0.0;-5.4049808e-05;1000.0018;  4.0000001E-01;1.4814394;3;-0.27795371;0.0;-0.092539057;0;-0.0031574601;  1.0000032E+04;  0.0000000E+00; -3.0270442E-03;  1.0000000E+04;  0.0000000E+00;  1.0000002E+04;-0.0029769288;0.0;-0.0001805314;11.965743
  2.1999992E-01;  9.9999998E-03; -2.8000003E-01;1371;-0.00018805655;0.0;-4.569826e-05;1000.0018;  4.0000001E-01;1.4814394;3;-0.33223486;0.0;-0.07514143;0;-0.0032285035;  1.0000034E+04;  0.0000000E+00; -2.0814717E-03;  1.0000000E+04;  0.0000000E+00;  1.0000000E+04;-0.0032074782;0.0;-2.1025204e-05;8.2621651
  2.1999991E-01;  9.9999998E-03; -2.6000002E-01;1372;-0.00021340065;0.0;-4.0156607e-05;1000.0018;  4.0000001E-01;1.4814394;3;-0.36815262;0.0;-0.064757064;0;-0.0031733408;  1.0000035E+04;  0.0000000E+00; -1.0814006E-03;  1.0000000E+04;  0.0000000E+00;  9.9999990E+03;-0.0033236223;0.0;0.00015028156;4.3583813
  2.1999991E-01;  9.9999998E-03; -2.4000001E-01;1373;-0.00023247353;0.0;-3.5205423e-05;1000.0018;  4.0000001E-01;1.4814394;3;-0.39439803;0.0;-0.056380145;0;-0.0031557756;  1.0000039E+04;  0.0000000E+00; -4.3537363E-04;  1.0000000E+04;  0.0000000E+00;  9.9999980E+03;-0.0034093463;0.0;0.00025357073;2.0185006
  2.1999989E-01;  9.9999998E-03; -2.2000001E-01;1374;-0.00024598537;0.0;-3.086144e-05;1000.0018;  4.0000001E-01;1.4814394;3;-0.41271999;0.0;-0.049367584;0;-0.003199154;  1.0000039E+04;  0.0000000E+00; -1.3363628E-04;  1.0000000E+04;  0.0000000E+00;  9.9999971E+03;-0.003483539;0.0;0.00028438502;1.2553909
  2.1999989E-01;  9.9999998E-03; -2.0000002E-01;1375;-0.00025550736;0.0;-2.6145002e-05;1000.0018;  4.0000001E-01;1.4814394;3;-0.42544222;0.0;-0.041834634;0;-0.0032780278;  1.0000039E+04;  0.0000000E+00; -2.8259246E-05;  1.0000000E+04;  0.0000000E+00;  9.9999980E+03;-0.0035460037;0.0;0.00026797605;1.0857545
  2.3999991E-01;  9.9999998E-03; -3.0000004E-01;1401;-0.00022047966;0.0;-9.6623764e-05;1000.0021;  4.0000001E-01;1.7777272;3;-0.39228797;0.0;-0.16715777;0;-0.0039873775;  1.0000045E+04;  0.0000000E+00; -3.5381860E-03;  1.0000000E+04;  0.0000000E+00;  1.0000000E+04;-0.0040015774;0.0;1.4199904e-05;14.193467
  2.3999989E-01;  9.9999998E-03; -2.8000003E-01;1402;-0.00026266318;0.0;-7.5109281e-05;1000.0024;  4.0000001E-01;1.9752525;3;-0.45293438;0.0;-0.12344205;0;-0.0041510491;  1.0000047E+04;  0.0000000E+00; -2.4103501E-03;  1.0000000E+04;  0.0000000E+00;  9.9999990E+03;-0.0042999582;0.0;0.00014890938;9.7456188
  2.3999988E-01;  9.9999998E-03; -2.6000002E-01;1403;-0.00029344624;0.0;-6.0380837e-05;1000.0024;  4.0000001E-01;1.9752525;3;-0.49314195;0.0;-0.096531421;0;-0.0041249823;  1.0000050E+04;  0.0000000E+00; -1.2211271E-03;  1.0000000E+04;  0.0000000E+00;  9.9999971E+03;-0.0044579543;0.0;0.00033297221;5.1250916
  2.3999988E-01;  9.9999998E-03; -2.4000002E-01;1404;-0.00031671586;0.0;-4.9878534e-05;1000.0024;  4.0000001E-01;1.9752525;3;-0.52280992;0.0;-0.078481451;0;-0.0041292585;  1.0000052E+04;  0.0000000E+00; -4.7414360E-04;  1.0000000E+04;  0.0000000E+00;  9.9999961E+03;-0.0045674122;0.0;0.0004381536;2.6027253
  2.3999986E-01;  9.9999998E-03; -2.2000001E-01;1405;-0.00033296397;0.0;-4.2225038e-05;1000.0024;  4.0000001E-01;1.9752525;3;-0.54306614;0.0;-0.066006154;0;-0.0042033852;  1.0000053E+04;  0.0000000E+00; -1.3924022E-04;  1.0000000E+04;  0.0000000E+00;  9.9999961E+03;-0.0046526776;0.0;0.00044929239;1.8905574
  2.3999986E-01;  9.9999998E-03; -2.0000002E-01;1406;-0.00034424514;0.0;-3.5095101e-05;1000.0024;  4.0000001E-01;1.9752525;3;-0.55680597;0.0;-0.054822307;0;-0.0043149963;  1.0000056E+04;  0.0000000E+00; -2.7632803E-05;  1.0000000E+04;  0.0000000E+00;  9.9999961E+03;-0.0047176732;0.0;0.00040267673;1.6432333
  2.5999987E-01;  9.9999998E-03; -3.0000007E-01;1432;-0.00032014184;0.0;-0.00015526349;1000.0028;  4.0000001E-01;2.3703027;3;-0.55761045;0.0;-0.26584452;0;-0.0049386886;  1.0000060E+04;  0.0000000E+00; -3.3451437E-03;  1.0000000E+04;  0.0000000E+00;  9.9999971E+03;-0.0053613679;0.0;0.00042267915;13.723864
  2.5999984E-01;  9.9999998E-03; -2.8000006E-01;1433;-0.00036769576;0.0;-0.00011913131;1000.0031;  4.0000001E-01;2.5678279;3;-0.61886215;0.0;-0.19431329;0;-0.0052365288;  1.0000066E+04;  0.0000000E+00; -2.2515070E-03;  1.0000000E+04;  0.0000000E+00;  9.9999951E+03;-0.0057245847;0.0;0.0004880561;9.4242325
  2.5999984E-01;  9.9999998E-03; -2.6000005E-01;1434;-0.00040293165;0.0;-9.0666173e-05;1000.0031;  4.0000001E-01;2.5678279;3;-0.65970147;0.0;-0.14332166;0;-0.0053027812;  1.0000069E+04;  0.0000000E+00; -1.1041402E-03;  1.0000000E+04;  0.0000000E+00;  9.9999941E+03;-0.0059354194;0.0;0.00063263834;5.1899781
  2.5999981E-01;  9.9999998E-03; -2.4000002E-01;1435;-0.00042971576;0.0;-7.1304072e-05;1000.0031;  4.0000001E-01;2.5678279;3;-0.68998462;0.0;-0.11051116;0;-0.0053657512;  1.0000071E+04;  0.0000000E+00; -4.0653336E-04;  1.0000000E+04;  0.0000000E+00;  9.9999932E+03;-0.0060755219;0.0;0.0007097706;3.3088429
  2.5999981E-01;  9.9999998E-03; -2.2000003E-01;1436;-0.00044836564;0.0;-5.8144295e-05;1000.0032;  4.0000001E-01;2.6665907;3;-0.71056509;0.0;-0.089281134;0;-0.005491626;  1.0000074E+04;  0.0000000E+00; -1.1065438E-04;  1.0000000E+04;  0.0000000E+00;  9.9999932E+03;-0.0061720568;0.0;0.00068043085;2.8047156
  2.5999981E-01;  9.9999998E-03; -2.0000002E-01;1437;-0.00046124848;0.0;-4.7033678e-05;1000.0034;  4.0000001E-01;2.864116;3;-0.72443092;0.0;-0.071866736;0;-0.005648253;  1.0000074E+04;  0.0000000E+00; -1.9215211E-05;  1.0000000E+04;  0.0000000E+00;  9.9999941E+03;-0.0062356163;0.0;0.00058736338;2.4295859
  2.7999979E-01;  9.9999998E-03; -3.0000010E-01;1463;-0.00045771012;0.0;-0.0002277874;1000.0038;  4.0000001E-01;3.1604037;3;-0.78005743;0.0;-0.38131887;0;-0.006251609;  1.0000086E+04;  0.0000000E+00; -2.5543550E-03;  1.0000000E+04;  0.0000000E+00;  9.9999912E+03;-0.007251834;0.0;0.0010002252;11.144679
  2.7999979E-01;  9.9999998E-03; -2.8000009E-01;1464;-0.00051101402;0.0;-0.00017498824;1000.004;  4.0000001E-01;3.357929;3;-0.83890069;0.0;-0.28147835;0;-0.0066658738;  1.0000092E+04;  0.0000000E+00; -1.6722609E-03;  1.0000000E+04;  0.0000000E+00;  9.9999902E+03;-0.0076464475;0.0;0.00098057371;7.8958988
  2.7999976E-01;  9.9999998E-03; -2.6000005E-01;1465;-0.00055021199;0.0;-0.00013081801;1000.0042;  4.0000001E-01;3.4566915;3;-0.87699264;0.0;-0.20370279;0;-0.0068325093;  1.0000095E+04;  0.0000000E+00; -7.7921362E-04;  1.0000000E+04;  0.0000000E+00;  9.9999883E+03;-0.0078884065;0.0;0.0010558972;5.3205152
  2.7999973E-01;  9.9999998E-03; -2.4000004E-01;1466;-0.0005799522;0.0;-9.9992307e-05;1000.0042;  4.0000001E-01;3.4566915;3;-0.90518653;0.0;-0.15274709;0;-0.0069663664;  1.0000097E+04;  0.0000000E+00; -2.6407428E-04;  1.0000000E+04;  0.0000000E+00;  9.9999883E+03;-0.0080431569;0.0;0.0010767906;4.5346351
  2.7999973E-01;  9.9999998E-03; -2.2000003E-01;1467;-0.00060051348;0.0;-7.9197576e-05;1000.0045;  4.0000001E-01;3.6542168;3;-0.92408025;0.0;-0.11939941;0;-0.0071513578;  1.0000098E+04;  0.0000000E+00; -6.2985055E-05;  1.0000000E+04;  0.0000000E+00;  9.9999893E+03;-0.0081379646;0.0;0.00098660681;4.1009569
  2.7999973E-01;  9.9999998E-03; -2.0000003E-01;1468;-0.00061464676;0.0;-6.2311301e-05;1000.0045;  4.0000001E-01;3.7529795;3;-0.93679547;0.0;-0.093088925;0;-0.0073590497;  1.0000099E+04;  0.0000000E+00; -8.3646000E-06;  1.0000000E+04;  0.0000000E+00;  9.9999902E+03;-0.008189017;0.0;0.00082996703;3.5029998
  2.9999971E-01;  9.9999998E-03; -3.0000013E-01;1494;-0.00064031768;0.0;-0.00031361621;1000.0051;  4.0000001E-01;4.2467918;3;-1.0658109;0.0;-0.51107389;0;-0.0081846928;  1.0000120E+04;  0.0000000E+00; -1.5093182E-03;  1.0000000E+04;  0.0000000E+00;  9.9999834E+03;-0.0098656565;0.0;0.001680964;8.6851034
  2.9999968E-01;  9.9999998E-03; -2.8000012E-01;1495;-0.00070078677;0.0;-0.00024350939;1000.0054;  4.0000001E-01;4.4443169;3;-1.1206427;0.0;-0.38149795;0;-0.0086244568;  1.0000126E+04;  0.0000000E+00; -9.3796517E-04;  1.0000000E+04;  0.0000000E+00;  9.9999834E+03;-0.010227645;0.0;0.001603188;7.3238478
  2.9999965E-01;  9.9999998E-03; -2.6000008E-01;1496;-0.00074474135;0.0;-0.00018076526;1000.0056;  4.0000001E-01;4.6418424;3;-1.1543012;0.0;-0.27604854;0;-0.0088623073;  1.0000129E+04;  0.0000000E+00; -4.0010930E-04;  1.0000000E+04;  0.0000000E+00;  9.9999824E+03;-0.01045437;0.0;0.0015920624;6.6994429
  2.9999965E-01;  9.9999998E-03; -2.4000005E-01;1497;-0.00077762309;0.0;-0.00013619542;1000.0057;  4.0000001E-01;4.7406049;3;-1.1785102;0.0;-0.20432298;0;-0.0090480307;  1.0000132E+04;  0.0000000E+00; -1.1831414E-04;  1.0000000E+04;  0.0000000E+00;  9.9999834E+03;-0.01059165;0.0;0.0015436197;6.4793625
  2.9999962E-01;  9.9999998E-03; -2.2000004E-01;1498;-0.0007998306;0.0;-0.00010551811;1000.0059;  4.0000001E-01;4.8393674;3;-1.1939732;0.0;-0.15570216;0;-0.009286521;  1.0000133E+04;  0.0000000E+00; -2.1954958E-05;  1.0000000E+04;  0.0000000E+00;  9.9999863E+03;-0.010662899;0.0;0.0013763787;5.8574471
  2.9999962E-01;  9.9999998E-03; -2.0000003E-01;1499;-0.00081475964;0.0;-8.1257262e-05;1000.006;  4.0000001E-01;4.9381299;3;-1.2038702;0.0;-0.11833649;0;-0.009545642;  1.0000134E+04;  0.0000000E+00; -1.5714440E-06;  1.0000000E+04;  0.0000000E+00;  9.9999873E+03;-0.010684762;0.0;0.0011391203;4.9313812
  3.1999961E-01;  9.9999998E-03; -3.0000019E-01;1525;-0.00087665743;0.0;-0.00042099855;1000.007;  4.0000001E-01;5.8269935;3;-1.4227991;0.0;-0.6637156;0;-0.010825852;  1.0000167E+04;  0.0000000E+00; -6.1228935E-04;  1.0000000E+04;  0.0000000E+00;  9.9999736E+03;-0.013328052;0.0;0.0025022002;9.6380301
  3.1999958E-01;  9.9999998E-03; -2.8000015E-01;1526;-0.00094786217;0.0;-0.00032654157;1000.0073;  4.0000001E-01;6.0245185;3;-1.4741899;0.0;-0.49744037;0;-0.011258502;  1.0000172E+04;  0.0000000E+00; -3.4418271E-04;  1.0000000E+04;  0.0000000E+00;  9.9999736E+03;-0.013595823;0.0;0.0023373214;9.4418859
  3.1999955E-01;  9.9999998E-03; -2.6000011E-01;1527;-0.00099862309;0.0;-0.00024161073;1000.0074;  4.0000001E-01;6.1232815;3;-1.5028336;0.0;-0.35988271;0;-0.011519922;  1.0000175E+04;  0.0000000E+00; -1.2644443E-04;  1.0000000E+04;  0.0000000E+00;  9.9999746E+03;-0.013764224;0.0;0.0022443018;9.437871
  3.1999952E-01;  9.9999998E-03; -2.4000008E-01;1528;-0.0010357496;0.0;-0.00018057447;1000.0076;  4.0000001E-01;6.3208065;3;-1.5223018;0.0;-0.26441482;0;-0.011732456;  1.0000177E+04;  0.0000000E+00; -2.8424207E-05;  1.0000000E+04;  0.0000000E+00;  9.9999746E+03;-0.013854871;0.0;0.0021224143;9.1518383
  3.1999952E-01;  9.9999998E-03; -2.2000006E-01;1529;-0.0010596208;0.0;-0.00013777682;1000.0079;  4.0000001E-01;6.5183315;3;-1.5327071;0.0;-0.19883497;0;-0.012016737;  1.0000180E+04;  0.0000000E+00; -2.8340726E-06;  1.0000000E+04;  0.0000000E+00;  9.9999785E+03;-0.013880054;0.0;0.0018633163;8.1669884
  3.1999949E-01;  9.9999998E-03; -2.0000005E-01;1530;-0.0010747069;0.0;-0.0001042127;1000.0081;  4.0000001E-01;6.715857;3;-1.5378194;0.0;-0.14764097;0;-0.012326508;  1.0000180E+04;  0.0000000E+00; -5.4240773E-10;  1.0000000E+04;  0.0000000E+00;  9.9999834E+03;-0.013852037;0.0;0.0015255286;6.8023906
  3.3999944E-01;  9.9999998E-03; -3.0000025E-01;1556;-0.0011798886;0.0;-0.00055568223;1000.0097;  4.0000001E-01;7.9997702;3;-1.8627852;0.0;-0.84852523;0;-0.014205489;  1.0000230E+04;  0.0000000E+00; -1.1893598E-04;  1.0000000E+04;  0.0000000E+00;  9.9999619E+03;-0.017715408;0.0;0.0035099182;13.703245
  3.3999941E-01;  9.9999998E-03; -2.8000021E-01;1557;-0.0012675431;0.0;-0.00042971774;1000.0099;  4.0000001E-01;8.1972952;3;-1.9145499;0.0;-0.63420349;0;-0.014645432;  1.0000233E+04;  0.0000000E+00; -5.6452540E-05;  1.0000000E+04;  0.0000000E+00;  9.9999648E+03;-0.017876673;0.0;0.0032312411;13.438528
  3.3999938E-01;  9.9999998E-03; -2.6000014E-01;1558;-0.0013284201;0.0;-0.00031647924;1000.0101;  4.0000001E-01;8.2960577;3;-1.9384594;0.0;-0.45753035;0;-0.014927227;  1.0000235E+04;  0.0000000E+00; -1.4604019E-05;  1.0000000E+04;  0.0000000E+00;  9.9999648E+03;-0.01797346;0.0;0.0030462334;13.232476
  3.3999935E-01;  9.9999998E-03; -2.4000011E-01;1559;-0.0013712076;0.0;-0.00023389079;1000.0102;  4.0000001E-01;8.4935827;3;-1.9519136;0.0;-0.33261815;0;-0.015163222;  1.0000237E+04;  0.0000000E+00; -1.2309946E-06;  1.0000000E+04;  0.0000000E+00;  9.9999678E+03;-0.017999582;0.0;0.0028363594;12.640506
  3.3999932E-01;  9.9999998E-03; -2.2000009E-01;1560;-0.0013967307;0.0;-0.00017657873;1000.0104;  4.0000001E-01;8.6911087;3;-1.9556811;0.0;-0.24773622;0;-0.015488926;  1.0000237E+04;  0.0000000E+00;  1.7920665E-09;  1.0000000E+04;  0.0000000E+00;  9.9999717E+03;-0.017954681;0.0;0.002465755;11.168341
  3.3999932E-01;  9.9999998E-03; -2.0000006E-01;1561;-0.0014107773;0.0;-0.00013179782;1000.0107;  4.0000001E-01;8.8886337;3;-1.9530196;0.0;-0.18089871;0;-0.015845843;  1.0000236E+04;  0.0000000E+00; -6.8225076E-10;  1.0000000E+04;  0.0000000E+00;  9.9999756E+03;-0.017847385;0.0;0.0020015431;9.2274828
  3.5999924E-01;  9.9999998E-03; -3.0000037E-01;1587;-0.0015709839;0.0;-0.00072589202;1000.0129;  4.0000001E-01;10.666359;3;-2.4090438;0.0;-1.0723319;0;-0.018404689;  1.0000311E+04;  0.0000000E+00; -1.9724102E-06;  1.0000000E+04;  0.0000000E+00;  9.9999473E+03;-0.023199124;0.0;0.0047944346;19.581757
  3.5999918E-01;  9.9999998E-03; -2.8000027E-01;1588;-0.0016817363;0.0;-0.00055872463;1000.0131;  4.0000001E-01;10.863884;3;-2.4636586;0.0;-0.79915541;0;-0.01893774;  1.0000314E+04;  0.0000000E+00; -2.8080319E-07;  1.0000000E+04;  0.0000000E+00;  9.9999502E+03;-0.023287416;0.0;0.0043496741;18.769039
  3.5999912E-01;  9.9999998E-03; -2.6000020E-01;1589;-0.0017562809;0.0;-0.00040806289;1000.0134;  4.0000001E-01;11.061409;3;-2.4824035;0.0;-0.57215285;0;-0.019277111;  1.0000314E+04;  0.0000000E+00;  5.9838733E-08;  1.0000000E+04;  0.0000000E+00;  9.9999531E+03;-0.023310458;0.0;0.0040333471;18.139179
  3.5999909E-01;  9.9999998E-03; -2.4000014E-01;1590;-0.0018056;0.0;-0.00029861202;1000.0136;  4.0000001E-01;11.258934;3;-2.48785;0.0;-0.41160294;0;-0.019532202;  1.0000315E+04;  0.0000000E+00;  2.0930345E-08;  1.0000000E+04;  0.0000000E+00;  9.9999561E+03;-0.023246048;0.0;0.0037138469;17.147968
  3.5999909E-01;  9.9999998E-03; -2.2000012E-01;1591;-0.0018315024;0.0;-0.00022285499;1000.0138;  4.0000001E-01;11.456459;3;-2.4804168;0.0;-0.3014746;0;-0.019886814;  1.0000315E+04;  0.0000000E+00;  2.7102462E-09;  1.0000000E+04;  0.0000000E+00;  9.9999629E+03;-0.023089318;0.0;0.0032025035;15.036613
  3.5999906E-01;  9.9999998E-03; -2.0000008E-01;1592;-0.001842374;0.0;-0.00016479335;1000.0141;  4.0000001E-01;11.653984;3;-2.4660118;0.0;-0.21766034;0;-0.020274904;  1.0000313E+04;  0.0000000E+00; -1.6100150E-09;  1.0000000E+04;  0.0000000E+00;  9.9999688E+03;-0.02285422;0.0;0.0025793163;12.343886
  3.7999895E-01;  9.9999998E-03; -3.0000049E-01;1618;-0.0020790547;0.0;-0.00094379496;1000.0171;  4.0000001E-01;14.123047;3;-3.0927942;0.0;-1.3478953;0;-0.02366348;  1.0000417E+04;  0.0000000E+00;  1.9137269E-07;  1.0000000E+04;  0.0000000E+00;  9.9999258E+03;-0.030168146;0.0;0.0065046661;27.753336
  3.7999889E-01;  9.9999998E-03; -2.8000036E-01;1619;-0.0022191801;0.0;-0.00072037504;1000.0175;  4.0000001E-01;14.419334;3;-3.1496925;0.0;-0.99780267;0;-0.024409009;  1.0000418E+04;  0.0000000E+00;  1.7847773E-07;  1.0000000E+04;  0.0000000E+00;  9.9999326E+03;-0.030173698;0.0;0.0057646888;25.801584
  3.7999883E-01;  9.9999998E-03; -2.6000026E-01;1620;-0.0023097999;0.0;-0.00052014465;1000.0177;  4.0000001E-01;14.616859;3;-3.1604269;0.0;-0.70753646;0;-0.02483888;  1.0000419E+04;  0.0000000E+00;  9.5335018E-08;  1.0000000E+04;  0.0000000E+00;  9.9999375E+03;-0.03007816;0.0;0.005239279;24.450798
  3.7999877E-01;  9.9999998E-03; -2.4000019E-01;1621;-0.0023647526;0.0;-0.00037628182;1000.0179;  4.0000001E-01;14.913147;3;-3.1527514;0.0;-0.50168985;0;-0.025083361;  1.0000417E+04;  0.0000000E+00;  3.3274279E-08;  1.0000000E+04;  0.0000000E+00;  9.9999414E+03;-0.029857311;0.0;0.0047739502;22.910795
  3.7999877E-01;  9.9999998E-03; -2.2000015E-01;1622;-0.0023880876;0.0;-0.00027806932;1000.0182;  4.0000001E-01;15.110672;3;-3.1283147;0.0;-0.36112005;0;-0.025427345;  1.0000415E+04;  0.0000000E+00;  4.8314681E-09;  1.0000000E+04;  0.0000000E+00;  9.9999502E+03;-0.02951481;0.0;0.0040874649;19.978247
  3.7999874E-01;  9.9999998E-03; -2.0000011E-01;1623;-0.0023917079;0.0;-0.00020473759;1000.0185;  4.0000001E-01;15.308197;3;-3.0949707;0.0;-0.25847477;0;-0.025809929;  1.0000412E+04;  0.0000000E+00; -1.4229591E-09;  1.0000000E+04;  0.0000000E+00;  9.9999580E+03;-0.029080978;0.0;0.003271048;16.33246
  3.9999858E-01;  9.9999998E-03; -3.0000064E-01;1649;-0.0027401741;0.0;-0.0012198222;1000.0226;  4.0000001E-01;18.666121;3;-3.9498134;0.0;-1.684111;0;-0.030366305;  1.0000556E+04;  0.0000000E+00;  2.7783153E-07;  1.0000000E+04;  0.0000000E+00;  9.9998965E+03;-0.039084051;0.0;0.0087177455;38.792759
  3.9999849E-01;  9.9999998E-03; -2.8000048E-01;1650;-0.0029152136;0.0;-0.00092169194;1000.0233;  4.0000001E-01;19.258696;3;-4.0056791;0.0;-1.2371054;0;-0.031412628;  1.0000555E+04;  0.0000000E+00;  2.7209995E-07;  1.0000000E+04;  0.0000000E+00;  9.9999092E+03;-0.038920671;0.0;0.0075080423;34.807732
  3.9999840E-01;  9.9999998E-03; -2.6000035E-01;1651;-0.0030226395;0.0;-0.00065572193;1000.0235;  4.0000001E-01;19.456221;3;-4.002347;0.0;-0.86425197;0;-0.031935528;  1.0000554E+04;  0.0000000E+00;  1.4752885E-07;  1.0000000E+04;  0.0000000E+00;  9.9999180E+03;-0.038605776;0.0;0.0066702496;32.379829
  3.9999837E-01;  9.9999998E-03; -2.4000025E-01;1652;-0.0030793995;0.0;-0.00046914318;1000.0236;  4.0000001E-01;19.554983;3;-3.9726241;0.0;-0.60395682;0;-0.03209671;  1.0000550E+04;  0.0000000E+00;  5.1541260E-08;  1.0000000E+04;  0.0000000E+00;  9.9999238E+03;-0.038120348;0.0;0.006023637;30.204109
  3.9999834E-01;  9.9999998E-03; -2.2000019E-01;1653;-0.003094113;0.0;-0.00034475783;1000.0239;  4.0000001E-01;19.752508;3;-3.9211688;0.0;-0.42898491;0;-0.032353748;  1.0000544E+04;  0.0000000E+00;  9.6034780E-09;  1.0000000E+04;  0.0000000E+00;  9.9999346E+03;-0.037485648;0.0;0.0051318998;26.27553
  3.9999834E-01;  9.9999998E-03; -2.0000014E-01;1654;-0.0030839907;0.0;-0.00025463477;1000.0242;  4.0000001E-01;20.048796;3;-3.8590481;0.0;-0.30518433;0;-0.032665502;  1.0000537E+04;  0.0000000E+00; -1.4871371E-09;  1.0000000E+04;  0.0000000E+00;  9.9999482E+03;-0.036757573;0.0;0.0040920726;21.462334
  4.1999808E-01;  9.9999998E-03; -3.0000088E-01;1680;-0.0035999904;0.0;-0.0015682111;1000.0301;  4.0000001E-01;24.888153;3;-5.0220585;0.0;-2.0915606;0;-0.03887501;  1.0000740E+04;  0.0000000E+00;  3.8090008E-07;  1.0000000E+04;  0.0000000E+00;  9.9998613E+03;-0.050395567;0.0;0.011520556;53.283611
  4.1999793E-01;  9.9999998E-03; -2.8000063E-01;1681;-0.0038147368;0.0;-0.0011678685;1000.0308;  4.0000001E-01;25.579491;3;-5.0706177;0.0;-1.5180116;0;-0.040374059;  1.0000736E+04;  0.0000000E+00;  4.0737405E-07;  1.0000000E+04;  0.0000000E+00;  9.9998838E+03;-0.049924266;0.0;0.0095502073;45.968704
  4.1999784E-01;  9.9999998E-03; -2.6000044E-01;1682;-0.0039366018;0.0;-0.00081761228;1000.0311;  4.0000001E-01;25.777016;3;-5.0428805;0.0;-1.04356;0;-0.040942866;  1.0000729E+04;  0.0000000E+00;  2.3374918E-07;  1.0000000E+04;  0.0000000E+00;  9.9998936E+03;-0.049239039;0.0;0.008296174;42.191948
  4.1999781E-01;  9.9999998E-03; -2.4000032E-01;1683;-0.0039870287;0.0;-0.00057982095;1000.031;  4.0000001E-01;25.678253;3;-4.9769573;0.0;-0.71751928;0;-0.040874604;  1.0000719E+04;  0.0000000E+00;  8.5381473E-08;  1.0000000E+04;  0.0000000E+00;  9.9999004E+03;-0.048336048;0.0;0.0074614431;39.444714
  4.1999781E-01;  9.9999998E-03; -2.2000024E-01;1684;-0.0039831041;0.0;-0.00042694053;1000.0312;  4.0000001E-01;25.875778;3;-4.8834047;0.0;-0.50732416;0;-0.040915057;  1.0000707E+04;  0.0000000E+00;  1.7629093E-08;  1.0000000E+04;  0.0000000E+00;  9.9999160E+03;-0.047266677;0.0;0.0063516209;34.388317
  4.1999781E-01;  9.9999998E-03; -2.0000018E-01;1685;-0.0039489102;0.0;-0.00031984426;1000.0313;  4.0000001E-01;25.974541;3;-4.7780766;0.0;-0.36156404;0;-0.041053291;  1.0000697E+04;  0.0000000E+00; -1.1251304E-09;  1.0000000E+04;  0.0000000E+00;  9.9999326E+03;-0.046123404;0.0;0.0050701136;28.183331
  4.3999738E-01;  9.9999998E-03; -3.0000114E-01;1711;-0.0047193617;0.0;-0.0020027277;1000.0397;  4.0000001E-01;32.887905;3;-6.3625097;0.0;-2.5817297;0;-0.049672097;  1.0000979E+04;  0.0000000E+00;  4.5083956E-07;  1.0000000E+04;  0.0000000E+00;  9.9998154E+03;-0.064541064;0.0;0.014868967;71.121765
  4.3999720E-01;  9.9999998E-03; -2.8000084E-01;1712;-0.0049756006;0.0;-0.0014650653;1000.0407;  4.0000001E-01;33.776768;3;-6.3925753;0.0;-1.8466467;0;-0.051779047;  1.0000966E+04;  0.0000000E+00;  6.1419371E-07;  1.0000000E+04;  0.0000000E+00;  9.9998506E+03;-0.063561253;0.0;0.011782207;59.070568
  4.3999711E-01;  9.9999998E-03; -2.6000056E-01;1713;-0.0051040957;0.0;-0.0010074705;1000.0407;  4.0000001E-01;33.776768;3;-6.3230109;0.0;-1.2400224;0;-0.05223731;  1.0000949E+04;  0.0000000E+00;  3.7946188E-07;  1.0000000E+04;  0.0000000E+00;  9.9998652E+03;-0.062297784;0.0;0.010060475;54.294197
  4.3999708E-01;  9.9999998E-03; -2.4000041E-01;1714;-0.0051337541;0.0;-0.00071405747;1000.0403;  4.0000001E-01;33.381718;3;-6.199049;0.0;-0.84548354;0;-0.051681116;  1.0000932E+04;  0.0000000E+00;  1.4836556E-07;  1.0000000E+04;  0.0000000E+00;  9.9998740E+03;-0.060776748;0.0;0.0090956334;51.432896
  4.3999711E-01;  9.9999998E-03; -2.2000031E-01;1715;-0.005096463;0.0;-0.00053130061;1000.0402;  4.0000001E-01;33.282955;3;-6.0425625;0.0;-0.59846812;0;-0.051308788;  1.0000912E+04;  0.0000000E+00;  3.6951214E-08;  1.0000000E+04;  0.0000000E+00;  9.9998916E+03;-0.059095148;0.0;0.0077863606;45.179394
  4.3999711E-01;  9.9999998E-03; -2.0000024E-01;1716;-0.0050235041;0.0;-0.00041105555;1000.0402;  4.0000001E-01;33.282955;3;-5.873363;0.0;-0.43778792;0;-0.051128253;  1.0000896E+04;  0.0000000E+00;  5.1716564E-09;  1.0000000E+04;  0.0000000E+00;  9.9999121E+03;-0.057393532;0.0;0.0062652775;37.29538
  4.5999643E-01;  9.9999998E-03; -3.0000150E-01;1742;-0.0061798608;0.0;-0.0025417123;1000.0526;  4.0000021E-01;43.554226;3;-8.0394154;0.0;-3.1634128;0;-0.063161582;  1.0001277E+04;  0.0000000E+00;  4.8811154E-07;  1.0000000E+04;  0.0000000E+00;  9.9997646E+03;-0.081822939;0.0;0.018661361;92.554779
  4.5999622E-01;  9.9999998E-03; -2.8000107E-01;1743;-0.0064711669;0.0;-0.0018196295;1000.0538;  4.0000024E-01;44.640614;3;-8.0293722;0.0;-2.2205665;0;-0.066044509;  1.0001253E+04;  0.0000000E+00;  9.7513987E-07;  1.0000000E+04;  0.0000000E+00;  9.9998145E+03;-0.08007504;0.0;0.014030532;74.228264
  4.5999616E-01;  9.9999998E-03; -2.6000074E-01;1744;-0.0065888315;0.0;-0.0012351756;1000.0532;  4.0000024E-01;44.048038;3;-7.8892627;0.0;-1.4622974;0;-0.06604062;  1.0001226E+04;  0.0000000E+00;  6.6438889E-07;  1.0000000E+04;  0.0000000E+00;  9.9998301E+03;-0.077974141;0.0;0.011933522;69.831245
  4.5999613E-01;  9.9999998E-03; -2.4000053E-01;1745;-0.0065749884;0.0;-0.00088493002;1000.0522;  4.0000021E-01;43.257938;3;-7.6750412;0.0;-0.994892;0;-0.064598083;  1.0001195E+04;  0.0000000E+00;  2.8486241E-07;  1.0000000E+04;  0.0000000E+00;  9.9998369E+03;-0.075595543;0.0;0.010997456;67.878731
  4.5999616E-01;  9.9999998E-03; -2.2000042E-01;1746;-0.0064842426;0.0;-0.00067553204;1000.0516;  4.0000024E-01;42.764126;3;-7.426908;0.0;-0.71653247;0;-0.063548177;  1.0001165E+04;  0.0000000E+00;  9.0633527E-08;  1.0000000E+04;  0.0000000E+00;  9.9998574E+03;-0.073098294;0.0;0.0095501179;60.329433
  4.5999622E-01;  9.9999998E-03; -2.0000035E-01;1747;-0.0063548354;0.0;-0.00054668001;1000.0514;  4.0000024E-01;42.566601;3;-7.1677084;0.0;-0.5531497;0;-0.062876329;  1.0001137E+04;  0.0000000E+00;  2.4730326E-08;  1.0000000E+04;  0.0000000E+00;  9.9998838E+03;-0.070680834;0.0;0.0078045093;50.227314
  4.7999513E-01;  9.9999998E-03; -3.0000198E-01;1773;-0.0080914879;0.0;-0.0032067103;1000.069;  4.0000072E-01;57.183395;3;-10.142911;0.0;-3.8485088;0;-0.079610482;  1.0001644E+04;  0.0000000E+00;  5.2544306E-07;  1.0000000E+04;  0.0000000E+00;  9.9997051E+03;-0.10218343;0.0;0.022572948;116.57831
  4.7999492E-01;  9.9999998E-03; -2.8000137E-01;1774;-0.0083913235;0.0;-0.0022407877;1000.0706;  4.0000069E-01;58.467304;3;-10.048854;0.0;-2.6357267;0;-0.083324775;  1.0001602E+04;  0.0000000E+00;  1.7089728E-06;  1.0000000E+04;  0.0000000E+00;  9.9997744E+03;-0.099376872;0.0;0.016052095;91.906715
  4.7999489E-01;  9.9999998E-03; -2.6000094E-01;1775;-0.0084642423;0.0;-0.0015155936;1000.0685;  4.0000075E-01;56.788345;3;-9.79286;0.0;-1.7118642;0;-0.08218471;  1.0001556E+04;  0.0000000E+00;  1.2652652E-06;  1.0000000E+04;  0.0000000E+00;  9.9997832E+03;-0.096155547;0.0;0.013970839;91.493607
  4.7999492E-01;  9.9999998E-03; -2.4000071E-01;1776;-0.0083721615;0.0;-0.0011198529;1000.0663;  4.0000069E-01;54.911861;3;-9.4412012;0.0;-1.1855658;0;-0.079267398;  1.0001509E+04;  0.0000000E+00;  5.8693098E-07;  1.0000000E+04;  0.0000000E+00;  9.9997822E+03;-0.0926679;0.0;0.013400506;92.314804
  4.7999498E-01;  9.9999998E-03; -2.2000057E-01;1777;-0.0082032634;0.0;-0.00089125521;1000.0652;  4.0000072E-01;54.022999;3;-9.0638409;0.0;-0.88803077;0;-0.077241793;  1.0001464E+04;  0.0000000E+00;  2.1030166E-07;  1.0000000E+04;  0.0000000E+00;  9.9998057E+03;-0.089148171;0.0;0.011906375;83.049583
  4.7999504E-01;  9.9999998E-03; -2.0000048E-01;1778;-0.0079988455;0.0;-0.00075591292;1000.0649;  4.0000060E-01;53.825478;3;-8.6843605;0.0;-0.73216575;0;-0.075919509;  1.0001425E+04;  0.0000000E+00;  7.9084614E-08;  1.0000000E+04;  0.0000000E+00;  9.9998408E+03;-0.085856162;0.0;0.0099366531;69.500374
  4.9999335E-01;  9.9999998E-03; -3.0000263E-01;1804;-0.010600622;0.0;-0.004031715;1000.0892;  4.0000159E-01;73.874161;3;-12.78964;0.0;-4.646565;0;-0.098695643;  1.0002060E+04;  0.0000000E+00;  7.5647262E-07;  1.0000000E+04;  0.0000000E+00;  9.9996455E+03;-0.12486279;0.0;0.026167147;142.14063
  4.9999321E-01;  9.9999998E-03; -2.8000179E-01;1805;-0.010838847;0.0;-0.0027475068;1000.0901;  4.0000162E-01;74.664253;3;-12.527551;0.0;-3.0886979;0;-0.10309057;  1.0001998E+04;  0.0000000E+00;  3.4301049E-06;  1.0000000E+04;  0.0000000E+00;  9.9997275E+03;-0.12073668;0.0;0.017646115;114.1521
  4.9999323E-01;  9.9999998E-03; -2.6000124E-01;1806;-0.010803243;0.0;-0.0018828209;1000.0861;  4.0000159E-01;71.306343;3;-12.081521;0.0;-1.9990659;0;-0.099625923;  1.0001932E+04;  0.0000000E+00;  2.6949297E-06;  1.0000000E+04;  0.0000000E+00;  9.9997119E+03;-0.11615115;0.0;0.016525222;125.2821
  4.9999335E-01;  9.9999998E-03; -2.4000098E-01;1807;-0.010586548;0.0;-0.0014656099;1000.082;  4.0000159E-01;67.948425;3;-11.534612;0.0;-1.447956;0;-0.09449029;  1.0001866E+04;  0.0000000E+00;  1.2858166E-06;  1.0000000E+04;  0.0000000E+00;  9.9996963E+03;-0.11135153;0.0;0.016861234;131.68538
  4.9999347E-01;  9.9999998E-03; -2.2000082E-01;1808;-0.010308726;0.0;-0.0012324576;1000.0804;  4.0000162E-01;66.56575;3;-10.976404;0.0;-1.1591496;0;-0.091241546;  1.0001803E+04;  0.0000000E+00;  4.7321825E-07;  1.0000000E+04;  0.0000000E+00;  9.9997266E+03;-0.10664757;0.0;0.015406017;119.32365
  4.9999356E-01;  9.9999998E-03; -2.0000072E-01;1809;-0.010011639;0.0;-0.0010880705;1000.08;  4.0000159E-01;66.269463;3;-10.441179;0.0;-1.0269209;0;-0.089226797;  1.0001748E+04;  0.0000000E+00;  1.9381847E-07;  1.0000000E+04;  0.0000000E+00;  9.9997725E+03;-0.10235127;0.0;0.013124474;99.534332
  5.1999092E-01;  9.9999998E-03; -3.0000353E-01;1835;-0.013880069;0.0;-0.0050726668;1000.1149;  4.0000436E-01;95.206673;3;-16.102758;0.0;-5.5425467;0;-0.11894771;  1.0002499E+04;  0.0000000E+00;  2.1112248E-06;  1.0000000E+04;  0.0000000E+00;  9.9995811E+03;-0.14798854;0.0;0.02904083;171.1855
  5.1999098E-01;  9.9999998E-03; -2.8000236E-01;1836;-0.013913943;0.0;-0.0034037335;1000.1146;  4.0000445E-01;95.009148;3;-15.538767;0.0;-3.5948505;0;-0.12331156;  1.0002413E+04;  0.0000000E+00;  7.8905205E-06;  1.0000000E+04;  0.0000000E+00;  9.9996582E+03;-0.14242257;0.0;0.019111006;148.45831
  5.1999116E-01;  9.9999998E-03; -2.6000169E-01;1837;-0.01365973;0.0;-0.0024126631;1000.1065;  4.0000439E-01;88.194565;3;-14.789497;0.0;-2.3586726;0;-0.11583748;  1.0002323E+04;  0.0000000E+00;  6.2861764E-06;  1.0000000E+04;  0.0000000E+00;  9.9995869E+03;-0.136379;0.0;0.020541517;183.24634
  5.1999140E-01;  9.9999998E-03; -2.4000141E-01;1838;-0.013254456;0.0;-0.0020108372;1000.1003;  4.0000442E-01;83.058937;3;-13.97131;0.0;-1.8446293;0;-0.10769276;  1.0002238E+04;  0.0000000E+00;  2.9722310E-06;  1.0000000E+04;  0.0000000E+00;  9.9995498E+03;-0.13021317;0.0;0.022520414;198.45662
  5.1999158E-01;  9.9999998E-03; -2.2000122E-01;1839;-0.012837481;0.0;-0.001784542;1000.0984;  4.0000442E-01;81.478737;3;-13.175654;0.0;-1.6059332;0;-0.10320557;  1.0002155E+04;  0.0000000E+00;  1.0342920E-06;  1.0000000E+04;  0.0000000E+00;  9.9995918E+03;-0.12428898;0.0;0.021083407;179.54097
  5.1999170E-01;  9.9999998E-03; -2.0000106E-01;1840;-0.012436885;0.0;-0.0016099312;1000.0986;  4.0000448E-01;81.676262;3;-12.44949;0.0;-1.5187697;0;-0.10075854;  1.0002086E+04;  0.0000000E+00;  3.7369941E-07;  1.0000000E+04;  0.0000000E+00;  9.9996631E+03;-0.1189443;0.0;0.018185765;147.88649
  5.3998774E-01;  9.9999998E-03; -3.0000481E-01;1866;-0.018092992;0.0;-0.0064500207;1000.1489;  4.0001169E-01;123.35365;3;-20.204521;0.0;-6.5621614;0;-0.13716401;  1.0002891E+04;  0.0000000E+00;  6.7996712E-06;  1.0000000E+04;  0.0000000E+00;  9.9995010E+03;-0.16826482;0.0;0.031100811;210.22194
  5.3998816E-01;  9.9999998E-03; -2.8000325E-01;1867;-0.017678043;0.0;-0.0043325177;1000.1452;  4.0001166E-01;120.29202;3;-19.129501;0.0;-4.1838951;0;-0.1400149;  1.0002787E+04;  0.0000000E+00;  1.9418187E-05;  1.0000000E+04;  0.0000000E+00;  9.9995322E+03;-0.16143207;0.0;0.021417167;210.43481
  5.3998870E-01;  9.9999998E-03; -2.6000243E-01;1868;-0.017038919;0.0;-0.0032497232;1000.1314;  4.0001166E-01;108.83564;3;-17.933542;0.0;-2.8837013;0;-0.12633689;  1.0002680E+04;  0.0000000E+00;  1.5450829E-05;  1.0000000E+04;  0.0000000E+00;  9.9993633E+03;-0.1541367;0.0;0.027799809;285.68204
  5.3998905E-01;  9.9999998E-03; -2.4000210E-01;1869;-0.016362155;0.0;-0.0028991676;1000.1227;  4.0001175E-01;101.72478;3;-16.726601;0.0;-2.5093267;0;-0.11452632;  1.0002575E+04;  0.0000000E+00;  7.0730280E-06;  1.0000000E+04;  0.0000000E+00;  9.9992969E+03;-0.14682733;0.0;0.032301005;311.362
  5.3998929E-01;  9.9999998E-03; -2.2000182E-01;1870;-0.015784651;0.0;-0.0026632973;1000.1213;  4.0001175E-01;100.44088;3;-15.641954;0.0;-2.3761194;0;-0.10926315;  1.0002478E+04;  0.0000000E+00;  2.1622327E-06;  1.0000000E+04;  0.0000000E+00;  9.9993662E+03;-0.13987419;0.0;0.030611036;279.33905
  5.3998941E-01;  9.9999998E-03; -2.0000154E-01;1871;-0.015282977;0.0;-0.0023917847;1000.1229;  4.0001169E-01;101.82354;3;-14.683917;0.0;-2.3291707;0;-0.10716985;  1.0002392E+04;  0.0000000E+00;  5.6487096E-07;  1.0000000E+04;  0.0000000E+00;  9.9994824E+03;-0.1336005;0.0;0.026430655;226.42778
  5.5998367E-01;  9.9999998E-03; -3.0000681E-01;1897;-0.02329967;0.0;-0.0083777001;1000.2037;  4.0003145E-01;168.78372;3;-25.119591;0.0;-7.712882;0;-0.14738557;  1.0003149E+04;  0.0000000E+00;  1.9365014E-05;  1.0000000E+04;  0.0000000E+00;  9.9993506E+03;-0.18088937;0.0;0.033503797;283.48108
  5.5998486E-01;  9.9999998E-03; -2.8000474E-01;1898;-0.022077182;0.0;-0.0057827616;1000.1944;  4.0003145E-01;161.08031;3;-23.264967;0.0;-4.9549432;0;-0.14632757;  1.0003035E+04;  0.0000000E+00;  4.6975190E-05;  1.0000000E+04;  0.0000000E+00;  9.9992803E+03;-0.17339863;0.0;0.027071061;330.25284
  5.5998582E-01;  9.9999998E-03; -2.6000366E-01;1899;-0.020845341;0.0;-0.0046394821;1000.1736;  4.0003142E-01;143.79701;3;-21.422808;0.0;-3.734122;0;-0.12426658;  1.0002919E+04;  0.0000000E+00;  3.7217433E-05;  1.0000000E+04;  0.0000000E+00;  9.9989805E+03;-0.16549389;0.0;0.041227311;458.67307
  5.5998635E-01;  9.9999998E-03; -2.4000306E-01;1900;-0.019840663;0.0;-0.0042704339;1000.1634;  4.0003145E-01;135.40227;3;-19.627251;0.0;-3.7305653;0;-0.10907815;  1.0002808E+04;  0.0000000E+00;  1.6610915E-05;  1.0000000E+04;  0.0000000E+00;  9.9988896E+03;-0.15765569;0.0;0.04857754;492.34253
  5.5998659E-01;  9.9999998E-03; -2.2000259E-01;1901;-0.019111203;0.0;-0.0039052812;1000.1638;  4.0003151E-01;135.69856;3;-18.163462;0.0;-3.7654765;0;-0.10414149;  1.0002699E+04;  0.0000000E+00;  4.4781727E-06;  1.0000000E+04;  0.0000000E+00;  9.9990049E+03;-0.15018892;0.0;0.046047438;438.72107
  5.5998677E-01;  9.9999998E-03; -2.0000218E-01;1902;-0.018522816;0.0;-0.0034519997;1000.1686;  4.0003142E-01;139.64902;3;-17.120964;0.0;-3.4990461;0;-0.10370897;  1.0002604E+04;  0.0000000E+00;  5.6326382E-07;  1.0000000E+04;  0.0000000E+00;  9.9991963E+03;-0.14336117;0.0;0.039652195;351.22098
  5.7997888E-01;  9.9999998E-03; -3.0000997E-01;1928;-0.029319268;0.0;-0.011254147;1000.3182;  4.0008396E-01;263.59406;3;-30.696117;0.0;-9.0951777;0;-0.13961449;  1.0003152E+04;  0.0000000E+00;  4.6672030E-05;  1.0000000E+04;  0.0000000E+00;  9.9990078E+03;-0.17985971;0.0;0.040245216;444.02853
  5.7998115E-01;  9.9999998E-03; -2.8000730E-01;1929;-0.026877401;0.0;-0.0082164006;1000.3012;  4.0008393E-01;249.56993;3;-27.724564;0.0;-6.0435691;0;-0.13133505;  1.0003049E+04;  0.0000000E+00;  1.0426730E-04;  1.0000000E+04;  0.0000000E+00;  9.9987754E+03;-0.1727778;0.0;0.041442759;561.67004
  5.7998252E-01;  9.9999998E-03; -2.6000550E-01;1930;-0.024893282;0.0;-0.0068619875;1000.2759;  4.0008396E-01;228.53377;3;-24.734825;0.0;-5.4841347;0;-0.10174429;  1.0002939E+04;  0.0000000E+00;  8.2022518E-05;  1.0000000E+04;  0.0000000E+00;  9.9983809E+03;-0.16535282;0.0;0.063608535;725.31964
  5.7998317E-01;  9.9999998E-03; -2.4000433E-01;1931;-0.023659492;0.0;-0.0061181961;1000.2651;  4.0008396E-01;219.64525;3;-22.445589;0.0;-5.5831051;0;-0.084595501;  1.0002833E+04;  0.0000000E+00;  3.6207843E-05;  1.0000000E+04;  0.0000000E+00;  9.9982715E+03;-0.15800115;0.0;0.073405653;764.39301
  5.7998359E-01;  9.9999998E-03; -2.2000356E-01;1932;-0.022784885;0.0;-0.0054743104;1000.269;  4.0008393E-01;222.8056;3;-20.938515;0.0;-5.4319749;0;-0.081138887;  1.0002732E+04;  0.0000000E+00;  8.9751848E-06;  1.0000000E+04;  0.0000000E+00;  9.9984502E+03;-0.15090311;0.0;0.069764219;679.62573
  5.7998389E-01;  9.9999998E-03; -2.0000292E-01;1933;-0.022079436;0.0;-0.0047465567;1000.2797;  4.0008396E-01;231.69412;3;-19.721848;0.0;-4.9928212;0;-0.0843779;  1.0002638E+04;  0.0000000E+00;  1.3218229E-07;  1.0000000E+04;  0.0000000E+00;  9.9987578E+03;-0.14422481;0.0;0.059846908;539.71606
  5.9997392E-01;  9.9999998E-03; -3.0001521E-01;1959;-0.035582688;0.0;-0.015681284;1000.5934;  4.0021726E-01;491.63177;3;-36.41502;0.0;-10.688551;0;-0.099152565;  1.0002787E+04;  0.0000000E+00;  9.3892420E-05;  1.0000000E+04;  0.0000000E+00;  9.9982158E+03;-0.1589919;0.0;0.059839334;811.69958
  5.9997714E-01;  9.9999998E-03; -2.8001153E-01;1960;-0.031795248;0.0;-0.01228031;1000.5718;  4.0021724E-01;473.65729;3;-31.846302;0.0;-8.0563107;0;-0.082194;  1.0002711E+04;  0.0000000E+00;  1.9976869E-04;  1.0000000E+04;  0.0000000E+00;  9.9978604E+03;-0.15365413;0.0;0.071460128;974.315
  5.9997886E-01;  9.9999998E-03; -2.6000822E-01;1961;-0.029275954;0.0;-0.009964304;1000.5492;  4.0021729E-01;454.99149;3;-27.869736;0.0;-7.7348347;0;-0.051463291;  1.0002633E+04;  0.0000000E+00;  1.5659603E-04;  1.0000000E+04;  0.0000000E+00;  9.9974902E+03;-0.14805736;0.0;0.096594065;1121.9124
  5.9997988E-01;  9.9999998E-03; -2.4000612E-01;1962;-0.027703626;0.0;-0.0085820565;1000.5403;  4.0021726E-01;447.58441;3;-25.526972;0.0;-7.8137765;0;-0.033166528;  1.0002555E+04;  0.0000000E+00;  6.9711597E-05;  1.0000000E+04;  0.0000000E+00;  9.9973906E+03;-0.14247213;0.0;0.10930561;1150.8052
  5.9998041E-01;  9.9999998E-03; -2.2000474E-01;1963;-0.026643317;0.0;-0.0073833931;1000.5503;  4.0021732E-01;455.88034;3;-23.781986;0.0;-7.4555516;0;-0.033332601;  1.0002478E+04;  0.0000000E+00;  1.6711705E-05;  1.0000000E+04;  0.0000000E+00;  9.9976689E+03;-0.1368998;0.0;0.1035672;1018.3219
  5.9998083E-01;  9.9999998E-03; -2.0000380E-01;1964;-0.025710681;0.0;-0.0063344394;1000.5699;  4.0021726E-01;472.17587;3;-22.355377;0.0;-6.8841453;0;-0.042691372;  1.0002397E+04;  0.0000000E+00; -9.5736641E-07;  1.0000000E+04;  0.0000000E+00;  9.9981387E+03;-0.13136414;0.0;0.088672765;805.26691
  6.1996955E-01;  9.9999998E-03; -3.0002385E-01;1990;-0.04125094;0.0;-0.022721017;1001.2299;  4.0052250E-01;1018.91;3;-41.877934;0.0;-12.390962;0;-0.0020882785;  1.0001983E+04;  0.0000000E+00;  1.5622596E-04;  1.0000000E+04;  0.0000000E+00;  9.9964922E+03;-0.11393337;0.0;0.11184509;1595.7767
  6.1997330E-01;  9.9999998E-03; -2.8001890E-01;1991;-0.036603034;0.0;-0.018968608;1001.2113;  4.0052244E-01;1003.5034;3;-35.935555;0.0;-10.452291;0;0.020111121;  1.0001955E+04;  0.0000000E+00;  3.2040867E-04;  1.0000000E+04;  0.0000000E+00;  9.9961523E+03;-0.11157998;0.0;0.1316911;1738.9386
  6.1997527E-01;  9.9999998E-03; -2.6001322E-01;1992;-0.03373849;0.0;-0.015146814;1001.2067;  4.0052247E-01;999.65173;3;-31.582394;0.0;-10.362722;0;0.041324437;  1.0001927E+04;  0.0000000E+00;  2.5258618E-04;  1.0000000E+04;  0.0000000E+00;  9.9960918E+03;-0.1090851;0.0;0.15040953;1739.5654
  6.1997640E-01;  9.9999998E-03; -2.4000888E-01;1993;-0.031897172;0.0;-0.012014731;1001.2108;  4.0052253E-01;1003.1083;3;-28.597336;0.0;-10.452475;0;0.051384315;  1.0001895E+04;  0.0000000E+00;  1.1390452E-04;  1.0000000E+04;  0.0000000E+00;  9.9962070E+03;-0.10650437;0.0;0.15788868;1668.7043
  6.1997730E-01;  9.9999998E-03; -2.2000635E-01;1994;-0.030402262;0.0;-0.0099102361;1001.2312;  4.0052253E-01;1019.9964;3;-26.490322;0.0;-10.087969;0;0.044676021;  1.0001855E+04;  0.0000000E+00;  2.7626220E-05;  1.0000000E+04;  0.0000000E+00;  9.9966523E+03;-0.10362306;0.0;0.14829908;1458.8256
  6.1997795E-01;  9.9999998E-03; -2.0000485E-01;1995;-0.029194659;0.0;-0.0082812821;1001.2628;  4.0052250E-01;1046.1678;3;-24.871786;0.0;-9.2079124;0;0.026313633;  1.0001808E+04;  0.0000000E+00; -2.2494214E-06;  1.0000000E+04;  0.0000000E+00;  9.9973311E+03;-0.1002955;0.0;0.12660913;1149.8451
  6.3996655E-01;  9.9999998E-03; -3.0003715E-01;2021;-0.045346927;0.0;-0.033349205;1002.4086;  4.0108147E-01;1995.4354;3;-46.107857;0.0;-14.641658;0;0.17033982;  1.0000762E+04;  0.0000000E+00;  2.0932063E-04;  1.0000000E+04;  0.0000000E+00;  9.9933623E+03;-0.04474283;0.0;0.21508266;3006.3032
  6.3997066E-01;  9.9999998E-03; -2.8003100E-01;2022;-0.04013573;0.0;-0.030073548;1002.4023;  4.0108144E-01;1990.2012;3;-39.420349;0.0;-14.245946;0;0.19950248;  1.0000790E+04;  0.0000000E+00;  4.2401656E-04;  1.0000000E+04;  0.0000000E+00;  9.9932100E+03;-0.046153102;0.0;0.24565558;3039.1628
  6.3997251E-01;  9.9999998E-03; -2.6002195E-01;2023;-0.037079934;0.0;-0.024555711;1002.4432;  4.0108144E-01;2024.0757;3;-34.178146;0.0;-15.571994;0;0.1907409;  1.0000819E+04;  0.0000000E+00;  3.3594287E-04;  1.0000000E+04;  0.0000000E+00;  9.9939951E+03;-0.047545452;0.0;0.23828635;2654.23
  6.3997346E-01;  9.9999998E-03; -2.4001391E-01;2024;-0.035278749;0.0;-0.018165851;1002.4781;  4.0108144E-01;2053.0122;3;-30.995707;0.0;-14.825069;0;0.17457594;  1.0000843E+04;  0.0000000E+00;  1.5412568E-04;  1.0000000E+04;  0.0000000E+00;  9.9946729E+03;-0.048713923;0.0;0.22328986;2334.9917
  6.3997442E-01;  9.9999998E-03; -2.2000889E-01;2025;-0.033752743;0.0;-0.013556258;1002.5163;  4.0108144E-01;2084.6152;3;-28.759497;0.0;-13.414106;0;0.15364993;  1.0000854E+04;  0.0000000E+00;  3.8530361E-05;  1.0000000E+04;  0.0000000E+00;  9.9954248E+03;-0.049264096;0.0;0.20291401;1987.5142
  6.3997525E-01;  9.9999998E-03; -2.0000625E-01;2026;-0.032314613;0.0;-0.010705035;1002.5637;  4.0108132E-01;2123.9216;3;-27.003086;0.0;-11.943486;0;0.12331637;  1.0000850E+04;  0.0000000E+00; -2.8254842E-06;  1.0000000E+04;  0.0000000E+00;  9.9963701E+03;-0.04891596;0.0;0.17223233;1558.5265
  6.5996575E-01;  9.9999998E-03; -3.0005336E-01;2052;-0.046981052;0.0;-0.046486363;1003.884;  4.0178341E-01;3217.6472;3;-48.534985;0.0;-17.303234;0;0.39856777;  9.9992549E+03;  0.0000000E+00;  2.2099937E-04;  1.0000000E+04;  0.0000000E+00;  9.9893135E+03;0.042191278;0.0;0.3563765;4820.8506
  6.5996951E-01;  9.9999998E-03; -2.8004646E-01;2053;-0.041649248;0.0;-0.044769958;1003.8927;  4.0178341E-01;3224.8564;3;-40.88184;0.0;-19.98584;0;0.43894854;  9.9993369E+03;  0.0000000E+00;  4.4676199E-04;  1.0000000E+04;  0.0000000E+00;  9.9894053E+03;0.037045896;0.0;0.40190265;4706.8828
  6.5997100E-01;  9.9999998E-03; -2.6003370E-01;2054;-0.0388785;0.0;-0.037907276;1003.9966;  4.0178335E-01;3310.9739;3;-35.400204;0.0;-23.933262;0;0.38666677;  9.9994180E+03;  0.0000000E+00;  3.5771326E-04;  1.0000000E+04;  0.0000000E+00;  9.9913965E+03;0.031833585;0.0;0.35483319;3775.0547
  6.5997159E-01;  9.9999998E-03; -2.4002089E-01;2055;-0.037587348;0.0;-0.027190248;1004.0768;  4.0178332E-01;3377.4382;3;-32.50938;0.0;-21.916475;0;0.3283276;  9.9994922E+03;  0.0000000E+00;  1.6752923E-04;  1.0000000E+04;  0.0000000E+00;  9.9929199E+03;0.027023507;0.0;0.3013041;3090.0774
  6.5997243E-01;  9.9999998E-03; -2.2001265E-01;2056;-0.036185324;0.0;-0.019060753;1004.1378;  4.0178329E-01;3428.0024;3;-30.455494;0.0;-18.5973;0;0.28701463;  9.9995508E+03;  0.0000000E+00;  4.3942651E-05;  1.0000000E+04;  0.0000000E+00;  9.9940801E+03;0.023065297;0.0;0.26394933;2564.01
  6.5997332E-01;  9.9999998E-03; -2.0000824E-01;2057;-0.034662955;0.0;-0.014087388;1004.2026;  4.0178323E-01;3481.6284;3;-28.69376;0.0;-15.717247;0;0.24234334;  9.9995918E+03;  0.0000000E+00; -2.0277625E-06;  1.0000000E+04;  0.0000000E+00;  9.9953301E+03;0.020267388;0.0;0.22207595;1998.5055
  6.7996812E-01;  9.9999998E-03; -3.0006763E-01;2083;-0.044435754;0.0;-0.058261096;1005.0345;  4.0234289E-01;4170.7017;3;-46.925793;0.0;-20.058199;0;0.60692227;  9.9977012E+03;  0.0000000E+00;  1.8936931E-04;  1.0000000E+04;  0.0000000E+00;  9.9859385E+03;0.13396089;0.0;0.47296137;6334.8042
  6.7997062E-01;  9.9999998E-03; -2.8006035E-01;2084;-0.040691197;0.0;-0.058493339;1005.0463;  4.0234292E-01;4180.4785;3;-40.530262;0.0;-26.236555;0;0.6685701;  9.9978184E+03;  0.0000000E+00;  3.7098580E-04;  1.0000000E+04;  0.0000000E+00;  9.9860586E+03;0.12615049;0.0;0.54241961;6167.8965
  6.7997158E-01;  9.9999998E-03; -2.6004446E-01;2085;-0.038603872;0.0;-0.050790317;1005.2001;  4.0234274E-01;4307.9736;3;-35.650894;0.0;-33.208084;0;0.58231896;  9.9979375E+03;  0.0000000E+00;  3.0172165E-04;  1.0000000E+04;  0.0000000E+00;  9.9890078E+03;0.11816522;0.0;0.46415374;4799.5034
  6.7997175E-01;  9.9999998E-03; -2.4002755E-01;2086;-0.037917603;0.0;-0.036258958;1005.3179;  4.0234262E-01;4405.5454;3;-33.3069;0.0;-29.977396;0;0.4873209;  9.9980439E+03;  0.0000000E+00;  1.4450637E-04;  1.0000000E+04;  0.0000000E+00;  9.9912490E+03;0.1106938;0.0;0.37662709;3807.2051
  6.7997235E-01;  9.9999998E-03; -2.2001630E-01;2087;-0.036811698;0.0;-0.024721742;1005.3996;  4.0234259E-01;4473.1938;3;-31.428267;0.0;-24.52706;0;0.42738086;  9.9981367E+03;  0.0000000E+00;  3.9787581E-05;  1.0000000E+04;  0.0000000E+00;  9.9927832E+03;0.10410865;0.0;0.3232722;3118.1819
  6.7997319E-01;  9.9999998E-03; -2.0001023E-01;2088;-0.035373073;0.0;-0.017679784;1005.4806;  4.0234253E-01;4540.3486;3;-29.703154;0.0;-20.097147;0;0.36944732;  9.9982129E+03;  0.0000000E+00; -5.9022193E-07;  1.0000000E+04;  0.0000000E+00;  9.9943232E+03;0.098654807;0.0;0.27079251;2423.8428
  6.9997436E-01;  9.9999998E-03; -3.0007708E-01;2114;-0.036089003;0.0;-0.066245109;1005.6398;  4.0264866E-01;4672.0947;3;-38.674484;0.0;-22.475803;0;0.74382174;  9.9963965E+03;  0.0000000E+00;  1.4321739E-04;  1.0000000E+04;  0.0000000E+00;  9.9840918E+03;0.21366502;0.0;0.53015673;7169.0479
  6.9997489E-01;  9.9999998E-03; -2.8006956E-01;2115;-0.035567496;0.0;-0.067736596;1005.6395;  4.0264854E-01;4671.7983;3;-36.433758;0.0;-30.930923;0;0.83118457;  9.9965195E+03;  0.0000000E+00;  2.5282011E-04;  1.0000000E+04;  0.0000000E+00;  9.9839678E+03;0.20504613;0.0;0.62613845;7083.002
  6.9997519E-01;  9.9999998E-03; -2.6005182E-01;2116;-0.034701854;0.0;-0.059835047;1005.812;  4.0264833E-01;4814.6968;3;-33.300499;0.0;-40.213261;0;0.7370345;  9.9966475E+03;  0.0000000E+00;  2.0482446E-04;  1.0000000E+04;  0.0000000E+00;  9.9872793E+03;0.19604094;0.0;0.54099357;5543.8545
  6.9997519E-01;  9.9999998E-03; -2.4003235E-01;2117;-0.0344516;0.0;-0.043113612;1005.9489;  4.0264833E-01;4928.166;3;-31.792158;0.0;-36.514336;0;0.62474322;  9.9967666E+03;  0.0000000E+00;  9.9630939E-05;  1.0000000E+04;  0.0000000E+00;  9.9898877E+03;0.1874086;0.0;0.43733463;4392.2168
  6.9997561E-01;  9.9999998E-03; -2.2001918E-01;2118;-0.033711102;0.0;-0.029413221;1006.0438;  4.0264815E-01;5006.7749;3;-30.398746;0.0;-29.740065;0;0.55358958;  9.9968750E+03;  0.0000000E+00;  2.8318329E-05;  1.0000000E+04;  0.0000000E+00;  9.9916689E+03;0.17941999;0.0;0.37416959;3593.5696
  6.9997621E-01;  9.9999998E-03; -2.0001195E-01;2119;-0.032552604;0.0;-0.020897044;1006.1379;  4.0264806E-01;5084.6924;3;-28.851374;0.0;-24.181995;0;0.4856019;  9.9969717E+03;  0.0000000E+00;  4.3912132E-07;  1.0000000E+04;  0.0000000E+00;  9.9934443E+03;0.17224292;0.0;0.31335896;2793.7034
  7.1998203E-01;  9.9999998E-03; -3.0008262E-01;2145;-0.025449334;0.0;-0.070968576;1005.8933;  4.0278217E-01;4882.0122;3;-27.360254;0.0;-24.079884;0;0.81246543;  9.9955654E+03;  0.0000000E+00;  8.1988881E-05;  1.0000000E+04;  0.0000000E+00;  9.9833359E+03;0.26667222;0.0;0.54579318;7520.6553
  7.1998179E-01;  9.9999998E-03; -2.8007454E-01;2146;-0.02596627;0.0;-0.072406113;1005.8796;  4.0278217E-01;4870.6558;3;-26.711535;0.0;-32.717167;0;0.91682267;  9.9956748E+03;  0.0000000E+00;  1.4575997E-04;  1.0000000E+04;  0.0000000E+00;  9.9829561E+03;0.25891724;0.0;0.6579054;7539.2266
  7.1998173E-01;  9.9999998E-03; -2.6005575E-01;2147;-0.026053719;0.0;-0.064475022;1006.0496;  4.0278196E-01;5011.4761;3;-25.771112;0.0;-43.490917;0;0.8330726;  9.9957881E+03;  0.0000000E+00;  1.1539230E-04;  1.0000000E+04;  0.0000000E+00;  9.9862305E+03;0.25056446;0.0;0.58250815;6002.0698
  7.1998191E-01;  9.9999998E-03; -2.4003500E-01;2148;-0.025750773;0.0;-0.046853691;1006.1902;  4.0278175E-01;5127.9053;3;-24.717655;0.0;-40.031025;0;0.72063649;  9.9959014E+03;  0.0000000E+00;  5.5615350E-05;  1.0000000E+04;  0.0000000E+00;  9.9889150E+03;0.24217424;0.0;0.47846228;4812.3325
  7.1998227E-01;  9.9999998E-03; -2.2002091E-01;2149;-0.025037497;0.0;-0.032256089;1006.2911;  4.0278172E-01;5211.5483;3;-23.507832;0.0;-32.926048;0;0.64637017;  9.9960078E+03;  0.0000000E+00;  1.5754171E-05;  1.0000000E+04;  0.0000000E+00;  9.9908164E+03;0.2339454;0.0;0.4124248;3957.7839
  7.1998280E-01;  9.9999998E-03; -2.0001313E-01;2150;-0.024070114;0.0;-0.023084266;1006.3937;  4.0278164E-01;5296.5737;3;-22.190741;0.0;-26.912037;0;0.57249057;  9.9961104E+03;  0.0000000E+00;  6.0643492E-07;  1.0000000E+04;  0.0000000E+00;  9.9927578E+03;0.22603449;0.0;0.34645608;3082.418
  7.3998892E-01;  9.9999998E-03; -3.0008572E-01;2176;-0.01578819;0.0;-0.07365568;1005.9988;  4.0283477E-01;4969.126;3;-17.044151;0.0;-25.144194;0;0.83152264;  9.9952832E+03;  0.0000000E+00;  2.7453150E-05;  1.0000000E+04;  0.0000000E+00;  9.9831055E+03;0.28733194;0.0;0.5441907;7634.5151
  7.3998868E-01;  9.9999998E-03; -2.8007710E-01;2177;-0.016219316;0.0;-0.074694254;1005.9727;  4.0283471E-01;4947.5986;3;-16.778997;0.0;-33.419559;0;0.94755375;  9.9953662E+03;  0.0000000E+00;  6.3129293E-05;  1.0000000E+04;  0.0000000E+00;  9.9825117E+03;0.28123668;0.0;0.66631711;7745.8911
  7.3998863E-01;  9.9999998E-03; -2.6005769E-01;2178;-0.016376808;0.0;-0.06651555;1006.1345;  4.0283459E-01;5081.6006;3;-16.360792;0.0;-44.535202;0;0.87664557;  9.9954551E+03;  0.0000000E+00;  5.0051833E-05;  1.0000000E+04;  0.0000000E+00;  9.9856387E+03;0.27444032;0.0;0.60220528;6265.4019
  7.3998874E-01;  9.9999998E-03; -2.4003635E-01;2179;-0.016190475;0.0;-0.048651069;1006.2719;  4.0283442E-01;5195.4575;3;-15.753837;0.0;-41.491234;0;0.77099466;  9.9955518E+03;  0.0000000E+00;  2.3445918E-05;  1.0000000E+04;  0.0000000E+00;  9.9882793E+03;0.26714221;0.0;0.50385249;5089.4121
  7.3998904E-01;  9.9999998E-03; -2.2002187E-01;2180;-0.015706487;0.0;-0.033818539;1006.3748;  4.0283427E-01;5280.6772;3;-14.976484;0.0;-34.561398;0;0.69762254;  9.9956484E+03;  0.0000000E+00;  6.4131136E-06;  1.0000000E+04;  0.0000000E+00;  9.9902305E+03;0.25945643;0.0;0.43816611;4209.0439
  7.3998934E-01;  9.9999998E-03; -2.0001388E-01;2181;-0.01504773;0.0;-0.024430756;1006.4828;  4.0283418E-01;5370.1436;3;-14.097611;0.0;-28.513536;0;0.62088764;  9.9957480E+03;  0.0000000E+00;  3.6176962E-07;  1.0000000E+04;  0.0000000E+00;  9.9922813E+03;0.2515755;0.0;0.36931217;3283.8376
  7.5999433E-01;  9.9999998E-03; -3.0008733E-01;2207;-0.0081831804;0.0;-0.075130492;1006.0547;  4.0285456E-01;5015.2876;3;-8.9060898;0.0;-25.883099;0;0.81947881;  9.9954443E+03;  0.0000000E+00; -1.9443642E-07;  1.0000000E+04;  0.0000000E+00;  9.9830781E+03;0.28054118;0.0;0.53893763;7652.2441
  7.5999415E-01;  9.9999998E-03; -2.8007838E-01;2208;-0.0084794369;0.0;-0.075773902;1006.0202;  4.0285456E-01;4986.6523;3;-8.8764668;0.0;-33.701397;0;0.94273758;  9.9955029E+03;  0.0000000E+00;  1.6015074E-05;  1.0000000E+04;  0.0000000E+00;  9.9823350E+03;0.27619451;0.0;0.66654307;7829.7881
  7.5999409E-01;  9.9999998E-03; -2.6005858E-01;2209;-0.0086145699;0.0;-0.067398086;1006.1738;  4.0285441E-01;5113.834;3;-8.7444782;0.0;-44.852951;0;0.88213146;  9.9955693E+03;  0.0000000E+00;  1.3769968E-05;  1.0000000E+04;  0.0000000E+00;  9.9853262E+03;0.27109835;0.0;0.61103314;6405.459
  7.5999415E-01;  9.9999998E-03; -2.4003702E-01;2210;-0.0085447412;0.0;-0.04950992;1006.3073;  4.0285423E-01;5224.4268;3;-8.4831314;0.0;-42.129234;0;0.78319842;  9.9956436E+03;  0.0000000E+00;  6.2822587E-06;  1.0000000E+04;  0.0000000E+00;  9.9879043E+03;0.26514792;0.0;0.51805049;5252.3125
  7.5999433E-01;  9.9999998E-03; -2.2002241E-01;2211;-0.0082921972;0.0;-0.034668975;1006.4107;  4.0285414E-01;5310.1362;3;-8.0974531;0.0;-35.434917;0;0.71169972;  9.9957314E+03;  0.0000000E+00;  1.6248753E-06;  1.0000000E+04;  0.0000000E+00;  9.9898760E+03;0.25836623;0.0;0.45333347;4360.6689
  7.5999451E-01;  9.9999998E-03; -2.0001431E-01;2212;-0.0079258624;0.0;-0.025236353;1006.5215;  4.0285408E-01;5401.9678;3;-7.6259689;0.0;-29.46245;0;0.63395822;  9.9958223E+03;  0.0000000E+00;  1.3965192E-07;  1.0000000E+04;  0.0000000E+00;  9.9919902E+03;0.25098065;0.0;0.38297755;3405.9312
  7.7999830E-01;  9.9999998E-03; -3.0008805E-01;2238;-0.0025200229;0.0;-0.075864576;1006.0947;  4.0286186E-01;5048.0273;3;-2.8254738;0.0;-26.402742;0;0.79332089;  9.9958564E+03;  0.0000000E+00; -4.8954798E-06;  1.0000000E+04;  0.0000000E+00;  9.9830977E+03;0.25757989;0.0;0.53574097;7641.3853
  7.7999824E-01;  9.9999998E-03; -2.8007886E-01;2239;-0.0026809559;0.0;-0.076207198;1006.0555;  4.0286192E-01;5015.6416;3;-2.9186976;0.0;-33.843826;0;0.91968238;  9.9958945E+03;  0.0000000E+00; -2.9430353E-07;  1.0000000E+04;  0.0000000E+00;  9.9822852E+03;0.25468513;0.0;0.66499722;7851.4229
  7.7999818E-01;  9.9999998E-03; -2.6005891E-01;2240;-0.0027780819;0.0;-0.067676529;1006.2042;  4.0286171E-01;5138.668;3;-2.9627688;0.0;-44.88092;0;0.86490822;  9.9959414E+03;  0.0000000E+00;  7.1099601E-07;  1.0000000E+04;  0.0000000E+00;  9.9851943E+03;0.25098553;0.0;0.61392272;6462.2632
  7.7999818E-01;  9.9999998E-03; -2.4003726E-01;2241;-0.0027925167;0.0;-0.049809948;1006.3347;  4.0286154E-01;5246.7847;3;-2.9433918;0.0;-42.310459;0;0.77040958;  9.9960029E+03;  0.0000000E+00;  3.6241823E-07;  1.0000000E+04;  0.0000000E+00;  9.9877295E+03;0.24622132;0.0;0.52418828;5326.1289
  7.7999824E-01;  9.9999998E-03; -2.2002263E-01;2242;-0.0027275335;0.0;-0.03502376;1006.4379;  4.0286145E-01;5332.291;3;-2.8559592;0.0;-35.782757;0;0.70058525;  9.9960752E+03;  0.0000000E+00;  8.8249692E-08;  1.0000000E+04;  0.0000000E+00;  9.9897090E+03;0.2403619;0.0;0.46022338;4431.0029
  7.7999830E-01;  9.9999998E-03; -2.0001452E-01;2243;-0.0026051668;0.0;-0.02561659;1006.5498;  4.0286136E-01;5425.0049;3;-2.7109027;0.0;-29.899025;0;0.62291586;  9.9961582E+03;  0.0000000E+00;  4.1406853E-08;  1.0000000E+04;  0.0000000E+00;  9.9918545E+03;0.23365507;0.0;0.38926083;3462.6782
  8.0000144E-01;  9.9999998E-03; -3.0008814E-01;2269;0.0019474337;0.0;-0.076095082;1006.1234;  4.0286344E-01;5071.2627;3;1.9917837;0.0;-26.770567;0;0.76589954;  9.9963271E+03;  0.0000000E+00; -9.2196461E-07;  1.0000000E+04;  0.0000000E+00;  9.9831191E+03;0.2299436;0.0;0.53595591;7621.6069
  8.0000144E-01;  9.9999998E-03; -2.8007886E-01;2270;0.0019123349;0.0;-0.076254465;1006.0834;  4.0286344E-01;5038.2876;3;1.831908;0.0;-33.969421;0;0.89194399;  9.9963516E+03;  0.0000000E+00; -3.9148222E-07;  1.0000000E+04;  0.0000000E+00;  9.9823066E+03;0.22802646;0.0;0.66391754;7834.4819
  8.0000138E-01;  9.9999998E-03; -2.6005885E-01;2271;0.0018567794;0.0;-0.06759771;1006.2305;  4.0286326E-01;5160.0195;3;1.6705053;0.0;-44.803715;0;0.8384878;  9.9963857E+03;  0.0000000E+00;  3.6422836E-08;  1.0000000E+04;  0.0000000E+00;  9.9851914E+03;0.2252503;0.0;0.6132375;6457.415
  8.0000132E-01;  9.9999998E-03; -2.4003723E-01;2272;0.0017805502;0.0;-0.049742568;1006.3595;  4.0286312E-01;5266.8433;3;1.5123481;0.0;-42.217327;0;0.74578953;  9.9964375E+03;  0.0000000E+00;  1.2023121E-07;  1.0000000E+04;  0.0000000E+00;  9.9877109E+03;0.22133109;0.0;0.52445847;5329.8604
  8.0000132E-01;  9.9999998E-03; -2.2002263E-01;2273;0.0016958921;0.0;-0.035015136;1006.462;  4.0286306E-01;5351.749;3;1.3693056;0.0;-35.753807;0;0.67706001;  9.9965000E+03;  0.0000000E+00;  4.9052598E-08;  1.0000000E+04;  0.0000000E+00;  9.9896865E+03;0.21622632;0.0;0.46083367;4436.458
  8.0000126E-01;  9.9999998E-03; -2.0001455E-01;2274;0.0016181539;0.0;-0.025659023;1006.5739;  4.0286294E-01;5444.356;3;1.2525631;0.0;-29.934446;0;0.60006368;  9.9965742E+03;  0.0000000E+00; -7.1765411E-09;  1.0000000E+04;  0.0000000E+00;  9.9918359E+03;0.21018514;0.0;0.38987854;3467.2278
  8.2000428E-01;  9.9999998E-03; -3.0008778E-01;2300;0.0060245767;0.0;-0.075868987;1006.1374;  4.0286070E-01;5082.29;3;6.4024301;0.0;-26.879644;0;0.74352318;  9.9967412E+03;  0.0000000E+00;  3.6164568E-06;  1.0000000E+04;  0.0000000E+00;  9.9831201E+03;0.20482557;0.0;0.5386976;7603.7661
  8.2000434E-01;  9.9999998E-03; -2.8007853E-01;2301;0.0061005382;0.0;-0.075995132;1006.1;  4.0286070E-01;5051.293;3;6.1775842;0.0;-34.013615;0;0.86695075;  9.9967598E+03;  0.0000000E+00;  6.3689781E-06;  1.0000000E+04;  0.0000000E+00;  9.9823633E+03;0.2034006;0.0;0.66355014;7793.0947
  8.2000428E-01;  9.9999998E-03; -2.6005855E-01;2302;0.0060793716;0.0;-0.0672644;1006.2485;  4.0286049E-01;5174.3916;3;5.9052243;0.0;-44.635899;0;0.81104112;  9.9967900E+03;  0.0000000E+00;  5.1661914E-06;  1.0000000E+04;  0.0000000E+00;  9.9852881E+03;0.20109519;0.0;0.60994595;6404.0186
  8.2000422E-01;  9.9999998E-03; -2.4003699E-01;2303;0.0059496677;0.0;-0.049399219;1006.3779;  4.0286040E-01;5281.4985;3;5.5886102;0.0;-41.909004;0;0.71772474;  9.9968340E+03;  0.0000000E+00;  2.4984906E-06;  1.0000000E+04;  0.0000000E+00;  9.9878174E+03;0.1976708;0.0;0.52005392;5275.3228
  8.2000411E-01;  9.9999998E-03; -2.2002244E-01;2304;0.0057370733;0.0;-0.034713898;1006.4798;  4.0286022E-01;5365.8018;3;5.2450914;0.0;-35.417995;0;0.64948308;  9.9968906E+03;  0.0000000E+00;  6.5390731E-07;  1.0000000E+04;  0.0000000E+00;  9.9897842E+03;0.19309208;0.0;0.45639098;4387.5786
  8.2000399E-01;  9.9999998E-03; -2.0001441E-01;2305;0.005486453;0.0;-0.025417108;1006.5903;  4.0286016E-01;5457.3115;3;4.9007707;0.0;-29.634415;0;0.57353574;  9.9969600E+03;  0.0000000E+00; -3.7996113E-08;  1.0000000E+04;  0.0000000E+00;  9.9919160E+03;0.18759097;0.0;0.38594475;3428.0945
  8.4000719E-01;  9.9999998E-03; -3.0008626E-01;2331;0.010152884;0.0;-0.074700169;1006.051;  4.0281445E-01;5009.9907;3;10.875518;0.0;-26.696451;0;0.71764255;  9.9970791E+03;  0.0000000E+00;  9.3343297E-06;  1.0000000E+04;  0.0000000E+00;  9.9833604E+03;0.18385914;0.0;0.53378344;7473.4722
  8.4000725E-01;  9.9999998E-03; -2.8007716E-01;2332;0.010324263;0.0;-0.074777074;1006.0161;  4.0281442E-01;4980.9731;3;10.559381;0.0;-33.660725;0;0.83721495;  9.9970977E+03;  0.0000000E+00;  1.8356915E-05;  1.0000000E+04;  0.0000000E+00;  9.9826504E+03;0.1825431;0.0;0.65467185;7644.9712
  8.4000725E-01;  9.9999998E-03; -2.6005748E-01;2333;0.010325191;0.0;-0.066088848;1006.1636;  4.0281430E-01;5103.1631;3;10.154647;0.0;-43.940643;0;0.78002369;  9.9971270E+03;  0.0000000E+00;  1.4704304E-05;  1.0000000E+04;  0.0000000E+00;  9.9855566E+03;0.18036304;0.0;0.59966063;6270.1548
  8.4000713E-01;  9.9999998E-03; -2.4003628E-01;2334;0.010139429;0.0;-0.048456382;1006.2914;  4.0281409E-01;5208.9692;3;9.6700325;0.0;-41.12373;0;0.68728006;  9.9971680E+03;  0.0000000E+00;  6.9465086E-06;  1.0000000E+04;  0.0000000E+00;  9.9880576E+03;0.17713885;0.0;0.51014119;5158.2583
  8.4000695E-01;  9.9999998E-03; -2.2002199E-01;2335;0.0098058609;0.0;-0.03400277;1006.3915;  4.0281406E-01;5291.877;3;9.128767;0.0;-34.686649;0;0.62002337;  9.9972227E+03;  0.0000000E+00;  1.8335406E-06;  1.0000000E+04;  0.0000000E+00;  9.9899951E+03;0.17284518;0.0;0.44717821;4287.5537
  8.4000677E-01;  9.9999998E-03; -2.0001411E-01;2336;0.0093945973;0.0;-0.024874715;1006.4998;  4.0281394E-01;5381.4961;3;8.5676966;0.0;-28.997227;0;0.54560834;  9.9972861E+03;  0.0000000E+00; -3.3215493E-08;  1.0000000E+04;  0.0000000E+00;  9.9920859E+03;0.16769236;0.0;0.37791598;3348.9487
  8.6001015E-01;  9.9999998E-03; -3.0008361E-01;2362;0.014330037;0.0;-0.072554238;1005.8641;  4.0272343E-01;4854.0479;3;15.407136;0.0;-26.189545;0;0.68489099;  9.9973848E+03;  0.0000000E+00;  1.9119569E-05;  1.0000000E+04;  0.0000000E+00;  9.9838564E+03;0.164803;0.0;0.52008802;7224.1641
  8.6001021E-01;  9.9999998E-03; -2.8007475E-01;2363;0.014581673;0.0;-0.072547048;1005.8309;  4.0272346E-01;4826.6157;3;14.97405;0.0;-32.846188;0;0.79959249;  9.9974053E+03;  0.0000000E+00;  3.6549969E-05;  1.0000000E+04;  0.0000000E+00;  9.9831777E+03;0.16333684;0.0;0.63625562;7385.3613
  8.6001021E-01;  9.9999998E-03; -2.6005566E-01;2364;0.014593952;0.0;-0.064020358;1005.9745;  4.0272328E-01;4945.522;3;14.416988;0.0;-42.648453;0;0.74288148;  9.9974346E+03;  0.0000000E+00;  2.9013401E-05;  1.0000000E+04;  0.0000000E+00;  9.9860078E+03;0.16102912;0.0;0.58185238;6054.5156
  8.6001009E-01;  9.9999998E-03; -2.4003510E-01;2365;0.014347453;0.0;-0.046887562;1006.0986;  4.0272319E-01;5048.2451;3;13.75207;0.0;-39.820366;0;0.65236658;  9.9974795E+03;  0.0000000E+00;  1.3712710E-05;  1.0000000E+04;  0.0000000E+00;  9.9884346E+03;0.15774523;0.0;0.49462137;4979.6797
  8.6000985E-01;  9.9999998E-03; -2.2002126E-01;2366;0.013894686;0.0;-0.032876104;1006.1957;  4.0272304E-01;5128.6675;3;13.009417;0.0;-33.548409;0;0.58674902;  9.9975332E+03;  0.0000000E+00;  3.6938825E-06;  1.0000000E+04;  0.0000000E+00;  9.9903135E+03;0.15347701;0.0;0.433272;4137.9941
  8.6000955E-01;  9.9999998E-03; -2.0001364E-01;2367;0.013329413;0.0;-0.024040407;1006.3008;  4.0272295E-01;5215.6025;3;12.235425;0.0;-28.031126;0;0.51435077;  9.9975957E+03;  0.0000000E+00;  6.2355603E-08;  1.0000000E+04;  0.0000000E+00;  9.9923389E+03;0.14843041;0.0;0.36592039;3231.2317
  8.8001293E-01;  9.9999998E-03; -3.0007991E-01;2393;0.01829635;0.0;-0.069509923;1005.5909;  4.0259290E-01;4626.585;3;19.718857;0.0;-25.391996;0;0.64303881;  9.9977051E+03;  0.0000000E+00;  3.3319098E-05;  1.0000000E+04;  0.0000000E+00;  9.9845859E+03;0.14461879;0.0;0.49842;6865.0806
  8.8001305E-01;  9.9999998E-03; -2.8007135E-01;2394;0.018613435;0.0;-0.069376901;1005.5593;  4.0259293E-01;4600.3442;3;19.158934;0.0;-31.604698;0;0.75167489;  9.9977295E+03;  0.0000000E+00;  5.9996892E-05;  1.0000000E+04;  0.0000000E+00;  9.9839346E+03;0.14279407;0.0;0.60888082;7021.2158
  8.8001305E-01;  9.9999998E-03; -2.6005310E-01;2395;0.018629046;0.0;-0.061110321;1005.6963;  4.0259275E-01;4713.7896;3;18.445179;0.0;-40.783535;0;0.69692451;  9.9977676E+03;  0.0000000E+00;  4.7143141E-05;  1.0000000E+04;  0.0000000E+00;  9.9866260E+03;0.14012088;0.0;0.55680364;5761.1621
  8.8001287E-01;  9.9999998E-03; -2.4003346E-01;2396;0.018320311;0.0;-0.044722706;1005.8149;  4.0259263E-01;4811.9443;3;17.600147;0.0;-38.015068;0;0.61014044;  9.9978164E+03;  0.0000000E+00;  2.2316048E-05;  1.0000000E+04;  0.0000000E+00;  9.9889365E+03;0.13649645;0.0;0.47364402;4742.2954
  8.8001257E-01;  9.9999998E-03; -2.2002026E-01;2397;0.017752774;0.0;-0.031353489;1005.9081;  4.0259254E-01;4889.0869;3;16.661123;0.0;-32.016487;0;0.54675639;  9.9978750E+03;  0.0000000E+00;  6.1069732E-06;  1.0000000E+04;  0.0000000E+00;  9.9907314E+03;0.13195205;0.0;0.41480431;3941.0681
  8.8001221E-01;  9.9999998E-03; -2.0001301E-01;2398;0.017042862;0.0;-0.022930797;1006.009;  4.0259242E-01;4972.543;3;15.684449;0.0;-26.751999;0;0.47682196;  9.9979443E+03;  0.0000000E+00;  1.9449611E-07;  1.0000000E+04;  0.0000000E+00;  9.9926758E+03;0.12673484;0.0;0.35008714;3076.6462
  9.0001529E-01;  9.9999998E-03; -3.0007529E-01;2424;0.021732941;0.0;-0.065703429;1005.2482;  4.0242985E-01;4341.21;3;23.469278;0.0;-24.359175;0;0.59226143;  9.9980654E+03;  0.0000000E+00;  4.9363400E-05;  1.0000000E+04;  0.0000000E+00;  9.9855117E+03;0.12203225;0.0;0.47022921;6412.6309
  9.0001547E-01;  9.9999998E-03; -2.8006715E-01;2425;0.022100171;0.0;-0.065404221;1005.2184;  4.0242985E-01;4316.5581;3;22.791185;0.0;-30.004305;0;0.69349855;  9.9981016E+03;  0.0000000E+00;  8.5101557E-05;  1.0000000E+04;  0.0000000E+00;  9.9848818E+03;0.11959247;0.0;0.57390606;6566.4434
  9.0001547E-01;  9.9999998E-03; -2.6004988E-01;2426;0.022113906;0.0;-0.05747233;1005.3467;  4.0242973E-01;4422.7588;3;21.934244;0.0;-38.422859;0;0.64163023;  9.9981494E+03;  0.0000000E+00;  6.6224253E-05;  1.0000000E+04;  0.0000000E+00;  9.9873916E+03;0.11625598;0.0;0.52537423;5398.8994
  9.0001523E-01;  9.9999998E-03; -2.4003144E-01;2427;0.021746121;0.0;-0.042032067;1005.4582;  4.0242958E-01;4514.957;3;20.925713;0.0;-35.761753;0;0.55968058;  9.9982080E+03;  0.0000000E+00;  3.1255833E-05;  1.0000000E+04;  0.0000000E+00;  9.9895518E+03;0.11195268;0.0;0.44772792;4451.9043
  9.0001488E-01;  9.9999998E-03; -2.2001904E-01;2428;0.021074655;0.0;-0.029478014;1005.5468;  4.0242955E-01;4588.2227;3;19.809839;0.0;-30.12911;0;0.49897856;  9.9982783E+03;  0.0000000E+00;  8.5872916E-06;  1.0000000E+04;  0.0000000E+00;  9.9912451E+03;0.10679582;0.0;0.39218274;3701.2673
  9.0001446E-01;  9.9999998E-03; -2.0001224E-01;2429;0.020236358;0.0;-0.02157593;1005.6429;  4.0242946E-01;4667.7012;3;18.652971;0.0;-25.19101;0;0.43189746;  9.9983555E+03;  0.0000000E+00;  3.2395948E-07;  1.0000000E+04;  0.0000000E+00;  9.9930840E+03;0.10113637;0.0;0.33076108;2888.6975
  9.2001718E-01;  9.9999998E-03; -3.0006999E-01;2455;0.024384864;0.0;-0.061314538;1004.8538;  4.0224272E-01;4012.7207;3;26.384632;0.0;-23.147465;0;0.5357151;  9.9984453E+03;  0.0000000E+00;  6.3197534E-05;  1.0000000E+04;  0.0000000E+00;  9.9865830E+03;0.098398887;0.0;0.43731621;5888.9253
  9.2001724E-01;  9.9999998E-03; -2.8006229E-01;2456;0.024619419;0.0;-0.060747385;1004.8263;  4.0224269E-01;3990.0532;3;25.283894;0.0;-27.957634;0;0.62751758;  9.9984951E+03;  0.0000000E+00;  1.0728465E-04;  1.0000000E+04;  0.0000000E+00;  9.9859863E+03;0.09498658;0.0;0.53253102;6038.7441
  9.2001730E-01;  9.9999998E-03; -2.6004621E-01;2457;0.024794359;0.0;-0.053267919;1004.9443;  4.0224263E-01;4087.6216;3;24.637806;0.0;-35.673088;0;0.57947087;  9.9985596E+03;  0.0000000E+00;  8.2198851E-05;  1.0000000E+04;  0.0000000E+00;  9.9882773E+03;0.090587355;0.0;0.48888353;4980.7593
  9.2001706E-01;  9.9999998E-03; -2.4002911E-01;2458;0.024375258;0.0;-0.038926162;1005.048;  4.0224254E-01;4173.2651;3;23.49618;0.0;-33.14888;0;0.50299537;  9.9986387E+03;  0.0000000E+00;  3.8424845E-05;  1.0000000E+04;  0.0000000E+00;  9.9902588E+03;0.085205123;0.0;0.41779026;4117.7256
  9.2001665E-01;  9.9999998E-03; -2.2001764E-01;2459;0.023594508;0.0;-0.027318221;1005.1314;  4.0224245E-01;4242.2529;3;22.208946;0.0;-27.950943;0;0.44524843;  9.9987246E+03;  0.0000000E+00;  1.0430861E-05;  1.0000000E+04;  0.0000000E+00;  9.9918320E+03;0.079099551;0.0;0.36614889;3425.9019
  9.2001611E-01;  9.9999998E-03; -2.0001134E-01;2460;0.02254927;0.0;-0.020027544;1005.222;  4.0224236E-01;4317.1543;3;20.783184;0.0;-23.403727;0;0.38136211;  9.9988154E+03;  0.0000000E+00;  3.5856567E-07;  1.0000000E+04;  0.0000000E+00;  9.9935498E+03;0.072787493;0.0;0.30857462;2673.1956
  9.4001836E-01;  9.9999998E-03; -3.0006421E-01;2486;0.026142897;0.0;-0.056564994;1004.4244;  4.0204039E-01;3655.0349;3;28.399048;0.0;-21.895355;0;0.47845274;  9.9987881E+03;  0.0000000E+00;  7.1830465E-05;  1.0000000E+04;  0.0000000E+00;  9.9877500E+03;0.076895572;0.0;0.40155718;5316.854
  9.4001842E-01;  9.9999998E-03; -2.8005701E-01;2487;0.026257917;0.0;-0.055700507;1004.4;  4.0204045E-01;3634.9446;3;26.955225;0.0;-25.786636;0;0.5594759;  9.9988623E+03;  0.0000000E+00;  1.4706646E-04;  1.0000000E+04;  0.0000000E+00;  9.9871914E+03;0.072061479;0.0;0.48741442;5461.3867
  9.4001848E-01;  9.9999998E-03; -2.6004222E-01;2488;0.026529213;0.0;-0.048683826;1004.5074;  4.0204036E-01;3723.6763;3;26.415522;0.0;-32.660454;0;0.51501209;  9.9989521E+03;  0.0000000E+00;  9.7829354E-05;  1.0000000E+04;  0.0000000E+00;  9.9892441E+03;0.066124216;0.0;0.44888785;4522.0894
  9.4001824E-01;  9.9999998E-03; -2.4002656E-01;2489;0.026049783;0.0;-0.03553091;1004.6025;  4.0204021E-01;3802.166;3;25.156641;0.0;-30.280491;0;0.44424868;  9.9990566E+03;  0.0000000E+00;  4.1974312E-05;  1.0000000E+04;  0.0000000E+00;  9.9910332E+03;0.059247065;0.0;0.3850016;3751.3481
  9.4001764E-01;  9.9999998E-03; -2.2001612E-01;2490;0.024890454;0.0;-0.024968127;1004.6802;  4.0204021E-01;3866.4749;3;23.362551;0.0;-25.577904;0;0.38964421;  9.9991670E+03;  0.0000000E+00;  1.1177536E-05;  1.0000000E+04;  0.0000000E+00;  9.9924736E+03;0.051909253;0.0;0.33773494;3124.7266
  9.4001681E-01;  9.9999998E-03; -2.0001040E-01;2491;0.023426875;0.0;-0.018371962;1004.765;  4.0204015E-01;3936.4951;3;21.468292;0.0;-21.476128;0;0.32924849;  9.9992725E+03;  0.0000000E+00;  3.6282847E-07;  1.0000000E+04;  0.0000000E+00;  9.9940586E+03;0.044823255;0.0;0.28442523;2438.0742
  9.6001911E-01;  9.9999998E-03; -3.0005825E-01;2517;0.027286397;0.0;-0.051673412;1003.9769;  4.0183184E-01;3282.0781;3;29.86681;0.0;-20.678345;0;0.42552873;  9.9990459E+03;  0.0000000E+00;  7.2116141E-05;  1.0000000E+04;  0.0000000E+00;  9.9889609E+03;0.060635172;0.0;0.36489356;4719.0669
  9.6001911E-01;  9.9999998E-03; -2.8005159E-01;2518;0.027353974;0.0;-0.050558768;1003.9557;  4.0183178E-01;3264.6641;3;28.187878;0.0;-23.690821;0;0.49539477;  9.9991494E+03;  0.0000000E+00;  9.9037390E-04;  1.0000000E+04;  0.0000000E+00;  9.9884336E+03;0.053953364;0.0;0.44144142;4860.8521
  9.6001905E-01;  9.9999998E-03; -2.6003808E-01;2519;0.027394565;0.0;-0.04392093;1004.053;  4.0183172E-01;3344.9453;3;27.338371;0.0;-29.509733;0;0.45325589;  9.9992744E+03;  0.0000000E+00;  8.1885111E-04;  1.0000000E+04;  0.0000000E+00;  9.9902529E+03;0.046085887;0.0;0.40717;4040.9199
  9.6001863E-01;  9.9999998E-03; -2.4002391E-01;2520;0.026604554;0.0;-0.031991363;1004.1396;  4.0183166E-01;3416.3721;3;25.682623;0.0;-27.27651;0;0.38815981;  9.9994111E+03;  0.0000000E+00;  2.9366207E-04;  1.0000000E+04;  0.0000000E+00;  9.9918408E+03;0.037412845;0.0;0.35074696;3366.3242
  9.6001774E-01;  9.9999998E-03; -2.2001453E-01;2521;0.02504498;0.0;-0.022525815;1004.2116;  4.0183160E-01;3475.894;3;23.443392;0.0;-23.104164;0;0.33680063;  9.9995469E+03;  0.0000000E+00;  3.2915977E-05;  1.0000000E+04;  0.0000000E+00;  9.9931416E+03;0.028652325;0.0;0.30814832;2809.0759
  9.6001679E-01;  9.9999998E-03; -2.0000945E-01;2522;0.023355693;0.0;-0.016665032;1004.2903;  4.0183166E-01;3540.8276;3;21.364759;0.0;-19.477331;0;0.28006065;  9.9996709E+03;  0.0000000E+00;  3.5014457E-07;  1.0000000E+04;  0.0000000E+00;  9.9945850E+03;0.020689849;0.0;0.2593708;2192.6064
  9.8001975E-01;  9.9999998E-03; -3.0005231E-01;2548;0.028317317;0.0;-0.046803642;1003.5285;  4.0162498E-01;2908.1736;3;31.084755;0.0;-19.385309;0;0.37919089;  9.9991963E+03;  0.0000000E+00;  3.1754338E-05;  1.0000000E+04;  0.0000000E+00;  9.9901748E+03;0.050796062;0.0;0.32839483;4116.9741
  9.8001957E-01;  9.9999998E-03; -2.8004619E-01;2549;0.028114522;0.0;-0.045475565;1003.5104;  4.0162492E-01;2893.3374;3;29.209526;0.0;-21.727789;0;0.43790495;  9.9993359E+03;  0.0000000E+00;  4.2845625E-03;  1.0000000E+04;  0.0000000E+00;  9.9896748E+03;0.042056654;0.0;0.3958483;4257.0801
  9.8001927E-01;  9.9999998E-03; -2.6003397E-01;2550;0.027707659;0.0;-0.039191976;1003.5977;  4.0162483E-01;2965.2581;3;27.717484;0.0;-26.34444;0;0.39787978;  9.9994961E+03;  0.0000000E+00;  4.0885392E-03;  1.0000000E+04;  0.0000000E+00;  9.9912549E+03;0.03212335;0.0;0.36575642;3557.9114
  9.8001856E-01;  9.9999998E-03; -2.4002132E-01;2551;0.026543317;0.0;-0.028482297;1003.6759;  4.0162477E-01;3029.7119;3;25.624121;0.0;-24.27191;0;0.3382901;  9.9996680E+03;  0.0000000E+00;  1.9267483E-03;  1.0000000E+04;  0.0000000E+00;  9.9926455E+03;0.021607412;0.0;0.3166827;2978.3511
  9.8001748E-01;  9.9999998E-03; -2.2001296E-01;2552;0.024681242;0.0;-0.02010118;1003.7422;  4.0162480E-01;3084.3403;3;23.133051;0.0;-20.630432;0;0.29017109;  9.9998301E+03;  0.0000000E+00;  4.7207624E-04;  1.0000000E+04;  0.0000000E+00;  9.9938037E+03;0.011423537;0.0;0.27874756;2491.3367
  9.8001641E-01;  9.9999998E-03; -2.0000850E-01;2553;0.02288196;0.0;-0.014963892;1003.8147;  4.0162477E-01;3144.0784;3;20.988708;0.0;-17.466413;0;0.23710276;  9.9999746E+03;  0.0000000E+00;  3.9830207E-05;  1.0000000E+04;  0.0000000E+00;  9.9951035E+03;0.0025488867;0.0;0.23455387;1946.6671
  1.0000207E+00;  9.9999998E-03; -3.0004659E-01;2579;0.029670613;0.0;-0.042065285;1003.0959;  4.0142652E-01;2547.0444;3;32.476456;0.0;-18.047379;0;0.33818868;  9.9992549E+03;  0.0000000E+00; -8.4425451E-04;  1.0000000E+04;  0.0000000E+00;  9.9913691E+03;0.046301026;0.0;0.29188764;3523.324
  1.0000201E+00;  9.9999998E-03; -2.8004101E-01;2580;0.028896177;0.0;-0.040528484;1003.0798;  4.0142661E-01;2533.8042;3;30.14138;0.0;-19.69453;0;0.3867465;  9.9994346E+03;  0.0000000E+00;  1.0586686E-02;  1.0000000E+04;  0.0000000E+00;  9.9908740E+03;0.035463762;0.0;0.35128275;3669.1399
  1.0000193E+00;  9.9999998E-03; -2.6003012E-01;2581;0.027880717;0.0;-0.034706034;1003.1564;  4.0142652E-01;2596.8674;3;27.964247;0.0;-23.290522;0;0.35015535;  9.9996279E+03;  0.0000000E+00;  1.1034623E-02;  1.0000000E+04;  0.0000000E+00;  9.9922080E+03;0.02359839;0.0;0.32655695;3092.7056
  1.0000184E+00;  9.9999998E-03; -2.4001890E-01;2582;0.026297329;0.0;-0.025196288;1003.2268;  4.0142646E-01;2654.7332;3;25.423752;0.0;-21.410879;0;0.29597196;  9.9998281E+03;  0.0000000E+00;  5.6874226E-03;  1.0000000E+04;  0.0000000E+00;  9.9934121E+03;0.011524312;0.0;0.28444764;2602.637
  1.0000170E+00;  9.9999998E-03; -2.2001152E-01;2583;0.024093492;0.0;-0.017815787;1003.2875;  4.0142646E-01;2704.7522;3;22.655964;0.0;-18.25708;0;0.2511096;  1.0000016E+04;  0.0000000E+00;  1.6278016E-03;  1.0000000E+04;  0.0000000E+00;  9.9944346E+03;0.0002358075;0.0;0.2508738;2183.375
  1.0000159E+00;  9.9999998E-03; -2.0000760E-01;2584;0.022169081;0.0;-0.013354926;1003.3537;  4.0142637E-01;2759.1848;3;20.441826;0.0;-15.568288;0;0.20179109;  1.0000176E+04;  0.0000000E+00;  2.0351019E-04;  1.0000000E+04;  0.0000000E+00;  9.9955957E+03;-0.0093375631;0.0;0.21112865;1709.7048
  1.0200223E+00;  9.9999998E-03; -3.0004120E-01;2610;0.031734519;0.0;-0.037639879;1002.6937;  4.0124214E-01;2210.8115;3;34.657455;0.0;-16.958021;0;0.30100635;  9.9992617E+03;  0.0000000E+00; -3.2525735E-03;  1.0000000E+04;  0.0000000E+00;  9.9925322E+03;0.044986654;0.0;0.25601968;2946.1829
  1.0200210E+00;  9.9999998E-03; -2.8003624E-01;2611;0.030207822;0.0;-0.03593871;1002.6776;  4.0124217E-01;2197.6033;3;31.609741;0.0;-17.788883;0;0.34121972;  9.9994814E+03;  0.0000000E+00;  1.7085651E-02;  1.0000000E+04;  0.0000000E+00;  9.9919951E+03;0.031793449;0.0;0.30942628;3115.5227
  1.0200197E+00;  9.9999998E-03; -2.6002672E-01;2612;0.028251233;0.0;-0.030668847;1002.7432;  4.0124214E-01;2251.416;3;28.425131;0.0;-20.484671;0;0.30935222;  9.9997061E+03;  0.0000000E+00;  1.9596696E-02;  1.0000000E+04;  0.0000000E+00;  9.9930752E+03;0.018161533;0.0;0.29119068;2661.7551
  1.0200182E+00;  9.9999998E-03; -2.4001685E-01;2613;0.026002707;0.0;-0.022336686;1002.8062;  4.0124214E-01;2303.1743;3;25.167284;0.0;-18.865629;0;0.26054883;  9.9999258E+03;  0.0000000E+00;  1.0204612E-02;  1.0000000E+04;  0.0000000E+00;  9.9941143E+03;0.0051429374;0.0;0.2554059;2251.448
  1.0200166E+00;  9.9999998E-03; -2.2001030E-01;2614;0.023389859;0.0;-0.0158344;1002.8613;  4.0124211E-01;2348.4753;3;22.095137;0.0;-16.148615;0;0.21913771;  1.0000125E+04;  0.0000000E+00;  2.6195867E-03;  1.0000000E+04;  0.0000000E+00;  9.9950137E+03;-0.0065136733;0.0;0.22565138;1894.5964
  1.0200152E+00;  9.9999998E-03; -2.0000684E-01;2615;0.021346971;0.0;-0.011922159;1002.9213;  4.0124205E-01;2397.592;3;19.822309;0.0;-13.82934;0;0.17389508;  1.0000294E+04;  0.0000000E+00;  8.2214036E-05;  1.0000000E+04;  0.0000000E+00;  9.9960410E+03;-0.016170898;0.0;0.19006598;1489.2712
  1.0400245E+00;  9.9999998E-03; -3.0003631E-01;2641;0.034949344;0.0;-0.033733379;1002.3304;  4.0107539E-01;1906.5442;3;38.290623;0.0;-16.353682;0;0.26909494;  9.9992217E+03;  0.0000000E+00; -4.2112870E-03;  1.0000000E+04;  0.0000000E+00;  9.9936357E+03;0.04636218;0.0;0.22273275;2400.7258
  1.0400224E+00;  9.9999998E-03; -2.8003204E-01;2642;0.032168131;0.0;-0.031858698;1002.3138;  4.0107539E-01;1892.8914;3;33.796654;0.0;-16.165051;0;0.30016184;  9.9995146E+03;  0.0000000E+00;  1.6743757E-02;  1.0000000E+04;  0.0000000E+00;  9.9930156E+03;0.028982891;0.0;0.27117896;2606.0247
  1.0400201E+00;  9.9999998E-03; -2.6002392E-01;2643;0.028957419;0.0;-0.02725696;1002.3679;  4.0107539E-01;1937.1692;3;29.235044;0.0;-18.067167;0;0.27396423;  9.9997754E+03;  0.0000000E+00;  2.3182776E-02;  1.0000000E+04;  0.0000000E+00;  9.9938311E+03;0.013237571;0.0;0.26072666;2274.6226
  1.0400180E+00;  9.9999998E-03; -2.4001530E-01;2644;0.025741974;0.0;-0.020061335;1002.4241;  4.0107542E-01;1983.2024;3;24.99391;0.0;-16.74325;0;0.23036671;  1.0000002E+04;  0.0000000E+00;  1.1265521E-02;  1.0000000E+04;  0.0000000E+00;  9.9947295E+03;-3.1938143e-05;0.0;0.23039864;1931.9733
  1.0400159E+00;  9.9999998E-03; -2.2000942E-01;2645;0.022689493;0.0;-0.014289198;1002.4736;  4.0107536E-01;2023.6766;3;21.563168;0.0;-14.386066;0;0.19281831;  1.0000192E+04;  0.0000000E+00;  7.7835820E-04;  1.0000000E+04;  0.0000000E+00;  9.9955244E+03;-0.010929082;0.0;0.20374739;1630.4242
  1.0400145E+00;  9.9999998E-03; -2.0000622E-01;2646;0.020499686;0.0;-0.010675271;1002.5268;  4.0107536E-01;2067.1741;3;19.173483;0.0;-12.231393;0;0.15226293;  1.0000351E+04;  0.0000000E+00; -1.7209916E-03;  1.0000000E+04;  0.0000000E+00;  9.9964277E+03;-0.019663326;0.0;0.17192626;1289.3654
  1.0600274E+00;  9.9999998E-03; -3.0003196E-01;2672;0.038662214;0.0;-0.030293474;1002.0095;  4.0092859E-01;1636.9579;3;42.424847;0.0;-16.096033;0;0.24345857;  9.9990996E+03;  0.0000000E+00;  8.5370624E-03;  1.0000000E+04;  0.0000000E+00;  9.9946807E+03;0.052723698;0.0;0.19073488;1893.6733
  1.0600241E+00;  9.9999998E-03; -2.8002846E-01;2673;0.034488667;0.0;-0.028411053;1001.9937;  4.0092859E-01;1624.0436;3;36.31208;0.0;-14.987043;0;0.26393551;  9.9995332E+03;  0.0000000E+00;  2.5840017E-03;  1.0000000E+04;  0.0000000E+00;  9.9939287E+03;0.027009938;0.0;0.23692556;2145.2808
  1.0600208E+00;  9.9999998E-03; -2.6002181E-01;2674;0.029867066;0.0;-0.024611291;1002.0367;  4.0092856E-01;1659.1011;3;30.122313;0.0;-16.231356;0;0.24327989;  9.9998564E+03;  0.0000000E+00;  1.2891372E-02;  1.0000000E+04;  0.0000000E+00;  9.9944639E+03;0.0075707142;0.0;0.23570918;1933.3531
  1.0600178E+00;  9.9999998E-03; -2.4001431E-01;2675;0.025541455;0.0;-0.018478762;1002.0877;  4.0092856E-01;1700.6649;3;24.878376;0.0;-15.166078;0;0.20410773;  1.0000084E+04;  0.0000000E+00;  3.6054668E-03;  1.0000000E+04;  0.0000000E+00;  9.9952549E+03;-0.0057182806;0.0;0.20982601;1647.1265
  1.0600154E+00;  9.9999998E-03; -2.2000889E-01;2676;0.022067517;0.0;-0.013180295;1002.1315;  4.0092856E-01;1736.3047;3;21.137243;0.0;-12.945391;0;0.17057505;  1.0000245E+04;  0.0000000E+00; -7.2200638E-03;  1.0000000E+04;  0.0000000E+00;  9.9959678E+03;-0.01464319;0.0;0.18521824;1392.293
  1.0600139E+00;  9.9999998E-03; -2.0000578E-01;2677;0.019677499;0.0;-0.0096774641;1002.1776;  4.0092856E-01;1773.8865;3;18.569193;0.0;-10.843032;0;0.13556015;  1.0000373E+04;  0.0000000E+00; -7.3543899E-03;  1.0000000E+04;  0.0000000E+00;  9.9967578E+03;-0.021265436;0.0;0.15682559;1110.7635
  1.0800296E+00;  9.9999998E-03; -3.0002815E-01;2703;0.041266643;0.0;-0.027498987;1001.7315;  4.0080243E-01;1402.4728;3;44.839737;0.0;-16.722534;0;0.22575057;  9.9988721E+03;  0.0000000E+00;  5.7120357E-02;  1.0000000E+04;  0.0000000E+00;  9.9956484E+03;0.064191923;0.0;0.16155864;1447.837
  1.0800256E+00;  9.9999998E-03; -2.8002557E-01;2704;0.036105514;0.0;-0.025775537;1001.7184;  4.0080252E-01;1391.8534;3;37.728333;0.0;-14.665017;0;0.23412183;  9.9995234E+03;  0.0000000E+00; -1.9178918E-02;  1.0000000E+04;  0.0000000E+00;  9.9947334E+03;0.026360758;0.0;0.20776108;1736.2587
  1.0800215E+00;  9.9999998E-03; -2.6002038E-01;2705;0.030612117;0.0;-0.022741821;1001.7514;  4.0080243E-01;1418.6012;3;30.83753;0.0;-15.043223;0;0.21750739;  9.9999365E+03;  0.0000000E+00; -1.5198947E-02;  1.0000000E+04;  0.0000000E+00;  9.9949824E+03;0.001724811;0.0;0.21578258;1636.9077
  1.0800179E+00;  9.9999998E-03; -2.4001391E-01;2706;0.025452923;0.0;-0.017557014;1001.7986;  4.0080249E-01;1456.8394;3;24.947374;0.0;-14.053821;0;0.18170686;  1.0000173E+04;  0.0000000E+00; -1.6126456E-02;  1.0000000E+04;  0.0000000E+00;  9.9956855E+03;-0.01194945;0.0;0.19365631;1399.175
  1.0800152E+00;  9.9999998E-03; -2.2000876E-01;2707;0.021623334;0.0;-0.012533895;1001.8377;  4.0080246E-01;1488.511;3;20.92174;0.0;-11.847118;0;0.15174678;  1.0000294E+04;  0.0000000E+00; -2.3460757E-02;  1.0000000E+04;  0.0000000E+00;  9.9963438E+03;-0.018135034;0.0;0.16988182;1181.6378
  1.0800133E+00;  9.9999998E-03; -2.0000558E-01;2708;0.018937467;0.0;-0.008991098;1001.876;  4.0080249E-01;1519.5065;3;18.034678;0.0;-9.7489758;0;0.12275603;  1.0000369E+04;  0.0000000E+00; -1.8860973E-02;  1.0000000E+04;  0.0000000E+00;  9.9970322E+03;-0.021722343;0.0;0.14447838;952.65527
  1.1000261E+00;  9.9999998E-03; -2.8002325E-01;2734;0.03644323;0.0;-0.023755617;1001.4899;  4.0069672E-01;1197.6844;3;38.296265;0.0;-14.802325;0;0.2077456;  9.9994990E+03;  0.0000000E+00; -2.1231784E-02;  1.0000000E+04;  0.0000000E+00;  9.9954766E+03;0.026003161;0.0;0.18174243;1368.256
  1.1000220E+00;  9.9999998E-03; -2.6001936E-01;2735;0.031007806;0.0;-0.021356042;1001.5123;  4.0069669E-01;1215.7026;3;31.550974;0.0;-14.164447;0;0.19593248;  9.9999873E+03;  0.0000000E+00; -5.1578686E-02;  1.0000000E+04;  0.0000000E+00;  9.9954326E+03;-0.002306235;0.0;0.19823872;1378.0162
  1.1000180E+00;  9.9999998E-03; -2.4001394E-01;2736;0.025544947;0.0;-0.017124064;1001.5549;  4.0069669E-01;1250.0121;3;25.258387;0.0;-13.283156;0;0.16431548;  1.0000240E+04;  0.0000000E+00; -4.7124751E-02;  1.0000000E+04;  0.0000000E+00;  9.9960303E+03;-0.016905766;0.0;0.18122125;1191.5118
  1.1000149E+00;  9.9999998E-03; -2.2000898E-01;2737;0.02136993;0.0;-0.012316692;1001.5906;  4.0069675E-01;1278.6671;3;20.89707;0.0;-11.078563;0;0.13660191;  1.0000322E+04;  0.0000000E+00; -4.7267493E-02;  1.0000000E+04;  0.0000000E+00;  9.9966611E+03;-0.020809025;0.0;0.15741093;1001.3899
  1.1000129E+00;  9.9999998E-03; -2.0000562E-01;2738;0.018363783;0.0;-0.0086447131;1001.622;  4.0069675E-01;1303.8716;3;17.682049;0.0;-8.9283762;0;0.11324205;  1.0000348E+04;  0.0000000E+00; -3.6983330E-02;  1.0000000E+04;  0.0000000E+00;  9.9972637E+03;-0.021129811;0.0;0.13437186;815.09125
  1.1200260E+00;  9.9999998E-03; -2.8002116E-01;2763;0.036035046;0.0;-0.021941544;1001.3076;  4.0060994E-01;1040.7976;3;38.80117;0.0;-14.851133;0;0.18289188;  9.9994414E+03;  0.0000000E+00;  2.2537433E-02;  1.0000000E+04;  0.0000000E+00;  9.9962197E+03;0.027921399;0.0;0.15497048;1028.7191
  1.1200222E+00;  9.9999998E-03; -2.6001853E-01;2764;0.031138033;0.0;-0.020134995;1001.3172;  4.0060994E-01;1048.3907;3;32.426235;0.0;-13.414064;0;0.17757565;  9.9999639E+03;  0.0000000E+00; -7.2713748E-02;  1.0000000E+04;  0.0000000E+00;  9.9958906E+03;-0.0017724568;0.0;0.17934811;1132.4358
  1.1200184E+00;  9.9999998E-03; -2.4001421E-01;2765;0.025913935;0.0;-0.01689643;1001.3519;  4.0061000E-01;1076.0996;3;26.14142;0.0;-12.631544;0;0.15310949;  1.0000239E+04;  0.0000000E+00; -8.2468927E-02;  1.0000000E+04;  0.0000000E+00;  9.9963066E+03;-0.017727649;0.0;0.17083713;1020.7114
  1.1200150E+00;  9.9999998E-03; -2.2000954E-01;2766;0.021389371;0.0;-0.012493343;1001.3862;  4.0060997E-01;1103.4288;3;21.129103;0.0;-10.659182;0;0.12627099;  1.0000315E+04;  0.0000000E+00; -7.5537816E-02;  1.0000000E+04;  0.0000000E+00;  9.9969141E+03;-0.021424694;0.0;0.14769569;854.13812
  1.1200126E+00;  9.9999998E-03; -2.0000596E-01;2767;0.018038312;0.0;-0.0086408546;1001.4126;  4.0061000E-01;1124.4;3;17.568005;0.0;-8.379632;0;0.10663156;  1.0000297E+04;  0.0000000E+00; -6.0465463E-02;  1.0000000E+04;  0.0000000E+00;  9.9974590E+03;-0.019346414;0.0;0.12597798;698.81061
  1.1400222E+00;  9.9999998E-03; -2.6001760E-01;2792;0.031077133;0.0;-0.018987142;1001.1621;  4.0054044E-01;913.09735;3;33.249104;0.0;-13.113083;0;0.16306992;  9.9998340E+03;  0.0000000E+00; -4.8118927E-02;  1.0000000E+04;  0.0000000E+00;  9.9963945E+03;0.0056588189;0.0;0.1574111;875.2196
  1.1400187E+00;  9.9999998E-03; -2.4001443E-01;2793;0.026497481;0.0;-0.016605541;1001.1854;  4.0054038E-01;931.45911;3;27.544069;0.0;-11.898113;0;0.14810327;  1.0000132E+04;  0.0000000E+00; -1.0583083E-01;  1.0000000E+04;  0.0000000E+00;  9.9965615E+03;-0.011817882;0.0;0.15992115;862.92865
  1.1400154E+00;  9.9999998E-03; -2.2001034E-01;2794;0.021859959;0.0;-0.012953511;1001.2178;  4.0054035E-01;956.84613;3;21.98918;0.0;-10.447004;0;0.12263227;  1.0000240E+04;  0.0000000E+00; -1.0395025E-01;  1.0000000E+04;  0.0000000E+00;  9.9970977E+03;-0.018089661;0.0;0.14072193;736.77856
  1.1400126E+00;  9.9999998E-03; -2.0000662E-01;2795;0.018083349;0.0;-0.0090417638;1001.2426;  4.0054038E-01;976.42529;3;17.792313;0.0;-8.1677675;0;0.10322416;  1.0000216E+04;  0.0000000E+00; -8.6134605E-02;  1.0000000E+04;  0.0000000E+00;  9.9976182E+03;-0.016013555;0.0;0.11923771;603.4314
  1.1600221E+00;  9.9999998E-03; -2.6001662E-01;2819;0.030690916;0.0;-0.017982701;1001.0398;  4.0048584E-01;803.55756;3;33.61171;0.0;-13.323805;0;0.15436155;  9.9995840E+03;  0.0000000E+00;  4.3997191E-02;  1.0000000E+04;  0.0000000E+00;  9.9969258E+03;0.019079812;0.0;0.13528173;646.52106
  1.1600193E+00;  9.9999998E-03; -2.4001446E-01;2820;0.027030358;0.0;-0.016276268;1001.0511;  4.0048587E-01;812.31207;3;28.704041;0.0;-11.762289;0;0.14846888;  9.9998877E+03;  0.0000000E+00; -8.9589931E-02;  1.0000000E+04;  0.0000000E+00;  9.9968457E+03;0.0019334126;0.0;0.14653547;683.58459
  1.1600161E+00;  9.9999998E-03; -2.2001119E-01;2821;0.022776162;0.0;-0.013461761;1001.0788;  4.0048581E-01;833.78088;3;23.473116;0.0;-10.318225;0;0.12700811;  1.0000059E+04;  0.0000000E+00; -1.2304582E-01;  1.0000000E+04;  0.0000000E+00;  9.9972305E+03;-0.0084471852;0.0;0.1354553;631.01276
  1.1600132E+00;  9.9999998E-03; -2.0000763E-01;2822;0.018708494;0.0;-0.0098828031;1001.1051;  4.0048590E-01;854.05194;3;18.635212;0.0;-8.3689356;0;0.10505085;  1.0000087E+04;  0.0000000E+00; -1.1001839E-01;  1.0000000E+04;  0.0000000E+00;  9.9977275E+03;-0.0098348549;0.0;0.11488571;524.63849
  1.1800196E+00;  9.9999998E-03; -2.4001427E-01;2846;0.027175093;0.0;-0.015931815;1000.9448;  4.0044388E-01;715.04309;3;29.429987;0.0;-12.076695;0;0.1525702;  9.9995537E+03;  0.0000000E+00; -8.0295652E-04;  1.0000000E+04;  0.0000000E+00;  9.9971563E+03;0.02023856;0.0;0.13233164;501.66125
  1.1800170E+00;  9.9999998E-03; -2.2001185E-01;2847;0.023748832;0.0;-0.013863648;1000.9647;  4.0044388E-01;730.11115;3;24.950653;0.0;-10.522395;0;0.13813029;  9.9997510E+03;  0.0000000E+00; -1.0699821E-01;  1.0000000E+04;  0.0000000E+00;  9.9973535E+03;0.0084468024;0.0;0.12968349;504.78168
  1.1800143E+00;  9.9999998E-03; -2.0000874E-01;2848;0.019933973;0.0;-0.010895889;1000.9917;  4.0044388E-01;750.50214;3;20.069885;0.0;-8.8962078;0;0.11472272;  9.9998555E+03;  0.0000000E+00; -1.2490985E-01;  1.0000000E+04;  0.0000000E+00;  9.9977871E+03;0.0020852867;0.0;0.11263744;448.91525
  1.2000178E+00;  9.9999998E-03; -2.2001219E-01;2871;0.02434488;0.0;-0.014051051;1000.874;  4.0041232E-01;644.40051;3;25.980927;0.0;-11.037932;0;0.151434;  9.9993691E+03;  0.0000000E+00; -1.5854282E-02;  1.0000000E+04;  0.0000000E+00;  9.9974990E+03;0.029040556;0.0;0.12239344;365.04678
  1.2000157E+00;  9.9999998E-03; -2.0000964E-01;2872;0.021433363;0.0;-0.011722026;1000.8969;  4.0041232E-01;661.2771;3;21.720995;0.0;-9.6025629;0;0.13233128;  9.9994805E+03;  0.0000000E+00; -1.0723040E-01;  1.0000000E+04;  0.0000000E+00;  9.9978447E+03;0.022048188;0.0;0.1102831;351.39932
  1.2200181E+00;  9.9999998E-03; -2.2001220E-01;2894;0.024245778;0.0;-0.013925909;1000.8064;  4.0038905E-01;575.9903;3;26.15513;0.0;-11.550966;0;0.15973897;  9.9990283E+03;  0.0000000E+00;  1.6341627E-01;  1.0000000E+04;  0.0000000E+00;  9.9976484E+03;0.045485865;0.0;0.11425311;343.56314
  1.2200168E+00;  9.9999998E-03; -2.0001023E-01;2895;0.022438752;0.0;-0.012212663;1000.8217;  4.0038911E-01;586.88989;3;23.085888;0.0;-10.31693;0;0.15029734;  9.9990713E+03;  0.0000000E+00; -1.5357333E-02;  1.0000000E+04;  0.0000000E+00;  9.9979141E+03;0.043683711;0.0;0.10661364;242.98322
 -1.7210192E-09;  9.9999998E-03; -1.8000001E-01;1036;-5.773783e-06;0.0;-7.2445204e-07;1000.0001;  4.0000001E-01;0.098762624;3;-0.012987067;0.0;-0.0016621226;0;-0.00011670747;  1.0000001E+04;  0.0000000E+00; -4.9499549E-12;  1.0000000E+04;  0.0000000E+00;  1.0000000E+04;-0.00012057493;0.0;3.8674607e-06;0.012019603
 -1.7976577E-09;  9.9999998E-03; -1.6000000E-01;1037;-6.0209236e-06;0.0;-6.1147807e-07;1000.0001;  4.0000001E-01;0.098762624;3;-0.013522479;0.0;-0.0014062484;0;-0.00012193236;  1.0000001E+04;  0.0000000E+00;  1.8385965E-12;  1.0000000E+04;  0.0000000E+00;  1.0000000E+04;-0.00012579036;0.0;3.8580015e-06;0.012085873
 -1.8579195E-09;  9.9999998E-03; -1.4000000E-01;1038;-6.2124682e-06;0.0;-5.1078416e-07;1000.0001;  4.0000001E-01;0.098762624;3;-0.01393261;0.0;-0.0011818964;0;-0.00012614716;  1.0000001E+04;  0.0000000E+00;  1.7042107E-12;  1.0000000E+04;  0.0000000E+00;  1.0000000E+04;-0.00012980754;0.0;3.6603763e-06;0.01166456
 -1.9050708E-09;  9.9999998E-03; -1.2000000E-01;1039;-6.3605576e-06;0.0;-4.1745594e-07;1000.0001;  4.0000001E-01;0.098762624;3;-0.014246081;0.0;-0.00097232184;0;-0.00012947885;  1.0000001E+04;  0.0000000E+00;  2.8891733E-13;  1.0000000E+04;  0.0000000E+00;  1.0000000E+04;-0.00013288073;0.0;3.4018678e-06;0.01105262
 -1.9412774E-09;  9.9999998E-03; -1.0000000E-01;1040;-6.4727819e-06;0.0;-3.3376827e-07;1000.0001;  4.0000001E-01;0.098762624;3;-0.014480684;0.0;-0.00078236603;0;-0.00013206415;  1.0000001E+04;  0.0000000E+00; -1.0618694E-13;  1.0000000E+04;  0.0000000E+00;  1.0000000E+04;-0.0001352039;0.0;3.1397492e-06;0.010397699
 -1.9685533E-09;  9.9999998E-03; -7.9999998E-02;1041;-6.5564004e-06;0.0;-2.5715872e-07;1000.0001;  4.0000001E-01;0.098762624;3;-0.014653842;0.0;-0.00060583174;0;-0.00013402663;  1.0000001E+04;  0.0000000E+00; -1.7637705E-13;  1.0000000E+04;  0.0000000E+00;  1.0000000E+04;-0.00013692753;0.0;2.9008886e-06;0.0097850477
 -1.9883926E-09;  9.9999998E-03; -5.9999999E-02;1042;-6.6168909e-06;0.0;-1.8612074e-07;1000.0001;  4.0000001E-01;0.098762624;3;-0.014778794;0.0;-0.00043935352;0;-0.00013546443;  1.0000001E+04;  0.0000000E+00;  9.3849256E-13;  1.0000000E+04;  0.0000000E+00;  1.0000000E+04;-0.00013816412;0.0;2.6996918e-06;0.0092676962
 -2.0018263E-09;  9.9999998E-03; -3.9999999E-02;1043;-6.6577459e-06;0.0;-1.2069056e-07;1000.0001;  4.0000001E-01;0.098762624;3;-0.01486334;0.0;-0.00028478404;0;-0.00013644823;  1.0000001E+04;  0.0000000E+00;  2.8201267E-13;  1.0000000E+04;  0.0000000E+00;  1.0000000E+04;-0.00013899438;0.0;2.5461459e-06;0.0088780895
 -2.0096129E-09;  9.9999998E-03; -2.0000000E-02;1044;-6.6814023e-06;0.0;-5.9309212e-08;1000.0001;  4.0000001E-01;0.098762624;3;-0.014912392;0.0;-0.00014005021;0;-0.00013702281;  1.0000001E+04;  0.0000000E+00; -2.3324417E-13;  1.0000000E+04;  0.0000000E+00;  1.0000000E+04;-0.00013947205;0.0;2.4492347e-06;0.0086364737
  1.9999998E-02;  9.9999998E-03; -1.8000001E-01;1066;-8.9261412e-06;0.0;-1.0895761e-06;1000.0001;  4.0000001E-01;0.098762624;3;-0.019483786;0.0;-0.0024261721;0;-0.0001618814;  1.0000001E+04;  0.0000000E+00;  2.7457470E-12;  1.0000000E+04;  0.0000000E+00;  1.0000000E+04;-0.00016790869;0.0;6.0272855e-06;0.018942153
  1.9999998E-02;  9.9999998E-03; -1.6000000E-01;1067;-9.2897599e-06;0.0;-9.198705e-07;1000.0001;  4.0000001E-01;0.098762624;3;-0.020240959;0.0;-0.0020517332;0;-0.00016876811;  1.0000001E+04;  0.0000000E+00;  5.5462505E-12;  1.0000000E+04;  0.0000000E+00;  1.0000000E+04;-0.00017475283;0.0;5.9847293e-06;0.018933551
  1.9999998E-02;  9.9999998E-03; -1.4000000E-01;1068;-9.5693858e-06;0.0;-7.6698177e-07;1000.0001;  4.0000001E-01;0.098762624;3;-0.020813745;0.0;-0.0017191932;0;-0.00017430935;  1.0000001E+04;  0.0000000E+00;  7.6829943E-13;  1.0000000E+04;  0.0000000E+00;  1.0000000E+04;-0.00017997395;0.0;5.6646036e-06;0.018191988
  1.9999998E-02;  9.9999998E-03; -1.2000000E-01;1069;-9.7841148e-06;0.0;-6.2629516e-07;1000.0001;  4.0000001E-01;0.098762624;3;-0.021246377;0.0;-0.001411201;0;-0.00017867287;  1.0000001E+04;  0.0000000E+00;  2.2013221E-14;  1.0000000E+04;  0.0000000E+00;  1.0000000E+04;-0.00018392988;0.0;5.2570117e-06;0.017178457
  1.9999998E-02;  9.9999998E-03; -1.0000000E-01;1070;-9.9461258e-06;0.0;-5.0004525e-07;1000.0001;  4.0000001E-01;0.098762624;3;-0.021566886;0.0;-0.0011325043;0;-0.00018204932;  1.0000001E+04;  0.0000000E+00; -1.9057680E-13;  1.0000000E+04;  0.0000000E+00;  1.0000000E+04;-0.00018689205;0.0;4.8427328e-06;0.01610758
  1.9999998E-02;  9.9999998E-03; -7.9999998E-02;1071;-1.0066156e-05;0.0;-3.8442525e-07;1000.0001;  4.0000001E-01;0.098762624;3;-0.021800434;0.0;-0.00087408413;0;-0.00018460734;  1.0000001E+04;  0.0000000E+00; -2.6318257E-13;  1.0000000E+04;  0.0000000E+00;  1.0000000E+04;-0.00018907133;0.0;4.4639942e-06;0.015110713
  1.9999998E-02;  9.9999998E-03; -5.9999999E-02;1072;-1.0152315e-05;0.0;-2.7808341e-07;1000.0001;  4.0000001E-01;0.098762624;3;-0.021966476;0.0;-0.00063356734;0;-0.00018647902;  1.0000001E+04;  0.0000000E+00;  6.7508358E-13;  1.0000000E+04;  0.0000000E+00;  1.0000000E+04;-0.00019062386;0.0;4.144832e-06;0.014270501
  1.9999998E-02;  9.9999998E-03; -3.9999999E-02;1073;-1.0210115e-05;0.0;-1.8033455e-07;1000.0001;  4.0000001E-01;0.098762624;3;-0.022077588;0.0;-0.00041116902;0;-0.00018775873;  1.0000001E+04;  0.0000000E+00;  7.5399501E-13;  1.0000000E+04;  0.0000000E+00;  1.0000000E+04;-0.00019166054;0.0;3.9018028e-06;0.013637992
  1.9999998E-02;  9.9999998E-03; -2.0000000E-02;1074;-1.024334e-05;0.0;-8.8559766e-08;1000.0001;  4.0000001E-01;0.098762624;3;-0.02214152;0.0;-0.00020220934;0;-0.00018850592;  1.0000001E+04;  0.0000000E+00;  1.6037364E-13;  1.0000000E+04;  0.0000000E+00;  1.0000000E+04;-0.00019225481;0.0;3.7488953e-06;0.013245606
  3.9999995E-02;  9.9999998E-03; -1.8000001E-01;1097;-1.3451043e-05;0.0;-1.5284448e-06;1000.0001;  4.0000001E-01;0.098762624;3;-0.028527908;0.0;-0.0032847563;0;-0.00022107444;  1.0000002E+04;  0.0000000E+00;  6.6885972E-12;  1.0000000E+04;  0.0000000E+00;  1.0000000E+04;-0.00022999496;0.0;8.9205096e-06;0.028723598
  3.9999995E-02;  9.9999998E-03; -1.6000000E-01;1098;-1.3970732e-05;0.0;-1.2898895e-06;1000.0001;  4.0000001E-01;0.098762624;3;-0.029569793;0.0;-0.0027735233;0;-0.00022993384;  1.0000002E+04;  0.0000000E+00;  2.1292404E-12;  1.0000000E+04;  0.0000000E+00;  1.0000000E+04;-0.0002387464;0.0;8.8125662e-06;0.028533738
  3.9999995E-02;  9.9999998E-03; -1.4000000E-01;1099;-1.4367302e-05;0.0;-1.074425e-06;1000.0001;  4.0000001E-01;0.098762624;3;-0.030347243;0.0;-0.0023173804;0;-0.00023702589;  1.0000002E+04;  0.0000000E+00; -5.1741304E-13;  1.0000000E+04;  0.0000000E+00;  1.0000000E+04;-0.0002453429;0.0;8.3170135e-06;0.027292671
  3.9999995E-02;  9.9999998E-03; -1.2000000E-01;1100;-1.4670004e-05;0.0;-8.7660123e-07;1000.0001;  4.0000001E-01;0.098762624;3;-0.030926757;0.0;-0.0018972759;0;-0.00024258139;  1.0000002E+04;  0.0000000E+00;  1.4255012E-12;  1.0000000E+04;  0.0000000E+00;  1.0000000E+04;-0.00025028331;0.0;7.7019222e-06;0.025683183
  3.9999995E-02;  9.9999998E-03; -1.0000000E-01;1101;-1.4897528e-05;0.0;-6.9896038e-07;1000.0001;  4.0000001E-01;0.098762624;3;-0.031351656;0.0;-0.0015180235;0;-0.00024686701;  1.0000002E+04;  0.0000000E+00;  7.4817084E-13;  1.0000000E+04;  0.0000000E+00;  1.0000000E+04;-0.00025394291;0.0;7.0758979e-06;0.024005266
  3.9999995E-02;  9.9999998E-03; -7.9999998E-02;1102;-1.5065943e-05;0.0;-5.3658374e-07;1000.0001;  4.0000001E-01;0.098762624;3;-0.031659633;0.0;-0.0011686586;0;-0.00025010749;  1.0000002E+04;  0.0000000E+00;  8.0284778E-14;  1.0000000E+04;  0.0000000E+00;  1.0000000E+04;-0.00025660952;0.0;6.5020286e-06;0.022451917
  3.9999995E-02;  9.9999998E-03; -5.9999999E-02;1103;-1.5186729e-05;0.0;-3.8792808e-07;1000.0001;  4.0000001E-01;0.098762624;3;-0.031877704;0.0;-0.0008467061;0;-0.0002524755;  1.0000002E+04;  0.0000000E+00; -5.9201185E-13;  1.0000000E+04;  0.0000000E+00;  1.0000000E+04;-0.00025849382;0.0;6.0183233e-06;0.02114586
  3.9999995E-02;  9.9999998E-03; -3.9999999E-02;1104;-1.5267662e-05;0.0;-2.5152264e-07;1000.0001;  4.0000001E-01;0.098762624;3;-0.032023106;0.0;-0.00054998219;0;-0.00025409329;  1.0000002E+04;  0.0000000E+00;  4.0616479E-13;  1.0000000E+04;  0.0000000E+00;  1.0000000E+04;-0.00025974418;0.0;5.6508743e-06;0.02016367
  3.9999995E-02;  9.9999998E-03; -2.0000000E-02;1105;-1.5314195e-05;0.0;-1.2343077e-07;1000.0001;  4.0000001E-01;0.098762624;3;-0.032106731;0.0;-0.00027060055;0;-0.00025503751;  1.0000002E+04;  0.0000000E+00;  4.3302067E-13;  1.0000000E+04;  0.0000000E+00;  1.0000000E+04;-0.00026045792;0.0;5.4204083e-06;0.019554561
  5.9999995E-02;  9.9999998E-03; -1.8000001E-01;1128;-1.96663e-05;0.0;-2.0912141e-06;1000.0001;  4.0000001E-01;0.098762624;3;-0.040561434;0.0;-0.004332881;0;-0.00030159627;  1.0000003E+04;  0.0000000E+00;  2.4002339E-12;  1.0000000E+04;  0.0000000E+00;  1.0000000E+04;-0.00031439849;0.0;1.2802216e-05;0.042615753
  5.9999995E-02;  9.9999998E-03; -1.6000000E-01;1129;-2.0382082e-05;0.0;-1.7621635e-06;1000.0001;  4.0000001E-01;0.098762624;3;-0.041944444;0.0;-0.0036470857;0;-0.0003129059;  1.0000003E+04;  0.0000000E+00;  9.5770256E-13;  1.0000000E+04;  0.0000000E+00;  1.0000000E+04;-0.00032548414;0.0;1.2578248e-05;0.042068586
  5.9999995E-02;  9.9999998E-03; -1.4000000E-01;1130;-2.0924286e-05;0.0;-1.4650634e-06;1000.0001;  4.0000001E-01;0.098762624;3;-0.042963665;0.0;-0.0030337751;0;-0.00032189538;  1.0000003E+04;  0.0000000E+00; -6.6955346E-14;  1.0000000E+04;  0.0000000E+00;  1.0000000E+04;-0.00033372562;0.0;1.1830252e-05;0.04005228
  5.9999995E-02;  9.9999998E-03; -1.2000000E-01;1131;-2.1335645e-05;0.0;-1.193243e-06;1000.0001;  4.0000001E-01;0.098762624;3;-0.043713983;0.0;-0.0024724479;0;-0.00032889491;  1.0000003E+04;  0.0000000E+00;  5.8709038E-13;  1.0000000E+04;  0.0000000E+00;  1.0000000E+04;-0.00033981737;0.0;1.0922458e-05;0.03754935
  5.9999991E-02;  9.9999998E-03; -1.0000000E-01;1132;-2.1643778e-05;0.0;-9.5022818e-07;1000.0001;  4.0000001E-01;0.098762624;3;-0.044258885;0.0;-0.0019717857;0;-0.00033427723;  1.0000003E+04;  0.0000000E+00;  1.3235383E-12;  1.0000000E+04;  0.0000000E+00;  1.0000000E+04;-0.0003442759;0.0;9.9986837e-06;0.034975316
  5.9999991E-02;  9.9999998E-03; -7.9999998E-02;1133;-2.1871792e-05;0.0;-7.2935626e-07;1000.0001;  4.0000001E-01;0.098762624;3;-0.044652618;0.0;-0.0015170837;0;-0.00033833925;  1.0000003E+04;  0.0000000E+00; -9.9993751E-14;  1.0000000E+04;  0.0000000E+00;  1.0000000E+04;-0.00034748967;0.0;9.1504298e-06;0.032607336
  5.9999991E-02;  9.9999998E-03; -5.9999999E-02;1134;-2.2035596e-05;0.0;-5.2742087e-07;1000.0001;  4.0000001E-01;0.098762624;3;-0.04493181;0.0;-0.0011001348;0;-0.00034130417;  1.0000003E+04;  0.0000000E+00;  5.7549945E-13;  1.0000000E+04;  0.0000000E+00;  1.0000000E+04;-0.0003497398;0.0;8.435637e-06;0.030622985
  5.9999991E-02;  9.9999998E-03; -3.9999999E-02;1135;-2.2145599e-05;0.0;-3.4217604e-07;1000.0001;  4.0000001E-01;0.098762624;3;-0.045118585;0.0;-0.00071606884;0;-0.00034332805;  1.0000003E+04;  0.0000000E+00;  5.6528941E-13;  1.0000000E+04;  0.0000000E+00;  1.0000000E+04;-0.000351222;0.0;7.8939629e-06;0.029133841
  5.9999991E-02;  9.9999998E-03; -2.0000000E-02;1136;-2.2209018e-05;0.0;-1.6791803e-07;1000.0001;  4.0000001E-01;0.098762624;3;-0.045226339;0.0;-0.00035261959;0;-0.00034450853;  1.0000003E+04;  0.0000000E+00;  8.8102607E-14;  1.0000000E+04;  0.0000000E+00;  1.0000000E+04;-0.00035206383;0.0;7.5552962e-06;0.028211672
  7.9999991E-02;  9.9999998E-03; -1.8000001E-01;1159;-2.8111421e-05;0.0;-2.8284326e-06;1000.0002;  4.0000001E-01;0.19752525;3;-0.056432746;0.0;-0.0056535681;0;-0.00041244601;  1.0000003E+04;  0.0000000E+00;  1.1838226E-11;  1.0000000E+04;  0.0000000E+00;  1.0000000E+04;-0.00043052863;0.0;1.8082619e-05;0.062505633
  7.9999991E-02;  9.9999998E-03; -1.6000000E-01;1160;-2.9067302e-05;0.0;-2.3796672e-06;1000.0002;  4.0000001E-01;0.19752525;3;-0.058211148;0.0;-0.0047451262;0;-0.00042683337;  1.0000004E+04;  0.0000000E+00; -2.3871198E-12;  1.0000000E+04;  0.0000000E+00;  1.0000000E+04;-0.00044449727;0.0;1.7663901e-05;0.06131291
  7.9999991E-02;  9.9999998E-03; -1.4000000E-01;1161;-2.9786266e-05;0.0;-1.9738636e-06;1000.0002;  4.0000001E-01;0.19752525;3;-0.059509065;0.0;-0.0039281687;0;-0.00043818081;  1.0000004E+04;  0.0000000E+00;  1.2488073E-12;  1.0000000E+04;  0.0000000E+00;  1.0000000E+04;-0.00045472596;0.0;1.6545162e-05;0.058086593
  7.9999991E-02;  9.9999998E-03; -1.2000000E-01;1162;-3.0328092e-05;0.0;-1.6050152e-06;1000.0002;  4.0000001E-01;0.19752525;3;-0.060454607;0.0;-0.003187655;0;-0.00044696472;  1.0000005E+04;  0.0000000E+00;  1.5589319E-12;  1.0000000E+04;  0.0000000E+00;  1.0000000E+04;-0.00046217881;0.0;1.5214081e-05;0.054223336
  7.9999991E-02;  9.9999998E-03; -1.0000000E-01;1163;-3.0732412e-05;0.0;-1.2765423e-06;1000.0002;  4.0000001E-01;0.19752525;3;-0.061136529;0.0;-0.0025342817;0;-0.00045369638;  1.0000005E+04;  0.0000000E+00;  1.2744625E-12;  1.0000000E+04;  0.0000000E+00;  1.0000000E+04;-0.00046755935;0.0;1.3862958e-05;0.050304323
  7.9999991E-02;  9.9999998E-03; -7.9999998E-02;1164;-3.1030908e-05;0.0;-9.7947145e-07;1000.0002;  4.0000001E-01;0.19752525;3;-0.06162706;0.0;-0.0019488053;0;-0.00045876668;  1.0000005E+04;  0.0000000E+00;  8.0210751E-13;  1.0000000E+04;  0.0000000E+00;  1.0000000E+04;-0.00047138907;0.0;1.262239e-05;0.046724834
  7.9999991E-02;  9.9999998E-03; -5.9999999E-02;1165;-3.1245188e-05;0.0;-7.0857629e-07;1000.0002;  4.0000001E-01;0.19752525;3;-0.061974786;0.0;-0.0014151599;0;-0.0004624631;  1.0000005E+04;  0.0000000E+00; -3.0209835E-13;  1.0000000E+04;  0.0000000E+00;  1.0000000E+04;-0.00047404144;0.0;1.1578339e-05;0.043739028
  7.9999991E-02;  9.9999998E-03; -3.9999999E-02;1166;-3.1389194e-05;0.0;-4.6014969e-07;1000.0002;  4.0000001E-01;0.19752525;3;-0.062207688;0.0;-0.00092350243;0;-0.00046498448;  1.0000005E+04;  0.0000000E+00; -2.7924171E-14;  1.0000000E+04;  0.0000000E+00;  1.0000000E+04;-0.000475774;0.0;1.0789509e-05;0.041506231
  7.9999991E-02;  9.9999998E-03; -2.0000000E-02;1167;-3.1472387e-05;0.0;-2.259345e-07;1000.0002;  4.0000001E-01;0.19752525;3;-0.062342539;0.0;-0.00045542329;0;-0.00046645442;  1.0000005E+04;  0.0000000E+00;  1.8237522E-13;  1.0000000E+04;  0.0000000E+00;  1.0000000E+04;-0.00047675241;0.0;1.0297998e-05;0.040127262
  9.9999987E-02;  9.9999998E-03; -1.8000001E-01;1190;-3.9563489e-05;0.0;-3.8000526e-06;1000.0002;  4.0000001E-01;0.19752525;3;-0.077348091;0.0;-0.0073341681;0;-0.00056450022;  1.0000006E+04;  0.0000000E+00; -5.4064332E-13;  1.0000000E+04;  0.0000000E+00;  1.0000000E+04;-0.00058989029;0.0;2.5390089e-05;0.091195509
  9.9999987E-02;  9.9999998E-03; -1.6000000E-01;1191;-4.0810632e-05;0.0;-3.1933419e-06;1000.0003;  4.0000001E-01;0.29628786;3;-0.079577506;0.0;-0.0061449637;0;-0.00058271212;  1.0000006E+04;  0.0000000E+00; -3.6697711E-12;  1.0000000E+04;  0.0000000E+00;  1.0000000E+04;-0.00060735177;0.0;2.4639679e-05;0.088843055
  9.9999987E-02;  9.9999998E-03; -1.4000000E-01;1192;-4.1740714e-05;0.0;-2.6420671e-06;1000.0003;  4.0000001E-01;0.29628786;3;-0.0811878;0.0;-0.0050663189;0;-0.00059697329;  1.0000006E+04;  0.0000000E+00; -6.6642867E-12;  1.0000000E+04;  0.0000000E+00;  1.0000000E+04;-0.00061993272;0.0;2.295941e-05;0.083700813
  9.9999987E-02;  9.9999998E-03; -1.2000000E-01;1193;-4.2435269e-05;0.0;-2.1446469e-06;1000.0003;  4.0000001E-01;0.29628786;3;-0.082347289;0.0;-0.0040971613;0;-0.00060795341;  1.0000006E+04;  0.0000000E+00; -2.5569352E-13;  1.0000000E+04;  0.0000000E+00;  1.0000000E+04;-0.00062895508;0.0;2.1001701e-05;0.077742934
  9.9999987E-02;  9.9999998E-03; -1.0000000E-01;1194;-4.295016e-05;0.0;-1.7029607e-06;1000.0003;  4.0000001E-01;0.29628786;3;-0.083176322;0.0;-0.0032482638;0;-0.00061633863;  1.0000006E+04;  0.0000000E+00;  5.4440919E-13;  1.0000000E+04;  0.0000000E+00;  1.0000000E+04;-0.00063536409;0.0;1.9025467e-05;0.071783185
  9.9999987E-02;  9.9999998E-03; -7.9999998E-02;1195;-4.3328353e-05;0.0;-1.3049812e-06;1000.0003;  4.0000001E-01;0.29628786;3;-0.083769269;0.0;-0.0024949906;0;-0.0006226406;  1.0000006E+04;  0.0000000E+00; -1.2849550E-12;  1.0000000E+04;  0.0000000E+00;  1.0000000E+04;-0.00063985615;0.0;1.7215581e-05;0.066384248
  9.9999987E-02;  9.9999998E-03; -5.9999999E-02;1196;-4.3598797e-05;0.0;-9.4378123e-07;1000.0003;  4.0000001E-01;0.29628786;3;-0.084188238;0.0;-0.0018132334;0;-0.00062722899;  1.0000006E+04;  0.0000000E+00; -1.5811256E-12;  1.0000000E+04;  0.0000000E+00;  1.0000000E+04;-0.0006429262;0.0;1.5697207e-05;0.061908435
  9.9999987E-02;  9.9999998E-03; -3.9999999E-02;1197;-4.3780186e-05;0.0;-6.1320941e-07;1000.0003;  4.0000001E-01;0.29628786;3;-0.08446829;0.0;-0.0011855997;0;-0.00063035567;  1.0000007E+04;  0.0000000E+00; -6.7812683E-13;  1.0000000E+04;  0.0000000E+00;  1.0000000E+04;-0.00064491044;0.0;1.455477e-05;0.058578506
  9.9999987E-02;  9.9999998E-03; -2.0000000E-02;1198;-4.3884975e-05;0.0;-3.0120125e-07;1000.0003;  4.0000001E-01;0.29628786;3;-0.084630482;0.0;-0.00058532774;0;-0.00063217682;  1.0000007E+04;  0.0000000E+00;  5.7923460E-14;  1.0000000E+04;  0.0000000E+00;  1.0000000E+04;-0.00064602261;0.0;1.3845818e-05;0.056530092
  1.1999998E-01;  9.9999998E-03; -1.8000001E-01;1221;-5.5102682e-05;0.0;-5.0863378e-06;1000.0004;  4.0000001E-01;0.29628786;3;-0.10493149;0.0;-0.0094868978;0;-0.0007709848;  1.0000007E+04;  0.0000000E+00;  5.0881248E-12;  1.0000000E+04;  0.0000000E+00;  1.0000000E+04;-0.00080670102;0.0;3.5716206e-05;0.13297904
  1.1999998E-01;  9.9999998E-03; -1.6000000E-01;1222;-5.6701992e-05;0.0;-4.2690017e-06;1000.0004;  4.0000001E-01;0.29628786;3;-0.10766972;0.0;-0.0079414211;0;-0.00079389202;  1.0000007E+04;  0.0000000E+00; -6.8274665E-12;  1.0000000E+04;  0.0000000E+00;  1.0000000E+04;-0.0008282332;0.0;3.4341185e-05;0.1283958
  1.1999998E-01;  9.9999998E-03; -1.4000000E-01;1223;-5.7881472e-05;0.0;-3.5208068e-06;1000.0004;  4.0000001E-01;0.3950505;3;-0.10962074;0.0;-0.0065235635;0;-0.00081170769;  1.0000008E+04;  0.0000000E+00; -8.0060576E-12;  1.0000000E+04;  0.0000000E+00;  1.0000000E+04;-0.00084347732;0.0;3.1769643e-05;0.12012754
  1.1999998E-01;  9.9999998E-03; -1.2000000E-01;1224;-5.8751193e-05;0.0;-2.8504073e-06;1000.0004;  4.0000001E-01;0.3950505;3;-0.11100352;0.0;-0.0052581755;0;-0.00082534709;  1.0000008E+04;  0.0000000E+00; -2.9293783E-12;  1.0000000E+04;  0.0000000E+00;  1.0000000E+04;-0.00085420924;0.0;2.8862172e-05;0.11090601
  1.1999998E-01;  9.9999998E-03; -1.0000000E-01;1225;-5.9389011e-05;0.0;-2.2574086e-06;1000.0004;  4.0000001E-01;0.3950505;3;-0.11197843;0.0;-0.0041563576;0;-0.00083572534;  1.0000008E+04;  0.0000000E+00; -1.8969995E-13;  1.0000000E+04;  0.0000000E+00;  1.0000000E+04;-0.00086168421;0.0;2.5958869e-05;0.10183532
  1.1999998E-01;  9.9999998E-03; -7.9999998E-02;1226;-5.9853064e-05;0.0;-1.725385e-06;1000.0004;  4.0000001E-01;0.3950505;3;-0.1126679;0.0;-0.0031860289;0;-0.00084350532;  1.0000009E+04;  0.0000000E+00; -1.3021564E-12;  1.0000000E+04;  0.0000000E+00;  1.0000000E+04;-0.00086682168;0.0;2.3316366e-05;0.093701616
  1.1999998E-01;  9.9999998E-03; -5.9999999E-02;1227;-6.0182469e-05;0.0;-1.2462897e-06;1000.0004;  4.0000001E-01;0.3950505;3;-0.11315072;0.0;-0.0023149366;0;-0.0008491585;  1.0000009E+04;  0.0000000E+00; -5.9180064E-13;  1.0000000E+04;  0.0000000E+00;  1.0000000E+04;-0.00087027089;0.0;2.1112404e-05;0.087012611
  1.1999998E-01;  9.9999998E-03; -3.9999999E-02;1228;-6.040245e-05;0.0;-8.0975724e-07;1000.0004;  4.0000001E-01;0.3950505;3;-0.11347137;0.0;-0.0015157638;0;-0.00085300457;  1.0000009E+04;  0.0000000E+00; -5.0006391E-13;  1.0000000E+04;  0.0000000E+00;  1.0000000E+04;-0.00087246852;0.0;1.9463947e-05;0.082069613
  1.1999998E-01;  9.9999998E-03; -2.0000000E-02;1229;-6.0529368e-05;0.0;-3.97598e-07;1000.0004;  4.0000001E-01;0.3950505;3;-0.11365673;0.0;-0.00074804638;0;-0.00085524225;  1.0000009E+04;  0.0000000E+00;  5.1652015E-13;  1.0000000E+04;  0.0000000E+00;  1.0000000E+04;-0.00087368838;0.0;1.8446121e-05;0.079044499
  1.3999997E-01;  9.9999998E-03; -1.8000001E-01;1252;-7.616415e-05;0.0;-6.8021786e-06;1000.0005;  4.0000001E-01;0.3950505;3;-0.14121382;0.0;-0.012272792;0;-0.0010482395;  1.0000012E+04;  0.0000000E+00; -3.3443165E-08;  1.0000000E+04;  0.0000000E+00;  1.0000000E+04;-0.001098946;0.0;5.0706414e-05;0.19473743
  1.3999997E-01;  9.9999998E-03; -1.6000000E-01;1253;-7.8186225e-05;0.0;-5.6931699e-06;1000.0005;  4.0000001E-01;0.49381313;3;-0.14451189;0.0;-0.010253484;0;-0.0010768983;  1.0000012E+04;  0.0000000E+00;  1.1003907E-12;  1.0000000E+04;  0.0000000E+00;  1.0000000E+04;-0.0011249187;0.0;4.8020378e-05;0.18550514
  1.3999997E-01;  9.9999998E-03; -1.4000000E-01;1254;-7.9655998e-05;0.0;-4.6742275e-06;1000.0005;  4.0000001E-01;0.49381313;3;-0.14681721;0.0;-0.0083879698;0;-0.0010990149;  1.0000012E+04;  0.0000000E+00; -9.4376616E-12;  1.0000000E+04;  0.0000000E+00;  1.0000000E+04;-0.0011429625;0.0;4.3947628e-05;0.17190894
  1.3999997E-01;  9.9999998E-03; -1.2000000E-01;1255;-8.0721569e-05;0.0;-3.7679167e-06;1000.0005;  4.0000001E-01;0.49381313;3;-0.14841484;0.0;-0.0067342054;0;-0.0011158233;  1.0000012E+04;  0.0000000E+00; -9.8700627E-13;  1.0000000E+04;  0.0000000E+00;  1.0000000E+04;-0.0011553832;0.0;3.955988e-05;0.15751393
  1.3999997E-01;  9.9999998E-03; -1.0000000E-01;1256;-8.1489874e-05;0.0;-2.971447e-06;1000.0006;  4.0000001E-01;0.49381313;3;-0.14951639;0.0;-0.0053014639;0;-0.0011285496;  1.0000012E+04;  0.0000000E+00; -7.1998928E-13;  1.0000000E+04;  0.0000000E+00;  1.0000000E+04;-0.0011638169;0.0;3.5267309e-05;0.14368935
  1.3999997E-01;  9.9999998E-03; -7.9999998E-02;1257;-8.2041413e-05;0.0;-2.2623694e-06;1000.0006;  4.0000001E-01;0.49381313;3;-0.1502776;0.0;-0.0040494585;0;-0.0011380545;  1.0000012E+04;  0.0000000E+00; -1.4811107E-12;  1.0000000E+04;  0.0000000E+00;  1.0000000E+04;-0.0011694606;0.0;3.1406078e-05;0.13146694
  1.3999997E-01;  9.9999998E-03; -6.0000002E-02;1258;-8.2428967e-05;0.0;-1.6305746e-06;1000.0006;  4.0000001E-01;0.49381313;3;-0.15079962;0.0;-0.0029368433;0;-0.0011449406;  1.0000012E+04;  0.0000000E+00; -3.1122470E-12;  1.0000000E+04;  0.0000000E+00;  1.0000000E+04;-0.0011731562;0.0;2.8215574e-05;0.12152092
  1.3999997E-01;  9.9999998E-03; -3.9999999E-02;1259;-8.2685954e-05;0.0;-1.0580077e-06;1000.0006;  4.0000001E-01;0.49381313;3;-0.15114096;0.0;-0.0019209369;0;-0.0011496127;  1.0000013E+04;  0.0000000E+00; -3.3763004E-13;  1.0000000E+04;  0.0000000E+00;  1.0000000E+04;-0.0011754611;0.0;2.5848347e-05;0.11423282
  1.3999997E-01;  9.9999998E-03; -2.0000000E-02;1260;-8.2833387e-05;0.0;-5.1925235e-07;1000.0006;  4.0000001E-01;0.49381313;3;-0.15133597;0.0;-0.00094742462;0;-0.0011523255;  1.0000013E+04;  0.0000000E+00; -1.1169244E-12;  1.0000000E+04;  0.0000000E+00;  1.0000000E+04;-0.0011767213;0.0;2.4395757e-05;0.10979997
  1.5999997E-01;  9.9999998E-03; -1.8000001E-01;1283;-0.00010460974;0.0;-9.1043812e-06;1000.0007;  4.0000001E-01;0.59257573;3;-0.18870726;0.0;-0.015906708;0;-0.0014168588;  1.0000015E+04;  0.0000000E+00; -3.3904706E-07;  1.0000000E+04;  0.0000000E+00;  1.0000000E+04;-0.001489926;0.0;7.3067284e-05;0.28753504
  1.5999997E-01;  9.9999998E-03; -1.6000000E-01;1284;-0.00010712806;0.0;-7.5845883e-06;1000.0008;  4.0000001E-01;0.69133836;3;-0.19258483;0.0;-0.01323848;0;-0.0014525375;  1.0000016E+04;  0.0000000E+00; -2.9535929E-11;  1.0000000E+04;  0.0000000E+00;  1.0000000E+04;-0.0015201156;0.0;6.757817e-05;0.26846719
  1.5999997E-01;  9.9999998E-03; -1.4000000E-01;1285;-0.00010892987;0.0;-6.1869041e-06;1000.0008;  4.0000001E-01;0.69133836;3;-0.19522817;0.0;-0.010768475;0;-0.0014798871;  1.0000016E+04;  0.0000000E+00; -1.2991596E-11;  1.0000000E+04;  0.0000000E+00;  1.0000000E+04;-0.0015407443;0.0;6.0857321e-05;0.24546094
  1.5999995E-01;  9.9999998E-03; -1.2000000E-01;1286;-0.00011021067;0.0;-4.9546206e-06;1000.0009;  4.0000001E-01;0.69133836;3;-0.19700088;0.0;-0.0085948976;0;-0.001500437;  1.0000016E+04;  0.0000000E+00; -3.5476594E-13;  1.0000000E+04;  0.0000000E+00;  1.0000000E+04;-0.0015545384;0.0;5.4101369e-05;0.22271568
  1.5999995E-01;  9.9999998E-03; -1.0000000E-01;1287;-0.0001111152;0.0;-3.8833182e-06;1000.0009;  4.0000001E-01;0.69133836;3;-0.19817664;0.0;-0.0067241117;0;-0.0015158667;  1.0000016E+04;  0.0000000E+00; -1.5967125E-13;  1.0000000E+04;  0.0000000E+00;  1.0000000E+04;-0.0015635774;0.0;4.7710753e-05;0.20161329
  1.5999995E-01;  9.9999998E-03; -7.9999998E-02;1288;-0.00011175236;0.0;-2.9416142e-06;1000.0009;  4.0000001E-01;0.69133836;3;-0.19895361;0.0;-0.0051053888;0;-0.0015273186;  1.0000017E+04;  0.0000000E+00; -1.3070078E-12;  1.0000000E+04;  0.0000000E+00;  1.0000000E+04;-0.0015693909;0.0;4.207221e-05;0.18332754
  1.5999995E-01;  9.9999998E-03; -6.0000002E-02;1289;-0.00011219237;0.0;-2.1131175e-06;1000.0009;  4.0000001E-01;0.69133836;3;-0.1994625;0.0;-0.003687348;0;-0.0015355708;  1.0000017E+04;  0.0000000E+00; -1.7244944E-12;  1.0000000E+04;  0.0000000E+00;  1.0000000E+04;-0.001573047;0.0;3.7476144e-05;0.16865277
  1.5999995E-01;  9.9999998E-03; -3.9999999E-02;1290;-0.00011248027;0.0;-1.3677296e-06;1000.0009;  4.0000001E-01;0.69133836;3;-0.19978301;0.0;-0.0024042057;0;-0.0015411448;  1.0000017E+04;  0.0000000E+00; -1.4545489E-12;  1.0000000E+04;  0.0000000E+00;  1.0000000E+04;-0.0015752463;0.0;3.4101544e-05;0.15801002
  1.5999995E-01;  9.9999998E-03; -2.0000000E-02;1291;-0.00011264355;0.0;-6.7025445e-07;1000.0009;  4.0000001E-01;0.69133836;3;-0.19996038;0.0;-0.0011830863;0;-0.0015443709;  1.0000017E+04;  0.0000000E+00; -4.4243279E-13;  1.0000000E+04;  0.0000000E+00;  1.0000000E+04;-0.0015764171;0.0;3.2046242e-05;0.15158299
  1.7999995E-01;  9.9999998E-03; -1.8000001E-01;1314;-0.0001428454;0.0;-1.2202017e-05;1000.001;  4.0000001E-01;0.79010099;3;-0.25055599;0.0;-0.020671252;0;-0.0019027186;  1.0000021E+04;  0.0000000E+00; -1.1576282E-06;  1.0000000E+04;  0.0000000E+00;  9.9999990E+03;-0.0020095978;0.0;0.00010687927;0.42813
  1.7999995E-01;  9.9999998E-03; -1.6000001E-01;1315;-0.00014593457;0.0;-1.0088027e-05;1000.001;  4.0000001E-01;0.79010099;3;-0.25499499;0.0;-0.017075144;0;-0.0019471957;  1.0000021E+04;  0.0000000E+00; -4.7265192E-09;  1.0000000E+04;  0.0000000E+00;  9.9999990E+03;-0.0020429783;0.0;9.5782583e-05;0.38938487
  1.7999995E-01;  9.9999998E-03; -1.4000000E-01;1316;-0.0001481017;0.0;-8.1659127e-06;1000.0011;  4.0000001E-01;0.88886362;3;-0.25791159;0.0;-0.013786779;0;-0.0019810128;  1.0000021E+04;  0.0000000E+00; -5.8085923E-12;  1.0000000E+04;  0.0000000E+00;  1.0000000E+04;-0.0020653913;0.0;8.4378567e-05;0.34973723
  1.7999995E-01;  9.9999998E-03; -1.2000000E-01;1317;-0.00014960799;0.0;-6.4860328e-06;1000.0011;  4.0000001E-01;0.88886362;3;-0.25976881;0.0;-0.010909686;0;-0.0020059661;  1.0000021E+04;  0.0000000E+00; -4.9992328E-12;  1.0000000E+04;  0.0000000E+00;  1.0000000E+04;-0.0020797634;0.0;7.3797251e-05;0.31343088
  1.7999995E-01;  9.9999998E-03; -1.0000000E-01;1318;-0.00015064578;0.0;-5.0448698e-06;1000.0011;  4.0000001E-01;0.88886362;3;-0.26091757;0.0;-0.008458891;0;-0.0020244338;  1.0000021E+04;  0.0000000E+00;  2.3657595E-12;  1.0000000E+04;  0.0000000E+00;  1.0000000E+04;-0.0020886681;0.0;6.4234155e-05;0.28120792
  1.7999995E-01;  9.9999998E-03; -7.9999998E-02;1319;-0.00015135828;0.0;-3.7949342e-06;1000.0011;  4.0000001E-01;0.88886362;3;-0.26161364;0.0;-0.0063631032;0;-0.0020379876;  1.0000021E+04;  0.0000000E+00;  1.6457548E-12;  1.0000000E+04;  0.0000000E+00;  1.0000000E+04;-0.0020940118;0.0;5.602427e-05;0.25402302
  1.7999995E-01;  9.9999998E-03; -6.0000002E-02;1320;-0.00015183669;0.0;-2.7120138e-06;1000.0011;  4.0000001E-01;0.88886362;3;-0.26202253;0.0;-0.0045605628;0;-0.0020476682;  1.0000021E+04;  0.0000000E+00; -3.0815777E-12;  1.0000000E+04;  0.0000000E+00;  1.0000000E+04;-0.0020971219;0.0;4.945368e-05;0.23258974
  1.7999995E-01;  9.9999998E-03; -3.9999999E-02;1321;-0.00015214153;0.0;-1.7481632e-06;1000.0011;  4.0000001E-01;0.88886362;3;-0.26224992;0.0;-0.002955165;0;-0.0020541612;  1.0000021E+04;  0.0000000E+00; -1.4861905E-12;  1.0000000E+04;  0.0000000E+00;  1.0000000E+04;-0.0020988535;0.0;4.469242e-05;0.21723819
  1.7999995E-01;  9.9999998E-03; -2.0000000E-02;1322;-0.00015231145;0.0;-8.5453928e-07;1000.0011;  4.0000001E-01;0.88886362;3;-0.26236439;0.0;-0.0014482393;0;-0.0020579002;  1.0000021E+04;  0.0000000E+00; -1.7666917E-12;  1.0000000E+04;  0.0000000E+00;  1.0000000E+04;-0.0020997184;0.0;4.181829e-05;0.2080441
  1.9999993E-01;  9.9999998E-03; -1.8000001E-01;1345;-0.00019397684;0.0;-1.6322323e-05;1000.0014;  4.0000001E-01;1.1851515;3;-0.33065242;0.0;-0.02685147;0;-0.0025379348;  1.0000030E+04;  0.0000000E+00; -2.2979978E-06;  1.0000000E+04;  0.0000000E+00;  9.9999990E+03;-0.0026955507;0.0;0.00015761581;0.63976473
  1.9999993E-01;  9.9999998E-03; -1.6000001E-01;1346;-0.00019769084;0.0;-1.3367847e-05;1000.0015;  4.0000001E-01;1.1851515;3;-0.33555663;0.0;-0.021949168;0;-0.0025939764;  1.0000031E+04;  0.0000000E+00; -2.3375415E-08;  1.0000000E+04;  0.0000000E+00;  9.9999990E+03;-0.0027303046;0.0;0.00013632816;0.56487566
  1.9999991E-01;  9.9999998E-03; -1.4000000E-01;1347;-0.00020022647;0.0;-1.073305e-05;1000.0015;  4.0000001E-01;1.2839141;3;-0.33858225;0.0;-0.017562864;0;-0.0026358792;  1.0000031E+04;  0.0000000E+00; -1.2984469E-11;  1.0000000E+04;  0.0000000E+00;  9.9999990E+03;-0.0027528391;0.0;0.00011695996;0.49678102
  1.9999991E-01;  9.9999998E-03; -1.2000000E-01;1348;-0.00020194083;0.0;-8.4473813e-06;1000.0016;  4.0000001E-01;1.2839141;3;-0.34035349;0.0;-0.013741192;0;-0.0026659884;  1.0000031E+04;  0.0000000E+00;  3.1442524E-12;  1.0000000E+04;  0.0000000E+00;  9.9999990E+03;-0.0027662837;0.0;0.00010029526;0.43876094
  1.9999991E-01;  9.9999998E-03; -1.0000000E-01;1349;-0.00020308275;0.0;-6.5154222e-06;1000.0016;  4.0000001E-01;1.2839141;3;-0.34131077;0.0;-0.01053473;0;-0.0026877569;  1.0000031E+04;  0.0000000E+00;  7.7089030E-12;  1.0000000E+04;  0.0000000E+00;  1.0000000E+04;-0.0027737448;0.0;8.5987784e-05;0.38973054
  1.9999991E-01;  9.9999998E-03; -8.0000006E-02;1350;-0.00020384132;0.0;-4.860693e-06;1000.0016;  4.0000001E-01;1.2839141;3;-0.34178492;0.0;-0.0078290636;0;-0.002703435;  1.0000031E+04;  0.0000000E+00;  6.0905898E-12;  1.0000000E+04;  0.0000000E+00;  1.0000000E+04;-0.0027775443;0.0;7.4109281e-05;0.3496657
  1.9999991E-01;  9.9999998E-03; -6.0000002E-02;1351;-0.00020433258;0.0;-3.4500567e-06;1000.0016;  4.0000001E-01;1.2839141;3;-0.34198108;0.0;-0.0055478844;0;-0.0027144686;  1.0000031E+04;  0.0000000E+00; -8.8792092E-13;  1.0000000E+04;  0.0000000E+00;  1.0000000E+04;-0.002779285;0.0;6.481629e-05;0.31874603
  1.9999991E-01;  9.9999998E-03; -3.9999999E-02;1352;-0.00020463538;0.0;-2.2111708e-06;1000.0016;  4.0000001E-01;1.2839141;3;-0.34203467;0.0;-0.0035603037;0;-0.0027217888;  1.0000031E+04;  0.0000000E+00; -1.0942064E-12;  1.0000000E+04;  0.0000000E+00;  1.0000000E+04;-0.0027799776;0.0;5.8188856e-05;0.29692322
  1.9999991E-01;  9.9999998E-03; -2.0000000E-02;1353;-0.00020480026;0.0;-1.0779436e-06;1000.0016;  4.0000001E-01;1.2839141;3;-0.34203762;0.0;-0.0017362605;0;-0.0027259709;  1.0000031E+04;  0.0000000E+00; -2.1175312E-12;  1.0000000E+04;  0.0000000E+00;  1.0000000E+04;-0.0027802009;0.0;5.423e-05;0.28397772
  2.1999989E-01;  9.9999998E-03; -1.8000001E-01;1376;-0.00026195237;0.0;-2.1711674e-05;1000.002;  4.0000001E-01;1.580202;3;-0.43374154;0.0;-0.034715299;0;-0.0033625809;  1.0000041E+04;  0.0000000E+00; -2.9925866E-06;  1.0000000E+04;  0.0000000E+00;  9.9999980E+03;-0.0035943326;0.0;0.00023175175;0.95184427
  2.1999989E-01;  9.9999998E-03; -1.6000001E-01;1377;-0.00026630261;0.0;-1.7599576e-05;1000.002;  4.0000001E-01;1.580202;3;-0.43889791;0.0;-0.028025901;0;-0.0034340722;  1.0000041E+04;  0.0000000E+00; -3.0117608E-08;  1.0000000E+04;  0.0000000E+00;  9.9999980E+03;-0.0036277096;0.0;0.00019363743;0.81614941
  2.1999989E-01;  9.9999998E-03; -1.4000000E-01;1378;-0.00026916494;0.0;-1.4013268e-05;1000.002;  4.0000001E-01;1.580202;3;-0.44176859;0.0;-0.022187827;0;-0.0034860275;  1.0000041E+04;  0.0000000E+00; -1.6648450E-11;  1.0000000E+04;  0.0000000E+00;  9.9999990E+03;-0.0036475621;0.0;0.0001615347;0.70198524
  2.1999989E-01;  9.9999998E-03; -1.2000000E-01;1379;-0.0002710252;0.0;-1.0925352e-05;1000.002;  4.0000001E-01;1.580202;3;-0.44318864;0.0;-0.017135287;0;-0.003522041;  1.0000042E+04;  0.0000000E+00; -1.8496510E-11;  1.0000000E+04;  0.0000000E+00;  9.9999990E+03;-0.0036575892;0.0;0.00013554824;0.61031008
  2.1999989E-01;  9.9999998E-03; -1.0000000E-01;1380;-0.00027220341;0.0;-8.3568239e-06;1000.002;  4.0000001E-01;1.580202;3;-0.44370857;0.0;-0.01297786;0;-0.0035471939;  1.0000042E+04;  0.0000000E+00;  4.5413521E-12;  1.0000000E+04;  0.0000000E+00;  9.9999990E+03;-0.003661515;0.0;0.00011432103;0.53643674
  2.1999989E-01;  9.9999998E-03; -8.0000006E-02;1381;-0.00027294888;0.0;-6.1827836e-06;1000.002;  4.0000001E-01;1.580202;3;-0.44375852;0.0;-0.0095139286;0;-0.0035647813;  1.0000042E+04;  0.0000000E+00; -3.5108728E-12;  1.0000000E+04;  0.0000000E+00;  9.9999990E+03;-0.0036621066;0.0;9.7325341e-05;0.47809887
  2.1999989E-01;  9.9999998E-03; -6.0000002E-02;1382;-0.00027340726;0.0;-4.359164e-06;1000.002;  4.0000001E-01;1.6789646;3;-0.4435904;0.0;-0.0066593839;0;-0.0035768682;  1.0000042E+04;  0.0000000E+00; -2.2979238E-12;  1.0000000E+04;  0.0000000E+00;  1.0000000E+04;-0.0036612381;0.0;8.4370018e-05;0.43414503
  2.1999989E-01;  9.9999998E-03; -4.0000003E-02;1383;-0.00027367828;0.0;-2.777608e-06;1000.002;  4.0000001E-01;1.6789646;3;-0.44337177;0.0;-0.0042277095;0;-0.0035847484;  1.0000042E+04;  0.0000000E+00; -2.5220496E-12;  1.0000000E+04;  0.0000000E+00;  1.0000000E+04;-0.0036600488;0.0;7.5300486e-05;0.40363544
  2.1999989E-01;  9.9999998E-03; -2.0000001E-02;1384;-0.00027382083;0.0;-1.3502666e-06;1000.0021;  4.0000001E-01;1.6789646;3;-0.44320619;0.0;-0.002049329;0;-0.0035891999;  1.0000042E+04;  0.0000000E+00; -2.6354494E-12;  1.0000000E+04;  0.0000000E+00;  1.0000000E+04;-0.0036591487;0.0;6.9948845e-05;0.38573161
  2.3999986E-01;  9.9999998E-03; -1.8000001E-01;1407;-0.00035174764;0.0;-2.8704048e-05;1000.0026;  4.0000001E-01;2.1727777;3;-0.56552553;0.0;-0.044632468;0;-0.0044272193;  1.0000056E+04;  0.0000000E+00; -2.5530771E-06;  1.0000000E+04;  0.0000000E+00;  9.9999961E+03;-0.0047633187;0.0;0.00033609924;1.3989837
  2.3999985E-01;  9.9999998E-03; -1.6000001E-01;1408;-0.00035665397;0.0;-2.2991881e-05;1000.0026;  4.0000001E-01;2.1727777;3;-0.57052737;0.0;-0.035501979;0;-0.0045186216;  1.0000056E+04;  0.0000000E+00; -1.0191625E-08;  1.0000000E+04;  0.0000000E+00;  9.9999980E+03;-0.0047910954;0.0;0.00027247387;1.1686434
  2.3999985E-01;  9.9999998E-03; -1.4000000E-01;1409;-0.00035971944;0.0;-1.8138706e-05;1000.0026;  4.0000001E-01;2.1727777;3;-0.57283026;0.0;-0.02775174;0;-0.0045826635;  1.0000056E+04;  0.0000000E+00; -1.1176445E-11;  1.0000000E+04;  0.0000000E+00;  9.9999980E+03;-0.0048039733;0.0;0.00022130951;0.98410755
  2.3999985E-01;  9.9999998E-03; -1.2000000E-01;1410;-0.00036158983;0.0;-1.4008436e-05;1000.0026;  4.0000001E-01;2.1727777;3;-0.57349992;0.0;-0.021125367;0;-0.0046250755;  1.0000056E+04;  0.0000000E+00;  4.6371444E-12;  1.0000000E+04;  0.0000000E+00;  9.9999980E+03;-0.0048067919;0.0;0.00018171633;0.84245068
  2.3999985E-01;  9.9999998E-03; -1.0000000E-01;1411;-0.00036267453;0.0;-1.0632853e-05;1000.0027;  4.0000001E-01;2.2715404;3;-0.5732168;0.0;-0.015803082;0;-0.0046532885;  1.0000056E+04;  0.0000000E+00;  4.3123903E-12;  1.0000000E+04;  0.0000000E+00;  9.9999990E+03;-0.0048040464;0.0;0.000150758;0.73299795
  2.3999985E-01;  9.9999998E-03; -8.0000006E-02;1412;-0.00036329986;0.0;-7.809429e-06;1000.0027;  4.0000001E-01;2.2715404;3;-0.57254606;0.0;-0.011422344;0;-0.0046721543;  1.0000056E+04;  0.0000000E+00; -5.2523680E-12;  1.0000000E+04;  0.0000000E+00;  9.9999990E+03;-0.0047990009;0.0;0.00012684654;0.64941239
  2.3999985E-01;  9.9999998E-03; -6.0000002E-02;1413;-0.00036364456;0.0;-5.4767356e-06;1000.0027;  4.0000001E-01;2.2715404;3;-0.57178575;0.0;-0.0079041384;0;-0.0046846368;  1.0000056E+04;  0.0000000E+00; -4.0087044E-12;  1.0000000E+04;  0.0000000E+00;  9.9999990E+03;-0.0047937562;0.0;0.00010911919;0.58799464
  2.3999985E-01;  9.9999998E-03; -4.0000003E-02;1414;-0.00036382949;0.0;-3.4734633e-06;1000.0027;  4.0000001E-01;2.2715404;3;-0.57113761;0.0;-0.0049665049;0;-0.0046925503;  1.0000057E+04;  0.0000000E+00; -8.3058248E-12;  1.0000000E+04;  0.0000000E+00;  9.9999990E+03;-0.0047895131;0.0;9.6962889e-05;0.54612285
  2.3999985E-01;  9.9999998E-03; -2.0000001E-02;1415;-0.00036391901;0.0;-1.6851479e-06;1000.0027;  4.0000001E-01;2.2715404;3;-0.5707134;0.0;-0.0023938704;0;-0.0046969354;  1.0000057E+04;  0.0000000E+00; -4.6262031E-12;  1.0000000E+04;  0.0000000E+00;  1.0000000E+04;-0.0047868248;0.0;8.9889458e-05;0.52183998
  2.5999981E-01;  9.9999998E-03; -1.8000002E-01;1438;-0.00046961111;0.0;-3.7693284e-05;1000.0035;  4.0000001E-01;2.9628785;3;-0.73280311;0.0;-0.057063803;0;-0.0057954169;  1.0000074E+04;  0.0000000E+00; -1.2615760E-06;  1.0000000E+04;  0.0000000E+00;  9.9999951E+03;-0.0062726713;0.0;0.00047725445;2.020402
  2.5999978E-01;  9.9999998E-03; -1.6000001E-01;1439;-0.00047483059;0.0;-2.9761302e-05;1000.0036;  4.0000001E-01;2.9628785;3;-0.73693466;0.0;-0.044546623;0;-0.005910743;  1.0000075E+04;  0.0000000E+00; -1.4910849E-10;  1.0000000E+04;  0.0000000E+00;  9.9999961E+03;-0.0062883105;0.0;0.00037756731;1.6518371
  2.5999978E-01;  9.9999998E-03; -1.4000002E-01;1440;-0.00047782715;0.0;-2.3235008e-05;1000.0037;  4.0000001E-01;3.0616412;3;-0.73796201;0.0;-0.034292392;0;-0.0059884093;  1.0000076E+04;  0.0000000E+00; -2.9690844E-11;  1.0000000E+04;  0.0000000E+00;  9.9999971E+03;-0.0062879315;0.0;0.00029952236;1.3653798
  2.5999978E-01;  9.9999998E-03; -1.2000000E-01;1441;-0.00047944664;0.0;-1.7785129e-05;1000.0037;  4.0000001E-01;3.0616412;3;-0.737239;0.0;-0.025707578;0;-0.0060369875;  1.0000076E+04;  0.0000000E+00;  2.0958100E-11;  1.0000000E+04;  0.0000000E+00;  9.9999980E+03;-0.0062780464;0.0;0.00024105869;1.1527572
  2.5999978E-01;  9.9999998E-03; -1.0000001E-01;1442;-0.00048021422;0.0;-1.3404339e-05;1000.0037;  4.0000001E-01;3.0616412;3;-0.73560905;0.0;-0.018972121;0;-0.0060671708;  1.0000077E+04;  0.0000000E+00;  2.5605022E-11;  1.0000000E+04;  0.0000000E+00;  9.9999980E+03;-0.0062641655;0.0;0.00019699452;0.99418485
  2.5999978E-01;  9.9999998E-03; -8.0000006E-02;1443;-0.00048054237;0.0;-9.7970278e-06;1000.0037;  4.0000001E-01;3.0616412;3;-0.73377919;0.0;-0.013552005;0;-0.0060859951;  1.0000077E+04;  0.0000000E+00;  8.0105939E-12;  1.0000000E+04;  0.0000000E+00;  9.9999980E+03;-0.0062500909;0.0;0.00016409556;0.87677675
  2.5999978E-01;  9.9999998E-03; -6.0000002E-02;1444;-0.00048064435;0.0;-6.8504187e-06;1000.0038;  4.0000001E-01;3.1604037;3;-0.7320984;0.0;-0.0092900982;0;-0.0060976869;  1.0000077E+04;  0.0000000E+00; -1.0071507E-11;  1.0000000E+04;  0.0000000E+00;  9.9999990E+03;-0.0062380782;0.0;0.00014039122;0.7926079
  2.5999978E-01;  9.9999998E-03; -4.0000003E-02;1445;-0.00048065762;0.0;-4.3326477e-06;1000.0038;  4.0000001E-01;3.1604037;3;-0.73079729;0.0;-0.0057850191;0;-0.0061047189;  1.0000077E+04;  0.0000000E+00; -1.2363869E-11;  1.0000000E+04;  0.0000000E+00;  9.9999990E+03;-0.0062292148;0.0;0.00012449578;0.73627168
  2.5999978E-01;  9.9999998E-03; -2.0000001E-02;1446;-0.00048064531;0.0;-2.100571e-06;1000.0038;  4.0000001E-01;3.1604037;3;-0.72998267;0.0;-0.0027754537;0;-0.0061084819;  1.0000077E+04;  0.0000000E+00; -3.4157076E-12;  1.0000000E+04;  0.0000000E+00;  9.9999990E+03;-0.0062238728;0.0;0.00011539071;0.70400214
  2.7999973E-01;  9.9999998E-03; -1.8000002E-01;1469;-0.00062343711;0.0;-4.8962924e-05;1000.0047;  4.0000001E-01;3.851742;3;-0.94361377;0.0;-0.072138503;0;-0.0075457487;  1.0000102E+04;  0.0000000E+00; -2.0907395E-07;  1.0000000E+04;  0.0000000E+00;  9.9999932E+03;-0.0082073091;0.0;0.00066156057;2.8609996
  2.7999973E-01;  9.9999998E-03; -1.6000001E-01;1470;-0.00062848965;0.0;-3.8119353e-05;1000.0048;  4.0000001E-01;3.9505048;3;-0.94572312;0.0;-0.055208176;0;-0.0076876925;  1.0000103E+04;  0.0000000E+00; -1.3452814E-10;  1.0000000E+04;  0.0000000E+00;  9.9999941E+03;-0.0082011297;0.0;0.00051343726;2.2999108
  2.7999970E-01;  9.9999998E-03; -1.4000002E-01;1471;-0.00063093746;0.0;-2.9445535e-05;1000.0049;  4.0000001E-01;4.0492673;3;-0.94439524;0.0;-0.041845679;0;-0.0077792108;  1.0000102E+04;  0.0000000E+00;  6.6105749E-12;  1.0000000E+04;  0.0000000E+00;  9.9999961E+03;-0.0081785228;0.0;0.00039931209;1.8722538
  2.7999970E-01;  9.9999998E-03; -1.2000001E-01;1472;-0.00063186901;0.0;-2.2364322e-05;1000.0049;  4.0000001E-01;4.0492673;3;-0.94130898;0.0;-0.030896332;0;-0.0078322757;  1.0000102E+04;  0.0000000E+00;  3.2807108E-11;  1.0000000E+04;  0.0000000E+00;  9.9999961E+03;-0.0081481999;0.0;0.00031592409;1.5630666
  2.7999970E-01;  9.9999998E-03; -1.0000001E-01;1473;-0.00063196028;0.0;-1.6767246e-05;1000.0049;  4.0000001E-01;4.0492673;3;-0.93753076;0.0;-0.022507165;0;-0.0078620426;  1.0000102E+04;  0.0000000E+00;  6.8713308E-12;  1.0000000E+04;  0.0000000E+00;  9.9999980E+03;-0.0081170434;0.0;0.00025500075;1.3391739
  2.7999970E-01;  9.9999998E-03; -8.0000006E-02;1474;-0.00063171465;0.0;-1.222657e-05;1000.0049;  4.0000001E-01;4.0492673;3;-0.93391031;0.0;-0.015909171;0;-0.0078784619;  1.0000102E+04;  0.0000000E+00;  7.8702661E-12;  1.0000000E+04;  0.0000000E+00;  9.9999980E+03;-0.0080893934;0.0;0.00021093115;1.1778923
  2.7999970E-01;  9.9999998E-03; -6.0000002E-02;1475;-0.00063137652;0.0;-8.5503134e-06;1000.0049;  4.0000001E-01;4.0492673;3;-0.93084711;0.0;-0.010843635;0;-0.0078873821;  1.0000102E+04;  0.0000000E+00; -5.9114879E-12;  1.0000000E+04;  0.0000000E+00;  9.9999980E+03;-0.0080674626;0.0;0.00018008011;1.0649004
  2.7999970E-01;  9.9999998E-03; -4.0000003E-02;1476;-0.00063108956;0.0;-5.4062079e-06;1000.0049;  4.0000001E-01;4.0492673;3;-0.92857873;0.0;-0.0067054196;0;-0.0078921085;  1.0000102E+04;  0.0000000E+00; -1.7337808E-11;  1.0000000E+04;  0.0000000E+00;  9.9999980E+03;-0.0080519887;0.0;0.00015988052;0.99060059
  2.7999970E-01;  9.9999998E-03; -2.0000001E-02;1477;-0.00063090387;0.0;-2.6238658e-06;1000.0049;  4.0000001E-01;4.0492673;3;-0.92719436;0.0;-0.0032090647;0;-0.0078943875;  1.0000102E+04;  0.0000000E+00; -6.3127138E-12;  1.0000000E+04;  0.0000000E+00;  9.9999980E+03;-0.0080428971;0.0;0.00014850996;0.94855762
  2.9999962E-01;  9.9999998E-03; -1.8000002E-01;1500;-0.00082328479;0.0;-6.2878404e-05;1000.0062;  4.0000001E-01;5.1356554;3;-1.2074964;0.0;-0.090157613;0;-0.0097740134;  1.0000135E+04;  0.0000000E+00; -4.0337689E-10;  1.0000000E+04;  0.0000000E+00;  9.9999893E+03;-0.01066957;0.0;0.00089555728;3.974612
  2.9999962E-01;  9.9999998E-03; -1.6000003E-01;1501;-0.00082736596;0.0;-4.8263286e-05;1000.0062;  4.0000001E-01;5.1356554;3;-1.2058883;0.0;-0.067489162;0;-0.0099431528;  1.0000136E+04;  0.0000000E+00; -3.3053901E-10;  1.0000000E+04;  0.0000000E+00;  9.9999922E+03;-0.010627626;0.0;0.00068447256;3.1536326
  2.9999962E-01;  9.9999998E-03; -1.4000002E-01;1502;-0.00082849083;0.0;-3.6895231e-05;1000.0065;  4.0000001E-01;5.3331804;3;-1.2005752;0.0;-0.050201718;0;-0.010046209;  1.0000135E+04;  0.0000000E+00; -3.5110134E-11;  1.0000000E+04;  0.0000000E+00;  9.9999941E+03;-0.010570057;0.0;0.00052384764;2.5374951
  2.9999962E-01;  9.9999998E-03; -1.2000001E-01;1503;-0.00082806207;0.0;-2.7894823e-05;1000.0065;  4.0000001E-01;5.3331804;3;-1.1937524;0.0;-0.03666357;0;-0.010099711;  1.0000136E+04;  0.0000000E+00;  1.1307690E-11;  1.0000000E+04;  0.0000000E+00;  9.9999961E+03;-0.010508689;0.0;0.00040897791;2.1018372
  2.9999962E-01;  9.9999998E-03; -1.0000001E-01;1504;-0.00082693546;0.0;-2.0861116e-05;1000.0066;  4.0000001E-01;5.4319429;3;-1.1866947;0.0;-0.026436109;0;-0.010124705;  1.0000136E+04;  0.0000000E+00;  2.2912831E-11;  1.0000000E+04;  0.0000000E+00;  9.9999961E+03;-0.010452056;0.0;0.00032735112;1.7940693
  2.9999962E-01;  9.9999998E-03; -8.0000006E-02;1505;-0.00082570658;0.0;-1.5232419e-05;1000.0066;  4.0000001E-01;5.4319429;3;-1.180407;0.0;-0.018564418;0;-0.01013488;  1.0000136E+04;  0.0000000E+00;  1.7238178E-11;  1.0000000E+04;  0.0000000E+00;  9.9999971E+03;-0.010404931;0.0;0.00027005075;1.5775079
  2.9999962E-01;  9.9999998E-03; -6.0000006E-02;1506;-0.00082464237;0.0;-1.0678951e-05;1000.0066;  4.0000001E-01;5.4319429;3;-1.1753261;0.0;-0.012603213;0;-0.010138029;  1.0000135E+04;  0.0000000E+00; -3.9811396E-12;  1.0000000E+04;  0.0000000E+00;  9.9999980E+03;-0.010369117;0.0;0.00023108772;1.4287978
  2.9999962E-01;  9.9999998E-03; -4.0000003E-02;1507;-0.00082387018;0.0;-6.7780948e-06;1000.0066;  4.0000001E-01;5.4319429;3;-1.171667;0.0;-0.0077890405;0;-0.010138356;  1.0000134E+04;  0.0000000E+00; -2.0360085E-11;  1.0000000E+04;  0.0000000E+00;  9.9999980E+03;-0.010344573;0.0;0.00020621701;1.3325239
  2.9999962E-01;  9.9999998E-03; -2.0000001E-02;1508;-0.00082340837;0.0;-3.2997825e-06;1000.0066;  4.0000001E-01;5.4319429;3;-1.169471;0.0;-0.0037299921;0;-0.010137949;  1.0000134E+04;  0.0000000E+00; -7.4372565E-12;  1.0000000E+04;  0.0000000E+00;  9.9999980E+03;-0.010330434;0.0;0.00019248527;1.2786344
  3.1999949E-01;  9.9999998E-03; -1.8000004E-01;1531;-0.0010818585;0.0;-7.9537407e-05;1000.0083;  4.0000001E-01;6.9133821;3;-1.5357615;0.0;-0.11017174;0;-0.012596102;  1.0000181E+04;  0.0000000E+00; -5.9992494E-10;  1.0000000E+04;  0.0000000E+00;  9.9999873E+03;-0.013782508;0.0;0.0011864051;5.4282246
  3.1999949E-01;  9.9999998E-03; -1.6000003E-01;1532;-0.0010837388;0.0;-6.0494433e-05;1000.0084;  4.0000001E-01;6.9133821;3;-1.5280619;0.0;-0.081346348;0;-0.012789156;  1.0000180E+04;  0.0000000E+00; -4.0960474E-10;  1.0000000E+04;  0.0000000E+00;  9.9999893E+03;-0.0136845;0.0;0.00089534407;4.2643552
  3.1999949E-01;  9.9999998E-03; -1.4000002E-01;1533;-0.0010824008;0.0;-4.5837009e-05;1000.0085;  4.0000001E-01;7.0121446;3;-1.5165322;0.0;-0.05949242;0;-0.012897435;  1.0000179E+04;  0.0000000E+00; -2.7059828E-11;  1.0000000E+04;  0.0000000E+00;  9.9999922E+03;-0.013574286;0.0;0.00067685178;3.4045317
  3.1999949E-01;  9.9999998E-03; -1.2000002E-01;1534;-0.0010796294;0.0;-3.46056e-05;1000.0085;  4.0000001E-01;7.1109076;3;-1.5040137;0.0;-0.042972811;0;-0.012943808;  1.0000178E+04;  0.0000000E+00; -2.3410766E-11;  1.0000000E+04;  0.0000000E+00;  9.9999941E+03;-0.013467665;0.0;0.00052385678;2.8087645
  3.1999949E-01;  9.9999998E-03; -1.0000002E-01;1535;-0.0010765279;0.0;-2.5931236e-05;1000.0086;  4.0000001E-01;7.1109076;3;-1.4921544;0.0;-0.030885011;0;-0.012957001;  1.0000178E+04;  0.0000000E+00;  1.4973819E-11;  1.0000000E+04;  0.0000000E+00;  9.9999961E+03;-0.013374964;0.0;0.00041796238;2.3964612
  3.1999949E-01;  9.9999998E-03; -8.0000013E-02;1536;-0.0010737516;0.0;-1.9045896e-05;1000.0086;  4.0000001E-01;7.1109076;3;-1.4820248;0.0;-0.021697221;0;-0.0129552;  1.0000177E+04;  0.0000000E+00; -1.2611086E-11;  1.0000000E+04;  0.0000000E+00;  9.9999961E+03;-0.013300951;0.0;0.00034575103;2.1116319
  3.1999949E-01;  9.9999998E-03; -6.0000006E-02;1537;-0.0010715738;0.0;-1.3438736e-05;1000.0086;  4.0000001E-01;7.1109076;3;-1.4740918;0.0;-0.014758897;0;-0.01294836;  1.0000178E+04;  0.0000000E+00; -1.5610891E-11;  1.0000000E+04;  0.0000000E+00;  9.9999961E+03;-0.013246427;0.0;0.0002980667;1.9189727
  3.1999949E-01;  9.9999998E-03; -4.0000003E-02;1538;-0.0010700685;0.0;-8.5922047e-06;1000.0086;  4.0000001E-01;7.1109076;3;-1.4684968;0.0;-0.0091823479;0;-0.012941493;  1.0000178E+04;  0.0000000E+00; -1.2268806E-11;  1.0000000E+04;  0.0000000E+00;  9.9999971E+03;-0.013209926;0.0;0.00026843345;1.7956505
  3.1999949E-01;  9.9999998E-03; -2.0000001E-02;1539;-0.0010691958;0.0;-4.2007164e-06;1000.0086;  4.0000001E-01;7.1109076;3;-1.4651879;0.0;-0.0044131582;0;-0.012936806;  1.0000178E+04;  0.0000000E+00; -5.1282581E-12;  1.0000000E+04;  0.0000000E+00;  9.9999971E+03;-0.013189222;0.0;0.00025241505;1.7271457
  3.3999932E-01;  9.9999998E-03; -1.8000005E-01;1562;-0.0014148109;0.0;-9.9447243e-05;1000.011;  4.0000001E-01;9.0861588;3;-1.9418714;0.0;-0.13251351;0;-0.016150052;  1.0000237E+04;  0.0000000E+00; -7.7013868E-10;  1.0000000E+04;  0.0000000E+00;  9.9999824E+03;-0.017691918;0.0;0.0015418667;7.3062716
  3.3999929E-01;  9.9999998E-03; -1.6000004E-01;1563;-0.001412673;0.0;-7.5258875e-05;1000.0112;  4.0000001E-01;9.2836838;3;-1.9246291;0.0;-0.096638985;0;-0.016357288;  1.0000237E+04;  0.0000000E+00; -2.4382121E-10;  1.0000000E+04;  0.0000000E+00;  9.9999873E+03;-0.017509073;0.0;0.0011517856;5.7011714
  3.3999929E-01;  9.9999998E-03; -1.4000003E-01;1564;-0.001407292;0.0;-5.676796e-05;1000.0113;  4.0000001E-01;9.3824463;3;-1.9039174;0.0;-0.069806628;0;-0.016458699;  1.0000235E+04;  0.0000000E+00; -3.8707305E-11;  1.0000000E+04;  0.0000000E+00;  9.9999893E+03;-0.017322415;0.0;0.00086371659;4.5354896
  3.3999929E-01;  9.9999998E-03; -1.2000002E-01;1565;-0.0014008464;0.0;-4.30363e-05;1000.0114;  4.0000001E-01;9.3824463;3;-1.8831496;0.0;-0.050266176;0;-0.016485712;  1.0000234E+04;  0.0000000E+00;  4.5790764E-11;  1.0000000E+04;  0.0000000E+00;  9.9999922E+03;-0.017152198;0.0;0.00066648645;3.7429621
  3.3999929E-01;  9.9999998E-03; -1.0000002E-01;1566;-0.0013947713;0.0;-3.2461307e-05;1000.0114;  4.0000001E-01;9.4812088;3;-1.8645004;0.0;-0.036257129;0;-0.0164767;  1.0000233E+04;  0.0000000E+00;  1.9889437E-11;  1.0000000E+04;  0.0000000E+00;  9.9999932E+03;-0.017010158;0.0;0.0005334579;3.2030318
  3.3999929E-01;  9.9999998E-03; -8.0000013E-02;1567;-0.0013897283;0.0;-2.4107319e-05;1000.0115;  4.0000001E-01;9.4812088;3;-1.8490438;0.0;-0.025743457;0;-0.016455045;  1.0000233E+04;  0.0000000E+00; -1.5916837E-11;  1.0000000E+04;  0.0000000E+00;  9.9999951E+03;-0.016900264;0.0;0.00044521797;2.8341179
  3.3999929E-01;  9.9999998E-03; -6.0000010E-02;1568;-0.0013859551;0.0;-1.7187722e-05;1000.0114;  4.0000001E-01;9.4812088;3;-1.8372313;0.0;-0.017722581;0;-0.016432738;  1.0000231E+04;  0.0000000E+00; -1.8364936E-11;  1.0000000E+04;  0.0000000E+00;  9.9999961E+03;-0.016821317;0.0;0.0003885802;2.5863211
  3.3999929E-01;  9.9999998E-03; -4.0000007E-02;1569;-0.0013834148;0.0;-1.1099689e-05;1000.0114;  4.0000001E-01;9.4812088;3;-1.8290421;0.0;-0.01119386;0;-0.016415196;  1.0000231E+04;  0.0000000E+00; -2.6452755E-11;  1.0000000E+04;  0.0000000E+00;  9.9999961E+03;-0.016769512;0.0;0.00035431521;2.4283302
  3.3999929E-01;  9.9999998E-03; -2.0000003E-02;1570;-0.0013819678;0.0;-5.4587485e-06;1000.0114;  4.0000001E-01;9.4812088;3;-1.8242552;0.0;-0.0054289121;0;-0.016404372;  1.0000231E+04;  0.0000000E+00; -2.2296571E-11;  1.0000000E+04;  0.0000000E+00;  9.9999961E+03;-0.016740566;0.0;0.00033619508;2.3407412
  3.5999906E-01;  9.9999998E-03; -1.8000007E-01;1593;-0.0018405875;0.0;-0.00012348223;1000.0144;  4.0000001E-01;11.950273;3;-2.4409533;0.0;-0.15711629;0;-0.02059599;  1.0000313E+04;  0.0000000E+00; -9.1267577E-10;  1.0000000E+04;  0.0000000E+00;  9.9999756E+03;-0.022567015;0.0;0.0019710253;9.721509
  3.5999906E-01;  9.9999998E-03; -1.6000006E-01;1594;-0.0018317903;0.0;-9.3403331e-05;1000.0145;  4.0000001E-01;12.049035;3;-2.409339;0.0;-0.11361551;0;-0.020798381;  1.0000312E+04;  0.0000000E+00; -2.9279990E-10;  1.0000000E+04;  0.0000000E+00;  9.9999814E+03;-0.022260504;0.0;0.0014621225;7.5639596
  3.5999906E-01;  9.9999998E-03; -1.4000005E-01;1595;-0.0018202338;0.0;-7.0698494e-05;1000.0147;  4.0000001E-01;12.147798;3;-2.3757091;0.0;-0.081857584;0;-0.020873139;  1.0000309E+04;  0.0000000E+00;  1.4109999E-10;  1.0000000E+04;  0.0000000E+00;  9.9999863E+03;-0.021966765;0.0;0.0010936268;6.0252409
  3.5999906E-01;  9.9999998E-03; -1.2000003E-01;1596;-0.0018083866;0.0;-5.4171585e-05;1000.0148;  4.0000001E-01;12.24656;3;-2.3434196;0.0;-0.059486054;0;-0.020862726;  1.0000307E+04;  0.0000000E+00;  1.5445184E-10;  1.0000000E+04;  0.0000000E+00;  9.9999893E+03;-0.021710141;0.0;0.00084741489;4.996387
  3.5999906E-01;  9.9999998E-03; -1.0000002E-01;1597;-0.0017980952;0.0;-4.1358457e-05;1000.0148;  4.0000001E-01;12.24656;3;-2.3155313;0.0;-0.043452889;0;-0.020817325;  1.0000305E+04;  0.0000000E+00;  9.1348255E-11;  1.0000000E+04;  0.0000000E+00;  9.9999912E+03;-0.021502733;0.0;0.0006854079;4.3012686
  3.5999906E-01;  9.9999998E-03; -8.0000021E-02;1598;-0.0017899305;0.0;-3.1212436e-05;1000.0148;  4.0000001E-01;12.24656;3;-2.2930052;0.0;-0.031637937;0;-0.020765835;  1.0000304E+04;  0.0000000E+00; -3.4836953E-11;  1.0000000E+04;  0.0000000E+00;  9.9999932E+03;-0.02134634;0.0;0.00058050448;3.8262491
  3.5999906E-01;  9.9999998E-03; -6.0000014E-02;1599;-0.0017840123;0.0;-2.2549995e-05;1000.0149;  4.0000001E-01;12.345323;3;-2.2761471;0.0;-0.022291323;0;-0.020721633;  1.0000303E+04;  0.0000000E+00; -4.7455217E-11;  1.0000000E+04;  0.0000000E+00;  9.9999932E+03;-0.02123639;0.0;0.00051475607;3.5054688
  3.5999906E-01;  9.9999998E-03; -4.0000007E-02;1600;-0.0017801048;0.0;-1.4730154e-05;1000.0149;  4.0000001E-01;12.345323;3;-2.2646296;0.0;-0.0143995;0;-0.020689661;  1.0000303E+04;  0.0000000E+00; -5.2342804E-11;  1.0000000E+04;  0.0000000E+00;  9.9999932E+03;-0.021165542;0.0;0.00047588229;3.2995415
  3.5999906E-01;  9.9999998E-03; -2.0000003E-02;1601;-0.0017779117;0.0;-7.2926837e-06;1000.0149;  4.0000001E-01;12.345323;3;-2.2579725;0.0;-0.0070772478;0;-0.020670766;  1.0000303E+04;  0.0000000E+00; -1.1251421E-11;  1.0000000E+04;  0.0000000E+00;  9.9999941E+03;-0.021126486;0.0;0.00045571986;3.1847022
  3.7999874E-01;  9.9999998E-03; -1.8000008E-01;1624;-0.0023799401;0.0;-0.00015346109;1000.0189;  4.0000001E-01;15.604486;3;-3.0492094;0.0;-0.18498343;0;-0.026114212;  1.0000407E+04;  0.0000000E+00; -1.3107465E-09;  1.0000000E+04;  0.0000000E+00;  9.9999688E+03;-0.0286003;0.0;0.0024860878;12.836857
  3.7999874E-01;  9.9999998E-03; -1.6000007E-01;1625;-0.002360845;0.0;-0.00011682246;1000.019;  4.0000001E-01;15.802011;3;-2.9972453;0.0;-0.1334991;0;-0.026280148;  1.0000404E+04;  0.0000000E+00; -2.9682379E-10;  1.0000000E+04;  0.0000000E+00;  9.9999775E+03;-0.028120529;0.0;0.0018403807;10.007038
  3.7999874E-01;  9.9999998E-03; -1.4000005E-01;1626;-0.0023401007;0.0;-8.9593646e-05;1000.0192;  4.0000001E-01;15.900773;3;-2.9453428;0.0;-0.097442567;0;-0.026298866;  1.0000401E+04;  0.0000000E+00;  2.3668653E-10;  1.0000000E+04;  0.0000000E+00;  9.9999814E+03;-0.027682181;0.0;0.001383315;8.0244598
  3.7999874E-01;  9.9999998E-03; -1.2000004E-01;1627;-0.0023206878;0.0;-6.9757072e-05;1000.0192;  4.0000001E-01;15.900773;3;-2.8975375;0.0;-0.07237111;0;-0.026226517;  1.0000398E+04;  0.0000000E+00;  2.7876601E-10;  1.0000000E+04;  0.0000000E+00;  9.9999863E+03;-0.027312066;0.0;0.0010855497;6.7140985
  3.7999874E-01;  9.9999998E-03; -1.0000003E-01;1628;-0.0023046564;0.0;-5.4273689e-05;1000.0192;  4.0000001E-01;15.900773;3;-2.857444;0.0;-0.05449862;0;-0.026126916;  1.0000396E+04;  0.0000000E+00;  7.2432865E-11;  1.0000000E+04;  0.0000000E+00;  9.9999883E+03;-0.027020568;0.0;0.00089365215;5.8259048
  3.7999877E-01;  9.9999998E-03; -8.0000021E-02;1629;-0.0022923977;0.0;-4.1712283e-05;1000.0192;  4.0000001E-01;15.900773;3;-2.8258467;0.0;-0.041146979;0;-0.026034115;  1.0000395E+04;  0.0000000E+00; -1.0706586E-11;  1.0000000E+04;  0.0000000E+00;  9.9999902E+03;-0.026805386;0.0;0.00077127165;5.2093668
  3.7999877E-01;  9.9999998E-03; -6.0000017E-02;1630;-0.0022837496;0.0;-3.0560055e-05;1000.0193;  4.0000001E-01;15.999536;3;-2.8026652;0.0;-0.029891409;0;-0.02596149;  1.0000394E+04;  0.0000000E+00; -7.2934561E-11;  1.0000000E+04;  0.0000000E+00;  9.9999902E+03;-0.026656944;0.0;0.00069545442;4.7842073
  3.7999877E-01;  9.9999998E-03; -4.0000010E-02;1631;-0.0022781468;0.0;-2.0178728e-05;1000.0193;  4.0000001E-01;15.999536;3;-2.7870555;0.0;-0.019789506;0;-0.025911694;  1.0000392E+04;  0.0000000E+00; -6.0290120E-11;  1.0000000E+04;  0.0000000E+00;  9.9999922E+03;-0.026562784;0.0;0.00065108872;4.5059223
  3.7999877E-01;  9.9999998E-03; -2.0000005E-02;1632;-0.0022750427;0.0;-1.0053564e-05;1000.0192;  4.0000001E-01;15.900773;3;-2.7781241;0.0;-0.009870993;0;-0.025883278;  1.0000392E+04;  0.0000000E+00; -3.2927550E-11;  1.0000000E+04;  0.0000000E+00;  9.9999932E+03;-0.026511561;0.0;0.00062828348;4.3485403
  3.9999834E-01;  9.9999998E-03; -1.8000011E-01;1655;-0.00305598;0.0;-0.000192689;1000.0245;  4.0000001E-01;20.345083;3;-3.7830915;0.0;-0.21866676;0;-0.032897875;  1.0000530E+04;  0.0000000E+00; -9.1375646E-10;  1.0000000E+04;  0.0000000E+00;  9.9999590E+03;-0.036005065;0.0;0.0031071885;16.908472
  3.9999834E-01;  9.9999998E-03; -1.6000009E-01;1656;-0.0030213969;0.0;-0.00014913596;1000.0247;  4.0000001E-01;20.443846;3;-3.7025881;0.0;-0.16003175;0;-0.03298017;  1.0000523E+04;  0.0000000E+00; -1.9597718E-10;  1.0000000E+04;  0.0000000E+00;  9.9999697E+03;-0.035292391;0.0;0.0023122213;13.279422
  3.9999837E-01;  9.9999998E-03; -1.4000008E-01;1657;-0.0029874824;0.0;-0.00011689692;1000.0248;  4.0000001E-01;20.542608;3;-3.6258249;0.0;-0.12020697;0;-0.032903071;  1.0000521E+04;  0.0000000E+00;  7.2732109E-10;  1.0000000E+04;  0.0000000E+00;  9.9999775E+03;-0.034666196;0.0;0.0017631234;10.77439
  3.9999837E-01;  9.9999998E-03; -1.2000006E-01;1658;-0.0029577289;0.0;-9.291181e-05;1000.0248;  4.0000001E-01;20.542608;3;-3.5576477;0.0;-0.092514224;0;-0.032738335;  1.0000516E+04;  0.0000000E+00;  5.4937654E-10;  1.0000000E+04;  0.0000000E+00;  9.9999814E+03;-0.034151919;0.0;0.0014135819;9.1218863
  3.9999837E-01;  9.9999998E-03; -1.0000005E-01;1659;-0.0029341222;0.0;-7.3851021e-05;1000.0248;  4.0000001E-01;20.542608;3;-3.5019188;0.0;-0.0727892;0;-0.032564431;  1.0000512E+04;  0.0000000E+00;  2.8326935E-10;  1.0000000E+04;  0.0000000E+00;  9.9999834E+03;-0.033755135;0.0;0.0011907051;7.9794555
  3.9999837E-01;  9.9999998E-03; -8.0000035E-02;1660;-0.002916676;0.0;-5.7685604e-05;1000.0248;  4.0000001E-01;20.542608;3;-3.4590514;0.0;-0.057038061;0;-0.032419037;  1.0000511E+04;  0.0000000E+00;  5.6732584E-11;  1.0000000E+04;  0.0000000E+00;  9.9999854E+03;-0.033467192;0.0;0.0010481562;7.1595063
  3.9999837E-01;  9.9999998E-03; -6.0000025E-02;1661;-0.0029046834;0.0;-4.280037e-05;1000.0248;  4.0000001E-01;20.542608;3;-3.4281828;0.0;-0.042770725;0;-0.032312725;  1.0000509E+04;  0.0000000E+00;  2.9302786E-11;  1.0000000E+04;  0.0000000E+00;  9.9999873E+03;-0.033271495;0.0;0.00095876976;6.5737672
  3.9999837E-01;  9.9999998E-03; -4.0000018E-02;1662;-0.0028970724;0.0;-2.8486784e-05;1000.0248;  4.0000001E-01;20.542608;3;-3.4077134;0.0;-0.028894875;0;-0.032243446;  1.0000509E+04;  0.0000000E+00; -7.8217231E-11;  1.0000000E+04;  0.0000000E+00;  9.9999893E+03;-0.033149112;0.0;0.00090566679;6.1791186
  3.9999837E-01;  9.9999998E-03; -2.0000009E-02;1663;-0.0028929173;0.0;-1.4264168e-05;1000.0248;  4.0000001E-01;20.542608;3;-3.3961241;0.0;-0.014614008;0;-0.032205299;  1.0000508E+04;  0.0000000E+00; -5.9059500E-11;  1.0000000E+04;  0.0000000E+00;  9.9999893E+03;-0.033083305;0.0;0.00087800482;5.9515395
  4.1999781E-01;  9.9999998E-03; -1.8000014E-01;1686;-0.0038958201;0.0;-0.00024739373;1000.0317;  4.0000001E-01;26.270828;3;-4.6591821;0.0;-0.26404887;0;-0.041133083;  1.0000686E+04;  0.0000000E+00; -6.0067890E-10;  1.0000000E+04;  0.0000000E+00;  9.9999482E+03;-0.045005575;0.0;0.0038724928;22.361988
  4.1999784E-01;  9.9999998E-03; -1.6000012E-01;1687;-0.0038387321;0.0;-0.0001962712;1000.0318;  4.0000001E-01;26.369591;3;-4.5396271;0.0;-0.1992839;0;-0.04106804;  1.0000676E+04;  0.0000000E+00;  9.7848152E-10;  1.0000000E+04;  0.0000000E+00;  9.9999600E+03;-0.043992929;0.0;0.0029248884;17.784916
  4.1999784E-01;  9.9999998E-03; -1.4000009E-01;1688;-0.0037863236;0.0;-0.00015826465;1000.0319;  4.0000001E-01;26.468353;3;-4.4296303;0.0;-0.1568355;0;-0.040846363;  1.0000669E+04;  0.0000000E+00;  1.1792011E-09;  1.0000000E+04;  0.0000000E+00;  9.9999678E+03;-0.043132175;0.0;0.0022858107;14.6523
  4.1999784E-01;  9.9999998E-03; -1.2000008E-01;1689;-0.0037426418;0.0;-0.00012856143;1000.0319;  4.0000001E-01;26.369591;3;-4.3352399;0.0;-0.12626085;0;-0.040555891;  1.0000664E+04;  0.0000000E+00;  1.2477166E-09;  1.0000000E+04;  0.0000000E+00;  9.9999736E+03;-0.042440902;0.0;0.0018850105;12.558861
  4.1999784E-01;  9.9999998E-03; -1.0000006E-01;1690;-0.0037092015;0.0;-0.00010402138;1000.0318;  4.0000001E-01;26.369591;3;-4.2600255;0.0;-0.10368233;0;-0.040288769;  1.0000660E+04;  0.0000000E+00;  4.1592338E-10;  1.0000000E+04;  0.0000000E+00;  9.9999785E+03;-0.041915711;0.0;0.0016269431;11.054168
  4.1999787E-01;  9.9999998E-03; -8.0000050E-02;1691;-0.0036852548;0.0;-8.223507e-05;1000.0319;  4.0000001E-01;26.369591;3;-4.203486;0.0;-0.083942436;0;-0.04008276;  1.0000657E+04;  0.0000000E+00; -4.3446748E-12;  1.0000000E+04;  0.0000000E+00;  9.9999795E+03;-0.041539144;0.0;0.0014563825;9.9214468
  4.1999787E-01;  9.9999998E-03; -6.0000036E-02;1692;-0.0036692489;0.0;-6.1499821e-05;1000.0318;  4.0000001E-01;26.369591;3;-4.16363;0.0;-0.064224251;0;-0.039941613;  1.0000654E+04;  0.0000000E+00;  7.6856708E-11;  1.0000000E+04;  0.0000000E+00;  9.9999824E+03;-0.041286029;0.0;0.0013444169;9.0775776
  4.1999787E-01;  9.9999998E-03; -4.0000021E-02;1693;-0.0036593294;0.0;-4.1097028e-05;1000.0317;  4.0000001E-01;26.270828;3;-4.1375966;0.0;-0.043906298;0;-0.039854746;  1.0000652E+04;  0.0000000E+00;  2.6264678E-11;  1.0000000E+04;  0.0000000E+00;  9.9999824E+03;-0.041129448;0.0;0.0012747012;8.4912882
  4.1999787E-01;  9.9999998E-03; -2.0000011E-02;1694;-0.0036540111;0.0;-2.0603893e-05;1000.0317;  4.0000001E-01;26.270828;3;-4.1230278;0.0;-0.022323392;0;-0.039809071;  1.0000651E+04;  0.0000000E+00; -2.1335510E-11;  1.0000000E+04;  0.0000000E+00;  9.9999834E+03;-0.04104602;0.0;0.0012369499;8.146575
  4.3999714E-01;  9.9999998E-03; -1.8000020E-01;1717;-0.0049338588;0.0;-0.00032840698;1000.0404;  4.0000001E-01;33.48048;3;-5.6948996;0.0;-0.3323341;0;-0.050950509;  1.0000880E+04;  0.0000000E+00;  1.4147231E-09;  1.0000000E+04;  0.0000000E+00;  9.9999316E+03;-0.055805739;0.0;0.0048552291;29.910156
  4.3999717E-01;  9.9999998E-03; -1.6000016E-01;1718;-0.0048452741;0.0;-0.00026846473;1000.0406;  4.0000001E-01;33.579243;3;-5.5231075;0.0;-0.26324147;0;-0.050661467;  1.0000866E+04;  0.0000000E+00;  3.5840639E-09;  1.0000000E+04;  0.0000000E+00;  9.9999463E+03;-0.054422386;0.0;0.0037609206;24.157785
  4.3999717E-01;  9.9999998E-03; -1.4000013E-01;1719;-0.0047677271;0.0;-0.00022236793;1000.0404;  4.0000001E-01;33.48048;3;-5.3699126;0.0;-0.21837762;0;-0.050242573;  1.0000854E+04;  0.0000000E+00;  3.8433705E-09;  1.0000000E+04;  0.0000000E+00;  9.9999561E+03;-0.053279653;0.0;0.0030370816;20.217955
  4.3999720E-01;  9.9999998E-03; -1.2000011E-01;1720;-0.0047055976;0.0;-0.00018380229;1000.0405;  4.0000001E-01;33.48048;3;-5.2426119;0.0;-0.18323661;0;-0.049796198;  1.0000849E+04;  0.0000000E+00;  2.4463656E-09;  1.0000000E+04;  0.0000000E+00;  9.9999629E+03;-0.052377962;0.0;0.002581764;17.505281
  4.3999720E-01;  9.9999998E-03; -1.0000009E-01;1721;-0.0046594767;0.0;-0.00015026116;1000.0404;  4.0000001E-01;33.48048;3;-5.1436834;0.0;-0.15501657;0;-0.049424309;  1.0000842E+04;  0.0000000E+00;  1.1917657E-09;  1.0000000E+04;  0.0000000E+00;  9.9999678E+03;-0.051699974;0.0;0.0022756634;15.447972
  4.3999723E-01;  9.9999998E-03; -8.0000065E-02;1722;-0.0046274113;0.0;-0.00011934378;1000.0405;  4.0000001E-01;33.579243;3;-5.0710416;0.0;-0.12767819;0;-0.049158398;  1.0000837E+04;  0.0000000E+00;  5.5518445E-10;  1.0000000E+04;  0.0000000E+00;  9.9999727E+03;-0.051217236;0.0;0.002058838;13.816951
  4.3999723E-01;  9.9999998E-03; -6.0000051E-02;1723;-0.0046065408;0.0;-8.9580448e-05;1000.0405;  4.0000001E-01;33.48048;3;-5.0207977;0.0;-0.099008389;0;-0.048989438;  1.0000835E+04;  0.0000000E+00;  1.1289738E-10;  1.0000000E+04;  0.0000000E+00;  9.9999766E+03;-0.050894871;0.0;0.0019054344;12.554482
  4.3999723E-01;  9.9999998E-03; -4.0000033E-02;1724;-0.0045939754;0.0;-5.9910766e-05;1000.0405;  4.0000001E-01;33.48048;3;-4.9886446;0.0;-0.067859873;0;-0.048893385;  1.0000832E+04;  0.0000000E+00; -6.4945649E-12;  1.0000000E+04;  0.0000000E+00;  9.9999766E+03;-0.05069679;0.0;0.0018034073;11.655243
  4.3999723E-01;  9.9999998E-03; -2.0000016E-02;1725;-0.004587383;0.0;-3.0039037e-05;1000.0404;  4.0000001E-01;33.48048;3;-4.9708476;0.0;-0.034561038;0;-0.04884655;  1.0000832E+04;  0.0000000E+00; -9.2490064E-11;  1.0000000E+04;  0.0000000E+00;  9.9999785E+03;-0.050591968;0.0;0.0017454163;11.118746
  4.5999625E-01;  9.9999998E-03; -1.8000029E-01;1748;-0.0062149391;0.0;-0.00045305945;1000.0517;  4.0000027E-01;42.862888;3;-6.9089766;0.0;-0.4418672;0;-0.062324475;  1.0001113E+04;  0.0000000E+00;  1.3659936E-08;  1.0000000E+04;  0.0000000E+00;  9.9999063E+03;-0.068512686;0.0;0.0061882106;40.71722
  4.5999628E-01;  9.9999998E-03; -1.6000023E-01;1749;-0.0060845469;0.0;-0.00038143038;1000.0516;  4.0000024E-01;42.764126;3;-6.6696763;0.0;-0.37072381;0;-0.061733115;  1.0001096E+04;  0.0000000E+00;  1.4513842E-08;  1.0000000E+04;  0.0000000E+00;  9.9999238E+03;-0.066687159;0.0;0.0049540424;33.343338
  4.5999631E-01;  9.9999998E-03; -1.4000019E-01;1750;-0.0059742234;0.0;-0.00032180152;1000.0515;  4.0000027E-01;42.665363;3;-6.4624081;0.0;-0.32149932;0;-0.061070994;  1.0001080E+04;  0.0000000E+00;  1.1046161E-08;  1.0000000E+04;  0.0000000E+00;  9.9999375E+03;-0.065216027;0.0;0.0041450332;28.243603
  4.5999634E-01;  9.9999998E-03; -1.2000016E-01;1751;-0.0058882497;0.0;-0.00026842393;1000.0514;  4.0000027E-01;42.566601;3;-6.2949715;0.0;-0.27825832;0;-0.060451057;  1.0001072E+04;  0.0000000E+00;  6.0019372E-09;  1.0000000E+04;  0.0000000E+00;  9.9999473E+03;-0.06407053;0.0;0.003619473;24.588335
  4.5999637E-01;  9.9999998E-03; -1.0000013E-01;1752;-0.0058259047;0.0;-0.00021989235;1000.0515;  4.0000018E-01;42.665363;3;-6.1680012;0.0;-0.23787051;0;-0.05997828;  1.0001063E+04;  0.0000000E+00;  2.7434042E-09;  1.0000000E+04;  0.0000000E+00;  9.9999541E+03;-0.063214242;0.0;0.0032359606;21.661398
  4.5999637E-01;  9.9999998E-03; -8.0000095E-02;1753;-0.0057836594;0.0;-0.00017424028;1000.0513;  4.0000021E-01;42.566601;3;-6.0768027;0.0;-0.19651549;0;-0.059668973;  1.0001058E+04;  0.0000000E+00;  9.7176744E-10;  1.0000000E+04;  0.0000000E+00;  9.9999600E+03;-0.062606275;0.0;0.0029373027;19.238047
  4.5999637E-01;  9.9999998E-03; -6.0000069E-02;1754;-0.0057568979;0.0;-0.00013026356;1000.0515;  4.0000018E-01;42.665363;3;-6.0150018;0.0;-0.15197311;0;-0.059492894;  1.0001054E+04;  0.0000000E+00;  3.8945274E-11;  1.0000000E+04;  0.0000000E+00;  9.9999639E+03;-0.062201187;0.0;0.0027082919;17.310196
  4.5999637E-01;  9.9999998E-03; -4.0000048E-02;1755;-0.0057412153;0.0;-8.6869899e-05;1000.0515;  4.0000024E-01;42.665363;3;-5.9761128;0.0;-0.10375755;0;-0.059406575;  1.0001052E+04;  0.0000000E+00;  1.0938807E-10;  1.0000000E+04;  0.0000000E+00;  9.9999678E+03;-0.061953075;0.0;0.0025465006;15.914441
  4.5999640E-01;  9.9999998E-03; -2.0000022E-02;1756;-0.0057331864;0.0;-4.3487202e-05;1000.0515;  4.0000024E-01;42.665363;3;-5.9549446;0.0;-0.052514996;0;-0.059371464;  1.0001050E+04;  0.0000000E+00; -4.5392436E-11;  1.0000000E+04;  0.0000000E+00;  9.9999697E+03;-0.061822236;0.0;0.0024507702;15.07419
  4.7999510E-01;  9.9999998E-03; -1.8000041E-01;1779;-0.0077945557;0.0;-0.00064921589;1000.0648;  4.0000075E-01;53.726715;3;-8.3215151;0.0;-0.62539458;0;-0.074899137;  1.0001395E+04;  0.0000000E+00;  5.1235581E-08;  1.0000000E+04;  0.0000000E+00;  9.9998701E+03;-0.082995892;0.0;0.0080967527;56.63789
  4.7999516E-01;  9.9999998E-03; -1.6000035E-01;1780;-0.0076118419;0.0;-0.00055825448;1000.0649;  4.0000075E-01;53.726715;3;-7.9990811;0.0;-0.55230838;0;-0.073950417;  1.0001369E+04;  0.0000000E+00;  4.3044881E-08;  1.0000000E+04;  0.0000000E+00;  9.9998975E+03;-0.080655679;0.0;0.0067052613;46.681019
  4.7999522E-01;  9.9999998E-03; -1.4000028E-01;1781;-0.0074606575;0.0;-0.00047378679;1000.0648;  4.0000075E-01;53.627953;3;-7.7268519;0.0;-0.48980215;0;-0.073023163;  1.0001351E+04;  0.0000000E+00;  3.1890959E-08;  1.0000000E+04;  0.0000000E+00;  9.9999131E+03;-0.07880874;0.0;0.0057855751;39.714191
  4.7999525E-01;  9.9999998E-03; -1.2000023E-01;1782;-0.0073447959;0.0;-0.00039445798;1000.0646;  4.0000066E-01;53.52919;3;-7.5121489;0.0;-0.42838973;0;-0.072237022;  1.0001336E+04;  0.0000000E+00;  1.7302320E-08;  1.0000000E+04;  0.0000000E+00;  9.9999258E+03;-0.077384651;0.0;0.0051476257;34.550686
  4.7999528E-01;  9.9999998E-03; -1.0000018E-01;1783;-0.0072620925;0.0;-0.00032101606;1000.0647;  4.0000072E-01;53.627953;3;-7.3526316;0.0;-0.36527002;0;-0.071692146;  1.0001326E+04;  0.0000000E+00;  7.1881865E-09;  1.0000000E+04;  0.0000000E+00;  9.9999346E+03;-0.076322764;0.0;0.0046306206;30.260601
  4.7999531E-01;  9.9999998E-03; -8.0000140E-02;1784;-0.0072071101;0.0;-0.00025279567;1000.0646;  4.0000072E-01;53.52919;3;-7.2406225;0.0;-0.29948887;0;-0.071378671;  1.0001318E+04;  0.0000000E+00;  2.3584128E-09;  1.0000000E+04;  0.0000000E+00;  9.9999424E+03;-0.075568482;0.0;0.0041898112;26.614674
  4.7999531E-01;  9.9999998E-03; -6.0000099E-02;1785;-0.0071730725;0.0;-0.00018791558;1000.0648;  4.0000072E-01;53.726715;3;-7.1660714;0.0;-0.2300034;0;-0.071235761;  1.0001313E+04;  0.0000000E+00;  6.2417232E-10;  1.0000000E+04;  0.0000000E+00;  9.9999492E+03;-0.07506568;0.0;0.0038299181;23.668404
  4.7999531E-01;  9.9999998E-03; -4.0000062E-02;1786;-0.0071537616;0.0;-0.00012456141;1000.0648;  4.0000072E-01;53.627953;3;-7.1201262;0.0;-0.15605837;0;-0.071192943;  1.0001309E+04;  0.0000000E+00;  1.6121113E-10;  1.0000000E+04;  0.0000000E+00;  9.9999541E+03;-0.074757896;0.0;0.003564955;21.516266
  4.7999531E-01;  9.9999998E-03; -2.0000031E-02;1787;-0.0071441731;0.0;-6.2176456e-05;1000.0648;  4.0000072E-01;53.627953;3;-7.0955567;0.0;-0.079088487;0;-0.071191706;  1.0001308E+04;  0.0000000E+00; -2.4815238E-11;  1.0000000E+04;  0.0000000E+00;  9.9999580E+03;-0.074595742;0.0;0.0034040364;20.213898
  4.9999365E-01;  9.9999998E-03; -1.8000060E-01;1810;-0.0097320424;0.0;-0.00095595937;1000.08;  4.0000156E-01;66.269463;3;-9.9524937;0.0;-0.92997682;0;-0.087748453;  1.0001706E+04;  0.0000000E+00;  1.3123793E-07;  1.0000000E+04;  0.0000000E+00;  9.9998184E+03;-0.098696359;0.0;0.010947902;80.640953
  4.9999374E-01;  9.9999998E-03; -1.6000050E-01;1811;-0.0094881691;0.0;-0.00082765275;1000.0801;  4.0000162E-01;66.368225;3;-9.532795;0.0;-0.84689063;0;-0.086464308;  1.0001674E+04;  0.0000000E+00;  1.1288604E-07;  1.0000000E+04;  0.0000000E+00;  9.9998506E+03;-0.095765457;0.0;0.0093011502;66.048302
  4.9999380E-01;  9.9999998E-03; -1.4000042E-01;1812;-0.0092881573;0.0;-0.00069979578;1000.08;  4.0000153E-01;66.269463;3;-9.1861629;0.0;-0.75486606;0;-0.08530499;  1.0001648E+04;  0.0000000E+00;  8.2416591E-08;  1.0000000E+04;  0.0000000E+00;  9.9998750E+03;-0.093489267;0.0;0.0081842802;55.822796
  4.9999386E-01;  9.9999998E-03; -1.2000033E-01;1813;-0.0091357334;0.0;-0.00057738385;1000.08;  4.0000156E-01;66.269463;3;-8.9176388;0.0;-0.65647143;0;-0.084402092;  1.0001630E+04;  0.0000000E+00;  4.4564043E-08;  1.0000000E+04;  0.0000000E+00;  9.9998916E+03;-0.091746569;0.0;0.0073444741;48.192703
  4.9999389E-01;  9.9999998E-03; -1.0000025E-01;1814;-0.0090279002;0.0;-0.0004644024;1000.0801;  4.0000159E-01;66.368225;3;-8.7212543;0.0;-0.55267495;0;-0.083848335;  1.0001617E+04;  0.0000000E+00;  1.9478694E-08;  1.0000000E+04;  0.0000000E+00;  9.9999072E+03;-0.090447679;0.0;0.0065993462;41.81023
  4.9999392E-01;  9.9999998E-03; -8.0000192E-02;1815;-0.0089573096;0.0;-0.00036153221;1000.0801;  4.0000153E-01;66.368225;3;-8.5857439;0.0;-0.44650632;0;-0.083599739;  1.0001607E+04;  0.0000000E+00;  7.4114586E-09;  1.0000000E+04;  0.0000000E+00;  9.9999209E+03;-0.089523152;0.0;0.0059234109;36.352345
  4.9999392E-01;  9.9999998E-03; -6.0000136E-02;1816;-0.0089147165;0.0;-0.0002661912;1000.0803;  4.0000156E-01;66.56575;3;-8.4977598;0.0;-0.33812466;0;-0.083554618;  1.0001601E+04;  0.0000000E+00;  1.7103273E-09;  1.0000000E+04;  0.0000000E+00;  9.9999307E+03;-0.088905185;0.0;0.005350566;31.917294
  4.9999392E-01;  9.9999998E-03; -4.0000089E-02;1817;-0.0088911196;0.0;-0.0001757384;1000.0804;  4.0000159E-01;66.664513;3;-8.4444904;0.0;-0.22835214;0;-0.083607011;  1.0001596E+04;  0.0000000E+00;  6.5295952E-10;  1.0000000E+04;  0.0000000E+00;  9.9999395E+03;-0.088525891;0.0;0.0049188808;28.662951
  4.9999392E-01;  9.9999998E-03; -2.0000044E-02;1818;-0.0088796681;0.0;-8.7497341e-05;1000.0808;  4.0000162E-01;66.9608;3;-8.4159222;0.0;-0.116045;0;-0.083672978;  1.0001595E+04;  0.0000000E+00;  1.6712302E-11;  1.0000000E+04;  0.0000000E+00;  9.9999434E+03;-0.088325836;0.0;0.0046528582;26.687464
  5.1999182E-01;  9.9999998E-03; -1.8000089E-01;1841;-0.012077308;0.0;-0.001419024;1000.0991;  4.0000442E-01;82.071312;3;-11.817736;0.0;-1.4223447;0;-0.099096186;  1.0002030E+04;  0.0000000E+00;  2.5758590E-07;  1.0000000E+04;  0.0000000E+00;  9.9997324E+03;-0.1144339;0.0;0.015337712;117.59951
  5.1999193E-01;  9.9999998E-03; -1.6000073E-01;1842;-0.011765315;0.0;-0.0012198327;1000.0997;  4.0000448E-01;82.565125;3;-11.288937;0.0;-1.3026395;0;-0.097693473;  1.0001986E+04;  0.0000000E+00;  2.4309625E-07;  1.0000000E+04;  0.0000000E+00;  9.9997852E+03;-0.11084598;0.0;0.013152513;94.235863
  5.1999199E-01;  9.9999998E-03; -1.4000058E-01;1843;-0.011508808;0.0;-0.0010203369;1000.0998;  4.0000442E-01;82.663887;3;-10.86092;0.0;-1.1471781;0;-0.096458919;  1.0001954E+04;  0.0000000E+00;  1.8189151E-07;  1.0000000E+04;  0.0000000E+00;  9.9998213E+03;-0.108082;0.0;0.011623083;78.066513
  5.1999205E-01;  9.9999998E-03; -1.2000046E-01;1844;-0.011312794;0.0;-0.00083263358;1000.1;  4.0000448E-01;82.861412;3;-10.532862;0.0;-0.98022288;0;-0.095562138;  1.0001930E+04;  0.0000000E+00;  1.0522163E-07;  1.0000000E+04;  0.0000000E+00;  9.9998477E+03;-0.10597368;0.0;0.010411545;66.345016
  5.1999211E-01;  9.9999998E-03; -1.0000035E-01;1845;-0.011174336;0.0;-0.00066220132;1000.1002;  4.0000445E-01;83.058937;3;-10.294782;0.0;-0.815027;0;-0.095111817;  1.0001912E+04;  0.0000000E+00;  4.8839297E-08;  1.0000000E+04;  0.0000000E+00;  9.9998711E+03;-0.10440143;0.0;0.0092896167;56.809978
  5.1999217E-01;  9.9999998E-03; -8.0000266E-02;1846;-0.011085099;0.0;-0.00050872751;1000.1004;  4.0000445E-01;83.1577;3;-10.13308;0.0;-0.64930892;0;-0.095033675;  1.0001898E+04;  0.0000000E+00;  1.8604709E-08;  1.0000000E+04;  0.0000000E+00;  9.9998906E+03;-0.10327844;0.0;0.0082447622;48.764267
  5.1999217E-01;  9.9999998E-03; -6.0000185E-02;1847;-0.011032307;0.0;-0.00037041347;1000.1008;  4.0000451E-01;83.552742;3;-10.029935;0.0;-0.4855279;0;-0.095179498;  1.0001892E+04;  0.0000000E+00;  5.6632721E-09;  1.0000000E+04;  0.0000000E+00;  9.9999063E+03;-0.10252378;0.0;0.0073442832;42.243118
  5.1999217E-01;  9.9999998E-03; -4.0000118E-02;1848;-0.011003958;0.0;-0.00024223952;1000.1011;  4.0000448E-01;83.750267;3;-9.9688597;0.0;-0.3232832;0;-0.09540002;  1.0001886E+04;  0.0000000E+00;  1.0372697E-09;  1.0000000E+04;  0.0000000E+00;  9.9999180E+03;-0.10205763;0.0;0.0066576055;37.448685
  5.1999217E-01;  9.9999998E-03; -2.0000059E-02;1849;-0.010990745;0.0;-0.0001197333;1000.1014;  4.0000445E-01;84.046555;3;-9.9372835;0.0;-0.16074586;0;-0.095579006;  1.0001883E+04;  0.0000000E+00; -1.7668108E-11;  1.0000000E+04;  0.0000000E+00;  9.9999248E+03;-0.10181009;0.0;0.0062310826;34.530792
  5.3998959E-01;  9.9999998E-03; -1.8000129E-01;1872;-0.01484517;0.0;-0.0020824634;1000.1251;  4.0001169E-01;103.70002;3;-13.910261;0.0;-2.1730235;0;-0.10607024;  1.0002321E+04;  0.0000000E+00;  3.5938649E-07;  1.0000000E+04;  0.0000000E+00;  9.9995967E+03;-0.12827599;0.0;0.022205759;175.28766
  5.3998971E-01;  9.9999998E-03; -1.6000104E-01;1873;-0.01446183;0.0;-0.0017658824;1000.1269;  4.0001169E-01;105.08269;3;-13.283658;0.0;-1.9356531;0;-0.10514956;  1.0002269E+04;  0.0000000E+00;  3.9547638E-07;  1.0000000E+04;  0.0000000E+00;  9.9996875E+03;-0.12401619;0.0;0.01886663;135.59093
  5.3998983E-01;  9.9999998E-03; -1.4000082E-01;1874;-0.014141787;0.0;-0.0014583373;1000.1279;  4.0001166E-01;105.97154;3;-12.764316;0.0;-1.6857665;0;-0.10425447;  1.0002228E+04;  0.0000000E+00;  3.3106738E-07;  1.0000000E+04;  0.0000000E+00;  9.9997480E+03;-0.12072618;0.0;0.016471708;108.55762
  5.3998989E-01;  9.9999998E-03; -1.2000064E-01;1875;-0.013894024;0.0;-0.0011740553;1000.1285;  4.0001166E-01;106.46535;3;-12.367182;0.0;-1.4173436;0;-0.10363432;  1.0002196E+04;  0.0000000E+00;  2.0190193E-07;  1.0000000E+04;  0.0000000E+00;  9.9997891E+03;-0.11821207;0.0;0.014577751;89.954369
  5.3998995E-01;  9.9999998E-03; -1.0000049E-01;1876;-0.013719559;0.0;-0.00092139863;1000.129;  4.0001163E-01;106.8604;3;-12.081037;0.0;-1.1552051;0;-0.10348129;  1.0002175E+04;  0.0000000E+00;  9.8572940E-08;  1.0000000E+04;  0.0000000E+00;  9.9998232E+03;-0.1163324;0.0;0.012851101;75.685036
  5.3999001E-01;  9.9999998E-03; -8.0000356E-02;1877;-0.013608188;0.0;-0.00070052571;1000.1296;  4.0001166E-01;107.35421;3;-11.890503;0.0;-0.90998065;0;-0.1037311;  1.0002156E+04;  0.0000000E+00;  3.8533415E-08;  1.0000000E+04;  0.0000000E+00;  9.9998516E+03;-0.11498319;0.0;0.011252082;64.032692
  5.3999007E-01;  9.9999998E-03; -6.0000252E-02;1878;-0.013543623;0.0;-0.0005048482;1000.1302;  4.0001172E-01;107.84802;3;-11.770418;0.0;-0.67761534;0;-0.10419844;  1.0002146E+04;  0.0000000E+00;  1.2023036E-08;  1.0000000E+04;  0.0000000E+00;  9.9998750E+03;-0.11406882;0.0;0.009870382;54.683617
  5.3999007E-01;  9.9999998E-03; -4.0000159E-02;1879;-0.013510004;0.0;-0.00032646104;1000.1307;  4.0001169E-01;108.24306;3;-11.701559;0.0;-0.44446388;0;-0.10468629;  1.0002140E+04;  0.0000000E+00;  3.2855185E-09;  1.0000000E+04;  0.0000000E+00;  9.9998916E+03;-0.1134974;0.0;0.0088111097;47.809448
  5.3999007E-01;  9.9999998E-03; -2.0000078E-02;1880;-0.013494599;0.0;-0.00016015943;1000.131;  4.0001169E-01;108.53935;3;-11.666461;0.0;-0.21842894;0;-0.10504041;  1.0002135E+04;  0.0000000E+00;  3.1750602E-10;  1.0000000E+04;  0.0000000E+00;  9.9999023E+03;-0.11319026;0.0;0.0081498548;43.614414
  5.5998695E-01;  9.9999998E-03; -1.8000180E-01;1903;-0.017999483;0.0;-0.0029670405;1000.1742;  4.0003142E-01;144.29082;3;-16.219006;0.0;-3.1924212;0;-0.10457542;  1.0002524E+04;  0.0000000E+00;  1.9855936E-07;  1.0000000E+04;  0.0000000E+00;  9.9993877E+03;-0.13745248;0.0;0.032877065;264.66376
  5.5998713E-01;  9.9999998E-03; -1.6000144E-01;1904;-0.01753019;0.0;-0.002491306;1000.1785;  4.0003142E-01;147.84624;3;-15.478364;0.0;-2.8093457;0;-0.10533404;  1.0002461E+04;  0.0000000E+00;  4.6016328E-07;  1.0000000E+04;  0.0000000E+00;  9.9995400E+03;-0.13263461;0.0;0.027300576;196.42975
  5.5998731E-01;  9.9999998E-03; -1.4000113E-01;1905;-0.017135074;0.0;-0.0020353689;1000.1813;  4.0003142E-01;150.21652;3;-14.864926;0.0;-2.4035747;0;-0.10563371;  1.0002409E+04;  0.0000000E+00;  4.7807629E-07;  1.0000000E+04;  0.0000000E+00;  9.9996455E+03;-0.12886031;0.0;0.023226606;150.34753
  5.5998743E-01;  9.9999998E-03; -1.2000087E-01;1906;-0.016829025;0.0;-0.0016192454;1000.1829;  4.0003145E-01;151.50043;3;-14.392929;0.0;-1.9984989;0;-0.10583165;  1.0002371E+04;  0.0000000E+00;  3.1783532E-07;  1.0000000E+04;  0.0000000E+00;  9.9997148E+03;-0.12594888;0.0;0.020117231;120.2641
  5.5998749E-01;  9.9999998E-03; -1.0000065E-01;1907;-0.016614057;0.0;-0.0012516226;1000.184;  4.0003148E-01;152.38928;3;-14.057601;0.0;-1.6026759;0;-0.1063199;  1.0002344E+04;  0.0000000E+00;  1.6301244E-07;  1.0000000E+04;  0.0000000E+00;  9.9997637E+03;-0.12375799;0.0;0.01743808;98.848984
  5.5998755E-01;  9.9999998E-03; -8.0000475E-02;1908;-0.016477551;0.0;-0.00093717506;1000.1849;  4.0003142E-01;153.17937;3;-13.834985;0.0;-1.234108;0;-0.10714269;  1.0002322E+04;  0.0000000E+00;  6.6821272E-08;  1.0000000E+04;  0.0000000E+00;  9.9998047E+03;-0.1221744;0.0;0.015031716;82.216049
  5.5998760E-01;  9.9999998E-03; -6.0000326E-02;1909;-0.016399549;0.0;-0.00066684367;1000.1859;  4.0003151E-01;154.06822;3;-13.697884;0.0;-0.89871144;0;-0.10812011;  1.0002308E+04;  0.0000000E+00;  2.3037964E-08;  1.0000000E+04;  0.0000000E+00;  9.9998389E+03;-0.12108912;0.0;0.012969006;69.116676
  5.5998760E-01;  9.9999998E-03; -4.0000208E-02;1910;-0.016359411;0.0;-0.00042902835;1000.1866;  4.0003151E-01;154.56204;3;-13.618326;0.0;-0.59512544;0;-0.10901479;  1.0002300E+04;  0.0000000E+00;  5.8626770E-09;  1.0000000E+04;  0.0000000E+00;  9.9998604E+03;-0.12040039;0.0;0.011385608;59.505047
  5.5998760E-01;  9.9999998E-03; -2.0000100E-02;1911;-0.016342038;0.0;-0.00020936191;1000.1872;  4.0003148E-01;155.05585;3;-13.580706;0.0;-0.29360119;0;-0.10963035;  1.0002296E+04;  0.0000000E+00;  9.9231123E-10;  1.0000000E+04;  0.0000000E+00;  9.9998770E+03;-0.1200242;0.0;0.010393853;53.623466
  5.7998413E-01;  9.9999998E-03; -1.8000241E-01;1934;-0.021407917;0.0;-0.0040755956;1000.2912;  4.0008396E-01;241.27397;3;-18.681288;0.0;-4.5051336;0;-0.089343108;  1.0002554E+04;  0.0000000E+00; -5.9697243E-07;  1.0000000E+04;  0.0000000E+00;  9.9990732E+03;-0.13823663;0.0;0.048893519;398.23007
  5.7998437E-01;  9.9999998E-03; -1.6000193E-01;1935;-0.020829966;0.0;-0.0033975777;1000.3004;  4.0008393E-01;248.8786;3;-17.81212;0.0;-3.9291279;0;-0.09370175;  1.0002482E+04;  0.0000000E+00;  2.2864096E-07;  1.0000000E+04;  0.0000000E+00;  9.9993291E+03;-0.13318811;0.0;0.03948636;284.33316
  5.7998455E-01;  9.9999998E-03; -1.4000151E-01;1936;-0.020339284;0.0;-0.0027590734;1000.3063;  4.0008393E-01;253.71791;3;-17.090429;0.0;-3.3253427;0;-0.096637741;  1.0002427E+04;  0.0000000E+00;  5.3385389E-07;  1.0000000E+04;  0.0000000E+00;  9.9995020E+03;-0.12912911;0.0;0.032491371;207.25385
  5.7998472E-01;  9.9999998E-03; -1.2000114E-01;1937;-0.019965811;0.0;-0.0021649313;1000.3098;  4.0008396E-01;256.582;3;-16.535946;0.0;-2.7133765;0;-0.098592691;  1.0002381E+04;  0.0000000E+00;  4.1092318E-07;  1.0000000E+04;  0.0000000E+00;  9.9996152E+03;-0.12594117;0.0;0.027348481;158.83978
  5.7998484E-01;  9.9999998E-03; -1.0000085E-01;1938;-0.019703139;0.0;-0.0016518893;1000.312;  4.0008393E-01;258.45847;3;-16.145044;0.0;-2.1367128;0;-0.10030385;  1.0002349E+04;  0.0000000E+00;  2.2029835E-07;  1.0000000E+04;  0.0000000E+00;  9.9996885E+03;-0.12351315;0.0;0.023209302;126.75522
  5.7998490E-01;  9.9999998E-03; -8.0000609E-02;1939;-0.01953841;0.0;-0.0012185285;1000.3136;  4.0008390E-01;259.84113;3;-15.886776;0.0;-1.6313394;0;-0.10208359;  1.0002325E+04;  0.0000000E+00;  9.1163983E-08;  1.0000000E+04;  0.0000000E+00;  9.9997461E+03;-0.12173999;0.0;0.019656399;103.27893
  5.7998490E-01;  9.9999998E-03; -6.0000416E-02;1940;-0.019444909;0.0;-0.00085371017;1000.3151;  4.0008393E-01;261.02625;3;-15.729822;0.0;-1.167992;0;-0.10384887;  1.0002311E+04;  0.0000000E+00;  2.9872481E-08;  1.0000000E+04;  0.0000000E+00;  9.9997930E+03;-0.12050883;0.0;0.016659958;85.276375
  5.7998496E-01;  9.9999998E-03; -4.0000260E-02;1941;-0.019397471;0.0;-0.00054145063;1000.3162;  4.0008396E-01;262.01385;3;-15.642192;0.0;-0.74917537;0;-0.10535006;  1.0002300E+04;  0.0000000E+00;  8.0919058E-09;  1.0000000E+04;  0.0000000E+00;  9.9998271E+03;-0.11971429;0.0;0.014364227;72.133781
  5.7998496E-01;  9.9999998E-03; -2.0000124E-02;1942;-0.019376284;0.0;-0.00026421531;1000.317;  4.0008393E-01;262.60641;3;-15.595426;0.0;-0.37508857;0;-0.10634975;  1.0002294E+04;  0.0000000E+00;  9.7882702E-10;  1.0000000E+04;  0.0000000E+00;  9.9998467E+03;-0.11927302;0.0;0.01292327;64.073204
  5.9998125E-01;  9.9999998E-03; -1.8000308E-01;1965;-0.024870403;0.0;-0.0053636464;1000.5905;  4.0021721E-01;489.26151;3;-21.167419;0.0;-6.122848;0;-0.054529913;  1.0002320E+04;  0.0000000E+00; -2.3896559E-06;  1.0000000E+04;  0.0000000E+00;  9.9986279E+03;-0.12608504;0.0;0.07155513;585.91229
  5.9998155E-01;  9.9999998E-03; -1.6000247E-01;1966;-0.024143966;0.0;-0.0044355947;1000.6074;  4.0021726E-01;503.1868;3;-20.167522;0.0;-5.2316971;0;-0.065040246;  1.0002254E+04;  0.0000000E+00; -5.0614557E-07;  1.0000000E+04;  0.0000000E+00;  9.9990322E+03;-0.12138031;0.0;0.056340065;405.75397
  5.9998184E-01;  9.9999998E-03; -1.4000192E-01;1967;-0.023534402;0.0;-0.0035727553;1000.6185;  4.0021726E-01;512.47034;3;-19.315327;0.0;-4.3659177;0;-0.072616607;  1.0002195E+04;  0.0000000E+00;  4.0641763E-07;  1.0000000E+04;  0.0000000E+00;  9.9993115E+03;-0.11743963;0.0;0.044823021;282.73282
  5.9998202E-01;  9.9999998E-03; -1.2000146E-01;1968;-0.023074849;0.0;-0.0027808202;1000.625;  4.0021724E-01;517.80341;3;-18.680193;0.0;-3.5136261;0;-0.077692389;  1.0002150E+04;  0.0000000E+00;  4.3196493E-07;  1.0000000E+04;  0.0000000E+00;  9.9994863E+03;-0.11425842;0.0;0.03656603;207.15504
  5.9998220E-01;  9.9999998E-03; -1.0000107E-01;1969;-0.022753246;0.0;-0.0020960667;1000.6291;  4.0021724E-01;521.16125;3;-18.214962;0.0;-2.738724;0;-0.081490517;  1.0002117E+04;  0.0000000E+00;  2.4698966E-07;  1.0000000E+04;  0.0000000E+00;  9.9995996E+03;-0.11178999;0.0;0.03029947;159.79004
  5.9998226E-01;  9.9999998E-03; -8.0000758E-02;1970;-0.022553334;0.0;-0.0015224456;1000.6318;  4.0021732E-01;523.4328;3;-17.912441;0.0;-2.0479121;0;-0.084787689;  1.0002093E+04;  0.0000000E+00;  1.0249711E-07;  1.0000000E+04;  0.0000000E+00;  9.9996787E+03;-0.10996041;0.0;0.025172727;127.08952
  5.9998232E-01;  9.9999998E-03; -6.0000509E-02;1971;-0.022441065;0.0;-0.0010489819;1000.6341;  4.0021735E-01;525.30927;3;-17.732929;0.0;-1.4366093;0;-0.087731063;  1.0002075E+04;  0.0000000E+00;  3.2018651E-08;  1.0000000E+04;  0.0000000E+00;  9.9997422E+03;-0.10867051;0.0;0.020939451;102.7889
  5.9998232E-01;  9.9999998E-03; -4.0000316E-02;1972;-0.022382701;0.0;-0.00065831339;1000.6358;  4.0021726E-01;526.79065;3;-17.626785;0.0;-0.92343831;0;-0.090113066;  1.0002064E+04;  0.0000000E+00;  7.3591950E-09;  1.0000000E+04;  0.0000000E+00;  9.9997891E+03;-0.10782404;0.0;0.017710978;85.190575
  5.9998238E-01;  9.9999998E-03; -2.0000150E-02;1973;-0.022355774;0.0;-0.00031570494;1000.6369;  4.0021726E-01;527.6795;3;-17.57213;0.0;-0.44108668;0;-0.09166418;  1.0002060E+04;  0.0000000E+00;  6.4487410E-10;  1.0000000E+04;  0.0000000E+00;  9.9998164E+03;-0.10734665;0.0;0.015682468;74.382904
  6.1997843E-01;  9.9999998E-03; -1.8000384E-01;1996;-0.028159289;0.0;-0.006902107;1001.296;  4.0052241E-01;1073.7219;3;-23.53027;0.0;-8.107666;0;0.0046180934;  1.0001753E+04;  0.0000000E+00; -4.9396167E-06;  1.0000000E+04;  0.0000000E+00;  9.9980449E+03;-0.096653171;0.0;0.10127126;829.67865
  6.1997890E-01;  9.9999998E-03; -1.6000307E-01;1997;-0.027245408;0.0;-0.0056829574;1001.3234;  4.0052244E-01;1096.3381;3;-22.373409;0.0;-6.9420238;0;-0.014851488;  1.0001701E+04;  0.0000000E+00; -1.7179555E-06;  1.0000000E+04;  0.0000000E+00;  9.9986455E+03;-0.093043976;0.0;0.078192487;562.43427
  6.1997926E-01;  9.9999998E-03; -1.4000237E-01;1998;-0.026516693;0.0;-0.0045058401;1001.3422;  4.0052256E-01;1111.9423;3;-21.404873;0.0;-5.6870775;0;-0.029354375;  1.0001653E+04;  0.0000000E+00;  7.9187416E-08;  1.0000000E+04;  0.0000000E+00;  9.9990674E+03;-0.089798264;0.0;0.060443889;377.91098
  6.1997956E-01;  9.9999998E-03; -1.2000177E-01;1999;-0.025964392;0.0;-0.0034373002;1001.3533;  4.0052244E-01;1121.2257;3;-20.697096;0.0;-4.4416199;0;-0.039178424;  1.0001614E+04;  0.0000000E+00;  3.7478756E-07;  1.0000000E+04;  0.0000000E+00;  9.9993301E+03;-0.087064169;0.0;0.047885746;265.68872
  6.1997974E-01;  9.9999998E-03; -1.0000128E-01;2000;-0.02557217;0.0;-0.0025283394;1001.3599;  4.0052250E-01;1126.5587;3;-20.165663;0.0;-3.338161;0;-0.046140298;  1.0001582E+04;  0.0000000E+00;  2.3704133E-07;  1.0000000E+04;  0.0000000E+00;  9.9994932E+03;-0.084884547;0.0;0.038744248;197.94388
  6.1997986E-01;  9.9999998E-03; -8.0000885E-02;2001;-0.025322363;0.0;-0.0017948381;1001.3644;  4.0052247E-01;1130.3116;3;-19.80122;0.0;-2.4317269;0;-0.051667619;  1.0001561E+04;  0.0000000E+00;  9.6337146E-08;  1.0000000E+04;  0.0000000E+00;  9.9996045E+03;-0.083235949;0.0;0.03156833;153.35291
  6.1997992E-01;  9.9999998E-03; -6.0000587E-02;2002;-0.025175791;0.0;-0.0012197332;1001.3679;  4.0052250E-01;1133.1757;3;-19.57357;0.0;-1.701074;0;-0.056283385;  1.0001545E+04;  0.0000000E+00;  2.7191271E-08;  1.0000000E+04;  0.0000000E+00;  9.9996855E+03;-0.082052492;0.0;0.025769107;121.21784
  6.1997998E-01;  9.9999998E-03; -4.0000357E-02;2003;-0.025094537;0.0;-0.00075438939;1001.3703;  4.0052247E-01;1135.2496;3;-19.437637;0.0;-1.0738524;0;-0.059889436;  1.0001535E+04;  0.0000000E+00;  5.6987242E-09;  1.0000000E+04;  0.0000000E+00;  9.9997471E+03;-0.081262499;0.0;0.021373065;98.172043
  6.1997998E-01;  9.9999998E-03; -2.0000169E-02;2004;-0.02505683;0.0;-0.00035862913;1001.3718;  4.0052244E-01;1136.5336;3;-19.368853;0.0;-0.51219821;0;-0.062199946;  1.0001528E+04;  0.0000000E+00;  2.1421795E-10;  1.0000000E+04;  0.0000000E+00;  9.9997822E+03;-0.080810651;0.0;0.018610705;84.014648
  6.3997597E-01;  9.9999998E-03; -1.8000479E-01;2027;-0.031034658;0.0;-0.0087533854;1002.6118;  4.0108132E-01;2163.8203;3;-25.518909;0.0;-10.423738;0;0.08926598;  1.0000830E+04;  0.0000000E+00; -7.1773156E-06;  1.0000000E+04;  0.0000000E+00;  9.9973516E+03;-0.047696553;0.0;0.13696253;1119.0323
  6.3997656E-01;  9.9999998E-03; -1.6000377E-01;2028;-0.029994471;0.0;-0.0071182866;1002.6525;  4.0108144E-01;2197.3987;3;-24.263721;0.0;-8.8102388;0;0.058421198;  1.0000804E+04;  0.0000000E+00; -2.8804661E-06;  1.0000000E+04;  0.0000000E+00;  9.9981875E+03;-0.04591969;0.0;0.10434089;748.2616
  6.3997698E-01;  9.9999998E-03; -1.4000289E-01;2029;-0.029153612;0.0;-0.0056011509;1002.6807;  4.0108135E-01;2220.8047;3;-23.218479;0.0;-7.1462741;0;0.034937087;  1.0000774E+04;  0.0000000E+00; -2.8864309E-07;  1.0000000E+04;  0.0000000E+00;  9.9987822E+03;-0.043998566;0.0;0.078935653;489.67474
  6.3997734E-01;  9.9999998E-03; -1.2000212E-01;2030;-0.028509999;0.0;-0.00419774;1002.6978;  4.0108129E-01;2235.0259;3;-22.389826;0.0;-5.5118814;0;0.018827148;  1.0000749E+04;  0.0000000E+00;  2.7669245E-07;  1.0000000E+04;  0.0000000E+00;  9.9991475E+03;-0.042229056;0.0;0.061056204;332.90036
  6.3997757E-01;  9.9999998E-03; -1.0000148E-01;2031;-0.028052256;0.0;-0.0030007558;1002.708;  4.0108135E-01;2243.4204;3;-21.794777;0.0;-4.0535383;0;0.0076256692;  1.0000727E+04;  0.0000000E+00;  2.0368992E-07;  1.0000000E+04;  0.0000000E+00;  9.9993691E+03;-0.040749978;0.0;0.048375648;240.35367
  6.3997769E-01;  9.9999998E-03; -8.0000997E-02;2032;-0.027738351;0.0;-0.0020611095;1002.7146;  4.0108135E-01;2248.9509;3;-21.381145;0.0;-2.8657546;0;-0.00087723508;  1.0000711E+04;  0.0000000E+00;  7.8014295E-08;  1.0000000E+04;  0.0000000E+00;  9.9995186E+03;-0.039596401;0.0;0.038719166;181.4742
  6.3997781E-01;  9.9999998E-03; -6.0000639E-02;2033;-0.027535791;0.0;-0.0013580435;1002.7194;  4.0108129E-01;2252.9014;3;-21.075449;0.0;-1.9561449;0;-0.0076950286;  1.0000700E+04;  0.0000000E+00;  1.8851580E-08;  1.0000000E+04;  0.0000000E+00;  9.9996240E+03;-0.038748417;0.0;0.031053388;140.09528
  6.3997787E-01;  9.9999998E-03; -4.0000379E-02;2034;-0.027420055;0.0;-0.00081851339;1002.7228;  4.0108129E-01;2255.6667;3;-20.903791;0.0;-1.1973479;0;-0.012895465;  1.0000691E+04;  0.0000000E+00;  1.8544457E-09;  1.0000000E+04;  0.0000000E+00;  9.9997021E+03;-0.038171034;0.0;0.025275569;110.68948
  6.3997787E-01;  9.9999998E-03; -2.0000177E-02;2035;-0.027357839;0.0;-0.00038741605;1002.725;  4.0108132E-01;2257.5432;3;-20.802568;0.0;-0.5717864;0;-0.016189812;  1.0000688E+04;  0.0000000E+00; -1.9693143E-10;  1.0000000E+04;  0.0000000E+00;  9.9997500E+03;-0.037835598;0.0;0.021645786;92.627693
  6.5997422E-01;  9.9999998E-03; -1.8000598E-01;2058;-0.033264022;0.0;-0.011041082;1004.2674;  4.0178320E-01;3535.353;3;-27.177954;0.0;-13.300056;0;0.19458199;  9.9996123E+03;  0.0000000E+00; -7.6712868E-06;  1.0000000E+04;  0.0000000E+00;  9.9966016E+03;0.018700689;0.0;0.1758813;1430.5074
  6.5997487E-01;  9.9999998E-03; -1.6000463E-01;2059;-0.032102734;0.0;-0.0088457568;1004.3223;  4.0178320E-01;3580.7817;3;-25.863752;0.0;-11.079442;0;0.15106344;  9.9996182E+03;  0.0000000E+00; -3.2802752E-06;  1.0000000E+04;  0.0000000E+00;  9.9976904E+03;0.018162416;0.0;0.13290103;948.73071
  6.5997535E-01;  9.9999998E-03; -1.4000353E-01;2060;-0.031185791;0.0;-0.006886513;1004.3611;  4.0178314E-01;3612.9771;3;-24.775665;0.0;-8.8633862;0;0.1173747;  9.9996143E+03;  0.0000000E+00; -4.7048675E-07;  1.0000000E+04;  0.0000000E+00;  9.9984678E+03;0.018258432;0.0;0.099116266;610.1264
  6.5997571E-01;  9.9999998E-03; -1.2000255E-01;2061;-0.030474035;0.0;-0.0050956076;1004.385;  4.0178314E-01;3632.7288;3;-23.899759;0.0;-6.7484837;0;0.093969472;  9.9996074E+03;  0.0000000E+00;  2.0107512E-07;  1.0000000E+04;  0.0000000E+00;  9.9989512E+03;0.018609913;0.0;0.075359561;404.79941
  6.5997601E-01;  9.9999998E-03; -1.0000175E-01;2062;-0.029936468;0.0;-0.0035886604;1004.3992;  4.0178311E-01;3644.481;3;-23.202494;0.0;-4.9214268;0;0.077755749;  9.9996006E+03;  0.0000000E+00;  1.6507232E-07;  1.0000000E+04;  0.0000000E+00;  9.9992393E+03;0.019005513;0.0;0.058750238;285.03864
  6.5997618E-01;  9.9999998E-03; -8.0001146E-02;2063;-0.029553343;0.0;-0.0024112468;1004.4084;  4.0178311E-01;3652.0854;3;-22.692526;0.0;-3.429261;0;0.065700337;  9.9995967E+03;  0.0000000E+00;  6.0755227E-08;  1.0000000E+04;  0.0000000E+00;  9.9994277E+03;0.019358071;0.0;0.046342269;210.44731
  6.5997630E-01;  9.9999998E-03; -6.0000714E-02;2064;-0.029293843;0.0;-0.0015445466;1004.4149;  4.0178308E-01;3657.5171;3;-22.333761;0.0;-2.2648661;0;0.056250833;  9.9995908E+03;  0.0000000E+00;  1.1684267E-08;  1.0000000E+04;  0.0000000E+00;  9.9995605E+03;0.019639999;0.0;0.036610834;158.91693
  6.5997642E-01;  9.9999998E-03; -4.0000413E-02;2065;-0.029132575;0.0;-0.00091448391;1004.4196;  4.0178311E-01;3661.3687;3;-22.102648;0.0;-1.3748418;0;0.049148805;  9.9995889E+03;  0.0000000E+00; -4.6585891E-10;  1.0000000E+04;  0.0000000E+00;  9.9996582E+03;0.019844502;0.0;0.029304301;122.52924
  6.5997642E-01;  9.9999998E-03; -2.0000188E-02;2066;-0.029044477;0.0;-0.00042809182;1004.4225;  4.0178311E-01;3663.8376;3;-21.978872;0.0;-0.66365427;0;0.044682093;  9.9995879E+03;  0.0000000E+00; -3.8506243E-10;  1.0000000E+04;  0.0000000E+00;  9.9997168E+03;0.019968944;0.0;0.024713151;100.17416
  6.7997402E-01;  9.9999998E-03; -1.8000722E-01;2089;-0.033912882;0.0;-0.01358951;1005.5611;  4.0234241E-01;4607.0093;3;-28.061729;0.0;-16.723297;0;0.30861601;  9.9982695E+03;  0.0000000E+00; -6.1232404E-06;  1.0000000E+04;  0.0000000E+00;  9.9958682E+03;0.094483964;0.0;0.21413206;1732.9043
  6.7997468E-01;  9.9999998E-03; -1.6000552E-01;2090;-0.032705434;0.0;-0.010778184;1005.6299;  4.0234244E-01;4663.9922;3;-26.653507;0.0;-13.771567;0;0.25272241;  9.9983057E+03;  0.0000000E+00; -2.6331707E-06;  1.0000000E+04;  0.0000000E+00;  9.9972021E+03;0.091566078;0.0;0.16115633;1144.2544
  6.7997521E-01;  9.9999998E-03; -1.4000420E-01;2091;-0.031760976;0.0;-0.0083230883;1005.6793;  4.0234238E-01;4704.8774;3;-25.513874;0.0;-10.894881;0;0.20886701;  9.9983311E+03;  0.0000000E+00; -3.4320934E-07;  1.0000000E+04;  0.0000000E+00;  9.9981592E+03;0.089638419;0.0;0.11922859;728.29047
  6.7997557E-01;  9.9999998E-03; -1.2000301E-01;2092;-0.031034751;0.0;-0.0060804337;1005.7097;  4.0234232E-01;4730.1592;3;-24.595974;0.0;-8.1873369;0;0.17803976;  9.9983477E+03;  0.0000000E+00;  1.8463088E-07;  1.0000000E+04;  0.0000000E+00;  9.9987529E+03;0.088340312;0.0;0.089699447;475.70288
  6.7997587E-01;  9.9999998E-03; -1.0000203E-01;2093;-0.030491112;0.0;-0.0042073322;1005.7282;  4.0234232E-01;4745.4668;3;-23.900558;0.0;-5.8523207;0;0.15661997;  9.9983574E+03;  0.0000000E+00;  1.4007568E-07;  1.0000000E+04;  0.0000000E+00;  9.9991084E+03;0.087438308;0.0;0.069181651;329.19006
  6.7997605E-01;  9.9999998E-03; -8.0001295E-02;2094;-0.030096335;0.0;-0.0027709368;1005.7401;  4.0234226E-01;4755.2437;3;-23.36455;0.0;-4.0183606;0;0.14081398;  9.9983643E+03;  0.0000000E+00;  4.8056172E-08;  1.0000000E+04;  0.0000000E+00;  9.9993369E+03;0.086812869;0.0;0.0540011;238.94632
  6.7997617E-01;  9.9999998E-03; -6.0000781E-02;2095;-0.029829143;0.0;-0.0017346804;1005.7483;  4.0234229E-01;4762.0576;3;-22.99411;0.0;-2.6198709;0;0.12856066;  9.9983701E+03;  0.0000000E+00;  7.5098301E-09;  1.0000000E+04;  0.0000000E+00;  9.9994971E+03;0.086393729;0.0;0.042166933;177.16489
  6.7997622E-01;  9.9999998E-03; -4.0000435E-02;2096;-0.029662816;0.0;-0.0010045455;1005.7543;  4.0234226E-01;4766.9956;3;-22.748102;0.0;-1.5728226;0;0.11942483;  9.9983750E+03;  0.0000000E+00; -7.3579753E-10;  1.0000000E+04;  0.0000000E+00;  9.9996133E+03;0.086131677;0.0;0.03329315;133.65881
  6.7997628E-01;  9.9999998E-03; -2.0000195E-02;2097;-0.029573744;0.0;-0.0004632542;1005.7578;  4.0234229E-01;4769.9585;3;-22.612143;0.0;-0.7423411;0;0.11370186;  9.9983760E+03;  0.0000000E+00; -2.5867700E-10;  1.0000000E+04;  0.0000000E+00;  9.9996836E+03;0.08599028;0.0;0.02771158;106.90286
  6.9997686E-01;  9.9999998E-03; -1.8000834E-01;2120;-0.031307939;0.0;-0.01590579;1006.2314;  4.0264800E-01;5162.2153;3;-27.307146;0.0;-19.938667;0;0.41397256;  9.9970518E+03;  0.0000000E+00; -3.6064066E-06;  1.0000000E+04;  0.0000000E+00;  9.9952285E+03;0.16610533;0.0;0.24786724;1997.1589
  6.9997746E-01;  9.9999998E-03; -1.6000636E-01;2121;-0.030208427;0.0;-0.012576878;1006.3122;  4.0264791E-01;5229.1709;3;-25.929756;0.0;-16.343039;0;0.34752563;  9.9971162E+03;  0.0000000E+00; -1.4256808E-06;  1.0000000E+04;  0.0000000E+00;  9.9967715E+03;0.16117716;0.0;0.18634847;1316.2227
  6.9997787E-01;  9.9999998E-03; -1.4000481E-01;2122;-0.02933207;0.0;-0.0096738404;1006.3705;  4.0264788E-01;5277.3633;3;-24.808191;0.0;-12.854121;0;0.29481781;  9.9971631E+03;  0.0000000E+00; -5.1236853E-08;  1.0000000E+04;  0.0000000E+00;  9.9978828E+03;0.15740138;0.0;0.13741641;833.47565
  6.9997823E-01;  9.9999998E-03; -1.2000342E-01;2123;-0.028666316;0.0;-0.006997284;1006.4069;  4.0264791E-01;5307.5825;3;-23.926609;0.0;-9.5553837;0;0.25739932;  9.9972002E+03;  0.0000000E+00;  2.0188060E-07;  1.0000000E+04;  0.0000000E+00;  9.9985742E+03;0.15453272;0.0;0.1028666;539.90967
  6.9997847E-01;  9.9999998E-03; -1.0000226E-01;2124;-0.028190065;0.0;-0.0047507649;1006.4291;  4.0264779E-01;5326.0493;3;-23.271694;0.0;-6.720047;0;0.2312595;  9.9972256E+03;  0.0000000E+00;  1.2094772E-07;  1.0000000E+04;  0.0000000E+00;  9.9989863E+03;0.15237571;0.0;0.078883789;369.92123
  6.9997859E-01;  9.9999998E-03; -8.0001391E-02;2125;-0.027863912;0.0;-0.0030396516;1006.4433;  4.0264788E-01;5337.7026;3;-22.801497;0.0;-4.4952021;0;0.21198441;  9.9972471E+03;  0.0000000E+00;  3.9789843E-08;  1.0000000E+04;  0.0000000E+00;  9.9992520E+03;0.15080257;0.0;0.061181847;265.62454
  6.9997871E-01;  9.9999998E-03; -6.0000807E-02;2126;-0.027655382;0.0;-0.0018371204;1006.4534;  4.0264791E-01;5346.0967;3;-22.48477;0.0;-2.8572626;0;0.19710071;  9.9972598E+03;  0.0000000E+00;  6.8374235E-09;  1.0000000E+04;  0.0000000E+00;  9.9994385E+03;0.14970714;0.0;0.047393579;194.39731
  6.9997877E-01;  9.9999998E-03; -4.0000431E-02;2127;-0.027530788;0.0;-0.0010252607;1006.4604;  4.0264788E-01;5351.9233;3;-22.28631;0.0;-1.6740745;0;0.18604144;  9.9972676E+03;  0.0000000E+00; -7.5016854E-11;  1.0000000E+04;  0.0000000E+00;  9.9995723E+03;0.14899811;0.0;0.037043326;144.21156
  6.9997877E-01;  9.9999998E-03; -2.0000184E-02;2128;-0.027466562;0.0;-0.00045734289;1006.4648;  4.0264782E-01;5355.5771;3;-22.179989;0.0;-0.77374202;0;0.17912543;  9.9972725E+03;  0.0000000E+00; -3.3511863E-10;  1.0000000E+04;  0.0000000E+00;  9.9996533E+03;0.1486036;0.0;0.030521821;113.28877
  7.1998334E-01;  9.9999998E-03; -1.8000920E-01;2151;-0.023056041;0.0;-0.017636597;1006.4973;  4.0278149E-01;5382.291;3;-20.88088;0.0;-22.234661;0;0.49322724;  9.9962041E+03;  0.0000000E+00; -1.4871426E-06;  1.0000000E+04;  0.0000000E+00;  9.9947256E+03;0.21875487;0.0;0.27447239;2204.6572
  7.1998382E-01;  9.9999998E-03; -1.6000703E-01;2152;-0.022148862;0.0;-0.013965803;1006.5869;  4.0278143E-01;5456.5522;3;-19.710707;0.0;-18.238297;0;0.41896522;  9.9962852E+03;  0.0000000E+00; -4.2737500E-07;  1.0000000E+04;  0.0000000E+00;  9.9964307E+03;0.2124584;0.0;0.2065068;1452.4086
  7.1998417E-01;  9.9999998E-03; -1.4000534E-01;2153;-0.021414621;0.0;-0.010743328;1006.6519;  4.0278137E-01;5510.3726;3;-18.745827;0.0;-14.341165;0;0.3595733;  9.9963486E+03;  0.0000000E+00;  1.6157206E-07;  1.0000000E+04;  0.0000000E+00;  9.9976602E+03;0.20730223;0.0;0.15227109;918.36664
  7.1998441E-01;  9.9999998E-03; -1.2000378E-01;2154;-0.02086151;0.0;-0.0077598239;1006.693;  4.0278134E-01;5544.4419;3;-18.000599;0.0;-10.637187;0;0.31708521;  9.9964004E+03;  0.0000000E+00;  1.9418566E-07;  1.0000000E+04;  0.0000000E+00;  9.9984258E+03;0.20320806;0.0;0.11387716;593.27869
  7.1998459E-01;  9.9999998E-03; -1.0000250E-01;2155;-0.020472355;0.0;-0.005255702;1006.718;  4.0278128E-01;5565.0811;3;-17.459316;0.0;-7.4584827;0;0.28723347;  9.9964385E+03;  0.0000000E+00;  9.9401539E-08;  1.0000000E+04;  0.0000000E+00;  9.9988848E+03;0.20006214;0.0;0.087171324;404.96729
  7.1998471E-01;  9.9999998E-03; -8.0001533E-02;2156;-0.020216387;0.0;-0.0033460557;1006.7341;  4.0278131E-01;5578.4126;3;-17.088152;0.0;-4.9622345;0;0.26515973;  9.9964678E+03;  0.0000000E+00;  3.2687321E-08;  1.0000000E+04;  0.0000000E+00;  9.9991797E+03;0.1977478;0.0;0.067411944;289.3425
  7.1998483E-01;  9.9999998E-03; -6.0000882E-02;2157;-0.020058285;0.0;-0.0020080972;1006.7455;  4.0278125E-01;5587.8931;3;-16.846664;0.0;-3.1336913;0;0.24810904;  9.9964863E+03;  0.0000000E+00;  6.0084355E-09;  1.0000000E+04;  0.0000000E+00;  9.9993857E+03;0.19613214;0.0;0.051976908;210.21503
  7.1998483E-01;  9.9999998E-03; -4.0000465E-02;2158;-0.019966941;0.0;-0.0011124912;1006.7537;  4.0278128E-01;5594.7065;3;-16.699024;0.0;-1.8246583;0;0.23544443;  9.9964980E+03;  0.0000000E+00;  2.7673830E-10;  1.0000000E+04;  0.0000000E+00;  9.9995352E+03;0.19508576;0.0;0.040358666;154.30315
  7.1998489E-01;  9.9999998E-03; -2.0000199E-02;2159;-0.019920224;0.0;-0.00049319922;1006.7586;  4.0278128E-01;5598.7554;3;-16.619671;0.0;-0.83907324;0;0.22752592;  9.9965068E+03;  0.0000000E+00; -1.8813306E-10;  1.0000000E+04;  0.0000000E+00;  9.9996270E+03;0.19450313;0.0;0.033022799;119.76693
  7.3998976E-01;  9.9999998E-03; -1.8000980E-01;2182;-0.014351004;0.0;-0.018788379;1006.5927;  4.0283406E-01;5461.1899;3;-13.210764;0.0;-23.693155;0;0.53699994;  9.9958438E+03;  0.0000000E+00; -3.3569836E-07;  1.0000000E+04;  0.0000000E+00;  9.9943711E+03;0.24390453;0.0;0.29309538;2350.0728
  7.3999006E-01;  9.9999998E-03; -1.6000752E-01;2183;-0.013716321;0.0;-0.014926453;1006.6884;  4.0283397E-01;5540.3862;3;-12.398666;0.0;-19.493776;0;0.45780784;  9.9959316E+03;  0.0000000E+00;  5.6396463E-08;  1.0000000E+04;  0.0000000E+00;  9.9961885E+03;0.23693264;0.0;0.22087519;1548.9604
  7.3999029E-01;  9.9999998E-03; -1.4000571E-01;2184;-0.013191637;0.0;-0.011499943;1006.7579;  4.0283391E-01;5597.9565;3;-11.712329;0.0;-15.355488;0;0.39413893;  9.9960068E+03;  0.0000000E+00;  2.0133339E-07;  1.0000000E+04;  0.0000000E+00;  9.9974990E+03;0.2309844;0.0;0.16315451;980.22614
  7.3999053E-01;  9.9999998E-03; -1.2000405E-01;2185;-0.01279057;0.0;-0.0083145881;1006.8019;  4.0283391E-01;5634.4937;3;-11.173232;0.0;-11.403841;0;0.34834912;  9.9960664E+03;  0.0000000E+00;  1.4595558E-07;  1.0000000E+04;  0.0000000E+00;  9.9983164E+03;0.22614276;0.0;0.12220635;633.85614
  7.3999065E-01;  9.9999998E-03; -1.0000267E-01;2186;-0.012506265;0.0;-0.0056348895;1006.8289;  4.0283388E-01;5656.8105;3;-10.777863;0.0;-8.0033064;0;0.31600866;  9.9961113E+03;  0.0000000E+00;  6.7888216E-08;  1.0000000E+04;  0.0000000E+00;  9.9988057E+03;0.22238645;0.0;0.093622208;432.93512
  7.3999071E-01;  9.9999998E-03; -8.0001645E-02;2187;-0.012318394;0.0;-0.0035889831;1006.8463;  4.0283379E-01;5671.228;3;-10.504854;0.0;-5.3287654;0;0.29198363;  9.9961436E+03;  0.0000000E+00;  2.2168599E-08;  1.0000000E+04;  0.0000000E+00;  9.9991201E+03;0.21961881;0.0;0.072364829;309.15735
  7.3999077E-01;  9.9999998E-03; -6.0000945E-02;2188;-0.012201746;0.0;-0.0021546665;1006.8586;  4.0283379E-01;5681.3989;3;-10.325895;0.0;-3.3676322;0;0.27337015;  9.9961680E+03;  0.0000000E+00;  5.3404916E-09;  1.0000000E+04;  0.0000000E+00;  9.9993438E+03;0.21769221;0.0;0.055677921;224.0611
  7.3999083E-01;  9.9999998E-03; -4.0000498E-02;2189;-0.01213381;0.0;-0.0011941039;1006.8674;  4.0283385E-01;5688.7065;3;-10.21544;0.0;-1.9622068;0;0.25952259;  9.9961807E+03;  0.0000000E+00;  7.7529450E-10;  1.0000000E+04;  0.0000000E+00;  9.9995049E+03;0.21644987;0.0;0.043072719;163.69002
  7.3999083E-01;  9.9999998E-03; -2.0000212E-02;2190;-0.012098763;0.0;-0.00052956451;1006.8729;  4.0283388E-01;5693.249;3;-10.155482;0.0;-0.90283322;0;0.25085723;  9.9961895E+03;  0.0000000E+00; -3.8029756E-11;  1.0000000E+04;  0.0000000E+00;  9.9996045E+03;0.21576084;0.0;0.035096377;126.30324
  7.5999469E-01;  9.9999998E-03; -1.8001017E-01;2213;-0.0075234207;0.0;-0.019521156;1006.635;  4.0285388E-01;5495.873;3;-7.1238136;0.0;-24.610813;0;0.54783481;  9.9959150E+03;  0.0000000E+00;  3.9577678E-08;  1.0000000E+04;  0.0000000E+00;  9.9941563E+03;0.24346833;0.0;0.3043665;2438.5598
  7.5999492E-01;  9.9999998E-03; -1.6000783E-01;2214;-0.0071438998;0.0;-0.015560391;1006.7339;  4.0285382E-01;5577.8301;3;-6.6435232;0.0;-20.314262;0;0.46618056;  9.9960010E+03;  0.0000000E+00;  1.3651982E-07;  1.0000000E+04;  0.0000000E+00;  9.9960381E+03;0.23640031;0.0;0.22978024;1608.7317
  7.5999504E-01;  9.9999998E-03; -1.4000596E-01;2215;-0.0068212533;0.0;-0.012009612;1006.8058;  4.0285373E-01;5637.4712;3;-6.2243333;0.0;-16.034195;0;0.4003633;  9.9960791E+03;  0.0000000E+00;  1.3066098E-07;  1.0000000E+04;  0.0000000E+00;  9.9973975E+03;0.23020551;0.0;0.17015779;1020.0523
  7.5999522E-01;  9.9999998E-03; -1.2000423E-01;2216;-0.0065707248;0.0;-0.0086922916;1006.8514;  4.0285370E-01;5675.1909;3;-5.8889294;0.0;-11.923794;0;0.35288543;  9.9961406E+03;  0.0000000E+00;  7.9234184E-08;  1.0000000E+04;  0.0000000E+00;  9.9982422E+03;0.22508863;0.0;0.1277968;661.51086
  7.5999528E-01;  9.9999998E-03; -1.0000280E-01;2217;-0.0063917427;0.0;-0.005894484;1006.8795;  4.0285367E-01;5698.396;3;-5.6402969;0.0;-8.3758984;0;0.31920683;  9.9961875E+03;  0.0000000E+00;  3.6135770E-08;  1.0000000E+04;  0.0000000E+00;  9.9987500E+03;0.22109839;0.0;0.098108448;453.16708
  7.5999534E-01;  9.9999998E-03; -8.0001719E-02;2218;-0.0062728627;0.0;-0.0037561043;1006.8976;  4.0285367E-01;5713.5034;3;-5.467144;0.0;-5.5814915;0;0.29405701;  9.9962217E+03;  0.0000000E+00;  1.2475414E-08;  1.0000000E+04;  0.0000000E+00;  9.9990791E+03;0.21815997;0.0;0.075897045;324.26654
  7.5999540E-01;  9.9999998E-03; -6.0000986E-02;2219;-0.006198437;0.0;-0.002256263;1006.9105;  4.0285367E-01;5724.168;3;-5.3523068;0.0;-3.530617;0;0.27448687;  9.9962461E+03;  0.0000000E+00;  3.3256222E-09;  1.0000000E+04;  0.0000000E+00;  9.9993135E+03;0.21612139;0.0;0.058365487;235.17252
  7.5999540E-01;  9.9999998E-03; -4.0000521E-02;2220;-0.0061545847;0.0;-0.0012512646;1006.9199;  4.0285367E-01;5731.8701;3;-5.2803617;0.0;-2.0592;0;0.2598882;  9.9962598E+03;  0.0000000E+00;  4.0367118E-10;  1.0000000E+04;  0.0000000E+00;  9.9994834E+03;0.21481355;0.0;0.04507466;171.7041
  7.5999540E-01;  9.9999998E-03; -2.0000223E-02;2221;-0.0061316793;0.0;-0.00055520487;1006.9256;  4.0285367E-01;5736.6099;3;-5.2407875;0.0;-0.94815987;0;0.25074017;  9.9962695E+03;  0.0000000E+00;  5.1185989E-11;  1.0000000E+04;  0.0000000E+00;  9.9995889E+03;0.21409209;0.0;0.03664808;132.30855
  7.7999836E-01;  9.9999998E-03; -1.8001038E-01;2244;-0.0024529409;0.0;-0.019895565;1006.6647;  4.0286118E-01;5520.1875;3;-2.5285428;0.0;-25.070147;0;0.53624952;  9.9962441E+03;  0.0000000E+00;  6.3204233E-08;  1.0000000E+04;  0.0000000E+00;  9.9940566E+03;0.22660986;0.0;0.30963969;2479.9995
  7.7999848E-01;  9.9999998E-03; -1.6000801E-01;2245;-0.0022962929;0.0;-0.015900031;1006.7649;  4.0286115E-01;5603.1265;3;-2.3344896;0.0;-20.747187;0;0.45394719;  9.9963271E+03;  0.0000000E+00;  6.6369147E-08;  1.0000000E+04;  0.0000000E+00;  9.9959658E+03;0.21982734;0.0;0.23411985;1637.6616
  7.7999854E-01;  9.9999998E-03; -1.4000610E-01;2246;-0.0021557517;0.0;-0.012289643;1006.8376;  4.0286109E-01;5663.356;3;-2.1542549;0.0;-16.40321;0;0.38757384;  9.9964004E+03;  0.0000000E+00;  4.7798650E-08;  1.0000000E+04;  0.0000000E+00;  9.9973428E+03;0.2137841;0.0;0.17378974;1040.6683
  7.7999860E-01;  9.9999998E-03; -1.2000433E-01;2247;-0.0020438754;0.0;-0.0089021539;1006.8839;  4.0286106E-01;5701.666;3;-2.0055671;0.0;-12.210851;0;0.3396396;  9.9964609E+03;  0.0000000E+00;  2.6394762E-08;  1.0000000E+04;  0.0000000E+00;  9.9982021E+03;0.20875224;0.0;0.13088736;677.11206
  7.7999860E-01;  9.9999998E-03; -1.0000286E-01;2248;-0.0019630902;0.0;-0.0060395179;1006.9122;  4.0286103E-01;5725.0669;3;-1.8934883;0.0;-8.5836983;0;0.30553156;  9.9965098E+03;  0.0000000E+00;  1.1700354E-08;  1.0000000E+04;  0.0000000E+00;  9.9987178E+03;0.20481886;0.0;0.10071272;465.51559
  7.7999866E-01;  9.9999998E-03; -8.0001757E-02;2249;-0.0019089538;0.0;-0.0038500903;1006.9307;  4.0286097E-01;5740.4697;3;-1.8141749;0.0;-5.7240915;0;0.2799376;  9.9965430E+03;  0.0000000E+00;  4.1361568E-09;  1.0000000E+04;  0.0000000E+00;  9.9990537E+03;0.20192419;0.0;0.078013405;334.077
  7.7999866E-01;  9.9999998E-03; -6.0001012E-02;2250;-0.001874528;0.0;-0.0023140686;1006.9439;  4.0286094E-01;5751.4297;3;-1.7603354;0.0;-3.6241267;0;0.25993127;  9.9965654E+03;  0.0000000E+00;  1.0861017E-09;  1.0000000E+04;  0.0000000E+00;  9.9992939E+03;0.19992192;0.0;0.060009334;242.78949
  7.7999866E-01;  9.9999998E-03; -4.0000536E-02;2251;-0.001853717;0.0;-0.0012842932;1006.9534;  4.0286097E-01;5759.2295;3;-1.7254883;0.0;-2.1158831;0;0.24496154;  9.9965791E+03;  0.0000000E+00;  2.5293043E-10;  1.0000000E+04;  0.0000000E+00;  9.9994697E+03;0.19864282;0.0;0.046318721;177.53242
  7.7999866E-01;  9.9999998E-03; -2.0000229E-02;2252;-0.0018425588;0.0;-0.00057026604;1006.9593;  4.0286097E-01;5764.1665;3;-1.7057469;0.0;-0.97507674;0;0.23556575;  9.9965889E+03;  0.0000000E+00; -4.5174363E-12;  1.0000000E+04;  0.0000000E+00;  9.9995781E+03;0.19794051;0.0;0.037625231;136.95366
  8.0000126E-01;  9.9999998E-03; -1.8001041E-01;2275;0.0015595298;0.0;-0.01996891;1006.6885;  4.0286276E-01;5539.4312;3;1.1691202;0.0;-25.149803;0;0.51396596;  9.9966543E+03;  0.0000000E+00; -1.5833031E-08;  1.0000000E+04;  0.0000000E+00;  9.9940410E+03;0.20370893;0.0;0.31025705;2483.7346
  8.0000120E-01;  9.9999998E-03; -1.6000806E-01;2276;0.0015228682;0.0;-0.015983235;1006.7885;  4.0286273E-01;5622.165;3;1.1171848;0.0;-20.846319;0;0.43221974;  9.9967314E+03;  0.0000000E+00; -5.5491980E-09;  1.0000000E+04;  0.0000000E+00;  9.9959551E+03;0.19738989;0.0;0.23482987;1641.4301
  8.0000120E-01;  9.9999998E-03; -1.4000614E-01;2277;0.0015021659;0.0;-0.012365159;1006.8611;  4.0286267E-01;5682.2905;3;1.0871801;0.0;-16.49861;0;0.36634767;  9.9968008E+03;  0.0000000E+00;  5.2470128E-10;  1.0000000E+04;  0.0000000E+00;  9.9973320E+03;0.19171427;0.0;0.17463341;1044.9436
  8.0000120E-01;  9.9999998E-03; -1.2000436E-01;2278;0.0014899763;0.0;-0.0089608254;1006.9071;  4.0286255E-01;5720.3994;3;1.0694734;0.0;-12.289173;0;0.31878239;  9.9968564E+03;  0.0000000E+00;  1.5023659E-09;  1.0000000E+04;  0.0000000E+00;  9.9981904E+03;0.18697104;0.0;0.13181134;681.77716
  8.0000120E-01;  9.9999998E-03; -1.0000288E-01;2279;0.0014823914;0.0;-0.0060807369;1006.9352;  4.0286252E-01;5743.6992;3;1.0588362;0.0;-8.6424561;0;0.28487444;  9.9968994E+03;  0.0000000E+00;  8.3470192E-10;  1.0000000E+04;  0.0000000E+00;  9.9987070E+03;0.18325855;0.0;0.10161589;470.15903
  8.0000120E-01;  9.9999998E-03; -8.0001771E-02;2280;0.0014779795;0.0;-0.0038774631;1006.9537;  4.0286252E-01;5759.002;3;1.053275;0.0;-5.7663417;0;0.25933349;  9.9969326E+03;  0.0000000E+00;  2.9516875E-10;  1.0000000E+04;  0.0000000E+00;  9.9990449E+03;0.18052594;0.0;0.078807563;338.31018
  8.0000120E-01;  9.9999998E-03; -6.0001019E-02;2281;0.0014760103;0.0;-0.0023316734;1006.967;  4.0286261E-01;5769.9609;3;1.0515304;0.0;-3.6536601;0;0.23928899;  9.9969541E+03;  0.0000000E+00;  9.0992568E-11;  1.0000000E+04;  0.0000000E+00;  9.9992881E+03;0.17863733;0.0;0.06065166;246.41106
  8.0000120E-01;  9.9999998E-03; -4.0000539E-02;2282;0.0014756063;0.0;-0.0012949775;1006.9766;  4.0286258E-01;5777.958;3;1.0520251;0.0;-2.1350384;0;0.22424841;  9.9969678E+03;  0.0000000E+00;  2.7333571E-11;  1.0000000E+04;  0.0000000E+00;  9.9994639E+03;0.17743319;0.0;0.04681522;180.55415
  8.0000120E-01;  9.9999998E-03; -2.0000231E-02;2283;0.0014758556;0.0;-0.0005753765;1006.9825;  4.0286246E-01;5782.7954;3;1.0531667;0.0;-0.98458028;0;0.214793;  9.9969756E+03;  0.0000000E+00;  6.4248164E-12;  1.0000000E+04;  0.0000000E+00;  9.9995732E+03;0.17677329;0.0;0.038019709;139.55261
  8.2000387E-01;  9.9999998E-03; -1.8001032E-01;2306;0.0052423114;0.0;-0.019782528;1006.7037;  4.0285999E-01;5551.1904;3;4.5833955;0.0;-24.905441;0;0.48875326;  9.9970332E+03;  0.0000000E+00; -1.1411286E-07;  1.0000000E+04;  0.0000000E+00;  9.9941006E+03;0.18163635;0.0;0.3071169;2455.7837
  8.2000375E-01;  9.9999998E-03; -1.6000798E-01;2307;0.005033385;0.0;-0.015842324;1006.8022;  4.0285993E-01;5632.8286;3;4.3127146;0.0;-20.656326;0;0.40835777;  9.9971035E+03;  0.0000000E+00; -4.4946944E-08;  1.0000000E+04;  0.0000000E+00;  9.9959941E+03;0.17579331;0.0;0.23256446;1623.7394
  8.2000369E-01;  9.9999998E-03; -1.4000608E-01;2308;0.0048686848;0.0;-0.012260799;1006.8738;  4.0285987E-01;5692.1567;3;4.0954881;0.0;-16.355129;0;0.34366691;  9.9971670E+03;  0.0000000E+00; -7.2510105E-09;  1.0000000E+04;  0.0000000E+00;  9.9973574E+03;0.17053375;0.0;0.17313315;1034.895
  8.2000363E-01;  9.9999998E-03; -1.2000433E-01;2309;0.0047459062;0.0;-0.0088862181;1006.9191;  4.0285981E-01;5729.5698;3;3.9297369;0.0;-12.184458;0;0.29699713;  9.9972188E+03;  0.0000000E+00;  1.4929809E-09;  1.0000000E+04;  0.0000000E+00;  9.9982031E+03;0.16613543;0.0;0.13086171;676.48682
  8.2000357E-01;  9.9999998E-03; -1.0000286E-01;2310;0.004659628;0.0;-0.0060302997;1006.9469;  4.0285978E-01;5752.6694;3;3.8099952;0.0;-8.5700178;0;0.26370141;  9.9972598E+03;  0.0000000E+00;  1.3269448E-09;  1.0000000E+04;  0.0000000E+00;  9.9987168E+03;0.16268922;0.0;0.10101218;467.5087
  8.2000357E-01;  9.9999998E-03; -8.0001757E-02;2311;0.0046029878;0.0;-0.0038458204;1006.9651;  4.0285978E-01;5767.7729;3;3.7286987;0.0;-5.7197471;0;0.23855627;  9.9972900E+03;  0.0000000E+00;  5.8873073E-10;  1.0000000E+04;  0.0000000E+00;  9.9990498E+03;0.16014753;0.0;0.078408726;337.06589
  8.2000351E-01;  9.9999998E-03; -6.0001012E-02;2312;0.0045683482;0.0;-0.0023134283;1006.9783;  4.0285978E-01;5778.6318;3;3.6769209;0.0;-3.6260567;0;0.21876232;  9.9973096E+03;  0.0000000E+00;  8.0047746E-11;  1.0000000E+04;  0.0000000E+00;  9.9992900E+03;0.15838686;0.0;0.060375463;245.94887
  8.2000351E-01;  9.9999998E-03; -4.0000536E-02;2313;0.0045487396;0.0;-0.0012855105;1006.9877;  4.0285978E-01;5786.4307;3;3.6462791;0.0;-2.1203468;0;0.20387557;  9.9973232E+03;  0.0000000E+00;  5.2887323E-11;  1.0000000E+04;  0.0000000E+00;  9.9994658E+03;0.15726139;0.0;0.046614181;180.55634
  8.2000351E-01;  9.9999998E-03; -2.0000229E-02;2314;0.004539012;0.0;-0.00057148183;1006.9936;  4.0285975E-01;5791.2676;3;3.6304333;0.0;-0.97838736;0;0.19450423;  9.9973301E+03;  0.0000000E+00;  2.5492389E-11;  1.0000000E+04;  0.0000000E+00;  9.9995752E+03;0.15664309;0.0;0.037861131;139.81616
  8.4000653E-01;  9.9999998E-03; -1.8001010E-01;2337;0.0089788213;0.0;-0.019355791;1006.6108;  4.0281385E-01;5473.3853;3;8.031353;0.0;-24.365938;0;0.46274298;  9.9973564E+03;  0.0000000E+00; -2.2533338E-07;  1.0000000E+04;  0.0000000E+00;  9.9942266E+03;0.16211425;0.0;0.30062875;2398.8508
  8.4000635E-01;  9.9999998E-03; -1.6000782E-01;2338;0.0086116465;0.0;-0.015502119;1006.7073;  4.0281373E-01;5553.332;3;7.558908;0.0;-20.210707;0;0.38430119;  9.9974219E+03;  0.0000000E+00; -7.0222200E-08;  1.0000000E+04;  0.0000000E+00;  9.9960791E+03;0.15664643;0.0;0.22765474;1586.3735
  8.4000617E-01;  9.9999998E-03; -1.4000596E-01;2339;0.0083163735;0.0;-0.011998048;1006.777;  4.0281361E-01;5610.9727;3;7.1716943;0.0;-16.002352;0;0.32129064;  9.9974824E+03;  0.0000000E+00;  7.8344478E-09;  1.0000000E+04;  0.0000000E+00;  9.9974092E+03;0.15173781;0.0;0.16955283;1011.7044
  8.4000611E-01;  9.9999998E-03; -1.2000423E-01;2340;0.0080943704;0.0;-0.0086948751;1006.8211;  4.0281361E-01;5647.5903;3;6.8731008;0.0;-11.920237;0;0.27589297;  9.9975313E+03;  0.0000000E+00;  1.5485222E-08;  1.0000000E+04;  0.0000000E+00;  9.9982393E+03;0.14764145;0.0;0.12825154;662.06818
  8.4000599E-01;  9.9999998E-03; -1.0000280E-01;2341;0.0079378709;0.0;-0.0058997083;1006.8482;  4.0281355E-01;5669.9951;3;6.6560345;0.0;-8.3833551;0;0.24350411;  9.9975703E+03;  0.0000000E+00;  8.1929059E-09;  1.0000000E+04;  0.0000000E+00;  9.9987422E+03;0.14443061;0.0;0.099073492;458.17819
  8.4000599E-01;  9.9999998E-03; -8.0001719E-02;2342;0.0078345882;0.0;-0.0037624321;1006.866;  4.0281358E-01;5684.7012;3;6.5070548;0.0;-5.5954399;0;0.21900681;  9.9975977E+03;  0.0000000E+00;  2.9904166E-09;  1.0000000E+04;  0.0000000E+00;  9.9990674E+03;0.14205514;0.0;0.076951675;330.8031
  8.4000593E-01;  9.9999998E-03; -6.0000990E-02;2343;0.0077706883;0.0;-0.0022636163;1006.8788;  4.0281355E-01;5695.2622;3;6.4104605;0.0;-3.5481701;0;0.19968294;  9.9976152E+03;  0.0000000E+00;  6.3478861E-10;  1.0000000E+04;  0.0000000E+00;  9.9993018E+03;0.14040019;0.0;0.059282754;241.73378
  8.4000593E-01;  9.9999998E-03; -4.0000524E-02;2344;0.0077337944;0.0;-0.0012582071;1006.8881;  4.0281352E-01;5703.0596;3;6.3517871;0.0;-2.0756195;0;0.18512571;  9.9976289E+03;  0.0000000E+00;  9.8963122E-11;  1.0000000E+04;  0.0000000E+00;  9.9994746E+03;0.1393345;0.0;0.045791201;177.76756
  8.4000593E-01;  9.9999998E-03; -2.0000223E-02;2345;0.0077150064;0.0;-0.00055950758;1006.8939;  4.0281352E-01;5707.7969;3;6.320498;0.0;-0.95809221;0;0.17595288;  9.9976348E+03;  0.0000000E+00; -1.6825945E-11;  1.0000000E+04;  0.0000000E+00;  9.9995830E+03;0.13874508;0.0;0.037207793;137.90573
  8.6000925E-01;  9.9999998E-03; -1.8000975E-01;2368;0.012751917;0.0;-0.018704642;1006.4083;  4.0272287E-01;5304.6099;3;11.489947;0.0;-23.550249;0;0.43395633;  9.9976641E+03;  0.0000000E+00; -3.6587633E-07;  1.0000000E+04;  0.0000000E+00;  9.9944121E+03;0.14302629;0.0;0.29093003;2314.0352
  8.6000896E-01;  9.9999998E-03; -1.6000755E-01;2369;0.012238237;0.0;-0.014980872;1006.5016;  4.0272272E-01;5381.874;3;10.829495;0.0;-19.532534;0;0.35802665;  9.9977305E+03;  0.0000000E+00; -1.0100290E-07;  1.0000000E+04;  0.0000000E+00;  9.9962061E+03;0.13778067;0.0;0.22024599;1530.2236
  8.6000878E-01;  9.9999998E-03; -1.4000575E-01;2370;0.011824236;0.0;-0.011593728;1006.5691;  4.0272266E-01;5437.7256;3;10.287194;0.0;-15.462616;0;0.29716352;  9.9977881E+03;  0.0000000E+00;  2.7210186E-08;  1.0000000E+04;  0.0000000E+00;  9.9974951E+03;0.13311484;0.0;0.16404867;976.20587
  8.6000860E-01;  9.9999998E-03; -1.2000409E-01;2371;0.011513227;0.0;-0.0084001133;1006.6119;  4.0272269E-01;5473.1509;3;9.8692904;0.0;-11.514864;0;0.25338575;  9.9978359E+03;  0.0000000E+00;  3.1826762E-08;  1.0000000E+04;  0.0000000E+00;  9.9982969E+03;0.12924576;0.0;0.12413999;639.34125
  8.6000854E-01;  9.9999998E-03; -1.0000270E-01;2372;0.011294086;0.0;-0.0056982948;1006.638;  4.0272263E-01;5494.7612;3;9.5653124;0.0;-8.0958929;0;0.22217041;  9.9978701E+03;  0.0000000E+00;  1.5443621E-08;  1.0000000E+04;  0.0000000E+00;  9.9987793E+03;0.12621978;0.0;0.095950641;442.95099
  8.6000848E-01;  9.9999998E-03; -8.0001660E-02;2373;0.011149313;0.0;-0.0036332731;1006.6552;  4.0272266E-01;5508.9707;3;9.3561888;0.0;-5.4024673;0;0.19854484;  9.9978994E+03;  0.0000000E+00;  4.9836517E-09;  1.0000000E+04;  0.0000000E+00;  9.9990967E+03;0.1239754;0.0;0.074569441;320.23544
  8.6000842E-01;  9.9999998E-03; -6.0000956E-02;2374;0.011059364;0.0;-0.0021857503;1006.6675;  4.0272260E-01;5519.1348;3;9.2196646;0.0;-3.4256349;0;0.17988592;  9.9979170E+03;  0.0000000E+00;  1.0904875E-09;  1.0000000E+04;  0.0000000E+00;  9.9993223E+03;0.12240081;0.0;0.057485107;234.39255
  8.6000836E-01;  9.9999998E-03; -4.0000506E-02;2375;0.01100705;0.0;-0.0012149889;1006.6765;  4.0272260E-01;5526.6343;3;9.1359787;0.0;-2.0041225;0;0.1658159;  9.9979287E+03;  0.0000000E+00;  1.1256918E-10;  1.0000000E+04;  0.0000000E+00;  9.9994902E+03;0.12137703;0.0;0.044438876;172.73579
  8.6000836E-01;  9.9999998E-03; -2.0000216E-02;2376;0.010980167;0.0;-0.00054034666;1006.6821;  4.0272257E-01;5531.1733;3;9.0909576;0.0;-0.92523271;0;0.15694532;  9.9979355E+03;  0.0000000E+00; -1.4980219E-12;  1.0000000E+04;  0.0000000E+00;  9.9995947E+03;0.1208055;0.0;0.036139823;134.31699
  8.8001180E-01;  9.9999998E-03; -1.8000931E-01;2399;0.016316317;0.0;-0.017846391;1006.1122;  4.0259236E-01;5057.9717;3;14.744509;0.0;-22.478014;0;0.39943963;  9.9980127E+03;  0.0000000E+00; -5.3648347E-07;  1.0000000E+04;  0.0000000E+00;  9.9946602E+03;0.12129094;0.0;0.27814871;2202.6433
  8.8001150E-01;  9.9999998E-03; -1.6000721E-01;2400;0.015670044;0.0;-0.014296135;1006.2017;  4.0259224E-01;5131.9585;3;13.912897;0.0;-18.643457;0;0.32660326;  9.9980791E+03;  0.0000000E+00; -1.5244949E-07;  1.0000000E+04;  0.0000000E+00;  9.9963740E+03;0.11612812;0.0;0.21047515;1456.3636
  8.8001120E-01;  9.9999998E-03; -1.4000550E-01;2401;0.015150391;0.0;-0.011063444;1006.2662;  4.0259224E-01;5185.3271;3;13.232154;0.0;-14.756099;0;0.26839408;  9.9981377E+03;  0.0000000E+00;  3.5345980E-08;  1.0000000E+04;  0.0000000E+00;  9.9976045E+03;0.11162452;0.0;0.15676956;929.38025
  8.8001102E-01;  9.9999998E-03; -1.2000390E-01;2402;0.014761037;0.0;-0.0080141053;1006.307;  4.0259221E-01;5219.1631;3;12.708967;0.0;-10.984748;0;0.22662322;  9.9981816E+03;  0.0000000E+00;  3.9721957E-08;  1.0000000E+04;  0.0000000E+00;  9.9983711E+03;0.10794158;0.0;0.11868164;609.24353
  8.8001090E-01;  9.9999998E-03; -1.0000258E-01;2403;0.014487161;0.0;-0.0054345899;1006.332;  4.0259212E-01;5239.8794;3;12.32898;0.0;-7.7196193;0;0.1968756;  9.9982178E+03;  0.0000000E+00;  1.7119634E-08;  1.0000000E+04;  0.0000000E+00;  9.9988320E+03;0.10508259;0.0;0.091793008;422.71472
  8.8001078E-01;  9.9999998E-03; -8.0001585E-02;2404;0.014306244;0.0;-0.0034638566;1006.3484;  4.0259221E-01;5253.394;3;12.067391;0.0;-5.1490016;0;0.1743615;  9.9982432E+03;  0.0000000E+00;  3.6293799E-09;  1.0000000E+04;  0.0000000E+00;  9.9991348E+03;0.10296381;0.0;0.071397685;306.17767
  8.8001078E-01;  9.9999998E-03; -6.0000911E-02;2405;0.014193626;0.0;-0.002083156;1006.3602;  4.0259221E-01;5263.1602;3;11.896152;0.0;-3.2636857;0;0.15657143;  9.9982607E+03;  0.0000000E+00; -6.1117923E-11;  1.0000000E+04;  0.0000000E+00;  9.9993516E+03;0.10146992;0.0;0.055101518;224.65961
  8.8001072E-01;  9.9999998E-03; -4.0000480E-02;2406;0.014127929;0.0;-0.0011577168;1006.3687;  4.0259218E-01;5270.2627;3;11.79075;0.0;-1.9089285;0;0.14315204;  9.9982734E+03;  0.0000000E+00;  2.4376026E-10;  1.0000000E+04;  0.0000000E+00;  9.9995107E+03;0.10049058;0.0;0.042661466;166.1259
  8.8001072E-01;  9.9999998E-03; -2.0000206E-02;2407;0.014094029;0.0;-0.0005148247;1006.374;  4.0259215E-01;5274.6035;3;11.733775;0.0;-0.88116014;0;0.13469097;  9.9982793E+03;  0.0000000E+00;  4.7688346E-11;  1.0000000E+04;  0.0000000E+00;  9.9996084E+03;0.099939227;0.0;0.034751747;129.66927
  9.0001404E-01;  9.9999998E-03; -1.8000875E-01;2430;0.019378021;0.0;-0.016805379;1005.7409;  4.0242940E-01;4748.7568;3;17.541168;0.0;-21.177767;0;0.35806525;  9.9984307E+03;  0.0000000E+00; -7.4960178E-07;  1.0000000E+04;  0.0000000E+00;  9.9949590E+03;0.095487311;0.0;0.26257795;2067.3015
  9.0001363E-01;  9.9999998E-03; -1.6000679E-01;2431;0.018615814;0.0;-0.013469085;1005.8256;  4.0242928E-01;4818.8667;3;16.559698;0.0;-17.569729;0;0.28893584;  9.9984980E+03;  0.0000000E+00; -2.2152189E-07;  1.0000000E+04;  0.0000000E+00;  9.9965801E+03;0.090345137;0.0;0.1985907;1366.7085
  9.0001333E-01;  9.9999998E-03; -1.4000517E-01;2432;0.018003987;0.0;-0.010424836;1005.8868;  4.0242931E-01;4869.4526;3;15.757301;0.0;-13.90538;0;0.23394126;  9.9985547E+03;  0.0000000E+00;  2.5738400E-08;  1.0000000E+04;  0.0000000E+00;  9.9977402E+03;0.086010374;0.0;0.14793089;872.64807
  9.0001309E-01;  9.9999998E-03; -1.2000368E-01;2433;0.017545203;0.0;-0.0075503895;1005.9252;  4.0242928E-01;4901.2046;3;15.140585;0.0;-10.347893;0;0.19462143;  9.9985986E+03;  0.0000000E+00;  3.4707959E-08;  1.0000000E+04;  0.0000000E+00;  9.9984600E+03;0.082554743;0.0;0.11206669;572.89209
  9.0001291E-01;  9.9999998E-03; -1.0000243E-01;2434;0.017221585;0.0;-0.0051182867;1005.9488;  4.0242919E-01;4920.7285;3;14.690664;0.0;-7.2679071;0;0.16668466;  9.9986328E+03;  0.0000000E+00;  9.8145216E-09;  1.0000000E+04;  0.0000000E+00;  9.9988975E+03;0.079916634;0.0;0.086768024;398.39404
  9.0001285E-01;  9.9999998E-03; -8.0001488E-02;2435;0.01700671;0.0;-0.003260917;1005.9641;  4.0242922E-01;4933.4492;3;14.379827;0.0;-4.8446569;0;0.14555997;  9.9986582E+03;  0.0000000E+00; -1.3839710E-09;  1.0000000E+04;  0.0000000E+00;  9.9991797E+03;0.077977687;0.0;0.067582287;289.41599
  9.0001279E-01;  9.9999998E-03; -6.0000855E-02;2436;0.016872304;0.0;-0.0019605434;1005.9753;  4.0242922E-01;4942.6196;3;14.175276;0.0;-3.0692959;0;0.12887061;  9.9986748E+03;  0.0000000E+00; -2.0331525E-09;  1.0000000E+04;  0.0000000E+00;  9.9993848E+03;0.076612666;0.0;0.05225794;213.21007
  9.0001273E-01;  9.9999998E-03; -4.0000454E-02;2437;0.016793532;0.0;-0.0010894564;1005.9833;  4.0242922E-01;4949.2266;3;14.049127;0.0;-1.7947249;0;0.11628406;  9.9986865E+03;  0.0000000E+00; -6.9730993E-10;  1.0000000E+04;  0.0000000E+00;  9.9995322E+03;0.075715519;0.0;0.040568545;158.5274
  9.0001273E-01;  9.9999998E-03; -2.0000193E-02;2438;0.016752385;0.0;-0.00048437744;1005.9882;  4.0242925E-01;4953.3677;3;13.97995;0.0;-0.82818478;0;0.10835121;  9.9986924E+03;  0.0000000E+00;  5.9386294E-11;  1.0000000E+04;  0.0000000E+00;  9.9996260E+03;0.075208671;0.0;0.033142537;124.49766
  9.2001557E-01;  9.9999998E-03; -1.8000814E-01;2461;0.021464175;0.0;-0.015630331;1005.3141;  4.0224227E-01;4393.3364;3;19.40048;0.0;-19.69961;0;0.31160682;  9.9988965E+03;  0.0000000E+00; -9.0136342E-07;  1.0000000E+04;  0.0000000E+00;  9.9953037E+03;0.0668706;0.0;0.24473624;1912.3256
  9.2001504E-01;  9.9999998E-03; -1.6000633E-01;2462;0.020511828;0.0;-0.012542712;1005.3936;  4.0224224E-01;4458.9731;3;18.182238;0.0;-16.353725;0;0.2468031;  9.9989658E+03;  0.0000000E+00; -2.7872659E-07;  1.0000000E+04;  0.0000000E+00;  9.9968135E+03;0.061803222;0.0;0.18499988;1264.2354
  9.2001468E-01;  9.9999998E-03; -1.4000483E-01;2463;0.019760363;0.0;-0.0097142719;1005.4504;  4.0224221E-01;4506.082;3;17.208218;0.0;-12.947622;0;0.19559991;  9.9990215E+03;  0.0000000E+00;  5.1085420E-09;  1.0000000E+04;  0.0000000E+00;  9.9978945E+03;0.057753999;0.0;0.13784592;807.97644
  9.2001438E-01;  9.9999998E-03; -1.2000344E-01;2464;0.01918998;0.0;-0.0070441309;1005.4861;  4.0224212E-01;4535.5493;3;16.458597;0.0;-9.636961;0;0.1592017;  9.9990635E+03;  0.0000000E+00;  1.8401455E-08;  1.0000000E+04;  0.0000000E+00;  9.9985654E+03;0.054662533;0.0;0.10453916;531.60608
  9.2001420E-01;  9.9999998E-03; -1.0000228E-01;2465;0.01876408;0.0;-0.0047918139;1005.508;  4.0224212E-01;4553.585;3;15.872731;0.0;-6.7838998;0;0.13345094;  9.9990928E+03;  0.0000000E+00; -3.4298644E-09;  1.0000000E+04;  0.0000000E+00;  9.9989688E+03;0.052379388;0.0;0.081071556;370.92227
  9.2001402E-01;  9.9999998E-03; -8.0001414E-02;2466;0.01845997;0.0;-0.0030712716;1005.5221;  4.0224212E-01;4565.3135;3;15.442609;0.0;-4.5406299;0;0.11402355;  9.9991143E+03;  0.0000000E+00; -6.9945045E-09;  1.0000000E+04;  0.0000000E+00;  9.9992295E+03;0.050740685;0.0;0.063282862;270.64304
  9.2001396E-01;  9.9999998E-03; -6.0000822E-02;2467;0.018253528;0.0;-0.0018648196;1005.5324;  4.0224215E-01;4573.7891;3;15.148129;0.0;-2.8944719;0;0.098689146;  9.9991289E+03;  0.0000000E+00; -3.1220520E-09;  1.0000000E+04;  0.0000000E+00;  9.9994199E+03;0.049604833;0.0;0.049084313;200.56668
  9.2001390E-01;  9.9999998E-03; -4.0000442E-02;2468;0.018122556;0.0;-0.0010492888;1005.5397;  4.0224215E-01;4579.8008;3;14.947909;0.0;-1.7051172;0;0.087132141;  9.9991387E+03;  0.0000000E+00; -6.1351108E-10;  1.0000000E+04;  0.0000000E+00;  9.9995576E+03;0.048865456;0.0;0.038266685;150.33751
  9.2001384E-01;  9.9999998E-03; -2.0000193E-02;2469;0.018054942;0.0;-0.00047300872;1005.5443;  4.0224209E-01;4583.6445;3;14.841076;0.0;-0.79256696;0;0.079853475;  9.9991426E+03;  0.0000000E+00;  1.4772550E-10;  1.0000000E+04;  0.0000000E+00;  9.9996436E+03;0.048450168;0.0;0.031403311;119.11842
  9.4001609E-01;  9.9999998E-03; -1.8000753E-01;2492;0.022061121;0.0;-0.0144017;1004.8508;  4.0204009E-01;4007.303;3;19.824301;0.0;-18.117287;0;0.26401132;  9.9993623E+03;  0.0000000E+00; -9.2051800E-07;  1.0000000E+04;  0.0000000E+00;  9.9956768E+03;0.038660098;0.0;0.22535123;1743.6041
  9.4001549E-01;  9.9999998E-03; -1.6000587E-01;2493;0.020955496;0.0;-0.011577344;1004.9241;  4.0204003E-01;4067.9678;3;18.474211;0.0;-15.045958;0;0.20404096;  9.9994346E+03;  0.0000000E+00; -2.7111273E-07;  1.0000000E+04;  0.0000000E+00;  9.9970684E+03;0.033783436;0.0;0.17025752;1152.9191
  9.4001502E-01;  9.9999998E-03; -1.4000449E-01;2494;0.020108148;0.0;-0.0089783007;1004.9766;  4.0204000E-01;4111.2012;3;17.413136;0.0;-11.921548;0;0.15709798;  9.9994844E+03;  0.0000000E+00; -9.2244408E-09;  1.0000000E+04;  0.0000000E+00;  9.9980625E+03;0.030177578;0.0;0.1269204;737.85889
  9.4001466E-01;  9.9999998E-03; -1.2000320E-01;2495;0.019462258;0.0;-0.0065306467;1005.0092;  4.0203997E-01;4138.1851;3;16.597614;0.0;-8.8844872;0;0.12400842;  9.9995215E+03;  0.0000000E+00; -6.8954376E-10;  1.0000000E+04;  0.0000000E+00;  9.9986758E+03;0.027612571;0.0;0.09639585;486.91275
  9.4001442E-01;  9.9999998E-03; -1.0000215E-01;2496;0.018974844;0.0;-0.0044723651;1005.0291;  4.0203995E-01;4154.6313;3;15.963662;0.0;-6.2815094;0;0.10075888;  9.9995459E+03;  0.0000000E+00; -1.5995049E-08;  1.0000000E+04;  0.0000000E+00;  9.9990469E+03;0.025832895;0.0;0.074925981;341.25174
  9.4001424E-01;  9.9999998E-03; -8.0001347E-02;2497;0.018621799;0.0;-0.0028996675;1005.0419;  4.0203997E-01;4165.1689;3;15.486903;0.0;-4.2361951;0;0.083290868;  9.9995625E+03;  0.0000000E+00; -1.1620517E-08;  1.0000000E+04;  0.0000000E+00;  9.9992852E+03;0.024622107;0.0;0.058668762;250.4633
  9.4001412E-01;  9.9999998E-03; -6.0000807E-02;2498;0.018380485;0.0;-0.0017893096;1005.0511;  4.0203995E-01;4172.8506;3;15.157022;0.0;-2.7226572;0;0.069527559;  9.9995732E+03;  0.0000000E+00; -3.2940979E-09;  1.0000000E+04;  0.0000000E+00;  9.9994580E+03;0.023819266;0.0;0.045708295;187.09618
  9.4001406E-01;  9.9999998E-03; -4.0000450E-02;2499;0.018226087;0.0;-0.0010256886;1005.0577;  4.0203992E-01;4178.2671;3;14.944252;0.0;-1.6139008;0;0.059165262;  9.9995801E+03;  0.0000000E+00;  1.4958617E-09;  1.0000000E+04;  0.0000000E+00;  9.9995859E+03;0.023315158;0.0;0.035850104;141.74628
  9.4001400E-01;  9.9999998E-03; -2.0000201E-02;2500;0.018142315;0.0;-0.00046780144;1005.0618;  4.0204000E-01;4181.7139;3;14.820802;0.0;-0.74683851;0;0.052644778;  9.9995840E+03;  0.0000000E+00;  5.8956567E-10;  1.0000000E+04;  0.0000000E+00;  9.9996611E+03;0.023039298;0.0;0.02960548;113.60464
  9.6001595E-01;  9.9999998E-03; -1.8000689E-01;2523;0.021892801;0.0;-0.013133613;1004.3693;  4.0183157E-01;3606.0559;3;19.668034;0.0;-16.470551;0;0.21954863;  9.9997715E+03;  0.0000000E+00; -7.3155309E-07;  1.0000000E+04;  0.0000000E+00;  9.9960596E+03;0.014255765;0.0;0.20529287;1568.12
  9.6001530E-01;  9.9999998E-03; -1.6000539E-01;2524;0.02074042;0.0;-0.010578191;1004.4366;  4.0183145E-01;3661.5447;3;18.299938;0.0;-13.695555;0;0.16462587;  9.9998428E+03;  0.0000000E+00; -1.8408437E-07;  1.0000000E+04;  0.0000000E+00;  9.9973291E+03;0.0096016796;0.0;0.15502419;1037.4956
  9.6001482E-01;  9.9999998E-03; -1.4000413E-01;2525;0.019856067;0.0;-0.0082138255;1004.4843;  4.0183148E-01;3700.8979;3;17.216476;0.0;-10.852658;0;0.12212862;  9.9998896E+03;  0.0000000E+00; -8.7417101E-10;  1.0000000E+04;  0.0000000E+00;  9.9982314E+03;0.0065014614;0.0;0.11562716;665.22668
  9.6001446E-01;  9.9999998E-03; -1.2000296E-01;2526;0.019180221;0.0;-0.005995898;1004.5136;  4.0183139E-01;3725.1003;3;16.353235;0.0;-8.1226664;0;0.092498563;  9.9999189E+03;  0.0000000E+00; -1.7328954E-08;  1.0000000E+04;  0.0000000E+00;  9.9987910E+03;0.0045297961;0.0;0.087968767;440.54031
  9.6001422E-01;  9.9999998E-03; -1.0000199E-01;2527;0.018684495;0.0;-0.0041253408;1004.5314;  4.0183145E-01;3739.7595;3;15.710797;0.0;-5.7563944;0;0.071878359;  9.9999375E+03;  0.0000000E+00; -2.6343763E-08;  1.0000000E+04;  0.0000000E+00;  9.9991240E+03;0.0033111856;0.0;0.068567172;310.38821
  9.6001405E-01;  9.9999998E-03; -8.0001272E-02;2528;0.018331936;0.0;-0.0026962203;1004.5428;  4.0183139E-01;3749.2051;3;15.252666;0.0;-3.889446;0;0.056483228;  9.9999463E+03;  0.0000000E+00; -1.4955605E-08;  1.0000000E+04;  0.0000000E+00;  9.9993408E+03;0.0025739816;0.0;0.053909246;229.44998
  9.6001393E-01;  9.9999998E-03; -6.0000774E-02;2529;0.018088941;0.0;-0.0016835076;1004.5509;  4.0183139E-01;3755.895;3;14.927979;0.0;-2.5106034;0;0.044388272;  9.9999551E+03;  0.0000000E+00; -2.7220770E-09;  1.0000000E+04;  0.0000000E+00;  9.9994961E+03;0.0021393704;0.0;0.042248901;173.0851
  9.6001387E-01;  9.9999998E-03; -4.0000435E-02;2530;0.017935487;0.0;-0.00097928138;1004.5568;  4.0183145E-01;3760.7158;3;14.712219;0.0;-1.5054172;0;0.035294913;  9.9999580E+03;  0.0000000E+00;  1.4772669E-09;  1.0000000E+04;  0.0000000E+00;  9.9996123E+03;0.0018962637;0.0;0.033398651;132.83446
  9.6001381E-01;  9.9999998E-03; -2.0000195E-02;2531;0.017854083;0.0;-0.00045360945;1004.5605;  4.0183139E-01;3763.7659;3;14.608657;0.0;-0.72632575;0;0.029578462;  9.9999590E+03;  0.0000000E+00;  6.6745193E-10;  1.0000000E+04;  0.0000000E+00;  9.9996816E+03;0.0017760937;0.0;0.027802369;107.9039
  9.8001558E-01;  9.9999998E-03; -1.8000625E-01;2554;0.021371355;0.0;-0.011860784;1003.8871;  4.0162471E-01;3203.7178;3;19.264324;0.0;-14.834615;0;0.18122463;  1.0000084E+04;  0.0000000E+00; -3.8550152E-07;  1.0000000E+04;  0.0000000E+00;  9.9964385E+03;-0.0042778165;0.0;0.18550244;1393.3613
  9.8001492E-01;  9.9999998E-03; -1.6000490E-01;2555;0.02019701;0.0;-0.0095748268;1003.9484;  4.0162468E-01;3254.2197;3;17.868292;0.0;-12.349103;0;0.13117339;  1.0000161E+04;  0.0000000E+00; -4.1438295E-08;  1.0000000E+04;  0.0000000E+00;  9.9975850E+03;-0.0088428762;0.0;0.14001626;923.12036
  9.8001444E-01;  9.9999998E-03; -1.4000376E-01;2556;0.019305054;0.0;-0.0074512917;1003.9915;  4.0162471E-01;3289.7871;3;16.768818;0.0;-9.816185;0;0.092925318;  1.0000205E+04;  0.0000000E+00; -1.0124742E-08;  1.0000000E+04;  0.0000000E+00;  9.9983994E+03;-0.011547876;0.0;0.1044732;593.30865
  9.8001409E-01;  9.9999998E-03; -1.2000271E-01;2557;0.018632591;0.0;-0.0054567903;1004.0179;  4.0162468E-01;3311.501;3;15.92987;0.0;-7.354897;0;0.066584684;  1.0000229E+04;  0.0000000E+00; -4.2530470E-08;  1.0000000E+04;  0.0000000E+00;  9.9989033E+03;-0.013018566;0.0;0.079603247;394.38754
  9.8001379E-01;  9.9999998E-03; -1.0000184E-01;2558;0.018146759;0.0;-0.0037790667;1004.0336;  4.0162459E-01;3324.4702;3;15.282008;0.0;-5.2285981;0;0.048471425;  1.0000241E+04;  0.0000000E+00; -3.8908762E-08;  1.0000000E+04;  0.0000000E+00;  9.9992021E+03;-0.013757829;0.0;0.062229253;279.4104
  9.8001367E-01;  9.9999998E-03; -8.0001190E-02;2559;0.01781925;0.0;-0.002493924;1004.0437;  4.0162462E-01;3332.822;3;14.854679;0.0;-3.5487292;0;0.035070993;  1.0000249E+04;  0.0000000E+00; -1.7400584E-08;  1.0000000E+04;  0.0000000E+00;  9.9993965E+03;-0.014093237;0.0;0.049164228;208.19464
  9.8001355E-01;  9.9999998E-03; -6.0000736E-02;2560;0.01760087;0.0;-0.0015788483;1004.0508;  4.0162456E-01;3338.717;3;14.557075;0.0;-2.3160715;0;0.024594482;  1.0000250E+04;  0.0000000E+00; -3.6048544E-09;  1.0000000E+04;  0.0000000E+00;  9.9995361E+03;-0.014218986;0.0;0.038813468;158.82237
  9.8001349E-01;  9.9999998E-03; -4.0000424E-02;2561;0.017467149;0.0;-0.00093137845;1004.0559;  4.0162459E-01;3342.8438;3;14.370758;0.0;-1.4158705;0;0.016735043;  1.0000251E+04;  0.0000000E+00;  2.2889544E-09;  1.0000000E+04;  0.0000000E+00;  9.9996367E+03;-0.014245746;0.0;0.03098079;123.69214
  9.8001343E-01;  9.9999998E-03; -2.0000191E-02;2562;0.017391581;0.0;-0.00042908304;1004.0591;  4.0162462E-01;3345.4966;3;14.246388;0.0;-0.66212648;0;0.011800142;  1.0000252E+04;  0.0000000E+00;  1.0147891E-09;  1.0000000E+04;  0.0000000E+00;  9.9996992E+03;-0.014237817;0.0;0.026037959;101.98918
  1.0000150E+00;  9.9999998E-03; -1.8000564E-01;2585;0.020649338;0.0;-0.010640033;1003.4199;  4.0142637E-01;2813.6179;3;18.682714;0.0;-13.258389;0;0.1503351;  1.0000300E+04;  0.0000000E+00;  3.4102609E-06;  1.0000000E+04;  0.0000000E+00;  9.9967910E+03;-0.016579553;0.0;0.16691466;1226.5742
  1.0000143E+00;  9.9999998E-03; -1.6000445E-01;2586;0.019508498;0.0;-0.0086130975;1003.4755;  4.0142640E-01;2859.4197;3;17.293905;0.0;-11.059905;0;0.10467105;  1.0000380E+04;  0.0000000E+00;  2.9773339E-08;  1.0000000E+04;  0.0000000E+00;  9.9978193E+03;-0.021280397;0.0;0.12595144;814.90381
  1.0000138E+00;  9.9999998E-03; -1.4000341E-01;2587;0.018622123;0.0;-0.0067198048;1003.5146;  4.0142629E-01;2891.5889;3;16.21476;0.0;-8.8030853;0;0.070123509;  1.0000427E+04;  0.0000000E+00; -7.0492732E-08;  1.0000000E+04;  0.0000000E+00;  9.9985537E+03;-0.023845991;0.0;0.093969502;525.39063
  1.0000135E+00;  9.9999998E-03; -1.2000248E-01;2588;0.017963631;0.0;-0.004949226;1003.5385;  4.0142632E-01;2911.2043;3;15.397151;0.0;-6.6121244;0;0.046596646;  1.0000450E+04;  0.0000000E+00; -9.4259249E-08;  1.0000000E+04;  0.0000000E+00;  9.9990078E+03;-0.025045579;0.0;0.071642227;350.42365
  1.0000132E+00;  9.9999998E-03; -1.0000171E-01;2589;0.017496485;0.0;-0.0034613947;1003.5525;  4.0142637E-01;2922.6792;3;14.799626;0.0;-4.7188277;0;0.030634252;  1.0000459E+04;  0.0000000E+00; -5.6660976E-08;  1.0000000E+04;  0.0000000E+00;  9.9992773E+03;-0.025500873;0.0;0.056135125;249.43668
  1.0000131E+00;  9.9999998E-03; -8.0001131E-02;2590;0.017181419;0.0;-0.0023258277;1003.5614;  4.0142637E-01;2930.0352;3;14.381928;0.0;-3.2507482;0;0.018980572;  1.0000462E+04;  0.0000000E+00; -2.0797010E-08;  1.0000000E+04;  0.0000000E+00;  9.9994492E+03;-0.025595753;0.0;0.044576325;187.30476
  1.0000130E+00;  9.9999998E-03; -6.0000710E-02;2591;0.016981503;0.0;-0.0014999243;1003.5677;  4.0142635E-01;2935.2332;3;14.085296;0.0;-2.162396;0;0.0099503789;  1.0000463E+04;  0.0000000E+00; -1.7047398E-09;  1.0000000E+04;  0.0000000E+00;  9.9995713E+03;-0.025540864;0.0;0.035491243;144.61276
  1.0000130E+00;  9.9999998E-03; -4.0000416E-02;2592;0.016866958;0.0;-0.00088908238;1003.5721;  4.0142637E-01;2938.8621;3;13.919424;0.0;-1.3100911;0;0.0032050069;  1.0000464E+04;  0.0000000E+00;  2.6236837E-09;  1.0000000E+04;  0.0000000E+00;  9.9996602E+03;-0.025445493;0.0;0.0286505;114.44305
  1.0000130E+00;  9.9999998E-03; -2.0000193E-02;2593;0.016805571;0.0;-0.00041465988;1003.5748;  4.0142640E-01;2941.1179;3;13.816891;0.0;-0.61421812;0;-0.0010222495;  1.0000465E+04;  0.0000000E+00;  1.1347565E-09;  1.0000000E+04;  0.0000000E+00;  9.9997158E+03;-0.025367886;0.0;0.024345636;95.881866
  1.0200144E+00;  9.9999998E-03; -1.8000509E-01;2616;0.019864116;0.0;-0.0094959242;1002.9811;  4.0124205E-01;2446.8062;3;18.073656;0.0;-11.750626;0;0.12679374;  1.0000424E+04;  0.0000000E+00; -8.0786151E-05;  1.0000000E+04;  0.0000000E+00;  9.9971035E+03;-0.02355998;0.0;0.15035373;1073.5948
  1.0200137E+00;  9.9999998E-03; -1.6000403E-01;2617;0.018715099;0.0;-0.0077175577;1003.0318;  4.0124202E-01;2488.3889;3;16.694429;0.0;-9.8152037;0;0.084975325;  1.0000514E+04;  0.0000000E+00; -3.1777647E-06;  1.0000000E+04;  0.0000000E+00;  9.9980254E+03;-0.028512159;0.0;0.11348748;717.24323
  1.0200132E+00;  9.9999998E-03; -1.4000310E-01;2618;0.017820174;0.0;-0.0060425685;1003.0674;  4.0124199E-01;2517.6436;3;15.60066;0.0;-7.8437657;0;0.053353637;  1.0000564E+04;  0.0000000E+00; -2.5769071E-07;  1.0000000E+04;  0.0000000E+00;  9.9986865E+03;-0.031243853;0.0;0.084597491;464.44089
  1.0200129E+00;  9.9999998E-03; -1.2000228E-01;2619;0.017169835;0.0;-0.0044946545;1003.0894;  4.0124199E-01;2535.5483;3;14.784877;0.0;-5.9388051;0;0.031938933;  1.0000589E+04;  0.0000000E+00; -1.8943680E-07;  1.0000000E+04;  0.0000000E+00;  9.9990967E+03;-0.032472417;0.0;0.06441135;310.50467
  1.0200126E+00;  9.9999998E-03; -1.0000160E-01;2620;0.016717581;0.0;-0.0031917014;1003.1022;  4.0124196E-01;2546.1155;3;14.198433;0.0;-4.2990937;0;0.01759306;  1.0000601E+04;  0.0000000E+00; -8.6560284E-08;  1.0000000E+04;  0.0000000E+00;  9.9993438E+03;-0.032896567;0.0;0.050489627;221.5486
  1.0200125E+00;  9.9999998E-03; -8.0001071E-02;2621;0.016426044;0.0;-0.0021791735;1003.1102;  4.0124202E-01;2552.6707;3;13.801566;0.0;-2.9985192;0;0.0073151924;  1.0000606E+04;  0.0000000E+00; -2.2507557E-08;  1.0000000E+04;  0.0000000E+00;  9.9994990E+03;-0.032950725;0.0;0.040265918;167.36243
  1.0200124E+00;  9.9999998E-03; -6.0000688E-02;2622;0.016249949;0.0;-0.0014257224;1003.1157;  4.0124199E-01;2557.2693;3;13.56395;0.0;-2.0177932;0;-0.00051873922;  1.0000607E+04;  0.0000000E+00;  1.3734386E-09;  1.0000000E+04;  0.0000000E+00;  9.9996055E+03;-0.032866448;0.0;0.032347709;130.73839
  1.0200124E+00;  9.9999998E-03; -4.0000409E-02;2623;0.016144857;0.0;-0.00085516786;1003.1196;  4.0124199E-01;2560.4001;3;13.396569;0.0;-1.2274923;0;-0.0063152947;  1.0000606E+04;  0.0000000E+00;  4.2139141E-09;  1.0000000E+04;  0.0000000E+00;  9.9996836E+03;-0.032756444;0.0;0.026441149;105.19944
  1.0200124E+00;  9.9999998E-03; -2.0000191E-02;2624;0.016093504;0.0;-0.0004019975;1003.1219;  4.0124199E-01;2562.3569;3;13.314748;0.0;-0.58110726;0;-0.0099324323;  1.0000606E+04;  0.0000000E+00;  1.5063992E-09;  1.0000000E+04;  0.0000000E+00;  9.9997305E+03;-0.032674301;0.0;0.022741869;89.604401
  1.0400137E+00;  9.9999998E-03; -1.8000463E-01;2647;0.018995706;0.0;-0.0085034482;1002.5803;  4.0107539E-01;2110.9639;3;17.426052;0.0;-10.391098;0;0.10978259;  1.0000479E+04;  0.0000000E+00; -7.1894849E-04;  1.0000000E+04;  0.0000000E+00;  9.9973682E+03;-0.026606645;0.0;0.13638924;937.72839
  1.0400130E+00;  9.9999998E-03; -1.6000365E-01;2648;0.017807465;0.0;-0.0068829022;1002.6263;  4.0107533E-01;2148.6094;3;16.001854;0.0;-8.6659384;0;0.071454495;  1.0000574E+04;  0.0000000E+00; -6.6688735E-05;  1.0000000E+04;  0.0000000E+00;  9.9981904E+03;-0.031680997;0.0;0.10313549;632.86865
  1.0400125E+00;  9.9999998E-03; -1.4000283E-01;2649;0.016932538;0.0;-0.0054289163;1002.6594;  4.0107524E-01;2175.7219;3;14.928845;0.0;-6.9749551;0;0.041961808;  1.0000636E+04;  0.0000000E+00; -6.2027999E-07;  1.0000000E+04;  0.0000000E+00;  9.9987930E+03;-0.034809705;0.0;0.076771513;412.64609
  1.0400121E+00;  9.9999998E-03; -1.2000210E-01;2650;0.016281325;0.0;-0.0040853852;1002.6802;  4.0107530E-01;2192.6919;3;14.109096;0.0;-5.3381071;0;0.021830145;  1.0000668E+04;  0.0000000E+00; -3.6150533E-07;  1.0000000E+04;  0.0000000E+00;  9.9991719E+03;-0.036374446;0.0;0.058204591;276.15268
  1.0400119E+00;  9.9999998E-03; -1.0000149E-01;2651;0.015840998;0.0;-0.0029430478;1002.6924;  4.0107527E-01;2202.7371;3;13.538352;0.0;-3.9154677;0;0.0084480643;  1.0000685E+04;  0.0000000E+00; -1.3518272E-07;  1.0000000E+04;  0.0000000E+00;  9.9994004E+03;-0.037029482;0.0;0.045477547;196.70872
  1.0400118E+00;  9.9999998E-03; -8.0001019E-02;2652;0.015565914;0.0;-0.0020461355;1002.7;  4.0107527E-01;2208.8816;3;13.183714;0.0;-2.7936897;0;-0.00090751424;  1.0000692E+04;  0.0000000E+00; -2.6812470E-08;  1.0000000E+04;  0.0000000E+00;  9.9995420E+03;-0.037240867;0.0;0.036333352;148.90146
  1.0400118E+00;  9.9999998E-03; -6.0000665E-02;2653;0.015395818;0.0;-0.001351028;1002.705;  4.0107530E-01;2212.9775;3;12.943585;0.0;-1.8726993;0;-0.0078399219;  1.0000695E+04;  0.0000000E+00;  5.5548379E-09;  1.0000000E+04;  0.0000000E+00;  9.9996387E+03;-0.037267543;0.0;0.029427622;117.44422
  1.0400116E+00;  9.9999998E-03; -4.0000401E-02;2654;0.015299827;0.0;-0.00081896962;1002.7084;  4.0107527E-01;2215.7085;3;12.796158;0.0;-1.1431777;0;-0.012870945;  1.0000697E+04;  0.0000000E+00;  7.4946209E-09;  1.0000000E+04;  0.0000000E+00;  9.9997070E+03;-0.037236679;0.0;0.024365734;96.034805
  1.0400116E+00;  9.9999998E-03; -2.0000188E-02;2655;0.015252335;0.0;-0.00038759306;1002.7104;  4.0107527E-01;2217.4639;3;12.726661;0.0;-0.54246032;0;-0.015979763;  1.0000698E+04;  0.0000000E+00;  2.1736557E-09;  1.0000000E+04;  0.0000000E+00;  9.9997461E+03;-0.037204232;0.0;0.021224469;83.145149
  1.0600129E+00;  9.9999998E-03; -1.8000424E-01;2678;0.018058183;0.0;-0.0076414915;1002.2242;  4.0092853E-01;1811.8566;3;16.716677;0.0;-9.1916008;0;0.098304741;  1.0000482E+04;  0.0000000E+00; -2.9535100E-03;  1.0000000E+04;  0.0000000E+00;  9.9975811E+03;-0.026913201;0.0;0.12521794;819.22748
  1.0600122E+00;  9.9999998E-03; -1.6000329E-01;2679;0.016858714;0.0;-0.0061314628;1002.2658;  4.0092853E-01;1845.7479;3;15.288047;0.0;-7.6488857;0;0.06345059;  1.0000577E+04;  0.0000000E+00; -4.4052841E-04;  1.0000000E+04;  0.0000000E+00;  9.9983145E+03;-0.031719185;0.0;0.095169775;562.15186
  1.0600117E+00;  9.9999998E-03; -1.4000256E-01;2680;0.015974922;0.0;-0.0048697619;1002.2969;  4.0092853E-01;1871.0934;3;14.195898;0.0;-6.1990628;0;0.035489351;  1.0000650E+04;  0.0000000E+00; -7.6497099E-06;  1.0000000E+04;  0.0000000E+00;  9.9988652E+03;-0.035309628;0.0;0.070798978;370.94196
  1.0600114E+00;  9.9999998E-03; -1.2000193E-01;2681;0.015325462;0.0;-0.0037030743;1002.3173;  4.0092850E-01;1887.6992;3;13.386576;0.0;-4.7947583;0;0.015788317;  1.0000695E+04;  0.0000000E+00; -6.5569884E-07;  1.0000000E+04;  0.0000000E+00;  9.9992266E+03;-0.037489798;0.0;0.053278115;248.34282
  1.0600111E+00;  9.9999998E-03; -1.0000139E-01;2682;0.014896305;0.0;-0.0027181185;1002.3297;  4.0092853E-01;1897.7988;3;12.850762;0.0;-3.5911131;0;0.0026455894;  1.0000719E+04;  0.0000000E+00; -2.2813185E-07;  1.0000000E+04;  0.0000000E+00;  9.9994453E+03;-0.03863164;0.0;0.04127723;175.71916
  1.0600110E+00;  9.9999998E-03; -8.0000967E-02;2683;0.014622113;0.0;-0.0019122858;1002.337;  4.0092856E-01;1903.7224;3;12.505591;0.0;-2.5742192;0;-0.006309431;  1.0000735E+04;  0.0000000E+00; -4.1882288E-08;  1.0000000E+04;  0.0000000E+00;  9.9995801E+03;-0.039187778;0.0;0.032878347;132.44371
  1.0600109E+00;  9.9999998E-03; -6.0000639E-02;2684;0.014455004;0.0;-0.0012798612;1002.3418;  4.0092853E-01;1907.6068;3;12.279437;0.0;-1.7409663;0;-0.012676913;  1.0000742E+04;  0.0000000E+00;  8.5904954E-09;  1.0000000E+04;  0.0000000E+00;  9.9996670E+03;-0.039447717;0.0;0.026770804;104.98269
  1.0600109E+00;  9.9999998E-03; -4.0000390E-02;2685;0.014362641;0.0;-0.00078479509;1002.345;  4.0092853E-01;1910.2289;3;12.149727;0.0;-1.0749226;0;-0.017142484;  1.0000748E+04;  0.0000000E+00;  1.0969181E-08;  1.0000000E+04;  0.0000000E+00;  9.9997266E+03;-0.039569534;0.0;0.02242705;87.009178
  1.0600108E+00;  9.9999998E-03; -2.0000184E-02;2686;0.014315072;0.0;-0.00037474942;1002.3468;  4.0092847E-01;1911.6855;3;12.08824;0.0;-0.52038735;0;-0.019848045;  1.0000748E+04;  0.0000000E+00;  3.0686191E-09;  1.0000000E+04;  0.0000000E+00;  9.9997598E+03;-0.039625518;0.0;0.019777473;76.460052
  1.0800122E+00;  9.9999998E-03; -1.8000393E-01;2709;0.017143233;0.0;-0.0068998104;1001.9156;  4.0080246E-01;1551.5637;3;16.035936;0.0;-8.1213341;0;0.09140937;  1.0000447E+04;  0.0000000E+00; -8.4662903E-03;  1.0000000E+04;  0.0000000E+00;  9.9977432E+03;-0.025227081;0.0;0.11663645;715.90588
  1.0800115E+00;  9.9999998E-03; -1.6000299E-01;2710;0.015928196;0.0;-0.0054892511;1001.9523;  4.0080246E-01;1581.3033;3;14.588345;0.0;-6.7586546;0;0.060374461;  1.0000532E+04;  0.0000000E+00; -1.9122388E-03;  1.0000000E+04;  0.0000000E+00;  9.9983936E+03;-0.029191775;0.0;0.089566238;503.01129
  1.0800109E+00;  9.9999998E-03; -1.4000231E-01;2711;0.015006306;0.0;-0.0043235556;1001.9818;  4.0080249E-01;1605.2496;3;13.471045;0.0;-5.4527564;0;0.033767816;  1.0000610E+04;  0.0000000E+00; -1.3552404E-04;  1.0000000E+04;  0.0000000E+00;  9.9989033E+03;-0.033053797;0.0;0.066821612;338.45404
  1.0800105E+00;  9.9999998E-03; -1.2000177E-01;2712;0.014371336;0.0;-0.0033513424;1002.0023;  4.0080249E-01;1621.8575;3;12.678176;0.0;-4.289979;0;0.013807729;  1.0000670E+04;  0.0000000E+00; -1.1409804E-06;  1.0000000E+04;  0.0000000E+00;  9.9992549E+03;-0.036038343;0.0;0.049846072;227.27431
  1.0800103E+00;  9.9999998E-03; -1.0000130E-01;2713;0.013934733;0.0;-0.0024988363;1002.0153;  4.0080240E-01;1632.3823;3;12.161312;0.0;-3.2588158;0;0.00014588237;  1.0000711E+04;  0.0000000E+00; -4.2675401E-07;  1.0000000E+04;  0.0000000E+00;  9.9994736E+03;-0.037935376;0.0;0.038081259;159.14548
  1.0800102E+00;  9.9999998E-03; -8.0000922E-02;2714;0.013654456;0.0;-0.001788418;1002.0233;  4.0080246E-01;1638.7551;3;11.825777;0.0;-2.3716271;0;-0.0090159662;  1.0000734E+04;  0.0000000E+00; -9.7986337E-08;  1.0000000E+04;  0.0000000E+00;  9.9996074E+03;-0.039048608;0.0;0.030032642;118.53853
  1.0800101E+00;  9.9999998E-03; -6.0000621E-02;2715;0.013481498;0.0;-0.0012148663;1002.0281;  4.0080243E-01;1642.714;3;11.606884;0.0;-1.6228379;0;-0.015237225;  1.0000749E+04;  0.0000000E+00; -1.4935003E-10;  1.0000000E+04;  0.0000000E+00;  9.9996904E+03;-0.039679576;0.0;0.02444235;93.699875
  1.0800101E+00;  9.9999998E-03; -4.0000379E-02;2716;0.013382746;0.0;-0.00075272319;1002.0313;  4.0080249E-01;1645.2244;3;11.484502;0.0;-1.0100567;0;-0.01939065;  1.0000758E+04;  0.0000000E+00;  1.1729487E-08;  1.0000000E+04;  0.0000000E+00;  9.9997441E+03;-0.040030036;0.0;0.020639386;78.254311
  1.0800099E+00;  9.9999998E-03; -2.0000180E-02;2717;0.013331654;0.0;-0.00036253556;1002.033;  4.0080246E-01;1646.6729;3;11.415928;0.0;-0.5018844;0;-0.021823511;  1.0000762E+04;  0.0000000E+00;  3.9819330E-09;  1.0000000E+04;  0.0000000E+00;  9.9997744E+03;-0.040209871;0.0;0.01838636;69.540749
  1.1000115E+00;  9.9999998E-03; -1.8000376E-01;2739;0.016356489;0.0;-0.0063482663;1001.654;  4.0069664E-01;1329.6509;3;15.467536;0.0;-7.2267022;0;0.088209577;  1.0000379E+04;  0.0000000E+00; -1.9147292E-02;  1.0000000E+04;  0.0000000E+00;  9.9978730E+03;-0.021899194;0.0;0.11010877;625.05432
  1.1000108E+00;  9.9999998E-03; -1.6000272E-01;2740;0.015024677;0.0;-0.0048924214;1001.6855;  4.0069669E-01;1354.9507;3;13.931738;0.0;-5.9131155;0;0.061577443;  1.0000438E+04;  0.0000000E+00; -6.0671913E-03;  1.0000000E+04;  0.0000000E+00;  9.9984414E+03;-0.024394941;0.0;0.085972384;451.69601
  1.1000102E+00;  9.9999998E-03; -1.4000209E-01;2741;0.014109645;0.0;-0.0038451373;1001.7129;  4.0069672E-01;1376.9919;3;12.821099;0.0;-4.7808375;0;0.036651142;  1.0000516E+04;  0.0000000E+00; -9.8678935E-04;  1.0000000E+04;  0.0000000E+00;  9.9989102E+03;-0.028091742;0.0;0.064742886;312.32474
  1.1000098E+00;  9.9999998E-03; -1.2000161E-01;2742;0.013452082;0.0;-0.0030020154;1001.7339;  4.0069664E-01;1393.8584;3;12.024837;0.0;-3.79269;0;0.01623597;  1.0000592E+04;  0.0000000E+00; -4.6845602E-05;  1.0000000E+04;  0.0000000E+00;  9.9992539E+03;-0.031814888;0.0;0.048050858;212.04195
  1.1000096E+00;  9.9999998E-03; -1.0000121E-01;2743;0.013010211;0.0;-0.0022867243;1001.7482;  4.0069661E-01;1405.3583;3;11.512256;0.0;-2.9410329;0;0.001382716;  1.0000650E+04;  0.0000000E+00; -8.1528520E-07;  1.0000000E+04;  0.0000000E+00;  9.9994814E+03;-0.034716859;0.0;0.036099575;147.09489
  1.1000093E+00;  9.9999998E-03; -8.0000877E-02;2744;0.01271168;0.0;-0.0016677903;1001.7573;  4.0069667E-01;1412.7374;3;11.16539;0.0;-2.1656485;0;-0.0086762775;  1.0000689E+04;  0.0000000E+00; -2.5405032E-07;  1.0000000E+04;  0.0000000E+00;  9.9996221E+03;-0.036661219;0.0;0.027984941;107.66371
  1.1000092E+00;  9.9999998E-03; -6.0000598E-02;2745;0.012525255;0.0;-0.0011515653;1001.7629;  4.0069667E-01;1417.1456;3;10.952946;0.0;-1.5100459;0;-0.015306199;  1.0000716E+04;  0.0000000E+00; -4.7947527E-08;  1.0000000E+04;  0.0000000E+00;  9.9997080E+03;-0.037876274;0.0;0.022570075;84.06665
  1.1000092E+00;  9.9999998E-03; -4.0000372E-02;2746;0.012415749;0.0;-0.00072174595;1001.7663;  4.0069672E-01;1419.9248;3;10.822032;0.0;-0.95598775;0;-0.019523224;  1.0000731E+04;  0.0000000E+00; -4.4076262E-12;  1.0000000E+04;  0.0000000E+00;  9.9997598E+03;-0.038590603;0.0;0.019067379;70.082359
  1.1000092E+00;  9.9999998E-03; -2.0000178E-02;2747;0.012357956;0.0;-0.00034787523;1001.768;  4.0069667E-01;1421.2665;3;10.75476;0.0;-0.46963066;0;-0.02189023;  1.0000738E+04;  0.0000000E+00;  1.8166658E-09;  1.0000000E+04;  0.0000000E+00;  9.9997881E+03;-0.038963009;0.0;0.017072778;62.551399
  1.1200111E+00;  9.9999998E-03; -1.8000378E-01;2768;0.01576121;0.0;-0.0060537225;1001.4376;  4.0060997E-01;1144.3271;3;15.081791;0.0;-6.5697665;0;0.087597519;  1.0000279E+04;  0.0000000E+00; -3.6413342E-02;  1.0000000E+04;  0.0000000E+00;  9.9979766E+03;-0.017300662;0.0;0.10489818;545.5354
  1.1200101E+00;  9.9999998E-03; -1.6000256E-01;2769;0.014273126;0.0;-0.0044432031;1001.4635;  4.0061006E-01;1164.9181;3;13.403284;0.0;-5.2120252;0;0.065972246;  1.0000307E+04;  0.0000000E+00; -1.5421837E-02;  1.0000000E+04;  0.0000000E+00;  9.9984668E+03;-0.017767278;0.0;0.083739527;404.76736
  1.1200095E+00;  9.9999998E-03; -1.4000188E-01;2770;0.013281509;0.0;-0.0034043193;1001.4882;  4.0061003E-01;1184.5599;3;12.231248;0.0;-4.1629386;0;0.043547451;  1.0000370E+04;  0.0000000E+00; -4.3044151E-03;  1.0000000E+04;  0.0000000E+00;  9.9988926E+03;-0.020624684;0.0;0.064172134;288.54172
  1.1200091E+00;  9.9999998E-03; -1.2000145E-01;2771;0.012618313;0.0;-0.0026697232;1001.509;  4.0060997E-01;1201.0703;3;11.45163;0.0;-3.3357637;0;0.023232443;  1.0000453E+04;  0.0000000E+00; -6.7301193E-04;  1.0000000E+04;  0.0000000E+00;  9.9992295E+03;-0.024604218;0.0;0.047836661;200.12044
  1.1200088E+00;  9.9999998E-03; -1.0000110E-01;2772;0.012151326;0.0;-0.0020628977;1001.5247;  4.0060997E-01;1213.5956;3;10.917059;0.0;-2.6178019;0;0.0070614386;  1.0000529E+04;  0.0000000E+00; -4.0654671E-05;  1.0000000E+04;  0.0000000E+00;  9.9994658E+03;-0.028457677;0.0;0.035519116;138.85573
  1.1200086E+00;  9.9999998E-03; -8.0000818E-02;2773;0.011842768;0.0;-0.0015417133;1001.5354;  4.0061000E-01;1222.1355;3;10.570036;0.0;-1.978858;0;-0.0045010559;  1.0000590E+04;  0.0000000E+00; -5.8771786E-07;  1.0000000E+04;  0.0000000E+00;  9.9996172E+03;-0.031476591;0.0;0.026975535;99.933388
  1.1200085E+00;  9.9999998E-03; -6.0000576E-02;2774;0.011637334;0.0;-0.0010854319;1001.5421;  4.0061003E-01;1227.4492;3;10.338824;0.0;-1.4002017;0;-0.01218353;  1.0000631E+04;  0.0000000E+00; -1.8612559E-07;  1.0000000E+04;  0.0000000E+00;  9.9997148E+03;-0.033550054;0.0;0.021366524;76.505295
  1.1200085E+00;  9.9999998E-03; -4.0000364E-02;2775;0.011511371;0.0;-0.00068899448;1001.5462;  4.0060997E-01;1230.6753;3;10.196943;0.0;-0.90037525;0;-0.016975369;  1.0000656E+04;  0.0000000E+00; -4.3967002E-08;  1.0000000E+04;  0.0000000E+00;  9.9997695E+03;-0.034844805;0.0;0.017869435;62.951977
  1.1200083E+00;  9.9999998E-03; -2.0000175E-02;2776;0.011446281;0.0;-0.00033388764;1001.5483;  4.0061000E-01;1232.3834;3;10.130055;0.0;-0.43869302;0;-0.019592106;  1.0000671E+04;  0.0000000E+00; -6.3785155E-09;  1.0000000E+04;  0.0000000E+00;  9.9997979E+03;-0.0355413;0.0;0.015949193;55.893612
  1.1400108E+00;  9.9999998E-03; -1.8000408E-01;2796;0.015442997;0.0;-0.0061061932;1001.2625;  4.0054047E-01;992.06964;3;14.940972;0.0;-6.1833258;0;0.088439576;  1.0000163E+04;  0.0000000E+00; -5.9610065E-02;  1.0000000E+04;  0.0000000E+00;  9.9980684E+03;-0.011931579;0.0;0.10037115;477.88458
  1.1400096E+00;  9.9999998E-03; -1.6000259E-01;2797;0.013724325;0.0;-0.0042272937;1001.2827;  4.0054041E-01;1007.9009;3;13.047302;0.0;-4.7052732;0;0.071968228;  1.0000148E+04;  0.0000000E+00; -3.2223266E-02;  1.0000000E+04;  0.0000000E+00;  9.9984873E+03;-0.010084186;0.0;0.082052417;361.77954
  1.1400089E+00;  9.9999998E-03; -1.4000176E-01;2798;0.012610382;0.0;-0.003070452;1001.3037;  4.0054041E-01;1024.3875;3;11.787841;0.0;-3.6634021;0;0.053088687;  1.0000188E+04;  0.0000000E+00; -1.3159003E-02;  1.0000000E+04;  0.0000000E+00;  9.9988672E+03;-0.011334515;0.0;0.064423203;264.20633
  1.1400084E+00;  9.9999998E-03; -1.2000129E-01;2799;0.011875723;0.0;-0.0023499436;1001.3232;  4.0054047E-01;1039.7499;3;10.939939;0.0;-2.8951433;0;0.034105022;  1.0000260E+04;  0.0000000E+00; -3.8966071E-03;  1.0000000E+04;  0.0000000E+00;  9.9991875E+03;-0.01471911;0.0;0.048824131;188.01164
  1.1400082E+00;  9.9999998E-03; -1.0000099E-01;2800;0.011400327;0.0;-0.0018331017;1001.3395;  4.0054038E-01;1052.5831;3;10.402103;0.0;-2.3041275;0;0.017446868;  1.0000343E+04;  0.0000000E+00; -7.8656437E-04;  1.0000000E+04;  0.0000000E+00;  9.9994287E+03;-0.018882893;0.0;0.036329761;132.30675
  1.1400080E+00;  9.9999998E-03; -8.0000743E-02;2801;0.01106419;0.0;-0.0013848027;1001.3517;  4.0054038E-01;1062.1377;3;10.031487;0.0;-1.7623922;0;0.0044782702;  1.0000420E+04;  0.0000000E+00; -9.2843031E-05;  1.0000000E+04;  0.0000000E+00;  9.9995957E+03;-0.022753527;0.0;0.027231798;94.660461
  1.1400079E+00;  9.9999998E-03; -6.0000531E-02;2802;0.010847921;0.0;-0.00099615438;1001.36;  4.0054047E-01;1068.6012;3;9.7928286;0.0;-1.2821708;0;-0.0046645924;  1.0000478E+04;  0.0000000E+00; -4.2069428E-06;  1.0000000E+04;  0.0000000E+00;  9.9997021E+03;-0.025784289;0.0;0.021119697;71.038597
  1.1400077E+00;  9.9999998E-03; -4.0000342E-02;2803;0.010711277;0.0;-0.00064063136;1001.3652;  4.0054044E-01;1072.7228;3;9.643507;0.0;-0.82515287;0;-0.010522028;  1.0000520E+04;  0.0000000E+00; -1.5254386E-07;  1.0000000E+04;  0.0000000E+00;  9.9997666E+03;-0.027840767;0.0;0.017318739;57.186413
  1.1400077E+00;  9.9999998E-03; -2.0000167E-02;2804;0.010638695;0.0;-0.00031395588;1001.368;  4.0054041E-01;1074.8773;3;9.5703859;0.0;-0.40370777;0;-0.013738551;  1.0000542E+04;  0.0000000E+00; -3.0655151E-08;  1.0000000E+04;  0.0000000E+00;  9.9998008E+03;-0.028999146;0.0;0.015260595;49.999645
  1.1600109E+00;  9.9999998E-03; -1.8000475E-01;2823;0.015571789;0.0;-0.0066114366;1001.1237;  4.0048584E-01;868.42615;3;15.194837;0.0;-6.1749573;0;0.090368927;  1.0000036E+04;  0.0000000E+00; -8.4948741E-02;  1.0000000E+04;  0.0000000E+00;  9.9981475E+03;-0.0060585323;0.0;0.096427456;420.66684
  1.1600095E+00;  9.9999998E-03; -1.6000287E-01;2824;0.013475353;0.0;-0.0043596732;1001.1395;  4.0048587E-01;880.68079;3;12.960469;0.0;-4.4965949;0;0.077886589;  9.9999883E+03;  0.0000000E+00; -5.5887774E-02;  1.0000000E+04;  0.0000000E+00;  9.9985146E+03;-0.0023444623;0.0;0.080231048;324.58398
  1.1600085E+00;  9.9999998E-03; -1.4000180E-01;2825;0.012160819;0.0;-0.0029623797;1001.1562;  4.0048590E-01;893.5799;3;11.521502;0.0;-3.3417344;0;0.063341863;  9.9999873E+03;  0.0000000E+00; -3.0117903E-02;  1.0000000E+04;  0.0000000E+00;  9.9988467E+03;-0.0013501581;0.0;0.06469202;240.54987
  1.1600080E+00;  9.9999998E-03; -1.2000121E-01;2826;0.01130376;0.0;-0.0021217419;1001.173;  4.0048587E-01;906.57086;3;10.570072;0.0;-2.5483658;0;0.047188371;  1.0000031E+04;  0.0000000E+00; -1.3159169E-02;  1.0000000E+04;  0.0000000E+00;  9.9991396E+03;-0.0031476768;0.0;0.050336048;174.04929
  1.1600076E+00;  9.9999998E-03; -1.0000087E-01;2827;0.010752144;0.0;-0.0015958479;1001.1885;  4.0048578E-01;918.54816;3;9.966876;0.0;-1.9899266;0;0.031588044;  1.0000102E+04;  0.0000000E+00; -4.6426933E-03;  1.0000000E+04;  0.0000000E+00;  9.9993770E+03;-0.0065663829;0.0;0.038154427;124.68196
  1.1600074E+00;  9.9999998E-03; -8.0000654E-02;2828;0.010400553;0.0;-0.001211757;1001.2009;  4.0048584E-01;928.13007;3;9.5768795;0.0;-1.5423641;0;0.018323503;  1.0000179E+04;  0.0000000E+00; -1.3010645E-03;  1.0000000E+04;  0.0000000E+00;  9.9995518E+03;-0.010414661;0.0;0.028738163;89.890854
  1.1600072E+00;  9.9999998E-03; -6.0000461E-02;2829;0.010162332;0.0;-0.0008693086;1001.2103;  4.0048578E-01;935.40851;3;9.3201761;0.0;-1.1245848;0;0.0082193967;  1.0000244E+04;  0.0000000E+00; -2.6675183E-04;  1.0000000E+04;  0.0000000E+00;  9.9996729E+03;-0.01385735;0.0;0.022076746;66.828232
  1.1600071E+00;  9.9999998E-03; -4.0000301E-02;2830;0.010018313;0.0;-0.00056618225;1001.2166;  4.0048584E-01;940.2915;3;9.168437;0.0;-0.73764348;0;0.0013050195;  1.0000296E+04;  0.0000000E+00; -3.5921399E-05;  1.0000000E+04;  0.0000000E+00;  9.9997471E+03;-0.016462378;0.0;0.017767398;52.604786
  1.1600071E+00;  9.9999998E-03; -2.0000147E-02;2831;0.009938471;0.0;-0.00027709536;1001.2202;  4.0048584E-01;943.05554;3;9.0856628;0.0;-0.35916588;0;-0.002666899;  1.0000326E+04;  0.0000000E+00; -1.4479911E-06;  1.0000000E+04;  0.0000000E+00;  9.9997871E+03;-0.018048471;0.0;0.015381572;44.98637
  1.1800117E+00;  9.9999998E-03; -1.8000582E-01;2849;0.016491471;0.0;-0.007683957;1001.013;  4.0044388E-01;766.65302;3;16.158628;0.0;-6.7273831;0;0.09608534;  9.9998672E+03;  0.0000000E+00; -1.0788180E-01;  1.0000000E+04;  0.0000000E+00;  9.9982021E+03;0.0019488025;0.0;0.094136536;369.73026
  1.1800097E+00;  9.9999998E-03; -1.6000360E-01;2850;0.013799215;0.0;-0.0050420403;1001.0282;  4.0044385E-01;778.11218;3;13.328782;0.0;-4.740015;0;0.083442032;  9.9998301E+03;  0.0000000E+00; -8.1623219E-02;  1.0000000E+04;  0.0000000E+00;  9.9985430E+03;0.005013932;0.0;0.078428097;292.12741
  1.1800085E+00;  9.9999998E-03; -1.4000216E-01;2851;0.012046958;0.0;-0.0032369124;1001.0413;  4.0044388E-01;788.03711;3;11.524064;0.0;-3.3132949;0;0.072417371;  9.9997959E+03;  0.0000000E+00; -5.3922549E-02;  1.0000000E+04;  0.0000000E+00;  9.9988389E+03;0.0079661887;0.0;0.06445118;220.68402
  1.1800077E+00;  9.9999998E-03; -1.2000132E-01;2852;0.010967135;0.0;-0.0021370591;1001.0545;  4.0044388E-01;798.05188;3;10.38714;0.0;-2.3858078;0;0.060265284;  9.9997969E+03;  0.0000000E+00; -3.0592956E-02;  1.0000000E+04;  0.0000000E+00;  9.9990996E+03;0.0086237518;0.0;0.051641531;160.93994
  1.1800072E+00;  9.9999998E-03; -1.0000086E-01;2853;0.010281743;0.0;-0.0014754976;1001.0674;  4.0044382E-01;807.79572;3;9.6719141;0.0;-1.7625656;0;0.047461979;  9.9998340E+03;  0.0000000E+00; -1.4829008E-02;  1.0000000E+04;  0.0000000E+00;  9.9993213E+03;0.0071086157;0.0;0.040353362;115.79141
  1.1800069E+00;  9.9999998E-03; -8.0000579E-02;2854;0.0098528164;0.0;-0.0010492742;1001.0787;  4.0044388E-01;816.36652;3;9.2171049;0.0;-1.3199821;0;0.035558477;  9.9998887E+03;  0.0000000E+00; -6.0804058E-03;  1.0000000E+04;  0.0000000E+00;  9.9994961E+03;0.0044304812;0.0;0.031127997;83.868217
  1.1800067E+00;  9.9999998E-03; -6.0000390E-02;2855;0.0095801959;0.0;-0.0007345078;1001.0879;  4.0044385E-01;823.31329;3;8.9341459;0.0;-0.95408708;0;0.02572955;  9.9999443E+03;  0.0000000E+00; -2.0193306E-03;  1.0000000E+04;  0.0000000E+00;  9.9996221E+03;0.0015336896;0.0;0.024195861;62.252079
  1.1800066E+00;  9.9999998E-03; -4.0000245E-02;2856;0.0094253868;0.0;-0.00047487818;1001.0945;  4.0044385E-01;828.27533;3;8.7733641;0.0;-0.63003653;0;0.018517951;  9.9999922E+03;  0.0000000E+00; -4.9611856E-04;  1.0000000E+04;  0.0000000E+00;  9.9997070E+03;-0.00093079428;0.0;0.019448744;48.345802
  1.1800065E+00;  9.9999998E-03; -2.0000117E-02;2857;0.0093358615;0.0;-0.00022861513;1001.0985;  4.0044382E-01;831.34265;3;8.6855211;0.0;-0.30669305;0;0.01414049;  1.0000022E+04;  0.0000000E+00; -6.6200570E-05;  1.0000000E+04;  0.0000000E+00;  9.9997549E+03;-0.0025548835;0.0;0.016695373;40.536407
  1.2000134E+00;  9.9999998E-03; -1.8000700E-01;2873;0.018278727;0.0;-0.0089222323;1000.9208;  4.0041238E-01;678.94513;3;17.849834;0.0;-7.6566467;0;0.1102948;  9.9995781E+03;  0.0000000E+00; -1.2221639E-01;  1.0000000E+04;  0.0000000E+00;  9.9982266E+03;0.016963776;0.0;0.093331032;314.82846
  1.2000110E+00;  9.9999998E-03; -1.6000475E-01;2874;0.015180209;0.0;-0.0063158595;1000.9398;  4.0041229E-01;692.92181;3;14.563212;0.0;-5.6370726;0;0.092818454;  9.9996270E+03;  0.0000000E+00; -1.0449769E-01;  1.0000000E+04;  0.0000000E+00;  9.9985557E+03;0.014976543;0.0;0.077841908;259.75217
  1.2000091E+00;  9.9999998E-03; -1.4000304E-01;2875;0.012726673;0.0;-0.0041799643;1000.9532;  4.0041235E-01;702.76733;3;12.12923;0.0;-3.8683834;0;0.080858618;  9.9996152E+03;  0.0000000E+00; -7.8618936E-02;  1.0000000E+04;  0.0000000E+00;  9.9988350E+03;0.016527666;0.0;0.06433095;202.61948
  1.2000079E+00;  9.9999998E-03; -1.2000183E-01;2876;0.011081806;0.0;-0.0026337195;1000.9638;  4.0041232E-01;710.59088;3;10.517233;0.0;-2.5903168;0;0.07142774;  9.9995879E+03;  0.0000000E+00; -5.2712414E-02;  1.0000000E+04;  0.0000000E+00;  9.9990742E+03;0.018878212;0.0;0.052549526;150.50757
  1.2000071E+00;  9.9999998E-03; -1.0000110E-01;2877;0.010099342;0.0;-0.0016682715;1000.9733;  4.0041235E-01;717.53497;3;9.5767393;0.0;-1.7691871;0;0.062414467;  9.9995781E+03;  0.0000000E+00; -3.1096475E-02;  1.0000000E+04;  0.0000000E+00;  9.9992725E+03;0.020002225;0.0;0.04241224;108.27196
  1.2000066E+00;  9.9999998E-03; -8.0000661E-02;2878;0.00951456;0.0;-0.0010760742;1000.9821;  4.0041232E-01;724.03931;3;9.0059109;0.0;-1.2358421;0;0.053486057;  9.9995938E+03;  0.0000000E+00; -1.5758023E-02;  1.0000000E+04;  0.0000000E+00;  9.9994336E+03;0.019591067;0.0;0.03389499;77.373116
  1.2000064E+00;  9.9999998E-03; -6.0000394E-02;2879;0.0091596069;0.0;-0.00068509445;1000.9897;  4.0041238E-01;729.66455;3;8.6581326;0.0;-0.84519958;0;0.045423917;  9.9996211E+03;  0.0000000E+00; -6.5986156E-03;  1.0000000E+04;  0.0000000E+00;  9.9995566E+03;0.018263256;0.0;0.027160661;56.610996
  1.2000062E+00;  9.9999998E-03; -4.0000223E-02;2880;0.0089506013;0.0;-0.00041068232;1000.9955;  4.0041229E-01;733.97137;3;8.4508162;0.0;-0.53334653;0;0.039033718;  9.9996494E+03;  0.0000000E+00; -2.1074098E-03;  1.0000000E+04;  0.0000000E+00;  9.9996455E+03;0.016744118;0.0;0.022289602;43.432571
  1.2000061E+00;  9.9999998E-03; -2.0000100E-02;2881;0.0088446354;0.0;-0.0001930634;1000.9992;  4.0041235E-01;736.69604;3;8.3492966;0.0;-0.25976393;0;0.034934774;  9.9996719E+03;  0.0000000E+00; -3.9327855E-04;  1.0000000E+04;  0.0000000E+00;  9.9996992E+03;0.015606588;0.0;0.019328188;35.961479
  1.2200152E+00;  9.9999998E-03; -1.8000802E-01;2896;0.020217195;0.0;-0.009963721;1000.8417;  4.0038902E-01;601.19562;3;19.875944;0.0;-8.6215515;0;0.13290566;  9.9991484E+03;  0.0000000E+00; -1.0159498E-01;  1.0000000E+04;  0.0000000E+00;  9.9982383E+03;0.040141456;0.0;0.092764214;237.2975
  1.2200131E+00;  9.9999998E-03; -1.6000591E-01;2897;0.017598735;0.0;-0.0076001738;1000.863;  4.0038911E-01;616.35327;3;16.825666;0.0;-6.6953797;0;0.11288643;  9.9992578E+03;  0.0000000E+00; -1.1585829E-01;  1.0000000E+04;  0.0000000E+00;  9.9985537E+03;0.034738965;0.0;0.078147464;217.28569
  1.2200110E+00;  9.9999998E-03; -1.4000417E-01;2898;0.014822626;0.0;-0.0055291434;1000.8807;  4.0038908E-01;629.04199;3;13.898183;0.0;-4.9873719;0;0.09562315;  9.9993447E+03;  0.0000000E+00; -9.8392382E-02;  1.0000000E+04;  0.0000000E+00;  9.9988184E+03;0.030364409;0.0;0.065258741;179.33487
  1.2200091E+00;  9.9999998E-03; -1.2000283E-01;2899;0.012391232;0.0;-0.0038455613;1000.8934;  4.0038908E-01;638.15436;3;11.531656;0.0;-3.5295143;0;0.083342955;  9.9993770E+03;  0.0000000E+00; -7.2743729E-02;  1.0000000E+04;  0.0000000E+00;  9.9990400E+03;0.029165234;0.0;0.054177724;138.16937
  1.2200078E+00;  9.9999998E-03; -1.0000180E-01;2900;0.010712327;0.0;-0.0024790149;1000.9019;  4.0038905E-01;644.20111;3;10.013414;0.0;-2.2965467;0;0.075248905;  9.9993633E+03;  0.0000000E+00; -4.7806006E-02;  1.0000000E+04;  0.0000000E+00;  9.9992217E+03;0.030589975;0.0;0.044658929;100.79732
  1.2200069E+00;  9.9999998E-03; -8.0001079E-02;2901;0.0096752038;0.0;-0.0015134751;1000.9082;  4.0038905E-01;648.71466;3;9.1020498;0.0;-1.4583071;0;0.069098637;  9.9993428E+03;  0.0000000E+00; -2.7365141E-02;  1.0000000E+04;  0.0000000E+00;  9.9993721E+03;0.032260217;0.0;0.036838423;71.140869
  1.2200065E+00;  9.9999998E-03; -6.0000602E-02;2902;0.0090875681;0.0;-0.00088023522;1000.9135;  4.0038908E-01;652.46167;3;8.5903769;0.0;-0.90834373;0;0.063782252;  9.9993301E+03;  0.0000000E+00; -1.3092963E-02;  1.0000000E+04;  0.0000000E+00;  9.9994873E+03;0.033166729;0.0;0.030615522;50.533634
  1.2200061E+00;  9.9999998E-03; -4.0000316E-02;2903;0.0087730493;0.0;-0.00048134246;1000.9177;  4.0038908E-01;655.44196;3;8.3183317;0.0;-0.53264719;0;0.059314758;  9.9993311E+03;  0.0000000E+00; -4.8272060E-03;  1.0000000E+04;  0.0000000E+00;  9.9995732E+03;0.033340503;0.0;0.025974257;37.782745
  1.2200060E+00;  9.9999998E-03; -2.0000132E-02;2904;0.0086141881;0.0;-0.00021117907;1000.9205;  4.0038902E-01;657.40045;3;8.1774921;0.0;-0.24798046;0;0.05624124;  9.9993340E+03;  0.0000000E+00; -1.0271260E-03;  1.0000000E+04;  0.0000000E+00;  9.9996260E+03;0.033192646;0.0;0.023048595;30.856739
  1.2400160E+00;  9.9999998E-03; -1.8000887E-01;2917;0.020853091;0.0;-0.010769951;1000.7855;  4.0037221E-01;540.35455;3;20.987103;0.0;-9.5526457;0;0.14693819;  9.9988760E+03;  0.0000000E+00; -7.1172626E-04;  1.0000000E+04;  0.0000000E+00;  9.9982246E+03;0.053822663;0.0;0.093115523;160.0126
  1.2400148E+00;  9.9999998E-03; -1.6000701E-01;2918;0.019401761;0.0;-0.0087481113;1000.7993;  4.0037224E-01;549.86884;3;18.841406;0.0;-7.7743912;0;0.13595428;  9.9988545E+03;  0.0000000E+00; -8.0371730E-02;  1.0000000E+04;  0.0000000E+00;  9.9985225E+03;0.056354251;0.0;0.079600021;150.52873
  1.2400132E+00;  9.9999998E-03; -1.4000529E-01;2919;0.017524892;0.0;-0.0067685586;1000.815;  4.0037227E-01;560.69568;3;16.561766;0.0;-6.036725;0;0.12128188;  9.9989092E+03;  0.0000000E+00; -9.8709174E-02;  1.0000000E+04;  0.0000000E+00;  9.9987813E+03;0.054229032;0.0;0.067052849;140.70642
  1.2400116E+00;  9.9999998E-03; -1.2000387E-01;2920;0.015355171;0.0;-0.0050639594;1000.8301;  4.0037227E-01;571.11279;3;14.21778;0.0;-4.5617361;0;0.10622939;  9.9989980E+03;  0.0000000E+00; -8.4733322E-02;  1.0000000E+04;  0.0000000E+00;  9.9989932E+03;0.049711134;0.0;0.056518264;116.58028
  1.2400099E+00;  9.9999998E-03; -1.0000273E-01;2921;0.013233907;0.0;-0.0036481435;1000.8419;  4.0037221E-01;579.15161;3;12.070415;0.0;-3.3337052;0;0.093944758;  9.9990645E+03;  0.0000000E+00; -6.0052287E-02;  1.0000000E+04;  0.0000000E+00;  9.9991660E+03;0.04622845;0.0;0.047716308;87.749802
  1.2400086E+00;  9.9999998E-03; -8.0001824E-02;2922;0.011486311;0.0;-0.0024862478;1000.85;  4.0037224E-01;584.81189;3;10.384003;0.0;-2.3050921;0;0.085404687;  9.9990889E+03;  0.0000000E+00; -3.6415353E-02;  1.0000000E+04;  0.0000000E+00;  9.9993018E+03;0.044981264;0.0;0.040423423;62.211315
  1.2400076E+00;  9.9999998E-03; -6.0001124E-02;2923;0.010276396;0.0;-0.001553326;1000.8553;  4.0037218E-01;588.42145;3;9.2810001;0.0;-1.4588239;0;0.07987655;  9.9990850E+03;  0.0000000E+00; -1.8520284E-02;  1.0000000E+04;  0.0000000E+00;  9.9994111E+03;0.045304425;0.0;0.034572124;43.415062
  1.2400070E+00;  9.9999998E-03; -4.0000618E-02;2924;0.009565847;0.0;-0.00086315389;1000.8587;  4.0037224E-01;590.71838;3;8.6793222;0.0;-0.82267368;0;0.076291524;  9.9990732E+03;  0.0000000E+00; -7.2972388E-03;  1.0000000E+04;  0.0000000E+00;  9.9994902E+03;0.046099186;0.0;0.030192338;31.617327
  1.2400068E+00;  9.9999998E-03; -2.0000268E-02;2925;0.0092138946;0.0;-0.00037759496;1000.8608;  4.0037227E-01;592.19495;3;8.3941011;0.0;-0.36630222;0;0.07411164;  9.9990645E+03;  0.0000000E+00; -1.6442025E-03;  1.0000000E+04;  0.0000000E+00;  9.9995430E+03;0.046698295;0.0;0.027413344;25.403788
  1.2600151E+00;  9.9999998E-03; -1.6000792E-01;2936;0.019489052;0.0;-0.0096586524;1000.7631;  4.0036044E-01;502.89587;3;19.489607;0.0;-8.8269815;0;0.14072628;  9.9988008E+03;  0.0000000E+00;  3.6214404E-02;  1.0000000E+04;  0.0000000E+00;  9.9984463E+03;0.057660785;0.0;0.083065502;110.6862
  1.2600145E+00;  9.9999998E-03; -1.4000636E-01;2937;0.018798223;0.0;-0.007933462;1000.7678;  4.0036038E-01;505.96054;3;18.143154;0.0;-7.2340603;0;0.13907322;  9.9986348E+03;  0.0000000E+00; -4.0688355E-02;  1.0000000E+04;  0.0000000E+00;  9.9987041E+03;0.068184912;0.0;0.070888318;86.244522
  1.2600137E+00;  9.9999998E-03; -1.2000496E-01;2938;0.017730832;0.0;-0.0062824246;1000.7756;  4.0036041E-01;511.14685;3;16.673727;0.0;-5.678854;0;0.13282308;  9.9985801E+03;  0.0000000E+00; -6.6532627E-02;  1.0000000E+04;  0.0000000E+00;  9.9989150E+03;0.072327621;0.0;0.060495462;79.654678
  1.2600126E+00;  9.9999998E-03; -1.0000368E-01;2939;0.016385227;0.0;-0.0047425223;1000.7853;  4.0036041E-01;517.59052;3;15.091344;0.0;-4.2839775;0;0.12341128;  9.9986016E+03;  0.0000000E+00; -5.8908619E-02;  1.0000000E+04;  0.0000000E+00;  9.9990908E+03;0.07178656;0.0;0.051624715;64.75692
  1.2600116E+00;  9.9999998E-03; -8.0002561E-02;2940;0.015012991;0.0;-0.0033529876;1000.7944;  4.0036035E-01;523.56281;3;13.616966;0.0;-3.0451746;0;0.11398927;  9.9986455E+03;  0.0000000E+00; -3.9022569E-02;  1.0000000E+04;  0.0000000E+00;  9.9992285E+03;0.069659948;0.0;0.044329323;45.966049
  1.2600106E+00;  9.9999998E-03; -6.0001627E-02;2941;0.013873893;0.0;-0.0021601475;1000.801;  4.0036038E-01;527.88501;3;12.44761;0.0;-1.9830537;0;0.1068706;  9.9986699E+03;  0.0000000E+00; -2.0458126E-02;  1.0000000E+04;  0.0000000E+00;  9.9993340E+03;0.068228744;0.0;0.038641855;30.340172
  1.2600100E+00;  9.9999998E-03; -4.0000916E-02;2942;0.013090902;0.0;-0.0012336716;1000.8052;  4.0036044E-01;530.71411;3;11.663107;0.0;-1.1480786;0;0.10234405;  9.9986758E+03;  0.0000000E+00; -8.1747472E-03;  1.0000000E+04;  0.0000000E+00;  9.9994111E+03;0.067840122;0.0;0.034503929;20.348679
  1.2600096E+00;  9.9999998E-03; -2.0000404E-02;2943;0.012650336;0.0;-0.00054919225;1000.8074;  4.0036035E-01;532.12872;3;11.227746;0.0;-0.51706356;0;0.099803559;  9.9986758E+03;  0.0000000E+00; -1.8634227E-03;  1.0000000E+04;  0.0000000E+00;  9.9994580E+03;0.067895979;0.0;0.031907581;15.230686
  1.2800142E+00;  9.9999998E-03; -1.2000602E-01;2953;0.018016076;0.0;-0.007444866;1000.7505;  4.0035221E-01;471.8075;3;17.506798;0.0;-6.9165974;0;0.1355266;  9.9986318E+03;  0.0000000E+00;  1.6462632E-02;  1.0000000E+04;  0.0000000E+00;  9.9987734E+03;0.067793176;0.0;0.067733414;56.884884
  1.2800140E+00;  9.9999998E-03; -1.0000470E-01;2954;0.017758844;0.0;-0.0058894381;1000.7495;  4.0035218E-01;471.13333;3;16.782793;0.0;-5.4357471;0;0.13857722;  9.9984150E+03;  0.0000000E+00; -1.6819479E-02;  1.0000000E+04;  0.0000000E+00;  9.9989697E+03;0.080705985;0.0;0.057871237;37.693256
  1.2800136E+00;  9.9999998E-03; -8.0003388E-02;2955;0.017308813;0.0;-0.0043052249;1000.7513;  4.0035209E-01;472.25787;3;16.012547;0.0;-3.9569173;0;0.13774382;  9.9982900E+03;  0.0000000E+00; -2.1442173E-02;  1.0000000E+04;  0.0000000E+00;  9.9991328E+03;0.088352591;0.0;0.049391221;25.016071
  1.2800132E+00;  9.9999998E-03; -6.0002178E-02;2956;0.016858382;0.0;-0.0028014083;1000.7532;  4.0035209E-01;473.45731;3;15.356798;0.0;-2.580193;0;0.13622853;  9.9982080E+03;  0.0000000E+00; -1.3548398E-02;  1.0000000E+04;  0.0000000E+00;  9.9992529E+03;0.093317755;0.0;0.042910773;13.362859
  1.2800130E+00;  9.9999998E-03; -4.0001228E-02;2957;0.016517878;0.0;-0.0015989813;1000.7543;  4.0035212E-01;474.13205;3;14.894478;0.0;-1.4818811;0;0.13535847;  9.9981523E+03;  0.0000000E+00; -5.7013980E-03;  1.0000000E+04;  0.0000000E+00;  9.9993330E+03;0.09673205;0.0;0.038626421;4.8059726
  1.2800127E+00;  9.9999998E-03; -2.0000542E-02;2958;0.016313227;0.0;-0.00070939469;1000.7549;  4.0035212E-01;474.50693;3;14.626953;0.0;-0.66167402;0;0.1349103;  9.9981143E+03;  0.0000000E+00; -1.3131452E-03;  1.0000000E+04;  0.0000000E+00;  9.9993789E+03;0.098786965;0.0;0.036123335;1.2169099
  1.3000137E+00;  9.9999998E-03; -8.0004260E-02;2966;0.017064873;0.0;-0.0052841888;1000.7487;  4.0034652E-01;447.64474;3;16.472332;0.0;-5.0259466;0;0.12329879;  9.9986582E+03;  0.0000000E+00;  3.2738544E-02;  1.0000000E+04;  0.0000000E+00;  9.9989883E+03;0.066382162;0.0;0.056916635;32.76096
  1.3000138E+00;  9.9999998E-03; -6.0002755E-02;2967;0.017234186;0.0;-0.0034584089;1000.7454;  4.0034652E-01;445.72;3;16.326229;0.0;-3.287009;0;0.12754257;  9.9984229E+03;  0.0000000E+00;  9.8706456E-03;  1.0000000E+04;  0.0000000E+00;  9.9991621E+03;0.079773359;0.0;0.047769211;13.046011
  1.3000139E+00;  9.9999998E-03; -4.0001556E-02;2968;0.017330039;0.0;-0.0019676548;1000.7416;  4.0034655E-01;443.43893;3;16.208988;0.0;-1.873848;0;0.13194796;  9.9982490E+03;  0.0000000E+00;  2.1912951E-03;  1.0000000E+04;  0.0000000E+00;  9.9992598E+03;0.089458637;0.0;0.042489331;2.0596595
  1.3000139E+00;  9.9999998E-03; -2.0000681E-02;2969;0.017373048;0.0;-0.00086787133;1000.7391;  4.0034652E-01;441.94202;3;16.132326;0.0;-0.82900321;0;0.13500592;  9.9981475E+03;  0.0000000E+00;  2.9951593E-04;  1.0000000E+04;  0.0000000E+00;  9.9993105E+03;0.095176205;0.0;0.03982972;3.831445
 -2.0121678E-09;  9.9999998E-03; -2.2790222E-17;1045;-6.6891885e-06;0.0;-3.0890937e-13;1000.0001;  4.0000001E-01;0.098762624;3;-0.014928641;0.0;-1.3101258e-09;0;-0.00013721191;  1.0000001E+04;  0.0000000E+00; -8.0161168E-19;  1.0000000E+04;  0.0000000E+00;  1.0000000E+04;-0.00013962793;0.0;2.416012e-06;0.0085546132
 -2.0096127E-09;  9.9999998E-03;  2.0000000E-02;1046;-6.6814046e-06;0.0;5.9308967e-08;1000.0001;  4.0000001E-01;0.098762624;3;-0.014912409;0.0;0.00014004996;0;-0.00013702281;  1.0000001E+04;  0.0000000E+00; -2.7045206E-13;  1.0000000E+04;  0.0000000E+00;  1.0000000E+04;-0.00013947205;0.0;2.4492349e-06;0.0086364718
 -2.0018274E-09;  9.9999998E-03;  3.9999999E-02;1047;-6.6577509e-06;0.0;1.2069053e-07;1000.0001;  4.0000001E-01;0.098762624;3;-0.014863351;0.0;0.00028478436;0;-0.00013644825;  1.0000001E+04;  0.0000000E+00; -2.7991129E-13;  1.0000000E+04;  0.0000000E+00;  1.0000000E+04;-0.00013899439;0.0;2.5461466e-06;0.0088780895
 -1.9883928E-09;  9.9999998E-03;  5.9999999E-02;1048;-6.6168914e-06;0.0;1.8612049e-07;1000.0001;  4.0000001E-01;0.098762624;3;-0.014778795;0.0;0.00043935294;0;-0.00013546445;  1.0000001E+04;  0.0000000E+00;  7.0172566E-14;  1.0000000E+04;  0.0000000E+00;  1.0000000E+04;-0.00013816415;0.0;2.6996938e-06;0.0092676962
 -1.9685535E-09;  9.9999998E-03;  7.9999998E-02;1049;-6.5564004e-06;0.0;2.5715877e-07;1000.0001;  4.0000001E-01;0.098762624;3;-0.014653843;0.0;0.00060583197;0;-0.00013402662;  1.0000001E+04;  0.0000000E+00;  9.7948586E-14;  1.0000000E+04;  0.0000000E+00;  1.0000000E+04;-0.00013692751;0.0;2.9008893e-06;0.0097850468
 -1.9412776E-09;  9.9999998E-03;  1.0000000E-01;1050;-6.4727815e-06;0.0;3.3376833e-07;1000.0001;  4.0000001E-01;0.098762624;3;-0.014480681;0.0;0.00078236591;0;-0.00013206417;  1.0000001E+04;  0.0000000E+00; -2.0921786E-12;  1.0000000E+04;  0.0000000E+00;  1.0000000E+04;-0.00013520393;0.0;3.1397506e-06;0.010397702
 -1.9050705E-09;  9.9999998E-03;  1.2000000E-01;1051;-6.3605557e-06;0.0;4.1745517e-07;1000.0001;  4.0000001E-01;0.098762624;3;-0.014246074;0.0;0.0009723191;0;-0.00012947884;  1.0000001E+04;  0.0000000E+00; -2.2085426E-12;  1.0000000E+04;  0.0000000E+00;  1.0000000E+04;-0.00013288071;0.0;3.4018688e-06;0.011052621
 -1.8579202E-09;  9.9999998E-03;  1.4000000E-01;1052;-6.2124723e-06;0.0;5.1078439e-07;1000.0001;  4.0000001E-01;0.098762624;3;-0.013932625;0.0;0.0011818979;0;-0.00012614719;  1.0000001E+04;  0.0000000E+00;  1.2188649E-12;  1.0000000E+04;  0.0000000E+00;  1.0000000E+04;-0.00012980757;0.0;3.6603758e-06;0.011664563
  1.9999998E-02;  9.9999998E-03;  1.4332046E-16;1075;-1.0254194e-05;0.0;4.1961112e-13;1000.0001;  4.0000001E-01;0.098762624;3;-0.022162559;0.0;2.3401325e-10;0;-0.00018875182;  1.0000001E+04;  0.0000000E+00;  7.7256201E-20;  1.0000000E+04;  0.0000000E+00;  1.0000000E+04;-0.00019244839;0.0;3.6965848e-06;0.01311261
  1.9999998E-02;  9.9999998E-03;  2.0000000E-02;1076;-1.0243337e-05;0.0;8.8558998e-08;1000.0001;  4.0000001E-01;0.098762624;3;-0.022141509;0.0;0.00020220639;0;-0.00018850589;  1.0000001E+04;  0.0000000E+00; -5.4316491E-13;  1.0000000E+04;  0.0000000E+00;  1.0000000E+04;-0.00019225478;0.0;3.7488956e-06;0.013245606
  1.9999998E-02;  9.9999998E-03;  3.9999999E-02;1077;-1.0210115e-05;0.0;1.8033332e-07;1000.0001;  4.0000001E-01;0.098762624;3;-0.02207759;0.0;0.0004111653;0;-0.00018775876;  1.0000001E+04;  0.0000000E+00; -3.5058249E-13;  1.0000000E+04;  0.0000000E+00;  1.0000000E+04;-0.00019166057;0.0;3.9018041e-06;0.013637993
  1.9999998E-02;  9.9999998E-03;  5.9999999E-02;1078;-1.0152308e-05;0.0;2.7808272e-07;1000.0001;  4.0000001E-01;0.098762624;3;-0.021966452;0.0;0.00063356501;0;-0.00018647905;  1.0000001E+04;  0.0000000E+00;  6.2981359E-15;  1.0000000E+04;  0.0000000E+00;  1.0000000E+04;-0.00019062389;0.0;4.1448302e-06;0.014270501
  1.9999998E-02;  9.9999998E-03;  7.9999998E-02;1079;-1.0066161e-05;0.0;3.8442508e-07;1000.0001;  4.0000001E-01;0.098762624;3;-0.021800444;0.0;0.00087408413;0;-0.00018460731;  1.0000001E+04;  0.0000000E+00; -2.2868243E-14;  1.0000000E+04;  0.0000000E+00;  1.0000000E+04;-0.0001890713;0.0;4.4639955e-06;0.015110713
  1.9999998E-02;  9.9999998E-03;  1.0000000E-01;1080;-9.9461313e-06;0.0;5.0004519e-07;1000.0001;  4.0000001E-01;0.098762624;3;-0.021566905;0.0;0.0011325048;0;-0.00018204935;  1.0000001E+04;  0.0000000E+00; -1.1641816E-12;  1.0000000E+04;  0.0000000E+00;  1.0000000E+04;-0.00018689208;0.0;4.842736e-06;0.01610758
  1.9999998E-02;  9.9999998E-03;  1.2000000E-01;1081;-9.7841157e-06;0.0;6.2629476e-07;1000.0001;  4.0000001E-01;0.098762624;3;-0.021246377;0.0;0.0014111983;0;-0.00017867281;  1.0000001E+04;  0.0000000E+00; -2.6751958E-12;  1.0000000E+04;  0.0000000E+00;  1.0000000E+04;-0.00018392982;0.0;5.2570122e-06;0.017178457
  1.9999998E-02;  9.9999998E-03;  1.4000000E-01;1082;-9.5693804e-06;0.0;7.6698103e-07;1000.0001;  4.0000001E-01;0.098762624;3;-0.020813726;0.0;0.0017191916;0;-0.00017430935;  1.0000001E+04;  0.0000000E+00; -1.7146081E-12;  1.0000000E+04;  0.0000000E+00;  1.0000000E+04;-0.00017997395;0.0;5.6646068e-06;0.018191991
  3.9999995E-02;  9.9999998E-03; -2.2158362E-16;1106;-1.5329393e-05;0.0;-4.2386128e-13;1000.0001;  4.0000001E-01;0.098762624;3;-0.032134183;0.0;-1.952829e-10;0;-0.00025534813;  1.0000002E+04;  0.0000000E+00;  2.7375321E-18;  1.0000000E+04;  0.0000000E+00;  1.0000000E+04;-0.00026068988;0.0;5.3417334e-06;0.019348135
  3.9999995E-02;  9.9999998E-03;  2.0000000E-02;1107;-1.531419e-05;0.0;1.2343091e-07;1000.0001;  4.0000001E-01;0.098762624;3;-0.032106712;0.0;0.0002706032;0;-0.00025503742;  1.0000002E+04;  0.0000000E+00; -2.8310001E-13;  1.0000000E+04;  0.0000000E+00;  1.0000000E+04;-0.00026045783;0.0;5.4204079e-06;0.019554563
  3.9999995E-02;  9.9999998E-03;  3.9999999E-02;1108;-1.5267662e-05;0.0;2.5152144e-07;1000.0001;  4.0000001E-01;0.098762624;3;-0.032023102;0.0;0.00054997945;0;-0.00025409332;  1.0000002E+04;  0.0000000E+00;  9.1956919E-14;  1.0000000E+04;  0.0000000E+00;  1.0000000E+04;-0.00025974421;0.0;5.6508766e-06;0.020163674
  3.9999995E-02;  9.9999998E-03;  5.9999999E-02;1109;-1.5186725e-05;0.0;3.8792774e-07;1000.0001;  4.0000001E-01;0.098762624;3;-0.031877685;0.0;0.00084670517;0;-0.00025247561;  1.0000002E+04;  0.0000000E+00;  2.1688783E-13;  1.0000000E+04;  0.0000000E+00;  1.0000000E+04;-0.00025849394;0.0;6.0183265e-06;0.02114586
  3.9999995E-02;  9.9999998E-03;  7.9999998E-02;1110;-1.5065945e-05;0.0;5.3658317e-07;1000.0001;  4.0000001E-01;0.098762624;3;-0.03165964;0.0;0.001168658;0;-0.00025010749;  1.0000002E+04;  0.0000000E+00;  3.0587111E-13;  1.0000000E+04;  0.0000000E+00;  1.0000000E+04;-0.00025660952;0.0;6.5020286e-06;0.022451917
  3.9999995E-02;  9.9999998E-03;  1.0000000E-01;1111;-1.4897532e-05;0.0;6.989597e-07;1000.0001;  4.0000001E-01;0.098762624;3;-0.031351674;0.0;0.0015180218;0;-0.00024686701;  1.0000002E+04;  0.0000000E+00;  1.3669261E-12;  1.0000000E+04;  0.0000000E+00;  1.0000000E+04;-0.00025394291;0.0;7.0759029e-06;0.024005271
  3.9999995E-02;  9.9999998E-03;  1.2000000E-01;1112;-1.4670008e-05;0.0;8.7660197e-07;1000.0001;  4.0000001E-01;0.098762624;3;-0.030926768;0.0;0.0018972791;0;-0.00024258127;  1.0000002E+04;  0.0000000E+00; -9.0067434E-13;  1.0000000E+04;  0.0000000E+00;  1.0000000E+04;-0.00025028319;0.0;7.7019185e-06;0.025683185
  3.9999995E-02;  9.9999998E-03;  1.4000000E-01;1113;-1.4367301e-05;0.0;1.0744236e-06;1000.0001;  4.0000001E-01;0.098762624;3;-0.030347239;0.0;0.0023173771;0;-0.00023702586;  1.0000002E+04;  0.0000000E+00; -3.3638817E-12;  1.0000000E+04;  0.0000000E+00;  1.0000000E+04;-0.00024534288;0.0;8.3170198e-06;0.027292676
  5.9999991E-02;  9.9999998E-03;  4.7249568E-16;1137;-2.2229768e-05;0.0;-2.43437e-14;1000.0001;  4.0000001E-01;0.098762624;3;-0.045261785;0.0;-7.3256157e-09;0;-0.00034489686;  1.0000003E+04;  0.0000000E+00;  7.0201645E-19;  1.0000000E+04;  0.0000000E+00;  1.0000000E+04;-0.00035233679;0.0;7.4399377e-06;0.027899388
  5.9999991E-02;  9.9999998E-03;  2.0000000E-02;1138;-2.2209018e-05;0.0;1.6791553e-07;1000.0001;  4.0000001E-01;0.098762624;3;-0.045226358;0.0;0.00035261779;0;-0.00034450841;  1.0000003E+04;  0.0000000E+00; -5.2310109E-13;  1.0000000E+04;  0.0000000E+00;  1.0000000E+04;-0.00035206371;0.0;7.5552975e-06;0.028211672
  5.9999991E-02;  9.9999998E-03;  3.9999999E-02;1139;-2.2145601e-05;0.0;3.4217493e-07;1000.0001;  4.0000001E-01;0.098762624;3;-0.045118585;0.0;0.00071606564;0;-0.00034332793;  1.0000003E+04;  0.0000000E+00; -1.0063829E-13;  1.0000000E+04;  0.0000000E+00;  1.0000000E+04;-0.00035122191;0.0;7.8939665e-06;0.029133847
  5.9999991E-02;  9.9999998E-03;  5.9999999E-02;1140;-2.2035591e-05;0.0;5.2742041e-07;1000.0001;  4.0000001E-01;0.098762624;3;-0.044931792;0.0;0.001100135;0;-0.00034130423;  1.0000003E+04;  0.0000000E+00; -1.8210303E-13;  1.0000000E+04;  0.0000000E+00;  1.0000000E+04;-0.00034973989;0.0;8.4356452e-06;0.030622989
  5.9999991E-02;  9.9999998E-03;  7.9999998E-02;1141;-2.18718e-05;0.0;7.2935546e-07;1000.0001;  4.0000001E-01;0.098762624;3;-0.044652637;0.0;0.0015170828;0;-0.00033833925;  1.0000003E+04;  0.0000000E+00;  8.4093089E-13;  1.0000000E+04;  0.0000000E+00;  1.0000000E+04;-0.00034748969;0.0;9.1504371e-06;0.032607339
  5.9999991E-02;  9.9999998E-03;  1.0000000E-01;1142;-2.1643777e-05;0.0;9.5022705e-07;1000.0001;  4.0000001E-01;0.098762624;3;-0.04425887;0.0;0.0019717806;0;-0.00033427743;  1.0000003E+04;  0.0000000E+00;  6.6882047E-13;  1.0000000E+04;  0.0000000E+00;  1.0000000E+04;-0.00034427611;0.0;9.9986828e-06;0.034975316
  5.9999995E-02;  9.9999998E-03;  1.2000000E-01;1143;-2.133566e-05;0.0;1.1932418e-06;1000.0001;  4.0000001E-01;0.098762624;3;-0.043714024;0.0;0.0024724402;0;-0.00032889482;  1.0000003E+04;  0.0000000E+00; -1.4687705E-12;  1.0000000E+04;  0.0000000E+00;  1.0000000E+04;-0.00033981728;0.0;1.0922465e-05;0.037549347
  5.9999995E-02;  9.9999998E-03;  1.4000000E-01;1144;-2.0924283e-05;0.0;1.4650649e-06;1000.0001;  4.0000001E-01;0.098762624;3;-0.04296365;0.0;0.0030337833;0;-0.00032189535;  1.0000003E+04;  0.0000000E+00;  1.3458942E-12;  1.0000000E+04;  0.0000000E+00;  1.0000000E+04;-0.00033372559;0.0;1.1830252e-05;0.040052295
  7.9999991E-02;  9.9999998E-03;  2.5687680E-16;1168;-3.1499629e-05;0.0;3.008079e-12;1000.0002;  4.0000001E-01;0.19752525;3;-0.062386941;0.0;1.0741552e-08;0;-0.00046693764;  1.0000005E+04;  0.0000000E+00;  2.2134873E-18;  1.0000000E+04;  0.0000000E+00;  1.0000000E+04;-0.00047706859;0.0;1.013096e-05;0.039661024
  7.9999991E-02;  9.9999998E-03;  2.0000000E-02;1169;-3.1472384e-05;0.0;2.2593164e-07;1000.0002;  4.0000001E-01;0.19752525;3;-0.062342539;0.0;0.00045541022;0;-0.00046645422;  1.0000005E+04;  0.0000000E+00; -4.0272592E-13;  1.0000000E+04;  0.0000000E+00;  1.0000000E+04;-0.0004767522;0.0;1.0297996e-05;0.040127262
  7.9999991E-02;  9.9999998E-03;  3.9999999E-02;1170;-3.1389194e-05;0.0;4.6014668e-07;1000.0002;  4.0000001E-01;0.19752525;3;-0.062207673;0.0;0.00092349539;0;-0.00046498436;  1.0000005E+04;  0.0000000E+00; -4.9284405E-13;  1.0000000E+04;  0.0000000E+00;  1.0000000E+04;-0.00047577388;0.0;1.0789514e-05;0.041506235
  7.9999991E-02;  9.9999998E-03;  5.9999999E-02;1171;-3.1245174e-05;0.0;7.0857521e-07;1000.0002;  4.0000001E-01;0.19752525;3;-0.061974738;0.0;0.0014151578;0;-0.0004624631;  1.0000005E+04;  0.0000000E+00; -3.6680275E-13;  1.0000000E+04;  0.0000000E+00;  1.0000000E+04;-0.00047404144;0.0;1.1578353e-05;0.043739025
  7.9999991E-02;  9.9999998E-03;  7.9999998E-02;1172;-3.1030908e-05;0.0;9.7946997e-07;1000.0002;  4.0000001E-01;0.19752525;3;-0.061627038;0.0;0.0019488027;0;-0.00045876653;  1.0000005E+04;  0.0000000E+00; -4.2709041E-13;  1.0000000E+04;  0.0000000E+00;  1.0000000E+04;-0.00047138892;0.0;1.2622391e-05;0.046724834
  7.9999991E-02;  9.9999998E-03;  1.0000000E-01;1173;-3.0732415e-05;0.0;1.2765422e-06;1000.0002;  4.0000001E-01;0.19752525;3;-0.061136536;0.0;0.0025342826;0;-0.00045369656;  1.0000005E+04;  0.0000000E+00;  1.2217218E-12;  1.0000000E+04;  0.0000000E+00;  1.0000000E+04;-0.00046755953;0.0;1.3862963e-05;0.050304316
  7.9999991E-02;  9.9999998E-03;  1.2000000E-01;1174;-3.0328094e-05;0.0;1.605017e-06;1000.0002;  4.0000001E-01;0.19752525;3;-0.060454622;0.0;0.0031876592;0;-0.00044696493;  1.0000005E+04;  0.0000000E+00; -2.2250179E-12;  1.0000000E+04;  0.0000000E+00;  1.0000000E+04;-0.00046217901;0.0;1.5214089e-05;0.054223347
  7.9999991E-02;  9.9999998E-03;  1.4000000E-01;1175;-2.9786268e-05;0.0;1.9738623e-06;1000.0002;  4.0000001E-01;0.19752525;3;-0.059509084;0.0;0.0039281612;0;-0.00043818078;  1.0000004E+04;  0.0000000E+00; -1.1164556E-12;  1.0000000E+04;  0.0000000E+00;  1.0000000E+04;-0.00045472596;0.0;1.6545166e-05;0.058086589
  9.9999987E-02;  9.9999998E-03; -3.8579844E-16;1199;-4.3919259e-05;0.0;2.8235267e-14;1000.0003;  4.0000001E-01;0.29628786;3;-0.084683873;0.0;5.3520992e-09;0;-0.00063277519;  1.0000007E+04;  0.0000000E+00;  7.6839289E-19;  1.0000000E+04;  0.0000000E+00;  1.0000000E+04;-0.00064638071;0.0;1.3605499e-05;0.05583908
  9.9999987E-02;  9.9999998E-03;  2.0000000E-02;1200;-4.3884993e-05;0.0;3.0120609e-07;1000.0003;  4.0000001E-01;0.29628786;3;-0.084630534;0.0;0.00058534619;0;-0.00063217652;  1.0000007E+04;  0.0000000E+00; -7.8786322E-14;  1.0000000E+04;  0.0000000E+00;  1.0000000E+04;-0.00064602232;0.0;1.3845819e-05;0.056530092
  9.9999987E-02;  9.9999998E-03;  3.9999999E-02;1201;-4.3780194e-05;0.0;6.1320844e-07;1000.0003;  4.0000001E-01;0.29628786;3;-0.08446832;0.0;0.001185602;0;-0.00063035556;  1.0000007E+04;  0.0000000E+00; -1.8079469E-14;  1.0000000E+04;  0.0000000E+00;  1.0000000E+04;-0.00064491032;0.0;1.4554771e-05;0.058578506
  9.9999987E-02;  9.9999998E-03;  5.9999999E-02;1202;-4.35988e-05;0.0;9.4378174e-07;1000.0003;  4.0000001E-01;0.29628786;3;-0.084188208;0.0;0.0018132346;0;-0.00062722922;  1.0000006E+04;  0.0000000E+00; -1.4375957E-12;  1.0000000E+04;  0.0000000E+00;  1.0000000E+04;-0.00064292643;0.0;1.5697213e-05;0.061908443
  9.9999987E-02;  9.9999998E-03;  7.9999998E-02;1203;-4.3328379e-05;0.0;1.3049802e-06;1000.0003;  4.0000001E-01;0.29628786;3;-0.083769374;0.0;0.0024949885;0;-0.00062264054;  1.0000006E+04;  0.0000000E+00; -1.4090443E-12;  1.0000000E+04;  0.0000000E+00;  1.0000000E+04;-0.00063985615;0.0;1.7215591e-05;0.066384263
  9.9999987E-02;  9.9999998E-03;  1.0000000E-01;1204;-4.2950163e-05;0.0;1.7029614e-06;1000.0003;  4.0000001E-01;0.29628786;3;-0.083176352;0.0;0.0032482676;0;-0.00061633869;  1.0000006E+04;  0.0000000E+00; -5.3090171E-13;  1.0000000E+04;  0.0000000E+00;  1.0000000E+04;-0.00063536415;0.0;1.9025483e-05;0.071783178
  9.9999987E-02;  9.9999998E-03;  1.2000000E-01;1205;-4.2435258e-05;0.0;2.1446454e-06;1000.0003;  4.0000001E-01;0.29628786;3;-0.082347244;0.0;0.0040971609;0;-0.00060795323;  1.0000006E+04;  0.0000000E+00; -2.1404543E-12;  1.0000000E+04;  0.0000000E+00;  1.0000000E+04;-0.00062895496;0.0;2.100171e-05;0.077742949
  9.9999987E-02;  9.9999998E-03;  1.4000000E-01;1206;-4.1740725e-05;0.0;2.6420623e-06;1000.0003;  4.0000001E-01;0.29628786;3;-0.081187822;0.0;0.0050662942;0;-0.00059697323;  1.0000006E+04;  0.0000000E+00; -3.7547877E-12;  1.0000000E+04;  0.0000000E+00;  1.0000000E+04;-0.00061993266;0.0;2.2959413e-05;0.083700843
  1.1999998E-01;  9.9999998E-03; -1.4257690E-16;1230;-6.0570812e-05;0.0;-2.1632422e-12;1000.0004;  4.0000001E-01;0.3950505;3;-0.11371735;0.0;-9.8684652e-09;0;-0.00085597689;  1.0000009E+04;  0.0000000E+00;  3.9972565E-19;  1.0000000E+04;  0.0000000E+00;  1.0000000E+04;-0.00087407901;0.0;1.8102102e-05;0.078026898
  1.1999998E-01;  9.9999998E-03;  2.0000000E-02;1231;-6.0529364e-05;0.0;3.9759377e-07;1000.0004;  4.0000001E-01;0.3950505;3;-0.11365669;0.0;0.00074803445;0;-0.00085524196;  1.0000009E+04;  0.0000000E+00; -1.0797592E-13;  1.0000000E+04;  0.0000000E+00;  1.0000000E+04;-0.00087368808;0.0;1.8446117e-05;0.079044499
  1.1999998E-01;  9.9999998E-03;  3.9999999E-02;1232;-6.0402454e-05;0.0;8.0975286e-07;1000.0004;  4.0000001E-01;0.3950505;3;-0.11347134;0.0;0.0015157508;0;-0.00085300469;  1.0000009E+04;  0.0000000E+00;  5.2418410E-13;  1.0000000E+04;  0.0000000E+00;  1.0000000E+04;-0.00087246863;0.0;1.9463951e-05;0.082069606
  1.1999998E-01;  9.9999998E-03;  5.9999999E-02;1233;-6.0182476e-05;0.0;1.2462885e-06;1000.0004;  4.0000001E-01;0.3950505;3;-0.11315066;0.0;0.0023149343;0;-0.0008491585;  1.0000009E+04;  0.0000000E+00; -5.9746343E-13;  1.0000000E+04;  0.0000000E+00;  1.0000000E+04;-0.00087027089;0.0;2.1112412e-05;0.087012589
  1.1999998E-01;  9.9999998E-03;  7.9999998E-02;1234;-5.9853046e-05;0.0;1.7253828e-06;1000.0004;  4.0000001E-01;0.3950505;3;-0.11266783;0.0;0.0031860236;0;-0.00084350549;  1.0000009E+04;  0.0000000E+00; -2.0633363E-12;  1.0000000E+04;  0.0000000E+00;  1.0000000E+04;-0.00086682185;0.0;2.331637e-05;0.093701594
  1.1999998E-01;  9.9999998E-03;  1.0000000E-01;1235;-5.9389029e-05;0.0;2.2574113e-06;1000.0004;  4.0000001E-01;0.3950505;3;-0.11197846;0.0;0.0041563669;0;-0.00083572522;  1.0000008E+04;  0.0000000E+00;  2.3674338E-13;  1.0000000E+04;  0.0000000E+00;  1.0000000E+04;-0.00086168409;0.0;2.5958883e-05;0.1018353
  1.1999998E-01;  9.9999998E-03;  1.2000000E-01;1236;-5.8751204e-05;0.0;2.8504076e-06;1000.0004;  4.0000001E-01;0.3950505;3;-0.11100355;0.0;0.0052581849;0;-0.00082534755;  1.0000008E+04;  0.0000000E+00; -3.9853685E-12;  1.0000000E+04;  0.0000000E+00;  1.0000000E+04;-0.00085420971;0.0;2.8862176e-05;0.11090601
  1.1999998E-01;  9.9999998E-03;  1.4000000E-01;1237;-5.7881472e-05;0.0;3.5208113e-06;1000.0004;  4.0000001E-01;0.3950505;3;-0.10962074;0.0;0.00652357;0;-0.00081170799;  1.0000008E+04;  0.0000000E+00; -2.8429229E-12;  1.0000000E+04;  0.0000000E+00;  1.0000000E+04;-0.00084347761;0.0;3.1769647e-05;0.12012757
  1.3999997E-01;  9.9999998E-03; -9.5470682E-16;1261;-8.2881335e-05;0.0;1.0956427e-12;1000.0006;  4.0000001E-01;0.49381313;3;-0.15139937;0.0;1.5237166e-08;0;-0.001153215;  1.0000013E+04;  0.0000000E+00;  2.2886075E-18;  1.0000000E+04;  0.0000000E+00;  1.0000000E+04;-0.0011771214;0.0;2.3906445e-05;0.10831372
  1.3999997E-01;  9.9999998E-03;  2.0000000E-02;1262;-8.2833394e-05;0.0;5.19254e-07;1000.0006;  4.0000001E-01;0.49381313;3;-0.15133601;0.0;0.00094746548;0;-0.0011523253;  1.0000013E+04;  0.0000000E+00; -1.1161719E-12;  1.0000000E+04;  0.0000000E+00;  1.0000000E+04;-0.0011767211;0.0;2.4395755e-05;0.10979997
  1.3999997E-01;  9.9999998E-03;  3.9999999E-02;1263;-8.2685932e-05;0.0;1.058005e-06;1000.0006;  4.0000001E-01;0.49381313;3;-0.15114091;0.0;0.0019209338;0;-0.0011496125;  1.0000013E+04;  0.0000000E+00;  5.2874269E-13;  1.0000000E+04;  0.0000000E+00;  1.0000000E+04;-0.0011754608;0.0;2.5848334e-05;0.11423281
  1.3999997E-01;  9.9999998E-03;  6.0000002E-02;1264;-8.2428953e-05;0.0;1.6305744e-06;1000.0006;  4.0000001E-01;0.49381313;3;-0.15079951;0.0;0.0029368359;0;-0.0011449405;  1.0000012E+04;  0.0000000E+00; -2.0307284E-12;  1.0000000E+04;  0.0000000E+00;  1.0000000E+04;-0.0011731561;0.0;2.8215578e-05;0.12152088
  1.3999997E-01;  9.9999998E-03;  7.9999998E-02;1265;-8.2041428e-05;0.0;2.2623688e-06;1000.0006;  4.0000001E-01;0.49381313;3;-0.15027764;0.0;0.0040494618;0;-0.0011380545;  1.0000012E+04;  0.0000000E+00; -3.6645643E-12;  1.0000000E+04;  0.0000000E+00;  1.0000000E+04;-0.0011694606;0.0;3.1406074e-05;0.13146691
  1.3999997E-01;  9.9999998E-03;  1.0000000E-01;1266;-8.1489925e-05;0.0;2.9714481e-06;1000.0006;  4.0000001E-01;0.49381313;3;-0.14951658;0.0;0.0053014685;0;-0.0011285493;  1.0000012E+04;  0.0000000E+00; -2.0164460E-13;  1.0000000E+04;  0.0000000E+00;  1.0000000E+04;-0.0011638167;0.0;3.5267316e-05;0.14368936
  1.3999997E-01;  9.9999998E-03;  1.2000000E-01;1267;-8.0721584e-05;0.0;3.7679206e-06;1000.0005;  4.0000001E-01;0.49381313;3;-0.14841484;0.0;0.0067342403;0;-0.0011158236;  1.0000012E+04;  0.0000000E+00;  1.4999199E-12;  1.0000000E+04;  0.0000000E+00;  1.0000000E+04;-0.0011553835;0.0;3.9559891e-05;0.1575139
  1.3999997E-01;  9.9999998E-03;  1.4000000E-01;1268;-7.9655991e-05;0.0;4.6742275e-06;1000.0005;  4.0000001E-01;0.49381313;3;-0.14681715;0.0;0.0083879661;0;-0.0010990149;  1.0000012E+04;  0.0000000E+00; -5.7201960E-12;  1.0000000E+04;  0.0000000E+00;  1.0000000E+04;-0.0011429625;0.0;4.3947646e-05;0.171909
  1.5999995E-01;  9.9999998E-03; -7.5058321E-16;1292;-0.00011269615;0.0;-8.6659472e-13;1000.0009;  4.0000001E-01;0.69133836;3;-0.2000166;0.0;-3.9818033e-09;0;-0.0015454275;  1.0000017E+04;  0.0000000E+00;  5.2575753E-18;  1.0000000E+04;  0.0000000E+00;  1.0000000E+04;-0.0015767841;0.0;3.1356634e-05;0.1494361
  1.5999995E-01;  9.9999998E-03;  2.0000000E-02;1293;-0.00011264355;0.0;6.7024217e-07;1000.0009;  4.0000001E-01;0.69133836;3;-0.19996037;0.0;0.0011830515;0;-0.0015443709;  1.0000017E+04;  0.0000000E+00; -7.0538876E-13;  1.0000000E+04;  0.0000000E+00;  1.0000000E+04;-0.0015764171;0.0;3.2046224e-05;0.15158296
  1.5999995E-01;  9.9999998E-03;  3.9999999E-02;1294;-0.00011248027;0.0;1.3677147e-06;1000.0009;  4.0000001E-01;0.69133836;3;-0.19978297;0.0;0.0024041862;0;-0.0015411451;  1.0000017E+04;  0.0000000E+00;  7.9737513E-13;  1.0000000E+04;  0.0000000E+00;  1.0000000E+04;-0.0015752467;0.0;3.4101515e-05;0.15800996
  1.5999995E-01;  9.9999998E-03;  6.0000002E-02;1295;-0.00011219236;0.0;2.1131123e-06;1000.0009;  4.0000001E-01;0.69133836;3;-0.19946241;0.0;0.0036873515;0;-0.0015355707;  1.0000017E+04;  0.0000000E+00;  6.0053145E-13;  1.0000000E+04;  0.0000000E+00;  1.0000000E+04;-0.0015730468;0.0;3.7476108e-05;0.16865274
  1.5999995E-01;  9.9999998E-03;  7.9999998E-02;1296;-0.00011175234;0.0;2.9416115e-06;1000.0009;  4.0000001E-01;0.69133836;3;-0.19895354;0.0;0.0051053781;0;-0.0015273184;  1.0000017E+04;  0.0000000E+00; -1.3297858E-12;  1.0000000E+04;  0.0000000E+00;  1.0000000E+04;-0.0015693906;0.0;4.207221e-05;0.18332753
  1.5999995E-01;  9.9999998E-03;  1.0000000E-01;1297;-0.00011111516;0.0;3.88332e-06;1000.0009;  4.0000001E-01;0.69133836;3;-0.1981765;0.0;0.006724121;0;-0.0015158668;  1.0000016E+04;  0.0000000E+00;  5.8152398E-12;  1.0000000E+04;  0.0000000E+00;  1.0000000E+04;-0.0015635776;0.0;4.7710731e-05;0.20161329
  1.5999995E-01;  9.9999998E-03;  1.2000000E-01;1298;-0.0001102107;0.0;4.9546175e-06;1000.0009;  4.0000001E-01;0.69133836;3;-0.19700101;0.0;0.0085948892;0;-0.0015004369;  1.0000016E+04;  0.0000000E+00; -1.0188017E-12;  1.0000000E+04;  0.0000000E+00;  1.0000000E+04;-0.0015545383;0.0;5.4101376e-05;0.22271568
  1.5999997E-01;  9.9999998E-03;  1.4000000E-01;1299;-0.0001089299;0.0;6.186885e-06;1000.0008;  4.0000001E-01;0.69133836;3;-0.19522831;0.0;0.010768423;0;-0.0014798868;  1.0000016E+04;  0.0000000E+00; -8.7991639E-14;  1.0000000E+04;  0.0000000E+00;  1.0000000E+04;-0.0015407442;0.0;6.0857357e-05;0.24546108
  1.7999995E-01;  9.9999998E-03;  1.9598189E-15;1323;-0.00015236567;0.0;1.1341844e-11;1000.0011;  4.0000001E-01;0.88886362;3;-0.2623986;0.0;3.6712528e-08;0;-0.0020591214;  1.0000021E+04;  0.0000000E+00; -5.1750851E-18;  1.0000000E+04;  0.0000000E+00;  1.0000000E+04;-0.0020999797;0.0;4.0858366e-05;0.2049859
  1.7999995E-01;  9.9999998E-03;  2.0000000E-02;1324;-0.00015231145;0.0;8.5456935e-07;1000.0011;  4.0000001E-01;0.88886362;3;-0.26236448;0.0;0.0014482826;0;-0.0020578997;  1.0000021E+04;  0.0000000E+00; -8.7134699E-13;  1.0000000E+04;  0.0000000E+00;  1.0000000E+04;-0.002099718;0.0;4.1818261e-05;0.20804405
  1.7999995E-01;  9.9999998E-03;  3.9999999E-02;1325;-0.00015214157;0.0;1.748152e-06;1000.0011;  4.0000001E-01;0.88886362;3;-0.26225004;0.0;0.0029551438;0;-0.0020541602;  1.0000021E+04;  0.0000000E+00; -4.5284496E-13;  1.0000000E+04;  0.0000000E+00;  1.0000000E+04;-0.0020988525;0.0;4.469238e-05;0.21723808
  1.7999995E-01;  9.9999998E-03;  6.0000002E-02;1326;-0.00015183665;0.0;2.7120054e-06;1000.0011;  4.0000001E-01;0.88886362;3;-0.26202229;0.0;0.0045605307;0;-0.0020476677;  1.0000021E+04;  0.0000000E+00; -2.8197553E-12;  1.0000000E+04;  0.0000000E+00;  1.0000000E+04;-0.0020971214;0.0;4.9453654e-05;0.23258966
  1.7999995E-01;  9.9999998E-03;  7.9999998E-02;1327;-0.00015135827;0.0;3.7949276e-06;1000.0011;  4.0000001E-01;0.88886362;3;-0.26161352;0.0;0.0063630813;0;-0.0020379894;  1.0000021E+04;  0.0000000E+00;  3.6123082E-13;  1.0000000E+04;  0.0000000E+00;  1.0000000E+04;-0.0020940136;0.0;5.6024259e-05;0.25402296
  1.7999995E-01;  9.9999998E-03;  1.0000000E-01;1328;-0.00015064579;0.0;5.0448689e-06;1000.0011;  4.0000001E-01;0.88886362;3;-0.26091754;0.0;0.0084589049;0;-0.002024435;  1.0000021E+04;  0.0000000E+00;  7.5847358E-12;  1.0000000E+04;  0.0000000E+00;  1.0000000E+04;-0.0020886692;0.0;6.423414e-05;0.28120789
  1.7999995E-01;  9.9999998E-03;  1.2000000E-01;1329;-0.00014960801;0.0;6.4860369e-06;1000.0011;  4.0000001E-01;0.88886362;3;-0.25976884;0.0;0.010909702;0;-0.0020059657;  1.0000021E+04;  0.0000000E+00; -7.4825519E-13;  1.0000000E+04;  0.0000000E+00;  1.0000000E+04;-0.002079763;0.0;7.3797222e-05;0.31343091
  1.7999995E-01;  9.9999998E-03;  1.4000000E-01;1330;-0.00014810171;0.0;8.1659118e-06;1000.0011;  4.0000001E-01;0.88886362;3;-0.25791168;0.0;0.013786782;0;-0.0019810139;  1.0000021E+04;  0.0000000E+00;  7.6710383E-12;  1.0000000E+04;  0.0000000E+00;  1.0000000E+04;-0.0020653924;0.0;8.4378582e-05;0.34973732
  1.9999991E-01;  9.9999998E-03;  2.8846711E-15;1354;-0.00020485213;0.0;3.6504836e-12;1000.0016;  4.0000001E-01;1.2839141;3;-0.34203306;0.0;1.8806546e-08;0;-0.0027273346;  1.0000031E+04;  0.0000000E+00; -9.2625443E-18;  1.0000000E+04;  0.0000000E+00;  1.0000000E+04;-0.0027802493;0.0;5.2914806e-05;0.27969232
  1.9999991E-01;  9.9999998E-03;  2.0000000E-02;1355;-0.00020480026;0.0;1.0779394e-06;1000.0016;  4.0000001E-01;1.2839141;3;-0.34203762;0.0;0.0017362438;0;-0.0027259735;  1.0000031E+04;  0.0000000E+00; -6.6246189E-13;  1.0000000E+04;  0.0000000E+00;  1.0000000E+04;-0.0027802035;0.0;5.4229997e-05;0.28397772
  1.9999991E-01;  9.9999998E-03;  3.9999999E-02;1356;-0.00020463542;0.0;2.211184e-06;1000.0016;  4.0000001E-01;1.2839141;3;-0.34203464;0.0;0.0035603107;0;-0.0027217879;  1.0000031E+04;  0.0000000E+00;  1.6451512E-12;  1.0000000E+04;  0.0000000E+00;  1.0000000E+04;-0.0027799767;0.0;5.818882e-05;0.29692307
  1.9999991E-01;  9.9999998E-03;  6.0000002E-02;1357;-0.00020433259;0.0;3.4500456e-06;1000.0016;  4.0000001E-01;1.2839141;3;-0.34198117;0.0;0.0055478471;0;-0.0027144698;  1.0000031E+04;  0.0000000E+00;  8.1693154E-13;  1.0000000E+04;  0.0000000E+00;  1.0000000E+04;-0.0027792861;0.0;6.4816268e-05;0.31874597
  1.9999991E-01;  9.9999998E-03;  8.0000006E-02;1358;-0.00020384135;0.0;4.8606794e-06;1000.0016;  4.0000001E-01;1.2839141;3;-0.34178495;0.0;0.0078290096;0;-0.0027034355;  1.0000031E+04;  0.0000000E+00;  1.8844024E-12;  1.0000000E+04;  0.0000000E+00;  1.0000000E+04;-0.0027775448;0.0;7.4109266e-05;0.34966564
  1.9999991E-01;  9.9999998E-03;  1.0000000E-01;1359;-0.00020308269;0.0;6.5154127e-06;1000.0016;  4.0000001E-01;1.2839141;3;-0.34131038;0.0;0.010534743;0;-0.0026877574;  1.0000031E+04;  0.0000000E+00;  7.4774475E-12;  1.0000000E+04;  0.0000000E+00;  1.0000000E+04;-0.0027737452;0.0;8.5987776e-05;0.38973057
  1.9999991E-01;  9.9999998E-03;  1.2000000E-01;1360;-0.0002019408;0.0;8.4473768e-06;1000.0016;  4.0000001E-01;1.2839141;3;-0.34035337;0.0;0.013741211;0;-0.0026659872;  1.0000031E+04;  0.0000000E+00;  1.3503702E-12;  1.0000000E+04;  0.0000000E+00;  9.9999990E+03;-0.0027662825;0.0;0.0001002952;0.438761
  1.9999991E-01;  9.9999998E-03;  1.4000000E-01;1361;-0.0002002265;0.0;1.0733057e-05;1000.0015;  4.0000001E-01;1.2839141;3;-0.33858228;0.0;0.017562905;0;-0.0026358778;  1.0000031E+04;  0.0000000E+00; -1.4888620E-11;  1.0000000E+04;  0.0000000E+00;  9.9999990E+03;-0.0027528377;0.0;0.00011695996;0.49678111
  2.1999989E-01;  9.9999998E-03;  6.8877151E-16;1385;-0.00027386475;0.0;2.7844272e-12;1000.0021;  4.0000001E-01;1.6789646;3;-0.44314429;0.0;3.7174161e-08;0;-0.0035906427;  1.0000042E+04;  0.0000000E+00;  8.8283771E-18;  1.0000000E+04;  0.0000000E+00;  1.0000000E+04;-0.0036588246;0.0;6.8181813e-05;0.37983677
  2.1999989E-01;  9.9999998E-03;  2.0000001E-02;1386;-0.00027382077;0.0;1.3502876e-06;1000.0021;  4.0000001E-01;1.6789646;3;-0.44320607;0.0;0.0020494352;0;-0.0035892013;  1.0000042E+04;  0.0000000E+00;  9.6914854E-14;  1.0000000E+04;  0.0000000E+00;  1.0000000E+04;-0.0036591501;0.0;6.9948816e-05;0.38573152
  2.1999989E-01;  9.9999998E-03;  4.0000003E-02;1387;-0.00027367822;0.0;2.7776209e-06;1000.002;  4.0000001E-01;1.6789646;3;-0.44337147;0.0;0.0042277467;0;-0.0035847477;  1.0000042E+04;  0.0000000E+00;  2.0075799E-12;  1.0000000E+04;  0.0000000E+00;  1.0000000E+04;-0.0036600481;0.0;7.5300501e-05;0.40363541
  2.1999989E-01;  9.9999998E-03;  6.0000002E-02;1388;-0.00027340729;0.0;4.3591467e-06;1000.002;  4.0000001E-01;1.6789646;3;-0.44359019;0.0;0.006659362;0;-0.0035768677;  1.0000042E+04;  0.0000000E+00; -3.1353711E-12;  1.0000000E+04;  0.0000000E+00;  1.0000000E+04;-0.0036612377;0.0;8.4369967e-05;0.43414491
  2.1999989E-01;  9.9999998E-03;  8.0000006E-02;1389;-0.00027294891;0.0;6.1827873e-06;1000.002;  4.0000001E-01;1.580202;3;-0.44375873;0.0;0.0095139295;0;-0.0035647815;  1.0000042E+04;  0.0000000E+00; -2.2550499E-12;  1.0000000E+04;  0.0000000E+00;  9.9999990E+03;-0.0036621068;0.0;9.7325297e-05;0.47809881
  2.1999989E-01;  9.9999998E-03;  1.0000000E-01;1390;-0.0002722033;0.0;8.3568202e-06;1000.002;  4.0000001E-01;1.580202;3;-0.44370827;0.0;0.012977874;0;-0.0035471928;  1.0000042E+04;  0.0000000E+00;  5.2197530E-12;  1.0000000E+04;  0.0000000E+00;  9.9999990E+03;-0.0036615138;0.0;0.00011432102;0.53643668
  2.1999989E-01;  9.9999998E-03;  1.2000000E-01;1391;-0.00027102526;0.0;1.0925345e-05;1000.002;  4.0000001E-01;1.580202;3;-0.44318876;0.0;0.017135272;0;-0.0035220436;  1.0000042E+04;  0.0000000E+00; -7.0381171E-12;  1.0000000E+04;  0.0000000E+00;  9.9999990E+03;-0.0036575918;0.0;0.00013554825;0.61031008
  2.1999989E-01;  9.9999998E-03;  1.4000000E-01;1392;-0.00026916494;0.0;1.4013226e-05;1000.002;  4.0000001E-01;1.580202;3;-0.44176844;0.0;0.022187732;0;-0.0034860286;  1.0000041E+04;  0.0000000E+00;  5.4936277E-12;  1.0000000E+04;  0.0000000E+00;  9.9999990E+03;-0.0036475633;0.0;0.00016153461;0.70198524
  2.3999985E-01;  9.9999998E-03; -7.7464983E-15;1416;-0.00036394529;0.0;-4.8395371e-11;1000.0027;  4.0000001E-01;2.2715404;3;-0.570566;0.0;-1.9356355e-07;0;-0.0046983436;  1.0000057E+04;  0.0000000E+00; -4.3201327E-18;  1.0000000E+04;  0.0000000E+00;  1.0000000E+04;-0.0047859144;0.0;8.7570661e-05;0.51389265
  2.3999985E-01;  9.9999998E-03;  2.0000001E-02;1417;-0.00036391907;0.0;1.6851665e-06;1000.0027;  4.0000001E-01;2.2715404;3;-0.57071382;0.0;0.0023939009;0;-0.0046969354;  1.0000057E+04;  0.0000000E+00; -2.6935621E-14;  1.0000000E+04;  0.0000000E+00;  1.0000000E+04;-0.0047868248;0.0;8.9889472e-05;0.52184004
  2.3999985E-01;  9.9999998E-03;  4.0000003E-02;1418;-0.00036382963;0.0;3.4734492e-06;1000.0027;  4.0000001E-01;2.2715404;3;-0.57113791;0.0;0.0049664234;0;-0.0046925503;  1.0000057E+04;  0.0000000E+00; -2.3887600E-12;  1.0000000E+04;  0.0000000E+00;  9.9999990E+03;-0.0047895131;0.0;9.6962875e-05;0.54612285
  2.3999985E-01;  9.9999998E-03;  6.0000002E-02;1419;-0.00036364459;0.0;5.4767452e-06;1000.0027;  4.0000001E-01;2.2715404;3;-0.57178569;0.0;0.0079041785;0;-0.0046846387;  1.0000056E+04;  0.0000000E+00; -5.9331776E-12;  1.0000000E+04;  0.0000000E+00;  9.9999990E+03;-0.004793758;0.0;0.0001091192;0.58799452
  2.3999985E-01;  9.9999998E-03;  8.0000006E-02;1420;-0.00036329977;0.0;7.8094135e-06;1000.0027;  4.0000001E-01;2.2715404;3;-0.57254571;0.0;0.011422278;0;-0.0046721525;  1.0000056E+04;  0.0000000E+00; -5.1935418E-12;  1.0000000E+04;  0.0000000E+00;  9.9999990E+03;-0.0047989991;0.0;0.00012684651;0.64941239
  2.3999985E-01;  9.9999998E-03;  1.0000000E-01;1421;-0.00036267456;0.0;1.0632834e-05;1000.0027;  4.0000001E-01;2.2715404;3;-0.5732168;0.0;0.015803024;0;-0.0046532885;  1.0000056E+04;  0.0000000E+00;  2.8851502E-12;  1.0000000E+04;  0.0000000E+00;  9.9999990E+03;-0.0048040464;0.0;0.00015075794;0.73299783
  2.3999985E-01;  9.9999998E-03;  1.2000000E-01;1422;-0.00036158986;0.0;1.4008411e-05;1000.0026;  4.0000001E-01;2.1727777;3;-0.57350004;0.0;0.021125328;0;-0.004625075;  1.0000056E+04;  0.0000000E+00;  2.9427436E-11;  1.0000000E+04;  0.0000000E+00;  9.9999980E+03;-0.0048067914;0.0;0.00018171626;0.84245032
  2.3999985E-01;  9.9999998E-03;  1.4000000E-01;1423;-0.00035971947;0.0;1.8138689e-05;1000.0026;  4.0000001E-01;2.1727777;3;-0.57283032;0.0;0.027751705;0;-0.0045826631;  1.0000056E+04;  0.0000000E+00;  1.2715794E-11;  1.0000000E+04;  0.0000000E+00;  9.9999980E+03;-0.0048039728;0.0;0.0002213095;0.98410767
  2.5999978E-01;  9.9999998E-03;  6.6449163E-16;1447;-0.00048063858;0.0;1.5141126e-11;1000.0038;  4.0000001E-01;3.1604037;3;-0.72970676;0.0;2.8834904e-08;0;-0.0061096624;  1.0000077E+04;  0.0000000E+00; -2.7401584E-18;  1.0000000E+04;  0.0000000E+00;  9.9999990E+03;-0.0062220925;0.0;0.00011243036;0.69350761
  2.5999978E-01;  9.9999998E-03;  2.0000001E-02;1448;-0.00048064522;0.0;2.1005874e-06;1000.0038;  4.0000001E-01;3.1604037;3;-0.7299825;0.0;0.0027756549;0;-0.0061084777;  1.0000077E+04;  0.0000000E+00;  1.9838961E-12;  1.0000000E+04;  0.0000000E+00;  9.9999990E+03;-0.0062238686;0.0;0.00011539075;0.70400202
  2.5999978E-01;  9.9999998E-03;  4.0000003E-02;1449;-0.00048065753;0.0;4.3326063e-06;1000.0038;  4.0000001E-01;3.1604037;3;-0.73079717;0.0;0.0057849544;0;-0.0061047161;  1.0000077E+04;  0.0000000E+00;  2.3363150E-13;  1.0000000E+04;  0.0000000E+00;  9.9999990E+03;-0.006229212;0.0;0.0001244958;0.7362718
  2.5999978E-01;  9.9999998E-03;  6.0000002E-02;1450;-0.00048064432;0.0;6.8504141e-06;1000.0038;  4.0000001E-01;3.1604037;3;-0.73209858;0.0;0.0092900973;0;-0.0060976851;  1.0000077E+04;  0.0000000E+00;  2.3327828E-12;  1.0000000E+04;  0.0000000E+00;  9.9999990E+03;-0.0062380764;0.0;0.00014039128;0.79260778
  2.5999978E-01;  9.9999998E-03;  8.0000006E-02;1451;-0.00048054248;0.0;9.7970278e-06;1000.0037;  4.0000001E-01;3.0616412;3;-0.73377955;0.0;0.013552025;0;-0.0060859947;  1.0000077E+04;  0.0000000E+00;  2.1557393E-12;  1.0000000E+04;  0.0000000E+00;  9.9999980E+03;-0.0062500904;0.0;0.00016409566;0.87677664
  2.5999978E-01;  9.9999998E-03;  1.0000001E-01;1452;-0.00048021422;0.0;1.3404321e-05;1000.0037;  4.0000001E-01;3.0616412;3;-0.73560888;0.0;0.01897213;0;-0.006067175;  1.0000077E+04;  0.0000000E+00;  1.3602438E-11;  1.0000000E+04;  0.0000000E+00;  9.9999980E+03;-0.0062641697;0.0;0.00019699453;0.99418485
  2.5999978E-01;  9.9999998E-03;  1.2000000E-01;1453;-0.00047944669;0.0;1.7785156e-05;1000.0037;  4.0000001E-01;3.0616412;3;-0.73723912;0.0;0.025707664;0;-0.006036988;  1.0000076E+04;  0.0000000E+00;  2.6145463E-11;  1.0000000E+04;  0.0000000E+00;  9.9999980E+03;-0.0062780469;0.0;0.0002410587;1.1527567
  2.5999978E-01;  9.9999998E-03;  1.4000002E-01;1454;-0.00047782715;0.0;2.3235005e-05;1000.0037;  4.0000001E-01;3.0616412;3;-0.73796195;0.0;0.034292433;0;-0.0059884144;  1.0000076E+04;  0.0000000E+00; -9.2141236E-13;  1.0000000E+04;  0.0000000E+00;  9.9999971E+03;-0.0062879366;0.0;0.00029952236;1.3653796
  2.7999970E-01;  9.9999998E-03;  3.1173135E-15;1478;-0.00063084101;0.0;1.8921052e-11;1000.0049;  4.0000001E-01;4.0492673;3;-0.92673111;0.0;1.0319525e-08;0;-0.0078950627;  1.0000102E+04;  0.0000000E+00;  3.0577337E-17;  1.0000000E+04;  0.0000000E+00;  9.9999990E+03;-0.0080399103;0.0;0.000144848;0.93497092
  2.7999970E-01;  9.9999998E-03;  2.0000001E-02;1479;-0.00063090399;0.0;2.6238513e-06;1000.0049;  4.0000001E-01;4.0492673;3;-0.92719436;0.0;0.0032089707;0;-0.0078943884;  1.0000102E+04;  0.0000000E+00;  5.1951750E-12;  1.0000000E+04;  0.0000000E+00;  9.9999980E+03;-0.008042898;0.0;0.00014851004;0.94855738
  2.7999970E-01;  9.9999998E-03;  4.0000003E-02;1480;-0.00063108961;0.0;5.4061593e-06;1000.0049;  4.0000001E-01;4.0492673;3;-0.92857885;0.0;0.0067053572;0;-0.007892102;  1.0000102E+04;  0.0000000E+00;  5.8786838E-12;  1.0000000E+04;  0.0000000E+00;  9.9999980E+03;-0.0080519821;0.0;0.00015988061;0.99060059
  2.7999970E-01;  9.9999998E-03;  6.0000002E-02;1481;-0.00063137669;0.0;8.5502934e-06;1000.0049;  4.0000001E-01;4.0492673;3;-0.93084747;0.0;0.010843561;0;-0.0078873783;  1.0000102E+04;  0.0000000E+00; -4.9663693E-12;  1.0000000E+04;  0.0000000E+00;  9.9999980E+03;-0.0080674589;0.0;0.0001800802;1.0649003
  2.7999970E-01;  9.9999998E-03;  8.0000006E-02;1482;-0.00063171465;0.0;1.2226586e-05;1000.0049;  4.0000001E-01;4.0492673;3;-0.93391031;0.0;0.015909277;0;-0.00787846;  1.0000102E+04;  0.0000000E+00; -7.1891955E-13;  1.0000000E+04;  0.0000000E+00;  9.9999980E+03;-0.0080893915;0.0;0.0002109312;1.1778922
  2.7999970E-01;  9.9999998E-03;  1.0000001E-01;1483;-0.00063196028;0.0;1.6767233e-05;1000.0049;  4.0000001E-01;4.0492673;3;-0.9375307;0.0;0.022507112;0;-0.0078620426;  1.0000102E+04;  0.0000000E+00; -3.6957624E-12;  1.0000000E+04;  0.0000000E+00;  9.9999980E+03;-0.0081170434;0.0;0.00025500057;1.3391739
  2.7999970E-01;  9.9999998E-03;  1.2000001E-01;1484;-0.00063186896;0.0;2.2364307e-05;1000.0049;  4.0000001E-01;4.0492673;3;-0.94130921;0.0;0.030896343;0;-0.0078322757;  1.0000102E+04;  0.0000000E+00;  2.7822406E-11;  1.0000000E+04;  0.0000000E+00;  9.9999961E+03;-0.0081481999;0.0;0.00031592403;1.5630662
  2.7999970E-01;  9.9999998E-03;  1.4000002E-01;1485;-0.00063093723;0.0;2.9445662e-05;1000.0049;  4.0000001E-01;4.0492673;3;-0.94439465;0.0;0.041846115;0;-0.0077792117;  1.0000102E+04;  0.0000000E+00;  2.9029683E-11;  1.0000000E+04;  0.0000000E+00;  9.9999961E+03;-0.0081785237;0.0;0.00039931203;1.8722538
  2.9999962E-01;  9.9999998E-03; -1.2482847E-14;1509;-0.00082325708;0.0;-1.3875226e-11;1000.0066;  4.0000001E-01;5.4319429;3;-1.1687435;0.0;1.4981458e-07;0;-0.010137729;  1.0000134E+04;  0.0000000E+00; -2.0017099E-17;  1.0000000E+04;  0.0000000E+00;  9.9999980E+03;-0.01032584;0.0;0.00018811066;1.261319
  2.9999962E-01;  9.9999998E-03;  2.0000001E-02;1510;-0.00082340842;0.0;3.2996884e-06;1000.0066;  4.0000001E-01;5.4319429;3;-1.1694713;0.0;0.0037297669;0;-0.010137953;  1.0000134E+04;  0.0000000E+00;  1.6435299E-12;  1.0000000E+04;  0.0000000E+00;  9.9999980E+03;-0.010330439;0.0;0.0001924854;1.2786342
  2.9999962E-01;  9.9999998E-03;  4.0000003E-02;1511;-0.00082386984;0.0;6.7780984e-06;1000.0066;  4.0000001E-01;5.4319429;3;-1.1716659;0.0;0.0077890162;0;-0.010138357;  1.0000134E+04;  0.0000000E+00; -1.4818558E-12;  1.0000000E+04;  0.0000000E+00;  9.9999980E+03;-0.010344574;0.0;0.00020621718;1.3325242
  2.9999962E-01;  9.9999998E-03;  6.0000006E-02;1512;-0.00082464219;0.0;1.0678873e-05;1000.0066;  4.0000001E-01;5.4319429;3;-1.1753256;0.0;0.012602977;0;-0.010138026;  1.0000135E+04;  0.0000000E+00; -9.5141657E-13;  1.0000000E+04;  0.0000000E+00;  9.9999980E+03;-0.010369115;0.0;0.00023108772;1.4287978
  2.9999962E-01;  9.9999998E-03;  8.0000006E-02;1513;-0.00082570658;0.0;1.5232397e-05;1000.0066;  4.0000001E-01;5.4319429;3;-1.180407;0.0;0.018564399;0;-0.010134877;  1.0000136E+04;  0.0000000E+00;  9.5133259E-12;  1.0000000E+04;  0.0000000E+00;  9.9999971E+03;-0.010404928;0.0;0.00027005083;1.5775079
  2.9999962E-01;  9.9999998E-03;  1.0000001E-01;1514;-0.00082693557;0.0;2.086106e-05;1000.0066;  4.0000001E-01;5.4319429;3;-1.1866949;0.0;0.026435994;0;-0.010124706;  1.0000136E+04;  0.0000000E+00;  1.6892120E-11;  1.0000000E+04;  0.0000000E+00;  9.9999961E+03;-0.010452057;0.0;0.00032735118;1.7940692
  2.9999962E-01;  9.9999998E-03;  1.2000001E-01;1515;-0.0008280623;0.0;2.7894808e-05;1000.0065;  4.0000001E-01;5.3331804;3;-1.1937528;0.0;0.036663435;0;-0.0100997;  1.0000136E+04;  0.0000000E+00;  6.6991100E-12;  1.0000000E+04;  0.0000000E+00;  9.9999961E+03;-0.010508678;0.0;0.00040897785;2.1018369
  2.9999962E-01;  9.9999998E-03;  1.4000002E-01;1516;-0.000828491;0.0;3.6895126e-05;1000.0065;  4.0000001E-01;5.3331804;3;-1.2005758;0.0;0.050201174;0;-0.010046209;  1.0000135E+04;  0.0000000E+00; -1.0388078E-11;  1.0000000E+04;  0.0000000E+00;  9.9999941E+03;-0.010570057;0.0;0.00052384729;2.5374951
  3.1999949E-01;  9.9999998E-03; -8.9149201E-15;1540;-0.0010689124;0.0;3.5178083e-11;1000.0086;  4.0000001E-01;7.1109076;3;-1.4640974;0.0;1.6605384e-07;0;-0.012935173;  1.0000178E+04;  0.0000000E+00; -6.1953669E-18;  1.0000000E+04;  0.0000000E+00;  9.9999971E+03;-0.013182546;0.0;0.00024737348;1.7052231
  3.1999949E-01;  9.9999998E-03;  2.0000001E-02;1541;-0.0010691955;0.0;4.2006868e-06;1000.0086;  4.0000001E-01;7.1109076;3;-1.4651864;0.0;0.0044130944;0;-0.012936805;  1.0000178E+04;  0.0000000E+00;  2.8019241E-12;  1.0000000E+04;  0.0000000E+00;  9.9999971E+03;-0.013189221;0.0;0.00025241528;1.7271456
  3.1999949E-01;  9.9999998E-03;  4.0000003E-02;1542;-0.0010700681;0.0;8.5922511e-06;1000.0086;  4.0000001E-01;7.1109076;3;-1.4684972;0.0;0.0091826366;0;-0.012941489;  1.0000178E+04;  0.0000000E+00; -1.2012384E-12;  1.0000000E+04;  0.0000000E+00;  9.9999971E+03;-0.013209923;0.0;0.00026843374;1.7956502
  3.1999949E-01;  9.9999998E-03;  6.0000006E-02;1543;-0.0010715738;0.0;1.3438691e-05;1000.0086;  4.0000001E-01;7.1109076;3;-1.4740919;0.0;0.014758789;0;-0.012948359;  1.0000178E+04;  0.0000000E+00; -1.4027229E-11;  1.0000000E+04;  0.0000000E+00;  9.9999961E+03;-0.013246426;0.0;0.000298067;1.9189727
  3.1999949E-01;  9.9999998E-03;  8.0000013E-02;1544;-0.0010737511;0.0;1.9045838e-05;1000.0086;  4.0000001E-01;7.1109076;3;-1.482024;0.0;0.021697165;0;-0.012955202;  1.0000177E+04;  0.0000000E+00; -1.4033946E-11;  1.0000000E+04;  0.0000000E+00;  9.9999961E+03;-0.013300953;0.0;0.00034575094;2.1116316
  3.1999949E-01;  9.9999998E-03;  1.0000002E-01;1545;-0.0010765279;0.0;2.5931246e-05;1000.0086;  4.0000001E-01;7.1109076;3;-1.4921551;0.0;0.030885139;0;-0.012956999;  1.0000178E+04;  0.0000000E+00;  2.9349253E-12;  1.0000000E+04;  0.0000000E+00;  9.9999961E+03;-0.013374962;0.0;0.0004179625;2.3964615
  3.1999949E-01;  9.9999998E-03;  1.2000002E-01;1546;-0.0010796294;0.0;3.4605546e-05;1000.0085;  4.0000001E-01;7.1109076;3;-1.5040134;0.0;0.042972662;0;-0.012943809;  1.0000178E+04;  0.0000000E+00; -5.9580424E-11;  1.0000000E+04;  0.0000000E+00;  9.9999941E+03;-0.013467666;0.0;0.00052385655;2.8087645
  3.1999949E-01;  9.9999998E-03;  1.4000002E-01;1547;-0.0010824004;0.0;4.5836889e-05;1000.0085;  4.0000001E-01;7.0121446;3;-1.5165316;0.0;0.059492294;0;-0.012897437;  1.0000179E+04;  0.0000000E+00; -3.2655094E-11;  1.0000000E+04;  0.0000000E+00;  9.9999922E+03;-0.013574289;0.0;0.00067685166;3.404532
  3.3999929E-01;  9.9999998E-03;  5.1682742E-14;1571;-0.0013815012;0.0;1.1443031e-10;1000.0114;  4.0000001E-01;9.4812088;3;-1.8226856;0.0;9.7103225e-08;0;-0.01640073;  1.0000231E+04;  0.0000000E+00;  1.4837739E-17;  1.0000000E+04;  0.0000000E+00;  9.9999961E+03;-0.016731294;0.0;0.00033056454;2.3127332
  3.3999929E-01;  9.9999998E-03;  2.0000003E-02;1572;-0.0013819677;0.0;5.4587649e-06;1000.0114;  4.0000001E-01;9.4812088;3;-1.8242548;0.0;0.0054286406;0;-0.016404368;  1.0000231E+04;  0.0000000E+00; -6.2675013E-12;  1.0000000E+04;  0.0000000E+00;  9.9999961E+03;-0.016740562;0.0;0.00033619508;2.3407412
  3.3999929E-01;  9.9999998E-03;  4.0000007E-02;1573;-0.0013834148;0.0;1.1099643e-05;1000.0114;  4.0000001E-01;9.4812088;3;-1.8290418;0.0;0.01119335;0;-0.016415199;  1.0000231E+04;  0.0000000E+00; -7.7378269E-12;  1.0000000E+04;  0.0000000E+00;  9.9999961E+03;-0.016769515;0.0;0.00035431536;2.4283304
  3.3999929E-01;  9.9999998E-03;  6.0000010E-02;1574;-0.0013859551;0.0;1.7187655e-05;1000.0114;  4.0000001E-01;9.4812088;3;-1.8372306;0.0;0.017722484;0;-0.016432738;  1.0000231E+04;  0.0000000E+00;  1.0293271E-11;  1.0000000E+04;  0.0000000E+00;  9.9999961E+03;-0.016821317;0.0;0.00038858014;2.5863211
  3.3999929E-01;  9.9999998E-03;  8.0000013E-02;1575;-0.001389728;0.0;2.4107278e-05;1000.0115;  4.0000001E-01;9.4812088;3;-1.8490428;0.0;0.025743315;0;-0.016455043;  1.0000233E+04;  0.0000000E+00; -2.3999153E-11;  1.0000000E+04;  0.0000000E+00;  9.9999951E+03;-0.016900262;0.0;0.00044521832;2.8341181
  3.3999929E-01;  9.9999998E-03;  1.0000002E-01;1576;-0.0013947715;0.0;3.2461277e-05;1000.0114;  4.0000001E-01;9.4812088;3;-1.8645017;0.0;0.036257043;0;-0.016476691;  1.0000233E+04;  0.0000000E+00; -2.7387198E-11;  1.0000000E+04;  0.0000000E+00;  9.9999932E+03;-0.017010149;0.0;0.00053345796;3.2030311
  3.3999929E-01;  9.9999998E-03;  1.2000002E-01;1577;-0.0014008464;0.0;4.303622e-05;1000.0114;  4.0000001E-01;9.3824463;3;-1.8831489;0.0;0.050266128;0;-0.016485704;  1.0000234E+04;  0.0000000E+00;  1.0159255E-11;  1.0000000E+04;  0.0000000E+00;  9.9999922E+03;-0.01715219;0.0;0.00066648645;3.7429616
  3.3999929E-01;  9.9999998E-03;  1.4000003E-01;1578;-0.001407292;0.0;5.6768007e-05;1000.0113;  4.0000001E-01;9.3824463;3;-1.9039166;0.0;0.069807418;0;-0.016458696;  1.0000235E+04;  0.0000000E+00;  4.7405378E-11;  1.0000000E+04;  0.0000000E+00;  9.9999893E+03;-0.017322412;0.0;0.00086371659;4.5354896
  3.5999906E-01;  9.9999998E-03;  8.3071232E-15;1602;-0.0017772081;0.0;1.3292009e-10;1000.0149;  4.0000001E-01;12.345323;3;-2.2557983;0.0;3.4538652e-07;0;-0.02066456;  1.0000303E+04;  0.0000000E+00; -4.1077045E-17;  1.0000000E+04;  0.0000000E+00;  9.9999951E+03;-0.021114087;0.0;0.00044952729;3.1478565
  3.5999906E-01;  9.9999998E-03;  2.0000003E-02;1603;-0.0017779114;0.0;7.2928292e-06;1000.0149;  4.0000001E-01;12.345323;3;-2.2579708;0.0;0.0070780455;0;-0.02067077;  1.0000303E+04;  0.0000000E+00; -1.7556887E-12;  1.0000000E+04;  0.0000000E+00;  9.9999941E+03;-0.02112649;0.0;0.00045571991;3.1847026
  3.5999906E-01;  9.9999998E-03;  4.0000007E-02;1604;-0.0017801054;0.0;1.4730083e-05;1000.0149;  4.0000001E-01;12.345323;3;-2.2646303;0.0;0.014399695;0;-0.020689663;  1.0000303E+04;  0.0000000E+00;  2.5348111E-12;  1.0000000E+04;  0.0000000E+00;  9.9999932E+03;-0.021165544;0.0;0.00047588249;3.2995417
  3.5999906E-01;  9.9999998E-03;  6.0000014E-02;1605;-0.0017840123;0.0;2.254993e-05;1000.0149;  4.0000001E-01;12.345323;3;-2.2761462;0.0;0.022291206;0;-0.02072165;  1.0000303E+04;  0.0000000E+00; -2.5351287E-11;  1.0000000E+04;  0.0000000E+00;  9.9999932E+03;-0.021236407;0.0;0.00051475619;3.5054684
  3.5999906E-01;  9.9999998E-03;  8.0000021E-02;1606;-0.0017899306;0.0;3.121241e-05;1000.0148;  4.0000001E-01;12.24656;3;-2.2930043;0.0;0.031637982;0;-0.020765839;  1.0000304E+04;  0.0000000E+00; -1.2476215E-11;  1.0000000E+04;  0.0000000E+00;  9.9999932E+03;-0.021346344;0.0;0.00058050494;3.8262484
  3.5999906E-01;  9.9999998E-03;  1.0000002E-01;1607;-0.0017980952;0.0;4.1358388e-05;1000.0148;  4.0000001E-01;12.24656;3;-2.3155315;0.0;0.043452796;0;-0.020817326;  1.0000305E+04;  0.0000000E+00;  6.5869782E-11;  1.0000000E+04;  0.0000000E+00;  9.9999912E+03;-0.021502735;0.0;0.00068540813;4.3012686
  3.5999906E-01;  9.9999998E-03;  1.2000003E-01;1608;-0.0018083873;0.0;5.4171396e-05;1000.0148;  4.0000001E-01;12.24656;3;-2.343421;0.0;0.059486277;0;-0.020862725;  1.0000307E+04;  0.0000000E+00;  1.2799627E-10;  1.0000000E+04;  0.0000000E+00;  9.9999893E+03;-0.021710139;0.0;0.00084741507;4.9963875
  3.5999906E-01;  9.9999998E-03;  1.4000005E-01;1609;-0.0018202334;0.0;7.0698414e-05;1000.0147;  4.0000001E-01;12.147798;3;-2.3757076;0.0;0.081857271;0;-0.020873118;  1.0000309E+04;  0.0000000E+00;  9.1833381E-11;  1.0000000E+04;  0.0000000E+00;  9.9999863E+03;-0.021966746;0.0;0.001093627;6.0252395
  3.7999877E-01;  9.9999998E-03;  1.4288001E-14;1633;-0.0022740541;0.0;1.9907379e-10;1000.0192;  4.0000001E-01;15.900773;3;-2.7752225;0.0;7.227128e-07;0;-0.025874093;  1.0000392E+04;  0.0000000E+00; -6.9166163E-18;  1.0000000E+04;  0.0000000E+00;  9.9999932E+03;-0.026495412;0.0;0.00062131911;4.2976742
  3.7999877E-01;  9.9999998E-03;  2.0000005E-02;1634;-0.0022750427;0.0;1.0053795e-05;1000.0192;  4.0000001E-01;15.900773;3;-2.7781229;0.0;0.0098707536;0;-0.025883282;  1.0000392E+04;  0.0000000E+00; -2.4847159E-11;  1.0000000E+04;  0.0000000E+00;  9.9999932E+03;-0.026511565;0.0;0.00062828395;4.3485398
  3.7999877E-01;  9.9999998E-03;  4.0000010E-02;1635;-0.002278147;0.0;2.0178812e-05;1000.0193;  4.0000001E-01;15.999536;3;-2.7870564;0.0;0.01978958;0;-0.025911694;  1.0000392E+04;  0.0000000E+00; -3.8548081E-11;  1.0000000E+04;  0.0000000E+00;  9.9999922E+03;-0.026562784;0.0;0.00065108866;4.5059233
  3.7999877E-01;  9.9999998E-03;  6.0000017E-02;1636;-0.0022837501;0.0;3.0559986e-05;1000.0193;  4.0000001E-01;15.999536;3;-2.8026655;0.0;0.029891144;0;-0.025961474;  1.0000394E+04;  0.0000000E+00; -4.0168587E-11;  1.0000000E+04;  0.0000000E+00;  9.9999902E+03;-0.026656928;0.0;0.00069545466;4.7842064
  3.7999877E-01;  9.9999998E-03;  8.0000021E-02;1637;-0.0022923984;0.0;4.1712272e-05;1000.0192;  4.0000001E-01;15.900773;3;-2.8258491;0.0;0.041146945;0;-0.02603412;  1.0000395E+04;  0.0000000E+00; -4.3701948E-11;  1.0000000E+04;  0.0000000E+00;  9.9999902E+03;-0.026805392;0.0;0.00077127159;5.2093668
  3.7999874E-01;  9.9999998E-03;  1.0000003E-01;1638;-0.0023046564;0.0;5.4273522e-05;1000.0192;  4.0000001E-01;15.900773;3;-2.8574448;0.0;0.054497968;0;-0.026126906;  1.0000396E+04;  0.0000000E+00;  1.2745757E-11;  1.0000000E+04;  0.0000000E+00;  9.9999883E+03;-0.027020559;0.0;0.00089365221;5.8259039
  3.7999874E-01;  9.9999998E-03;  1.2000004E-01;1639;-0.0023206882;0.0;6.9757087e-05;1000.0192;  4.0000001E-01;15.900773;3;-2.8975389;0.0;0.072371356;0;-0.026226509;  1.0000398E+04;  0.0000000E+00;  2.8230146E-10;  1.0000000E+04;  0.0000000E+00;  9.9999863E+03;-0.027312061;0.0;0.0010855508;6.714098
  3.7999874E-01;  9.9999998E-03;  1.4000005E-01;1640;-0.0023401007;0.0;8.9593683e-05;1000.0192;  4.0000001E-01;15.900773;3;-2.9453418;0.0;0.097442009;0;-0.026298877;  1.0000401E+04;  0.0000000E+00;  1.2415788E-10;  1.0000000E+04;  0.0000000E+00;  9.9999814E+03;-0.027682191;0.0;0.0013833146;8.0244608
  3.9999837E-01;  9.9999998E-03; -1.6171894E-14;1664;-0.0028916064;0.0;1.1402884e-10;1000.0248;  4.0000001E-01;20.542608;3;-3.3923862;0.0;6.845296e-07;0;-0.032193203;  1.0000508E+04;  0.0000000E+00; -2.8108491E-17;  1.0000000E+04;  0.0000000E+00;  9.9999893E+03;-0.033062693;0.0;0.00086948846;5.8772817
  3.9999837E-01;  9.9999998E-03;  2.0000009E-02;1665;-0.0028929173;0.0;1.4264016e-05;1000.0248;  4.0000001E-01;20.542608;3;-3.3961225;0.0;0.014614024;0;-0.032205299;  1.0000508E+04;  0.0000000E+00; -2.2617932E-11;  1.0000000E+04;  0.0000000E+00;  9.9999893E+03;-0.033083305;0.0;0.00087800453;5.95154
  3.9999837E-01;  9.9999998E-03;  4.0000018E-02;1666;-0.0028970724;0.0;2.8486598e-05;1000.0248;  4.0000001E-01;20.542608;3;-3.4077156;0.0;0.028894912;0;-0.032243453;  1.0000509E+04;  0.0000000E+00; -1.6444256E-11;  1.0000000E+04;  0.0000000E+00;  9.9999893E+03;-0.033149119;0.0;0.00090566702;6.1791182
  3.9999837E-01;  9.9999998E-03;  6.0000025E-02;1667;-0.0029046843;0.0;4.2800417e-05;1000.0248;  4.0000001E-01;20.542608;3;-3.4281857;0.0;0.042770989;0;-0.032312728;  1.0000509E+04;  0.0000000E+00;  5.3059526E-11;  1.0000000E+04;  0.0000000E+00;  9.9999873E+03;-0.033271499;0.0;0.00095877005;6.5737658
  3.9999837E-01;  9.9999998E-03;  8.0000035E-02;1668;-0.0029166765;0.0;5.7685633e-05;1000.0248;  4.0000001E-01;20.542608;3;-3.4590526;0.0;0.057038035;0;-0.032419045;  1.0000511E+04;  0.0000000E+00;  5.5422975E-11;  1.0000000E+04;  0.0000000E+00;  9.9999854E+03;-0.0334672;0.0;0.0010481562;7.1595073
  3.9999837E-01;  9.9999998E-03;  1.0000005E-01;1669;-0.0029341229;0.0;7.3850861e-05;1000.0248;  4.0000001E-01;20.542608;3;-3.5019195;0.0;0.072788768;0;-0.032564446;  1.0000512E+04;  0.0000000E+00;  2.4682342E-10;  1.0000000E+04;  0.0000000E+00;  9.9999834E+03;-0.03375515;0.0;0.0011907042;7.9794569
  3.9999837E-01;  9.9999998E-03;  1.2000006E-01;1670;-0.0029577294;0.0;9.291208e-05;1000.0248;  4.0000001E-01;20.542608;3;-3.5576503;0.0;0.092514493;0;-0.032738343;  1.0000516E+04;  0.0000000E+00;  6.6905714E-10;  1.0000000E+04;  0.0000000E+00;  9.9999814E+03;-0.034151927;0.0;0.001413582;9.1218834
  3.9999837E-01;  9.9999998E-03;  1.4000008E-01;1671;-0.0029874817;0.0;0.00011689693;1000.0248;  4.0000001E-01;20.542608;3;-3.625824;0.0;0.12020647;0;-0.032903079;  1.0000521E+04;  0.0000000E+00;  5.6359700E-10;  1.0000000E+04;  0.0000000E+00;  9.9999775E+03;-0.034666203;0.0;0.0017631226;10.774394
  4.1999787E-01;  9.9999998E-03; -2.7720127E-14;1695;-0.0036523461;0.0;4.8089262e-11;1000.0317;  4.0000001E-01;26.270828;3;-4.1183543;0.0;1.1074803e-07;0;-0.039794974;  1.0000651E+04;  0.0000000E+00;  1.8262326E-17;  1.0000000E+04;  0.0000000E+00;  9.9999844E+03;-0.041020036;0.0;0.0012250617;8.0330133
  4.1999787E-01;  9.9999998E-03;  2.0000011E-02;1696;-0.0036540106;0.0;2.0603424e-05;1000.0317;  4.0000001E-01;26.270828;3;-4.1230259;0.0;0.022322321;0;-0.039809089;  1.0000651E+04;  0.0000000E+00;  4.3556807E-12;  1.0000000E+04;  0.0000000E+00;  9.9999834E+03;-0.041046038;0.0;0.0012369497;8.146575
  4.1999787E-01;  9.9999998E-03;  4.0000021E-02;1697;-0.0036593294;0.0;4.1096471e-05;1000.0317;  4.0000001E-01;26.270828;3;-4.1375961;0.0;0.043905713;0;-0.039854754;  1.0000652E+04;  0.0000000E+00; -4.1681224E-11;  1.0000000E+04;  0.0000000E+00;  9.9999824E+03;-0.041129455;0.0;0.0012747009;8.4912872
  4.1999787E-01;  9.9999998E-03;  6.0000036E-02;1698;-0.0036692491;0.0;6.1499595e-05;1000.0318;  4.0000001E-01;26.369591;3;-4.1636281;0.0;0.064223751;0;-0.039941616;  1.0000654E+04;  0.0000000E+00;  6.7107819E-11;  1.0000000E+04;  0.0000000E+00;  9.9999824E+03;-0.041286033;0.0;0.0013444179;9.0775757
  4.1999787E-01;  9.9999998E-03;  8.0000050E-02;1699;-0.0036852551;0.0;8.2235114e-05;1000.0319;  4.0000001E-01;26.369591;3;-4.2034874;0.0;0.083942547;0;-0.040082768;  1.0000657E+04;  0.0000000E+00;  9.4910621E-11;  1.0000000E+04;  0.0000000E+00;  9.9999795E+03;-0.041539151;0.0;0.0014563821;9.9214458
  4.1999784E-01;  9.9999998E-03;  1.0000006E-01;1700;-0.0037092015;0.0;0.00010402131;1000.0318;  4.0000001E-01;26.369591;3;-4.2600241;0.0;0.1036827;0;-0.040288776;  1.0000660E+04;  0.0000000E+00;  4.1942749E-10;  1.0000000E+04;  0.0000000E+00;  9.9999785E+03;-0.041915718;0.0;0.0016269439;11.054168
  4.1999784E-01;  9.9999998E-03;  1.2000008E-01;1701;-0.0037426425;0.0;0.00012856111;1000.0319;  4.0000001E-01;26.369591;3;-4.3352413;0.0;0.12626043;0;-0.040555868;  1.0000664E+04;  0.0000000E+00;  1.1021136E-09;  1.0000000E+04;  0.0000000E+00;  9.9999736E+03;-0.04244088;0.0;0.0018850107;12.558859
  4.1999784E-01;  9.9999998E-03;  1.4000009E-01;1702;-0.0037863238;0.0;0.00015826429;1000.0319;  4.0000001E-01;26.468353;3;-4.4296317;0.0;0.15683471;0;-0.040846344;  1.0000669E+04;  0.0000000E+00;  1.8072968E-09;  1.0000000E+04;  0.0000000E+00;  9.9999678E+03;-0.043132156;0.0;0.0022858104;14.652303
  4.3999723E-01;  9.9999998E-03; -8.7635126E-14;1726;-0.0045853439;0.0;1.5663179e-10;1000.0404;  4.0000001E-01;33.48048;3;-4.9651761;0.0;1.77812e-06;0;-0.048832782;  1.0000832E+04;  0.0000000E+00; -1.7382242E-16;  1.0000000E+04;  0.0000000E+00;  9.9999785E+03;-0.05055945;0.0;0.0017266698;10.940769
  4.3999723E-01;  9.9999998E-03;  2.0000016E-02;1727;-0.004587383;0.0;3.0038964e-05;1000.0404;  4.0000001E-01;33.48048;3;-4.970849;0.0;0.034560706;0;-0.048846528;  1.0000832E+04;  0.0000000E+00; -3.2488894E-11;  1.0000000E+04;  0.0000000E+00;  9.9999785E+03;-0.050591942;0.0;0.0017454157;11.118748
  4.3999723E-01;  9.9999998E-03;  4.0000033E-02;1728;-0.0045939763;0.0;5.9910406e-05;1000.0405;  4.0000001E-01;33.48048;3;-4.9886456;0.0;0.067859471;0;-0.048893403;  1.0000832E+04;  0.0000000E+00;  3.1864778E-11;  1.0000000E+04;  0.0000000E+00;  9.9999766E+03;-0.050696809;0.0;0.0018034072;11.655239
  4.3999723E-01;  9.9999998E-03;  6.0000051E-02;1729;-0.0046065408;0.0;8.9580659e-05;1000.0405;  4.0000001E-01;33.48048;3;-5.0207977;0.0;0.099009089;0;-0.048989445;  1.0000835E+04;  0.0000000E+00;  1.0299437E-10;  1.0000000E+04;  0.0000000E+00;  9.9999766E+03;-0.050894879;0.0;0.0019054343;12.554482
  4.3999723E-01;  9.9999998E-03;  8.0000065E-02;1730;-0.0046274113;0.0;0.00011934367;1000.0405;  4.0000001E-01;33.579243;3;-5.0710382;0.0;0.12767829;0;-0.049158409;  1.0000837E+04;  0.0000000E+00;  5.1156185E-10;  1.0000000E+04;  0.0000000E+00;  9.9999727E+03;-0.051217247;0.0;0.002058838;13.816951
  4.3999720E-01;  9.9999998E-03;  1.0000009E-01;1731;-0.004659479;0.0;0.00015026111;1000.0404;  4.0000001E-01;33.48048;3;-5.1436882;0.0;0.15501615;0;-0.049424306;  1.0000842E+04;  0.0000000E+00;  1.0718234E-09;  1.0000000E+04;  0.0000000E+00;  9.9999678E+03;-0.05169997;0.0;0.0022756639;15.447969
  4.3999720E-01;  9.9999998E-03;  1.2000011E-01;1732;-0.0047055967;0.0;0.00018380236;1000.0405;  4.0000001E-01;33.48048;3;-5.242609;0.0;0.18323712;0;-0.049796198;  1.0000849E+04;  0.0000000E+00;  2.0956168E-09;  1.0000000E+04;  0.0000000E+00;  9.9999629E+03;-0.052377962;0.0;0.002581764;17.50528
  4.3999717E-01;  9.9999998E-03;  1.4000013E-01;1733;-0.004767729;0.0;0.00022236789;1000.0404;  4.0000001E-01;33.48048;3;-5.3699145;0.0;0.21837839;0;-0.05024258;  1.0000854E+04;  0.0000000E+00;  3.7945842E-09;  1.0000000E+04;  0.0000000E+00;  9.9999561E+03;-0.053279664;0.0;0.003037083;20.217951
  4.5999640E-01;  9.9999998E-03; -9.4485082E-14;1757;-0.0057307379;0.0;1.7471949e-10;1000.0515;  4.0000024E-01;42.665363;3;-5.9482098;0.0;2.3892035e-06;0;-0.059362587;  1.0001050E+04;  0.0000000E+00; -3.1781568E-16;  1.0000000E+04;  0.0000000E+00;  9.9999697E+03;-0.061781771;0.0;0.0024191837;14.794324
  4.5999640E-01;  9.9999998E-03;  2.0000022E-02;1758;-0.0057331882;0.0;4.3487071e-05;1000.0515;  4.0000024E-01;42.665363;3;-5.9549475;0.0;0.05251522;0;-0.05937146;  1.0001050E+04;  0.0000000E+00; -5.7868879E-12;  1.0000000E+04;  0.0000000E+00;  9.9999697E+03;-0.061822232;0.0;0.0024507702;15.074186
  4.5999637E-01;  9.9999998E-03;  4.0000048E-02;1759;-0.0057412144;0.0;8.6869979e-05;1000.0515;  4.0000024E-01;42.665363;3;-5.9761128;0.0;0.10375814;0;-0.059406552;  1.0001052E+04;  0.0000000E+00;  4.0722876E-11;  1.0000000E+04;  0.0000000E+00;  9.9999678E+03;-0.061953053;0.0;0.0025464999;15.914442
  4.5999637E-01;  9.9999998E-03;  6.0000069E-02;1760;-0.0057568983;0.0;0.00013026345;1000.0515;  4.0000018E-01;42.665363;3;-6.0150032;0.0;0.15197325;0;-0.059492879;  1.0001054E+04;  0.0000000E+00;  2.6605332E-10;  1.0000000E+04;  0.0000000E+00;  9.9999639E+03;-0.062201168;0.0;0.0027082907;17.310194
  4.5999637E-01;  9.9999998E-03;  8.0000095E-02;1761;-0.0057836589;0.0;0.00017424017;1000.0513;  4.0000021E-01;42.566601;3;-6.0767994;0.0;0.19651586;0;-0.059668958;  1.0001058E+04;  0.0000000E+00;  8.3854212E-10;  1.0000000E+04;  0.0000000E+00;  9.9999600E+03;-0.06260626;0.0;0.002937302;19.238047
  4.5999637E-01;  9.9999998E-03;  1.0000013E-01;1762;-0.0058259061;0.0;0.00021989232;1000.0515;  4.0000018E-01;42.665363;3;-6.1680045;0.0;0.23787132;0;-0.059978306;  1.0001063E+04;  0.0000000E+00;  2.7766933E-09;  1.0000000E+04;  0.0000000E+00;  9.9999541E+03;-0.063214265;0.0;0.0032359594;21.661396
  4.5999634E-01;  9.9999998E-03;  1.2000016E-01;1763;-0.0058882497;0.0;0.00026842358;1000.0514;  4.0000027E-01;42.566601;3;-6.2949705;0.0;0.27825767;0;-0.060451057;  1.0001072E+04;  0.0000000E+00;  5.7422622E-09;  1.0000000E+04;  0.0000000E+00;  9.9999473E+03;-0.06407053;0.0;0.0036194718;24.588341
  4.5999631E-01;  9.9999998E-03;  1.4000019E-01;1764;-0.0059742243;0.0;0.00032180169;1000.0515;  4.0000027E-01;42.665363;3;-6.4624095;0.0;0.32150227;0;-0.061070994;  1.0001080E+04;  0.0000000E+00;  1.1857793E-08;  1.0000000E+04;  0.0000000E+00;  9.9999375E+03;-0.065216027;0.0;0.0041450327;28.243599
  4.7999531E-01;  9.9999998E-03;  1.8365742E-13;1788;-0.0071412884;0.0;-2.9024855e-10;1000.0648;  4.0000072E-01;53.726715;3;-7.0878334;0.0;-1.5171295e-06;0;-0.071195401;  1.0001308E+04;  0.0000000E+00;  3.5974412E-17;  1.0000000E+04;  0.0000000E+00;  9.9999600E+03;-0.074545667;0.0;0.003350263;19.779095
  4.7999531E-01;  9.9999998E-03;  2.0000031E-02;1789;-0.0071441727;0.0;6.2176296e-05;1000.0648;  4.0000072E-01;53.627953;3;-7.0955586;0.0;0.079088889;0;-0.071191728;  1.0001308E+04;  0.0000000E+00;  8.4935444E-12;  1.0000000E+04;  0.0000000E+00;  9.9999580E+03;-0.074595764;0.0;0.0034040371;20.213898
  4.7999531E-01;  9.9999998E-03;  4.0000062E-02;1790;-0.0071537625;0.0;0.00012456122;1000.0648;  4.0000072E-01;53.627953;3;-7.1201267;0.0;0.15605761;0;-0.071192943;  1.0001309E+04;  0.0000000E+00;  1.8737759E-10;  1.0000000E+04;  0.0000000E+00;  9.9999541E+03;-0.074757896;0.0;0.0035649571;21.516264
  4.7999531E-01;  9.9999998E-03;  6.0000099E-02;1791;-0.0071730735;0.0;0.00018791534;1000.0648;  4.0000072E-01;53.726715;3;-7.1660728;0.0;0.23000284;0;-0.071235768;  1.0001313E+04;  0.0000000E+00;  6.9373690E-10;  1.0000000E+04;  0.0000000E+00;  9.9999492E+03;-0.075065687;0.0;0.0038299181;23.668404
  4.7999531E-01;  9.9999998E-03;  8.0000140E-02;1792;-0.0072071096;0.0;0.00025279549;1000.0646;  4.0000072E-01;53.52919;3;-7.2406297;0.0;0.29948774;0;-0.071378663;  1.0001318E+04;  0.0000000E+00;  2.3324953E-09;  1.0000000E+04;  0.0000000E+00;  9.9999424E+03;-0.075568475;0.0;0.0041898098;26.614664
  4.7999528E-01;  9.9999998E-03;  1.0000018E-01;1793;-0.0072620939;0.0;0.00032101569;1000.0647;  4.0000072E-01;53.627953;3;-7.3526368;0.0;0.36526966;0;-0.071692124;  1.0001326E+04;  0.0000000E+00;  6.9454718E-09;  1.0000000E+04;  0.0000000E+00;  9.9999346E+03;-0.076322749;0.0;0.0046306248;30.260597
  4.7999525E-01;  9.9999998E-03;  1.2000023E-01;1794;-0.0073447963;0.0;0.00039445786;1000.0646;  4.0000066E-01;53.52919;3;-7.5121508;0.0;0.42838806;0;-0.072237022;  1.0001336E+04;  0.0000000E+00;  1.7062916E-08;  1.0000000E+04;  0.0000000E+00;  9.9999258E+03;-0.077384651;0.0;0.0051476266;34.550694
  4.7999522E-01;  9.9999998E-03;  1.4000028E-01;1795;-0.007460657;0.0;0.00047378649;1000.0648;  4.0000075E-01;53.627953;3;-7.7268515;0.0;0.48980179;0;-0.073023207;  1.0001351E+04;  0.0000000E+00;  3.2284433E-08;  1.0000000E+04;  0.0000000E+00;  9.9999131E+03;-0.078808784;0.0;0.005785577;39.714199
  4.9999392E-01;  9.9999998E-03;  3.6761132E-13;1819;-0.0088763637;0.0;3.7169492e-10;1000.0808;  4.0000162E-01;66.9608;3;-8.4071226;0.0;-3.9322003e-07;0;-0.083700664;  1.0001595E+04;  0.0000000E+00; -1.4180745E-16;  1.0000000E+04;  0.0000000E+00;  9.9999434E+03;-0.088263966;0.0;0.0045633046;26.026779
  4.9999392E-01;  9.9999998E-03;  2.0000044E-02;1820;-0.0088796681;0.0;8.7497225e-05;1000.0808;  4.0000162E-01;66.9608;3;-8.4159193;0.0;0.11604199;0;-0.083672971;  1.0001595E+04;  0.0000000E+00;  1.5063112E-10;  1.0000000E+04;  0.0000000E+00;  9.9999434E+03;-0.088325828;0.0;0.0046528601;26.687458
  4.9999392E-01;  9.9999998E-03;  4.0000089E-02;1821;-0.0088911187;0.0;0.00017573862;1000.0804;  4.0000159E-01;66.664513;3;-8.4444914;0.0;0.2283524;0;-0.083607078;  1.0001596E+04;  0.0000000E+00;  5.1240584E-10;  1.0000000E+04;  0.0000000E+00;  9.9999395E+03;-0.088525958;0.0;0.004918878;28.662945
  4.9999392E-01;  9.9999998E-03;  6.0000136E-02;1822;-0.0089147184;0.0;0.00026619143;1000.0803;  4.0000156E-01;66.56575;3;-8.4977636;0.0;0.3381249;0;-0.083554655;  1.0001601E+04;  0.0000000E+00;  1.7997684E-09;  1.0000000E+04;  0.0000000E+00;  9.9999307E+03;-0.088905223;0.0;0.0053505683;31.917282
  4.9999392E-01;  9.9999998E-03;  8.0000192E-02;1823;-0.0089573087;0.0;0.00036153203;1000.0801;  4.0000153E-01;66.368225;3;-8.585743;0.0;0.4465065;0;-0.083599746;  1.0001607E+04;  0.0000000E+00;  7.3555508E-09;  1.0000000E+04;  0.0000000E+00;  9.9999209E+03;-0.089523159;0.0;0.0059234099;36.352345
  4.9999389E-01;  9.9999998E-03;  1.0000025E-01;1824;-0.0090278992;0.0;0.00046440208;1000.0801;  4.0000159E-01;66.368225;3;-8.7212543;0.0;0.55267537;0;-0.083848342;  1.0001617E+04;  0.0000000E+00;  1.9702160E-08;  1.0000000E+04;  0.0000000E+00;  9.9999072E+03;-0.090447687;0.0;0.0065993471;41.810219
  4.9999386E-01;  9.9999998E-03;  1.2000033E-01;1825;-0.0091357324;0.0;0.00057738367;1000.08;  4.0000156E-01;66.269463;3;-8.9176331;0.0;0.65647095;0;-0.084402084;  1.0001630E+04;  0.0000000E+00;  4.4557410E-08;  1.0000000E+04;  0.0000000E+00;  9.9998916E+03;-0.091746554;0.0;0.0073444708;48.192696
  4.9999380E-01;  9.9999998E-03;  1.4000042E-01;1826;-0.0092881545;0.0;0.00069979596;1000.08;  4.0000153E-01;66.269463;3;-9.1861591;0.0;0.7548663;0;-0.085304968;  1.0001648E+04;  0.0000000E+00;  8.1258264E-08;  1.0000000E+04;  0.0000000E+00;  9.9998750E+03;-0.093489252;0.0;0.0081842812;55.822784
  5.1999217E-01;  9.9999998E-03;  4.5218828E-13;1850;-0.010986766;0.0;4.4790605e-10;1000.1014;  4.0000445E-01;84.046555;3;-9.9269333;0.0;-1.744329e-06;0;-0.095646247;  1.0001883E+04;  0.0000000E+00;  4.4163273E-16;  1.0000000E+04;  0.0000000E+00;  9.9999268E+03;-0.10173316;0.0;0.0060869115;33.553429
  5.1999217E-01;  9.9999998E-03;  2.0000059E-02;1851;-0.010990746;0.0;0.00011973247;1000.1014;  4.0000445E-01;84.046555;3;-9.9372883;0.0;0.16074176;0;-0.095578946;  1.0001883E+04;  0.0000000E+00; -6.2697500E-11;  1.0000000E+04;  0.0000000E+00;  9.9999248E+03;-0.10181003;0.0;0.0062310826;34.530792
  5.1999217E-01;  9.9999998E-03;  4.0000118E-02;1852;-0.011003956;0.0;0.00024223911;1000.1011;  4.0000448E-01;83.750267;3;-9.9688501;0.0;0.32327983;0;-0.095400006;  1.0001886E+04;  0.0000000E+00;  1.3672461E-09;  1.0000000E+04;  0.0000000E+00;  9.9999180E+03;-0.10205761;0.0;0.0066576065;37.448692
  5.1999217E-01;  9.9999998E-03;  6.0000185E-02;1853;-0.011032307;0.0;0.00037041339;1000.1008;  4.0000451E-01;83.552742;3;-10.029933;0.0;0.48552829;0;-0.095179483;  1.0001892E+04;  0.0000000E+00;  5.3326588E-09;  1.0000000E+04;  0.0000000E+00;  9.9999063E+03;-0.10252377;0.0;0.007344286;42.243126
  5.1999217E-01;  9.9999998E-03;  8.0000266E-02;1854;-0.011085096;0.0;0.00050872751;1000.1004;  4.0000445E-01;83.1577;3;-10.133068;0.0;0.6493091;0;-0.095033705;  1.0001898E+04;  0.0000000E+00;  1.8307315E-08;  1.0000000E+04;  0.0000000E+00;  9.9998906E+03;-0.10327847;0.0;0.008244765;48.764267
  5.1999211E-01;  9.9999998E-03;  1.0000035E-01;1855;-0.011174336;0.0;0.00066220073;1000.1002;  4.0000445E-01;83.058937;3;-10.294773;0.0;0.8150264;0;-0.09511181;  1.0001912E+04;  0.0000000E+00;  5.0000398E-08;  1.0000000E+04;  0.0000000E+00;  9.9998711E+03;-0.10440142;0.0;0.0092896149;56.809982
  5.1999205E-01;  9.9999998E-03;  1.2000046E-01;1856;-0.011312797;0.0;0.00083263364;1000.1;  4.0000448E-01;82.861412;3;-10.532871;0.0;0.98022068;0;-0.095562175;  1.0001930E+04;  0.0000000E+00;  1.0514801E-07;  1.0000000E+04;  0.0000000E+00;  9.9998477E+03;-0.10597372;0.0;0.010411543;66.345032
  5.1999199E-01;  9.9999998E-03;  1.4000058E-01;1857;-0.011508808;0.0;0.0010203359;1000.0998;  4.0000442E-01;82.663887;3;-10.860924;0.0;1.1471775;0;-0.096458912;  1.0001954E+04;  0.0000000E+00;  1.8136433E-07;  1.0000000E+04;  0.0000000E+00;  9.9998213E+03;-0.108082;0.0;0.011623084;78.066505
  5.3999007E-01;  9.9999998E-03; -5.1262098E-13;1881;-0.013490534;0.0;3.0411429e-10;1000.1312;  4.0001172E-01;108.63811;3;-11.65631;0.0;6.7158771e-06;0;-0.10516839;  1.0002133E+04;  0.0000000E+00;  5.5737256E-17;  1.0000000E+04;  0.0000000E+00;  9.9999053E+03;-0.1130941;0.0;0.0079257125;42.206745
  5.3999007E-01;  9.9999998E-03;  2.0000078E-02;1882;-0.013494599;0.0;0.0001601595;1000.131;  4.0001169E-01;108.53935;3;-11.666456;0.0;0.21842644;0;-0.10504039;  1.0002135E+04;  0.0000000E+00;  4.1670195E-10;  1.0000000E+04;  0.0000000E+00;  9.9999023E+03;-0.11319024;0.0;0.0081498586;43.614426
  5.3999007E-01;  9.9999998E-03;  4.0000159E-02;1883;-0.013510003;0.0;0.00032646194;1000.1307;  4.0001169E-01;108.24306;3;-11.701566;0.0;0.44446939;0;-0.10468628;  1.0002140E+04;  0.0000000E+00;  3.0615261E-09;  1.0000000E+04;  0.0000000E+00;  9.9998916E+03;-0.11349739;0.0;0.0088111116;47.80946
  5.3999007E-01;  9.9999998E-03;  6.0000252E-02;1884;-0.013543626;0.0;0.00050484785;1000.1302;  4.0001172E-01;107.84802;3;-11.77043;0.0;0.67761421;0;-0.10419849;  1.0002146E+04;  0.0000000E+00;  1.2418945E-08;  1.0000000E+04;  0.0000000E+00;  9.9998750E+03;-0.11406887;0.0;0.0098703839;54.683613
  5.3999001E-01;  9.9999998E-03;  8.0000356E-02;1885;-0.013608188;0.0;0.00070052501;1000.1296;  4.0001166E-01;107.35421;3;-11.890501;0.0;0.90997922;0;-0.10373114;  1.0002156E+04;  0.0000000E+00;  3.8080533E-08;  1.0000000E+04;  0.0000000E+00;  9.9998516E+03;-0.11498322;0.0;0.011252083;64.0327
  5.3998995E-01;  9.9999998E-03;  1.0000049E-01;1886;-0.013719559;0.0;0.0009213991;1000.129;  4.0001163E-01;106.8604;3;-12.081043;0.0;1.1552079;0;-0.10348128;  1.0002175E+04;  0.0000000E+00;  9.8845788E-08;  1.0000000E+04;  0.0000000E+00;  9.9998232E+03;-0.11633238;0.0;0.012851103;75.685028
  5.3998989E-01;  9.9999998E-03;  1.2000064E-01;1887;-0.013894024;0.0;0.0011740536;1000.1285;  4.0001166E-01;106.46535;3;-12.367177;0.0;1.417343;0;-0.1036343;  1.0002196E+04;  0.0000000E+00;  2.0072819E-07;  1.0000000E+04;  0.0000000E+00;  9.9997891E+03;-0.11821205;0.0;0.014577756;89.954369
  5.3998983E-01;  9.9999998E-03;  1.4000082E-01;1888;-0.014141791;0.0;0.0014583382;1000.1279;  4.0001166E-01;105.97154;3;-12.764325;0.0;1.6857698;0;-0.10425447;  1.0002228E+04;  0.0000000E+00;  3.3042446E-07;  1.0000000E+04;  0.0000000E+00;  9.9997480E+03;-0.12072616;0.0;0.016471695;108.55766
  5.5998760E-01;  9.9999998E-03; -7.7356584E-13;1912;-0.016337045;0.0;-9.2706781e-10;1000.1873;  4.0003145E-01;155.1546;3;-13.569352;0.0;2.5298559e-06;0;-0.10984834;  1.0002293E+04;  0.0000000E+00; -1.3974524E-15;  1.0000000E+04;  0.0000000E+00;  9.9998809E+03;-0.11990527;0.0;0.010056932;51.645393
  5.5998760E-01;  9.9999998E-03;  2.0000100E-02;1913;-0.016342036;0.0;0.00020936049;1000.1872;  4.0003148E-01;155.05585;3;-13.580706;0.0;0.29359484;0;-0.10963032;  1.0002296E+04;  0.0000000E+00;  1.1109368E-09;  1.0000000E+04;  0.0000000E+00;  9.9998770E+03;-0.12002417;0.0;0.010393861;53.623451
  5.5998760E-01;  9.9999998E-03;  4.0000208E-02;1914;-0.016359411;0.0;0.00042902646;1000.1866;  4.0003151E-01;154.56204;3;-13.618321;0.0;0.59512174;0;-0.10901481;  1.0002300E+04;  0.0000000E+00;  5.9762995E-09;  1.0000000E+04;  0.0000000E+00;  9.9998604E+03;-0.12040041;0.0;0.011385608;59.505058
  5.5998760E-01;  9.9999998E-03;  6.0000326E-02;1915;-0.016399549;0.0;0.00066684297;1000.1859;  4.0003151E-01;154.06822;3;-13.697874;0.0;0.89871174;0;-0.10812012;  1.0002308E+04;  0.0000000E+00;  2.2693062E-08;  1.0000000E+04;  0.0000000E+00;  9.9998389E+03;-0.12108912;0.0;0.012968999;69.116669
  5.5998755E-01;  9.9999998E-03;  8.0000475E-02;1916;-0.016477551;0.0;0.00093717501;1000.1849;  4.0003142E-01;153.17937;3;-13.83498;0.0;1.234108;0;-0.10714269;  1.0002322E+04;  0.0000000E+00;  6.6441913E-08;  1.0000000E+04;  0.0000000E+00;  9.9998047E+03;-0.12217441;0.0;0.015031721;82.216042
  5.5998749E-01;  9.9999998E-03;  1.0000065E-01;1917;-0.016614059;0.0;0.0012516223;1000.184;  4.0003148E-01;152.38928;3;-14.057604;0.0;1.6026751;0;-0.1063199;  1.0002344E+04;  0.0000000E+00;  1.6352304E-07;  1.0000000E+04;  0.0000000E+00;  9.9997637E+03;-0.12375798;0.0;0.017438084;98.849007
  5.5998743E-01;  9.9999998E-03;  1.2000087E-01;1918;-0.016829025;0.0;0.0016192447;1000.1829;  4.0003145E-01;151.50043;3;-14.392926;0.0;1.9984978;0;-0.10583165;  1.0002371E+04;  0.0000000E+00;  3.1850510E-07;  1.0000000E+04;  0.0000000E+00;  9.9997148E+03;-0.12594886;0.0;0.020117214;120.26414
  5.5998731E-01;  9.9999998E-03;  1.4000113E-01;1919;-0.017135078;0.0;0.0020353689;1000.1813;  4.0003142E-01;150.21652;3;-14.864936;0.0;2.4035747;0;-0.10563372;  1.0002409E+04;  0.0000000E+00;  4.8479899E-07;  1.0000000E+04;  0.0000000E+00;  9.9996455E+03;-0.12886034;0.0;0.023226617;150.34755
  5.7998496E-01;  9.9999998E-03; -7.5430639E-13;1943;-0.019370604;0.0;1.3669035e-10;1000.3172;  4.0008396E-01;262.80396;3;-15.582088;0.0;5.7381403e-06;0;-0.10669913;  1.0002293E+04;  0.0000000E+00;  2.8961970E-16;  1.0000000E+04;  0.0000000E+00;  9.9998535E+03;-0.11913203;0.0;0.012432901;61.355877
  5.7998496E-01;  9.9999998E-03;  2.0000124E-02;1944;-0.019376282;0.0;0.00026421275;1000.317;  4.0008393E-01;262.60641;3;-15.595413;0.0;0.37508017;0;-0.10634977;  1.0002294E+04;  0.0000000E+00;  1.2077261E-09;  1.0000000E+04;  0.0000000E+00;  9.9998467E+03;-0.11927303;0.0;0.012923267;64.073204
  5.7998496E-01;  9.9999998E-03;  4.0000260E-02;1945;-0.019397467;0.0;0.00054145028;1000.3162;  4.0008396E-01;262.01385;3;-15.642171;0.0;0.74917644;0;-0.10535008;  1.0002300E+04;  0.0000000E+00;  7.8508915E-09;  1.0000000E+04;  0.0000000E+00;  9.9998271E+03;-0.1197143;0.0;0.014364222;72.133797
  5.7998490E-01;  9.9999998E-03;  6.0000416E-02;1946;-0.019444911;0.0;0.00085371017;1000.3151;  4.0008393E-01;261.02625;3;-15.729811;0.0;1.1679893;0;-0.10384885;  1.0002311E+04;  0.0000000E+00;  3.0145145E-08;  1.0000000E+04;  0.0000000E+00;  9.9997930E+03;-0.12050881;0.0;0.016659958;85.276421
  5.7998490E-01;  9.9999998E-03;  8.0000609E-02;1947;-0.01953841;0.0;0.0012185284;1000.3136;  4.0008390E-01;259.84113;3;-15.886779;0.0;1.6313417;0;-0.10208357;  1.0002325E+04;  0.0000000E+00;  9.1942773E-08;  1.0000000E+04;  0.0000000E+00;  9.9997461E+03;-0.12173998;0.0;0.019656403;103.27893
  5.7998484E-01;  9.9999998E-03;  1.0000085E-01;1948;-0.01970314;0.0;0.0016518893;1000.312;  4.0008393E-01;258.45847;3;-16.145035;0.0;2.1367133;0;-0.10030393;  1.0002349E+04;  0.0000000E+00;  2.2010069E-07;  1.0000000E+04;  0.0000000E+00;  9.9996885E+03;-0.12351322;0.0;0.023209296;126.75523
  5.7998472E-01;  9.9999998E-03;  1.2000114E-01;1949;-0.019965813;0.0;0.0021649313;1000.3098;  4.0008396E-01;256.582;3;-16.535955;0.0;2.7133708;0;-0.098592721;  1.0002381E+04;  0.0000000E+00;  4.0955678E-07;  1.0000000E+04;  0.0000000E+00;  9.9996152E+03;-0.12594119;0.0;0.027348464;158.83974
  5.7998455E-01;  9.9999998E-03;  1.4000151E-01;1950;-0.020339282;0.0;0.0027590718;1000.3063;  4.0008393E-01;253.71791;3;-17.090418;0.0;3.3253415;0;-0.096637815;  1.0002427E+04;  0.0000000E+00;  5.3331814E-07;  1.0000000E+04;  0.0000000E+00;  9.9995020E+03;-0.12912919;0.0;0.032491367;207.25386
  5.9998238E-01;  9.9999998E-03; -5.4441575E-13;1974;-0.022349253;0.0;3.1615974e-10;1000.6373;  4.0021729E-01;527.97577;3;-17.559027;0.0;3.1945092e-06;0;-0.092201494;  1.0002057E+04;  0.0000000E+00; -2.7012534E-16;  1.0000000E+04;  0.0000000E+00;  9.9998252E+03;-0.10719267;0.0;0.014991174;70.731567
  5.9998238E-01;  9.9999998E-03;  2.0000150E-02;1975;-0.022355778;0.0;0.00031570299;1000.6369;  4.0021726E-01;527.6795;3;-17.57214;0.0;0.44109431;0;-0.091664225;  1.0002060E+04;  0.0000000E+00;  7.5660850E-10;  1.0000000E+04;  0.0000000E+00;  9.9998164E+03;-0.1073467;0.0;0.015682474;74.382904
  5.9998232E-01;  9.9999998E-03;  4.0000316E-02;1976;-0.022382705;0.0;0.00065831229;1000.6358;  4.0021726E-01;526.79065;3;-17.626791;0.0;0.92342699;0;-0.090113074;  1.0002064E+04;  0.0000000E+00;  7.6480680E-09;  1.0000000E+04;  0.0000000E+00;  9.9997891E+03;-0.10782406;0.0;0.017710991;85.190575
  5.9998232E-01;  9.9999998E-03;  6.0000509E-02;1977;-0.022441065;0.0;0.0010489823;1000.6341;  4.0021735E-01;525.30927;3;-17.732937;0.0;1.436609;0;-0.087731026;  1.0002075E+04;  0.0000000E+00;  3.2303582E-08;  1.0000000E+04;  0.0000000E+00;  9.9997422E+03;-0.10867048;0.0;0.020939456;102.78891
  5.9998226E-01;  9.9999998E-03;  8.0000758E-02;1978;-0.022553334;0.0;0.0015224448;1000.6318;  4.0021732E-01;523.4328;3;-17.912449;0.0;2.0479152;0;-0.084787689;  1.0002093E+04;  0.0000000E+00;  1.0234508E-07;  1.0000000E+04;  0.0000000E+00;  9.9996787E+03;-0.10996042;0.0;0.025172733;127.08956
  5.9998220E-01;  9.9999998E-03;  1.0000107E-01;1979;-0.022753246;0.0;0.0020960667;1000.6291;  4.0021724E-01;521.16125;3;-18.21496;0.0;2.7387245;0;-0.081490524;  1.0002117E+04;  0.0000000E+00;  2.4689422E-07;  1.0000000E+04;  0.0000000E+00;  9.9995996E+03;-0.11179;0.0;0.030299475;159.79002
  5.9998202E-01;  9.9999998E-03;  1.2000146E-01;1980;-0.023074837;0.0;0.0027808179;1000.625;  4.0021724E-01;517.80341;3;-18.680182;0.0;3.5136247;0;-0.07769236;  1.0002150E+04;  0.0000000E+00;  4.3421971E-07;  1.0000000E+04;  0.0000000E+00;  9.9994863E+03;-0.1142584;0.0;0.036566038;207.15503
  5.9998184E-01;  9.9999998E-03;  1.4000192E-01;1981;-0.02353441;0.0;0.0035727578;1000.6185;  4.0021726E-01;512.47034;3;-19.315325;0.0;4.365932;0;-0.072616652;  1.0002195E+04;  0.0000000E+00;  4.0722085E-07;  1.0000000E+04;  0.0000000E+00;  9.9993115E+03;-0.11743969;0.0;0.044823039;282.73285
  6.1997998E-01;  9.9999998E-03;  1.1816978E-12;2005;-0.025045607;0.0;-4.1600398e-10;1001.3723;  4.0052244E-01;1136.9286;3;-19.348978;0.0;-3.5132107e-06;0;-0.062995188;  1.0001527E+04;  0.0000000E+00;  6.9214498E-16;  1.0000000E+04;  0.0000000E+00;  9.9997949E+03;-0.080663592;0.0;0.017668406;79.222511
  6.1997998E-01;  9.9999998E-03;  2.0000169E-02;2006;-0.025056833;0.0;0.00035862802;1001.3718;  4.0052244E-01;1136.5336;3;-19.368843;0.0;0.51220107;0;-0.06219992;  1.0001528E+04;  0.0000000E+00;  3.9397638E-10;  1.0000000E+04;  0.0000000E+00;  9.9997822E+03;-0.080810621;0.0;0.018610699;84.014656
  6.1997998E-01;  9.9999998E-03;  4.0000357E-02;2007;-0.025094533;0.0;0.00075438968;1001.3703;  4.0052247E-01;1135.2496;3;-19.43762;0.0;1.0738491;0;-0.059889514;  1.0001535E+04;  0.0000000E+00;  5.0540701E-09;  1.0000000E+04;  0.0000000E+00;  9.9997471E+03;-0.081262589;0.0;0.021373075;98.17205
  6.1997992E-01;  9.9999998E-03;  6.0000587E-02;2008;-0.025175797;0.0;0.0012197301;1001.3679;  4.0052250E-01;1133.1757;3;-19.573572;0.0;1.7010651;0;-0.056283392;  1.0001545E+04;  0.0000000E+00;  2.7150659E-08;  1.0000000E+04;  0.0000000E+00;  9.9996855E+03;-0.082052499;0.0;0.025769105;121.21786
  6.1997986E-01;  9.9999998E-03;  8.0000885E-02;2009;-0.025322363;0.0;0.0017948367;1001.3644;  4.0052247E-01;1130.3116;3;-19.801222;0.0;2.4317248;0;-0.051667612;  1.0001561E+04;  0.0000000E+00;  9.6559383E-08;  1.0000000E+04;  0.0000000E+00;  9.9996045E+03;-0.083235942;0.0;0.03156833;153.35294
  6.1997974E-01;  9.9999998E-03;  1.0000128E-01;2010;-0.02557217;0.0;0.0025283399;1001.3599;  4.0052250E-01;1126.5587;3;-20.165653;0.0;3.3381548;0;-0.046140302;  1.0001582E+04;  0.0000000E+00;  2.3573661E-07;  1.0000000E+04;  0.0000000E+00;  9.9994932E+03;-0.084884532;0.0;0.03874423;197.94392
  6.1997956E-01;  9.9999998E-03;  1.2000177E-01;2011;-0.02596439;0.0;0.0034372997;1001.3533;  4.0052244E-01;1121.2257;3;-20.697096;0.0;4.4416289;0;-0.039178416;  1.0001614E+04;  0.0000000E+00;  3.7823878E-07;  1.0000000E+04;  0.0000000E+00;  9.9993301E+03;-0.087064177;0.0;0.047885761;265.68872
  6.1997926E-01;  9.9999998E-03;  1.4000237E-01;2012;-0.026516693;0.0;0.0045058387;1001.3422;  4.0052256E-01;1111.9423;3;-21.404871;0.0;5.6870685;0;-0.02935439;  1.0001653E+04;  0.0000000E+00;  7.6411034E-08;  1.0000000E+04;  0.0000000E+00;  9.9990674E+03;-0.089798249;0.0;0.06044386;377.91092
  6.3997793E-01;  9.9999998E-03; -8.5633844E-13;2036;-0.027336808;0.0;7.9842338e-10;1002.7257;  4.0108138E-01;2258.1357;3;-20.757151;0.0;1.5195226e-05;0;-0.017318945;  1.0000687E+04;  0.0000000E+00;  5.1238564E-16;  1.0000000E+04;  0.0000000E+00;  9.9997656E+03;-0.03772556;0.0;0.020406615;86.504143
  6.3997787E-01;  9.9999998E-03;  2.0000177E-02;2037;-0.027357841;0.0;0.0003874134;1002.725;  4.0108132E-01;2257.5432;3;-20.802567;0.0;0.57179302;0;-0.016189776;  1.0000688E+04;  0.0000000E+00; -3.0537581E-10;  1.0000000E+04;  0.0000000E+00;  9.9997500E+03;-0.037835572;0.0;0.021645796;92.62767
  6.3997787E-01;  9.9999998E-03;  4.0000379E-02;2038;-0.027420059;0.0;0.00081851304;1002.7228;  4.0108129E-01;2255.6667;3;-20.903812;0.0;1.1973454;0;-0.012895444;  1.0000691E+04;  0.0000000E+00;  1.8291479E-09;  1.0000000E+04;  0.0000000E+00;  9.9997021E+03;-0.038171008;0.0;0.025275564;110.68948
  6.3997781E-01;  9.9999998E-03;  6.0000639E-02;2039;-0.027535794;0.0;0.0013580414;1002.7194;  4.0108129E-01;2252.9014;3;-21.075439;0.0;1.9561452;0;-0.0076950211;  1.0000700E+04;  0.0000000E+00;  1.8325977E-08;  1.0000000E+04;  0.0000000E+00;  9.9996240E+03;-0.038748413;0.0;0.031053392;140.09526
  6.3997769E-01;  9.9999998E-03;  8.0000997E-02;2040;-0.027738351;0.0;0.0020611095;1002.7146;  4.0108135E-01;2248.9509;3;-21.381132;0.0;2.8657539;0;-0.00087724999;  1.0000711E+04;  0.0000000E+00;  7.8882465E-08;  1.0000000E+04;  0.0000000E+00;  9.9995186E+03;-0.039596416;0.0;0.038719166;181.47421
  6.3997757E-01;  9.9999998E-03;  1.0000148E-01;2041;-0.028052257;0.0;0.0030007511;1002.708;  4.0108135E-01;2243.4204;3;-21.79475;0.0;4.0535359;0;0.0076257363;  1.0000727E+04;  0.0000000E+00;  2.0341540E-07;  1.0000000E+04;  0.0000000E+00;  9.9993691E+03;-0.040749934;0.0;0.04837567;240.35374
  6.3997734E-01;  9.9999998E-03;  1.2000212E-01;2042;-0.028510004;0.0;0.0041977419;1002.6978;  4.0108129E-01;2235.0259;3;-22.389828;0.0;5.5118799;0;0.018827155;  1.0000749E+04;  0.0000000E+00;  2.7612467E-07;  1.0000000E+04;  0.0000000E+00;  9.9991475E+03;-0.042229053;0.0;0.061056208;332.90045
  6.3997698E-01;  9.9999998E-03;  1.4000289E-01;2043;-0.029153612;0.0;0.0056011509;1002.6807;  4.0108135E-01;2220.8047;3;-23.218472;0.0;7.146276;0;0.034937128;  1.0000774E+04;  0.0000000E+00; -2.9755427E-07;  1.0000000E+04;  0.0000000E+00;  9.9987822E+03;-0.043998547;0.0;0.078935675;489.67468
  6.5997648E-01;  9.9999998E-03; -5.9321498E-13;2067;-0.029019397;0.0;4.3077226e-09;1004.4235;  4.0178314E-01;3664.6277;3;-21.947094;0.0;3.3494551e-05;0;0.04315519;  9.9995859E+03;  0.0000000E+00;  1.2126260E-16;  1.0000000E+04;  0.0000000E+00;  9.9997363E+03;0.020010849;0.0;0.02314434;92.584282
  6.5997642E-01;  9.9999998E-03;  2.0000188E-02;2068;-0.029044479;0.0;0.00042809598;1004.4225;  4.0178311E-01;3663.8376;3;-21.97888;0.0;0.66366702;0;0.044682086;  9.9995879E+03;  0.0000000E+00; -1.8703071E-10;  1.0000000E+04;  0.0000000E+00;  9.9997168E+03;0.019968957;0.0;0.024713131;100.17413
  6.5997642E-01;  9.9999998E-03;  4.0000413E-02;2069;-0.029132582;0.0;0.00091448578;1004.4196;  4.0178311E-01;3661.3687;3;-22.102654;0.0;1.3748609;0;0.049148828;  9.9995889E+03;  0.0000000E+00;  9.3996116E-11;  1.0000000E+04;  0.0000000E+00;  9.9996582E+03;0.019844526;0.0;0.0293043;122.52924
  6.5997630E-01;  9.9999998E-03;  6.0000714E-02;2070;-0.02929385;0.0;0.0015445424;1004.4149;  4.0178308E-01;3657.5171;3;-22.333784;0.0;2.264859;0;0.056250848;  9.9995908E+03;  0.0000000E+00;  1.1586567E-08;  1.0000000E+04;  0.0000000E+00;  9.9995605E+03;0.019640017;0.0;0.036610831;158.91695
  6.5997618E-01;  9.9999998E-03;  8.0001146E-02;2071;-0.029553344;0.0;0.0024112449;1004.4084;  4.0178311E-01;3652.0854;3;-22.692545;0.0;3.4292562;0;0.065700367;  9.9995967E+03;  0.0000000E+00;  6.0797802E-08;  1.0000000E+04;  0.0000000E+00;  9.9994277E+03;0.019358084;0.0;0.04634228;210.44739
  6.5997601E-01;  9.9999998E-03;  1.0000175E-01;2072;-0.02993647;0.0;0.0035886602;1004.3992;  4.0178311E-01;3644.481;3;-23.20248;0.0;4.9214244;0;0.077755772;  9.9996006E+03;  0.0000000E+00;  1.6557956E-07;  1.0000000E+04;  0.0000000E+00;  9.9992393E+03;0.019005533;0.0;0.058750238;285.03873
  6.5997571E-01;  9.9999998E-03;  1.2000255E-01;2073;-0.030474043;0.0;0.0050956039;1004.385;  4.0178314E-01;3632.7288;3;-23.899782;0.0;6.7484913;0;0.093969502;  9.9996074E+03;  0.0000000E+00;  2.0381377E-07;  1.0000000E+04;  0.0000000E+00;  9.9989512E+03;0.018609941;0.0;0.075359561;404.7995
  6.5997535E-01;  9.9999998E-03;  1.4000353E-01;2074;-0.031185791;0.0;0.0068865153;1004.3611;  4.0178314E-01;3612.9771;3;-24.775658;0.0;8.8634081;0;0.11737473;  9.9996143E+03;  0.0000000E+00; -4.7033132E-07;  1.0000000E+04;  0.0000000E+00;  9.9984678E+03;0.018258445;0.0;0.099116281;610.1264
  6.7997628E-01;  9.9999998E-03;  3.2026059E-12;2098;-0.029548831;0.0;2.8909581e-09;1005.7592;  4.0234232E-01;4771.1436;3;-22.582235;0.0;-2.963189e-05;0;0.11174822;  9.9983760E+03;  0.0000000E+00;  1.7537857E-15;  1.0000000E+04;  0.0000000E+00;  9.9997090E+03;0.08594586;0.0;0.025802363;97.80632
  6.7997628E-01;  9.9999998E-03;  2.0000195E-02;2099;-0.029573748;0.0;0.00046325781;1005.7578;  4.0234229E-01;4769.9585;3;-22.612158;0.0;0.74233711;0;0.11370185;  9.9983760E+03;  0.0000000E+00; -3.8120399E-10;  1.0000000E+04;  0.0000000E+00;  9.9996836E+03;0.085990295;0.0;0.027711557;106.90287
  6.7997622E-01;  9.9999998E-03;  4.0000435E-02;2100;-0.029662812;0.0;0.0010045397;1005.7543;  4.0234226E-01;4766.9956;3;-22.748104;0.0;1.5728177;0;0.11942485;  9.9983750E+03;  0.0000000E+00; -2.8562155E-10;  1.0000000E+04;  0.0000000E+00;  9.9996133E+03;0.086131699;0.0;0.033293147;133.65884
  6.7997617E-01;  9.9999998E-03;  6.0000781E-02;2101;-0.029829144;0.0;0.0017346769;1005.7483;  4.0234229E-01;4762.0576;3;-22.99411;0.0;2.6198609;0;0.12856072;  9.9983701E+03;  0.0000000E+00;  7.6573778E-09;  1.0000000E+04;  0.0000000E+00;  9.9994971E+03;0.086393766;0.0;0.042166948;177.16493
  6.7997605E-01;  9.9999998E-03;  8.0001295E-02;2102;-0.030096339;0.0;0.0027709347;1005.7401;  4.0234226E-01;4755.2437;3;-23.364574;0.0;4.0183558;0;0.14081404;  9.9983643E+03;  0.0000000E+00;  4.7664710E-08;  1.0000000E+04;  0.0000000E+00;  9.9993369E+03;0.086812936;0.0;0.0540011;238.94635
  6.7997587E-01;  9.9999998E-03;  1.0000203E-01;2103;-0.03049111;0.0;0.0042073335;1005.7282;  4.0234232E-01;4745.4668;3;-23.900555;0.0;5.8523374;0;0.15661997;  9.9983574E+03;  0.0000000E+00;  1.4019112E-07;  1.0000000E+04;  0.0000000E+00;  9.9991084E+03;0.087438263;0.0;0.069181703;329.19012
  6.7997557E-01;  9.9999998E-03;  1.2000301E-01;2104;-0.031034756;0.0;0.006080444;1005.7097;  4.0234232E-01;4730.1592;3;-24.595978;0.0;8.187356;0;0.17803973;  9.9983477E+03;  0.0000000E+00;  1.8591832E-07;  1.0000000E+04;  0.0000000E+00;  9.9987529E+03;0.08834029;0.0;0.08969944;475.70285
  6.7997521E-01;  9.9999998E-03;  1.4000420E-01;2105;-0.031760972;0.0;0.0083230929;1005.6793;  4.0234238E-01;4704.8774;3;-25.513863;0.0;10.894863;0;0.20886695;  9.9983311E+03;  0.0000000E+00; -3.3944747E-07;  1.0000000E+04;  0.0000000E+00;  9.9981592E+03;0.089638405;0.0;0.11922854;728.29053
  6.9997877E-01;  9.9999998E-03;  4.1385441E-12;2129;-0.02744744;0.0;8.9490761e-09;1006.4662;  4.0264782E-01;5356.7622;3;-22.147272;0.0;7.023802e-06;0;0.17676568;  9.9972744E+03;  0.0000000E+00;  5.0044739E-16;  1.0000000E+04;  0.0000000E+00;  9.9996826E+03;0.14847727;0.0;0.028288405;102.76069
  6.9997877E-01;  9.9999998E-03;  2.0000184E-02;2130;-0.027466564;0.0;0.00045733512;1006.4648;  4.0264782E-01;5355.5771;3;-22.179976;0.0;0.77374136;0;0.17912537;  9.9972725E+03;  0.0000000E+00; -1.8897020E-10;  1.0000000E+04;  0.0000000E+00;  9.9996533E+03;0.14860354;0.0;0.030521832;113.28872
  6.9997877E-01;  9.9999998E-03;  4.0000431E-02;2131;-0.027530788;0.0;0.0010252531;1006.4604;  4.0264788E-01;5351.9233;3;-22.286301;0.0;1.6740761;0;0.18604152;  9.9972676E+03;  0.0000000E+00; -2.2782583E-10;  1.0000000E+04;  0.0000000E+00;  9.9995723E+03;0.14899817;0.0;0.037043344;144.21153
  6.9997871E-01;  9.9999998E-03;  6.0000807E-02;2132;-0.027655382;0.0;0.0018371319;1006.4534;  4.0264791E-01;5346.0967;3;-22.484774;0.0;2.857265;0;0.1971008;  9.9972598E+03;  0.0000000E+00;  6.5919759E-09;  1.0000000E+04;  0.0000000E+00;  9.9994385E+03;0.14970721;0.0;0.047393594;194.39729
  6.9997859E-01;  9.9999998E-03;  8.0001391E-02;2133;-0.02786391;0.0;0.0030396469;1006.4433;  4.0264788E-01;5337.7026;3;-22.801483;0.0;4.4951944;0;0.2119844;  9.9972471E+03;  0.0000000E+00;  3.9968075E-08;  1.0000000E+04;  0.0000000E+00;  9.9992520E+03;0.15080252;0.0;0.061181873;265.62454
  6.9997847E-01;  9.9999998E-03;  1.0000226E-01;2134;-0.028190052;0.0;0.0047507719;1006.4291;  4.0264779E-01;5326.0493;3;-23.271683;0.0;6.7200599;0;0.23125967;  9.9972256E+03;  0.0000000E+00;  1.2099925E-07;  1.0000000E+04;  0.0000000E+00;  9.9989863E+03;0.15237583;0.0;0.078883842;369.9212
  6.9997823E-01;  9.9999998E-03;  1.2000342E-01;2135;-0.028666325;0.0;0.0069973082;1006.4069;  4.0264791E-01;5307.5825;3;-23.926634;0.0;9.5554056;0;0.25739941;  9.9972002E+03;  0.0000000E+00;  2.0199492E-07;  1.0000000E+04;  0.0000000E+00;  9.9985742E+03;0.15453279;0.0;0.10286661;539.90967
  6.9997787E-01;  9.9999998E-03;  1.4000481E-01;2136;-0.029332073;0.0;0.0096738311;1006.3705;  4.0264788E-01;5277.3633;3;-24.808189;0.0;12.854119;0;0.29481792;  9.9971631E+03;  0.0000000E+00; -5.1942198E-08;  1.0000000E+04;  0.0000000E+00;  9.9978828E+03;0.15740146;0.0;0.13741648;833.4754
  7.1998489E-01;  9.9999998E-03;  1.7301179E-12;2160;-0.019905925;0.0;4.0848516e-09;1006.7603;  4.0278128E-01;5600.2368;3;-16.594662;0.0;2.0378036e-05;0;0.22482421;  9.9965078E+03;  0.0000000E+00;  1.7146502E-15;  1.0000000E+04;  0.0000000E+00;  9.9996592E+03;0.19431667;0.0;0.030507538;107.99269
  7.1998489E-01;  9.9999998E-03;  2.0000199E-02;2161;-0.019920222;0.0;0.00049319898;1006.7586;  4.0278128E-01;5598.7554;3;-16.619675;0.0;0.83907866;0;0.22752586;  9.9965068E+03;  0.0000000E+00; -9.7763693E-11;  1.0000000E+04;  0.0000000E+00;  9.9996270E+03;0.19450305;0.0;0.03302281;119.76695
  7.1998483E-01;  9.9999998E-03;  4.0000465E-02;2162;-0.019966932;0.0;0.0011124858;1006.7537;  4.0278128E-01;5594.7065;3;-16.699013;0.0;1.8246404;0;0.2354444;  9.9964980E+03;  0.0000000E+00;  5.2749388E-10;  1.0000000E+04;  0.0000000E+00;  9.9995352E+03;0.19508572;0.0;0.040358674;154.30315
  7.1998483E-01;  9.9999998E-03;  6.0000882E-02;2163;-0.020058287;0.0;0.0020080972;1006.7455;  4.0278125E-01;5587.8931;3;-16.846664;0.0;3.1336911;0;0.24810919;  9.9964863E+03;  0.0000000E+00;  6.0689476E-09;  1.0000000E+04;  0.0000000E+00;  9.9993857E+03;0.19613227;0.0;0.051976923;210.21507
  7.1998471E-01;  9.9999998E-03;  8.0001533E-02;2164;-0.020216377;0.0;0.0033460578;1006.7341;  4.0278131E-01;5578.4126;3;-17.088129;0.0;4.9622335;0;0.26515961;  9.9964678E+03;  0.0000000E+00;  3.2550663E-08;  1.0000000E+04;  0.0000000E+00;  9.9991797E+03;0.19774769;0.0;0.067411929;289.34253
  7.1998459E-01;  9.9999998E-03;  1.0000250E-01;2165;-0.020472342;0.0;0.0052557024;1006.718;  4.0278128E-01;5565.0811;3;-17.459282;0.0;7.4584961;0;0.28723344;  9.9964385E+03;  0.0000000E+00;  9.9015658E-08;  1.0000000E+04;  0.0000000E+00;  9.9988848E+03;0.20006211;0.0;0.087171338;404.96704
  7.1998441E-01;  9.9999998E-03;  1.2000378E-01;2166;-0.020861505;0.0;0.0077598258;1006.693;  4.0278134E-01;5544.4419;3;-18.000582;0.0;10.637179;0;0.31708515;  9.9964004E+03;  0.0000000E+00;  1.9579159E-07;  1.0000000E+04;  0.0000000E+00;  9.9984258E+03;0.20320798;0.0;0.11387717;593.27863
  7.1998417E-01;  9.9999998E-03;  1.4000534E-01;2167;-0.021414621;0.0;0.010743339;1006.6519;  4.0278137E-01;5510.3726;3;-18.745819;0.0;14.341171;0;0.3595736;  9.9963486E+03;  0.0000000E+00;  1.6347627E-07;  1.0000000E+04;  0.0000000E+00;  9.9976602E+03;0.20730244;0.0;0.15227115;918.36633
  7.3999083E-01;  9.9999998E-03;  2.7209107E-12;2191;-0.012087965;0.0;-4.2169033e-09;1006.8748;  4.0283379E-01;5694.8291;3;-10.136483;0.0;-1.2775534e-05;0;0.24789974;  9.9961914E+03;  0.0000000E+00;  1.9413237E-17;  1.0000000E+04;  0.0000000E+00;  9.9996396E+03;0.21554102;0.0;0.032358728;113.54193
  7.3999083E-01;  9.9999998E-03;  2.0000212E-02;2192;-0.012098762;0.0;0.00052954408;1006.8729;  4.0283388E-01;5693.249;3;-10.155493;0.0;0.90277672;0;0.25085729;  9.9961895E+03;  0.0000000E+00;  7.2948786E-11;  1.0000000E+04;  0.0000000E+00;  9.9996045E+03;0.21576093;0.0;0.035096362;126.30318
  7.3999083E-01;  9.9999998E-03;  4.0000498E-02;2193;-0.0121338;0.0;0.0011941151;1006.8674;  4.0283385E-01;5688.7065;3;-10.215429;0.0;1.9622416;0;0.25952253;  9.9961807E+03;  0.0000000E+00;  5.7587501E-10;  1.0000000E+04;  0.0000000E+00;  9.9995049E+03;0.21644981;0.0;0.043072708;163.68996
  7.3999077E-01;  9.9999998E-03;  6.0000945E-02;2194;-0.012201737;0.0;0.0021546639;1006.8586;  4.0283379E-01;5681.3989;3;-10.325891;0.0;3.3676205;0;0.27337006;  9.9961680E+03;  0.0000000E+00;  5.1140834E-09;  1.0000000E+04;  0.0000000E+00;  9.9993438E+03;0.21769214;0.0;0.055677932;224.06102
  7.3999071E-01;  9.9999998E-03;  8.0001645E-02;2195;-0.012318399;0.0;0.0035889808;1006.8463;  4.0283379E-01;5671.228;3;-10.504848;0.0;5.3287606;0;0.29198366;  9.9961436E+03;  0.0000000E+00;  2.3103654E-08;  1.0000000E+04;  0.0000000E+00;  9.9991201E+03;0.21961878;0.0;0.072364867;309.1572
  7.3999065E-01;  9.9999998E-03;  1.0000267E-01;2196;-0.012506258;0.0;0.0056348941;1006.8289;  4.0283388E-01;5656.8105;3;-10.777864;0.0;8.003293;0;0.31600869;  9.9961113E+03;  0.0000000E+00;  6.8617851E-08;  1.0000000E+04;  0.0000000E+00;  9.9988057E+03;0.22238648;0.0;0.093622223;432.93503
  7.3999053E-01;  9.9999998E-03;  1.2000405E-01;2197;-0.012790568;0.0;0.0083146039;1006.8019;  4.0283391E-01;5634.4937;3;-11.173232;0.0;11.403865;0;0.34834924;  9.9960664E+03;  0.0000000E+00;  1.4556605E-07;  1.0000000E+04;  0.0000000E+00;  9.9983164E+03;0.22614287;0.0;0.12220637;633.85583
  7.3999029E-01;  9.9999998E-03;  1.4000571E-01;2198;-0.013191642;0.0;0.011499955;1006.7579;  4.0283391E-01;5597.9565;3;-11.712324;0.0;15.355499;0;0.39413893;  9.9960068E+03;  0.0000000E+00;  2.0030859E-07;  1.0000000E+04;  0.0000000E+00;  9.9974990E+03;0.2309844;0.0;0.16315454;980.22626
  7.5999540E-01;  9.9999998E-03;  5.2039154E-12;2222;-0.0061245607;0.0;1.7299568e-09;1006.9276;  4.0285361E-01;5738.2881;3;-5.2281098;0.0;-1.9083673e-05;0;0.24761595;  9.9962715E+03;  0.0000000E+00;  1.1690162E-15;  1.0000000E+04;  0.0000000E+00;  9.9996240E+03;0.21386243;0.0;0.033753518;118.84875
  7.5999540E-01;  9.9999998E-03;  2.0000223E-02;2223;-0.0061316779;0.0;0.00055520277;1006.9256;  4.0285367E-01;5736.6099;3;-5.2407742;0.0;0.94812256;0;0.25074005;  9.9962695E+03;  0.0000000E+00;  2.3916482E-11;  1.0000000E+04;  0.0000000E+00;  9.9995889E+03;0.214092;0.0;0.036648065;132.30847
  7.5999540E-01;  9.9999998E-03;  4.0000521E-02;2224;-0.0061545828;0.0;0.0012512547;1006.9199;  4.0285367E-01;5731.8701;3;-5.2803617;0.0;2.0591908;0;0.2598882;  9.9962598E+03;  0.0000000E+00;  4.7045412E-10;  1.0000000E+04;  0.0000000E+00;  9.9994834E+03;0.21481356;0.0;0.045074653;171.70406
  7.5999540E-01;  9.9999998E-03;  6.0000986E-02;2225;-0.0061984388;0.0;0.0022562563;1006.9105;  4.0285367E-01;5724.168;3;-5.3522992;0.0;3.5306103;0;0.27448693;  9.9962461E+03;  0.0000000E+00;  2.9564453E-09;  1.0000000E+04;  0.0000000E+00;  9.9993135E+03;0.21612144;0.0;0.05836549;235.17233
  7.5999534E-01;  9.9999998E-03;  8.0001719E-02;2226;-0.0062728473;0.0;0.0037561024;1006.8976;  4.0285367E-01;5713.5034;3;-5.4671144;0.0;5.5814762;0;0.29405695;  9.9962217E+03;  0.0000000E+00;  1.2445643E-08;  1.0000000E+04;  0.0000000E+00;  9.9990791E+03;0.21815993;0.0;0.075897031;324.26642
  7.5999528E-01;  9.9999998E-03;  1.0000280E-01;2227;-0.006391752;0.0;0.0058944854;1006.8795;  4.0285367E-01;5698.396;3;-5.640286;0.0;8.3758783;0;0.31920671;  9.9961875E+03;  0.0000000E+00;  3.6012938E-08;  1.0000000E+04;  0.0000000E+00;  9.9987500E+03;0.2210983;0.0;0.098108403;453.16699
  7.5999522E-01;  9.9999998E-03;  1.2000423E-01;2228;-0.0065707224;0.0;0.0086922934;1006.8514;  4.0285370E-01;5675.1909;3;-5.8889155;0.0;11.923809;0;0.35288543;  9.9961406E+03;  0.0000000E+00;  8.0126703E-08;  1.0000000E+04;  0.0000000E+00;  9.9982422E+03;0.22508858;0.0;0.12779686;661.51068
  7.5999504E-01;  9.9999998E-03;  1.4000596E-01;2229;-0.0068212552;0.0;0.012009599;1006.8058;  4.0285373E-01;5637.4712;3;-6.2243357;0.0;16.034203;0;0.40036345;  9.9960791E+03;  0.0000000E+00;  1.3073465E-07;  1.0000000E+04;  0.0000000E+00;  9.9973975E+03;0.23020564;0.0;0.17015779;1020.0522
  7.7999866E-01;  9.9999998E-03; -6.5361705E-12;2253;-0.0018390161;0.0;-5.5145688e-09;1006.9612;  4.0286094E-01;5765.7461;3;-1.69932;0.0;1.3043347e-05;0;0.2323547;  9.9965898E+03;  0.0000000E+00; -1.6237406E-16;  1.0000000E+04;  0.0000000E+00;  9.9996143E+03;0.19771755;0.0;0.034637149;123.07997
  7.7999866E-01;  9.9999998E-03;  2.0000229E-02;2254;-0.0018425507;0.0;0.00057026563;1006.9593;  4.0286097E-01;5764.1665;3;-1.7057458;0.0;0.97504479;0;0.23556577;  9.9965889E+03;  0.0000000E+00;  4.1074207E-11;  1.0000000E+04;  0.0000000E+00;  9.9995781E+03;0.19794053;0.0;0.037625238;136.95363
  7.7999866E-01;  9.9999998E-03;  4.0000536E-02;2255;-0.0018537197;0.0;0.001284291;1006.9534;  4.0286097E-01;5759.2295;3;-1.7254959;0.0;2.1158938;0;0.2449615;  9.9965791E+03;  0.0000000E+00;  2.4833580E-10;  1.0000000E+04;  0.0000000E+00;  9.9994697E+03;0.19864276;0.0;0.046318736;177.53239
  7.7999866E-01;  9.9999998E-03;  6.0001012E-02;2256;-0.0018745241;0.0;0.0023140628;1006.9439;  4.0286094E-01;5751.4297;3;-1.7603002;0.0;3.6241446;0;0.25993121;  9.9965654E+03;  0.0000000E+00;  1.1299737E-09;  1.0000000E+04;  0.0000000E+00;  9.9992939E+03;0.19992186;0.0;0.060009349;242.78947
  7.7999866E-01;  9.9999998E-03;  8.0001757E-02;2257;-0.0019089461;0.0;0.0038500847;1006.9307;  4.0286097E-01;5740.4697;3;-1.8141667;0.0;5.7240934;0;0.27993765;  9.9965430E+03;  0.0000000E+00;  4.2976214E-09;  1.0000000E+04;  0.0000000E+00;  9.9990537E+03;0.20192423;0.0;0.07801342;334.0769
  7.7999860E-01;  9.9999998E-03;  1.0000286E-01;2258;-0.0019630899;0.0;0.0060395151;1006.9122;  4.0286103E-01;5725.0669;3;-1.8934886;0.0;8.583703;0;0.30553162;  9.9965098E+03;  0.0000000E+00;  1.1685154E-08;  1.0000000E+04;  0.0000000E+00;  9.9987178E+03;0.20481887;0.0;0.10071273;465.51538
  7.7999860E-01;  9.9999998E-03;  1.2000433E-01;2259;-0.0020438787;0.0;0.008902167;1006.8839;  4.0286106E-01;5701.666;3;-2.0055649;0.0;12.210859;0;0.3396396;  9.9964609E+03;  0.0000000E+00;  2.7443539E-08;  1.0000000E+04;  0.0000000E+00;  9.9982021E+03;0.20875221;0.0;0.1308874;677.11206
  7.7999854E-01;  9.9999998E-03;  1.4000610E-01;2260;-0.0021557622;0.0;0.012289621;1006.8376;  4.0286109E-01;5663.356;3;-2.1542706;0.0;16.403212;0;0.3875739;  9.9964004E+03;  0.0000000E+00;  4.7574513E-08;  1.0000000E+04;  0.0000000E+00;  9.9973428E+03;0.21378426;0.0;0.17378965;1040.6683
  8.0000120E-01;  9.9999998E-03; -6.5177880E-12;2284;0.0014760173;0.0;-1.9501571e-09;1006.9846;  4.0286252E-01;5784.5728;3;1.0537084;0.0;2.6405905e-06;0;0.21155949;  9.9969766E+03;  0.0000000E+00;  6.6532331E-16;  1.0000000E+04;  0.0000000E+00;  9.9996113E+03;0.17656416;0.0;0.034995332;125.52826
  8.0000120E-01;  9.9999998E-03;  2.0000231E-02;2285;0.0014758584;0.0;0.00057539059;1006.9825;  4.0286246E-01;5782.7954;3;1.053178;0.0;0.98464352;0;0.21479298;  9.9969756E+03;  0.0000000E+00;  1.2389116E-11;  1.0000000E+04;  0.0000000E+00;  9.9995732E+03;0.17677325;0.0;0.038019728;139.55266
  8.0000120E-01;  9.9999998E-03;  4.0000539E-02;2286;0.0014756096;0.0;0.0012949656;1006.9766;  4.0286258E-01;5777.958;3;1.0520391;0.0;2.1350517;0;0.2242485;  9.9969678E+03;  0.0000000E+00;  3.7550230E-11;  1.0000000E+04;  0.0000000E+00;  9.9994639E+03;0.17743331;0.0;0.046815194;180.55408
  8.0000120E-01;  9.9999998E-03;  6.0001019E-02;2287;0.0014760124;0.0;0.0023316697;1006.967;  4.0286261E-01;5769.9609;3;1.051538;0.0;3.6536653;0;0.23928893;  9.9969541E+03;  0.0000000E+00;  1.1017084E-10;  1.0000000E+04;  0.0000000E+00;  9.9992881E+03;0.17863727;0.0;0.060651656;246.41112
  8.0000120E-01;  9.9999998E-03;  8.0001771E-02;2288;0.0014779741;0.0;0.0038774584;1006.9537;  4.0286252E-01;5759.002;3;1.0532711;0.0;5.7663403;0;0.25933352;  9.9969326E+03;  0.0000000E+00;  3.0884290E-10;  1.0000000E+04;  0.0000000E+00;  9.9990449E+03;0.18052593;0.0;0.078807592;338.31012
  8.0000120E-01;  9.9999998E-03;  1.0000288E-01;2289;0.0014823924;0.0;0.0060807341;1006.9352;  4.0286252E-01;5743.6992;3;1.0588473;0.0;8.6424294;0;0.28487444;  9.9968994E+03;  0.0000000E+00;  8.0211782E-10;  1.0000000E+04;  0.0000000E+00;  9.9987070E+03;0.18325861;0.0;0.10161582;470.15909
  8.0000120E-01;  9.9999998E-03;  1.2000436E-01;2290;0.0014899756;0.0;0.0089608096;1006.9071;  4.0286255E-01;5720.3994;3;1.0694536;0.0;12.289159;0;0.31878245;  9.9968564E+03;  0.0000000E+00;  1.4383565E-09;  1.0000000E+04;  0.0000000E+00;  9.9981904E+03;0.1869711;0.0;0.13181134;681.77716
  8.0000120E-01;  9.9999998E-03;  1.4000614E-01;2291;0.0015021735;0.0;0.012365167;1006.8611;  4.0286267E-01;5682.2905;3;1.0871967;0.0;16.498642;0;0.36634776;  9.9968008E+03;  0.0000000E+00;  5.2365007E-10;  1.0000000E+04;  0.0000000E+00;  9.9973320E+03;0.1917143;0.0;0.17463346;1044.9432
  8.2000351E-01;  9.9999998E-03;  9.4864123E-13;2315;0.004536083;0.0;4.4399213e-09;1006.9956;  4.0285975E-01;5792.9458;3;3.6255326;0.0;2.1415937e-05;0;0.19129753;  9.9973311E+03;  0.0000000E+00; -1.1778733E-15;  1.0000000E+04;  0.0000000E+00;  9.9996123E+03;0.1564469;0.0;0.034850631;125.87798
  8.2000351E-01;  9.9999998E-03;  2.0000229E-02;2316;0.004539012;0.0;0.00057147286;1006.9936;  4.0285975E-01;5791.2676;3;3.6304266;0.0;0.97840613;0;0.19450422;  9.9973301E+03;  0.0000000E+00;  3.3633419E-12;  1.0000000E+04;  0.0000000E+00;  9.9995752E+03;0.15664311;0.0;0.037861113;139.81621
  8.2000351E-01;  9.9999998E-03;  4.0000536E-02;2317;0.0045487406;0.0;0.0012855064;1006.9877;  4.0285978E-01;5786.4307;3;3.6462743;0.0;2.1203384;0;0.2038756;  9.9973232E+03;  0.0000000E+00;  6.0876172E-11;  1.0000000E+04;  0.0000000E+00;  9.9994658E+03;0.15726142;0.0;0.046614185;180.5564
  8.2000351E-01;  9.9999998E-03;  6.0001012E-02;2318;0.0045683403;0.0;0.0023134369;1006.9783;  4.0285978E-01;5778.6318;3;3.6769264;0.0;3.6260684;0;0.21876225;  9.9973096E+03;  0.0000000E+00;  1.5208641E-10;  1.0000000E+04;  0.0000000E+00;  9.9992900E+03;0.1583868;0.0;0.060375452;245.9489
  8.2000357E-01;  9.9999998E-03;  8.0001757E-02;2319;0.0046029892;0.0;0.003845819;1006.9651;  4.0285978E-01;5767.7729;3;3.7286875;0.0;5.7197351;0;0.23855624;  9.9972900E+03;  0.0000000E+00;  5.6575400E-10;  1.0000000E+04;  0.0000000E+00;  9.9990498E+03;0.16014758;0.0;0.078408659;337.0658
  8.2000357E-01;  9.9999998E-03;  1.0000286E-01;2320;0.004659635;0.0;0.0060303053;1006.9469;  4.0285978E-01;5752.6694;3;3.8100042;0.0;8.5700359;0;0.26370129;  9.9972598E+03;  0.0000000E+00;  1.5148128E-09;  1.0000000E+04;  0.0000000E+00;  9.9987168E+03;0.16268913;0.0;0.10101216;467.50858
  8.2000363E-01;  9.9999998E-03;  1.2000433E-01;2321;0.004745903;0.0;0.0088862199;1006.9191;  4.0285981E-01;5729.5698;3;3.9297261;0.0;12.184464;0;0.29699713;  9.9972188E+03;  0.0000000E+00;  1.7770495E-09;  1.0000000E+04;  0.0000000E+00;  9.9982031E+03;0.16613546;0.0;0.13086167;676.48676
  8.2000369E-01;  9.9999998E-03;  1.4000608E-01;2322;0.0048686815;0.0;0.012260803;1006.8738;  4.0285987E-01;5692.1567;3;4.0954905;0.0;16.355145;0;0.34366679;  9.9971670E+03;  0.0000000E+00; -7.0263546E-09;  1.0000000E+04;  0.0000000E+00;  9.9973574E+03;0.17053375;0.0;0.17313305;1034.8951
  8.4000593E-01;  9.9999998E-03; -8.6410382E-13;2346;0.0077092792;0.0;-2.0092381e-10;1006.8958;  4.0281349E-01;5709.376;3;6.3107214;0.0;4.9399678e-06;0;0.1728127;  9.9976377E+03;  0.0000000E+00;  1.8394664E-16;  1.0000000E+04;  0.0000000E+00;  9.9996191E+03;0.13855718;0.0;0.034255512;124.26723
  8.4000593E-01;  9.9999998E-03;  2.0000223E-02;2347;0.0077150036;0.0;0.00055949332;1006.8939;  4.0281352E-01;5707.7969;3;6.3205099;0.0;0.95807433;0;0.17595287;  9.9976348E+03;  0.0000000E+00; -2.6971068E-11;  1.0000000E+04;  0.0000000E+00;  9.9995830E+03;0.13874508;0.0;0.037207779;137.90581
  8.4000593E-01;  9.9999998E-03;  4.0000524E-02;2348;0.0077338004;0.0;0.0012582012;1006.8881;  4.0281352E-01;5703.0596;3;6.351789;0.0;2.0756135;0;0.18512565;  9.9976289E+03;  0.0000000E+00;  8.2441991E-11;  1.0000000E+04;  0.0000000E+00;  9.9994746E+03;0.13933444;0.0;0.045791201;177.76761
  8.4000593E-01;  9.9999998E-03;  6.0000990E-02;2349;0.007770699;0.0;0.0022636168;1006.8788;  4.0281355E-01;5695.2622;3;6.4104819;0.0;3.5481725;0;0.19968292;  9.9976152E+03;  0.0000000E+00;  7.5546719E-10;  1.0000000E+04;  0.0000000E+00;  9.9993018E+03;0.14040019;0.0;0.059282739;241.73389
  8.4000599E-01;  9.9999998E-03;  8.0001719E-02;2350;0.0078345807;0.0;0.0037624328;1006.866;  4.0281358E-01;5684.7012;3;6.5070624;0.0;5.5954366;0;0.21900685;  9.9975977E+03;  0.0000000E+00;  3.0081273E-09;  1.0000000E+04;  0.0000000E+00;  9.9990674E+03;0.14205518;0.0;0.076951668;330.80319
  8.4000599E-01;  9.9999998E-03;  1.0000280E-01;2351;0.0079378663;0.0;0.005899705;1006.8482;  4.0281355E-01;5669.9951;3;6.6560097;0.0;8.383379;0;0.24350409;  9.9975703E+03;  0.0000000E+00;  8.0645179E-09;  1.0000000E+04;  0.0000000E+00;  9.9987422E+03;0.14443061;0.0;0.099073485;458.17813
  8.4000611E-01;  9.9999998E-03;  1.2000423E-01;2352;0.0080943648;0.0;0.0086948657;1006.8211;  4.0281361E-01;5647.5903;3;6.8730946;0.0;11.920204;0;0.27589312;  9.9975313E+03;  0.0000000E+00;  1.6071688E-08;  1.0000000E+04;  0.0000000E+00;  9.9982393E+03;0.14764154;0.0;0.12825158;662.06805
  8.4000617E-01;  9.9999998E-03;  1.4000596E-01;2353;0.0083163725;0.0;0.011998058;1006.777;  4.0281361E-01;5610.9727;3;7.1716909;0.0;16.002377;0;0.32129076;  9.9974824E+03;  0.0000000E+00;  8.5031386E-09;  1.0000000E+04;  0.0000000E+00;  9.9974092E+03;0.15173788;0.0;0.16955288;1011.7041
  8.6000836E-01;  9.9999998E-03;  9.8857866E-12;2377;0.010971911;0.0;3.523111e-10;1006.684;  4.0272263E-01;5532.752;3;9.0767593;0.0;-2.1875661e-05;0;0.15390798;  9.9979375E+03;  0.0000000E+00;  2.5738615E-16;  1.0000000E+04;  0.0000000E+00;  9.9996289E+03;0.12062229;0.0;0.0332857;121.17367
  8.6000836E-01;  9.9999998E-03;  2.0000216E-02;2378;0.010980172;0.0;0.00054033368;1006.6821;  4.0272257E-01;5531.1733;3;9.0909586;0.0;0.92519546;0;0.15694529;  9.9979355E+03;  0.0000000E+00; -4.0883412E-12;  1.0000000E+04;  0.0000000E+00;  9.9995947E+03;0.12080545;0.0;0.036139842;134.317
  8.6000836E-01;  9.9999998E-03;  4.0000506E-02;2379;0.01100704;0.0;0.0012149921;1006.6765;  4.0272260E-01;5526.6343;3;9.1359472;0.0;2.0041227;0;0.16581592;  9.9979287E+03;  0.0000000E+00;  9.3087274E-11;  1.0000000E+04;  0.0000000E+00;  9.9994902E+03;0.12137704;0.0;0.044438891;172.73592
  8.6000842E-01;  9.9999998E-03;  6.0000956E-02;2380;0.011059368;0.0;0.0021857428;1006.6675;  4.0272260E-01;5519.1348;3;9.2196789;0.0;3.4256244;0;0.17988589;  9.9979170E+03;  0.0000000E+00;  9.6352659E-10;  1.0000000E+04;  0.0000000E+00;  9.9993223E+03;0.12240075;0.0;0.057485145;234.39267
  8.6000848E-01;  9.9999998E-03;  8.0001660E-02;2381;0.01114932;0.0;0.0036332756;1006.6552;  4.0272266E-01;5508.9707;3;9.3561907;0.0;5.4024744;0;0.19854484;  9.9978994E+03;  0.0000000E+00;  5.4155080E-09;  1.0000000E+04;  0.0000000E+00;  9.9990967E+03;0.1239754;0.0;0.074569441;320.23547
  8.6000854E-01;  9.9999998E-03;  1.0000270E-01;2382;0.011294086;0.0;0.0056983004;1006.638;  4.0272263E-01;5494.7612;3;9.5653076;0.0;8.0958986;0;0.22217047;  9.9978701E+03;  0.0000000E+00;  1.5459776E-08;  1.0000000E+04;  0.0000000E+00;  9.9987793E+03;0.12621981;0.0;0.095950671;442.95105
  8.6000860E-01;  9.9999998E-03;  1.2000409E-01;2383;0.011513213;0.0;0.0084001077;1006.6119;  4.0272269E-01;5473.1509;3;9.8692818;0.0;11.514867;0;0.25338575;  9.9978359E+03;  0.0000000E+00;  3.3191561E-08;  1.0000000E+04;  0.0000000E+00;  9.9982969E+03;0.12924579;0.0;0.12413996;639.34113
  8.6000878E-01;  9.9999998E-03;  1.4000575E-01;2384;0.011824246;0.0;0.011593728;1006.5691;  4.0272266E-01;5437.7256;3;10.287218;0.0;15.462619;0;0.29716343;  9.9977881E+03;  0.0000000E+00;  2.8993512E-08;  1.0000000E+04;  0.0000000E+00;  9.9974951E+03;0.13311486;0.0;0.16404858;976.20587
  8.8001072E-01;  9.9999998E-03;  1.2460302E-12;2408;0.014083585;0.0;6.2745964e-10;1006.3759;  4.0259212E-01;5276.1816;3;11.715756;0.0;-7.9104211e-07;0;0.13179402;  9.9982832E+03;  0.0000000E+00; -9.0231434E-16;  1.0000000E+04;  0.0000000E+00;  9.9996436E+03;0.099761628;0.0;0.032032389;117.20111
  8.8001072E-01;  9.9999998E-03;  2.0000206E-02;2409;0.014094029;0.0;0.00051480584;1006.374;  4.0259215E-01;5274.6035;3;11.733791;0.0;0.88115656;0;0.13469101;  9.9982793E+03;  0.0000000E+00;  4.9798221E-12;  1.0000000E+04;  0.0000000E+00;  9.9996084E+03;0.099939264;0.0;0.034751747;129.66933
  8.8001072E-01;  9.9999998E-03;  4.0000480E-02;2410;0.014127925;0.0;0.0011577146;1006.3687;  4.0259218E-01;5270.2627;3;11.790733;0.0;1.9089257;0;0.14315203;  9.9982734E+03;  0.0000000E+00; -4.0103434E-10;  1.0000000E+04;  0.0000000E+00;  9.9995107E+03;0.10049052;0.0;0.042661514;166.12602
  8.8001078E-01;  9.9999998E-03;  6.0000911E-02;2411;0.014193641;0.0;0.0020831602;1006.3602;  4.0259221E-01;5263.1602;3;11.89616;0.0;3.2636886;0;0.15657145;  9.9982607E+03;  0.0000000E+00;  3.7331885E-10;  1.0000000E+04;  0.0000000E+00;  9.9993516E+03;0.10146993;0.0;0.055101529;224.65968
  8.8001078E-01;  9.9999998E-03;  8.0001585E-02;2412;0.014306242;0.0;0.0034638552;1006.3484;  4.0259221E-01;5253.394;3;12.067401;0.0;5.1489997;0;0.17436144;  9.9982432E+03;  0.0000000E+00;  3.8956660E-09;  1.0000000E+04;  0.0000000E+00;  9.9991348E+03;0.1029638;0.0;0.07139764;306.17758
  8.8001090E-01;  9.9999998E-03;  1.0000258E-01;2413;0.014487155;0.0;0.0054345923;1006.332;  4.0259212E-01;5239.8794;3;12.32896;0.0;7.7196283;0;0.1968756;  9.9982178E+03;  0.0000000E+00;  1.7102005E-08;  1.0000000E+04;  0.0000000E+00;  9.9988320E+03;0.10508258;0.0;0.091793031;422.71445
  8.8001102E-01;  9.9999998E-03;  1.2000390E-01;2414;0.014761034;0.0;0.0080140959;1006.307;  4.0259221E-01;5219.1631;3;12.708974;0.0;10.984753;0;0.22662324;  9.9981816E+03;  0.0000000E+00;  3.9393882E-08;  1.0000000E+04;  0.0000000E+00;  9.9983711E+03;0.10794157;0.0;0.11868167;609.24347
  8.8001120E-01;  9.9999998E-03;  1.4000550E-01;2415;0.015150388;0.0;0.011063444;1006.2662;  4.0259224E-01;5185.3271;3;13.232132;0.0;14.75611;0;0.26839411;  9.9981377E+03;  0.0000000E+00;  3.4086110E-08;  1.0000000E+04;  0.0000000E+00;  9.9976045E+03;0.11162453;0.0;0.15676959;929.38037
  9.0001273E-01;  9.9999998E-03; -1.3109841E-11;2439;0.016739815;0.0;-1.6968281e-08;1005.9899;  4.0242925E-01;4954.7485;3;13.958023;0.0;-8.9935493e-06;0;0.105636;  9.9986934E+03;  0.0000000E+00;  8.9195163E-16;  1.0000000E+04;  0.0000000E+00;  9.9996592E+03;0.075045034;0.0;0.030590966;112.86604
  9.0001273E-01;  9.9999998E-03;  2.0000193E-02;2440;0.016752396;0.0;0.00048439615;1005.9882;  4.0242925E-01;4953.3677;3;13.979968;0.0;0.8281917;0;0.10835122;  9.9986924E+03;  0.0000000E+00; -1.0799508E-11;  1.0000000E+04;  0.0000000E+00;  9.9996260E+03;0.075208656;0.0;0.033142559;124.49775
  9.0001273E-01;  9.9999998E-03;  4.0000454E-02;2441;0.016793525;0.0;0.0010894646;1005.9833;  4.0242922E-01;4949.2266;3;14.049146;0.0;1.7947397;0;0.11628406;  9.9986865E+03;  0.0000000E+00; -4.9659554E-10;  1.0000000E+04;  0.0000000E+00;  9.9995322E+03;0.075715497;0.0;0.04056856;158.5275
  9.0001279E-01;  9.9999998E-03;  6.0000855E-02;2442;0.016872309;0.0;0.0019605416;1005.9753;  4.0242922E-01;4942.6196;3;14.175297;0.0;3.0693071;0;0.12887062;  9.9986748E+03;  0.0000000E+00; -1.6604007E-09;  1.0000000E+04;  0.0000000E+00;  9.9993848E+03;0.076612681;0.0;0.052257936;213.21008
  9.0001285E-01;  9.9999998E-03;  8.0001488E-02;2443;0.017006708;0.0;0.0032609198;1005.9641;  4.0242922E-01;4933.4492;3;14.37981;0.0;4.8446593;0;0.14555998;  9.9986582E+03;  0.0000000E+00; -1.6164419E-09;  1.0000000E+04;  0.0000000E+00;  9.9991797E+03;0.077977702;0.0;0.067582279;289.41589
  9.0001291E-01;  9.9999998E-03;  1.0000243E-01;2444;0.017221589;0.0;0.0051182844;1005.9488;  4.0242919E-01;4920.7285;3;14.690683;0.0;7.2679038;0;0.1666847;  9.9986328E+03;  0.0000000E+00;  9.4401162E-09;  1.0000000E+04;  0.0000000E+00;  9.9988975E+03;0.079916656;0.0;0.086768046;398.3938
  9.0001309E-01;  9.9999998E-03;  1.2000368E-01;2445;0.017545201;0.0;0.0075503839;1005.9252;  4.0242928E-01;4901.2046;3;15.140577;0.0;10.347875;0;0.19462144;  9.9985986E+03;  0.0000000E+00;  3.2971844E-08;  1.0000000E+04;  0.0000000E+00;  9.9984600E+03;0.082554713;0.0;0.11206674;572.89209
  9.0001333E-01;  9.9999998E-03;  1.4000517E-01;2446;0.018003972;0.0;0.010424828;1005.8868;  4.0242931E-01;4869.4526;3;15.757277;0.0;13.905366;0;0.23394138;  9.9985547E+03;  0.0000000E+00;  2.6304535E-08;  1.0000000E+04;  0.0000000E+00;  9.9977402E+03;0.086010434;0.0;0.14793094;872.64844
  9.2001384E-01;  9.9999998E-03; -3.9345415E-12;2470;0.018035254;0.0;-7.6482989e-09;1005.5459;  4.0224218E-01;4584.9258;3;14.817571;0.0;-7.1804971e-07;0;0.077363506;  9.9991455E+03;  0.0000000E+00;  9.1151545E-16;  1.0000000E+04;  0.0000000E+00;  9.9996748E+03;0.048316482;0.0;0.029047025;108.4564
  9.2001384E-01;  9.9999998E-03;  2.0000193E-02;2471;0.018054932;0.0;0.00047299982;1005.5443;  4.0224209E-01;4583.6445;3;14.841045;0.0;0.79255223;0;0.07985349;  9.9991426E+03;  0.0000000E+00;  3.6989287E-10;  1.0000000E+04;  0.0000000E+00;  9.9996436E+03;0.048450164;0.0;0.031403325;119.11849
  9.2001390E-01;  9.9999998E-03;  4.0000442E-02;2472;0.018122545;0.0;0.0010492782;1005.5397;  4.0224215E-01;4579.8008;3;14.947888;0.0;1.7051345;0;0.087132126;  9.9991387E+03;  0.0000000E+00; -4.0948625E-10;  1.0000000E+04;  0.0000000E+00;  9.9995576E+03;0.04886546;0.0;0.03826667;150.33759
  9.2001396E-01;  9.9999998E-03;  6.0000822E-02;2473;0.01825352;0.0;0.0018648139;1005.5324;  4.0224215E-01;4573.7891;3;15.148129;0.0;2.894464;0;0.098689109;  9.9991289E+03;  0.0000000E+00; -2.9549698E-09;  1.0000000E+04;  0.0000000E+00;  9.9994199E+03;0.049604796;0.0;0.049084313;200.56668
  9.2001402E-01;  9.9999998E-03;  8.0001414E-02;2474;0.018459974;0.0;0.0030712704;1005.5221;  4.0224212E-01;4565.3135;3;15.442614;0.0;4.540627;0;0.11402349;  9.9991143E+03;  0.0000000E+00; -6.9476425E-09;  1.0000000E+04;  0.0000000E+00;  9.9992295E+03;0.050740656;0.0;0.06328284;270.64291
  9.2001420E-01;  9.9999998E-03;  1.0000228E-01;2475;0.018764084;0.0;0.0047918181;1005.508;  4.0224212E-01;4553.585;3;15.872771;0.0;6.7839017;0;0.13345091;  9.9990928E+03;  0.0000000E+00; -3.2389513E-09;  1.0000000E+04;  0.0000000E+00;  9.9989688E+03;0.052379396;0.0;0.081071518;370.92209
  9.2001438E-01;  9.9999998E-03;  1.2000344E-01;2476;0.019189985;0.0;0.0070441272;1005.4861;  4.0224212E-01;4535.5493;3;16.458609;0.0;9.6369562;0;0.1592017;  9.9990635E+03;  0.0000000E+00;  1.7417420E-08;  1.0000000E+04;  0.0000000E+00;  9.9985654E+03;0.054662537;0.0;0.10453916;531.6059
  9.2001468E-01;  9.9999998E-03;  1.4000483E-01;2477;0.019760365;0.0;0.00971427;1005.4504;  4.0224221E-01;4506.082;3;17.208225;0.0;12.947657;0;0.19559985;  9.9990215E+03;  0.0000000E+00;  3.7194450E-09;  1.0000000E+04;  0.0000000E+00;  9.9978945E+03;0.057754017;0.0;0.13784583;807.97632
  9.4001400E-01;  9.9999998E-03; -2.3100068E-12;2501;0.018116513;0.0;2.8072247e-09;1005.0633;  4.0203992E-01;4182.8955;3;14.780761;0.0;1.355345e-05;0;0.050415426;  9.9995850E+03;  0.0000000E+00; -7.2721707E-16;  1.0000000E+04;  0.0000000E+00;  9.9996904E+03;0.022951715;0.0;0.027463714;104.00341
  9.4001400E-01;  9.9999998E-03;  2.0000201E-02;2502;0.018142315;0.0;0.00046781191;1005.0618;  4.0204000E-01;4181.7139;3;14.820817;0.0;0.7468695;0;0.052644782;  9.9995840E+03;  0.0000000E+00;  5.3692589E-10;  1.0000000E+04;  0.0000000E+00;  9.9996611E+03;0.023039302;0.0;0.02960548;113.60466
  9.4001406E-01;  9.9999998E-03;  4.0000450E-02;2503;0.018226082;0.0;0.0010256907;1005.0577;  4.0203992E-01;4178.2671;3;14.944234;0.0;1.6139047;0;0.059165265;  9.9995801E+03;  0.0000000E+00;  9.2782754E-10;  1.0000000E+04;  0.0000000E+00;  9.9995859E+03;0.023315147;0.0;0.035850119;141.74634
  9.4001412E-01;  9.9999998E-03;  6.0000807E-02;2504;0.018380487;0.0;0.0017893167;1005.0511;  4.0203995E-01;4172.8506;3;15.157032;0.0;2.722646;0;0.069527566;  9.9995732E+03;  0.0000000E+00; -3.1357719E-09;  1.0000000E+04;  0.0000000E+00;  9.9994580E+03;0.023819285;0.0;0.045708284;187.09615
  9.4001424E-01;  9.9999998E-03;  8.0001347E-02;2505;0.018621806;0.0;0.0028996661;1005.0419;  4.0203997E-01;4165.1689;3;15.486917;0.0;4.2361937;0;0.08329086;  9.9995625E+03;  0.0000000E+00; -1.1795592E-08;  1.0000000E+04;  0.0000000E+00;  9.9992852E+03;0.024622139;0.0;0.058668721;250.46317
  9.4001442E-01;  9.9999998E-03;  1.0000215E-01;2506;0.018974846;0.0;0.0044723623;1005.0291;  4.0203995E-01;4154.6313;3;15.963657;0.0;6.2815061;0;0.1007589;  9.9995459E+03;  0.0000000E+00; -1.4578017E-08;  1.0000000E+04;  0.0000000E+00;  9.9990469E+03;0.025832923;0.0;0.074925974;341.25162
  9.4001466E-01;  9.9999998E-03;  1.2000320E-01;2507;0.019462258;0.0;0.0065306318;1005.0092;  4.0203997E-01;4138.1851;3;16.597595;0.0;8.8844614;0;0.12400848;  9.9995215E+03;  0.0000000E+00; -2.2851114E-09;  1.0000000E+04;  0.0000000E+00;  9.9986758E+03;0.027612582;0.0;0.096395895;486.91263
  9.4001502E-01;  9.9999998E-03;  1.4000449E-01;2508;0.020108145;0.0;0.0089782998;1004.9766;  4.0204000E-01;4111.2012;3;17.413137;0.0;11.921554;0;0.157098;  9.9994844E+03;  0.0000000E+00; -4.7072142E-09;  1.0000000E+04;  0.0000000E+00;  9.9980625E+03;0.030177571;0.0;0.12692042;737.85901
  9.6001381E-01;  9.9999998E-03; -7.2245604E-12;2532;0.017825231;0.0;-1.4758335e-09;1004.5616;  4.0183136E-01;3764.7495;3;14.56648;0.0;3.0051655e-05;0;0.027625097;  9.9999619E+03;  0.0000000E+00;  1.9169611E-15;  1.0000000E+04;  0.0000000E+00;  9.9997061E+03;0.0017402635;0.0;0.025884833;99.407845
  9.6001381E-01;  9.9999998E-03;  2.0000195E-02;2533;0.01785408;0.0;0.00045361079;1004.5605;  4.0183139E-01;3763.7659;3;14.608641;0.0;0.72633111;0;0.029578494;  9.9999590E+03;  0.0000000E+00;  7.6402329E-10;  1.0000000E+04;  0.0000000E+00;  9.9996816E+03;0.0017760959;0.0;0.027802398;107.90395
  9.6001387E-01;  9.9999998E-03;  4.0000435E-02;2534;0.017935483;0.0;0.00097928918;1004.5568;  4.0183145E-01;3760.7158;3;14.712214;0.0;1.5054059;0;0.03529492;  9.9999580E+03;  0.0000000E+00;  1.6940079E-09;  1.0000000E+04;  0.0000000E+00;  9.9996123E+03;0.0018962671;0.0;0.033398654;132.83446
  9.6001393E-01;  9.9999998E-03;  6.0000774E-02;2535;0.018088941;0.0;0.0016835141;1004.5509;  4.0183139E-01;3755.895;3;14.927986;0.0;2.5106153;0;0.044388268;  9.9999551E+03;  0.0000000E+00; -2.6324269E-09;  1.0000000E+04;  0.0000000E+00;  9.9994961E+03;0.0021393844;0.0;0.042248882;173.08505
  9.6001405E-01;  9.9999998E-03;  8.0001272E-02;2536;0.018331941;0.0;0.0026962205;1004.5428;  4.0183139E-01;3749.2051;3;15.252654;0.0;3.8894365;0;0.056483231;  9.9999463E+03;  0.0000000E+00; -1.5425218E-08;  1.0000000E+04;  0.0000000E+00;  9.9993408E+03;0.0025739952;0.0;0.053909235;229.44983
  9.6001422E-01;  9.9999998E-03;  1.0000199E-01;2537;0.018684493;0.0;0.004125339;1004.5314;  4.0183145E-01;3739.7595;3;15.710778;0.0;5.7563882;0;0.071878389;  9.9999375E+03;  0.0000000E+00; -2.6771156E-08;  1.0000000E+04;  0.0000000E+00;  9.9991240E+03;0.0033111894;0.0;0.068567201;310.38821
  9.6001446E-01;  9.9999998E-03;  1.2000296E-01;2538;0.019180221;0.0;0.0059959022;1004.5136;  4.0183139E-01;3725.1003;3;16.353252;0.0;8.1226635;0;0.0924986;  9.9999189E+03;  0.0000000E+00; -1.6698992E-08;  1.0000000E+04;  0.0000000E+00;  9.9987910E+03;0.0045298012;0.0;0.087968796;440.54016
  9.6001482E-01;  9.9999998E-03;  1.4000413E-01;2539;0.019856071;0.0;0.0082138125;1004.4843;  4.0183148E-01;3700.8979;3;17.216467;0.0;10.852665;0;0.12212858;  9.9998896E+03;  0.0000000E+00; -2.2630402E-09;  1.0000000E+04;  0.0000000E+00;  9.9982314E+03;0.0065014693;0.0;0.11562712;665.22662
  9.8001343E-01;  9.9999998E-03; -1.3530281E-12;2563;0.017368747;0.0;-1.2188583e-10;1004.0602;  4.0162468E-01;3346.479;3;14.202798;0.0;4.4138578e-06;0;0.010114782;  1.0000252E+04;  0.0000000E+00;  7.7986705E-16;  1.0000000E+04;  0.0000000E+00;  9.9997217E+03;-0.014231212;0.0;0.024345994;94.603233
  9.8001343E-01;  9.9999998E-03;  2.0000191E-02;2564;0.017391572;0.0;0.00042908185;1004.0591;  4.0162462E-01;3345.4966;3;14.246401;0.0;0.662112;0;0.011800124;  1.0000252E+04;  0.0000000E+00;  1.0014299E-09;  1.0000000E+04;  0.0000000E+00;  9.9996992E+03;-0.014237815;0.0;0.026037939;101.98917
  9.8001349E-01;  9.9999998E-03;  4.0000424E-02;2565;0.017467145;0.0;0.00093138043;1004.0559;  4.0162459E-01;3342.8438;3;14.370741;0.0;1.415875;0;0.01673504;  1.0000251E+04;  0.0000000E+00;  2.1254571E-09;  1.0000000E+04;  0.0000000E+00;  9.9996367E+03;-0.014245741;0.0;0.030980781;123.69209
  9.8001355E-01;  9.9999998E-03;  6.0000736E-02;2566;0.017600866;0.0;0.001578846;1004.0508;  4.0162456E-01;3338.717;3;14.557073;0.0;2.3160651;0;0.024594471;  1.0000250E+04;  0.0000000E+00; -2.7524225E-09;  1.0000000E+04;  0.0000000E+00;  9.9995361E+03;-0.014218983;0.0;0.038813453;158.82227
  9.8001367E-01;  9.9999998E-03;  8.0001190E-02;2567;0.017819254;0.0;0.0024939263;1004.0437;  4.0162462E-01;3332.822;3;14.854676;0.0;3.5487285;0;0.035071008;  1.0000249E+04;  0.0000000E+00; -1.7223908E-08;  1.0000000E+04;  0.0000000E+00;  9.9993965E+03;-0.014093229;0.0;0.049164236;208.1945
  9.8001379E-01;  9.9999998E-03;  1.0000184E-01;2568;0.018146759;0.0;0.0037790607;1004.0336;  4.0162459E-01;3324.4702;3;15.282009;0.0;5.2285929;0;0.048471399;  1.0000241E+04;  0.0000000E+00; -3.9908006E-08;  1.0000000E+04;  0.0000000E+00;  9.9992021E+03;-0.013757825;0.0;0.062229224;279.41022
  9.8001409E-01;  9.9999998E-03;  1.2000271E-01;2569;0.018632591;0.0;0.0054567885;1004.0179;  4.0162468E-01;3311.501;3;15.929853;0.0;7.3549013;0;0.066584691;  1.0000229E+04;  0.0000000E+00; -4.2714476E-08;  1.0000000E+04;  0.0000000E+00;  9.9989033E+03;-0.013018553;0.0;0.079603247;394.38745
  9.8001444E-01;  9.9999998E-03;  1.4000376E-01;2570;0.019305054;0.0;0.0074512856;1003.9915;  4.0162471E-01;3289.7871;3;16.768799;0.0;9.8161812;0;0.09292531;  1.0000205E+04;  0.0000000E+00; -8.5821092E-09;  1.0000000E+04;  0.0000000E+00;  9.9983994E+03;-0.011547869;0.0;0.10447318;593.30841
  1.0000130E+00;  9.9999998E-03;  4.6008716E-14;2594;0.016786765;0.0;1.0067285e-09;1003.5757;  4.0142643E-01;2941.9026;3;13.782648;0.0;-6.1618921e-06;0;-0.0024647769;  1.0000465E+04;  0.0000000E+00; -1.2356796E-16;  1.0000000E+04;  0.0000000E+00;  9.9997354E+03;-0.02533876;0.0;0.022873983;89.577415
  1.0000130E+00;  9.9999998E-03;  2.0000193E-02;2595;0.016805569;0.0;0.0004146568;1003.5748;  4.0142640E-01;2941.1179;3;13.816891;0.0;0.61419189;0;-0.0010222588;  1.0000465E+04;  0.0000000E+00;  1.0530498E-09;  1.0000000E+04;  0.0000000E+00;  9.9997158E+03;-0.025367897;0.0;0.024345638;95.881805
  1.0000130E+00;  9.9999998E-03;  4.0000416E-02;2596;0.016866954;0.0;0.00088907883;1003.5721;  4.0142637E-01;2938.8621;3;13.919395;0.0;1.3100765;0;0.0032049902;  1.0000464E+04;  0.0000000E+00;  2.2256299E-09;  1.0000000E+04;  0.0000000E+00;  9.9996602E+03;-0.025445493;0.0;0.028650483;114.44299
  1.0000130E+00;  9.9999998E-03;  6.0000710E-02;2597;0.016981503;0.0;0.0014999172;1003.5677;  4.0142635E-01;2935.2332;3;14.085279;0.0;2.1623826;0;0.0099503696;  1.0000463E+04;  0.0000000E+00; -1.8583757E-09;  1.0000000E+04;  0.0000000E+00;  9.9995713E+03;-0.025540847;0.0;0.035491217;144.61269
  1.0000131E+00;  9.9999998E-03;  8.0001131E-02;2598;0.017181423;0.0;0.0023258249;1003.5614;  4.0142637E-01;2930.0352;3;14.381932;0.0;3.2507465;0;0.018980561;  1.0000462E+04;  0.0000000E+00; -2.0509288E-08;  1.0000000E+04;  0.0000000E+00;  9.9994492E+03;-0.025595749;0.0;0.04457631;187.30461
  1.0000132E+00;  9.9999998E-03;  1.0000171E-01;2599;0.017496493;0.0;0.0034613924;1003.5525;  4.0142637E-01;2922.6792;3;14.799635;0.0;4.7188177;0;0.030634217;  1.0000459E+04;  0.0000000E+00; -5.7812322E-08;  1.0000000E+04;  0.0000000E+00;  9.9992773E+03;-0.025500871;0.0;0.056135088;249.43658
  1.0000135E+00;  9.9999998E-03;  1.2000248E-01;2600;0.017963635;0.0;0.0049492326;1003.5385;  4.0142632E-01;2911.2043;3;15.397141;0.0;6.6121507;0;0.046596684;  1.0000450E+04;  0.0000000E+00; -9.7330954E-08;  1.0000000E+04;  0.0000000E+00;  9.9990078E+03;-0.025045583;0.0;0.071642265;350.42355
  1.0000138E+00;  9.9999998E-03;  1.4000341E-01;2601;0.018622123;0.0;0.0067197974;1003.5146;  4.0142629E-01;2891.5889;3;16.214745;0.0;8.8030758;0;0.070123553;  1.0000427E+04;  0.0000000E+00; -7.4797768E-08;  1.0000000E+04;  0.0000000E+00;  9.9985537E+03;-0.023845989;0.0;0.093969546;525.39063
  1.0200124E+00;  9.9999998E-03;  3.9933995E-14;2625;0.016078483;0.0;4.2116741e-09;1003.1228;  4.0124199E-01;2563.042;3;13.296254;0.0;9.3437557e-06;0;-0.011164771;  1.0000607E+04;  0.0000000E+00; -8.4546031E-17;  1.0000000E+04;  0.0000000E+00;  9.9997480E+03;-0.032644589;0.0;0.021479817;84.324219
  1.0200124E+00;  9.9999998E-03;  2.0000191E-02;2626;0.016093507;0.0;0.00040200373;1003.1219;  4.0124199E-01;2562.3569;3;13.314749;0.0;0.58110607;0;-0.0099324379;  1.0000606E+04;  0.0000000E+00;  1.4324163E-09;  1.0000000E+04;  0.0000000E+00;  9.9997305E+03;-0.032674301;0.0;0.022741864;89.60437
  1.0200124E+00;  9.9999998E-03;  4.0000409E-02;2627;0.016144851;0.0;0.00085517223;1003.1196;  4.0124199E-01;2560.4001;3;13.396565;0.0;1.2274905;0;-0.0063152872;  1.0000606E+04;  0.0000000E+00;  3.9133385E-09;  1.0000000E+04;  0.0000000E+00;  9.9996836E+03;-0.032756411;0.0;0.026441123;105.19942
  1.0200124E+00;  9.9999998E-03;  6.0000688E-02;2628;0.016249949;0.0;0.0014257259;1003.1157;  4.0124199E-01;2557.2693;3;13.563922;0.0;2.0178196;0;-0.00051873922;  1.0000607E+04;  0.0000000E+00;  6.9615902E-10;  1.0000000E+04;  0.0000000E+00;  9.9996055E+03;-0.032866444;0.0;0.032347705;130.7383
  1.0200125E+00;  9.9999998E-03;  8.0001071E-02;2629;0.016426044;0.0;0.0021791728;1003.1102;  4.0124202E-01;2552.6707;3;13.801573;0.0;2.9985194;0;0.0073151886;  1.0000606E+04;  0.0000000E+00; -2.2496486E-08;  1.0000000E+04;  0.0000000E+00;  9.9994990E+03;-0.032950718;0.0;0.040265907;167.36229
  1.0200126E+00;  9.9999998E-03;  1.0000160E-01;2630;0.016717583;0.0;0.0031917037;1003.1022;  4.0124196E-01;2546.1155;3;14.198421;0.0;4.2991028;0;0.017593011;  1.0000601E+04;  0.0000000E+00; -8.5471662E-08;  1.0000000E+04;  0.0000000E+00;  9.9993438E+03;-0.032896582;0.0;0.050489593;221.54849
  1.0200129E+00;  9.9999998E-03;  1.2000228E-01;2631;0.017169831;0.0;0.0044946526;1003.0894;  4.0124199E-01;2535.5483;3;14.784873;0.0;5.9388113;0;0.03193891;  1.0000589E+04;  0.0000000E+00; -1.9185359E-07;  1.0000000E+04;  0.0000000E+00;  9.9990967E+03;-0.032472417;0.0;0.064411327;310.50455
  1.0200132E+00;  9.9999998E-03;  1.4000310E-01;2632;0.017820181;0.0;0.0060425662;1003.0674;  4.0124199E-01;2517.6436;3;15.600674;0.0;7.8437591;0;0.053353705;  1.0000564E+04;  0.0000000E+00; -2.5169712E-07;  1.0000000E+04;  0.0000000E+00;  9.9986865E+03;-0.031243859;0.0;0.084597565;464.44073
  1.0400116E+00;  9.9999998E-03;  2.3017914E-12;2656;0.01523884;0.0;-3.7786636e-09;1002.7111;  4.0107524E-01;2218.0491;3;12.711794;0.0;-1.6990962e-05;0;-0.017034888;  1.0000699E+04;  0.0000000E+00;  3.0071001E-16;  1.0000000E+04;  0.0000000E+00;  9.9997617E+03;-0.037191648;0.0;0.02015676;78.806633
  1.0400116E+00;  9.9999998E-03;  2.0000188E-02;2657;0.015252328;0.0;0.00038759594;1002.7104;  4.0107527E-01;2217.4639;3;12.726624;0.0;0.54247266;0;-0.015979791;  1.0000698E+04;  0.0000000E+00;  2.1039968E-09;  1.0000000E+04;  0.0000000E+00;  9.9997461E+03;-0.037204243;0.0;0.021224452;83.145096
  1.0400116E+00;  9.9999998E-03;  4.0000401E-02;2658;0.015299828;0.0;0.00081897009;1002.7084;  4.0107527E-01;2215.7085;3;12.796165;0.0;1.1431733;0;-0.012870945;  1.0000697E+04;  0.0000000E+00;  7.1214146E-09;  1.0000000E+04;  0.0000000E+00;  9.9997070E+03;-0.037236664;0.0;0.024365719;96.034729
  1.0400118E+00;  9.9999998E-03;  6.0000665E-02;2659;0.01539582;0.0;0.0013510267;1002.705;  4.0107530E-01;2212.9775;3;12.943601;0.0;1.8727007;0;-0.0078399461;  1.0000695E+04;  0.0000000E+00;  5.5788183E-09;  1.0000000E+04;  0.0000000E+00;  9.9996387E+03;-0.037267555;0.0;0.029427608;117.44408
  1.0400118E+00;  9.9999998E-03;  8.0001019E-02;2660;0.015565914;0.0;0.0020461355;1002.7;  4.0107527E-01;2208.8816;3;13.183709;0.0;2.7936969;0;-0.00090749562;  1.0000692E+04;  0.0000000E+00; -2.6646237E-08;  1.0000000E+04;  0.0000000E+00;  9.9995420E+03;-0.037240852;0.0;0.036333356;148.90134
  1.0400119E+00;  9.9999998E-03;  1.0000149E-01;2661;0.015840992;0.0;0.0029430466;1002.6924;  4.0107527E-01;2202.7371;3;13.538342;0.0;3.9154682;0;0.0084480532;  1.0000685E+04;  0.0000000E+00; -1.3488125E-07;  1.0000000E+04;  0.0000000E+00;  9.9994004E+03;-0.037029482;0.0;0.045477536;196.70859
  1.0400121E+00;  9.9999998E-03;  1.2000210E-01;2662;0.016281333;0.0;0.0040853843;1002.6802;  4.0107530E-01;2192.6919;3;14.109105;0.0;5.3381004;0;0.021830097;  1.0000668E+04;  0.0000000E+00; -3.6598482E-07;  1.0000000E+04;  0.0000000E+00;  9.9991719E+03;-0.036374476;0.0;0.058204573;276.15268
  1.0400125E+00;  9.9999998E-03;  1.4000283E-01;2663;0.016932532;0.0;0.0054289154;1002.6594;  4.0107524E-01;2175.7219;3;14.928831;0.0;6.9749665;0;0.041961819;  1.0000636E+04;  0.0000000E+00; -6.1635603E-07;  1.0000000E+04;  0.0000000E+00;  9.9987930E+03;-0.034809723;0.0;0.076771542;412.64603
  1.0600108E+00;  9.9999998E-03;  1.6962295E-12;2687;0.014298756;0.0;1.3650341e-09;1002.3475;  4.0092844E-01;1912.2682;3;12.059375;0.0;6.2068284e-07;0;-0.020758733;  1.0000748E+04;  0.0000000E+00;  2.5588095E-16;  1.0000000E+04;  0.0000000E+00;  9.9997715E+03;-0.039642189;0.0;0.018883456;72.949265
  1.0600108E+00;  9.9999998E-03;  2.0000184E-02;2688;0.01431507;0.0;0.00037475085;1002.3468;  4.0092847E-01;1911.6855;3;12.088225;0.0;0.52038598;0;-0.019848045;  1.0000748E+04;  0.0000000E+00;  3.2774385E-09;  1.0000000E+04;  0.0000000E+00;  9.9997598E+03;-0.039625518;0.0;0.019777473;76.460014
  1.0600109E+00;  9.9999998E-03;  4.0000390E-02;2689;0.014362648;0.0;0.00078479387;1002.345;  4.0092853E-01;1910.2289;3;12.149748;0.0;1.0749161;0;-0.017142506;  1.0000748E+04;  0.0000000E+00;  1.0714741E-08;  1.0000000E+04;  0.0000000E+00;  9.9997266E+03;-0.039569549;0.0;0.022427043;87.009117
  1.0600109E+00;  9.9999998E-03;  6.0000639E-02;2690;0.014455001;0.0;0.0012798589;1002.3418;  4.0092853E-01;1907.6068;3;12.279427;0.0;1.7409687;0;-0.012676932;  1.0000742E+04;  0.0000000E+00;  8.9852223E-09;  1.0000000E+04;  0.0000000E+00;  9.9996670E+03;-0.039447725;0.0;0.026770793;104.98262
  1.0600110E+00;  9.9999998E-03;  8.0000967E-02;2691;0.014622112;0.0;0.0019122864;1002.337;  4.0092856E-01;1903.7224;3;12.50559;0.0;2.5742209;0;-0.0063094534;  1.0000735E+04;  0.0000000E+00; -4.1507672E-08;  1.0000000E+04;  0.0000000E+00;  9.9995801E+03;-0.039187789;0.0;0.032878336;132.44366
  1.0600111E+00;  9.9999998E-03;  1.0000139E-01;2692;0.0148963;0.0;0.0027181183;1002.3297;  4.0092853E-01;1897.7988;3;12.850748;0.0;3.5911169;0;0.0026455559;  1.0000719E+04;  0.0000000E+00; -2.2806550E-07;  1.0000000E+04;  0.0000000E+00;  9.9994453E+03;-0.038631644;0.0;0.0412772;175.71904
  1.0600114E+00;  9.9999998E-03;  1.2000193E-01;2693;0.015325467;0.0;0.003703075;1002.3173;  4.0092850E-01;1887.6992;3;13.386586;0.0;4.7947612;0;0.015788313;  1.0000695E+04;  0.0000000E+00; -6.5607622E-07;  1.0000000E+04;  0.0000000E+00;  9.9992266E+03;-0.037489798;0.0;0.053278111;248.34277
  1.0600117E+00;  9.9999998E-03;  1.4000256E-01;2694;0.01597493;0.0;0.0048697661;1002.2969;  4.0092853E-01;1871.0934;3;14.19591;0.0;6.1990719;0;0.035489395;  1.0000650E+04;  0.0000000E+00; -7.6520455E-06;  1.0000000E+04;  0.0000000E+00;  9.9988652E+03;-0.035309628;0.0;0.070799023;370.94189
  1.0800099E+00;  9.9999998E-03; -7.8745246E-13;2718;0.013316091;0.0;-2.5246054e-09;1002.0336;  4.0080249E-01;1647.1556;3;11.395553;0.0;-6.8707595e-06;0;-0.02262966;  1.0000764E+04;  0.0000000E+00;  5.4333310E-16;  1.0000000E+04;  0.0000000E+00;  9.9997842E+03;-0.040265862;0.0;0.017636202;66.696732
  1.0800099E+00;  9.9999998E-03;  2.0000180E-02;2719;0.013331655;0.0;0.00036253818;1002.033;  4.0080246E-01;1646.6729;3;11.415927;0.0;0.50189674;0;-0.021823512;  1.0000762E+04;  0.0000000E+00;  4.1329784E-09;  1.0000000E+04;  0.0000000E+00;  9.9997744E+03;-0.040209871;0.0;0.018386358;69.540726
  1.0800101E+00;  9.9999998E-03;  4.0000379E-02;2720;0.013382745;0.0;0.00075272727;1002.0313;  4.0080249E-01;1645.2244;3;11.48451;0.0;1.0100628;0;-0.019390658;  1.0000758E+04;  0.0000000E+00;  1.1673017E-08;  1.0000000E+04;  0.0000000E+00;  9.9997441E+03;-0.040030047;0.0;0.02063939;78.254295
  1.0800101E+00;  9.9999998E-03;  6.0000621E-02;2721;0.013481499;0.0;0.0012148677;1002.0281;  4.0080243E-01;1642.714;3;11.60687;0.0;1.6228369;0;-0.015237248;  1.0000749E+04;  0.0000000E+00;  1.9366940E-10;  1.0000000E+04;  0.0000000E+00;  9.9996904E+03;-0.039679583;0.0;0.024442336;93.699821
  1.0800102E+00;  9.9999998E-03;  8.0000922E-02;2722;0.013654453;0.0;0.0017884208;1002.0233;  4.0080246E-01;1638.7551;3;11.825747;0.0;2.3716342;0;-0.0090159755;  1.0000734E+04;  0.0000000E+00; -9.7847007E-08;  1.0000000E+04;  0.0000000E+00;  9.9996074E+03;-0.039048608;0.0;0.030032633;118.53848
  1.0800103E+00;  9.9999998E-03;  1.0000130E-01;2723;0.013934738;0.0;0.0024988365;1002.0153;  4.0080240E-01;1632.3823;3;12.161321;0.0;3.2588224;0;0.00014586002;  1.0000711E+04;  0.0000000E+00; -4.2626831E-07;  1.0000000E+04;  0.0000000E+00;  9.9994736E+03;-0.037935376;0.0;0.038081236;159.14543
  1.0800105E+00;  9.9999998E-03;  1.2000177E-01;2724;0.01437134;0.0;0.0033513459;1002.0023;  4.0080249E-01;1621.8575;3;12.678168;0.0;4.2899899;0;0.013807755;  1.0000670E+04;  0.0000000E+00; -1.1402524E-06;  1.0000000E+04;  0.0000000E+00;  9.9992549E+03;-0.036038343;0.0;0.049846098;227.27429
  1.0800109E+00;  9.9999998E-03;  1.4000231E-01;2725;0.015006305;0.0;0.0043235561;1001.9818;  4.0080249E-01;1605.2496;3;13.471041;0.0;5.4527683;0;0.033767823;  1.0000610E+04;  0.0000000E+00; -1.3553072E-04;  1.0000000E+04;  0.0000000E+00;  9.9989033E+03;-0.033053812;0.0;0.066821635;338.45401
  1.1000091E+00;  9.9999998E-03; -2.5233353E-13;2748;0.012340109;0.0;-9.0737307e-10;1001.7686;  4.0069667E-01;1421.7456;3;10.73656;0.0;-4.0512532e-07;0;-0.022656638;  1.0000740E+04;  0.0000000E+00; -1.2056122E-16;  1.0000000E+04;  0.0000000E+00;  9.9997979E+03;-0.039078623;0.0;0.016421985;60.156612
  1.1000092E+00;  9.9999998E-03;  2.0000178E-02;2749;0.012357957;0.0;0.00034787462;1001.768;  4.0069667E-01;1421.2665;3;10.754771;0.0;0.46963435;0;-0.021890244;  1.0000738E+04;  0.0000000E+00;  2.1271540E-09;  1.0000000E+04;  0.0000000E+00;  9.9997881E+03;-0.038963027;0.0;0.017072784;62.551399
  1.1000092E+00;  9.9999998E-03;  4.0000372E-02;2750;0.012415749;0.0;0.00072174659;1001.7663;  4.0069672E-01;1419.9248;3;10.822052;0.0;0.95599192;0;-0.019523194;  1.0000731E+04;  0.0000000E+00; -1.5664673E-11;  1.0000000E+04;  0.0000000E+00;  9.9997598E+03;-0.03859058;0.0;0.019067386;70.082321
  1.1000092E+00;  9.9999998E-03;  6.0000598E-02;2751;0.012525253;0.0;0.0011515648;1001.7629;  4.0069667E-01;1417.1456;3;10.952936;0.0;1.5100479;0;-0.01530621;  1.0000716E+04;  0.0000000E+00; -4.7713488E-08;  1.0000000E+04;  0.0000000E+00;  9.9997080E+03;-0.037876278;0.0;0.022570068;84.066582
  1.1000093E+00;  9.9999998E-03;  8.0000877E-02;2752;0.012711678;0.0;0.0016677905;1001.7573;  4.0069667E-01;1412.7374;3;11.165391;0.0;2.165648;0;-0.0086762756;  1.0000689E+04;  0.0000000E+00; -2.5320543E-07;  1.0000000E+04;  0.0000000E+00;  9.9996221E+03;-0.036661219;0.0;0.027984943;107.66368
  1.1000096E+00;  9.9999998E-03;  1.0000121E-01;2753;0.013010215;0.0;0.0022867247;1001.7482;  4.0069661E-01;1405.3583;3;11.512255;0.0;2.9410286;0;0.0013827048;  1.0000650E+04;  0.0000000E+00; -8.1537240E-07;  1.0000000E+04;  0.0000000E+00;  9.9994814E+03;-0.034716856;0.0;0.036099561;147.09486
  1.1000098E+00;  9.9999998E-03;  1.2000161E-01;2754;0.013452085;0.0;0.003002011;1001.7339;  4.0069664E-01;1393.8584;3;12.024848;0.0;3.7926824;0;0.016235974;  1.0000592E+04;  0.0000000E+00; -4.6848170E-05;  1.0000000E+04;  0.0000000E+00;  9.9992539E+03;-0.031814896;0.0;0.048050869;212.04199
  1.1000102E+00;  9.9999998E-03;  1.4000209E-01;2755;0.014109647;0.0;0.0038451375;1001.7129;  4.0069672E-01;1376.9919;3;12.821096;0.0;4.7808452;0;0.036651172;  1.0000516E+04;  0.0000000E+00; -9.8678994E-04;  1.0000000E+04;  0.0000000E+00;  9.9989102E+03;-0.028091738;0.0;0.064742908;312.32474
  1.1200083E+00;  9.9999998E-03; -6.8178758E-13;2777;0.011425904;0.0;1.553324e-10;1001.549;  4.0060997E-01;1232.9528;3;10.111563;0.0;4.1408202e-06;0;-0.020423928;  1.0000674E+04;  0.0000000E+00;  1.0213617E-16;  1.0000000E+04;  0.0000000E+00;  9.9998076E+03;-0.035759684;0.0;0.015335755;53.69783
  1.1200083E+00;  9.9999998E-03;  2.0000175E-02;2778;0.011446279;0.0;0.00033388892;1001.5483;  4.0061000E-01;1232.3834;3;10.130051;0.0;0.43869513;0;-0.01959211;  1.0000671E+04;  0.0000000E+00; -6.3873586E-09;  1.0000000E+04;  0.0000000E+00;  9.9997979E+03;-0.035541311;0.0;0.015949201;55.893604
  1.1200085E+00;  9.9999998E-03;  4.0000364E-02;2779;0.011511371;0.0;0.00068899634;1001.5462;  4.0060997E-01;1230.6753;3;10.196943;0.0;0.90038455;0;-0.016975369;  1.0000656E+04;  0.0000000E+00; -4.4092264E-08;  1.0000000E+04;  0.0000000E+00;  9.9997695E+03;-0.034844805;0.0;0.017869435;62.951942
  1.1200085E+00;  9.9999998E-03;  6.0000576E-02;2780;0.011637333;0.0;0.0010854321;1001.5421;  4.0061003E-01;1227.4492;3;10.338827;0.0;1.4002037;0;-0.012183525;  1.0000631E+04;  0.0000000E+00; -1.8666718E-07;  1.0000000E+04;  0.0000000E+00;  9.9997148E+03;-0.033550031;0.0;0.021366507;76.505241
  1.1200086E+00;  9.9999998E-03;  8.0000818E-02;2781;0.011842769;0.0;0.001541714;1001.5354;  4.0061000E-01;1222.1355;3;10.570028;0.0;1.9788585;0;-0.004501041;  1.0000590E+04;  0.0000000E+00; -5.8751345E-07;  1.0000000E+04;  0.0000000E+00;  9.9996172E+03;-0.03147658;0.0;0.026975539;99.933334
  1.1200088E+00;  9.9999998E-03;  1.0000110E-01;2782;0.012151327;0.0;0.0020628986;1001.5247;  4.0060997E-01;1213.5956;3;10.917062;0.0;2.6178052;0;0.007061461;  1.0000529E+04;  0.0000000E+00; -4.0656319E-05;  1.0000000E+04;  0.0000000E+00;  9.9994658E+03;-0.028457666;0.0;0.035519127;138.85573
  1.1200091E+00;  9.9999998E-03;  1.2000145E-01;2783;0.012618314;0.0;0.0026697207;1001.509;  4.0060997E-01;1201.0703;3;11.451629;0.0;3.3357592;0;0.023232415;  1.0000453E+04;  0.0000000E+00; -6.7300798E-04;  1.0000000E+04;  0.0000000E+00;  9.9992295E+03;-0.024604231;0.0;0.047836646;200.12048
  1.1200095E+00;  9.9999998E-03;  1.4000188E-01;2784;0.013281512;0.0;0.0034043172;1001.4882;  4.0061003E-01;1184.5599;3;12.231235;0.0;4.1629395;0;0.043547474;  1.0000370E+04;  0.0000000E+00; -4.3044337E-03;  1.0000000E+04;  0.0000000E+00;  9.9988926E+03;-0.020624669;0.0;0.064172141;288.54166
  1.1400076E+00;  9.9999998E-03; -3.6691087E-13;2805;0.01061473;0.0;-2.475941e-09;1001.3689;  4.0054038E-01;1075.6267;3;9.546257;0.0;-1.1462107e-05;0;-0.014760435;  1.0000549E+04;  0.0000000E+00; -4.7426021E-16;  1.0000000E+04;  0.0000000E+00;  9.9998096E+03;-0.029370368;0.0;0.014609933;47.777065
  1.1400077E+00;  9.9999998E-03;  2.0000167E-02;2806;0.0106387;0.0;0.00031395469;1001.368;  4.0054041E-01;1074.8773;3;9.5703983;0.0;0.40370646;0;-0.013738556;  1.0000542E+04;  0.0000000E+00; -2.9752961E-08;  1.0000000E+04;  0.0000000E+00;  9.9998008E+03;-0.028999154;0.0;0.015260598;49.999645
  1.1400077E+00;  9.9999998E-03;  4.0000342E-02;2807;0.010711282;0.0;0.00064063031;1001.3652;  4.0054044E-01;1072.7228;3;9.6435213;0.0;0.82514501;0;-0.010522002;  1.0000520E+04;  0.0000000E+00; -1.5271179E-07;  1.0000000E+04;  0.0000000E+00;  9.9997666E+03;-0.027840754;0.0;0.017318752;57.186398
  1.1400079E+00;  9.9999998E-03;  6.0000531E-02;2808;0.010847921;0.0;0.00099615555;1001.36;  4.0054047E-01;1068.6012;3;9.7928133;0.0;1.282172;0;-0.0046645999;  1.0000478E+04;  0.0000000E+00; -4.2088454E-06;  1.0000000E+04;  0.0000000E+00;  9.9997021E+03;-0.025784304;0.0;0.021119704;71.038574
  1.1400080E+00;  9.9999998E-03;  8.0000743E-02;2809;0.011064192;0.0;0.0013848025;1001.3517;  4.0054038E-01;1062.1377;3;10.031498;0.0;1.7623941;0;0.0044782646;  1.0000420E+04;  0.0000000E+00; -9.2842514E-05;  1.0000000E+04;  0.0000000E+00;  9.9995957E+03;-0.022753527;0.0;0.027231792;94.660423
  1.1400082E+00;  9.9999998E-03;  1.0000099E-01;2810;0.011400333;0.0;0.0018331014;1001.3395;  4.0054038E-01;1052.5831;3;10.402113;0.0;2.304126;0;0.017446881;  1.0000343E+04;  0.0000000E+00; -7.8656292E-04;  1.0000000E+04;  0.0000000E+00;  9.9994287E+03;-0.018882887;0.0;0.036329769;132.30672
  1.1400084E+00;  9.9999998E-03;  1.2000129E-01;2811;0.011875727;0.0;0.0023499439;1001.3232;  4.0054047E-01;1039.7499;3;10.939954;0.0;2.8951416;0;0.034105003;  1.0000260E+04;  0.0000000E+00; -3.8966031E-03;  1.0000000E+04;  0.0000000E+00;  9.9991875E+03;-0.01471912;0.0;0.048824124;188.0116
  1.1400089E+00;  9.9999998E-03;  1.4000176E-01;2812;0.012610388;0.0;0.0030704527;1001.3037;  4.0054041E-01;1024.3875;3;11.787848;0.0;3.6634052;0;0.053088684;  1.0000188E+04;  0.0000000E+00; -1.3159018E-02;  1.0000000E+04;  0.0000000E+00;  9.9988672E+03;-0.011334512;0.0;0.064423196;264.2063
  1.1600071E+00;  9.9999998E-03; -1.1636550E-12;2832;0.0099144112;0.0;-4.631891e-10;1001.2213;  4.0048587E-01;943.8847;3;9.0545282;0.0;4.2798492e-06;0;-0.0039598066;  1.0000335E+04;  0.0000000E+00;  7.3146344E-17;  1.0000000E+04;  0.0000000E+00;  9.9998008E+03;-0.018578982;0.0;0.014619175;42.592548
  1.1600071E+00;  9.9999998E-03;  2.0000147E-02;2833;0.0099384673;0.0;0.00027709469;1001.2202;  4.0048584E-01;943.05554;3;9.0856514;0.0;0.3591699;0;-0.0026669102;  1.0000326E+04;  0.0000000E+00; -1.4480132E-06;  1.0000000E+04;  0.0000000E+00;  9.9997871E+03;-0.018048476;0.0;0.015381566;44.986374
  1.1600071E+00;  9.9999998E-03;  4.0000301E-02;2834;0.010018314;0.0;0.00056618248;1001.2166;  4.0048584E-01;940.2915;3;9.1684361;0.0;0.73765147;0;0.0013050269;  1.0000296E+04;  0.0000000E+00; -3.5921385E-05;  1.0000000E+04;  0.0000000E+00;  9.9997471E+03;-0.016462384;0.0;0.017767411;52.604767
  1.1600072E+00;  9.9999998E-03;  6.0000461E-02;2835;0.010162335;0.0;0.00086930871;1001.2103;  4.0048578E-01;935.40851;3;9.320178;0.0;1.1245856;0;0.0082194069;  1.0000244E+04;  0.0000000E+00; -2.6675250E-04;  1.0000000E+04;  0.0000000E+00;  9.9996729E+03;-0.013857341;0.0;0.022076748;66.828224
  1.1600074E+00;  9.9999998E-03;  8.0000654E-02;2836;0.010400556;0.0;0.0012117574;1001.2009;  4.0048584E-01;928.13007;3;9.5768805;0.0;1.5423671;0;0.018323511;  1.0000179E+04;  0.0000000E+00; -1.3010652E-03;  1.0000000E+04;  0.0000000E+00;  9.9995518E+03;-0.010414666;0.0;0.028738178;89.890839
  1.1600076E+00;  9.9999998E-03;  1.0000087E-01;2837;0.010752145;0.0;0.001595847;1001.1885;  4.0048578E-01;918.54816;3;9.9668703;0.0;1.9899237;0;0.031588055;  1.0000102E+04;  0.0000000E+00; -4.6427017E-03;  1.0000000E+04;  0.0000000E+00;  9.9993770E+03;-0.0065663783;0.0;0.038154434;124.68195
  1.1600080E+00;  9.9999998E-03;  1.2000121E-01;2838;0.011303759;0.0;0.0021217417;1001.173;  4.0048587E-01;906.57086;3;10.570077;0.0;2.548368;0;0.047188383;  1.0000031E+04;  0.0000000E+00; -1.3159180E-02;  1.0000000E+04;  0.0000000E+00;  9.9991396E+03;-0.0031476812;0.0;0.050336063;174.04924
  1.1600085E+00;  9.9999998E-03;  1.4000180E-01;2839;0.012160822;0.0;0.0029623797;1001.1562;  4.0048590E-01;893.5799;3;11.521505;0.0;3.3417342;0;0.063341834;  9.9999873E+03;  0.0000000E+00; -3.0117922E-02;  1.0000000E+04;  0.0000000E+00;  9.9988467E+03;-0.0013501581;0.0;0.064691991;240.54991
  1.1800065E+00;  9.9999998E-03; -5.3051530E-13;2858;0.0093118027;0.0;-5.6036226e-10;1001.0999;  4.0044382E-01;832.33514;3;8.6596451;0.0;3.4958139e-06;0;0.012674909;  1.0000033E+04;  0.0000000E+00; -1.4529741E-16;  1.0000000E+04;  0.0000000E+00;  9.9997695E+03;-0.0031195616;0.0;0.015794471;38.016922
  1.1800065E+00;  9.9999998E-03;  2.0000117E-02;2859;0.0093358625;0.0;0.00022861456;1001.0985;  4.0044382E-01;831.34265;3;8.6855211;0.0;0.30670038;0;0.014140501;  1.0000022E+04;  0.0000000E+00; -6.6199485E-05;  1.0000000E+04;  0.0000000E+00;  9.9997549E+03;-0.0025548816;0.0;0.016695382;40.536407
  1.1800066E+00;  9.9999998E-03;  4.0000245E-02;2860;0.0094253831;0.0;0.0004748785;1001.0945;  4.0044385E-01;828.27533;3;8.7733517;0.0;0.6300298;0;0.018517943;  9.9999922E+03;  0.0000000E+00; -4.9612182E-04;  1.0000000E+04;  0.0000000E+00;  9.9997070E+03;-0.00093080191;0.0;0.019448744;48.345787
  1.1800067E+00;  9.9999998E-03;  6.0000390E-02;2861;0.0095801977;0.0;0.00073450833;1001.0879;  4.0044385E-01;823.31329;3;8.934144;0.0;0.95408839;0;0.025729548;  9.9999443E+03;  0.0000000E+00; -2.0193334E-03;  1.0000000E+04;  0.0000000E+00;  9.9996221E+03;0.0015336878;0.0;0.024195861;62.252056
  1.1800069E+00;  9.9999998E-03;  8.0000579E-02;2862;0.0098528173;0.0;0.001049274;1001.0787;  4.0044388E-01;816.36652;3;9.2171049;0.0;1.3199819;0;0.035558477;  9.9998887E+03;  0.0000000E+00; -6.0804104E-03;  1.0000000E+04;  0.0000000E+00;  9.9994961E+03;0.0044304766;0.0;0.031128;83.86821
  1.1800072E+00;  9.9999998E-03;  1.0000086E-01;2863;0.010281743;0.0;0.0014754963;1001.0674;  4.0044382E-01;807.79572;3;9.6719055;0.0;1.7625655;0;0.047461987;  9.9998340E+03;  0.0000000E+00; -1.4829014E-02;  1.0000000E+04;  0.0000000E+00;  9.9993213E+03;0.0071086208;0.0;0.040353365;115.79143
  1.1800077E+00;  9.9999998E-03;  1.2000132E-01;2864;0.010967136;0.0;0.0021370577;1001.0545;  4.0044388E-01;798.05188;3;10.387142;0.0;2.3858006;0;0.060265303;  9.9997969E+03;  0.0000000E+00; -3.0592961E-02;  1.0000000E+04;  0.0000000E+00;  9.9990996E+03;0.0086237621;0.0;0.051641539;160.93993
  1.1800085E+00;  9.9999998E-03;  1.4000216E-01;2865;0.012046964;0.0;0.0032369124;1001.0413;  4.0044388E-01;788.03711;3;11.524077;0.0;3.313298;0;0.072417378;  9.9997959E+03;  0.0000000E+00; -5.3922575E-02;  1.0000000E+04;  0.0000000E+00;  9.9988389E+03;0.0079662018;0.0;0.06445118;220.68402
  1.2000061E+00;  9.9999998E-03;  3.1610280E-13;2882;0.0088142017;0.0;-3.512502e-10;1001.0005;  4.0041226E-01;737.66284;3;8.3200827;0.0;-4.2031752e-07;0;0.033533722;  9.9996797E+03;  0.0000000E+00;  1.1923573E-15;  1.0000000E+04;  0.0000000E+00;  9.9997148E+03;0.015193606;0.0;0.018340116;33.530758
  1.2000061E+00;  9.9999998E-03;  2.0000100E-02;2883;0.0088446382;0.0;0.00019306371;1000.9992;  4.0041235E-01;736.69604;3;8.3492994;0.0;0.25976354;0;0.034934781;  9.9996719E+03;  0.0000000E+00; -3.9327896E-04;  1.0000000E+04;  0.0000000E+00;  9.9996992E+03;0.015606591;0.0;0.01932819;35.961479
  1.2000062E+00;  9.9999998E-03;  4.0000223E-02;2884;0.0089506041;0.0;0.00041068217;1000.9955;  4.0041229E-01;733.97137;3;8.45082;0.0;0.53334492;0;0.039033733;  9.9996494E+03;  0.0000000E+00; -2.1074098E-03;  1.0000000E+04;  0.0000000E+00;  9.9996455E+03;0.016744127;0.0;0.022289608;43.432552
  1.2000064E+00;  9.9999998E-03;  6.0000394E-02;2885;0.0091596097;0.0;0.0006850934;1000.9897;  4.0041238E-01;729.66455;3;8.6581411;0.0;0.84519893;0;0.045423925;  9.9996211E+03;  0.0000000E+00; -6.5986193E-03;  1.0000000E+04;  0.0000000E+00;  9.9995566E+03;0.018263264;0.0;0.027160663;56.610981
  1.2000066E+00;  9.9999998E-03;  8.0000661E-02;2886;0.0095145609;0.0;0.0010760737;1000.9821;  4.0041232E-01;724.03931;3;9.0059099;0.0;1.2358398;0;0.053486042;  9.9995938E+03;  0.0000000E+00; -1.5758028E-02;  1.0000000E+04;  0.0000000E+00;  9.9994336E+03;0.019591069;0.0;0.033894975;77.373116
  1.2000071E+00;  9.9999998E-03;  1.0000110E-01;2887;0.010099341;0.0;0.0016682714;1000.9733;  4.0041235E-01;717.53497;3;9.5767336;0.0;1.7691898;0;0.062414471;  9.9995781E+03;  0.0000000E+00; -3.1096477E-02;  1.0000000E+04;  0.0000000E+00;  9.9992725E+03;0.020002224;0.0;0.042412248;108.27196
  1.2000079E+00;  9.9999998E-03;  1.2000183E-01;2888;0.011081806;0.0;0.0026337195;1000.9638;  4.0041232E-01;710.59088;3;10.517229;0.0;2.5903163;0;0.07142774;  9.9995879E+03;  0.0000000E+00; -5.2712429E-02;  1.0000000E+04;  0.0000000E+00;  9.9990742E+03;0.018878212;0.0;0.052549526;150.50755
  1.2000091E+00;  9.9999998E-03;  1.4000304E-01;2889;0.012726678;0.0;0.0041799676;1000.9532;  4.0041235E-01;702.76733;3;12.129228;0.0;3.8683875;0;0.080858678;  9.9996152E+03;  0.0000000E+00; -7.8618981E-02;  1.0000000E+04;  0.0000000E+00;  9.9988350E+03;0.016527677;0.0;0.064331003;202.61954
  1.2200060E+00;  9.9999998E-03; -8.9141619E-14;2905;0.0085661476;0.0;3.6033971e-11;1000.9215;  4.0038908E-01;658.16681;3;8.1335297;0.0;-1.5557307e-06;0;0.055156436;  9.9993340E+03;  0.0000000E+00;  1.2720734E-15;  1.0000000E+04;  0.0000000E+00;  9.9996426E+03;0.033102978;0.0;0.022053458;28.656773
  1.2200060E+00;  9.9999998E-03;  2.0000132E-02;2906;0.0086141899;0.0;0.00021117677;1000.9205;  4.0038902E-01;657.40045;3;8.1774988;0.0;0.24797241;0;0.056241229;  9.9993340E+03;  0.0000000E+00; -1.0271251E-03;  1.0000000E+04;  0.0000000E+00;  9.9996260E+03;0.033192649;0.0;0.02304858;30.856728
  1.2200061E+00;  9.9999998E-03;  4.0000316E-02;2907;0.0087730493;0.0;0.00048134144;1000.9177;  4.0038908E-01;655.44196;3;8.3183317;0.0;0.53264821;0;0.059314761;  9.9993311E+03;  0.0000000E+00; -4.8272097E-03;  1.0000000E+04;  0.0000000E+00;  9.9995732E+03;0.033340506;0.0;0.025974255;37.782742
  1.2200065E+00;  9.9999998E-03;  6.0000602E-02;2908;0.0090875691;0.0;0.00088023499;1000.9135;  4.0038908E-01;652.46167;3;8.590374;0.0;0.90834457;0;0.063782245;  9.9993301E+03;  0.0000000E+00; -1.3092969E-02;  1.0000000E+04;  0.0000000E+00;  9.9994873E+03;0.033166729;0.0;0.030615518;50.533623
  1.2200069E+00;  9.9999998E-03;  8.0001079E-02;2909;0.0096752048;0.0;0.0015134747;1000.9082;  4.0038905E-01;648.71466;3;9.1020584;0.0;1.4583043;0;0.069098637;  9.9993428E+03;  0.0000000E+00; -2.7365163E-02;  1.0000000E+04;  0.0000000E+00;  9.9993721E+03;0.032260217;0.0;0.036838416;71.140854
  1.2200078E+00;  9.9999998E-03;  1.0000180E-01;2910;0.010712328;0.0;0.0024790147;1000.9019;  4.0038905E-01;644.20111;3;10.013418;0.0;2.2965486;0;0.075248897;  9.9993633E+03;  0.0000000E+00; -4.7806010E-02;  1.0000000E+04;  0.0000000E+00;  9.9992217E+03;0.030589968;0.0;0.044658929;100.79729
  1.2200091E+00;  9.9999998E-03;  1.2000283E-01;2911;0.012391234;0.0;0.0038455601;1000.8934;  4.0038908E-01;638.15436;3;11.531655;0.0;3.5295131;0;0.08334294;  9.9993770E+03;  0.0000000E+00; -7.2743736E-02;  1.0000000E+04;  0.0000000E+00;  9.9990400E+03;0.029165236;0.0;0.054177705;138.16937
  1.2200110E+00;  9.9999998E-03;  1.4000417E-01;2912;0.014822629;0.0;0.0055291434;1000.8807;  4.0038908E-01;629.04199;3;13.898186;0.0;4.9873691;0;0.095623143;  9.9993447E+03;  0.0000000E+00; -9.8392367E-02;  1.0000000E+04;  0.0000000E+00;  9.9988184E+03;0.030364389;0.0;0.065258756;179.33488
  1.2400067E+00;  9.9999998E-03; -4.8747258E-13;2926;0.0091094123;0.0;-8.5072466e-10;1000.8616;  4.0037227E-01;592.7691;3;8.3119402;0.0;-4.22413e-07;0;0.073364466;  9.9990615E+03;  0.0000000E+00; -9.8661455E-16;  1.0000000E+04;  0.0000000E+00;  9.9995576E+03;0.046905078;0.0;0.02645939;23.496408
  1.2400068E+00;  9.9999998E-03;  2.0000268E-02;2927;0.0092138974;0.0;0.00037759435;1000.8608;  4.0037227E-01;592.19495;3;8.3941031;0.0;0.36630279;0;0.074111633;  9.9990645E+03;  0.0000000E+00; -1.6442013E-03;  1.0000000E+04;  0.0000000E+00;  9.9995430E+03;0.046698309;0.0;0.027413325;25.403772
  1.2400070E+00;  9.9999998E-03;  4.0000618E-02;2928;0.0095658479;0.0;0.00086315424;1000.8587;  4.0037224E-01;590.71838;3;8.6793232;0.0;0.82267118;0;0.076291546;  9.9990732E+03;  0.0000000E+00; -7.2972528E-03;  1.0000000E+04;  0.0000000E+00;  9.9994902E+03;0.046099212;0.0;0.030192338;31.617331
  1.2400076E+00;  9.9999998E-03;  6.0001124E-02;2929;0.010276393;0.0;0.0015533254;1000.8553;  4.0037218E-01;588.42145;3;9.2810001;0.0;1.4588255;0;0.079876527;  9.9990850E+03;  0.0000000E+00; -1.8520286E-02;  1.0000000E+04;  0.0000000E+00;  9.9994111E+03;0.045304414;0.0;0.034572117;43.415058
  1.2400086E+00;  9.9999998E-03;  8.0001824E-02;2930;0.011486313;0.0;0.0024862476;1000.85;  4.0037224E-01;584.81189;3;10.384007;0.0;2.3050921;0;0.085404694;  9.9990889E+03;  0.0000000E+00; -3.6415365E-02;  1.0000000E+04;  0.0000000E+00;  9.9993018E+03;0.044981282;0.0;0.040423416;62.211315
  1.2400099E+00;  9.9999998E-03;  1.0000273E-01;2931;0.013233908;0.0;0.003648143;1000.8419;  4.0037221E-01;579.15161;3;12.070415;0.0;3.3337045;0;0.093944788;  9.9990645E+03;  0.0000000E+00; -6.0052305E-02;  1.0000000E+04;  0.0000000E+00;  9.9991660E+03;0.046228483;0.0;0.047716301;87.749809
  1.2400116E+00;  9.9999998E-03;  1.2000387E-01;2932;0.015355175;0.0;0.0050639585;1000.8301;  4.0037227E-01;571.11279;3;14.217779;0.0;4.5617332;0;0.10622942;  9.9989980E+03;  0.0000000E+00; -8.4733374E-02;  1.0000000E+04;  0.0000000E+00;  9.9989932E+03;0.049711164;0.0;0.056518253;116.58031
  1.2400132E+00;  9.9999998E-03;  1.4000529E-01;2933;0.017524896;0.0;0.0067685586;1000.815;  4.0037227E-01;560.69568;3;16.561768;0.0;6.0367298;0;0.12128186;  9.9989092E+03;  0.0000000E+00; -9.8709188E-02;  1.0000000E+04;  0.0000000E+00;  9.9987813E+03;0.054228999;0.0;0.067052864;140.70642
  1.2600095E+00;  9.9999998E-03; -6.2031343E-13;2944;0.01251059;0.0;-3.2793207e-10;1000.8083;  4.0036038E-01;532.67883;3;11.090777;0.0;1.5253318e-06;0;0.09897925;  9.9986748E+03;  0.0000000E+00; -1.2701593E-15;  1.0000000E+04;  0.0000000E+00;  9.9994736E+03;0.067964047;0.0;0.031015201;13.716856
  1.2600096E+00;  9.9999998E-03;  2.0000404E-02;2945;0.012650337;0.0;0.00054919207;1000.8074;  4.0036035E-01;532.12872;3;11.227737;0.0;0.51706362;0;0.099803589;  9.9986758E+03;  0.0000000E+00; -1.8634312E-03;  1.0000000E+04;  0.0000000E+00;  9.9994580E+03;0.067896001;0.0;0.031907588;15.230672
  1.2600100E+00;  9.9999998E-03;  4.0000916E-02;2946;0.013090908;0.0;0.0012336711;1000.8052;  4.0036044E-01;530.71411;3;11.663108;0.0;1.1480803;0;0.10234411;  9.9986758E+03;  0.0000000E+00; -8.1747603E-03;  1.0000000E+04;  0.0000000E+00;  9.9994111E+03;0.067840174;0.0;0.03450394;20.34865
  1.2600106E+00;  9.9999998E-03;  6.0001627E-02;2947;0.013873896;0.0;0.0021601478;1000.801;  4.0036038E-01;527.88501;3;12.44762;0.0;1.9830527;0;0.10687062;  9.9986699E+03;  0.0000000E+00; -2.0458147E-02;  1.0000000E+04;  0.0000000E+00;  9.9993340E+03;0.068228759;0.0;0.038641866;30.340172
  1.2600116E+00;  9.9999998E-03;  8.0002561E-02;2948;0.015012995;0.0;0.0033529873;1000.7944;  4.0036035E-01;523.56281;3;13.616974;0.0;3.0451753;0;0.11398936;  9.9986455E+03;  0.0000000E+00; -3.9022595E-02;  1.0000000E+04;  0.0000000E+00;  9.9992285E+03;0.069660015;0.0;0.044329345;45.966064
  1.2600126E+00;  9.9999998E-03;  1.0000368E-01;2949;0.016385229;0.0;0.0047425223;1000.7853;  4.0036041E-01;517.59052;3;15.091344;0.0;4.283977;0;0.1234113;  9.9986016E+03;  0.0000000E+00; -5.8908645E-02;  1.0000000E+04;  0.0000000E+00;  9.9990908E+03;0.071786582;0.0;0.051624715;64.756927
  1.2600137E+00;  9.9999998E-03;  1.2000496E-01;2950;0.017730834;0.0;0.006282425;1000.7756;  4.0036041E-01;511.14685;3;16.673735;0.0;5.6788549;0;0.13282309;  9.9985801E+03;  0.0000000E+00; -6.6532649E-02;  1.0000000E+04;  0.0000000E+00;  9.9989150E+03;0.072327621;0.0;0.060495477;79.654671
  1.2600145E+00;  9.9999998E-03;  1.4000636E-01;2951;0.018798223;0.0;0.007933462;1000.7678;  4.0036038E-01;505.96054;3;18.143154;0.0;7.2340603;0;0.13907322;  9.9986348E+03;  0.0000000E+00; -4.0688355E-02;  1.0000000E+04;  0.0000000E+00;  9.9987041E+03;0.06818489;0.0;0.07088834;86.244522
  1.2800127E+00;  9.9999998E-03;  4.3285593E-13;2959;0.016244875;0.0;8.6468249e-10;1000.755;  4.0035215E-01;474.58197;3;14.53986;0.0;8.3935447e-07;0;0.13474648;  9.9981045E+03;  0.0000000E+00; -2.3752585E-15;  1.0000000E+04;  0.0000000E+00;  9.9993936E+03;0.099461854;0.0;0.03528462;2.3214328
  1.2800127E+00;  9.9999998E-03;  2.0000542E-02;2960;0.016313227;0.0;0.0007093944;1000.7549;  4.0035212E-01;474.50693;3;14.626952;0.0;0.66167611;0;0.13491023;  9.9981143E+03;  0.0000000E+00; -1.3131420E-03;  1.0000000E+04;  0.0000000E+00;  9.9993789E+03;0.098786905;0.0;0.036123328;1.2169209
  1.2800130E+00;  9.9999998E-03;  4.0001228E-02;2961;0.016517878;0.0;0.0015989823;1000.7543;  4.0035212E-01;474.13205;3;14.894476;0.0;1.4818811;0;0.13535848;  9.9981523E+03;  0.0000000E+00; -5.7014017E-03;  1.0000000E+04;  0.0000000E+00;  9.9993330E+03;0.096732058;0.0;0.038626418;4.8059688
  1.2800132E+00;  9.9999998E-03;  6.0002178E-02;2962;0.016858384;0.0;0.0028014074;1000.7532;  4.0035209E-01;473.45731;3;15.356798;0.0;2.5801911;0;0.1362285;  9.9982080E+03;  0.0000000E+00; -1.3548409E-02;  1.0000000E+04;  0.0000000E+00;  9.9992529E+03;0.09331774;0.0;0.042910758;13.362843
  1.2800136E+00;  9.9999998E-03;  8.0003388E-02;2963;0.017308813;0.0;0.0043052244;1000.7513;  4.0035209E-01;472.25787;3;16.012545;0.0;3.9569173;0;0.13774386;  9.9982900E+03;  0.0000000E+00; -2.1442180E-02;  1.0000000E+04;  0.0000000E+00;  9.9991328E+03;0.088352636;0.0;0.049391229;25.016071
  1.2800140E+00;  9.9999998E-03;  1.0000470E-01;2964;0.017758846;0.0;0.0058894381;1000.7495;  4.0035218E-01;471.13333;3;16.782793;0.0;5.4357462;0;0.13857722;  9.9984150E+03;  0.0000000E+00; -1.6819481E-02;  1.0000000E+04;  0.0000000E+00;  9.9989697E+03;0.080705985;0.0;0.057871241;37.693233
  1.2800142E+00;  9.9999998E-03;  1.2000602E-01;2965;0.018016078;0.0;0.0074448655;1000.7505;  4.0035221E-01;471.8075;3;17.506805;0.0;6.9165959;0;0.13552654;  9.9986318E+03;  0.0000000E+00;  1.6462615E-02;  1.0000000E+04;  0.0000000E+00;  9.9987734E+03;0.067793131;0.0;0.067733407;56.884907
  1.3000139E+00;  9.9999998E-03;  9.5850248E-14;2970;0.01738422;0.0;1.6311177e-10;1000.7382;  4.0034655E-01;441.37177;3;16.105886;0.0;2.4100154e-07;0;0.13604864;  9.9981143E+03;  0.0000000E+00; -1.4602481E-15;  1.0000000E+04;  0.0000000E+00;  9.9993242E+03;0.097044319;0.0;0.039004322;5.6106043
  1.3000139E+00;  9.9999998E-03;  2.0000681E-02;2971;0.017373046;0.0;0.00086787052;1000.7391;  4.0034652E-01;441.94202;3;16.132324;0.0;0.82900321;0;0.13500585;  9.9981475E+03;  0.0000000E+00;  2.9951494E-04;  1.0000000E+04;  0.0000000E+00;  9.9993105E+03;0.095176131;0.0;0.039829712;3.831449
  1.3000139E+00;  9.9999998E-03;  4.0001556E-02;2972;0.017330037;0.0;0.0019676562;1000.7416;  4.0034655E-01;443.43893;3;16.208986;0.0;1.8738495;0;0.13194792;  9.9982490E+03;  0.0000000E+00;  2.1912998E-03;  1.0000000E+04;  0.0000000E+00;  9.9992598E+03;0.089458585;0.0;0.042489335;2.0596716
  1.3000138E+00;  9.9999998E-03;  6.0002755E-02;2973;0.017234189;0.0;0.0034584093;1000.7454;  4.0034652E-01;445.72;3;16.326237;0.0;3.2870097;0;0.12754259;  9.9984229E+03;  0.0000000E+00;  9.8706605E-03;  1.0000000E+04;  0.0000000E+00;  9.9991621E+03;0.079773366;0.0;0.047769226;13.046027
  1.3000137E+00;  9.9999998E-03;  8.0004260E-02;2974;0.017064875;0.0;0.0052841874;1000.7487;  4.0034652E-01;447.64474;3;16.472334;0.0;5.0259471;0;0.12329881;  9.9986582E+03;  0.0000000E+00;  3.2738540E-02;  1.0000000E+04;  0.0000000E+00;  9.9989883E+03;0.06638217;0.0;0.056916643;32.760956
 -1.7976577E-09;  9.9999998E-03;  1.6000000E-01;1053;-6.0209227e-06;0.0;6.1147745e-07;1000.0001;  4.0000001E-01;0.098762624;3;-0.013522475;0.0;0.0014062463;0;-0.00012193239;  1.0000001E+04;  0.0000000E+00;  2.1960884E-12;  1.0000000E+04;  0.0000000E+00;  1.0000000E+04;-0.00012579039;0.0;3.8580019e-06;0.012085875
 -1.7210191E-09;  9.9999998E-03;  1.8000001E-01;1054;-5.7737816e-06;0.0;7.2445164e-07;1000.0001;  4.0000001E-01;0.098762624;3;-0.01298706;0.0;0.0016621207;0;-0.0001167075;  1.0000001E+04;  0.0000000E+00; -2.9137159E-12;  1.0000000E+04;  0.0000000E+00;  1.0000000E+04;-0.00012057496;0.0;3.8674593e-06;0.012019604
 -1.6247848E-09;  9.9999998E-03;  2.0000000E-01;1055;-5.460191e-06;0.0;8.4449039e-07;1000.0;  4.0000001E-01;0.0;3;-0.01230469;0.0;0.0019367917;0;-0.00011034824;  1.0000001E+04;  0.0000000E+00; -1.2600090E-12;  1.0000000E+04;  0.0000000E+00;  1.0000000E+04;-0.0001137912;0.0;3.442965e-06;0.010887963
 -1.5051894E-09;  9.9999998E-03;  2.2000000E-01;1056;-5.0666272e-06;0.0;9.656743e-07;1000.0;  4.0000001E-01;0.0;3;-0.01144788;0.0;0.0022183121;0;-0.00010265321;  1.0000001E+04;  0.0000000E+00;  3.0039968E-13;  1.0000000E+04;  0.0000000E+00;  1.0000000E+04;-0.00010495105;0.0;2.2978311e-06;0.00799172
 -1.3593046E-09;  9.9999998E-03;  2.3999999E-01;1057;-4.582816e-06;0.0;1.0730475e-06;1000.0;  4.0000001E-01;0.0;3;-0.010396502;0.0;0.0024727546;0;-9.3308736e-05;  1.0000001E+04;  0.0000000E+00;  9.7968068E-15;  1.0000000E+04;  0.0000000E+00;  1.0000000E+04;-9.3593866e-05;0.0;2.8512829e-07;0.0029445987
 -1.1822029E-09;  9.9999998E-03;  2.5999999E-01;1058;-3.9914235e-06;0.0;1.1609983e-06;1000.0;  4.0000001E-01;0.0;3;-0.0091088861;0.0;0.0026877958;0;-8.1977931e-05;  1.0000000E+04;  0.0000000E+00; -4.9213997E-13;  1.0000000E+04;  0.0000000E+00;  1.0000000E+04;-7.9566715e-05;0.0;-2.4112192e-06;0.0038400509
 -9.7374353E-10;  9.9999998E-03;  2.8000000E-01;1059;-3.2944918e-06;0.0;1.2054467e-06;1000.0;  4.0000001E-01;0.0;3;-0.007584597;0.0;0.0028034854;0;-6.8557951e-05;  1.0000000E+04;  0.0000000E+00; -2.7463535E-12;  1.0000000E+04;  0.0000000E+00;  1.0000000E+04;-6.3385931e-05;0.0;-5.1720167e-06;0.010879132
  1.9999998E-02;  9.9999998E-03;  1.6000000E-01;1083;-9.2897553e-06;0.0;9.1986954e-07;1000.0001;  4.0000001E-01;0.098762624;3;-0.020240944;0.0;0.0020517292;0;-0.00016876805;  1.0000001E+04;  0.0000000E+00; -3.4403706E-12;  1.0000000E+04;  0.0000000E+00;  1.0000000E+04;-0.00017475279;0.0;5.9847298e-06;0.018933557
  1.9999998E-02;  9.9999998E-03;  1.8000001E-01;1084;-8.9261412e-06;0.0;1.0895765e-06;1000.0001;  4.0000001E-01;0.098762624;3;-0.019483786;0.0;0.0024261731;0;-0.00016188135;  1.0000001E+04;  0.0000000E+00; -5.2451767E-12;  1.0000000E+04;  0.0000000E+00;  1.0000000E+04;-0.00016790864;0.0;6.0272882e-06;0.018942159
  1.9999998E-02;  9.9999998E-03;  2.0000000E-01;1085;-8.4587982e-06;0.0;1.2678496e-06;1000.0001;  4.0000001E-01;0.098762624;3;-0.018503156;0.0;0.0028217586;0;-0.0001534945;  1.0000001E+04;  0.0000000E+00; -2.2654381E-12;  1.0000000E+04;  0.0000000E+00;  1.0000000E+04;-0.00015890921;0.0;5.414714e-06;0.017291825
  1.9999998E-02;  9.9999998E-03;  2.2000000E-01;1086;-7.8617295e-06;0.0;1.4474892e-06;1000.0001;  4.0000001E-01;0.098762624;3;-0.017247535;0.0;0.0032269824;0;-0.00014333299;  1.0000001E+04;  0.0000000E+00; -2.8926657E-12;  1.0000000E+04;  0.0000000E+00;  1.0000000E+04;-0.00014703727;0.0;3.7042755e-06;0.012856914
  1.9999998E-02;  9.9999998E-03;  2.3999999E-01;1087;-7.1154623e-06;0.0;1.5958897e-06;1000.0001;  4.0000001E-01;0.098762624;3;-0.015681688;0.0;0.0035665096;0;-0.00013094023;  1.0000001E+04;  0.0000000E+00;  1.8859846E-13;  1.0000000E+04;  0.0000000E+00;  1.0000000E+04;-0.00013159834;0.0;6.581115e-07;0.0049894927
  1.9999998E-02;  9.9999998E-03;  2.5999999E-01;1088;-6.1827554e-06;0.0;1.7056459e-06;1000.0001;  4.0000001E-01;0.098762624;3;-0.013718198;0.0;0.0038278433;0;-0.00011579686;  1.0000001E+04;  0.0000000E+00;  3.8889885E-12;  1.0000000E+04;  0.0000000E+00;  1.0000000E+04;-0.00011232615;0.0;-3.4707095e-06;0.0057231672
  1.9999998E-02;  9.9999998E-03;  2.8000000E-01;1089;-5.0452895e-06;0.0;1.7486562e-06;1000.0;  4.0000001E-01;0.0;3;-0.011301756;0.0;0.0039413143;0;-9.7682918e-05;  1.0000000E+04;  0.0000000E+00;  2.4543863E-12;  1.0000000E+04;  0.0000000E+00;  1.0000000E+04;-8.9904839e-05;0.0;-7.7780778e-06;0.017029725
  2.0000000E-02;  9.9999998E-03;  3.0000001E-01;1090;-3.7249245e-06;0.0;1.7889688e-06;1000.0;  4.0000001E-01;0.0;3;-0.0084373262;0.0;0.0040858313;0;-7.7219665e-05;  1.0000000E+04;  0.0000000E+00; -3.6459672E-12;  1.0000000E+04;  0.0000000E+00;  1.0000000E+04;-6.628695e-05;0.0;-1.0932714e-05;0.02561366
  3.9999995E-02;  9.9999998E-03;  1.6000000E-01;1114;-1.3970728e-05;0.0;1.2898892e-06;1000.0001;  4.0000001E-01;0.098762624;3;-0.029569782;0.0;0.0027735247;0;-0.00022993384;  1.0000002E+04;  0.0000000E+00; -3.7187506E-12;  1.0000000E+04;  0.0000000E+00;  1.0000000E+04;-0.0002387464;0.0;8.8125635e-06;0.028533749
  3.9999995E-02;  9.9999998E-03;  1.8000001E-01;1115;-1.3451046e-05;0.0;1.5284453e-06;1000.0001;  4.0000001E-01;0.098762624;3;-0.02852793;0.0;0.0032847582;0;-0.00022107438;  1.0000002E+04;  0.0000000E+00; -1.8599816E-12;  1.0000000E+04;  0.0000000E+00;  1.0000000E+04;-0.0002299949;0.0;8.9205123e-06;0.028723612
  3.9999995E-02;  9.9999998E-03;  2.0000000E-01;1116;-1.277559e-05;0.0;1.7785574e-06;1000.0001;  4.0000001E-01;0.098762624;3;-0.027158171;0.0;0.0038221353;0;-0.00021024249;  1.0000002E+04;  0.0000000E+00;  1.8767125E-12;  1.0000000E+04;  0.0000000E+00;  1.0000000E+04;-0.00021833046;0.0;8.0879618e-06;0.026439199
  3.9999995E-02;  9.9999998E-03;  2.2000000E-01;1117;-1.1901216e-05;0.0;2.0285456e-06;1000.0001;  4.0000001E-01;0.098762624;3;-0.025379691;0.0;0.0043654339;0;-0.00019705023;  1.0000002E+04;  0.0000000E+00;  2.4127002E-12;  1.0000000E+04;  0.0000000E+00;  1.0000000E+04;-0.00020270713;0.0;5.6568997e-06;0.019929055
  3.9999995E-02;  9.9999998E-03;  2.3999999E-01;1118;-1.0792547e-05;0.0;2.2351696e-06;1000.0001;  4.0000001E-01;0.098762624;3;-0.023130819;0.0;0.0048201811;0;-0.00018081858;  1.0000001E+04;  0.0000000E+00;  5.3017738E-12;  1.0000000E+04;  0.0000000E+00;  1.0000000E+04;-0.00018207513;0.0;1.2565606e-06;0.0081435023
  3.9999995E-02;  9.9999998E-03;  2.5999999E-01;1119;-9.3916697e-06;0.0;2.3946261e-06;1000.0001;  4.0000001E-01;0.098762624;3;-0.020281568;0.0;0.0051868367;0;-0.00016073791;  1.0000001E+04;  0.0000000E+00;  5.2317664E-12;  1.0000000E+04;  0.0000000E+00;  1.0000000E+04;-0.00015595862;0.0;-4.7792846e-06;0.0081129894
  3.9999999E-02;  9.9999998E-03;  2.8000000E-01;1120;-7.6859487e-06;0.0;2.4714482e-06;1000.0001;  4.0000001E-01;0.098762624;3;-0.016782392;0.0;0.0053836573;0;-0.00013638733;  1.0000001E+04;  0.0000000E+00;  8.8086461E-13;  1.0000000E+04;  0.0000000E+00;  1.0000000E+04;-0.00012521351;0.0;-1.1173816e-05;0.025516132
  3.9999999E-02;  9.9999998E-03;  3.0000001E-01;1121;-5.6977547e-06;0.0;2.4691701e-06;1000.0;  4.0000001E-01;0.0;3;-0.012608683;0.0;0.0054492685;0;-0.00010858348;  1.0000001E+04;  0.0000000E+00; -2.9910117E-12;  1.0000000E+04;  0.0000000E+00;  1.0000000E+04;-9.2551185e-05;0.0;-1.6032292e-05;0.039120596
  5.9999995E-02;  9.9999998E-03;  1.6000000E-01;1145;-2.0382082e-05;0.0;1.76216e-06;1000.0001;  4.0000001E-01;0.098762624;3;-0.041944444;0.0;0.0036470729;0;-0.00031290605;  1.0000003E+04;  0.0000000E+00; -1.2335833E-12;  1.0000000E+04;  0.0000000E+00;  1.0000000E+04;-0.00032548429;0.0;1.2578252e-05;0.042068586
  5.9999995E-02;  9.9999998E-03;  1.8000001E-01;1146;-1.9666299e-05;0.0;2.0912164e-06;1000.0001;  4.0000001E-01;0.098762624;3;-0.040561438;0.0;0.0043328889;0;-0.00030159624;  1.0000003E+04;  0.0000000E+00; -1.7675160E-12;  1.0000000E+04;  0.0000000E+00;  1.0000000E+04;-0.00031439846;0.0;1.280222e-05;0.042615775
  5.9999995E-02;  9.9999998E-03;  2.0000000E-01;1147;-1.8726165e-05;0.0;2.4375886e-06;1000.0001;  4.0000001E-01;0.098762624;3;-0.038718753;0.0;0.0050535901;0;-0.00028767917;  1.0000003E+04;  0.0000000E+00;  1.2397834E-13;  1.0000000E+04;  0.0000000E+00;  1.0000000E+04;-0.00029939425;0.0;1.1715075e-05;0.039561
  5.9999995E-02;  9.9999998E-03;  2.2000000E-01;1148;-1.7494449e-05;0.0;2.7853982e-06;1000.0001;  4.0000001E-01;0.098762624;3;-0.036296003;0.0;0.0057823434;0;-0.00027059123;  1.0000003E+04;  0.0000000E+00;  5.1387375E-12;  1.0000000E+04;  0.0000000E+00;  1.0000000E+04;-0.00027895221;0.0;8.360983e-06;0.030236769
  5.9999995E-02;  9.9999998E-03;  2.3999999E-01;1149;-1.5914338e-05;0.0;3.0757467e-06;1000.0001;  4.0000001E-01;0.098762624;3;-0.033198554;0.0;0.0063969865;0;-0.0002493168;  1.0000002E+04;  0.0000000E+00;  3.3207475E-12;  1.0000000E+04;  0.0000000E+00;  1.0000000E+04;-0.00025149179;0.0;2.1749952e-06;0.012979576
  5.9999995E-02;  9.9999998E-03;  2.5999999E-01;1150;-1.3896683e-05;0.0;3.3071005e-06;1000.0001;  4.0000001E-01;0.098762624;3;-0.029234551;0.0;0.0069105667;0;-0.00022260944;  1.0000002E+04;  0.0000000E+00;  1.1512716E-12;  1.0000000E+04;  0.0000000E+00;  1.0000000E+04;-0.00021619344;0.0;-6.4160049e-06;0.011137217
  5.9999995E-02;  9.9999998E-03;  2.8000000E-01;1151;-1.1422685e-05;0.0;3.4137381e-06;1000.0001;  4.0000001E-01;0.098762624;3;-0.024331164;0.0;0.0071757385;0;-0.00018975267;  1.0000001E+04;  0.0000000E+00; -2.1719613E-09;  1.0000000E+04;  0.0000000E+00;  1.0000000E+04;-0.00017412074;0.0;-1.5631935e-05;0.037256204
  5.9999999E-02;  9.9999998E-03;  3.0000001E-01;1152;-8.4931116e-06;0.0;3.4042812e-06;1000.0001;  4.0000001E-01;0.098762624;3;-0.018364506;0.0;0.0072625279;0;-0.00015180648;  1.0000001E+04;  0.0000000E+00; -8.1075280E-09;  1.0000000E+04;  0.0000000E+00;  1.0000000E+04;-0.00012903713;0.0;-2.2769354e-05;0.057991486
  7.9999991E-02;  9.9999998E-03;  1.6000000E-01;1176;-2.9067303e-05;0.0;2.3796647e-06;1000.0002;  4.0000001E-01;0.19752525;3;-0.058211148;0.0;0.004745122;0;-0.00042683366;  1.0000004E+04;  0.0000000E+00; -2.8410583E-12;  1.0000000E+04;  0.0000000E+00;  1.0000000E+04;-0.00044449756;0.0;1.7663895e-05;0.061312914
  7.9999991E-02;  9.9999998E-03;  1.8000001E-01;1177;-2.8111426e-05;0.0;2.8284305e-06;1000.0002;  4.0000001E-01;0.19752525;3;-0.056432761;0.0;0.0056535648;0;-0.00041244589;  1.0000003E+04;  0.0000000E+00; -5.4055462E-12;  1.0000000E+04;  0.0000000E+00;  1.0000000E+04;-0.00043052851;0.0;1.8082617e-05;0.06250567
  7.9999991E-02;  9.9999998E-03;  2.0000000E-01;1178;-2.684265e-05;0.0;3.303513e-06;1000.0002;  4.0000001E-01;0.19752525;3;-0.054032419;0.0;0.0066102929;0;-0.00039460487;  1.0000003E+04;  0.0000000E+00; -1.7535699E-12;  1.0000000E+04;  0.0000000E+00;  1.0000000E+04;-0.00041130488;0.0;1.6700014e-05;0.058521833
  7.9999991E-02;  9.9999998E-03;  2.2000000E-01;1179;-2.5160069e-05;0.0;3.7826571e-06;1000.0002;  4.0000001E-01;0.19752525;3;-0.0508352;0.0;0.0075777872;0;-0.00037248083;  1.0000003E+04;  0.0000000E+00;  4.3071861E-12;  1.0000000E+04;  0.0000000E+00;  1.0000000E+04;-0.00038463049;0.0;1.2149653e-05;0.045362361
  7.9999991E-02;  9.9999998E-03;  2.3999999E-01;1180;-2.297454e-05;0.0;4.1853327e-06;1000.0001;  4.0000001E-01;0.098762624;3;-0.046696965;0.0;0.0083968276;0;-0.00034457416;  1.0000003E+04;  0.0000000E+00; -2.4636320E-08;  1.0000000E+04;  0.0000000E+00;  1.0000000E+04;-0.00034816237;0.0;3.5882231e-06;0.020441331
  7.9999991E-02;  9.9999998E-03;  2.5999999E-01;1181;-2.0146063e-05;0.0;4.5172542e-06;1000.0001;  4.0000001E-01;0.098762624;3;-0.041327026;0.0;0.0091081299;0;-0.00030911833;  1.0000003E+04;  0.0000000E+00; -2.1332849E-07;  1.0000000E+04;  0.0000000E+00;  1.0000000E+04;-0.00030066486;0.0;-8.4534822e-06;0.0148701
  7.9999998E-02;  9.9999998E-03;  2.8000000E-01;1182;-1.6631793e-05;0.0;4.6856385e-06;1000.0001;  4.0000001E-01;0.098762624;3;-0.034584139;0.0;0.0095152976;0;-0.00026496404;  1.0000002E+04;  0.0000000E+00; -5.8624926E-07;  1.0000000E+04;  0.0000000E+00;  1.0000000E+04;-0.00024344455;0.0;-2.1519496e-05;0.053528633
  7.9999998E-02;  9.9999998E-03;  3.0000001E-01;1183;-1.2409297e-05;0.0;4.7074177e-06;1000.0001;  4.0000001E-01;0.098762624;3;-0.026227605;0.0;0.0097254766;0;-0.00021329132;  1.0000001E+04;  0.0000000E+00; -1.0130555E-06;  1.0000000E+04;  0.0000000E+00;  1.0000000E+04;-0.00018151395;0.0;-3.1777367e-05;0.084591039
  9.9999987E-02;  9.9999998E-03;  1.6000000E-01;1207;-4.0810624e-05;0.0;3.1933382e-06;1000.0003;  4.0000001E-01;0.29628786;3;-0.079577498;0.0;0.0061449669;0;-0.00058271224;  1.0000006E+04;  0.0000000E+00; -1.1341065E-11;  1.0000000E+04;  0.0000000E+00;  1.0000000E+04;-0.00060735189;0.0;2.4639679e-05;0.088843063
  9.9999987E-02;  9.9999998E-03;  1.8000001E-01;1208;-3.9563496e-05;0.0;3.8000537e-06;1000.0002;  4.0000001E-01;0.19752525;3;-0.077348091;0.0;0.0073341583;0;-0.00056449999;  1.0000006E+04;  0.0000000E+00; -5.8695917E-12;  1.0000000E+04;  0.0000000E+00;  1.0000000E+04;-0.00058989011;0.0;2.53901e-05;0.091195554
  9.9999987E-02;  9.9999998E-03;  2.0000000E-01;1209;-3.789008e-05;0.0;4.4446506e-06;1000.0002;  4.0000001E-01;0.19752525;3;-0.074300274;0.0;0.0085877925;0;-0.00054173102;  1.0000006E+04;  0.0000000E+00; -8.1659948E-12;  1.0000000E+04;  0.0000000E+00;  1.0000000E+04;-0.00056542287;0.0;2.3691831e-05;0.086197868
  9.9999987E-02;  9.9999998E-03;  2.2000000E-01;1210;-3.5643825e-05;0.0;5.0957956e-06;1000.0002;  4.0000001E-01;0.19752525;3;-0.070185453;0.0;0.0098546026;0;-0.00051328441;  1.0000005E+04;  0.0000000E+00; -1.2415663E-07;  1.0000000E+04;  0.0000000E+00;  1.0000000E+04;-0.00053090416;0.0;1.7619728e-05;0.06794472
  9.9999987E-02;  9.9999998E-03;  2.3999999E-01;1211;-3.268553e-05;0.0;5.6502172e-06;1000.0002;  4.0000001E-01;0.19752525;3;-0.064780571;0.0;0.010938986;0;-0.00047740067;  1.0000005E+04;  0.0000000E+00; -1.0050288E-06;  1.0000000E+04;  0.0000000E+00;  1.0000000E+04;-0.00048331567;0.0;5.9149897e-06;0.032621093
  9.9999994E-02;  9.9999998E-03;  2.5999999E-01;1212;-2.8799477e-05;0.0;6.127319e-06;1000.0002;  4.0000001E-01;0.19752525;3;-0.057652589;0.0;0.011926098;0;-0.00043173661;  1.0000004E+04;  0.0000000E+00; -3.3827082E-06;  1.0000000E+04;  0.0000000E+00;  1.0000000E+04;-0.00042091031;0.0;-1.0826308e-05;0.022447225
  9.9999994E-02;  9.9999998E-03;  2.8000000E-01;1213;-2.3897566e-05;0.0;6.4074429e-06;1000.0002;  4.0000001E-01;0.19752525;3;-0.048542667;0.0;0.012579847;0;-0.00037411443;  1.0000003E+04;  0.0000000E+00; -6.9546454E-06;  1.0000000E+04;  0.0000000E+00;  1.0000000E+04;-0.0003448551;0.0;-2.9259332e-05;0.079701893
  9.9999994E-02;  9.9999998E-03;  3.0000001E-01;1214;-1.7914084e-05;0.0;6.5241156e-06;1000.0001;  4.0000001E-01;0.098762624;3;-0.037021317;0.0;0.013087085;0;-0.00030505011;  1.0000002E+04;  0.0000000E+00; -1.0595363E-05;  1.0000000E+04;  0.0000000E+00;  1.0000000E+04;-0.00026110455;0.0;-4.3945558e-05;0.12773889
  1.1999998E-01;  9.9999998E-03;  1.6000000E-01;1238;-5.6701985e-05;0.0;4.2689971e-06;1000.0004;  4.0000001E-01;0.29628786;3;-0.10766969;0.0;0.0079414127;0;-0.00079389202;  1.0000007E+04;  0.0000000E+00;  4.0651085E-12;  1.0000000E+04;  0.0000000E+00;  1.0000000E+04;-0.0008282332;0.0;3.4341185e-05;0.12839584
  1.1999998E-01;  9.9999998E-03;  1.8000001E-01;1239;-5.5102682e-05;0.0;5.0863432e-06;1000.0004;  4.0000001E-01;0.29628786;3;-0.10493147;0.0;0.0094869127;0;-0.00077098462;  1.0000007E+04;  0.0000000E+00; -1.4101521E-11;  1.0000000E+04;  0.0000000E+00;  1.0000000E+04;-0.00080670085;0.0;3.5716203e-05;0.13297911
  1.1999998E-01;  9.9999998E-03;  2.0000000E-01;1240;-5.292887e-05;0.0;5.9556432e-06;1000.0004;  4.0000001E-01;0.29628786;3;-0.10112936;0.0;0.011115536;0;-0.00074221217;  1.0000007E+04;  0.0000000E+00; -1.3661872E-07;  1.0000000E+04;  0.0000000E+00;  1.0000000E+04;-0.00077605166;0.0;3.3839508e-05;0.12739789
  1.1999998E-01;  9.9999998E-03;  2.2000000E-01;1241;-4.9975191e-05;0.0;6.8357422e-06;1000.0004;  4.0000001E-01;0.29628786;3;-0.095924109;0.0;0.012762626;0;-0.00070674758;  1.0000007E+04;  0.0000000E+00; -1.6767377E-06;  1.0000000E+04;  0.0000000E+00;  1.0000000E+04;-0.00073275669;0.0;2.6009115e-05;0.10316582
  1.1999998E-01;  9.9999998E-03;  2.4000001E-01;1242;-4.6032157e-05;0.0;7.6023507e-06;1000.0003;  4.0000001E-01;0.29628786;3;-0.088982254;0.0;0.014206594;0;-0.00066314515;  1.0000007E+04;  0.0000000E+00; -7.5196303E-06;  1.0000000E+04;  0.0000000E+00;  1.0000000E+04;-0.00067338068;0.0;1.0235515e-05;0.060036611
  1.1999998E-01;  9.9999998E-03;  2.5999999E-01;1243;-4.078307e-05;0.0;8.2882943e-06;1000.0003;  4.0000001E-01;0.29628786;3;-0.079691261;0.0;0.015578961;0;-0.00060831942;  1.0000006E+04;  0.0000000E+00; -2.0013322E-05;  1.0000000E+04;  0.0000000E+00;  1.0000000E+04;-0.00059532415;0.0;-1.2995271e-05;0.076766722
  1.1999999E-01;  9.9999998E-03;  2.8000000E-01;1244;-3.4052358e-05;0.0;8.7666085e-06;1000.0002;  4.0000001E-01;0.19752525;3;-0.067586116;0.0;0.016654927;0;-0.00053779519;  1.0000005E+04;  0.0000000E+00; -3.7674883E-05;  1.0000000E+04;  0.0000000E+00;  1.0000000E+04;-0.00049863406;0.0;-3.9161125e-05;0.17359784
  1.1999999E-01;  9.9999998E-03;  3.0000001E-01;1245;-2.5713078e-05;0.0;9.0513613e-06;1000.0002;  4.0000001E-01;0.19752525;3;-0.051985338;0.0;0.017636145;0;-0.00044870598;  1.0000003E+04;  0.0000000E+00; -5.2970718E-05;  1.0000000E+04;  0.0000000E+00;  1.0000000E+04;-0.00038824836;0.0;-6.0457623e-05;0.26083764
  1.3999997E-01;  9.9999998E-03;  1.6000000E-01;1269;-7.8186225e-05;0.0;5.6931717e-06;1000.0005;  4.0000001E-01;0.49381313;3;-0.14451186;0.0;0.0102535;0;-0.0010768983;  1.0000012E+04;  0.0000000E+00;  6.1866753E-12;  1.0000000E+04;  0.0000000E+00;  1.0000000E+04;-0.0011249187;0.0;4.8020363e-05;0.18550514
  1.3999997E-01;  9.9999998E-03;  1.8000001E-01;1270;-7.6164135e-05;0.0;6.8021741e-06;1000.0005;  4.0000001E-01;0.3950505;3;-0.14121377;0.0;0.012272787;0;-0.0010482398;  1.0000012E+04;  0.0000000E+00; -3.3464641E-08;  1.0000000E+04;  0.0000000E+00;  1.0000000E+04;-0.0010989462;0.0;5.0706411e-05;0.19473752
  1.3999997E-01;  9.9999998E-03;  2.0000000E-01;1271;-7.3373143e-05;0.0;7.9872834e-06;1000.0004;  4.0000001E-01;0.3950505;3;-0.13654388;0.0;0.014411607;0;-0.0010126489;  1.0000011E+04;  0.0000000E+00; -1.2415888E-06;  1.0000000E+04;  0.0000000E+00;  1.0000000E+04;-0.0010619296;0.0;4.9280683e-05;0.19066994
  1.3999997E-01;  9.9999998E-03;  2.2000000E-01;1272;-6.9536713e-05;0.0;9.1806914e-06;1000.0004;  4.0000001E-01;0.3950505;3;-0.13006254;0.0;0.016561138;0;-0.00097073108;  1.0000010E+04;  0.0000000E+00; -8.4414623E-06;  1.0000000E+04;  0.0000000E+00;  1.0000000E+04;-0.0010105618;0.0;3.9830742e-05;0.1632463
  1.3999997E-01;  9.9999998E-03;  2.4000001E-01;1273;-6.4354892e-05;0.0;1.0243362e-05;1000.0004;  4.0000001E-01;0.3950505;3;-0.12130646;0.0;0.01849285;0;-0.00092247711;  1.0000009E+04;  0.0000000E+00; -3.0518888E-05;  1.0000000E+04;  0.0000000E+00;  1.0000000E+04;-0.00094145339;0.0;1.8976274e-05;0.14714505
  1.3999999E-01;  9.9999998E-03;  2.5999999E-01;1274;-5.7389832e-05;0.0;1.1218115e-05;1000.0004;  4.0000001E-01;0.3950505;3;-0.10947576;0.0;0.020368712;0;-0.00086432317;  1.0000008E+04;  0.0000000E+00; -7.4579773E-05;  1.0000000E+04;  0.0000000E+00;  1.0000000E+04;-0.00085097726;0.0;-1.3345883e-05;0.28002745
  1.3999999E-01;  9.9999998E-03;  2.8000000E-01;1275;-4.8303067e-05;0.0;1.2011335e-05;1000.0004;  4.0000001E-01;0.29628786;3;-0.093715951;0.0;0.022096429;0;-0.00078732375;  1.0000007E+04;  0.0000000E+00; -1.3526094E-04;  1.0000000E+04;  0.0000000E+00;  1.0000000E+04;-0.0007362382;0.0;-5.1085524e-05;0.52384406
  1.3999999E-01;  9.9999998E-03;  3.0000001E-01;1276;-3.6818987e-05;0.0;1.2623526e-05;1000.0004;  4.0000001E-01;0.29628786;3;-0.072866097;0.0;0.023904275;0;-0.00067962037;  1.0000006E+04;  0.0000000E+00; -1.8480796E-04;  1.0000000E+04;  0.0000000E+00;  1.0000000E+04;-0.00059688016;0.0;-8.2740233e-05;0.73003763
  1.5999997E-01;  9.9999998E-03;  1.6000000E-01;1300;-0.00010712807;0.0;7.5845851e-06;1000.0008;  4.0000001E-01;0.69133836;3;-0.19258481;0.0;0.013238453;0;-0.0014525376;  1.0000016E+04;  0.0000000E+00;  1.7068957E-12;  1.0000000E+04;  0.0000000E+00;  1.0000000E+04;-0.0015201158;0.0;6.7578185e-05;0.26846719
  1.5999997E-01;  9.9999998E-03;  1.8000001E-01;1301;-0.00010460974;0.0;9.104373e-06;1000.0007;  4.0000001E-01;0.59257573;3;-0.18870719;0.0;0.015906647;0;-0.0014168593;  1.0000015E+04;  0.0000000E+00; -3.3908086E-07;  1.0000000E+04;  0.0000000E+00;  1.0000000E+04;-0.0014899267;0.0;7.3067335e-05;0.28753513
  1.5999997E-01;  9.9999998E-03;  2.0000000E-01;1302;-0.0001010749;0.0;1.0742472e-05;1000.0007;  4.0000001E-01;0.59257573;3;-0.18308662;0.0;0.018761484;0;-0.0013737426;  1.0000015E+04;  0.0000000E+00; -4.8949814E-06;  1.0000000E+04;  0.0000000E+00;  1.0000000E+04;-0.0014474645;0.0;7.3721851e-05;0.29090136
  1.5999997E-01;  9.9999998E-03;  2.2000000E-01;1303;-9.6142729e-05;0.0;1.2405307e-05;1000.0007;  4.0000001E-01;0.59257573;3;-0.17514446;0.0;0.021651238;0;-0.0013268343;  1.0000015E+04;  0.0000000E+00; -2.6201395E-05;  1.0000000E+04;  0.0000000E+00;  1.0000000E+04;-0.001390493;0.0;6.3658736e-05;0.27566549
  1.5999997E-01;  9.9999998E-03;  2.4000001E-01;1304;-8.9411245e-05;0.0;1.3887242e-05;1000.0007;  4.0000001E-01;0.59257573;3;-0.16430013;0.0;0.024236001;0;-0.0012796861;  1.0000014E+04;  0.0000000E+00; -8.6394240E-05;  1.0000000E+04;  0.0000000E+00;  1.0000000E+04;-0.0013165984;0.0;3.6912272e-05;0.36991686
  1.5999997E-01;  9.9999998E-03;  2.6000002E-01;1305;-8.0289356e-05;0.0;1.5251664e-05;1000.0006;  4.0000001E-01;0.49381313;3;-0.14948103;0.0;0.026773207;0;-0.0012299537;  1.0000014E+04;  0.0000000E+00; -2.0531144E-04;  1.0000000E+04;  0.0000000E+00;  1.0000000E+04;-0.0012218015;0.0;-8.1522157e-06;0.78158504
  1.5999998E-01;  9.9999998E-03;  2.8000000E-01;1306;-6.8205321e-05;0.0;1.6523254e-05;1000.0006;  4.0000001E-01;0.49381313;3;-0.12932827;0.0;0.029478423;0;-0.0011623146;  1.0000012E+04;  0.0000000E+00; -3.7102046E-04;  1.0000000E+04;  0.0000000E+00;  1.0000000E+04;-0.0010986165;0.0;-6.3698011e-05;1.416507
  1.5999998E-01;  9.9999998E-03;  3.0000001E-01;1307;-5.273147e-05;0.0;1.7569295e-05;1000.0005;  4.0000001E-01;0.3950505;3;-0.10205878;0.0;0.032445941;0;-0.0010471861;  1.0000010E+04;  0.0000000E+00; -5.0935213E-04;  1.0000000E+04;  0.0000000E+00;  1.0000001E+04;-0.00093480368;0.0;-0.00011238235;1.9520004
  1.7999995E-01;  9.9999998E-03;  1.6000001E-01;1331;-0.00014593455;0.0;1.0088017e-05;1000.001;  4.0000001E-01;0.79010099;3;-0.25499505;0.0;0.01707514;0;-0.0019471961;  1.0000021E+04;  0.0000000E+00; -4.7292366E-09;  1.0000000E+04;  0.0000000E+00;  9.9999990E+03;-0.0020429788;0.0;9.5782634e-05;0.38938487
  1.7999995E-01;  9.9999998E-03;  1.8000001E-01;1332;-0.00014284538;0.0;1.2202016e-05;1000.001;  4.0000001E-01;0.79010099;3;-0.25055593;0.0;0.020671226;0;-0.00190272;  1.0000021E+04;  0.0000000E+00; -1.1575866E-06;  1.0000000E+04;  0.0000000E+00;  9.9999990E+03;-0.0020095992;0.0;0.00010687928;0.42813003
  1.7999995E-01;  9.9999998E-03;  2.0000000E-01;1333;-0.00013844225;0.0;1.4476332e-05;1000.001;  4.0000001E-01;0.79010099;3;-0.24395801;0.0;0.024513606;0;-0.0018505161;  1.0000021E+04;  0.0000000E+00; -1.2139493E-05;  1.0000000E+04;  0.0000000E+00;  9.9999990E+03;-0.0019633975;0.0;0.00011288143;0.45149159
  1.7999995E-01;  9.9999998E-03;  2.2000001E-01;1334;-0.0001321943;0.0;1.6804595e-05;1000.0009;  4.0000001E-01;0.79010099;3;-0.23443979;0.0;0.028407842;0;-0.0017989547;  1.0000020E+04;  0.0000000E+00; -5.8552749E-05;  1.0000000E+04;  0.0000000E+00;  9.9999990E+03;-0.0019038463;0.0;0.00010489161;0.47896296
  1.7999995E-01;  9.9999998E-03;  2.4000001E-01;1335;-0.00012356442;0.0;1.8863382e-05;1000.0009;  4.0000001E-01;0.79010099;3;-0.22121161;0.0;0.031903617;0;-0.0017582548;  1.0000020E+04;  0.0000000E+00; -1.8678345E-04;  1.0000000E+04;  0.0000000E+00;  1.0000000E+04;-0.0018307044;0.0;7.2449606e-05;0.78798687
  1.7999996E-01;  9.9999998E-03;  2.6000002E-01;1336;-0.00011176693;0.0;2.0777139e-05;1000.0009;  4.0000001E-01;0.79010099;3;-0.20297045;0.0;0.03532134;0;-0.0017312343;  1.0000018E+04;  0.0000000E+00; -4.4447544E-04;  1.0000000E+04;  0.0000000E+00;  1.0000000E+04;-0.0017413851;0.0;1.0150812e-05;1.7199016
  1.7999996E-01;  9.9999998E-03;  2.8000000E-01;1337;-9.6123986e-05;0.0;2.2522196e-05;1000.0009;  4.0000001E-01;0.69133836;3;-0.17796507;0.0;0.039048262;0;-0.0016973724;  1.0000017E+04;  0.0000000E+00; -8.1656594E-04;  1.0000000E+04;  0.0000000E+00;  1.0000000E+04;-0.00162427;0.0;-7.3102376e-05;3.1464612
  1.7999998E-01;  9.9999998E-03;  3.0000001E-01;1338;-7.5599812e-05;0.0;2.4274965e-05;1000.0009;  4.0000001E-01;0.69133836;3;-0.14335486;0.0;0.043497458;0;-0.0015974267;  1.0000015E+04;  0.0000000E+00; -1.1451542E-03;  1.0000000E+04;  0.0000000E+00;  1.0000001E+04;-0.0014475421;0.0;-0.00014988465;4.4087639
  1.9999993E-01;  9.9999998E-03;  1.6000001E-01;1362;-0.00019769094;0.0;1.336783e-05;1000.0015;  4.0000001E-01;1.1851515;3;-0.33555683;0.0;0.021949043;0;-0.0025939764;  1.0000031E+04;  0.0000000E+00; -2.3364423E-08;  1.0000000E+04;  0.0000000E+00;  9.9999990E+03;-0.0027303046;0.0;0.00013632828;0.56487566
  1.9999993E-01;  9.9999998E-03;  1.8000001E-01;1363;-0.00019397687;0.0;1.6322338e-05;1000.0014;  4.0000001E-01;1.1851515;3;-0.33065248;0.0;0.026851537;0;-0.0025379355;  1.0000030E+04;  0.0000000E+00; -2.2980048E-06;  1.0000000E+04;  0.0000000E+00;  9.9999990E+03;-0.0026955514;0.0;0.00015761582;0.6397649
  1.9999993E-01;  9.9999998E-03;  2.0000000E-01;1364;-0.00018859589;0.0;1.9477393e-05;1000.0013;  4.0000001E-01;1.0863888;3;-0.32313287;0.0;0.032024421;0;-0.0024728614;  1.0000028E+04;  0.0000000E+00; -2.1475245E-05;  1.0000000E+04;  0.0000000E+00;  9.9999980E+03;-0.0026474108;0.0;0.00017454936;0.70379215
  1.9999993E-01;  9.9999998E-03;  2.2000001E-01;1365;-0.00018080026;0.0;2.2746786e-05;1000.0012;  4.0000001E-01;0.98762625;3;-0.31192958;0.0;0.037403468;0;-0.0024126982;  1.0000028E+04;  0.0000000E+00; -1.0008961E-04;  1.0000000E+04;  0.0000000E+00;  9.9999980E+03;-0.0025868039;0.0;0.00017410573;0.80023813
  1.9999993E-01;  9.9999998E-03;  2.4000001E-01;1366;-0.00016992108;0.0;2.5541482e-05;1000.0012;  4.0000001E-01;0.98762625;3;-0.29615507;0.0;0.042043597;0;-0.0023772751;  1.0000028E+04;  0.0000000E+00; -3.1906139E-04;  1.0000000E+04;  0.0000000E+00;  9.9999990E+03;-0.0025158818;0.0;0.00013860659;1.379918
  1.9999994E-01;  9.9999998E-03;  2.6000002E-01;1367;-0.00015483968;0.0;2.8248718e-05;1000.0012;  4.0000001E-01;0.98762625;3;-0.27401096;0.0;0.046807624;0;-0.0023798107;  1.0000027E+04;  0.0000000E+00; -7.7204092E-04;  1.0000000E+04;  0.0000000E+00;  1.0000000E+04;-0.0024345962;0.0;5.4785531e-05;3.0413399
  1.9999994E-01;  9.9999998E-03;  2.8000000E-01;1368;-0.00013489943;0.0;3.0670311e-05;1000.0012;  4.0000001E-01;0.98762625;3;-0.24399514;0.0;0.051545233;0;-0.0023987899;  1.0000025E+04;  0.0000000E+00; -1.4514860E-03;  1.0000000E+04;  0.0000000E+00;  1.0000000E+04;-0.0023287132;0.0;-7.0076589e-05;5.6721282
  1.9999996E-01;  9.9999998E-03;  3.0000001E-01;1369;-0.00010826699;0.0;3.338396e-05;1000.0012;  4.0000001E-01;0.98762625;3;-0.20122674;0.0;0.057937093;0;-0.0023348555;  1.0000021E+04;  0.0000000E+00; -2.0769422E-03;  1.0000000E+04;  0.0000000E+00;  1.0000002E+04;-0.0021425374;0.0;-0.00019231818;8.0974569
  2.1999989E-01;  9.9999998E-03;  1.6000001E-01;1393;-0.00026630261;0.0;1.7599545e-05;1000.002;  4.0000001E-01;1.580202;3;-0.43889803;0.0;0.028025776;0;-0.003434072;  1.0000041E+04;  0.0000000E+00; -3.0085047E-08;  1.0000000E+04;  0.0000000E+00;  9.9999980E+03;-0.0036277093;0.0;0.00019363743;0.81614941
  2.1999989E-01;  9.9999998E-03;  1.8000001E-01;1394;-0.00026195237;0.0;2.1711698e-05;1000.002;  4.0000001E-01;1.580202;3;-0.43374139;0.0;0.03471544;0;-0.0033625825;  1.0000041E+04;  0.0000000E+00; -2.9925470E-06;  1.0000000E+04;  0.0000000E+00;  9.9999980E+03;-0.0035943342;0.0;0.00023175176;0.95184439
  2.1999989E-01;  9.9999998E-03;  2.0000002E-01;1395;-0.00025550742;0.0;2.6144979e-05;1000.0018;  4.0000001E-01;1.4814394;3;-0.42544222;0.0;0.0418345;0;-0.0032780275;  1.0000039E+04;  0.0000000E+00; -2.8259181E-05;  1.0000000E+04;  0.0000000E+00;  9.9999980E+03;-0.0035460037;0.0;0.00026797617;1.0857546
  2.1999989E-01;  9.9999998E-03;  2.2000001E-01;1396;-0.00024598534;0.0;3.086144e-05;1000.0018;  4.0000001E-01;1.4814394;3;-0.41271985;0.0;0.049367562;0;-0.0031991547;  1.0000039E+04;  0.0000000E+00; -1.3363600E-04;  1.0000000E+04;  0.0000000E+00;  9.9999971E+03;-0.0034835397;0.0;0.00028438497;1.2553906
  2.1999991E-01;  9.9999998E-03;  2.4000001E-01;1397;-0.00023247358;0.0;3.5205427e-05;1000.0018;  4.0000001E-01;1.4814394;3;-0.39439821;0.0;0.056380145;0;-0.0031557754;  1.0000039E+04;  0.0000000E+00; -4.3537340E-04;  1.0000000E+04;  0.0000000E+00;  9.9999980E+03;-0.0034093461;0.0;0.00025357067;2.0184999
  2.1999991E-01;  9.9999998E-03;  2.6000002E-01;1398;-0.00021340062;0.0;4.0156603e-05;1000.0018;  4.0000001E-01;1.4814394;3;-0.36815247;0.0;0.064757049;0;-0.003173341;  1.0000035E+04;  0.0000000E+00; -1.0814001E-03;  1.0000000E+04;  0.0000000E+00;  9.9999990E+03;-0.0033236225;0.0;0.00015028159;4.3583798
  2.1999992E-01;  9.9999998E-03;  2.8000003E-01;1399;-0.00018805661;0.0;4.5698274e-05;1000.0018;  4.0000001E-01;1.4814394;3;-0.33223504;0.0;0.07514146;0;-0.0032285042;  1.0000034E+04;  0.0000000E+00; -2.0814713E-03;  1.0000000E+04;  0.0000000E+00;  1.0000000E+04;-0.0032074789;0.0;-2.1025218e-05;8.2621651
  2.1999994E-01;  9.9999998E-03;  3.0000001E-01;1400;-0.00015273209;0.0;5.4049804e-05;1000.0018;  4.0000001E-01;1.4814394;3;-0.27795374;0.0;0.092539042;0;-0.0031574606;  1.0000032E+04;  0.0000000E+00; -3.0270438E-03;  1.0000000E+04;  0.0000000E+00;  1.0000002E+04;-0.0029769293;0.0;-0.00018053118;11.965743
  2.3999985E-01;  9.9999998E-03;  1.6000001E-01;1424;-0.00035665391;0.0;2.2991824e-05;1000.0026;  4.0000001E-01;2.1727777;3;-0.57052732;0.0;0.035501879;0;-0.0045186225;  1.0000056E+04;  0.0000000E+00; -1.0155826E-08;  1.0000000E+04;  0.0000000E+00;  9.9999980E+03;-0.0047910963;0.0;0.0002724739;1.1686436
  2.3999986E-01;  9.9999998E-03;  1.8000001E-01;1425;-0.0003517477;0.0;2.8704057e-05;1000.0026;  4.0000001E-01;2.1727777;3;-0.56552577;0.0;0.04463264;0;-0.0044272216;  1.0000056E+04;  0.0000000E+00; -2.5530574E-06;  1.0000000E+04;  0.0000000E+00;  9.9999961E+03;-0.004763321;0.0;0.0003360993;1.398984
  2.3999986E-01;  9.9999998E-03;  2.0000002E-01;1426;-0.0003442452;0.0;3.5095076e-05;1000.0024;  4.0000001E-01;1.9752525;3;-0.55680615;0.0;0.054822255;0;-0.0043149949;  1.0000056E+04;  0.0000000E+00; -2.7632821E-05;  1.0000000E+04;  0.0000000E+00;  9.9999961E+03;-0.0047176718;0.0;0.00040267681;1.6432338
  2.3999986E-01;  9.9999998E-03;  2.2000001E-01;1427;-0.00033296391;0.0;4.2225045e-05;1000.0024;  4.0000001E-01;1.9752525;3;-0.54306591;0.0;0.066006154;0;-0.0042033866;  1.0000053E+04;  0.0000000E+00; -1.3924009E-04;  1.0000000E+04;  0.0000000E+00;  9.9999961E+03;-0.004652679;0.0;0.00044929239;1.8905576
  2.3999988E-01;  9.9999998E-03;  2.4000002E-01;1428;-0.00031671586;0.0;4.9878519e-05;1000.0024;  4.0000001E-01;1.9752525;3;-0.5228098;0.0;0.078481421;0;-0.004129258;  1.0000052E+04;  0.0000000E+00; -4.7414351E-04;  1.0000000E+04;  0.0000000E+00;  9.9999961E+03;-0.0045674117;0.0;0.00043815371;2.6027248
  2.3999988E-01;  9.9999998E-03;  2.6000002E-01;1429;-0.00029344633;0.0;6.0380851e-05;1000.0024;  4.0000001E-01;1.9752525;3;-0.49314201;0.0;0.096531436;0;-0.0041249841;  1.0000050E+04;  0.0000000E+00; -1.2211275E-03;  1.0000000E+04;  0.0000000E+00;  9.9999971E+03;-0.0044579562;0.0;0.00033297224;5.1250906
  2.3999989E-01;  9.9999998E-03;  2.8000003E-01;1430;-0.0002626632;0.0;7.5109288e-05;1000.0024;  4.0000001E-01;1.9752525;3;-0.45293435;0.0;0.1234421;0;-0.0041510491;  1.0000047E+04;  0.0000000E+00; -2.4103504E-03;  1.0000000E+04;  0.0000000E+00;  9.9999990E+03;-0.0042999582;0.0;0.00014890921;9.7456179
  2.3999991E-01;  9.9999998E-03;  3.0000004E-01;1431;-0.00022047963;0.0;9.6623742e-05;1000.0021;  4.0000001E-01;1.7777272;3;-0.39228782;0.0;0.16715769;0;-0.0039873789;  1.0000045E+04;  0.0000000E+00; -3.5381871E-03;  1.0000000E+04;  0.0000000E+00;  1.0000000E+04;-0.0040015788;0.0;1.4199992e-05;14.193469
  2.5999978E-01;  9.9999998E-03;  1.6000001E-01;1455;-0.00047483059;0.0;2.9761233e-05;1000.0036;  4.0000001E-01;2.9628785;3;-0.73693424;0.0;0.04454631;0;-0.0059107412;  1.0000075E+04;  0.0000000E+00; -2.8421522E-11;  1.0000000E+04;  0.0000000E+00;  9.9999961E+03;-0.0062883082;0.0;0.00037756714;1.6518372
  2.5999981E-01;  9.9999998E-03;  1.8000002E-01;1456;-0.00046961114;0.0;3.7693233e-05;1000.0035;  4.0000001E-01;2.9628785;3;-0.7328034;0.0;0.057063702;0;-0.0057954169;  1.0000074E+04;  0.0000000E+00; -1.2614549E-06;  1.0000000E+04;  0.0000000E+00;  9.9999951E+03;-0.0062726713;0.0;0.00047725451;2.0204022
  2.5999981E-01;  9.9999998E-03;  2.0000002E-01;1457;-0.00046124854;0.0;4.7033682e-05;1000.0034;  4.0000001E-01;2.864116;3;-0.72443086;0.0;0.071866818;0;-0.0056482544;  1.0000074E+04;  0.0000000E+00; -1.9214935E-05;  1.0000000E+04;  0.0000000E+00;  9.9999941E+03;-0.0062356181;0.0;0.00058736349;2.4295859
  2.5999981E-01;  9.9999998E-03;  2.2000003E-01;1458;-0.00044836567;0.0;5.8144302e-05;1000.0032;  4.0000001E-01;2.6665907;3;-0.71056509;0.0;0.089281186;0;-0.0054916269;  1.0000074E+04;  0.0000000E+00; -1.1065414E-04;  1.0000000E+04;  0.0000000E+00;  9.9999932E+03;-0.0061720582;0.0;0.00068043132;2.8047156
  2.5999981E-01;  9.9999998E-03;  2.4000002E-01;1459;-0.00042971602;0.0;7.1304079e-05;1000.0031;  4.0000001E-01;2.5678279;3;-0.68998522;0.0;0.11051119;0;-0.0053657526;  1.0000071E+04;  0.0000000E+00; -4.0653331E-04;  1.0000000E+04;  0.0000000E+00;  9.9999932E+03;-0.0060755233;0.0;0.00070977077;3.3088429
  2.5999984E-01;  9.9999998E-03;  2.6000005E-01;1460;-0.00040293179;0.0;9.0666159e-05;1000.0031;  4.0000001E-01;2.5678279;3;-0.65970194;0.0;0.14332165;0;-0.0053027822;  1.0000069E+04;  0.0000000E+00; -1.1041404E-03;  1.0000000E+04;  0.0000000E+00;  9.9999941E+03;-0.0059354203;0.0;0.00063263834;5.1899791
  2.5999984E-01;  9.9999998E-03;  2.8000006E-01;1461;-0.00036769579;0.0;0.00011913131;1000.0031;  4.0000001E-01;2.5678279;3;-0.61886197;0.0;0.19431329;0;-0.0052365316;  1.0000066E+04;  0.0000000E+00; -2.2515075E-03;  1.0000000E+04;  0.0000000E+00;  9.9999951E+03;-0.0057245879;0.0;0.0004880561;9.4242344
  2.5999987E-01;  9.9999998E-03;  3.0000007E-01;1462;-0.00032014181;0.0;0.00015526351;1000.0028;  4.0000001E-01;2.3703027;3;-0.55761033;0.0;0.26584452;0;-0.0049386905;  1.0000060E+04;  0.0000000E+00; -3.3451451E-03;  1.0000000E+04;  0.0000000E+00;  9.9999971E+03;-0.0053613698;0.0;0.00042267924;13.723871
  2.7999973E-01;  9.9999998E-03;  1.6000001E-01;1486;-0.00062848965;0.0;3.8119364e-05;1000.0048;  4.0000001E-01;3.9505048;3;-0.94572276;0.0;0.055208053;0;-0.0076876953;  1.0000103E+04;  0.0000000E+00;  3.1210142E-11;  1.0000000E+04;  0.0000000E+00;  9.9999941E+03;-0.0082011325;0.0;0.00051343709;2.2999105
  2.7999973E-01;  9.9999998E-03;  1.8000002E-01;1487;-0.00062343717;0.0;4.8962916e-05;1000.0047;  4.0000001E-01;3.851742;3;-0.94361401;0.0;0.07213857;0;-0.0075457511;  1.0000102E+04;  0.0000000E+00; -2.0902708E-07;  1.0000000E+04;  0.0000000E+00;  9.9999932E+03;-0.0082073119;0.0;0.00066156086;2.8609996
  2.7999973E-01;  9.9999998E-03;  2.0000003E-01;1488;-0.000614647;0.0;6.231133e-05;1000.0045;  4.0000001E-01;3.7529795;3;-0.93679583;0.0;0.09308894;0;-0.0073590497;  1.0000099E+04;  0.0000000E+00; -8.3645191E-06;  1.0000000E+04;  0.0000000E+00;  9.9999902E+03;-0.008189017;0.0;0.00082996732;3.5030003
  2.7999973E-01;  9.9999998E-03;  2.2000003E-01;1489;-0.00060051354;0.0;7.9197576e-05;1000.0045;  4.0000001E-01;3.6542168;3;-0.92408043;0.0;0.11939942;0;-0.007151356;  1.0000098E+04;  0.0000000E+00; -6.2985135E-05;  1.0000000E+04;  0.0000000E+00;  9.9999893E+03;-0.0081379628;0.0;0.00098660693;4.100956
  2.7999973E-01;  9.9999998E-03;  2.4000004E-01;1490;-0.00057995209;0.0;9.9992278e-05;1000.0042;  4.0000001E-01;3.4566915;3;-0.90518653;0.0;0.15274698;0;-0.0069663692;  1.0000097E+04;  0.0000000E+00; -2.6407425E-04;  1.0000000E+04;  0.0000000E+00;  9.9999883E+03;-0.0080431588;0.0;0.0010767898;4.5346365
  2.7999976E-01;  9.9999998E-03;  2.6000005E-01;1491;-0.00055021199;0.0;0.00013081802;1000.0042;  4.0000001E-01;3.4566915;3;-0.87699258;0.0;0.20370284;0;-0.0068325084;  1.0000095E+04;  0.0000000E+00; -7.7921385E-04;  1.0000000E+04;  0.0000000E+00;  9.9999883E+03;-0.0078884056;0.0;0.0010558974;5.3205161
  2.7999979E-01;  9.9999998E-03;  2.8000009E-01;1492;-0.00051101414;0.0;0.00017498821;1000.004;  4.0000001E-01;3.357929;3;-0.83890092;0.0;0.28147829;0;-0.0066658766;  1.0000092E+04;  0.0000000E+00; -1.6722619E-03;  1.0000000E+04;  0.0000000E+00;  9.9999902E+03;-0.0076464508;0.0;0.00098057406;7.8958998
  2.7999979E-01;  9.9999998E-03;  3.0000010E-01;1493;-0.00045771021;0.0;0.00022778739;1000.0038;  4.0000001E-01;3.1604037;3;-0.78005749;0.0;0.38131878;0;-0.0062516113;  1.0000086E+04;  0.0000000E+00; -2.5543559E-03;  1.0000000E+04;  0.0000000E+00;  9.9999912E+03;-0.0072518368;0.0;0.0010002257;11.144682
  2.9999962E-01;  9.9999998E-03;  1.6000003E-01;1517;-0.00082736602;0.0;4.8263242e-05;1000.0062;  4.0000001E-01;5.1356554;3;-1.2058879;0.0;0.06748914;0;-0.0099431509;  1.0000136E+04;  0.0000000E+00; -1.7909174E-10;  1.0000000E+04;  0.0000000E+00;  9.9999922E+03;-0.010627623;0.0;0.00068447221;3.1536334
  2.9999962E-01;  9.9999998E-03;  1.8000002E-01;1518;-0.00082328462;0.0;6.2878426e-05;1000.0062;  4.0000001E-01;5.1356554;3;-1.2074958;0.0;0.090157486;0;-0.0097740162;  1.0000135E+04;  0.0000000E+00; -4.0567363E-10;  1.0000000E+04;  0.0000000E+00;  9.9999893E+03;-0.010669574;0.0;0.00089555775;3.974613
  2.9999962E-01;  9.9999998E-03;  2.0000003E-01;1519;-0.00081475993;0.0;8.1257225e-05;1000.006;  4.0000001E-01;4.9381299;3;-1.2038709;0.0;0.11833639;0;-0.0095456429;  1.0000134E+04;  0.0000000E+00; -1.5712061E-06;  1.0000000E+04;  0.0000000E+00;  9.9999873E+03;-0.010684763;0.0;0.0011391204;4.9313822
  2.9999962E-01;  9.9999998E-03;  2.2000004E-01;1520;-0.00079983077;0.0;0.00010551811;1000.0059;  4.0000001E-01;4.8393674;3;-1.1939732;0.0;0.15570217;0;-0.0092865191;  1.0000133E+04;  0.0000000E+00; -2.1954307E-05;  1.0000000E+04;  0.0000000E+00;  9.9999863E+03;-0.010662897;0.0;0.0013763787;5.8574471
  2.9999965E-01;  9.9999998E-03;  2.4000005E-01;1521;-0.00077762303;0.0;0.00013619541;1000.0057;  4.0000001E-01;4.7406049;3;-1.1785097;0.0;0.20432293;0;-0.0090480354;  1.0000132E+04;  0.0000000E+00; -1.1831419E-04;  1.0000000E+04;  0.0000000E+00;  9.9999834E+03;-0.010591655;0.0;0.0015436201;6.479363
  2.9999965E-01;  9.9999998E-03;  2.6000008E-01;1522;-0.00074474176;0.0;0.00018076533;1000.0056;  4.0000001E-01;4.6418424;3;-1.1543019;0.0;0.27604875;0;-0.0088623045;  1.0000129E+04;  0.0000000E+00; -4.0010904E-04;  1.0000000E+04;  0.0000000E+00;  9.9999824E+03;-0.010454368;0.0;0.0015920632;6.6994433
  2.9999968E-01;  9.9999998E-03;  2.8000012E-01;1523;-0.00070078706;0.0;0.00024350942;1000.0054;  4.0000001E-01;4.4443169;3;-1.1206436;0.0;0.38149795;0;-0.008624455;  1.0000126E+04;  0.0000000E+00; -9.3796512E-04;  1.0000000E+04;  0.0000000E+00;  9.9999834E+03;-0.010227645;0.0;0.0016031894;7.3238468
  2.9999971E-01;  9.9999998E-03;  3.0000013E-01;1524;-0.00064031774;0.0;0.00031361621;1000.0051;  4.0000001E-01;4.2467918;3;-1.0658109;0.0;0.51107383;0;-0.0081846938;  1.0000120E+04;  0.0000000E+00; -1.5093174E-03;  1.0000000E+04;  0.0000000E+00;  9.9999834E+03;-0.0098656584;0.0;0.0016809646;8.6851034
  3.1999949E-01;  9.9999998E-03;  1.6000003E-01;1548;-0.001083739;0.0;6.0494225e-05;1000.0084;  4.0000001E-01;6.9133821;3;-1.5280622;0.0;0.081346221;0;-0.01278916;  1.0000180E+04;  0.0000000E+00; -2.4629765E-10;  1.0000000E+04;  0.0000000E+00;  9.9999893E+03;-0.013684504;0.0;0.00089534407;4.2643542
  3.1999949E-01;  9.9999998E-03;  1.8000004E-01;1549;-0.0010818586;0.0;7.953756e-05;1000.0083;  4.0000001E-01;6.9133821;3;-1.5357618;0.0;0.11017206;0;-0.012596113;  1.0000181E+04;  0.0000000E+00; -4.3263237E-10;  1.0000000E+04;  0.0000000E+00;  9.9999873E+03;-0.013782518;0.0;0.0011864055;5.4282246
  3.1999949E-01;  9.9999998E-03;  2.0000005E-01;1550;-0.0010747071;0.0;0.00010421272;1000.0081;  4.0000001E-01;6.715857;3;-1.5378195;0.0;0.14764114;0;-0.012326505;  1.0000180E+04;  0.0000000E+00; -4.7328141E-10;  1.0000000E+04;  0.0000000E+00;  9.9999834E+03;-0.013852036;0.0;0.0015255304;6.802392
  3.1999952E-01;  9.9999998E-03;  2.2000006E-01;1551;-0.0010596206;0.0;0.00013777688;1000.0079;  4.0000001E-01;6.5183315;3;-1.532707;0.0;0.19883513;0;-0.01201674;  1.0000180E+04;  0.0000000E+00; -2.8336510E-06;  1.0000000E+04;  0.0000000E+00;  9.9999785E+03;-0.013880056;0.0;0.0018633165;8.1669893
  3.1999952E-01;  9.9999998E-03;  2.4000008E-01;1552;-0.0010357497;0.0;0.00018057447;1000.0076;  4.0000001E-01;6.3208065;3;-1.5223012;0.0;0.26441479;0;-0.011732453;  1.0000177E+04;  0.0000000E+00; -2.8424131E-05;  1.0000000E+04;  0.0000000E+00;  9.9999746E+03;-0.01385487;0.0;0.0021224164;9.1518402
  3.1999955E-01;  9.9999998E-03;  2.6000011E-01;1553;-0.00099862332;0.0;0.0002416107;1000.0074;  4.0000001E-01;6.1232815;3;-1.5028343;0.0;0.35988259;0;-0.011519929;  1.0000175E+04;  0.0000000E+00; -1.2644460E-04;  1.0000000E+04;  0.0000000E+00;  9.9999746E+03;-0.013764231;0.0;0.0022443016;9.4378729
  3.1999958E-01;  9.9999998E-03;  2.8000015E-01;1554;-0.00094786234;0.0;0.00032654157;1000.0073;  4.0000001E-01;6.0245185;3;-1.4741901;0.0;0.49744037;0;-0.011258507;  1.0000172E+04;  0.0000000E+00; -3.4418236E-04;  1.0000000E+04;  0.0000000E+00;  9.9999736E+03;-0.013595828;0.0;0.0023373212;9.4418888
  3.1999961E-01;  9.9999998E-03;  3.0000019E-01;1555;-0.00087665755;0.0;0.00042099849;1000.007;  4.0000001E-01;5.8269935;3;-1.4227993;0.0;0.66371554;0;-0.010825857;  1.0000167E+04;  0.0000000E+00; -6.1228708E-04;  1.0000000E+04;  0.0000000E+00;  9.9999736E+03;-0.013328056;0.0;0.0025021995;9.6380281
  3.3999929E-01;  9.9999998E-03;  1.6000004E-01;1579;-0.0014126729;0.0;7.525878e-05;1000.0112;  4.0000001E-01;9.2836838;3;-1.9246286;0.0;0.096638873;0;-0.016357288;  1.0000237E+04;  0.0000000E+00; -1.0210430E-10;  1.0000000E+04;  0.0000000E+00;  9.9999873E+03;-0.017509073;0.0;0.0011517851;5.7011704
  3.3999932E-01;  9.9999998E-03;  1.8000005E-01;1580;-0.0014148111;0.0;9.9447301e-05;1000.011;  4.0000001E-01;9.0861588;3;-1.9418718;0.0;0.13251385;0;-0.016150046;  1.0000237E+04;  0.0000000E+00; -8.1369483E-10;  1.0000000E+04;  0.0000000E+00;  9.9999824E+03;-0.017691914;0.0;0.0015418675;7.3062739
  3.3999932E-01;  9.9999998E-03;  2.0000006E-01;1581;-0.0014107774;0.0;0.00013179764;1000.0107;  4.0000001E-01;8.8886337;3;-1.9530199;0.0;0.18089804;0;-0.015845841;  1.0000236E+04;  0.0000000E+00; -9.4136554E-10;  1.0000000E+04;  0.0000000E+00;  9.9999756E+03;-0.017847383;0.0;0.0020015433;9.2274828
  3.3999932E-01;  9.9999998E-03;  2.2000009E-01;1582;-0.0013967309;0.0;0.00017657875;1000.0104;  4.0000001E-01;8.6911087;3;-1.9556816;0.0;0.24773644;0;-0.015488937;  1.0000237E+04;  0.0000000E+00;  2.2267603E-09;  1.0000000E+04;  0.0000000E+00;  9.9999717E+03;-0.017954692;0.0;0.0024657554;11.168343
  3.3999935E-01;  9.9999998E-03;  2.4000011E-01;1583;-0.0013712079;0.0;0.00023389079;1000.0102;  4.0000001E-01;8.4935827;3;-1.9519136;0.0;0.33261803;0;-0.015163237;  1.0000237E+04;  0.0000000E+00; -1.2310375E-06;  1.0000000E+04;  0.0000000E+00;  9.9999678E+03;-0.017999597;0.0;0.0028363592;12.640509
  3.3999938E-01;  9.9999998E-03;  2.6000014E-01;1584;-0.0013284205;0.0;0.00031647927;1000.0101;  4.0000001E-01;8.2960577;3;-1.9384604;0.0;0.45753029;0;-0.014927235;  1.0000235E+04;  0.0000000E+00; -1.4603009E-05;  1.0000000E+04;  0.0000000E+00;  9.9999648E+03;-0.01797347;0.0;0.0030462346;13.232479
  3.3999941E-01;  9.9999998E-03;  2.8000021E-01;1585;-0.0012675434;0.0;0.00042971774;1000.0099;  4.0000001E-01;8.1972952;3;-1.9145507;0.0;0.63420326;0;-0.014645437;  1.0000233E+04;  0.0000000E+00; -5.6453202E-05;  1.0000000E+04;  0.0000000E+00;  9.9999648E+03;-0.017876681;0.0;0.0032312439;13.438532
  3.3999944E-01;  9.9999998E-03;  3.0000025E-01;1586;-0.001179889;0.0;0.00055568229;1000.0097;  4.0000001E-01;7.9997702;3;-1.8627863;0.0;0.8485254;0;-0.014205495;  1.0000230E+04;  0.0000000E+00; -1.1893910E-04;  1.0000000E+04;  0.0000000E+00;  9.9999619E+03;-0.017715413;0.0;0.0035099187;13.703243
  3.5999906E-01;  9.9999998E-03;  1.6000006E-01;1610;-0.0018317907;0.0;9.3403185e-05;1000.0145;  4.0000001E-01;12.049035;3;-2.4093394;0.0;0.1136153;0;-0.0207984;  1.0000312E+04;  0.0000000E+00;  5.9517766E-11;  1.0000000E+04;  0.0000000E+00;  9.9999814E+03;-0.022260522;0.0;0.0014621221;7.5639582
  3.5999906E-01;  9.9999998E-03;  1.8000007E-01;1611;-0.0018405877;0.0;0.00012348218;1000.0144;  4.0000001E-01;11.950273;3;-2.4409537;0.0;0.15711586;0;-0.020596001;  1.0000313E+04;  0.0000000E+00; -5.8896937E-10;  1.0000000E+04;  0.0000000E+00;  9.9999756E+03;-0.022567026;0.0;0.001971026;9.7215099
  3.5999906E-01;  9.9999998E-03;  2.0000008E-01;1612;-0.0018423739;0.0;0.00016479331;1000.0141;  4.0000001E-01;11.653984;3;-2.4660125;0.0;0.21766064;0;-0.020274917;  1.0000313E+04;  0.0000000E+00; -7.0217465E-10;  1.0000000E+04;  0.0000000E+00;  9.9999688E+03;-0.022854235;0.0;0.0025793179;12.343888
  3.5999909E-01;  9.9999998E-03;  2.2000012E-01;1613;-0.0018315028;0.0;0.00022285503;1000.0138;  4.0000001E-01;11.456459;3;-2.4804173;0.0;0.30147496;0;-0.019886823;  1.0000315E+04;  0.0000000E+00;  3.8139469E-09;  1.0000000E+04;  0.0000000E+00;  9.9999629E+03;-0.023089327;0.0;0.0032025038;15.036617
  3.5999909E-01;  9.9999998E-03;  2.4000014E-01;1614;-0.0018056002;0.0;0.00029861205;1000.0136;  4.0000001E-01;11.258934;3;-2.4878502;0.0;0.41160294;0;-0.019532204;  1.0000315E+04;  0.0000000E+00;  2.1489045E-08;  1.0000000E+04;  0.0000000E+00;  9.9999561E+03;-0.023246052;0.0;0.0037138481;17.147966
  3.5999912E-01;  9.9999998E-03;  2.6000020E-01;1615;-0.0017562812;0.0;0.00040806292;1000.0134;  4.0000001E-01;11.061409;3;-2.4824045;0.0;0.57215273;0;-0.019277113;  1.0000314E+04;  0.0000000E+00;  5.9710906E-08;  1.0000000E+04;  0.0000000E+00;  9.9999531E+03;-0.02331046;0.0;0.0040333476;18.139185
  3.5999918E-01;  9.9999998E-03;  2.8000027E-01;1616;-0.0016817364;0.0;0.00055872469;1000.0131;  4.0000001E-01;10.863884;3;-2.4636586;0.0;0.79915529;0;-0.018937748;  1.0000314E+04;  0.0000000E+00; -2.8047535E-07;  1.0000000E+04;  0.0000000E+00;  9.9999502E+03;-0.023287421;0.0;0.0043496727;18.769047
  3.5999924E-01;  9.9999998E-03;  3.0000037E-01;1617;-0.001570984;0.0;0.00072589214;1000.0129;  4.0000001E-01;10.666359;3;-2.4090443;0.0;1.0723321;0;-0.018404698;  1.0000311E+04;  0.0000000E+00; -1.9760964E-06;  1.0000000E+04;  0.0000000E+00;  9.9999473E+03;-0.023199134;0.0;0.0047944356;19.581764
  3.7999874E-01;  9.9999998E-03;  1.6000007E-01;1641;-0.002360845;0.0;0.00011682239;1000.019;  4.0000001E-01;15.802011;3;-2.9972444;0.0;0.13349845;0;-0.026280144;  1.0000404E+04;  0.0000000E+00; -1.7147865E-10;  1.0000000E+04;  0.0000000E+00;  9.9999775E+03;-0.028120525;0.0;0.0018403805;10.00704
  3.7999874E-01;  9.9999998E-03;  1.8000008E-01;1642;-0.0023799399;0.0;0.00015346102;1000.0189;  4.0000001E-01;15.604486;3;-3.0492089;0.0;0.18498367;0;-0.026114224;  1.0000407E+04;  0.0000000E+00; -1.2487974E-09;  1.0000000E+04;  0.0000000E+00;  9.9999688E+03;-0.028600313;0.0;0.002486089;12.836861
  3.7999874E-01;  9.9999998E-03;  2.0000011E-01;1643;-0.0023917079;0.0;0.00020473747;1000.0185;  4.0000001E-01;15.308197;3;-3.0949702;0.0;0.25847393;0;-0.025809936;  1.0000412E+04;  0.0000000E+00; -1.1563894E-09;  1.0000000E+04;  0.0000000E+00;  9.9999580E+03;-0.029080985;0.0;0.0032710491;16.332466
  3.7999877E-01;  9.9999998E-03;  2.2000015E-01;1644;-0.0023880876;0.0;0.00027806932;1000.0182;  4.0000001E-01;15.110672;3;-3.1283162;0.0;0.3611204;0;-0.025427345;  1.0000415E+04;  0.0000000E+00;  5.8766334E-09;  1.0000000E+04;  0.0000000E+00;  9.9999502E+03;-0.02951481;0.0;0.0040874658;19.978254
  3.7999877E-01;  9.9999998E-03;  2.4000019E-01;1645;-0.002364753;0.0;0.00037628182;1000.0179;  4.0000001E-01;14.913147;3;-3.1527529;0.0;0.50168985;0;-0.025083359;  1.0000417E+04;  0.0000000E+00;  3.3000457E-08;  1.0000000E+04;  0.0000000E+00;  9.9999414E+03;-0.02985731;0.0;0.0047739511;22.910803
  3.7999883E-01;  9.9999998E-03;  2.6000026E-01;1646;-0.0023097997;0.0;0.00052014453;1000.0177;  4.0000001E-01;14.616859;3;-3.1604266;0.0;0.70753604;0;-0.024838883;  1.0000419E+04;  0.0000000E+00;  9.5039695E-08;  1.0000000E+04;  0.0000000E+00;  9.9999375E+03;-0.030078163;0.0;0.0052392804;24.450804
  3.7999889E-01;  9.9999998E-03;  2.8000036E-01;1647;-0.0022191803;0.0;0.00072037522;1000.0175;  4.0000001E-01;14.419334;3;-3.1496918;0.0;0.99780291;0;-0.024409024;  1.0000418E+04;  0.0000000E+00;  1.7817227E-07;  1.0000000E+04;  0.0000000E+00;  9.9999326E+03;-0.030173713;0.0;0.0057646893;25.801596
  3.7999895E-01;  9.9999998E-03;  3.0000049E-01;1648;-0.0020790547;0.0;0.00094379508;1000.0171;  4.0000001E-01;14.123047;3;-3.0927949;0.0;1.3478953;0;-0.023663484;  1.0000417E+04;  0.0000000E+00;  1.9052996E-07;  1.0000000E+04;  0.0000000E+00;  9.9999258E+03;-0.030168151;0.0;0.0065046684;27.753342
  3.9999834E-01;  9.9999998E-03;  1.6000009E-01;1672;-0.0030213967;0.0;0.00014913586;1000.0247;  4.0000001E-01;20.443846;3;-3.7025888;0.0;0.16003133;0;-0.032980174;  1.0000523E+04;  0.0000000E+00;  6.3113265E-10;  1.0000000E+04;  0.0000000E+00;  9.9999697E+03;-0.035292394;0.0;0.0023122225;13.279426
  3.9999834E-01;  9.9999998E-03;  1.8000011E-01;1673;-0.00305598;0.0;0.00019268888;1000.0245;  4.0000001E-01;20.345083;3;-3.7830904;0.0;0.21866685;0;-0.032897878;  1.0000530E+04;  0.0000000E+00; -1.2980435E-09;  1.0000000E+04;  0.0000000E+00;  9.9999590E+03;-0.036005065;0.0;0.0031071871;16.908478
  3.9999834E-01;  9.9999998E-03;  2.0000014E-01;1674;-0.0030839911;0.0;0.00025463494;1000.0242;  4.0000001E-01;20.048796;3;-3.8590477;0.0;0.30518466;0;-0.032665513;  1.0000537E+04;  0.0000000E+00; -1.5985167E-09;  1.0000000E+04;  0.0000000E+00;  9.9999482E+03;-0.036757592;0.0;0.0040920773;21.462334
  3.9999834E-01;  9.9999998E-03;  2.2000019E-01;1675;-0.0030941139;0.0;0.00034475783;1000.0239;  4.0000001E-01;19.752508;3;-3.9211698;0.0;0.42898491;0;-0.03235377;  1.0000544E+04;  0.0000000E+00;  1.0164763E-08;  1.0000000E+04;  0.0000000E+00;  9.9999346E+03;-0.037485674;0.0;0.0051319036;26.275532
  3.9999837E-01;  9.9999998E-03;  2.4000025E-01;1676;-0.0030793995;0.0;0.00046914312;1000.0236;  4.0000001E-01;19.554983;3;-3.9726248;0.0;0.60395694;0;-0.032096703;  1.0000550E+04;  0.0000000E+00;  5.2852482E-08;  1.0000000E+04;  0.0000000E+00;  9.9999238E+03;-0.038120344;0.0;0.0060236403;30.204117
  3.9999840E-01;  9.9999998E-03;  2.6000035E-01;1677;-0.0030226402;0.0;0.00065572199;1000.0235;  4.0000001E-01;19.456221;3;-4.0023494;0.0;0.86425185;0;-0.031935528;  1.0000554E+04;  0.0000000E+00;  1.4804313E-07;  1.0000000E+04;  0.0000000E+00;  9.9999180E+03;-0.038605783;0.0;0.0066702543;32.379822
  3.9999849E-01;  9.9999998E-03;  2.8000048E-01;1678;-0.0029152143;0.0;0.00092169194;1000.0233;  4.0000001E-01;19.258696;3;-4.0056801;0.0;1.2371057;0;-0.03141265;  1.0000555E+04;  0.0000000E+00;  2.6698618E-07;  1.0000000E+04;  0.0000000E+00;  9.9999092E+03;-0.038920693;0.0;0.0075080437;34.807728
  3.9999858E-01;  9.9999998E-03;  3.0000064E-01;1679;-0.0027401741;0.0;0.0012198222;1000.0226;  4.0000001E-01;18.666121;3;-3.9498131;0.0;1.6841111;0;-0.030366328;  1.0000556E+04;  0.0000000E+00;  2.7763599E-07;  1.0000000E+04;  0.0000000E+00;  9.9998965E+03;-0.039084073;0.0;0.0087177465;38.792767
  4.1999784E-01;  9.9999998E-03;  1.6000012E-01;1703;-0.0038387314;0.0;0.00019627059;1000.0318;  4.0000001E-01;26.369591;3;-4.5396242;0.0;0.19928324;0;-0.041068066;  1.0000676E+04;  0.0000000E+00;  1.6969571E-09;  1.0000000E+04;  0.0000000E+00;  9.9999600E+03;-0.043992955;0.0;0.0029248884;17.784918
  4.1999781E-01;  9.9999998E-03;  1.8000014E-01;1704;-0.003895821;0.0;0.00024739312;1000.0317;  4.0000001E-01;26.270828;3;-4.6591825;0.0;0.26404732;0;-0.04113308;  1.0000686E+04;  0.0000000E+00; -7.4898365E-10;  1.0000000E+04;  0.0000000E+00;  9.9999482E+03;-0.045005571;0.0;0.0038724921;22.361992
  4.1999781E-01;  9.9999998E-03;  2.0000018E-01;1705;-0.0039489106;0.0;0.00031984437;1000.0313;  4.0000001E-01;25.974541;3;-4.7780766;0.0;0.36156493;0;-0.041053317;  1.0000697E+04;  0.0000000E+00; -6.8537986E-10;  1.0000000E+04;  0.0000000E+00;  9.9999326E+03;-0.046123434;0.0;0.0050701145;28.183342
  4.1999781E-01;  9.9999998E-03;  2.2000024E-01;1706;-0.0039831046;0.0;0.00042694071;1000.0312;  4.0000001E-01;25.875778;3;-4.8834038;0.0;0.50732458;0;-0.040915083;  1.0000707E+04;  0.0000000E+00;  1.8430478E-08;  1.0000000E+04;  0.0000000E+00;  9.9999160E+03;-0.047266703;0.0;0.0063516209;34.388325
  4.1999781E-01;  9.9999998E-03;  2.4000032E-01;1707;-0.0039870297;0.0;0.00057982095;1000.031;  4.0000001E-01;25.678253;3;-4.9769568;0.0;0.71751893;0;-0.040874623;  1.0000719E+04;  0.0000000E+00;  8.4847017E-08;  1.0000000E+04;  0.0000000E+00;  9.9999004E+03;-0.048336066;0.0;0.0074614445;39.444729
  4.1999784E-01;  9.9999998E-03;  2.6000044E-01;1708;-0.0039366027;0.0;0.00081761234;1000.0311;  4.0000001E-01;25.777016;3;-5.042882;0.0;1.0435599;0;-0.040942896;  1.0000729E+04;  0.0000000E+00;  2.3210322E-07;  1.0000000E+04;  0.0000000E+00;  9.9998936E+03;-0.049239069;0.0;0.0082961721;42.191963
  4.1999793E-01;  9.9999998E-03;  2.8000063E-01;1709;-0.0038147359;0.0;0.0011678687;1000.0308;  4.0000001E-01;25.579491;3;-5.0706134;0.0;1.5180118;0;-0.040374078;  1.0000736E+04;  0.0000000E+00;  4.0266789E-07;  1.0000000E+04;  0.0000000E+00;  9.9998838E+03;-0.049924284;0.0;0.0095502082;45.968712
  4.1999808E-01;  9.9999998E-03;  3.0000088E-01;1710;-0.0035999913;0.0;0.0015682112;1000.0301;  4.0000001E-01;24.888153;3;-5.0220613;0.0;2.0915606;0;-0.038875021;  1.0000740E+04;  0.0000000E+00;  3.8032334E-07;  1.0000000E+04;  0.0000000E+00;  9.9998613E+03;-0.050395582;0.0;0.011520559;53.283619
  4.3999717E-01;  9.9999998E-03;  1.6000016E-01;1734;-0.0048452727;0.0;0.00026846497;1000.0406;  4.0000001E-01;33.579243;3;-5.5231056;0.0;0.26324344;0;-0.050661467;  1.0000866E+04;  0.0000000E+00;  4.2872119E-09;  1.0000000E+04;  0.0000000E+00;  9.9999463E+03;-0.05442239;0.0;0.0037609218;24.157784
  4.3999714E-01;  9.9999998E-03;  1.8000020E-01;1735;-0.0049338592;0.0;0.0003284071;1000.0404;  4.0000001E-01;33.48048;3;-5.6948981;0.0;0.33233446;0;-0.05095052;  1.0000880E+04;  0.0000000E+00;  2.8761551E-09;  1.0000000E+04;  0.0000000E+00;  9.9999316E+03;-0.05580575;0.0;0.0048552323;29.91017
  4.3999711E-01;  9.9999998E-03;  2.0000024E-01;1736;-0.0050235041;0.0;0.00041105569;1000.0402;  4.0000001E-01;33.282955;3;-5.8733606;0.0;0.43778801;0;-0.051128276;  1.0000896E+04;  0.0000000E+00;  5.8867844E-09;  1.0000000E+04;  0.0000000E+00;  9.9999121E+03;-0.057393555;0.0;0.0062652794;37.295383
  4.3999711E-01;  9.9999998E-03;  2.2000031E-01;1737;-0.0050964644;0.0;0.00053130044;1000.0402;  4.0000001E-01;33.282955;3;-6.0425658;0.0;0.59846771;0;-0.0513088;  1.0000912E+04;  0.0000000E+00;  3.7787498E-08;  1.0000000E+04;  0.0000000E+00;  9.9998916E+03;-0.059095159;0.0;0.0077863587;45.179394
  4.3999708E-01;  9.9999998E-03;  2.4000041E-01;1738;-0.005133755;0.0;0.00071405742;1000.0403;  4.0000001E-01;33.381718;3;-6.1990485;0.0;0.84548336;0;-0.051681139;  1.0000932E+04;  0.0000000E+00;  1.4796522E-07;  1.0000000E+04;  0.0000000E+00;  9.9998740E+03;-0.06077677;0.0;0.0090956325;51.432907
  4.3999711E-01;  9.9999998E-03;  2.6000056E-01;1739;-0.0051040966;0.0;0.0010074705;1000.0407;  4.0000001E-01;33.776768;3;-6.3230095;0.0;1.2400224;0;-0.052237317;  1.0000949E+04;  0.0000000E+00;  3.7929993E-07;  1.0000000E+04;  0.0000000E+00;  9.9998652E+03;-0.062297799;0.0;0.01006048;54.294201
  4.3999720E-01;  9.9999998E-03;  2.8000084E-01;1740;-0.0049756011;0.0;0.0014650654;1000.0407;  4.0000001E-01;33.776768;3;-6.3925748;0.0;1.8466473;0;-0.051779032;  1.0000966E+04;  0.0000000E+00;  6.1363994E-07;  1.0000000E+04;  0.0000000E+00;  9.9998506E+03;-0.063561238;0.0;0.011782207;59.070568
  4.3999738E-01;  9.9999998E-03;  3.0000114E-01;1741;-0.0047193617;0.0;0.0020027279;1000.0397;  4.0000001E-01;32.887905;3;-6.3625102;0.0;2.5817308;0;-0.049672104;  1.0000979E+04;  0.0000000E+00;  4.5347636E-07;  1.0000000E+04;  0.0000000E+00;  9.9998154E+03;-0.064541072;0.0;0.014868965;71.121765
  4.5999628E-01;  9.9999998E-03;  1.6000023E-01;1765;-0.0060845483;0.0;0.00038143035;1000.0516;  4.0000024E-01;42.764126;3;-6.6696773;0.0;0.37072468;0;-0.061733101;  1.0001096E+04;  0.0000000E+00;  1.4405646E-08;  1.0000000E+04;  0.0000000E+00;  9.9999238E+03;-0.066687144;0.0;0.0049540433;33.343342
  4.5999625E-01;  9.9999998E-03;  1.8000029E-01;1766;-0.0062149386;0.0;0.00045305979;1000.0517;  4.0000027E-01;42.862888;3;-6.9089746;0.0;0.44186807;0;-0.062324472;  1.0001113E+04;  0.0000000E+00;  1.4846957E-08;  1.0000000E+04;  0.0000000E+00;  9.9999063E+03;-0.068512686;0.0;0.006188212;40.717243
  4.5999622E-01;  9.9999998E-03;  2.0000035E-01;1767;-0.0063548372;0.0;0.00054667983;1000.0514;  4.0000024E-01;42.566601;3;-7.1677113;0.0;0.55314916;0;-0.062876321;  1.0001137E+04;  0.0000000E+00;  2.5172477E-08;  1.0000000E+04;  0.0000000E+00;  9.9998838E+03;-0.070680834;0.0;0.0078045125;50.227333
  4.5999616E-01;  9.9999998E-03;  2.2000042E-01;1768;-0.006484244;0.0;0.00067553215;1000.0516;  4.0000024E-01;42.764126;3;-7.4269085;0.0;0.71653342;0;-0.063548192;  1.0001165E+04;  0.0000000E+00;  9.0091639E-08;  1.0000000E+04;  0.0000000E+00;  9.9998574E+03;-0.073098309;0.0;0.0095501151;60.329449
  4.5999613E-01;  9.9999998E-03;  2.4000053E-01;1769;-0.0065749898;0.0;0.0008849299;1000.0522;  4.0000021E-01;43.257938;3;-7.6750441;0.0;0.99489158;0;-0.064598098;  1.0001195E+04;  0.0000000E+00;  2.8493679E-07;  1.0000000E+04;  0.0000000E+00;  9.9998369E+03;-0.075595558;0.0;0.010997456;67.878746
  4.5999616E-01;  9.9999998E-03;  2.6000074E-01;1770;-0.006588832;0.0;0.0012351758;1000.0532;  4.0000024E-01;44.048038;3;-7.8892641;0.0;1.4622979;0;-0.066040628;  1.0001226E+04;  0.0000000E+00;  6.6313044E-07;  1.0000000E+04;  0.0000000E+00;  9.9998301E+03;-0.077974163;0.0;0.011933533;69.831245
  4.5999622E-01;  9.9999998E-03;  2.8000107E-01;1771;-0.0064711692;0.0;0.0018196296;1000.0538;  4.0000024E-01;44.640614;3;-8.0293751;0.0;2.2205665;0;-0.066044532;  1.0001253E+04;  0.0000000E+00;  9.7020484E-07;  1.0000000E+04;  0.0000000E+00;  9.9998145E+03;-0.080075063;0.0;0.014030533;74.228271
  4.5999643E-01;  9.9999998E-03;  3.0000150E-01;1772;-0.0061798608;0.0;0.0025417127;1000.0526;  4.0000021E-01;43.554226;3;-8.0394144;0.0;3.1634128;0;-0.063161582;  1.0001277E+04;  0.0000000E+00;  4.9193898E-07;  1.0000000E+04;  0.0000000E+00;  9.9997646E+03;-0.081822954;0.0;0.018661374;92.554817
  4.7999516E-01;  9.9999998E-03;  1.6000035E-01;1796;-0.0076118433;0.0;0.00055825408;1000.0649;  4.0000075E-01;53.726715;3;-7.999083;0.0;0.55230677;0;-0.07395038;  1.0001369E+04;  0.0000000E+00;  4.5078526E-08;  1.0000000E+04;  0.0000000E+00;  9.9998975E+03;-0.080655642;0.0;0.0067052604;46.681026
  4.7999510E-01;  9.9999998E-03;  1.8000041E-01;1797;-0.0077945571;0.0;0.00064921548;1000.0648;  4.0000075E-01;53.726715;3;-8.3215237;0.0;0.62539256;0;-0.074899204;  1.0001395E+04;  0.0000000E+00;  5.0609721E-08;  1.0000000E+04;  0.0000000E+00;  9.9998701E+03;-0.082995951;0.0;0.0080967499;56.637917
  4.7999504E-01;  9.9999998E-03;  2.0000048E-01;1798;-0.0079988455;0.0;0.00075591326;1000.0649;  4.0000060E-01;53.825478;3;-8.6843529;0.0;0.73216575;0;-0.075919554;  1.0001425E+04;  0.0000000E+00;  8.0882444E-08;  1.0000000E+04;  0.0000000E+00;  9.9998408E+03;-0.085856207;0.0;0.0099366521;69.500389
  4.7999498E-01;  9.9999998E-03;  2.2000057E-01;1799;-0.0082032643;0.0;0.00089125521;1000.0652;  4.0000072E-01;54.022999;3;-9.0638371;0.0;0.88803136;0;-0.077241808;  1.0001464E+04;  0.0000000E+00;  2.1095313E-07;  1.0000000E+04;  0.0000000E+00;  9.9998057E+03;-0.089148179;0.0;0.011906374;83.049614
  4.7999492E-01;  9.9999998E-03;  2.4000071E-01;1800;-0.0083721643;0.0;0.001119853;1000.0663;  4.0000069E-01;54.911861;3;-9.441205;0.0;1.1855655;0;-0.079267405;  1.0001509E+04;  0.0000000E+00;  5.8915060E-07;  1.0000000E+04;  0.0000000E+00;  9.9997822E+03;-0.092667922;0.0;0.013400517;92.314819
  4.7999489E-01;  9.9999998E-03;  2.6000094E-01;1801;-0.0084642423;0.0;0.0015155937;1000.0685;  4.0000075E-01;56.788345;3;-9.7928562;0.0;1.711864;0;-0.082184732;  1.0001556E+04;  0.0000000E+00;  1.2668939E-06;  1.0000000E+04;  0.0000000E+00;  9.9997832E+03;-0.096155576;0.0;0.013970842;91.493637
  4.7999492E-01;  9.9999998E-03;  2.8000137E-01;1802;-0.0083913235;0.0;0.0022407882;1000.0706;  4.0000069E-01;58.467304;3;-10.048851;0.0;2.6357276;0;-0.08332479;  1.0001602E+04;  0.0000000E+00;  1.6977393E-06;  1.0000000E+04;  0.0000000E+00;  9.9997744E+03;-0.099376887;0.0;0.016052093;91.9067
  4.7999513E-01;  9.9999998E-03;  3.0000198E-01;1803;-0.0080914898;0.0;0.0032067108;1000.069;  4.0000072E-01;57.183395;3;-10.142915;0.0;3.8485093;0;-0.079610489;  1.0001644E+04;  0.0000000E+00;  5.2393125E-07;  1.0000000E+04;  0.0000000E+00;  9.9997051E+03;-0.10218345;0.0;0.022572959;116.57833
  4.9999374E-01;  9.9999998E-03;  1.6000050E-01;1827;-0.0094881691;0.0;0.00082765258;1000.0801;  4.0000162E-01;66.368225;3;-9.532795;0.0;0.84689432;0;-0.086464331;  1.0001674E+04;  0.0000000E+00;  1.1519203E-07;  1.0000000E+04;  0.0000000E+00;  9.9998506E+03;-0.095765479;0.0;0.0093011521;66.048294
  4.9999365E-01;  9.9999998E-03;  1.8000060E-01;1828;-0.0097320415;0.0;0.00095595873;1000.08;  4.0000156E-01;66.269463;3;-9.9524889;0.0;0.92997307;0;-0.087748468;  1.0001706E+04;  0.0000000E+00;  1.3201003E-07;  1.0000000E+04;  0.0000000E+00;  9.9998184E+03;-0.098696366;0.0;0.010947901;80.640961
  4.9999356E-01;  9.9999998E-03;  2.0000072E-01;1829;-0.010011639;0.0;0.0010880706;1000.08;  4.0000159E-01;66.269463;3;-10.441176;0.0;1.0269228;0;-0.089226738;  1.0001748E+04;  0.0000000E+00;  1.9558604E-07;  1.0000000E+04;  0.0000000E+00;  9.9997725E+03;-0.10235122;0.0;0.013124479;99.534348
  4.9999347E-01;  9.9999998E-03;  2.2000082E-01;1830;-0.010308729;0.0;0.0012324583;1000.0804;  4.0000162E-01;66.56575;3;-10.976412;0.0;1.1591518;0;-0.091241576;  1.0001803E+04;  0.0000000E+00;  4.7607642E-07;  1.0000000E+04;  0.0000000E+00;  9.9997266E+03;-0.1066476;0.0;0.01540602;119.3237
  4.9999335E-01;  9.9999998E-03;  2.4000098E-01;1831;-0.01058655;0.0;0.0014656101;1000.082;  4.0000159E-01;67.948425;3;-11.534617;0.0;1.4479568;0;-0.094490334;  1.0001866E+04;  0.0000000E+00;  1.2897672E-06;  1.0000000E+04;  0.0000000E+00;  9.9996963E+03;-0.11135158;0.0;0.016861243;131.68538
  4.9999323E-01;  9.9999998E-03;  2.6000124E-01;1832;-0.010803245;0.0;0.0018828214;1000.0861;  4.0000159E-01;71.306343;3;-12.08152;0.0;1.9990666;0;-0.09962593;  1.0001932E+04;  0.0000000E+00;  2.6915352E-06;  1.0000000E+04;  0.0000000E+00;  9.9997119E+03;-0.11615116;0.0;0.016525233;125.2821
  4.9999321E-01;  9.9999998E-03;  2.8000179E-01;1833;-0.010838847;0.0;0.0027475075;1000.0901;  4.0000162E-01;74.664253;3;-12.527547;0.0;3.0886979;0;-0.10309057;  1.0001998E+04;  0.0000000E+00;  3.4280479E-06;  1.0000000E+04;  0.0000000E+00;  9.9997275E+03;-0.12073669;0.0;0.017646121;114.1521
  4.9999335E-01;  9.9999998E-03;  3.0000263E-01;1834;-0.010600622;0.0;0.004031715;1000.0892;  4.0000159E-01;73.874161;3;-12.789639;0.0;4.646565;0;-0.098695628;  1.0002060E+04;  0.0000000E+00;  7.6680988E-07;  1.0000000E+04;  0.0000000E+00;  9.9996455E+03;-0.12486278;0.0;0.026167149;142.14066
  5.1999193E-01;  9.9999998E-03;  1.6000073E-01;1858;-0.011765315;0.0;0.0012198305;1000.0997;  4.0000448E-01;82.565125;3;-11.288945;0.0;1.3026381;0;-0.097693518;  1.0001986E+04;  0.0000000E+00;  2.4349609E-07;  1.0000000E+04;  0.0000000E+00;  9.9997852E+03;-0.11084604;0.0;0.013152514;94.235901
  5.1999182E-01;  9.9999998E-03;  1.8000089E-01;1859;-0.012077309;0.0;0.0014190242;1000.0991;  4.0000442E-01;82.071312;3;-11.817739;0.0;1.4223486;0;-0.099096261;  1.0002030E+04;  0.0000000E+00;  2.5761631E-07;  1.0000000E+04;  0.0000000E+00;  9.9997324E+03;-0.11443398;0.0;0.015337718;117.59955
  5.1999170E-01;  9.9999998E-03;  2.0000106E-01;1860;-0.012436885;0.0;0.001609931;1000.0986;  4.0000448E-01;81.676262;3;-12.449483;0.0;1.5187693;0;-0.10075848;  1.0002086E+04;  0.0000000E+00;  3.7438434E-07;  1.0000000E+04;  0.0000000E+00;  9.9996631E+03;-0.11894423;0.0;0.018185753;147.88651
  5.1999158E-01;  9.9999998E-03;  2.2000122E-01;1861;-0.012837482;0.0;0.0017845422;1000.0984;  4.0000442E-01;81.478737;3;-13.175649;0.0;1.6059344;0;-0.10320558;  1.0002155E+04;  0.0000000E+00;  1.0279573E-06;  1.0000000E+04;  0.0000000E+00;  9.9995918E+03;-0.124289;0.0;0.021083413;179.541
  5.1999140E-01;  9.9999998E-03;  2.4000141E-01;1862;-0.013254458;0.0;0.0020108374;1000.1003;  4.0000442E-01;83.058937;3;-13.971315;0.0;1.8446279;0;-0.10769276;  1.0002238E+04;  0.0000000E+00;  2.9720961E-06;  1.0000000E+04;  0.0000000E+00;  9.9995498E+03;-0.13021319;0.0;0.022520419;198.45667
  5.1999116E-01;  9.9999998E-03;  2.6000169E-01;1863;-0.013659732;0.0;0.0024126631;1000.1065;  4.0000439E-01;88.194565;3;-14.789505;0.0;2.3586717;0;-0.11583752;  1.0002323E+04;  0.0000000E+00;  6.2843560E-06;  1.0000000E+04;  0.0000000E+00;  9.9995869E+03;-0.13637903;0.0;0.020541513;183.2464
  5.1999098E-01;  9.9999998E-03;  2.8000236E-01;1864;-0.013913946;0.0;0.0034037337;1000.1146;  4.0000445E-01;95.009148;3;-15.538774;0.0;3.5948508;0;-0.12331156;  1.0002413E+04;  0.0000000E+00;  7.8942039E-06;  1.0000000E+04;  0.0000000E+00;  9.9996582E+03;-0.14242259;0.0;0.019111022;148.45827
  5.1999092E-01;  9.9999998E-03;  3.0000353E-01;1865;-0.013880072;0.0;0.0050726668;1000.1149;  4.0000436E-01;95.206673;3;-16.102758;0.0;5.5425463;0;-0.11894776;  1.0002499E+04;  0.0000000E+00;  2.0994587E-06;  1.0000000E+04;  0.0000000E+00;  9.9995811E+03;-0.14798859;0.0;0.029040826;171.18549
  5.3998971E-01;  9.9999998E-03;  1.6000104E-01;1889;-0.014461829;0.0;0.0017658815;1000.1269;  4.0001169E-01;105.08269;3;-13.283655;0.0;1.9356507;0;-0.10514956;  1.0002269E+04;  0.0000000E+00;  3.9858915E-07;  1.0000000E+04;  0.0000000E+00;  9.9996875E+03;-0.12401619;0.0;0.018866628;135.59093
  5.3998959E-01;  9.9999998E-03;  1.8000129E-01;1890;-0.014845173;0.0;0.0020824629;1000.1251;  4.0001169E-01;103.70002;3;-13.910261;0.0;2.1730254;0;-0.10607024;  1.0002321E+04;  0.0000000E+00;  3.5757540E-07;  1.0000000E+04;  0.0000000E+00;  9.9995967E+03;-0.12827599;0.0;0.022205757;175.28766
  5.3998941E-01;  9.9999998E-03;  2.0000154E-01;1891;-0.015282977;0.0;0.0023917849;1000.1229;  4.0001169E-01;101.82354;3;-14.683923;0.0;2.329174;0;-0.10716981;  1.0002392E+04;  0.0000000E+00;  5.6473414E-07;  1.0000000E+04;  0.0000000E+00;  9.9994824E+03;-0.13360047;0.0;0.026430657;226.4278
  5.3998929E-01;  9.9999998E-03;  2.2000182E-01;1892;-0.015784653;0.0;0.0026632973;1000.1213;  4.0001175E-01;100.44088;3;-15.641949;0.0;2.3761175;0;-0.10926312;  1.0002478E+04;  0.0000000E+00;  2.1631406E-06;  1.0000000E+04;  0.0000000E+00;  9.9993662E+03;-0.13987416;0.0;0.030611038;279.33905
  5.3998905E-01;  9.9999998E-03;  2.4000210E-01;1893;-0.016362155;0.0;0.0028991681;1000.1227;  4.0001175E-01;101.72478;3;-16.726593;0.0;2.509325;0;-0.11452627;  1.0002575E+04;  0.0000000E+00;  7.0716815E-06;  1.0000000E+04;  0.0000000E+00;  9.9992969E+03;-0.1468273;0.0;0.032301024;311.36203
  5.3998870E-01;  9.9999998E-03;  2.6000243E-01;1894;-0.017038921;0.0;0.0032497237;1000.1314;  4.0001166E-01;108.83564;3;-17.93355;0.0;2.8837016;0;-0.12633686;  1.0002680E+04;  0.0000000E+00;  1.5454038E-05;  1.0000000E+04;  0.0000000E+00;  9.9993633E+03;-0.15413667;0.0;0.027799815;285.68216
  5.3998816E-01;  9.9999998E-03;  2.8000325E-01;1895;-0.017678043;0.0;0.0043325177;1000.1452;  4.0001166E-01;120.29202;3;-19.129492;0.0;4.1838946;0;-0.14001489;  1.0002787E+04;  0.0000000E+00;  1.9402296E-05;  1.0000000E+04;  0.0000000E+00;  9.9995322E+03;-0.16143207;0.0;0.021417184;210.43486
  5.3998774E-01;  9.9999998E-03;  3.0000481E-01;1896;-0.018092996;0.0;0.0064500207;1000.1489;  4.0001169E-01;123.35365;3;-20.204523;0.0;6.5621605;0;-0.13716406;  1.0002891E+04;  0.0000000E+00;  6.8175877E-06;  1.0000000E+04;  0.0000000E+00;  9.9995010E+03;-0.16826487;0.0;0.031100817;210.22198
  5.5998713E-01;  9.9999998E-03;  1.6000144E-01;1920;-0.01753019;0.0;0.0024913058;1000.1785;  4.0003142E-01;147.84624;3;-15.478364;0.0;2.8093481;0;-0.10533404;  1.0002461E+04;  0.0000000E+00;  4.5963191E-07;  1.0000000E+04;  0.0000000E+00;  9.9995400E+03;-0.13263461;0.0;0.02730057;196.42972
  5.5998695E-01;  9.9999998E-03;  1.8000180E-01;1921;-0.017999478;0.0;0.0029670401;1000.1742;  4.0003142E-01;144.29082;3;-16.219006;0.0;3.1924231;0;-0.10457538;  1.0002524E+04;  0.0000000E+00;  1.9876211E-07;  1.0000000E+04;  0.0000000E+00;  9.9993877E+03;-0.13745245;0.0;0.032877073;264.66373
  5.5998677E-01;  9.9999998E-03;  2.0000218E-01;1922;-0.018522818;0.0;0.003451999;1000.1686;  4.0003142E-01;139.64902;3;-17.120962;0.0;3.4990451;0;-0.10370892;  1.0002604E+04;  0.0000000E+00;  5.8148953E-07;  1.0000000E+04;  0.0000000E+00;  9.9991963E+03;-0.14336114;0.0;0.03965221;351.22098
  5.5998659E-01;  9.9999998E-03;  2.2000259E-01;1923;-0.01911121;0.0;0.0039052807;1000.1638;  4.0003151E-01;135.69856;3;-18.163488;0.0;3.7654729;0;-0.10414146;  1.0002699E+04;  0.0000000E+00;  4.4840722E-06;  1.0000000E+04;  0.0000000E+00;  9.9990049E+03;-0.15018889;0.0;0.04604743;438.7211
  5.5998635E-01;  9.9999998E-03;  2.4000306E-01;1924;-0.019840663;0.0;0.0042704334;1000.1634;  4.0003145E-01;135.40227;3;-19.627243;0.0;3.7305651;0;-0.10907815;  1.0002808E+04;  0.0000000E+00;  1.6621645E-05;  1.0000000E+04;  0.0000000E+00;  9.9988896E+03;-0.1576557;0.0;0.048577551;492.34259
  5.5998582E-01;  9.9999998E-03;  2.6000366E-01;1925;-0.020845342;0.0;0.0046394826;1000.1736;  4.0003142E-01;143.79701;3;-21.422792;0.0;3.7341218;0;-0.12426656;  1.0002919E+04;  0.0000000E+00;  3.7212969E-05;  1.0000000E+04;  0.0000000E+00;  9.9989805E+03;-0.16549389;0.0;0.041227322;458.67313
  5.5998486E-01;  9.9999998E-03;  2.8000474E-01;1926;-0.022077186;0.0;0.0057827621;1000.1944;  4.0003145E-01;161.08031;3;-23.264971;0.0;4.9549437;0;-0.14632753;  1.0003035E+04;  0.0000000E+00;  4.6988280E-05;  1.0000000E+04;  0.0000000E+00;  9.9992803E+03;-0.1733986;0.0;0.027071068;330.25284
  5.5998367E-01;  9.9999998E-03;  3.0000681E-01;1927;-0.023299674;0.0;0.008377702;1000.2037;  4.0003145E-01;168.78372;3;-25.119598;0.0;7.7128835;0;-0.14738561;  1.0003149E+04;  0.0000000E+00;  1.9383069E-05;  1.0000000E+04;  0.0000000E+00;  9.9993506E+03;-0.18088944;0.0;0.033503827;283.48114
  5.7998437E-01;  9.9999998E-03;  1.6000193E-01;1951;-0.02082997;0.0;0.0033975793;1000.3004;  4.0008393E-01;248.8786;3;-17.812138;0.0;3.9291313;0;-0.093701825;  1.0002482E+04;  0.0000000E+00;  2.2618148E-07;  1.0000000E+04;  0.0000000E+00;  9.9993291E+03;-0.13318819;0.0;0.039486364;284.33316
  5.7998413E-01;  9.9999998E-03;  1.8000241E-01;1952;-0.021407925;0.0;0.004075597;1000.2912;  4.0008396E-01;241.27397;3;-18.68129;0.0;4.5051351;0;-0.089343131;  1.0002554E+04;  0.0000000E+00; -5.8919562E-07;  1.0000000E+04;  0.0000000E+00;  9.9990732E+03;-0.13823667;0.0;0.048893537;398.23007
  5.7998389E-01;  9.9999998E-03;  2.0000292E-01;1953;-0.02207944;0.0;0.0047465567;1000.2797;  4.0008396E-01;231.69412;3;-19.721851;0.0;4.9928212;0;-0.084377989;  1.0002638E+04;  0.0000000E+00;  1.2041255E-07;  1.0000000E+04;  0.0000000E+00;  9.9987578E+03;-0.14422487;0.0;0.059846882;539.71625
  5.7998359E-01;  9.9999998E-03;  2.2000356E-01;1954;-0.022784885;0.0;0.0054743104;1000.269;  4.0008393E-01;222.8056;3;-20.938503;0.0;5.4319749;0;-0.081138887;  1.0002732E+04;  0.0000000E+00;  8.9833648E-06;  1.0000000E+04;  0.0000000E+00;  9.9984502E+03;-0.15090311;0.0;0.069764219;679.62561
  5.7998317E-01;  9.9999998E-03;  2.4000433E-01;1955;-0.023659497;0.0;0.0061181956;1000.2651;  4.0008396E-01;219.64525;3;-22.445585;0.0;5.5831032;0;-0.084595494;  1.0002833E+04;  0.0000000E+00;  3.6215315E-05;  1.0000000E+04;  0.0000000E+00;  9.9982715E+03;-0.15800115;0.0;0.073405661;764.39282
  5.7998252E-01;  9.9999998E-03;  2.6000550E-01;1956;-0.024893286;0.0;0.0068619871;1000.2759;  4.0008396E-01;228.53377;3;-24.734831;0.0;5.4841337;0;-0.10174435;  1.0002939E+04;  0.0000000E+00;  8.2020655E-05;  1.0000000E+04;  0.0000000E+00;  9.9983809E+03;-0.16535291;0.0;0.063608564;725.31964
  5.7998115E-01;  9.9999998E-03;  2.8000730E-01;1957;-0.026877403;0.0;0.0082164016;1000.3012;  4.0008393E-01;249.56993;3;-27.724569;0.0;6.0435658;0;-0.13133509;  1.0003049E+04;  0.0000000E+00;  1.0425639E-04;  1.0000000E+04;  0.0000000E+00;  9.9987754E+03;-0.17277789;0.0;0.0414428;561.67029
  5.7997888E-01;  9.9999998E-03;  3.0000997E-01;1958;-0.02931927;0.0;0.011254149;1000.3182;  4.0008396E-01;263.59406;3;-30.696121;0.0;9.0951805;0;-0.13961451;  1.0003152E+04;  0.0000000E+00;  4.6637695E-05;  1.0000000E+04;  0.0000000E+00;  9.9990078E+03;-0.17985971;0.0;0.040245205;444.02863
  5.9998155E-01;  9.9999998E-03;  1.6000247E-01;1982;-0.024143966;0.0;0.0044355923;1000.6074;  4.0021726E-01;503.1868;3;-20.167507;0.0;5.2316966;0;-0.065040261;  1.0002254E+04;  0.0000000E+00; -5.0056246E-07;  1.0000000E+04;  0.0000000E+00;  9.9990322E+03;-0.1213803;0.0;0.056340039;405.75378
  5.9998125E-01;  9.9999998E-03;  1.8000308E-01;1983;-0.024870407;0.0;0.005363645;1000.5905;  4.0021721E-01;489.26151;3;-21.167419;0.0;6.1228423;0;-0.054529957;  1.0002320E+04;  0.0000000E+00; -2.3783139E-06;  1.0000000E+04;  0.0000000E+00;  9.9986279E+03;-0.12608507;0.0;0.071555115;585.91229
  5.9998083E-01;  9.9999998E-03;  2.0000380E-01;1984;-0.025710685;0.0;0.0063344399;1000.5699;  4.0021726E-01;472.17587;3;-22.355358;0.0;6.88415;0;-0.042691298;  1.0002397E+04;  0.0000000E+00; -9.5260646E-07;  1.0000000E+04;  0.0000000E+00;  9.9981387E+03;-0.13136412;0.0;0.088672824;805.26666
  5.9998041E-01;  9.9999998E-03;  2.2000474E-01;1985;-0.026643325;0.0;0.0073833927;1000.5503;  4.0021732E-01;455.88034;3;-23.781986;0.0;7.4555545;0;-0.033332646;  1.0002478E+04;  0.0000000E+00;  1.6713175E-05;  1.0000000E+04;  0.0000000E+00;  9.9976689E+03;-0.13689984;0.0;0.1035672;1018.3217
  5.9997988E-01;  9.9999998E-03;  2.4000612E-01;1986;-0.027703628;0.0;0.0085820565;1000.5403;  4.0021726E-01;447.58441;3;-25.526978;0.0;7.8137751;0;-0.033166587;  1.0002555E+04;  0.0000000E+00;  6.9699534E-05;  1.0000000E+04;  0.0000000E+00;  9.9973906E+03;-0.14247216;0.0;0.10930558;1150.8053
  5.9997886E-01;  9.9999998E-03;  2.6000822E-01;1987;-0.029275956;0.0;0.009964305;1000.5492;  4.0021729E-01;454.99149;3;-27.869736;0.0;7.7348356;0;-0.051463202;  1.0002633E+04;  0.0000000E+00;  1.5660448E-04;  1.0000000E+04;  0.0000000E+00;  9.9974902E+03;-0.14805733;0.0;0.096594125;1121.9121
  5.9997714E-01;  9.9999998E-03;  2.8001153E-01;1988;-0.031795248;0.0;0.01228031;1000.5718;  4.0021724E-01;473.65729;3;-31.846298;0.0;8.0563116;0;-0.082193904;  1.0002711E+04;  0.0000000E+00;  1.9974740E-04;  1.0000000E+04;  0.0000000E+00;  9.9978604E+03;-0.15365405;0.0;0.07146015;974.31506
  5.9997392E-01;  9.9999998E-03;  3.0001521E-01;1989;-0.035582691;0.0;0.015681285;1000.5934;  4.0021726E-01;491.63177;3;-36.415012;0.0;10.688556;0;-0.099152535;  1.0002787E+04;  0.0000000E+00;  9.3927367E-05;  1.0000000E+04;  0.0000000E+00;  9.9982158E+03;-0.1589919;0.0;0.059839368;811.69934
  6.1997890E-01;  9.9999998E-03;  1.6000307E-01;2013;-0.02724541;0.0;0.0056829592;1001.3234;  4.0052244E-01;1096.3381;3;-22.373413;0.0;6.9420071;0;-0.014851518;  1.0001701E+04;  0.0000000E+00; -1.7135754E-06;  1.0000000E+04;  0.0000000E+00;  9.9986455E+03;-0.093044013;0.0;0.078192495;562.43427
  6.1997843E-01;  9.9999998E-03;  1.8000384E-01;2014;-0.028159289;0.0;0.006902108;1001.296;  4.0052241E-01;1073.7219;3;-23.530273;0.0;8.107667;0;0.0046181381;  1.0001753E+04;  0.0000000E+00; -4.9464343E-06;  1.0000000E+04;  0.0000000E+00;  9.9980449E+03;-0.096653201;0.0;0.10127134;829.67871
  6.1997795E-01;  9.9999998E-03;  2.0000485E-01;2015;-0.029194668;0.0;0.0082812784;1001.2628;  4.0052250E-01;1046.1678;3;-24.87179;0.0;9.2079086;0;0.026313573;  1.0001808E+04;  0.0000000E+00; -2.2416129E-06;  1.0000000E+04;  0.0000000E+00;  9.9973311E+03;-0.10029554;0.0;0.12660912;1149.845
  6.1997730E-01;  9.9999998E-03;  2.2000635E-01;2016;-0.030402267;0.0;0.009910237;1001.2312;  4.0052253E-01;1019.9964;3;-26.490345;0.0;10.087976;0;0.044676028;  1.0001855E+04;  0.0000000E+00;  2.7596161E-05;  1.0000000E+04;  0.0000000E+00;  9.9966523E+03;-0.10362308;0.0;0.14829911;1458.8256
  6.1997640E-01;  9.9999998E-03;  2.4000888E-01;2017;-0.03189718;0.0;0.012014731;1001.2108;  4.0052253E-01;1003.1083;3;-28.597343;0.0;10.452468;0;0.051384352;  1.0001895E+04;  0.0000000E+00;  1.1390931E-04;  1.0000000E+04;  0.0000000E+00;  9.9962070E+03;-0.10650439;0.0;0.15788874;1668.7043
  6.1997527E-01;  9.9999998E-03;  2.6001322E-01;2018;-0.03373849;0.0;0.015146815;1001.2067;  4.0052247E-01;999.65173;3;-31.582378;0.0;10.36272;0;0.041324422;  1.0001927E+04;  0.0000000E+00;  2.5260772E-04;  1.0000000E+04;  0.0000000E+00;  9.9960918E+03;-0.10908508;0.0;0.1504095;1739.5659
  6.1997330E-01;  9.9999998E-03;  2.8001890E-01;2019;-0.036603037;0.0;0.01896861;1001.2113;  4.0052244E-01;1003.5034;3;-35.935543;0.0;10.452287;0;0.020111158;  1.0001955E+04;  0.0000000E+00;  3.2039487E-04;  1.0000000E+04;  0.0000000E+00;  9.9961523E+03;-0.11158001;0.0;0.13169117;1738.9385
  6.1996955E-01;  9.9999998E-03;  3.0002385E-01;2020;-0.041250948;0.0;0.022721017;1001.2299;  4.0052250E-01;1018.91;3;-41.877949;0.0;12.390961;0;-0.0020882934;  1.0001983E+04;  0.0000000E+00;  1.5623940E-04;  1.0000000E+04;  0.0000000E+00;  9.9964922E+03;-0.11393338;0.0;0.11184508;1595.7771
  6.3997656E-01;  9.9999998E-03;  1.6000377E-01;2044;-0.029994473;0.0;0.0071182824;1002.6525;  4.0108144E-01;2197.3987;3;-24.26371;0.0;8.8102322;0;0.058421161;  1.0000804E+04;  0.0000000E+00; -2.8862789E-06;  1.0000000E+04;  0.0000000E+00;  9.9981875E+03;-0.045919698;0.0;0.10434086;748.26178
  6.3997597E-01;  9.9999998E-03;  1.8000479E-01;2045;-0.031034663;0.0;0.0087533854;1002.6118;  4.0108132E-01;2163.8203;3;-25.518921;0.0;10.423747;0;0.089265898;  1.0000830E+04;  0.0000000E+00; -7.1677982E-06;  1.0000000E+04;  0.0000000E+00;  9.9973516E+03;-0.047696587;0.0;0.13696249;1119.0326
  6.3997525E-01;  9.9999998E-03;  2.0000625E-01;2046;-0.032314621;0.0;0.010705032;1002.5637;  4.0108132E-01;2123.9216;3;-27.003098;0.0;11.94348;0;0.12331635;  1.0000850E+04;  0.0000000E+00; -2.8036611E-06;  1.0000000E+04;  0.0000000E+00;  9.9963701E+03;-0.048915964;0.0;0.17223231;1558.5267
  6.3997442E-01;  9.9999998E-03;  2.2000889E-01;2047;-0.033752747;0.0;0.013556257;1002.5163;  4.0108144E-01;2084.6152;3;-28.75948;0.0;13.414106;0;0.15364984;  1.0000854E+04;  0.0000000E+00;  3.8564853E-05;  1.0000000E+04;  0.0000000E+00;  9.9954248E+03;-0.049264081;0.0;0.20291393;1987.5143
  6.3997346E-01;  9.9999998E-03;  2.4001391E-01;2048;-0.035278756;0.0;0.018165851;1002.4781;  4.0108144E-01;2053.0122;3;-30.995716;0.0;14.825067;0;0.17457598;  1.0000843E+04;  0.0000000E+00;  1.5413319E-04;  1.0000000E+04;  0.0000000E+00;  9.9946729E+03;-0.048713915;0.0;0.22328991;2334.9922
  6.3997251E-01;  9.9999998E-03;  2.6002195E-01;2049;-0.03707993;0.0;0.024555715;1002.4432;  4.0108144E-01;2024.0757;3;-34.178123;0.0;15.571979;0;0.1907409;  1.0000819E+04;  0.0000000E+00;  3.3595428E-04;  1.0000000E+04;  0.0000000E+00;  9.9939951E+03;-0.047545429;0.0;0.23828633;2654.2297
  6.3997066E-01;  9.9999998E-03;  2.8003100E-01;2050;-0.040135734;0.0;0.03007355;1002.4023;  4.0108144E-01;1990.2012;3;-39.420372;0.0;14.245954;0;0.1995025;  1.0000790E+04;  0.0000000E+00;  4.2395192E-04;  1.0000000E+04;  0.0000000E+00;  9.9932100E+03;-0.046153091;0.0;0.24565558;3039.1626
  6.3996655E-01;  9.9999998E-03;  3.0003715E-01;2051;-0.045346931;0.0;0.033349209;1002.4086;  4.0108147E-01;1995.4354;3;-46.107872;0.0;14.641665;0;0.17033993;  1.0000762E+04;  0.0000000E+00;  2.0940833E-04;  1.0000000E+04;  0.0000000E+00;  9.9933623E+03;-0.044742808;0.0;0.21508273;3006.303
  6.5997487E-01;  9.9999998E-03;  1.6000463E-01;2075;-0.032102741;0.0;0.0088457549;1004.3223;  4.0178320E-01;3580.7817;3;-25.863764;0.0;11.079426;0;0.15106344;  9.9996182E+03;  0.0000000E+00; -3.2810394E-06;  1.0000000E+04;  0.0000000E+00;  9.9976904E+03;0.018162441;0.0;0.132901;948.73083
  6.5997422E-01;  9.9999998E-03;  1.8000598E-01;2076;-0.033264022;0.0;0.011041082;1004.2674;  4.0178320E-01;3535.353;3;-27.177944;0.0;13.300052;0;0.19458194;  9.9996123E+03;  0.0000000E+00; -7.6698998E-06;  1.0000000E+04;  0.0000000E+00;  9.9966016E+03;0.018700693;0.0;0.17588125;1430.5073
  6.5997332E-01;  9.9999998E-03;  2.0000824E-01;2077;-0.034662958;0.0;0.014087389;1004.2026;  4.0178323E-01;3481.6284;3;-28.693727;0.0;15.717254;0;0.24234344;  9.9995918E+03;  0.0000000E+00; -2.0537593E-06;  1.0000000E+04;  0.0000000E+00;  9.9953301E+03;0.020267412;0.0;0.22207603;1998.5057
  6.5997243E-01;  9.9999998E-03;  2.2001265E-01;2078;-0.036185324;0.0;0.019060748;1004.1378;  4.0178329E-01;3428.0024;3;-30.455494;0.0;18.597282;0;0.28701451;  9.9995508E+03;  0.0000000E+00;  4.3925600E-05;  1.0000000E+04;  0.0000000E+00;  9.9940801E+03;0.023065327;0.0;0.26394919;2564.0095
  6.5997159E-01;  9.9999998E-03;  2.4002089E-01;2079;-0.037587345;0.0;0.027190249;1004.0768;  4.0178332E-01;3377.4382;3;-32.509384;0.0;21.916475;0;0.32832778;  9.9994922E+03;  0.0000000E+00;  1.6751606E-04;  1.0000000E+04;  0.0000000E+00;  9.9929199E+03;0.027023578;0.0;0.30130419;3090.0767
  6.5997100E-01;  9.9999998E-03;  2.6003370E-01;2080;-0.038878515;0.0;0.037907273;1003.9966;  4.0178335E-01;3310.9739;3;-35.400219;0.0;23.933262;0;0.38666674;  9.9994180E+03;  0.0000000E+00;  3.5766306E-04;  1.0000000E+04;  0.0000000E+00;  9.9913965E+03;0.031833645;0.0;0.3548331;3775.0547
  6.5996951E-01;  9.9999998E-03;  2.8004646E-01;2081;-0.041649245;0.0;0.044769958;1003.8927;  4.0178341E-01;3224.8564;3;-40.881821;0.0;19.985834;0;0.43894854;  9.9993369E+03;  0.0000000E+00;  4.4673044E-04;  1.0000000E+04;  0.0000000E+00;  9.9894053E+03;0.037045915;0.0;0.40190262;4706.8823
  6.5996575E-01;  9.9999998E-03;  3.0005336E-01;2082;-0.046981063;0.0;0.046486367;1003.884;  4.0178341E-01;3217.6472;3;-48.535011;0.0;17.303242;0;0.39856786;  9.9992549E+03;  0.0000000E+00;  2.2094029E-04;  1.0000000E+04;  0.0000000E+00;  9.9893135E+03;0.042191342;0.0;0.35637653;4820.8511
  6.7997468E-01;  9.9999998E-03;  1.6000552E-01;2106;-0.032705434;0.0;0.010778191;1005.6299;  4.0234244E-01;4663.9922;3;-26.653509;0.0;13.771576;0;0.2527225;  9.9983057E+03;  0.0000000E+00; -2.6428227E-06;  1.0000000E+04;  0.0000000E+00;  9.9972021E+03;0.091566123;0.0;0.16115639;1144.2545
  6.7997402E-01;  9.9999998E-03;  1.8000722E-01;2107;-0.03391289;0.0;0.013589517;1005.5611;  4.0234241E-01;4607.0093;3;-28.061722;0.0;16.723297;0;0.30861622;  9.9982695E+03;  0.0000000E+00; -6.1312849E-06;  1.0000000E+04;  0.0000000E+00;  9.9958682E+03;0.094484039;0.0;0.21413217;1732.9042
  6.7997319E-01;  9.9999998E-03;  2.0001023E-01;2108;-0.035373081;0.0;0.017679775;1005.4806;  4.0234253E-01;4540.3486;3;-29.703176;0.0;20.097149;0;0.36944744;  9.9982129E+03;  0.0000000E+00; -5.7403156E-07;  1.0000000E+04;  0.0000000E+00;  9.9943232E+03;0.098654859;0.0;0.27079257;2423.8425
  6.7997235E-01;  9.9999998E-03;  2.2001630E-01;2109;-0.036811702;0.0;0.024721738;1005.3996;  4.0234259E-01;4473.1938;3;-31.428272;0.0;24.52705;0;0.42738083;  9.9981367E+03;  0.0000000E+00;  3.9805360E-05;  1.0000000E+04;  0.0000000E+00;  9.9927832E+03;0.10410873;0.0;0.32327211;3118.1821
  6.7997175E-01;  9.9999998E-03;  2.4002755E-01;2110;-0.037917603;0.0;0.036258962;1005.3179;  4.0234262E-01;4405.5454;3;-33.306866;0.0;29.977398;0;0.48732084;  9.9980439E+03;  0.0000000E+00;  1.4453493E-04;  1.0000000E+04;  0.0000000E+00;  9.9912490E+03;0.11069383;0.0;0.376627;3807.2041
  6.7997158E-01;  9.9999998E-03;  2.6004446E-01;2111;-0.038603868;0.0;0.050790321;1005.2001;  4.0234274E-01;4307.9736;3;-35.65089;0.0;33.208073;0;0.58231902;  9.9979375E+03;  0.0000000E+00;  3.0172904E-04;  1.0000000E+04;  0.0000000E+00;  9.9890078E+03;0.11816525;0.0;0.46415374;4799.5029
  6.7997062E-01;  9.9999998E-03;  2.8006035E-01;2112;-0.040691193;0.0;0.058493346;1005.0463;  4.0234292E-01;4180.4785;3;-40.530254;0.0;26.236563;0;0.66857028;  9.9978184E+03;  0.0000000E+00;  3.7102730E-04;  1.0000000E+04;  0.0000000E+00;  9.9860586E+03;0.12615055;0.0;0.54241973;6167.894
  6.7996812E-01;  9.9999998E-03;  3.0006763E-01;2113;-0.044435758;0.0;0.058261096;1005.0345;  4.0234289E-01;4170.7017;3;-46.925804;0.0;20.058199;0;0.60692251;  9.9977012E+03;  0.0000000E+00;  1.8947564E-04;  1.0000000E+04;  0.0000000E+00;  9.9859385E+03;0.1339609;0.0;0.47296157;6334.8047
  6.9997746E-01;  9.9999998E-03;  1.6000636E-01;2137;-0.030208427;0.0;0.012576874;1006.3122;  4.0264791E-01;5229.1709;3;-25.929735;0.0;16.343021;0;0.34752557;  9.9971162E+03;  0.0000000E+00; -1.4340148E-06;  1.0000000E+04;  0.0000000E+00;  9.9967715E+03;0.16117711;0.0;0.18634845;1316.2227
  6.9997686E-01;  9.9999998E-03;  1.8000834E-01;2138;-0.031307939;0.0;0.01590579;1006.2314;  4.0264800E-01;5162.2153;3;-27.307138;0.0;19.938679;0;0.41397268;  9.9970518E+03;  0.0000000E+00; -3.6105466E-06;  1.0000000E+04;  0.0000000E+00;  9.9952285E+03;0.16610539;0.0;0.2478673;1997.1588
  6.9997621E-01;  9.9999998E-03;  2.0001195E-01;2139;-0.032552604;0.0;0.020897035;1006.1379;  4.0264806E-01;5084.6924;3;-28.85137;0.0;24.181959;0;0.48560178;  9.9969717E+03;  0.0000000E+00;  4.3245504E-07;  1.0000000E+04;  0.0000000E+00;  9.9934443E+03;0.17224298;0.0;0.31335878;2793.7031
  6.9997561E-01;  9.9999998E-03;  2.2001918E-01;2140;-0.033711106;0.0;0.02941322;1006.0438;  4.0264815E-01;5006.7749;3;-30.398756;0.0;29.740065;0;0.55358958;  9.9968750E+03;  0.0000000E+00;  2.8327335E-05;  1.0000000E+04;  0.0000000E+00;  9.9916689E+03;0.17942001;0.0;0.37416959;3593.5698
  6.9997519E-01;  9.9999998E-03;  2.4003235E-01;2141;-0.034451608;0.0;0.043113604;1005.9489;  4.0264833E-01;4928.166;3;-31.792191;0.0;36.514317;0;0.62474316;  9.9967666E+03;  0.0000000E+00;  9.9620076E-05;  1.0000000E+04;  0.0000000E+00;  9.9898877E+03;0.1874087;0.0;0.43733448;4392.2163
  6.9997519E-01;  9.9999998E-03;  2.6005182E-01;2142;-0.03470185;0.0;0.059835054;1005.812;  4.0264833E-01;4814.6968;3;-33.300484;0.0;40.213245;0;0.73703444;  9.9966475E+03;  0.0000000E+00;  2.0483593E-04;  1.0000000E+04;  0.0000000E+00;  9.9872793E+03;0.19604094;0.0;0.54099351;5543.8545
  6.9997489E-01;  9.9999998E-03;  2.8006956E-01;2143;-0.035567489;0.0;0.067736603;1005.6395;  4.0264854E-01;4671.7983;3;-36.43375;0.0;30.930941;0;0.83118474;  9.9965195E+03;  0.0000000E+00;  2.5279593E-04;  1.0000000E+04;  0.0000000E+00;  9.9839678E+03;0.20504625;0.0;0.62613851;7083.0
  6.9997436E-01;  9.9999998E-03;  3.0007708E-01;2144;-0.036088999;0.0;0.066245101;1005.6398;  4.0264866E-01;4672.0947;3;-38.674473;0.0;22.475796;0;0.74382168;  9.9963965E+03;  0.0000000E+00;  1.4319166E-04;  1.0000000E+04;  0.0000000E+00;  9.9840918E+03;0.21366499;0.0;0.53015667;7169.0488
  7.1998382E-01;  9.9999998E-03;  1.6000703E-01;2168;-0.022148859;0.0;0.013965798;1006.5869;  4.0278143E-01;5456.5522;3;-19.710699;0.0;18.238295;0;0.41896504;  9.9962852E+03;  0.0000000E+00; -4.2475807E-07;  1.0000000E+04;  0.0000000E+00;  9.9964307E+03;0.21245828;0.0;0.20650674;1452.4083
  7.1998334E-01;  9.9999998E-03;  1.8000920E-01;2169;-0.023056045;0.0;0.017636584;1006.4973;  4.0278149E-01;5382.291;3;-20.880886;0.0;22.234631;0;0.49322712;  9.9962041E+03;  0.0000000E+00; -1.4862599E-06;  1.0000000E+04;  0.0000000E+00;  9.9947256E+03;0.2187549;0.0;0.27447224;2204.6572
  7.1998280E-01;  9.9999998E-03;  2.0001313E-01;2170;-0.024070108;0.0;0.023084264;1006.3937;  4.0278164E-01;5296.5737;3;-22.19072;0.0;26.912016;0;0.57249045;  9.9961104E+03;  0.0000000E+00;  6.0673716E-07;  1.0000000E+04;  0.0000000E+00;  9.9927578E+03;0.22603449;0.0;0.34645596;3082.4172
  7.1998227E-01;  9.9999998E-03;  2.2002091E-01;2171;-0.025037492;0.0;0.032256071;1006.2911;  4.0278172E-01;5211.5483;3;-23.507832;0.0;32.926018;0;0.64636999;  9.9960078E+03;  0.0000000E+00;  1.5742753E-05;  1.0000000E+04;  0.0000000E+00;  9.9908164E+03;0.23394547;0.0;0.4124245;3957.7832
  7.1998191E-01;  9.9999998E-03;  2.4003500E-01;2172;-0.025750764;0.0;0.046853691;1006.1902;  4.0278175E-01;5127.9053;3;-24.717651;0.0;40.031021;0;0.72063661;  9.9959014E+03;  0.0000000E+00;  5.5629025E-05;  1.0000000E+04;  0.0000000E+00;  9.9889150E+03;0.24217428;0.0;0.47846231;4812.3325
  7.1998173E-01;  9.9999998E-03;  2.6005575E-01;2173;-0.02605371;0.0;0.064475015;1006.0496;  4.0278196E-01;5011.4761;3;-25.771097;0.0;43.49094;0;0.83307278;  9.9957881E+03;  0.0000000E+00;  1.1539844E-04;  1.0000000E+04;  0.0000000E+00;  9.9862305E+03;0.25056449;0.0;0.58250833;6002.0688
  7.1998179E-01;  9.9999998E-03;  2.8007454E-01;2174;-0.025966268;0.0;0.072406121;1005.8796;  4.0278217E-01;4870.6558;3;-26.711542;0.0;32.717171;0;0.91682279;  9.9956748E+03;  0.0000000E+00;  1.4576396E-04;  1.0000000E+04;  0.0000000E+00;  9.9829561E+03;0.25891721;0.0;0.65790558;7539.2246
  7.1998203E-01;  9.9999998E-03;  3.0008262E-01;2175;-0.025449345;0.0;0.070968576;1005.8933;  4.0278217E-01;4882.0122;3;-27.360271;0.0;24.079891;0;0.81246555;  9.9955654E+03;  0.0000000E+00;  8.2047503E-05;  1.0000000E+04;  0.0000000E+00;  9.9833359E+03;0.26667225;0.0;0.54579329;7520.6553
  7.3999006E-01;  9.9999998E-03;  1.6000752E-01;2199;-0.013716334;0.0;0.014926444;1006.6884;  4.0283397E-01;5540.3862;3;-12.398684;0.0;19.49374;0;0.45780778;  9.9959316E+03;  0.0000000E+00;  5.6604009E-08;  1.0000000E+04;  0.0000000E+00;  9.9961885E+03;0.23693259;0.0;0.2208752;1548.9606
  7.3998976E-01;  9.9999998E-03;  1.8000980E-01;2200;-0.014351002;0.0;0.018788381;1006.5927;  4.0283406E-01;5461.1899;3;-13.210754;0.0;23.69315;0;0.53699958;  9.9958438E+03;  0.0000000E+00; -3.4215944E-07;  1.0000000E+04;  0.0000000E+00;  9.9943711E+03;0.24390444;0.0;0.29309514;2350.0728
  7.3998934E-01;  9.9999998E-03;  2.0001388E-01;2201;-0.015047736;0.0;0.024430741;1006.4828;  4.0283418E-01;5370.1436;3;-14.097653;0.0;28.513527;0;0.6208877;  9.9957480E+03;  0.0000000E+00;  3.5747976E-07;  1.0000000E+04;  0.0000000E+00;  9.9922813E+03;0.25157547;0.0;0.36931223;3283.8379
  7.3998904E-01;  9.9999998E-03;  2.2002187E-01;2202;-0.01570647;0.0;0.033818528;1006.3748;  4.0283427E-01;5280.6772;3;-14.976482;0.0;34.561378;0;0.69762242;  9.9956484E+03;  0.0000000E+00;  6.4012406E-06;  1.0000000E+04;  0.0000000E+00;  9.9902305E+03;0.25945655;0.0;0.4381659;4209.043
  7.3998874E-01;  9.9999998E-03;  2.4003635E-01;2203;-0.016190471;0.0;0.048651058;1006.2719;  4.0283442E-01;5195.4575;3;-15.753827;0.0;41.491215;0;0.77099466;  9.9955518E+03;  0.0000000E+00;  2.3437044E-05;  1.0000000E+04;  0.0000000E+00;  9.9882793E+03;0.26714221;0.0;0.50385243;5089.4111
  7.3998863E-01;  9.9999998E-03;  2.6005769E-01;2204;-0.016376808;0.0;0.06651555;1006.1345;  4.0283459E-01;5081.6006;3;-16.360781;0.0;44.535202;0;0.87664568;  9.9954551E+03;  0.0000000E+00;  5.0075305E-05;  1.0000000E+04;  0.0000000E+00;  9.9856387E+03;0.27444038;0.0;0.60220534;6265.4014
  7.3998868E-01;  9.9999998E-03;  2.8007710E-01;2205;-0.016219312;0.0;0.074694261;1005.9727;  4.0283471E-01;4947.5986;3;-16.778997;0.0;33.419582;0;0.94755405;  9.9953662E+03;  0.0000000E+00;  6.3131774E-05;  1.0000000E+04;  0.0000000E+00;  9.9825117E+03;0.28123671;0.0;0.66631734;7745.8901
  7.3998892E-01;  9.9999998E-03;  3.0008572E-01;2206;-0.01578819;0.0;0.07365568;1005.9988;  4.0283477E-01;4969.126;3;-17.044167;0.0;25.144196;0;0.83152258;  9.9952832E+03;  0.0000000E+00;  2.7442493E-05;  1.0000000E+04;  0.0000000E+00;  9.9831055E+03;0.28733191;0.0;0.5441907;7634.5161
  7.5999492E-01;  9.9999998E-03;  1.6000783E-01;2230;-0.00714389;0.0;0.015560393;1006.7339;  4.0285382E-01;5577.8301;3;-6.6434994;0.0;20.314247;0;0.46618068;  9.9960010E+03;  0.0000000E+00;  1.3584392E-07;  1.0000000E+04;  0.0000000E+00;  9.9960381E+03;0.23640046;0.0;0.22978023;1608.7317
  7.5999469E-01;  9.9999998E-03;  1.8001017E-01;2231;-0.0075234305;0.0;0.019521158;1006.635;  4.0285388E-01;5495.873;3;-7.1238222;0.0;24.610811;0;0.54783487;  9.9959150E+03;  0.0000000E+00;  4.3109512E-08;  1.0000000E+04;  0.0000000E+00;  9.9941563E+03;0.24346831;0.0;0.30436653;2438.5598
  7.5999451E-01;  9.9999998E-03;  2.0001431E-01;2232;-0.0079258662;0.0;0.025236337;1006.5215;  4.0285408E-01;5401.9678;3;-7.6259737;0.0;29.462408;0;0.63395828;  9.9958223E+03;  0.0000000E+00;  1.4312612E-07;  1.0000000E+04;  0.0000000E+00;  9.9919902E+03;0.25098073;0.0;0.38297755;3405.9307
  7.5999433E-01;  9.9999998E-03;  2.2002241E-01;2233;-0.0082921972;0.0;0.03466896;1006.4107;  4.0285414E-01;5310.1362;3;-8.0974674;0.0;35.434887;0;0.7116996;  9.9957314E+03;  0.0000000E+00;  1.6261132E-06;  1.0000000E+04;  0.0000000E+00;  9.9898760E+03;0.25836629;0.0;0.45333335;4360.6685
  7.5999415E-01;  9.9999998E-03;  2.4003702E-01;2234;-0.0085447449;0.0;0.049509924;1006.3073;  4.0285423E-01;5224.4268;3;-8.4831333;0.0;42.129234;0;0.78319865;  9.9956436E+03;  0.0000000E+00;  6.2810723E-06;  1.0000000E+04;  0.0000000E+00;  9.9879043E+03;0.26514804;0.0;0.51805061;5252.3125
  7.5999409E-01;  9.9999998E-03;  2.6005858E-01;2235;-0.008614568;0.0;0.067398094;1006.1738;  4.0285441E-01;5113.834;3;-8.7444992;0.0;44.852924;0;0.8821314;  9.9955693E+03;  0.0000000E+00;  1.3773792E-05;  1.0000000E+04;  0.0000000E+00;  9.9853262E+03;0.27109838;0.0;0.61103302;6405.4585
  7.5999415E-01;  9.9999998E-03;  2.8007838E-01;2236;-0.0084794192;0.0;0.075773902;1006.0202;  4.0285456E-01;4986.6523;3;-8.8764296;0.0;33.701424;0;0.94273758;  9.9955029E+03;  0.0000000E+00;  1.6046672E-05;  1.0000000E+04;  0.0000000E+00;  9.9823350E+03;0.27619451;0.0;0.66654307;7829.7871
  7.5999433E-01;  9.9999998E-03;  3.0008733E-01;2237;-0.0081831822;0.0;0.075130478;1006.0547;  4.0285456E-01;5015.2876;3;-8.9060993;0.0;25.883095;0;0.81947827;  9.9954443E+03;  0.0000000E+00; -1.9296881E-07;  1.0000000E+04;  0.0000000E+00;  9.9830781E+03;0.28054097;0.0;0.53893727;7652.2441
  7.7999848E-01;  9.9999998E-03;  1.6000801E-01;2261;-0.0022962929;0.0;0.015900034;1006.7649;  4.0286115E-01;5603.1265;3;-2.3344841;0.0;20.7472;0;0.45394728;  9.9963271E+03;  0.0000000E+00;  6.7162041E-08;  1.0000000E+04;  0.0000000E+00;  9.9959658E+03;0.21982734;0.0;0.23411994;1637.6615
  7.7999836E-01;  9.9999998E-03;  1.8001038E-01;2262;-0.0024529446;0.0;0.019895563;1006.6647;  4.0286118E-01;5520.1875;3;-2.5285399;0.0;25.070135;0;0.53624946;  9.9962441E+03;  0.0000000E+00;  6.2266594E-08;  1.0000000E+04;  0.0000000E+00;  9.9940566E+03;0.22660992;0.0;0.30963954;2479.9988
  7.7999830E-01;  9.9999998E-03;  2.0001452E-01;2263;-0.0026051737;0.0;0.025616594;1006.5498;  4.0286136E-01;5425.0049;3;-2.7108839;0.0;29.899044;0;0.62291586;  9.9961582E+03;  0.0000000E+00;  4.2736417E-08;  1.0000000E+04;  0.0000000E+00;  9.9918545E+03;0.23365512;0.0;0.38926071;3462.6772
  7.7999824E-01;  9.9999998E-03;  2.2002263E-01;2264;-0.0027275325;0.0;0.035023756;1006.4379;  4.0286145E-01;5332.291;3;-2.8559582;0.0;35.782768;0;0.70058513;  9.9960752E+03;  0.0000000E+00;  8.5749832E-08;  1.0000000E+04;  0.0000000E+00;  9.9897090E+03;0.24036193;0.0;0.46022323;4431.0029
  7.7999818E-01;  9.9999998E-03;  2.4003726E-01;2265;-0.0027925142;0.0;0.049809951;1006.3347;  4.0286154E-01;5246.7847;3;-2.9433908;0.0;42.310486;0;0.77040988;  9.9960029E+03;  0.0000000E+00;  3.6327873E-07;  1.0000000E+04;  0.0000000E+00;  9.9877295E+03;0.24622135;0.0;0.52418852;5326.1284
  7.7999818E-01;  9.9999998E-03;  2.6005891E-01;2266;-0.002778105;0.0;0.067676529;1006.2042;  4.0286171E-01;5138.668;3;-2.9627948;0.0;44.880924;0;0.8649081;  9.9959414E+03;  0.0000000E+00;  7.0260063E-07;  1.0000000E+04;  0.0000000E+00;  9.9851943E+03;0.25098544;0.0;0.61392266;6462.2622
  7.7999824E-01;  9.9999998E-03;  2.8007886E-01;2267;-0.0026809464;0.0;0.076207198;1006.0555;  4.0286192E-01;5015.6416;3;-2.9186606;0.0;33.843826;0;0.91968191;  9.9958945E+03;  0.0000000E+00; -2.9009030E-07;  1.0000000E+04;  0.0000000E+00;  9.9822852E+03;0.25468513;0.0;0.6649968;7851.4209
  7.7999830E-01;  9.9999998E-03;  3.0008805E-01;2268;-0.0025200092;0.0;0.075864583;1006.0947;  4.0286186E-01;5048.0273;3;-2.8254535;0.0;26.402756;0;0.79332042;  9.9958564E+03;  0.0000000E+00; -4.8949296E-06;  1.0000000E+04;  0.0000000E+00;  9.9830977E+03;0.25757965;0.0;0.53574073;7641.3853
  8.0000120E-01;  9.9999998E-03;  1.6000806E-01;2292;0.0015228802;0.0;0.01598323;1006.7885;  4.0286273E-01;5622.165;3;1.117205;0.0;20.846283;0;0.43221968;  9.9967314E+03;  0.0000000E+00; -5.5552398E-09;  1.0000000E+04;  0.0000000E+00;  9.9959551E+03;0.19738989;0.0;0.23482981;1641.4296
  8.0000126E-01;  9.9999998E-03;  1.8001041E-01;2293;0.0015595233;0.0;0.019968893;1006.6885;  4.0286276E-01;5539.4312;3;1.1690961;0.0;25.149778;0;0.51396573;  9.9966543E+03;  0.0000000E+00; -1.5802776E-08;  1.0000000E+04;  0.0000000E+00;  9.9940410E+03;0.20370883;0.0;0.31025693;2483.7349
  8.0000126E-01;  9.9999998E-03;  2.0001455E-01;2294;0.0016181588;0.0;0.025659025;1006.5739;  4.0286294E-01;5444.356;3;1.2525618;0.0;29.934429;0;0.60006368;  9.9965742E+03;  0.0000000E+00; -7.9552684E-09;  1.0000000E+04;  0.0000000E+00;  9.9918359E+03;0.2101851;0.0;0.3898786;3467.2271
  8.0000132E-01;  9.9999998E-03;  2.2002263E-01;2295;0.0016959099;0.0;0.035015132;1006.462;  4.0286306E-01;5351.749;3;1.369337;0.0;35.753819;0;0.67705989;  9.9965000E+03;  0.0000000E+00;  4.8775959E-08;  1.0000000E+04;  0.0000000E+00;  9.9896865E+03;0.21622638;0.0;0.46083349;4436.4575
  8.0000132E-01;  9.9999998E-03;  2.4003723E-01;2296;0.0017805538;0.0;0.049742565;1006.3595;  4.0286312E-01;5266.8433;3;1.5123805;0.0;42.217339;0;0.74578983;  9.9964375E+03;  0.0000000E+00;  1.2041478E-07;  1.0000000E+04;  0.0000000E+00;  9.9877109E+03;0.22133106;0.0;0.52445877;5329.8594
  8.0000138E-01;  9.9999998E-03;  2.6005885E-01;2297;0.0018567774;0.0;0.06759771;1006.2305;  4.0286326E-01;5160.0195;3;1.6704895;0.0;44.803753;0;0.83848822;  9.9963857E+03;  0.0000000E+00;  3.5583511E-08;  1.0000000E+04;  0.0000000E+00;  9.9851914E+03;0.22525033;0.0;0.61323786;6457.4136
  8.0000144E-01;  9.9999998E-03;  2.8007886E-01;2298;0.0019123427;0.0;0.076254457;1006.0834;  4.0286344E-01;5038.2876;3;1.8319556;0.0;33.969402;0;0.89194381;  9.9963516E+03;  0.0000000E+00; -3.8908178E-07;  1.0000000E+04;  0.0000000E+00;  9.9823066E+03;0.22802645;0.0;0.66391736;7834.4839
  8.0000144E-01;  9.9999998E-03;  3.0008814E-01;2299;0.0019474272;0.0;0.076095074;1006.1234;  4.0286344E-01;5071.2627;3;1.991775;0.0;26.77054;0;0.76589936;  9.9963271E+03;  0.0000000E+00; -9.2034009E-07;  1.0000000E+04;  0.0000000E+00;  9.9831191E+03;0.22994339;0.0;0.53595597;7621.6099
  8.2000375E-01;  9.9999998E-03;  1.6000798E-01;2323;0.0050333864;0.0;0.015842319;1006.8022;  4.0285993E-01;5632.8286;3;4.312746;0.0;20.65634;0;0.40835795;  9.9971035E+03;  0.0000000E+00; -4.4873488E-08;  1.0000000E+04;  0.0000000E+00;  9.9959941E+03;0.17579331;0.0;0.23256464;1623.7394
  8.2000387E-01;  9.9999998E-03;  1.8001032E-01;2324;0.0052423333;0.0;0.019782528;1006.7037;  4.0285999E-01;5551.1904;3;4.5834494;0.0;24.905434;0;0.48875341;  9.9970332E+03;  0.0000000E+00; -1.1318634E-07;  1.0000000E+04;  0.0000000E+00;  9.9941006E+03;0.18163633;0.0;0.30711707;2455.7837
  8.2000399E-01;  9.9999998E-03;  2.0001441E-01;2325;0.0054864506;0.0;0.025417093;1006.5903;  4.0286016E-01;5457.3115;3;4.9007607;0.0;29.634418;0;0.57353556;  9.9969600E+03;  0.0000000E+00; -3.8539962E-08;  1.0000000E+04;  0.0000000E+00;  9.9919160E+03;0.18759094;0.0;0.3859446;3428.0942
  8.2000411E-01;  9.9999998E-03;  2.2002244E-01;2326;0.0057370816;0.0;0.03471389;1006.4798;  4.0286022E-01;5365.8018;3;5.2451048;0.0;35.418003;0;0.64948308;  9.9968906E+03;  0.0000000E+00;  6.5535085E-07;  1.0000000E+04;  0.0000000E+00;  9.9897842E+03;0.19309215;0.0;0.45639092;4387.5786
  8.2000422E-01;  9.9999998E-03;  2.4003699E-01;2327;0.0059496704;0.0;0.049399205;1006.3779;  4.0286040E-01;5281.4985;3;5.5886278;0.0;41.908989;0;0.71772462;  9.9968340E+03;  0.0000000E+00;  2.4988426E-06;  1.0000000E+04;  0.0000000E+00;  9.9878174E+03;0.19767083;0.0;0.5200538;5275.3208
  8.2000428E-01;  9.9999998E-03;  2.6005855E-01;2328;0.0060793767;0.0;0.067264393;1006.2485;  4.0286049E-01;5174.3916;3;5.9052253;0.0;44.635899;0;0.81104082;  9.9967900E+03;  0.0000000E+00;  5.1699099E-06;  1.0000000E+04;  0.0000000E+00;  9.9852881E+03;0.20109518;0.0;0.60994565;6404.0171
  8.2000434E-01;  9.9999998E-03;  2.8007853E-01;2329;0.0061005251;0.0;0.07599514;1006.1;  4.0286070E-01;5051.293;3;6.1775551;0.0;34.013634;0;0.86695099;  9.9967598E+03;  0.0000000E+00;  6.3788389E-06;  1.0000000E+04;  0.0000000E+00;  9.9823633E+03;0.20340052;0.0;0.66355044;7793.0918
  8.2000428E-01;  9.9999998E-03;  3.0008778E-01;2330;0.0060245749;0.0;0.075868994;1006.1374;  4.0286070E-01;5082.29;3;6.4023943;0.0;26.879656;0;0.74352288;  9.9967412E+03;  0.0000000E+00;  3.6126357E-06;  1.0000000E+04;  0.0000000E+00;  9.9831201E+03;0.20482549;0.0;0.53869736;7603.7646
  8.4000635E-01;  9.9999998E-03;  1.6000782E-01;2354;0.0086116446;0.0;0.015502117;1006.7073;  4.0281373E-01;5553.332;3;7.5588951;0.0;20.210649;0;0.3843011;  9.9974219E+03;  0.0000000E+00; -6.9253282E-08;  1.0000000E+04;  0.0000000E+00;  9.9960791E+03;0.15664643;0.0;0.22765467;1586.3735
  8.4000653E-01;  9.9999998E-03;  1.8001010E-01;2355;0.0089788241;0.0;0.019355785;1006.6108;  4.0281385E-01;5473.3853;3;8.0313444;0.0;24.365936;0;0.46274292;  9.9973564E+03;  0.0000000E+00; -2.2415338E-07;  1.0000000E+04;  0.0000000E+00;  9.9942266E+03;0.16211422;0.0;0.30062869;2398.8506
  8.4000677E-01;  9.9999998E-03;  2.0001411E-01;2356;0.0093946047;0.0;0.024874711;1006.4998;  4.0281394E-01;5381.4961;3;8.5676899;0.0;28.997219;0;0.5456084;  9.9972861E+03;  0.0000000E+00; -3.0056569E-08;  1.0000000E+04;  0.0000000E+00;  9.9920859E+03;0.16769236;0.0;0.37791604;3348.9482
  8.4000695E-01;  9.9999998E-03;  2.2002199E-01;2357;0.0098058609;0.0;0.034002766;1006.3915;  4.0281406E-01;5291.877;3;9.1287775;0.0;34.686638;0;0.62002343;  9.9972227E+03;  0.0000000E+00;  1.8238413E-06;  1.0000000E+04;  0.0000000E+00;  9.9899951E+03;0.17284526;0.0;0.44717816;4287.5537
  8.4000713E-01;  9.9999998E-03;  2.4003628E-01;2358;0.010139427;0.0;0.048456371;1006.2914;  4.0281409E-01;5208.9692;3;9.6700668;0.0;41.123726;0;0.68728036;  9.9971680E+03;  0.0000000E+00;  6.9503958E-06;  1.0000000E+04;  0.0000000E+00;  9.9880576E+03;0.17713886;0.0;0.51014149;5158.2568
  8.4000725E-01;  9.9999998E-03;  2.6005748E-01;2359;0.010325196;0.0;0.066088855;1006.1636;  4.0281430E-01;5103.1631;3;10.154649;0.0;43.940651;0;0.78002363;  9.9971270E+03;  0.0000000E+00;  1.4708215E-05;  1.0000000E+04;  0.0000000E+00;  9.9855566E+03;0.18036307;0.0;0.59966058;6270.1543
  8.4000725E-01;  9.9999998E-03;  2.8007716E-01;2360;0.010324254;0.0;0.074777082;1006.0161;  4.0281442E-01;4980.9731;3;10.559389;0.0;33.660744;0;0.83721507;  9.9970977E+03;  0.0000000E+00;  1.8353578E-05;  1.0000000E+04;  0.0000000E+00;  9.9826504E+03;0.18254301;0.0;0.65467209;7644.9722
  8.4000719E-01;  9.9999998E-03;  3.0008626E-01;2361;0.01015287;0.0;0.074700177;1006.051;  4.0281445E-01;5009.9907;3;10.875487;0.0;26.696457;0;0.71764266;  9.9970791E+03;  0.0000000E+00;  9.3416747E-06;  1.0000000E+04;  0.0000000E+00;  9.9833604E+03;0.18385908;0.0;0.53378361;7473.4712
  8.6000896E-01;  9.9999998E-03;  1.6000755E-01;2385;0.012238254;0.0;0.014980895;1006.5016;  4.0272272E-01;5381.874;3;10.829508;0.0;19.532587;0;0.35802686;  9.9977305E+03;  0.0000000E+00; -1.0178196E-07;  1.0000000E+04;  0.0000000E+00;  9.9962061E+03;0.13778074;0.0;0.22024611;1530.2239
  8.6000925E-01;  9.9999998E-03;  1.8000975E-01;2386;0.012751927;0.0;0.01870463;1006.4083;  4.0272287E-01;5304.6099;3;11.489973;0.0;23.550268;0;0.43395621;  9.9976641E+03;  0.0000000E+00; -3.6513134E-07;  1.0000000E+04;  0.0000000E+00;  9.9944121E+03;0.14302634;0.0;0.29092985;2314.0352
  8.6000955E-01;  9.9999998E-03;  2.0001364E-01;2387;0.013329403;0.0;0.02404041;1006.3008;  4.0272295E-01;5215.6025;3;12.235406;0.0;28.031132;0;0.51435077;  9.9975957E+03;  0.0000000E+00;  5.7121525E-08;  1.0000000E+04;  0.0000000E+00;  9.9923389E+03;0.14843036;0.0;0.36592042;3231.2322
  8.6000985E-01;  9.9999998E-03;  2.2002126E-01;2388;0.013894689;0.0;0.032876097;1006.1957;  4.0272304E-01;5128.6675;3;13.009431;0.0;33.548389;0;0.58674878;  9.9975332E+03;  0.0000000E+00;  3.6910371E-06;  1.0000000E+04;  0.0000000E+00;  9.9903135E+03;0.15347703;0.0;0.43327177;4137.9932
  8.6001009E-01;  9.9999998E-03;  2.4003510E-01;2389;0.014347454;0.0;0.046887558;1006.0986;  4.0272319E-01;5048.2451;3;13.752094;0.0;39.820362;0;0.65236676;  9.9974795E+03;  0.0000000E+00;  1.3710055E-05;  1.0000000E+04;  0.0000000E+00;  9.9884346E+03;0.15774529;0.0;0.49462149;4979.6797
  8.6001021E-01;  9.9999998E-03;  2.6005566E-01;2390;0.014593941;0.0;0.064020373;1005.9745;  4.0272328E-01;4945.522;3;14.417007;0.0;42.648472;0;0.7428816;  9.9974346E+03;  0.0000000E+00;  2.9022813E-05;  1.0000000E+04;  0.0000000E+00;  9.9860078E+03;0.16102917;0.0;0.58185244;6054.5156
  8.6001021E-01;  9.9999998E-03;  2.8007475E-01;2391;0.014581669;0.0;0.072547033;1005.8309;  4.0272346E-01;4826.6157;3;14.974059;0.0;32.846184;0;0.79959232;  9.9974053E+03;  0.0000000E+00;  3.6557074E-05;  1.0000000E+04;  0.0000000E+00;  9.9831777E+03;0.16333687;0.0;0.63625544;7385.3608
  8.6001015E-01;  9.9999998E-03;  3.0008361E-01;2392;0.014330024;0.0;0.072554238;1005.8641;  4.0272343E-01;4854.0479;3;15.407132;0.0;26.189554;0;0.68489099;  9.9973848E+03;  0.0000000E+00;  1.9162491E-05;  1.0000000E+04;  0.0000000E+00;  9.9838564E+03;0.16480292;0.0;0.52008808;7224.1641
  8.8001150E-01;  9.9999998E-03;  1.6000721E-01;2416;0.015670048;0.0;0.014296127;1006.2017;  4.0259224E-01;5131.9585;3;13.912906;0.0;18.64348;0;0.32660332;  9.9980791E+03;  0.0000000E+00; -1.5035799E-07;  1.0000000E+04;  0.0000000E+00;  9.9963740E+03;0.11612816;0.0;0.21047516;1456.3636
  8.8001180E-01;  9.9999998E-03;  1.8000931E-01;2417;0.016316323;0.0;0.017846383;1006.1122;  4.0259236E-01;5057.9717;3;14.744486;0.0;22.478018;0;0.39943957;  9.9980127E+03;  0.0000000E+00; -5.4485986E-07;  1.0000000E+04;  0.0000000E+00;  9.9946602E+03;0.12129095;0.0;0.27814862;2202.6438
  8.8001221E-01;  9.9999998E-03;  2.0001301E-01;2418;0.017042849;0.0;0.022930805;1006.009;  4.0259242E-01;4972.543;3;15.68443;0.0;26.752033;0;0.47682214;  9.9979443E+03;  0.0000000E+00;  2.0222811E-07;  1.0000000E+04;  0.0000000E+00;  9.9926758E+03;0.12673484;0.0;0.35008729;3076.6458
  8.8001257E-01;  9.9999998E-03;  2.2002026E-01;2419;0.017752767;0.0;0.031353492;1005.9081;  4.0259254E-01;4889.0869;3;16.661112;0.0;32.016499;0;0.54675663;  9.9978750E+03;  0.0000000E+00;  6.1176092E-06;  1.0000000E+04;  0.0000000E+00;  9.9907314E+03;0.13195209;0.0;0.41480452;3941.0671
  8.8001287E-01;  9.9999998E-03;  2.4003346E-01;2420;0.018320307;0.0;0.04472271;1005.8149;  4.0259263E-01;4811.9443;3;17.600143;0.0;38.015068;0;0.61014062;  9.9978164E+03;  0.0000000E+00;  2.2307264E-05;  1.0000000E+04;  0.0000000E+00;  9.9889365E+03;0.13649653;0.0;0.47364408;4742.2949
  8.8001305E-01;  9.9999998E-03;  2.6005310E-01;2421;0.018629042;0.0;0.061110314;1005.6963;  4.0259275E-01;4713.7896;3;18.445196;0.0;40.783539;0;0.69692457;  9.9977676E+03;  0.0000000E+00;  4.7149995E-05;  1.0000000E+04;  0.0000000E+00;  9.9866260E+03;0.14012089;0.0;0.55680364;5761.1616
  8.8001305E-01;  9.9999998E-03;  2.8007135E-01;2422;0.018613437;0.0;0.069376908;1005.5593;  4.0259293E-01;4600.3442;3;19.158968;0.0;31.604691;0;0.75167549;  9.9977295E+03;  0.0000000E+00;  6.0035843E-05;  1.0000000E+04;  0.0000000E+00;  9.9839346E+03;0.14279413;0.0;0.60888135;7021.2173
  8.8001293E-01;  9.9999998E-03;  3.0007991E-01;2423;0.018296337;0.0;0.069509916;1005.5909;  4.0259290E-01;4626.585;3;19.718819;0.0;25.391987;0;0.64303875;  9.9977051E+03;  0.0000000E+00;  3.3376822E-05;  1.0000000E+04;  0.0000000E+00;  9.9845859E+03;0.14461881;0.0;0.49841991;6865.0825
  9.0001363E-01;  9.9999998E-03;  1.6000679E-01;2447;0.018615818;0.0;0.01346907;1005.8256;  4.0242928E-01;4818.8667;3;16.559696;0.0;17.569717;0;0.28893587;  9.9984980E+03;  0.0000000E+00; -2.2273117E-07;  1.0000000E+04;  0.0000000E+00;  9.9965801E+03;0.090345137;0.0;0.19859073;1366.7084
  9.0001404E-01;  9.9999998E-03;  1.8000875E-01;2448;0.019378033;0.0;0.016805362;1005.7409;  4.0242940E-01;4748.7568;3;17.541155;0.0;21.177753;0;0.3580651;  9.9984307E+03;  0.0000000E+00; -7.4294218E-07;  1.0000000E+04;  0.0000000E+00;  9.9949590E+03;0.095487304;0.0;0.2625778;2067.3013
  9.0001446E-01;  9.9999998E-03;  2.0001224E-01;2449;0.020236351;0.0;0.021575937;1005.6429;  4.0242946E-01;4667.7012;3;18.652943;0.0;25.191013;0;0.43189734;  9.9983555E+03;  0.0000000E+00;  3.2245924E-07;  1.0000000E+04;  0.0000000E+00;  9.9930840E+03;0.10113637;0.0;0.33076096;2888.6975
  9.0001488E-01;  9.9999998E-03;  2.2001904E-01;2450;0.021074649;0.0;0.029478017;1005.5468;  4.0242955E-01;4588.2227;3;19.809855;0.0;30.12911;0;0.49897879;  9.9982783E+03;  0.0000000E+00;  8.5777992E-06;  1.0000000E+04;  0.0000000E+00;  9.9912451E+03;0.10679592;0.0;0.39218286;3701.2678
  9.0001523E-01;  9.9999998E-03;  2.4003144E-01;2451;0.021746125;0.0;0.042032078;1005.4582;  4.0242958E-01;4514.957;3;20.925703;0.0;35.761776;0;0.55968076;  9.9982080E+03;  0.0000000E+00;  3.1245563E-05;  1.0000000E+04;  0.0000000E+00;  9.9895518E+03;0.11195272;0.0;0.44772804;4451.9033
  9.0001547E-01;  9.9999998E-03;  2.6004988E-01;2452;0.022113895;0.0;0.05747233;1005.3467;  4.0242973E-01;4422.7588;3;21.934231;0.0;38.422855;0;0.64163023;  9.9981494E+03;  0.0000000E+00;  6.6229040E-05;  1.0000000E+04;  0.0000000E+00;  9.9873916E+03;0.11625601;0.0;0.52537423;5398.8979
  9.0001547E-01;  9.9999998E-03;  2.8006715E-01;2453;0.022100177;0.0;0.065404236;1005.2184;  4.0242985E-01;4316.5581;3;22.791218;0.0;30.004313;0;0.69349861;  9.9981016E+03;  0.0000000E+00;  8.5080297E-05;  1.0000000E+04;  0.0000000E+00;  9.9848818E+03;0.11959256;0.0;0.57390606;6566.4419
  9.0001529E-01;  9.9999998E-03;  3.0007529E-01;2454;0.021732939;0.0;0.065703437;1005.2482;  4.0242985E-01;4341.21;3;23.469271;0.0;24.359184;0;0.59226161;  9.9980654E+03;  0.0000000E+00;  4.9321046E-05;  1.0000000E+04;  0.0000000E+00;  9.9855117E+03;0.12203228;0.0;0.47022933;6412.6309
  9.2001504E-01;  9.9999998E-03;  1.6000633E-01;2478;0.02051183;0.0;0.012542713;1005.3936;  4.0224224E-01;4458.9731;3;18.182209;0.0;16.353729;0;0.24680319;  9.9989658E+03;  0.0000000E+00; -2.7808105E-07;  1.0000000E+04;  0.0000000E+00;  9.9968135E+03;0.061803244;0.0;0.18499994;1264.235
  9.2001557E-01;  9.9999998E-03;  1.8000814E-01;2479;0.02146418;0.0;0.015630331;1005.3141;  4.0224227E-01;4393.3364;3;19.400496;0.0;19.6996;0;0.31160694;  9.9988965E+03;  0.0000000E+00; -9.0138565E-07;  1.0000000E+04;  0.0000000E+00;  9.9953037E+03;0.066870652;0.0;0.2447363;1912.3259
  9.2001611E-01;  9.9999998E-03;  2.0001134E-01;2480;0.022549279;0.0;0.02002755;1005.222;  4.0224236E-01;4317.1543;3;20.783199;0.0;23.403719;0;0.38136217;  9.9988154E+03;  0.0000000E+00;  3.6010377E-07;  1.0000000E+04;  0.0000000E+00;  9.9935498E+03;0.072787561;0.0;0.30857462;2673.1956
  9.2001665E-01;  9.9999998E-03;  2.2001764E-01;2481;0.02359451;0.0;0.027318217;1005.1314;  4.0224245E-01;4242.2529;3;22.208931;0.0;27.950947;0;0.4452486;  9.9987246E+03;  0.0000000E+00;  1.0430284E-05;  1.0000000E+04;  0.0000000E+00;  9.9918320E+03;0.07909961;0.0;0.36614898;3425.9021
  9.2001706E-01;  9.9999998E-03;  2.4002911E-01;2482;0.024375249;0.0;0.038926166;1005.048;  4.0224254E-01;4173.2651;3;23.496155;0.0;33.14888;0;0.50299537;  9.9986387E+03;  0.0000000E+00;  3.8419268E-05;  1.0000000E+04;  0.0000000E+00;  9.9902588E+03;0.08520519;0.0;0.4177902;4117.7241
  9.2001730E-01;  9.9999998E-03;  2.6004621E-01;2483;0.024794361;0.0;0.053267911;1004.9443;  4.0224263E-01;4087.6216;3;24.637798;0.0;35.673084;0;0.57947105;  9.9985596E+03;  0.0000000E+00;  8.2189057E-05;  1.0000000E+04;  0.0000000E+00;  9.9882773E+03;0.09058743;0.0;0.48888364;4980.7588
  9.2001724E-01;  9.9999998E-03;  2.8006229E-01;2484;0.024619428;0.0;0.060747385;1004.8263;  4.0224269E-01;3990.0532;3;25.283907;0.0;27.957626;0;0.62751746;  9.9984951E+03;  0.0000000E+00;  1.0733581E-04;  1.0000000E+04;  0.0000000E+00;  9.9859863E+03;0.094986625;0.0;0.53253084;6038.7441
  9.2001718E-01;  9.9999998E-03;  3.0006999E-01;2485;0.024384854;0.0;0.061314531;1004.8538;  4.0224272E-01;4012.7207;3;26.384626;0.0;23.147463;0;0.53571492;  9.9984453E+03;  0.0000000E+00;  6.3209976E-05;  1.0000000E+04;  0.0000000E+00;  9.9865830E+03;0.098398946;0.0;0.437316;5888.9243
  9.4001549E-01;  9.9999998E-03;  1.6000587E-01;2509;0.020955499;0.0;0.011577344;1004.9241;  4.0204003E-01;4067.9678;3;18.474218;0.0;15.045957;0;0.20404103;  9.9994346E+03;  0.0000000E+00; -2.7209626E-07;  1.0000000E+04;  0.0000000E+00;  9.9970684E+03;0.033783443;0.0;0.1702576;1152.9191
  9.4001609E-01;  9.9999998E-03;  1.8000753E-01;2510;0.022061121;0.0;0.0144017;1004.8508;  4.0204009E-01;4007.303;3;19.824291;0.0;18.117287;0;0.26401135;  9.9993623E+03;  0.0000000E+00; -9.1838217E-07;  1.0000000E+04;  0.0000000E+00;  9.9956768E+03;0.038660098;0.0;0.22535126;1743.6049
  9.4001681E-01;  9.9999998E-03;  2.0001040E-01;2511;0.023426879;0.0;0.018371964;1004.765;  4.0204015E-01;3936.4951;3;21.468285;0.0;21.47613;0;0.32924843;  9.9992725E+03;  0.0000000E+00;  3.4915928E-07;  1.0000000E+04;  0.0000000E+00;  9.9940586E+03;0.044823233;0.0;0.2844252;2438.0745
  9.4001764E-01;  9.9999998E-03;  2.2001612E-01;2512;0.02489046;0.0;0.024968125;1004.6802;  4.0204021E-01;3866.4749;3;23.362551;0.0;25.577894;0;0.38964418;  9.9991670E+03;  0.0000000E+00;  1.1189533E-05;  1.0000000E+04;  0.0000000E+00;  9.9924736E+03;0.051909287;0.0;0.33773488;3124.7268
  9.4001824E-01;  9.9999998E-03;  2.4002656E-01;2513;0.02604978;0.0;0.035530917;1004.6025;  4.0204021E-01;3802.166;3;25.156658;0.0;30.280491;0;0.44424874;  9.9990566E+03;  0.0000000E+00;  4.1977200E-05;  1.0000000E+04;  0.0000000E+00;  9.9910332E+03;0.059247095;0.0;0.38500163;3751.3474
  9.4001848E-01;  9.9999998E-03;  2.6004222E-01;2514;0.02652921;0.0;0.048683841;1004.5074;  4.0204036E-01;3723.6763;3;26.415497;0.0;32.66048;0;0.51501232;  9.9989521E+03;  0.0000000E+00;  9.7834163E-05;  1.0000000E+04;  0.0000000E+00;  9.9892441E+03;0.066124298;0.0;0.44888803;4522.0908
  9.4001842E-01;  9.9999998E-03;  2.8005701E-01;2515;0.026257914;0.0;0.055700511;1004.4;  4.0204045E-01;3634.9446;3;26.955204;0.0;25.786655;0;0.55947602;  9.9988623E+03;  0.0000000E+00;  1.4706854E-04;  1.0000000E+04;  0.0000000E+00;  9.9871914E+03;0.072061568;0.0;0.48741445;5461.3848
  9.4001836E-01;  9.9999998E-03;  3.0006421E-01;2516;0.026142903;0.0;0.056564994;1004.4244;  4.0204039E-01;3655.0349;3;28.399057;0.0;21.895344;0;0.47845283;  9.9987881E+03;  0.0000000E+00;  7.1860508E-05;  1.0000000E+04;  0.0000000E+00;  9.9877500E+03;0.076895587;0.0;0.40155724;5316.8545
  9.6001530E-01;  9.9999998E-03;  1.6000539E-01;2540;0.020740418;0.0;0.0105782;1004.4366;  4.0183145E-01;3661.5447;3;18.299934;0.0;13.695571;0;0.16462593;  9.9998428E+03;  0.0000000E+00; -1.8486506E-07;  1.0000000E+04;  0.0000000E+00;  9.9973291E+03;0.0096016796;0.0;0.15502425;1037.4956
  9.6001595E-01;  9.9999998E-03;  1.8000689E-01;2541;0.021892805;0.0;0.013133607;1004.3693;  4.0183157E-01;3606.0559;3;19.668036;0.0;16.470551;0;0.21954878;  9.9997715E+03;  0.0000000E+00; -7.3541798E-07;  1.0000000E+04;  0.0000000E+00;  9.9960596E+03;0.01425578;0.0;0.205293;1568.1196
  9.6001679E-01;  9.9999998E-03;  2.0000945E-01;2542;0.023355698;0.0;0.016665038;1004.2903;  4.0183166E-01;3540.8276;3;21.364777;0.0;19.477341;0;0.28006062;  9.9996709E+03;  0.0000000E+00;  3.4378138E-07;  1.0000000E+04;  0.0000000E+00;  9.9945850E+03;0.020689854;0.0;0.25937077;2192.6064
  9.6001774E-01;  9.9999998E-03;  2.2001453E-01;2543;0.025044983;0.0;0.022525821;1004.2116;  4.0183160E-01;3475.894;3;23.443377;0.0;23.104168;0;0.33680061;  9.9995469E+03;  0.0000000E+00;  3.2926851E-05;  1.0000000E+04;  0.0000000E+00;  9.9931416E+03;0.028652361;0.0;0.30814824;2809.0757
  9.6001863E-01;  9.9999998E-03;  2.4002391E-01;2544;0.026604563;0.0;0.031991363;1004.1396;  4.0183166E-01;3416.3721;3;25.682665;0.0;27.276506;0;0.3881599;  9.9994111E+03;  0.0000000E+00;  2.9366469E-04;  1.0000000E+04;  0.0000000E+00;  9.9918408E+03;0.037412871;0.0;0.35074702;3366.3245
  9.6001905E-01;  9.9999998E-03;  2.6003808E-01;2545;0.027394557;0.0;0.043920923;1004.053;  4.0183172E-01;3344.9453;3;27.338354;0.0;29.509729;0;0.45325574;  9.9992744E+03;  0.0000000E+00;  8.1883883E-04;  1.0000000E+04;  0.0000000E+00;  9.9902529E+03;0.046085905;0.0;0.40716985;4040.9194
  9.6001911E-01;  9.9999998E-03;  2.8005159E-01;2546;0.02735398;0.0;0.050558776;1003.9557;  4.0183178E-01;3264.6641;3;28.187872;0.0;23.690807;0;0.495395;  9.9991494E+03;  0.0000000E+00;  9.9032023E-04;  1.0000000E+04;  0.0000000E+00;  9.9884336E+03;0.053953428;0.0;0.44144157;4860.8525
  9.6001911E-01;  9.9999998E-03;  3.0005825E-01;2547;0.027286382;0.0;0.051673405;1003.9769;  4.0183184E-01;3282.0781;3;29.866802;0.0;20.678341;0;0.42552873;  9.9990459E+03;  0.0000000E+00;  7.2118528E-05;  1.0000000E+04;  0.0000000E+00;  9.9889609E+03;0.060635213;0.0;0.36489353;4719.0674
  9.8001492E-01;  9.9999998E-03;  1.6000490E-01;2571;0.02019701;0.0;0.0095748268;1003.9484;  4.0162468E-01;3254.2197;3;17.868277;0.0;12.349079;0;0.13117336;  1.0000161E+04;  0.0000000E+00; -4.0671210E-08;  1.0000000E+04;  0.0000000E+00;  9.9975850E+03;-0.0088428818;0.0;0.14001624;923.12048
  9.8001558E-01;  9.9999998E-03;  1.8000625E-01;2572;0.021371359;0.0;0.011860779;1003.8871;  4.0162471E-01;3203.7178;3;19.264328;0.0;14.834593;0;0.18122455;  1.0000084E+04;  0.0000000E+00; -3.8406984E-07;  1.0000000E+04;  0.0000000E+00;  9.9964385E+03;-0.0042778226;0.0;0.18550238;1393.3608
  9.8001641E-01;  9.9999998E-03;  2.0000850E-01;2573;0.022881974;0.0;0.014963892;1003.8147;  4.0162477E-01;3144.0784;3;20.988735;0.0;17.466419;0;0.2371027;  9.9999746E+03;  0.0000000E+00;  3.9826504E-05;  1.0000000E+04;  0.0000000E+00;  9.9951035E+03;0.0025488804;0.0;0.23455383;1946.6677
  9.8001748E-01;  9.9999998E-03;  2.2001296E-01;2574;0.024681253;0.0;0.020101184;1003.7422;  4.0162480E-01;3084.3403;3;23.133078;0.0;20.63044;0;0.29017103;  9.9998301E+03;  0.0000000E+00;  4.7207464E-04;  1.0000000E+04;  0.0000000E+00;  9.9938037E+03;0.011423529;0.0;0.2787475;2491.3364
  9.8001856E-01;  9.9999998E-03;  2.4002132E-01;2575;0.026543316;0.0;0.028482296;1003.6759;  4.0162477E-01;3029.7119;3;25.624098;0.0;24.271906;0;0.33829001;  9.9996680E+03;  0.0000000E+00;  1.9267402E-03;  1.0000000E+04;  0.0000000E+00;  9.9926455E+03;0.021607418;0.0;0.31668258;2978.3506
  9.8001927E-01;  9.9999998E-03;  2.6003397E-01;2576;0.027707677;0.0;0.03919198;1003.5977;  4.0162483E-01;2965.2581;3;27.717497;0.0;26.344448;0;0.39787972;  9.9994961E+03;  0.0000000E+00;  4.0885629E-03;  1.0000000E+04;  0.0000000E+00;  9.9912549E+03;0.032123357;0.0;0.36575636;3557.9109
  9.8001957E-01;  9.9999998E-03;  2.8004619E-01;2577;0.028114516;0.0;0.045475561;1003.5104;  4.0162492E-01;2893.3374;3;29.209505;0.0;21.727787;0;0.43790492;  9.9993359E+03;  0.0000000E+00;  4.2845635E-03;  1.0000000E+04;  0.0000000E+00;  9.9896748E+03;0.042056676;0.0;0.39584824;4257.0801
  9.8001975E-01;  9.9999998E-03;  3.0005231E-01;2578;0.028317319;0.0;0.046803638;1003.5285;  4.0162498E-01;2908.1736;3;31.084759;0.0;19.385303;0;0.37919074;  9.9991963E+03;  0.0000000E+00;  3.1769858E-05;  1.0000000E+04;  0.0000000E+00;  9.9901748E+03;0.050796095;0.0;0.32839465;4116.9746
  1.0000143E+00;  9.9999998E-03;  1.6000445E-01;2602;0.019508496;0.0;0.0086130938;1003.4755;  4.0142640E-01;2859.4197;3;17.293877;0.0;11.059893;0;0.1046711;  1.0000380E+04;  0.0000000E+00;  2.7856480E-08;  1.0000000E+04;  0.0000000E+00;  9.9978193E+03;-0.021280399;0.0;0.1259515;814.90399
  1.0000150E+00;  9.9999998E-03;  1.8000564E-01;2603;0.020649336;0.0;0.010640031;1003.4199;  4.0142637E-01;2813.6179;3;18.682709;0.0;13.258375;0;0.15033509;  1.0000300E+04;  0.0000000E+00;  3.4091581E-06;  1.0000000E+04;  0.0000000E+00;  9.9967910E+03;-0.016579567;0.0;0.16691466;1226.5743
  1.0000159E+00;  9.9999998E-03;  2.0000760E-01;2604;0.022169085;0.0;0.013354921;1003.3537;  4.0142637E-01;2759.1848;3;20.441858;0.0;15.568286;0;0.20179109;  1.0000176E+04;  0.0000000E+00;  2.0351030E-04;  1.0000000E+04;  0.0000000E+00;  9.9955957E+03;-0.009337578;0.0;0.21112867;1709.7048
  1.0000170E+00;  9.9999998E-03;  2.2001152E-01;2605;0.024093488;0.0;0.017815782;1003.2875;  4.0142646E-01;2704.7522;3;22.655949;0.0;18.257065;0;0.25110966;  1.0000016E+04;  0.0000000E+00;  1.6277985E-03;  1.0000000E+04;  0.0000000E+00;  9.9944346E+03;0.0002357929;0.0;0.25087386;2183.3752
  1.0000184E+00;  9.9999998E-03;  2.4001890E-01;2606;0.02629732;0.0;0.025196288;1003.2268;  4.0142646E-01;2654.7332;3;25.423702;0.0;21.410881;0;0.29597202;  9.9998281E+03;  0.0000000E+00;  5.6874095E-03;  1.0000000E+04;  0.0000000E+00;  9.9934121E+03;0.011524303;0.0;0.28444773;2602.6365
  1.0000193E+00;  9.9999998E-03;  2.6003012E-01;2607;0.027880721;0.0;0.034706034;1003.1564;  4.0142652E-01;2596.8674;3;27.964249;0.0;23.290527;0;0.35015553;  9.9996279E+03;  0.0000000E+00;  1.1034628E-02;  1.0000000E+04;  0.0000000E+00;  9.9922080E+03;0.023598379;0.0;0.32655716;3092.7061
  1.0000201E+00;  9.9999998E-03;  2.8004101E-01;2608;0.028896187;0.0;0.040528491;1003.0798;  4.0142661E-01;2533.8042;3;30.14138;0.0;19.69454;0;0.38674647;  9.9994346E+03;  0.0000000E+00;  1.0586729E-02;  1.0000000E+04;  0.0000000E+00;  9.9908740E+03;0.035463758;0.0;0.35128272;3669.1389
  1.0000207E+00;  9.9999998E-03;  3.0004659E-01;2609;0.029670615;0.0;0.042065285;1003.0959;  4.0142652E-01;2547.0444;3;32.476456;0.0;18.047373;0;0.3381888;  9.9992549E+03;  0.0000000E+00; -8.4427564E-04;  1.0000000E+04;  0.0000000E+00;  9.9913691E+03;0.04630103;0.0;0.29188776;3523.325
  1.0200137E+00;  9.9999998E-03;  1.6000403E-01;2633;0.0187151;0.0;0.0077175437;1003.0318;  4.0124202E-01;2488.3889;3;16.694443;0.0;9.8151855;0;0.084975339;  1.0000514E+04;  0.0000000E+00; -3.1736747E-06;  1.0000000E+04;  0.0000000E+00;  9.9980254E+03;-0.02851215;0.0;0.11348749;717.24316
  1.0200144E+00;  9.9999998E-03;  1.8000509E-01;2634;0.019864108;0.0;0.0094959224;1002.9811;  4.0124205E-01;2446.8062;3;18.07366;0.0;11.75063;0;0.12679371;  1.0000424E+04;  0.0000000E+00; -8.0785117E-05;  1.0000000E+04;  0.0000000E+00;  9.9971035E+03;-0.023559997;0.0;0.15035371;1073.5947
  1.0200152E+00;  9.9999998E-03;  2.0000684E-01;2635;0.021346975;0.0;0.011922157;1002.9213;  4.0124205E-01;2397.592;3;19.822315;0.0;13.829344;0;0.1738952;  1.0000294E+04;  0.0000000E+00;  8.2217979E-05;  1.0000000E+04;  0.0000000E+00;  9.9960410E+03;-0.016170928;0.0;0.19006613;1489.271
  1.0200166E+00;  9.9999998E-03;  2.2001030E-01;2636;0.023389861;0.0;0.015834397;1002.8613;  4.0124211E-01;2348.4753;3;22.095146;0.0;16.148609;0;0.21913768;  1.0000125E+04;  0.0000000E+00;  2.6195978E-03;  1.0000000E+04;  0.0000000E+00;  9.9950137E+03;-0.0065136952;0.0;0.22565138;1894.5962
  1.0200182E+00;  9.9999998E-03;  2.4001685E-01;2637;0.026002711;0.0;0.02233669;1002.8062;  4.0124214E-01;2303.1743;3;25.167274;0.0;18.865631;0;0.26054883;  9.9999258E+03;  0.0000000E+00;  1.0204620E-02;  1.0000000E+04;  0.0000000E+00;  9.9941143E+03;0.0051429118;0.0;0.25540593;2251.4478
  1.0200197E+00;  9.9999998E-03;  2.6002672E-01;2638;0.028251234;0.0;0.030668855;1002.7432;  4.0124214E-01;2251.416;3;28.425154;0.0;20.484673;0;0.30935222;  9.9997061E+03;  0.0000000E+00;  1.9596724E-02;  1.0000000E+04;  0.0000000E+00;  9.9930752E+03;0.018161507;0.0;0.29119071;2661.7554
  1.0200210E+00;  9.9999998E-03;  2.8003624E-01;2639;0.030207826;0.0;0.03593871;1002.6776;  4.0124217E-01;2197.6033;3;31.609749;0.0;17.788881;0;0.34121978;  9.9994814E+03;  0.0000000E+00;  1.7085627E-02;  1.0000000E+04;  0.0000000E+00;  9.9919951E+03;0.031793442;0.0;0.30942634;3115.5229
  1.0200223E+00;  9.9999998E-03;  3.0004120E-01;2640;0.031734519;0.0;0.037639879;1002.6937;  4.0124214E-01;2210.8115;3;34.657448;0.0;16.958017;0;0.30100632;  9.9992617E+03;  0.0000000E+00; -3.2525645E-03;  1.0000000E+04;  0.0000000E+00;  9.9925322E+03;0.044986621;0.0;0.25601971;2946.1831
  1.0400130E+00;  9.9999998E-03;  1.6000365E-01;2664;0.017807461;0.0;0.0068829074;1002.6263;  4.0107533E-01;2148.6094;3;16.001854;0.0;8.6659431;0;0.071454525;  1.0000574E+04;  0.0000000E+00; -6.6687382E-05;  1.0000000E+04;  0.0000000E+00;  9.9981904E+03;-0.03168099;0.0;0.10313552;632.86865
  1.0400137E+00;  9.9999998E-03;  1.8000463E-01;2665;0.0189957;0.0;0.0085034491;1002.5803;  4.0107539E-01;2110.9639;3;17.426056;0.0;10.391105;0;0.10978262;  1.0000479E+04;  0.0000000E+00; -7.1894214E-04;  1.0000000E+04;  0.0000000E+00;  9.9973682E+03;-0.026606664;0.0;0.13638929;937.72858
  1.0400145E+00;  9.9999998E-03;  2.0000622E-01;2666;0.020499684;0.0;0.010675265;1002.5268;  4.0107536E-01;2067.1741;3;19.173462;0.0;12.231382;0;0.1522629;  1.0000351E+04;  0.0000000E+00; -1.7209877E-03;  1.0000000E+04;  0.0000000E+00;  9.9964277E+03;-0.019663341;0.0;0.17192625;1289.3654
  1.0400159E+00;  9.9999998E-03;  2.2000942E-01;2667;0.022689492;0.0;0.014289202;1002.4736;  4.0107536E-01;2023.6766;3;21.563154;0.0;14.386065;0;0.19281821;  1.0000192E+04;  0.0000000E+00;  7.7836961E-04;  1.0000000E+04;  0.0000000E+00;  9.9955244E+03;-0.010929109;0.0;0.20374732;1630.4238
  1.0400180E+00;  9.9999998E-03;  2.4001530E-01;2668;0.02574197;0.0;0.020061336;1002.4241;  4.0107542E-01;1983.2024;3;24.99391;0.0;16.743244;0;0.23036668;  1.0000002E+04;  0.0000000E+00;  1.1265532E-02;  1.0000000E+04;  0.0000000E+00;  9.9947295E+03;-3.1965392e-05;0.0;0.23039864;1931.9733
  1.0400201E+00;  9.9999998E-03;  2.6002392E-01;2669;0.028957419;0.0;0.02725696;1002.3679;  4.0107539E-01;1937.1692;3;29.235044;0.0;18.06716;0;0.27396405;  9.9997754E+03;  0.0000000E+00;  2.3182757E-02;  1.0000000E+04;  0.0000000E+00;  9.9938311E+03;0.013237527;0.0;0.26072651;2274.6226
  1.0400224E+00;  9.9999998E-03;  2.8003204E-01;2670;0.032168128;0.0;0.031858694;1002.3138;  4.0107539E-01;1892.8914;3;33.796642;0.0;16.165062;0;0.30016166;  9.9995146E+03;  0.0000000E+00;  1.6743749E-02;  1.0000000E+04;  0.0000000E+00;  9.9930156E+03;0.028982842;0.0;0.27117881;2606.0234
  1.0400245E+00;  9.9999998E-03;  3.0003631E-01;2671;0.034949351;0.0;0.033733375;1002.3304;  4.0107539E-01;1906.5442;3;38.290611;0.0;16.353676;0;0.26909477;  9.9992217E+03;  0.0000000E+00; -4.2113005E-03;  1.0000000E+04;  0.0000000E+00;  9.9936357E+03;0.046362165;0.0;0.22273259;2400.7258
  1.0600122E+00;  9.9999998E-03;  1.6000329E-01;2695;0.016858714;0.0;0.0061314618;1002.2658;  4.0092853E-01;1845.7479;3;15.288041;0.0;7.6488762;0;0.063450575;  1.0000577E+04;  0.0000000E+00; -4.4052440E-04;  1.0000000E+04;  0.0000000E+00;  9.9983145E+03;-0.031719163;0.0;0.095169738;562.15179
  1.0600129E+00;  9.9999998E-03;  1.8000424E-01;2696;0.018058179;0.0;0.0076414854;1002.2242;  4.0092853E-01;1811.8566;3;16.716663;0.0;9.1915817;0;0.098304823;  1.0000482E+04;  0.0000000E+00; -2.9535128E-03;  1.0000000E+04;  0.0000000E+00;  9.9975811E+03;-0.026913207;0.0;0.12521803;819.22754
  1.0600139E+00;  9.9999998E-03;  2.0000578E-01;2697;0.01967749;0.0;0.0096774623;1002.1776;  4.0092856E-01;1773.8865;3;18.569162;0.0;10.843033;0;0.13556018;  1.0000373E+04;  0.0000000E+00; -7.3543880E-03;  1.0000000E+04;  0.0000000E+00;  9.9967578E+03;-0.021265443;0.0;0.15682563;1110.7635
  1.0600154E+00;  9.9999998E-03;  2.2000889E-01;2698;0.022067513;0.0;0.013180291;1002.1315;  4.0092856E-01;1736.3047;3;21.137234;0.0;12.945391;0;0.17057504;  1.0000245E+04;  0.0000000E+00; -7.2200568E-03;  1.0000000E+04;  0.0000000E+00;  9.9959678E+03;-0.014643214;0.0;0.18521824;1392.2926
  1.0600178E+00;  9.9999998E-03;  2.4001431E-01;2699;0.02554146;0.0;0.018478762;1002.0877;  4.0092856E-01;1700.6649;3;24.878374;0.0;15.166077;0;0.20410766;  1.0000084E+04;  0.0000000E+00;  3.6054584E-03;  1.0000000E+04;  0.0000000E+00;  9.9952549E+03;-0.0057183001;0.0;0.20982596;1647.1262
  1.0600208E+00;  9.9999998E-03;  2.6002181E-01;2700;0.02986707;0.0;0.024611291;1002.0367;  4.0092856E-01;1659.1011;3;30.122322;0.0;16.231358;0;0.24327978;  9.9998564E+03;  0.0000000E+00;  1.2891390E-02;  1.0000000E+04;  0.0000000E+00;  9.9944639E+03;0.0075706854;0.0;0.2357091;1933.3531
  1.0600241E+00;  9.9999998E-03;  2.8002846E-01;2701;0.034488671;0.0;0.028411051;1001.9937;  4.0092859E-01;1624.0436;3;36.312084;0.0;14.987036;0;0.26393548;  9.9995332E+03;  0.0000000E+00;  2.5839719E-03;  1.0000000E+04;  0.0000000E+00;  9.9939287E+03;0.027009876;0.0;0.23692559;2145.2815
  1.0600274E+00;  9.9999998E-03;  3.0003196E-01;2702;0.038662218;0.0;0.030293467;1002.0095;  4.0092859E-01;1636.9579;3;42.424847;0.0;16.096029;0;0.24345845;  9.9990996E+03;  0.0000000E+00;  8.5370410E-03;  1.0000000E+04;  0.0000000E+00;  9.9946807E+03;0.052723683;0.0;0.19073476;1893.6733
  1.0800115E+00;  9.9999998E-03;  1.6000299E-01;2726;0.0159282;0.0;0.005489253;1001.9523;  4.0080246E-01;1581.3033;3;14.58834;0.0;6.758657;0;0.060374431;  1.0000532E+04;  0.0000000E+00; -1.9122480E-03;  1.0000000E+04;  0.0000000E+00;  9.9983936E+03;-0.02919179;0.0;0.089566223;503.01129
  1.0800122E+00;  9.9999998E-03;  1.8000393E-01;2727;0.017143238;0.0;0.0068998085;1001.9156;  4.0080246E-01;1551.5637;3;16.035952;0.0;8.1213284;0;0.09140937;  1.0000447E+04;  0.0000000E+00; -8.4662847E-03;  1.0000000E+04;  0.0000000E+00;  9.9977432E+03;-0.025227085;0.0;0.11663646;715.90576
  1.0800133E+00;  9.9999998E-03;  2.0000558E-01;2728;0.018937465;0.0;0.008991098;1001.876;  4.0080249E-01;1519.5065;3;18.034678;0.0;9.7489758;0;0.12275603;  1.0000369E+04;  0.0000000E+00; -1.8860972E-02;  1.0000000E+04;  0.0000000E+00;  9.9970322E+03;-0.021722334;0.0;0.14447837;952.65527
  1.0800152E+00;  9.9999998E-03;  2.2000876E-01;2729;0.021623336;0.0;0.012533897;1001.8377;  4.0080246E-01;1488.511;3;20.921741;0.0;11.847122;0;0.15174684;  1.0000294E+04;  0.0000000E+00; -2.3460757E-02;  1.0000000E+04;  0.0000000E+00;  9.9963438E+03;-0.018135048;0.0;0.1698819;1181.6378
  1.0800179E+00;  9.9999998E-03;  2.4001391E-01;2730;0.025452927;0.0;0.017557018;1001.7986;  4.0080249E-01;1456.8394;3;24.947371;0.0;14.053835;0;0.18170689;  1.0000173E+04;  0.0000000E+00; -1.6126465E-02;  1.0000000E+04;  0.0000000E+00;  9.9956855E+03;-0.011949461;0.0;0.19365636;1399.1749
  1.0800215E+00;  9.9999998E-03;  2.6002038E-01;2731;0.030612117;0.0;0.022741819;1001.7514;  4.0080243E-01;1418.6012;3;30.837536;0.0;15.043219;0;0.21750741;  9.9999365E+03;  0.0000000E+00; -1.5198955E-02;  1.0000000E+04;  0.0000000E+00;  9.9949824E+03;0.0017247997;0.0;0.21578261;1636.9075
  1.0800256E+00;  9.9999998E-03;  2.8002557E-01;2732;0.036105506;0.0;0.025775539;1001.7184;  4.0080252E-01;1391.8534;3;37.72834;0.0;14.665017;0;0.23412172;  9.9995234E+03;  0.0000000E+00; -1.9178882E-02;  1.0000000E+04;  0.0000000E+00;  9.9947334E+03;0.026360679;0.0;0.20776105;1736.2583
  1.0800296E+00;  9.9999998E-03;  3.0002815E-01;2733;0.041266635;0.0;0.027498985;1001.7315;  4.0080243E-01;1402.4728;3;44.839722;0.0;16.722538;0;0.22575045;  9.9988721E+03;  0.0000000E+00;  5.7120390E-02;  1.0000000E+04;  0.0000000E+00;  9.9956484E+03;0.064191855;0.0;0.16155858;1447.8367
  1.1000108E+00;  9.9999998E-03;  1.6000272E-01;2756;0.015024681;0.0;0.0048924214;1001.6855;  4.0069669E-01;1354.9507;3;13.93175;0.0;5.9131131;0;0.06157741;  1.0000438E+04;  0.0000000E+00; -6.0671917E-03;  1.0000000E+04;  0.0000000E+00;  9.9984414E+03;-0.024394944;0.0;0.085972354;451.69601
  1.1000115E+00;  9.9999998E-03;  1.8000376E-01;2757;0.016356485;0.0;0.0063482649;1001.654;  4.0069664E-01;1329.6509;3;15.467534;0.0;7.2266984;0;0.088209584;  1.0000379E+04;  0.0000000E+00; -1.9147273E-02;  1.0000000E+04;  0.0000000E+00;  9.9978730E+03;-0.021899186;0.0;0.11010877;625.0542
  1.1000129E+00;  9.9999998E-03;  2.0000562E-01;2758;0.018363789;0.0;0.0086447103;1001.622;  4.0069675E-01;1303.8716;3;17.682072;0.0;8.9283762;0;0.11324204;  1.0000348E+04;  0.0000000E+00; -3.6983341E-02;  1.0000000E+04;  0.0000000E+00;  9.9972637E+03;-0.021129807;0.0;0.13437185;815.091
  1.1000149E+00;  9.9999998E-03;  2.2000898E-01;2759;0.021369934;0.0;0.012316692;1001.5906;  4.0069675E-01;1278.6671;3;20.897091;0.0;11.078566;0;0.13660198;  1.0000322E+04;  0.0000000E+00; -4.7267508E-02;  1.0000000E+04;  0.0000000E+00;  9.9966611E+03;-0.020809047;0.0;0.15741102;1001.3899
  1.1000180E+00;  9.9999998E-03;  2.4001394E-01;2760;0.025544951;0.0;0.017124068;1001.5549;  4.0069669E-01;1250.0121;3;25.258398;0.0;13.283155;0;0.16431548;  1.0000240E+04;  0.0000000E+00; -4.7124725E-02;  1.0000000E+04;  0.0000000E+00;  9.9960303E+03;-0.016905781;0.0;0.18122126;1191.5118
  1.1000220E+00;  9.9999998E-03;  2.6001936E-01;2761;0.031007802;0.0;0.021356044;1001.5123;  4.0069669E-01;1215.7026;3;31.55098;0.0;14.164442;0;0.19593248;  9.9999873E+03;  0.0000000E+00; -5.1578715E-02;  1.0000000E+04;  0.0000000E+00;  9.9954326E+03;-0.0023062371;0.0;0.19823872;1378.0162
  1.1000261E+00;  9.9999998E-03;  2.8002325E-01;2762;0.036443233;0.0;0.023755621;1001.4899;  4.0069672E-01;1197.6844;3;38.296265;0.0;14.802325;0;0.20774564;  9.9994990E+03;  0.0000000E+00; -2.1231795E-02;  1.0000000E+04;  0.0000000E+00;  9.9954766E+03;0.026003182;0.0;0.18174246;1368.2566
  1.1200101E+00;  9.9999998E-03;  1.6000256E-01;2785;0.014273126;0.0;0.0044432096;1001.4635;  4.0061006E-01;1164.9181;3;13.403288;0.0;5.2120452;0;0.065972276;  1.0000307E+04;  0.0000000E+00; -1.5421836E-02;  1.0000000E+04;  0.0000000E+00;  9.9984668E+03;-0.017767282;0.0;0.083739556;404.76724
  1.1200111E+00;  9.9999998E-03;  1.8000378E-01;2786;0.01576121;0.0;0.0060537201;1001.4376;  4.0060997E-01;1144.3271;3;15.0818;0.0;6.5697718;0;0.087597512;  1.0000279E+04;  0.0000000E+00; -3.6413338E-02;  1.0000000E+04;  0.0000000E+00;  9.9979766E+03;-0.01730066;0.0;0.10489817;545.5351
  1.1200126E+00;  9.9999998E-03;  2.0000596E-01;2787;0.018038316;0.0;0.0086408528;1001.4126;  4.0061000E-01;1124.4;3;17.567999;0.0;8.3796291;0;0.10663155;  1.0000297E+04;  0.0000000E+00; -6.0465444E-02;  1.0000000E+04;  0.0000000E+00;  9.9974590E+03;-0.019346416;0.0;0.12597796;698.81049
  1.1200150E+00;  9.9999998E-03;  2.2000954E-01;2788;0.021389373;0.0;0.012493343;1001.3862;  4.0060997E-01;1103.4288;3;21.129105;0.0;10.659179;0;0.12627101;  1.0000315E+04;  0.0000000E+00; -7.5537831E-02;  1.0000000E+04;  0.0000000E+00;  9.9969141E+03;-0.021424673;0.0;0.14769568;854.13806
  1.1200184E+00;  9.9999998E-03;  2.4001421E-01;2789;0.025913943;0.0;0.016896434;1001.3519;  4.0061000E-01;1076.0996;3;26.141441;0.0;12.631545;0;0.1531096;  1.0000239E+04;  0.0000000E+00; -8.2468942E-02;  1.0000000E+04;  0.0000000E+00;  9.9963066E+03;-0.017727634;0.0;0.17083722;1020.7115
  1.1200222E+00;  9.9999998E-03;  2.6001853E-01;2790;0.031138036;0.0;0.020134998;1001.3172;  4.0060994E-01;1048.3907;3;32.426243;0.0;13.414065;0;0.17757575;  9.9999639E+03;  0.0000000E+00; -7.2713763E-02;  1.0000000E+04;  0.0000000E+00;  9.9958906E+03;-0.0017724431;0.0;0.1793482;1132.4359
  1.1200260E+00;  9.9999998E-03;  2.8002116E-01;2791;0.036035046;0.0;0.021941546;1001.3076;  4.0060994E-01;1040.7976;3;38.801167;0.0;14.851141;0;0.18289191;  9.9994414E+03;  0.0000000E+00;  2.2537405E-02;  1.0000000E+04;  0.0000000E+00;  9.9962197E+03;0.027921412;0.0;0.1549705;1028.719
  1.1400096E+00;  9.9999998E-03;  1.6000259E-01;2813;0.013724327;0.0;0.0042272946;1001.2827;  4.0054041E-01;1007.9009;3;13.047297;0.0;4.7052708;0;0.071968235;  1.0000148E+04;  0.0000000E+00; -3.2223299E-02;  1.0000000E+04;  0.0000000E+00;  9.9984873E+03;-0.01008417;0.0;0.082052402;361.77951
  1.1400108E+00;  9.9999998E-03;  1.8000408E-01;2814;0.015442996;0.0;0.0061061936;1001.2625;  4.0054047E-01;992.06964;3;14.940966;0.0;6.1833239;0;0.088439606;  1.0000163E+04;  0.0000000E+00; -5.9610050E-02;  1.0000000E+04;  0.0000000E+00;  9.9980684E+03;-0.011931566;0.0;0.10037117;477.88452
  1.1400126E+00;  9.9999998E-03;  2.0000662E-01;2815;0.018083349;0.0;0.009041761;1001.2426;  4.0054038E-01;976.42529;3;17.792311;0.0;8.1677618;0;0.10322416;  1.0000216E+04;  0.0000000E+00; -8.6134613E-02;  1.0000000E+04;  0.0000000E+00;  9.9976182E+03;-0.016013533;0.0;0.11923769;603.43127
  1.1400154E+00;  9.9999998E-03;  2.2001034E-01;2816;0.021859955;0.0;0.012953511;1001.2178;  4.0054035E-01;956.84613;3;21.989182;0.0;10.447008;0;0.12263227;  1.0000240E+04;  0.0000000E+00; -1.0395018E-01;  1.0000000E+04;  0.0000000E+00;  9.9970977E+03;-0.018089652;0.0;0.14072192;736.77844
  1.1400187E+00;  9.9999998E-03;  2.4001443E-01;2817;0.026497481;0.0;0.016605537;1001.1854;  4.0054038E-01;931.45911;3;27.544075;0.0;11.898108;0;0.14810321;  1.0000132E+04;  0.0000000E+00; -1.0583082E-01;  1.0000000E+04;  0.0000000E+00;  9.9965615E+03;-0.011817875;0.0;0.15992108;862.92871
  1.1400222E+00;  9.9999998E-03;  2.6001760E-01;2818;0.031077133;0.0;0.01898714;1001.1621;  4.0054044E-01;913.09735;3;33.249107;0.0;13.113077;0;0.16307001;  9.9998340E+03;  0.0000000E+00; -4.8118934E-02;  1.0000000E+04;  0.0000000E+00;  9.9963945E+03;0.0056588356;0.0;0.15741117;875.21985
  1.1600095E+00;  9.9999998E-03;  1.6000287E-01;2840;0.01347535;0.0;0.0043596756;1001.1395;  4.0048587E-01;880.68079;3;12.960456;0.0;4.4965978;0;0.077886626;  9.9999883E+03;  0.0000000E+00; -5.5887774E-02;  1.0000000E+04;  0.0000000E+00;  9.9985146E+03;-0.0023444495;0.0;0.080231078;324.58405
  1.1600109E+00;  9.9999998E-03;  1.8000475E-01;2841;0.015571791;0.0;0.0066114352;1001.1237;  4.0048584E-01;868.42615;3;15.194842;0.0;6.1749535;0;0.090368919;  1.0000036E+04;  0.0000000E+00; -8.4948763E-02;  1.0000000E+04;  0.0000000E+00;  9.9981475E+03;-0.0060585225;0.0;0.096427441;420.66684
  1.1600132E+00;  9.9999998E-03;  2.0000763E-01;2842;0.018708501;0.0;0.0098828012;1001.1051;  4.0048590E-01;854.05194;3;18.635214;0.0;8.3689337;0;0.10505091;  1.0000087E+04;  0.0000000E+00; -1.1001840E-01;  1.0000000E+04;  0.0000000E+00;  9.9977275E+03;-0.0098348269;0.0;0.11488573;524.63837
  1.1600161E+00;  9.9999998E-03;  2.2001119E-01;2843;0.022776166;0.0;0.013461762;1001.0788;  4.0048581E-01;833.78088;3;23.473108;0.0;10.31823;0;0.12700821;  1.0000059E+04;  0.0000000E+00; -1.2304585E-01;  1.0000000E+04;  0.0000000E+00;  9.9972305E+03;-0.0084471498;0.0;0.13545537;631.01263
  1.1600193E+00;  9.9999998E-03;  2.4001446E-01;2844;0.02703036;0.0;0.01627627;1001.0511;  4.0048587E-01;812.31207;3;28.704033;0.0;11.762298;0;0.148469;  9.9998877E+03;  0.0000000E+00; -8.9589946E-02;  1.0000000E+04;  0.0000000E+00;  9.9968457E+03;0.001933465;0.0;0.14653553;683.58453
  1.1600221E+00;  9.9999998E-03;  2.6001662E-01;2845;0.03069091;0.0;0.017982699;1001.0398;  4.0048584E-01;803.55756;3;33.61171;0.0;13.323803;0;0.1543615;  9.9995840E+03;  0.0000000E+00;  4.3997176E-02;  1.0000000E+04;  0.0000000E+00;  9.9969258E+03;0.019079803;0.0;0.1352817;646.52106
  1.1800097E+00;  9.9999998E-03;  1.6000360E-01;2866;0.013799216;0.0;0.0050420384;1001.0282;  4.0044385E-01;778.11218;3;13.328785;0.0;4.7400107;0;0.083441988;  9.9998301E+03;  0.0000000E+00; -8.1623212E-02;  1.0000000E+04;  0.0000000E+00;  9.9985430E+03;0.0050139297;0.0;0.07842806;292.12747
  1.1800117E+00;  9.9999998E-03;  1.8000582E-01;2867;0.016491469;0.0;0.0076839533;1001.013;  4.0044388E-01;766.65302;3;16.158615;0.0;6.7273788;0;0.09608534;  9.9998672E+03;  0.0000000E+00; -1.0788177E-01;  1.0000000E+04;  0.0000000E+00;  9.9982021E+03;0.0019488275;0.0;0.094136514;369.73016
  1.1800143E+00;  9.9999998E-03;  2.0000874E-01;2868;0.019933978;0.0;0.010895887;1000.9917;  4.0044388E-01;750.50214;3;20.069885;0.0;8.8962135;0;0.11472274;  9.9998555E+03;  0.0000000E+00; -1.2490989E-01;  1.0000000E+04;  0.0000000E+00;  9.9977871E+03;0.0020853234;0.0;0.11263742;448.91516
  1.1800170E+00;  9.9999998E-03;  2.2001185E-01;2869;0.023748836;0.0;0.013863651;1000.9647;  4.0044388E-01;730.11115;3;24.950644;0.0;10.522402;0;0.13813038;  9.9997510E+03;  0.0000000E+00; -1.0699824E-01;  1.0000000E+04;  0.0000000E+00;  9.9973535E+03;0.0084468564;0.0;0.12968352;504.78165
  1.1800196E+00;  9.9999998E-03;  2.4001427E-01;2870;0.027175095;0.0;0.015931813;1000.9448;  4.0044388E-01;715.04309;3;29.429981;0.0;12.076697;0;0.1525702;  9.9995537E+03;  0.0000000E+00; -8.0293906E-04;  1.0000000E+04;  0.0000000E+00;  9.9971563E+03;0.020238589;0.0;0.13233161;501.66116
  1.2000110E+00;  9.9999998E-03;  1.6000475E-01;2890;0.015180209;0.0;0.0063158576;1000.9398;  4.0041229E-01;692.92181;3;14.563208;0.0;5.6370707;0;0.092818424;  9.9996270E+03;  0.0000000E+00; -1.0449773E-01;  1.0000000E+04;  0.0000000E+00;  9.9985557E+03;0.014976556;0.0;0.07784187;259.75226
  1.2000134E+00;  9.9999998E-03;  1.8000700E-01;2891;0.018278725;0.0;0.0089222332;1000.9208;  4.0041238E-01;678.94513;3;17.849825;0.0;7.6566467;0;0.11029479;  9.9995781E+03;  0.0000000E+00; -1.2221642E-01;  1.0000000E+04;  0.0000000E+00;  9.9982266E+03;0.016963784;0.0;0.093331002;314.82846
  1.2000157E+00;  9.9999998E-03;  2.0000964E-01;2892;0.021433365;0.0;0.011722025;1000.8969;  4.0041232E-01;661.2771;3;21.721004;0.0;9.6025591;0;0.13233128;  9.9994805E+03;  0.0000000E+00; -1.0723037E-01;  1.0000000E+04;  0.0000000E+00;  9.9978447E+03;0.022048187;0.0;0.11028309;351.39935
  1.2000178E+00;  9.9999998E-03;  2.2001219E-01;2893;0.024344886;0.0;0.014051053;1000.874;  4.0041232E-01;644.40051;3;25.980934;0.0;11.037931;0;0.15143408;  9.9993691E+03;  0.0000000E+00; -1.5854271E-02;  1.0000000E+04;  0.0000000E+00;  9.9974990E+03;0.029040601;0.0;0.12239347;365.04697
  1.2200131E+00;  9.9999998E-03;  1.6000591E-01;2913;0.017598739;0.0;0.0076001743;1000.863;  4.0038911E-01;616.35327;3;16.825659;0.0;6.6953788;0;0.11288647;  9.9992578E+03;  0.0000000E+00; -1.1585831E-01;  1.0000000E+04;  0.0000000E+00;  9.9985537E+03;0.034738977;0.0;0.078147493;217.28568
  1.2200152E+00;  9.9999998E-03;  1.8000802E-01;2914;0.020217197;0.0;0.0099637229;1000.8417;  4.0038902E-01;601.19562;3;19.875942;0.0;8.6215563;0;0.13290574;  9.9991484E+03;  0.0000000E+00; -1.0159505E-01;  1.0000000E+04;  0.0000000E+00;  9.9982383E+03;0.040141504;0.0;0.092764229;237.29755
  1.2200168E+00;  9.9999998E-03;  2.0001023E-01;2915;0.022438753;0.0;0.012212665;1000.8217;  4.0038911E-01;586.88989;3;23.085884;0.0;10.316931;0;0.15029736;  9.9990713E+03;  0.0000000E+00; -1.5357343E-02;  1.0000000E+04;  0.0000000E+00;  9.9979141E+03;0.043683723;0.0;0.10661364;242.98322
  1.2200181E+00;  9.9999998E-03;  2.2001220E-01;2916;0.024245778;0.0;0.01392591;1000.8064;  4.0038905E-01;575.9903;3;26.155121;0.0;11.550968;0;0.15973899;  9.9990283E+03;  0.0000000E+00;  1.6341622E-01;  1.0000000E+04;  0.0000000E+00;  9.9976484E+03;0.045485854;0.0;0.11425313;343.56305
  1.2400148E+00;  9.9999998E-03;  1.6000701E-01;2934;0.019401761;0.0;0.0087481095;1000.7993;  4.0037224E-01;549.86884;3;18.841394;0.0;7.7743921;0;0.13595425;  9.9988545E+03;  0.0000000E+00; -8.0371760E-02;  1.0000000E+04;  0.0000000E+00;  9.9985225E+03;0.056354247;0.0;0.079599999;150.52867
  1.2400160E+00;  9.9999998E-03;  1.8000887E-01;2935;0.020853091;0.0;0.010769952;1000.7855;  4.0037221E-01;540.35455;3;20.987097;0.0;9.5526466;0;0.14693823;  9.9988760E+03;  0.0000000E+00; -7.1171660E-04;  1.0000000E+04;  0.0000000E+00;  9.9982246E+03;0.05382267;0.0;0.093115561;160.0126
  1.2600151E+00;  9.9999998E-03;  1.6000792E-01;2952;0.019489054;0.0;0.0096586524;1000.7631;  4.0036044E-01;502.89587;3;19.489611;0.0;8.8269787;0;0.14072622;  9.9988008E+03;  0.0000000E+00;  3.6214408E-02;  1.0000000E+04;  0.0000000E+00;  9.9984463E+03;0.057660751;0.0;0.083065473;110.68621
