Pos.x;Pos.y;Pos.z;Idp;Vel.x;Vel.y;Vel.z;Rhop;Mass;Press;Type;Acec.x;Acec.y;Acec.z;CellOffSpring;GradVel;Qfxx;Qfxy;Qfxz;Qfyy;Qfyz;Qfzz;StrainDot.x;StrainDot.y;StrainDot.z;VonMises3D
 -2.2000000E-01;  9.9999998E-03; -3.8000000E-01;0;0.0;0.0;0.0;1000.0;  4.0000001E-01;0.0;0;0.0;0.0;0.0;0;0.0;  1.0000000E+04;  0.0000000E+00;  0.0000000E+00;  1.0000000E+04;  0.0000000E+00;  1.0000000E+04;0.0;0.0;0.0;0.0
 -2.2000000E-01;  9.9999998E-03; -3.6000001E-01;1;0.0;0.0;0.0;1000.0;  4.0000001E-01;0.0;0;0.0;0.0;0.0;0;0.0;  1.0000000E+04;  0.0000000E+00;  0.0000000E+00;  1.0000000E+04;  0.0000000E+00;  1.0000000E+04;0.0;0.0;0.0;0.0
 -2.0000000E-01;  9.9999998E-03; -4.0000001E-01;39;0.0;0.0;0.0;1000.0;  4.0000001E-01;0.0;0;0.0;0.0;0.0;0;0.0;  1.0000000E+04;  0.0000000E+00;  0.0000000E+00;  1.0000000E+04;  0.0000000E+00;  1.0000000E+04;0.0;0.0;0.0;0.0
 -2.0000000E-01;  9.9999998E-03; -3.8000000E-01;40;0.0;0.0;0.0;1000.0;  4.0000001E-01;0.0;0;0.0;0.0;0.0;0;0.0;  1.0000000E+04;  0.0000000E+00;  0.0000000E+00;  1.0000000E+04;  0.0000000E+00;  1.0000000E+04;0.0;0.0;0.0;0.0
 -2.0000000E-01;  9.9999998E-03; -3.6000001E-01;41;0.0;0.0;0.0;1000.0;  4.0000001E-01;0.0;0;0.0;0.0;0.0;0;0.0;  1.0000000E+04;  0.0000000E+00;  0.0000000E+00;  1.0000000E+04;  0.0000000E+00;  1.0000000E+04;0.0;0.0;0.0;0.0
 -1.8000001E-01;  9.9999998E-03; -4.0000001E-01;80;0.0;0.0;0.0;1000.0;  4.0000001E-01;0.0;0;0.0;0.0;0.0;0;0.0;  1.0000000E+04;  0.0000000E+00;  0.0000000E+00;  1.0000000E+04;  0.0000000E+00;  1.0000000E+04;0.0;0.0;0.0;0.0
 -1.8000001E-01;  9.9999998E-03; -3.8000000E-01;81;0.0;0.0;0.0;1000.0;  4.0000001E-01;0.0;0;0.0;0.0;0.0;0;0.0;  1.0000000E+04;  0.0000000E+00;  0.0000000E+00;  1.0000000E+04;  0.0000000E+00;  1.0000000E+04;0.0;0.0;0.0;0.0
 -1.8000001E-01;  9.9999998E-03; -3.6000001E-01;82;0.0;0.0;0.0;1000.0;  4.0000001E-01;0.0;0;0.0;0.0;0.0;0;0.0;  1.0000000E+04;  0.0000000E+00;  0.0000000E+00;  1.0000000E+04;  0.0000000E+00;  1.0000000E+04;0.0;0.0;0.0;0.0
 -1.6000000E-01;  9.9999998E-03; -4.0000001E-01;121;0.0;0.0;0.0;1000.0;  4.0000001E-01;0.0;0;0.0;0.0;0.0;0;0.0;  1.0000000E+04;  0.0000000E+00;  0.0000000E+00;  1.0000000E+04;  0.0000000E+00;  1.0000000E+04;0.0;0.0;0.0;0.0
 -1.6000000E-01;  9.9999998E-03; -3.8000000E-01;122;0.0;0.0;0.0;1000.0;  4.0000001E-01;0.0;0;0.0;0.0;0.0;0;0.0;  1.0000000E+04;  0.0000000E+00;  0.0000000E+00;  1.0000000E+04;  0.0000000E+00;  1.0000000E+04;0.0;0.0;0.0;0.0
 -1.6000000E-01;  9.9999998E-03; -3.6000001E-01;123;0.0;0.0;0.0;1000.0;  4.0000001E-01;0.0;0;0.0;0.0;0.0;0;0.0;  1.0000000E+04;  0.0000000E+00;  0.0000000E+00;  1.0000000E+04;  0.0000000E+00;  1.0000000E+04;0.0;0.0;0.0;0.0
 -1.4000000E-01;  9.9999998E-03; -4.0000001E-01;162;0.0;0.0;0.0;1000.0;  4.0000001E-01;0.0;0;0.0;0.0;0.0;0;0.0;  1.0000000E+04;  0.0000000E+00;  0.0000000E+00;  1.0000000E+04;  0.0000000E+00;  1.0000000E+04;0.0;0.0;0.0;0.0
 -1.4000000E-01;  9.9999998E-03; -3.8000000E-01;163;0.0;0.0;0.0;1000.0;  4.0000001E-01;0.0;0;0.0;0.0;0.0;0;0.0;  1.0000000E+04;  0.0000000E+00;  0.0000000E+00;  1.0000000E+04;  0.0000000E+00;  1.0000000E+04;0.0;0.0;0.0;0.0
 -1.4000000E-01;  9.9999998E-03; -3.6000001E-01;164;0.0;0.0;0.0;1000.0;  4.0000001E-01;0.0;0;0.0;0.0;0.0;0;-1.0609186e-08;  1.0000000E+04;  0.0000000E+00;  0.0000000E+00;  1.0000000E+04;  0.0000000E+00;  1.0000000E+04;-8.4016367e-09;0.0;-2.2075488e-09;7.9320662e-06
 -1.2000000E-01;  9.9999998E-03; -4.0000001E-01;203;0.0;0.0;0.0;1000.0;  4.0000001E-01;0.0;0;0.0;0.0;0.0;0;-2.3439631e-26;  1.0000000E+04;  0.0000000E+00;  0.0000000E+00;  1.0000000E+04;  0.0000000E+00;  1.0000000E+04;-1.6590732e-26;0.0;-6.8488973e-27;0.0
 -1.2000000E-01;  9.9999998E-03; -3.8000000E-01;204;0.0;0.0;0.0;1000.0;  4.0000001E-01;0.0;0;0.0;0.0;0.0;0;-5.6833834e-08;  1.0000000E+04;  0.0000000E+00;  0.0000000E+00;  1.0000000E+04;  0.0000000E+00;  1.0000000E+04;-4.0459312e-08;0.0;-1.637452e-08;5.965884e-05
 -1.2000000E-01;  9.9999998E-03; -3.6000001E-01;205;0.0;0.0;0.0;1000.0;  4.0000001E-01;0.0;0;0.0;0.0;0.0;0;-3.8485999e-07;  1.0000000E+04;  0.0000000E+00;  0.0000000E+00;  1.0000000E+04;  0.0000000E+00;  1.0000000E+04;-2.9212782e-07;0.0;-9.2732165e-08;0.00033604534
 -1.0000000E-01;  9.9999998E-03; -4.0000001E-01;244;0.0;0.0;0.0;1000.0;  4.0000001E-01;0.0;0;0.0;0.0;0.0;0;-1.0685338e-07;  1.0000000E+04;  0.0000000E+00;  0.0000000E+00;  1.0000000E+04;  0.0000000E+00;  1.0000000E+04;-7.1436666e-08;0.0;-3.5416715e-08;0.00013041667
 -1.0000000E-01;  9.9999998E-03; -3.8000000E-01;245;0.0;0.0;0.0;1000.0;  4.0000001E-01;0.0;0;0.0;0.0;0.0;0;-7.7429252e-07;  1.0000000E+04;  0.0000000E+00;  0.0000000E+00;  1.0000000E+04;  0.0000000E+00;  1.0000000E+04;-5.2312561e-07;0.0;-2.5116694e-07;0.0009237029
 -1.0000000E-01;  9.9999998E-03; -3.6000001E-01;246;0.0;0.0;0.0;1000.0;  4.0000001E-01;0.0;0;0.0;0.0;0.0;0;-2.4403532e-06;  1.0000000E+04;  0.0000000E+00;  0.0000000E+00;  1.0000000E+04;  0.0000000E+00;  1.0000000E+04;-1.7809501e-06;0.0;-6.5940316e-07;0.0024157879
 -7.9999998E-02;  9.9999998E-03; -4.0000001E-01;285;0.0;0.0;0.0;1000.0;  4.0000001E-01;0.0;0;0.0;0.0;0.0;0;-9.1408691e-07;  1.0000000E+04;  0.0000000E+00;  0.0000000E+00;  1.0000000E+04;  0.0000000E+00;  1.0000000E+04;-5.7719512e-07;0.0;-3.3689179e-07;0.0012512627
 -7.9999998E-02;  9.9999998E-03; -3.8000000E-01;286;0.0;0.0;0.0;1000.0;  4.0000001E-01;0.0;0;0.0;0.0;0.0;0;-3.4758975e-06;  1.0000000E+04;  0.0000000E+00;  0.0000000E+00;  1.0000000E+04;  0.0000000E+00;  1.0000000E+04;-2.240447e-06;0.0;-1.2354506e-06;0.0045925537
 -7.9999998E-02;  9.9999998E-03; -3.6000001E-01;287;0.0;0.0;0.0;1000.0;  4.0000001E-01;0.0;0;0.0;0.0;0.0;0;-8.3699224e-06;  1.0000000E+04;  0.0000000E+00;  0.0000000E+00;  1.0000000E+04;  0.0000000E+00;  1.0000000E+04;-5.8898358e-06;0.0;-2.4800868e-06;0.0091868723
 -5.9999999E-02;  9.9999998E-03; -4.0000001E-01;326;0.0;0.0;0.0;1000.0;  4.0000001E-01;0.0;0;0.0;0.0;0.0;0;-3.3339629e-06;  1.0000000E+04;  0.0000000E+00;  0.0000000E+00;  1.0000000E+04;  0.0000000E+00;  1.0000000E+04;-1.9921392e-06;0.0;-1.3418236e-06;0.005040314
 -5.9999999E-02;  9.9999998E-03; -3.8000000E-01;327;0.0;0.0;0.0;1000.0;  4.0000001E-01;0.0;0;0.0;0.0;0.0;0;-9.7945849e-06;  1.0000000E+04;  0.0000000E+00;  0.0000000E+00;  1.0000000E+04;  0.0000000E+00;  1.0000000E+04;-6.0177576e-06;0.0;-3.7768273e-06;0.014214233
 -5.9999999E-02;  9.9999998E-03; -3.6000001E-01;328;0.0;0.0;0.0;1000.0;  4.0000001E-01;0.0;0;0.0;0.0;0.0;0;-2.0655909e-05;  1.0000000E+04;  0.0000000E+00;  0.0000000E+00;  1.0000000E+04;  0.0000000E+00;  1.0000000E+04;-1.3997064e-05;0.0;-6.6588441e-06;0.024995675
 -3.9999999E-02;  9.9999998E-03; -4.0000001E-01;367;0.0;0.0;0.0;1000.0;  4.0000001E-01;0.0;0;0.0;0.0;0.0;0;-8.143692e-06;  1.0000000E+04;  0.0000000E+00;  0.0000000E+00;  1.0000000E+04;  0.0000000E+00;  1.0000000E+04;-4.580053e-06;0.0;-3.5636394e-06;0.013571623
 -3.9999999E-02;  9.9999998E-03; -3.8000000E-01;368;0.0;0.0;0.0;1000.0;  4.0000001E-01;0.0;0;0.0;0.0;0.0;0;-2.102343e-05;  1.0000000E+04;  0.0000000E+00;  0.0000000E+00;  1.0000000E+04;  0.0000000E+00;  1.0000000E+04;-1.2250767e-05;0.0;-8.772663e-06;0.03350269
 -3.9999999E-02;  9.9999998E-03; -3.6000001E-01;369;0.0;0.0;0.0;1000.0;  4.0000001E-01;0.0;0;0.0;0.0;0.0;0;-4.1147716e-05;  1.0000000E+04;  0.0000000E+00;  0.0000000E+00;  1.0000000E+04;  0.0000000E+00;  1.0000000E+04;-2.6732268e-05;0.0;-1.4415449e-05;0.054954708
 -2.0000000E-02;  9.9999998E-03; -4.0000001E-01;408;0.0;0.0;0.0;1000.0;  4.0000001E-01;0.0;0;0.0;0.0;0.0;0;-1.5644468e-05;  1.0000000E+04;  0.0000000E+00;  0.0000000E+00;  1.0000000E+04;  0.0000000E+00;  1.0000000E+04;-8.2259266e-06;0.0;-7.4185414e-06;0.028728342
 -2.0000000E-02;  9.9999998E-03; -3.8000000E-01;409;0.0;0.0;0.0;1000.0;  4.0000001E-01;0.0;0;0.0;0.0;0.0;0;-3.7670849e-05;  1.0000000E+04;  0.0000000E+00;  0.0000000E+00;  1.0000000E+04;  0.0000000E+00;  1.0000000E+04;-2.0715348e-05;0.0;-1.6955502e-05;0.065892875
 -2.0000000E-02;  9.9999998E-03; -3.6000001E-01;410;0.0;0.0;0.0;1000.0;  4.0000001E-01;0.0;0;0.0;0.0;0.0;0;-7.052788e-05;  1.0000000E+04;  0.0000000E+00;  0.0000000E+00;  1.0000000E+04;  0.0000000E+00;  1.0000000E+04;-4.3754109e-05;0.0;-2.6773771e-05;0.10393838
  0.0000000E+00;  9.9999998E-03; -4.0000001E-01;449;0.0;0.0;0.0;1000.0;  4.0000001E-01;0.0;0;0.0;0.0;0.0;0;-2.5659745e-05;  1.0000000E+04;  0.0000000E+00;  0.0000000E+00;  1.0000000E+04;  0.0000000E+00;  1.0000000E+04;-1.2568365e-05;0.0;-1.309138e-05;0.051734369
  0.0000000E+00;  9.9999998E-03; -3.8000000E-01;450;0.0;0.0;0.0;1000.0;  4.0000001E-01;0.0;0;0.0;0.0;0.0;0;-5.9521721e-05;  1.0000000E+04;  0.0000000E+00;  0.0000000E+00;  1.0000000E+04;  0.0000000E+00;  1.0000000E+04;-3.0838892e-05;0.0;-2.8682827e-05;0.11382587
  0.0000000E+00;  9.9999998E-03; -3.6000001E-01;451;0.0;0.0;0.0;1000.0;  4.0000001E-01;0.0;0;0.0;0.0;0.0;0;-0.00010844921;  1.0000000E+04;  0.0000000E+00;  0.0000000E+00;  1.0000000E+04;  0.0000000E+00;  1.0000000E+04;-6.4186177e-05;0.0;-4.4263037e-05;0.17557818
  2.0000000E-02;  9.9999998E-03; -4.0000001E-01;461;0.0;0.0;0.0;1000.0;  4.0000001E-01;0.0;0;0.0;0.0;0.0;0;-3.790194e-05;  1.0000000E+04;  0.0000000E+00;  0.0000000E+00;  1.0000000E+04;  0.0000000E+00;  1.0000000E+04;-1.7358074e-05;0.0;-2.0543865e-05;0.08319357
  2.0000000E-02;  9.9999998E-03; -3.8000000E-01;462;0.0;0.0;0.0;1000.0;  4.0000001E-01;0.0;0;0.0;0.0;0.0;0;-8.6289438e-05;  1.0000000E+04;  0.0000000E+00;  0.0000000E+00;  1.0000000E+04;  0.0000000E+00;  1.0000000E+04;-4.2340511e-05;0.0;-4.3948927e-05;0.17882913
  2.0000000E-02;  9.9999998E-03; -3.6000001E-01;463;0.0;0.0;0.0;1000.0001;  4.0000001E-01;0.098762624;0;0.0;0.0;0.0;0;-0.00015461084;  1.0000000E+04;  0.0000000E+00;  0.0000000E+00;  1.0000000E+04;  0.0000000E+00;  1.0000000E+04;-8.7728004e-05;0.0;-6.6882829e-05;0.27218693
  3.9999999E-02;  9.9999998E-03; -4.0000001E-01;471;0.0;0.0;0.0;1000.0;  4.0000001E-01;0.0;0;0.0;0.0;0.0;0;-5.2515421e-05;  1.0000000E+04;  0.0000000E+00;  0.0000000E+00;  1.0000000E+04;  0.0000000E+00;  1.0000000E+04;-2.2811419e-05;0.0;-2.9704002e-05;0.12381473
  3.9999999E-02;  9.9999998E-03; -3.8000000E-01;472;0.0;0.0;0.0;1000.0001;  4.0000001E-01;0.098762624;0;0.0;0.0;0.0;0;-0.00011859932;  1.0000000E+04;  0.0000000E+00;  0.0000000E+00;  1.0000000E+04;  0.0000000E+00;  1.0000000E+04;-5.5875436e-05;0.0;-6.2723877e-05;0.26283443
  3.9999999E-02;  9.9999998E-03; -3.6000001E-01;473;0.0;0.0;0.0;1000.0001;  4.0000001E-01;0.098762624;0;0.0;0.0;0.0;0;-0.00021043571;  1.0000000E+04;  0.0000000E+00;  0.0000000E+00;  1.0000000E+04;  0.0000000E+00;  1.0000000E+04;-0.00011584708;0.0;-9.458862e-05;0.39663857
  5.9999999E-02;  9.9999998E-03; -4.0000001E-01;481;0.0;0.0;0.0;1000.0;  4.0000001E-01;0.0;0;0.0;0.0;0.0;0;-7.0552844e-05;  1.0000000E+04;  0.0000000E+00;  0.0000000E+00;  1.0000000E+04;  0.0000000E+00;  1.0000000E+04;-2.9811457e-05;0.0;-4.0741386e-05;0.17550839
  5.9999999E-02;  9.9999998E-03; -3.8000000E-01;482;0.0;0.0;0.0;1000.0001;  4.0000001E-01;0.098762624;0;0.0;0.0;0.0;0;-0.00015886308;  1.0000000E+04;  0.0000000E+00;  0.0000000E+00;  1.0000000E+04;  0.0000000E+00;  1.0000000E+04;-7.3402109e-05;0.0;-8.5460983e-05;0.37024462
  5.9999999E-02;  9.9999998E-03; -3.6000001E-01;483;0.0;0.0;0.0;1000.0001;  4.0000001E-01;0.098762624;0;0.0;0.0;0.0;0;-0.00028040266;  1.0000000E+04;  0.0000000E+00;  0.0000000E+00;  1.0000000E+04;  0.0000000E+00;  1.0000000E+04;-0.00015230713;0.0;-0.00012809555;0.55562967
  7.9999998E-02;  9.9999998E-03; -4.0000001E-01;491;0.0;0.0;0.0;1000.0;  4.0000001E-01;0.0;0;0.0;0.0;0.0;0;-9.4403164e-05;  1.0000000E+04;  0.0000000E+00;  0.0000000E+00;  1.0000000E+04;  0.0000000E+00;  1.0000000E+04;-4.0118772e-05;0.0;-5.4284395e-05;0.24247898
  7.9999998E-02;  9.9999998E-03; -3.8000000E-01;492;0.0;0.0;0.0;1000.0001;  4.0000001E-01;0.098762624;0;0.0;0.0;0.0;0;-0.0002123727;  1.0000000E+04;  0.0000000E+00;  0.0000000E+00;  1.0000000E+04;  0.0000000E+00;  1.0000000E+04;-9.886457e-05;0.0;-0.00011350813;0.5098725
  7.9999998E-02;  9.9999998E-03; -3.6000001E-01;493;0.0;0.0;0.0;1000.0002;  4.0000001E-01;0.19752525;0;0.0;0.0;0.0;0;-0.00037411065;  1.0000000E+04;  0.0000000E+00;  0.0000000E+00;  1.0000000E+04;  0.0000000E+00;  1.0000000E+04;-0.00020457641;0.0;-0.00016953424;0.76349562
  1.0000000E-01;  9.9999998E-03; -4.0000001E-01;501;0.0;0.0;0.0;1000.0001;  4.0000001E-01;0.098762624;0;0.0;0.0;0.0;0;-0.00012866569;  1.0000000E+04;  0.0000000E+00;  0.0000000E+00;  1.0000000E+04;  0.0000000E+00;  1.0000000E+04;-5.6966379e-05;0.0;-7.1699316e-05;0.34018338
  1.0000000E-01;  9.9999998E-03; -3.8000000E-01;502;0.0;0.0;0.0;1000.0001;  4.0000001E-01;0.098762624;0;0.0;0.0;0.0;0;-0.00028930054;  1.0000000E+04;  0.0000000E+00;  0.0000000E+00;  1.0000000E+04;  0.0000000E+00;  1.0000000E+04;-0.00013954139;0.0;-0.00014975916;0.69848949
  1.0000000E-01;  9.9999998E-03; -3.6000001E-01;503;0.0;0.0;0.0;1000.0002;  4.0000001E-01;0.19752525;0;0.0;0.0;0.0;0;-0.00050970144;  1.0000000E+04;  0.0000000E+00;  0.0000000E+00;  1.0000000E+04;  0.0000000E+00;  1.0000000E+04;-0.00028630384;0.0;-0.00022339758;1.051789
  1.2000000E-01;  9.9999998E-03; -4.0000001E-01;511;0.0;0.0;0.0;1000.0001;  4.0000001E-01;0.098762624;0;0.0;0.0;0.0;0;-0.00018213045;  1.0000000E+04;  0.0000000E+00;  0.0000000E+00;  1.0000000E+04;  0.0000000E+00;  1.0000000E+04;-8.6099077e-05;0.0;-9.603137e-05;0.60001892
  1.2000000E-01;  9.9999998E-03; -3.8000000E-01;512;0.0;0.0;0.0;1000.0002;  4.0000001E-01;0.19752525;0;0.0;0.0;0.0;0;-0.00040849281;  1.0000000E+04;  0.0000000E+00;  0.0000000E+00;  1.0000000E+04;  0.0000000E+00;  1.0000000E+04;-0.00020808309;0.0;-0.00020040973;1.0017308
  1.2000000E-01;  9.9999998E-03; -3.6000001E-01;513;0.0;0.0;0.0;1000.0004;  4.0000001E-01;0.3950505;0;0.0;0.0;0.0;0;-0.00071944785;  1.0000000E+04;  0.0000000E+00;  0.0000000E+00;  1.0000000E+04;  0.0000000E+00;  1.0000000E+04;-0.00042066429;0.0;-0.00029878359;1.4913265
  1.4000000E-01;  9.9999998E-03; -4.0000001E-01;521;0.0;0.0;0.0;1000.0001;  4.0000001E-01;0.098762624;0;0.0;0.0;0.0;0;-0.00027269131;  1.0000000E+04;  0.0000000E+00;  0.0000000E+00;  1.0000000E+04;  0.0000000E+00;  1.0000000E+04;-0.00013789615;0.0;-0.00013479516;1.6255107
  1.4000000E-01;  9.9999998E-03; -3.8000000E-01;522;0.0;0.0;0.0;1000.0004;  4.0000001E-01;0.3950505;0;0.0;0.0;0.0;0;-0.0006043145;  1.0000000E+04;  0.0000000E+00;  0.0000000E+00;  1.0000000E+04;  0.0000000E+00;  1.0000000E+04;-0.00032571808;0.0;-0.00027859645;1.8206029
  1.4000000E-01;  9.9999998E-03; -3.6000001E-01;523;0.0;0.0;0.0;1000.0007;  4.0000001E-01;0.59257573;0;0.0;0.0;0.0;0;-0.0010577582;  1.0000000E+04;  0.0000000E+00;  0.0000000E+00;  1.0000000E+04;  0.0000000E+00;  1.0000000E+04;-0.00064450194;0.0;-0.00041325635;2.2158203
  1.6000000E-01;  9.9999998E-03; -4.0000001E-01;531;0.0;0.0;0.0;1000.0002;  4.0000001E-01;0.19752525;0;0.0;0.0;0.0;0;-0.0004356791;  1.0000000E+04;  0.0000000E+00;  0.0000000E+00;  1.0000000E+04;  0.0000000E+00;  1.0000000E+04;-0.000229219;0.0;-0.00020646008;4.8882818
  1.6000000E-01;  9.9999998E-03; -3.8000000E-01;532;0.0;0.0;0.0;1000.0007;  4.0000001E-01;0.59257573;0;0.0;0.0;0.0;0;-0.00093134807;  1.0000000E+04;  0.0000000E+00;  0.0000000E+00;  1.0000000E+04;  0.0000000E+00;  1.0000000E+04;-0.00052066485;0.0;-0.00041068325;4.5034356
  1.6000000E-01;  9.9999998E-03; -3.6000001E-01;533;0.0;0.0;0.0;1000.0011;  4.0000001E-01;0.88886362;0;0.0;0.0;0.0;0;-0.0016003731;  1.0000000E+04;  0.0000000E+00;  0.0000000E+00;  1.0000000E+04;  0.0000000E+00;  1.0000000E+04;-0.0010019682;0.0;-0.00059840496;3.3797493
  1.8000001E-01;  9.9999998E-03; -4.0000001E-01;541;0.0;0.0;0.0;1000.0004;  4.0000001E-01;0.3950505;0;0.0;0.0;0.0;0;-0.00073226303;  1.0000000E+04;  0.0000000E+00;  0.0000000E+00;  1.0000000E+04;  0.0000000E+00;  1.0000000E+04;-0.00037767249;0.0;-0.00035459053;13.186071
  1.8000001E-01;  9.9999998E-03; -3.8000000E-01;542;0.0;0.0;0.0;1000.001;  4.0000001E-01;0.79010099;0;0.0;0.0;0.0;0;-0.0014539398;  1.0000000E+04;  0.0000000E+00;  0.0000000E+00;  1.0000000E+04;  0.0000000E+00;  1.0000000E+04;-0.00080704648;0.0;-0.0006468934;11.283209
  1.8000001E-01;  9.9999998E-03; -3.6000001E-01;543;0.0;0.0;0.0;1000.0016;  4.0000001E-01;1.3826767;0;0.0;0.0;0.0;0;-0.0024136752;  1.0000000E+04;  0.0000000E+00;  0.0000000E+00;  1.0000000E+04;  0.0000000E+00;  1.0000000E+04;-0.0015063725;0.0;-0.00090730283;5.0377059
  2.0000000E-01;  9.9999998E-03; -3.8000000E-01;551;0.0;0.0;0.0;1000.0016;  4.0000001E-01;1.2839141;0;0.0;0.0;0.0;0;-0.0022365125;  1.0000000E+04;  0.0000000E+00;  0.0000000E+00;  1.0000000E+04;  0.0000000E+00;  1.0000000E+04;-0.0011639323;0.0;-0.0010725803;23.89587
  2.0000000E-01;  9.9999998E-03; -3.6000001E-01;552;0.0;0.0;0.0;1000.0024;  4.0000001E-01;1.9752525;0;0.0;0.0;0.0;0;-0.0035330902;  1.0000000E+04;  0.0000000E+00;  0.0000000E+00;  1.0000000E+04;  0.0000000E+00;  1.0000000E+04;-0.0021119623;0.0;-0.0014211279;7.6814518
 -2.2000000E-01;  9.9999998E-03; -3.4000000E-01;2;0.0;0.0;0.0;1000.0;  4.0000001E-01;0.0;0;0.0;0.0;0.0;0;0.0;  1.0000000E+04;  0.0000000E+00;  0.0000000E+00;  1.0000000E+04;  0.0000000E+00;  1.0000000E+04;0.0;0.0;0.0;0.0
 -2.2000000E-01;  9.9999998E-03; -3.1999999E-01;3;0.0;0.0;0.0;1000.0;  4.0000001E-01;0.0;0;0.0;0.0;0.0;0;0.0;  1.0000000E+04;  0.0000000E+00;  0.0000000E+00;  1.0000000E+04;  0.0000000E+00;  1.0000000E+04;0.0;0.0;0.0;0.0
 -2.2000000E-01;  9.9999998E-03; -3.0000001E-01;4;0.0;0.0;0.0;1000.0;  4.0000001E-01;0.0;0;0.0;0.0;0.0;0;0.0;  1.0000000E+04;  0.0000000E+00;  0.0000000E+00;  1.0000000E+04;  0.0000000E+00;  1.0000000E+04;0.0;0.0;0.0;0.0
 -2.2000000E-01;  9.9999998E-03; -2.8000000E-01;5;0.0;0.0;0.0;1000.0;  4.0000001E-01;0.0;0;0.0;0.0;0.0;0;0.0;  1.0000000E+04;  0.0000000E+00;  0.0000000E+00;  1.0000000E+04;  0.0000000E+00;  1.0000000E+04;0.0;0.0;0.0;0.0
 -2.2000000E-01;  9.9999998E-03; -2.5999999E-01;6;0.0;0.0;0.0;1000.0;  4.0000001E-01;0.0;0;0.0;0.0;0.0;0;0.0;  1.0000000E+04;  0.0000000E+00;  0.0000000E+00;  1.0000000E+04;  0.0000000E+00;  1.0000000E+04;0.0;0.0;0.0;0.0
 -2.2000000E-01;  9.9999998E-03; -2.3999999E-01;7;0.0;0.0;0.0;1000.0;  4.0000001E-01;0.0;0;0.0;0.0;0.0;0;0.0;  1.0000000E+04;  0.0000000E+00;  0.0000000E+00;  1.0000000E+04;  0.0000000E+00;  1.0000000E+04;0.0;0.0;0.0;0.0
 -2.2000000E-01;  9.9999998E-03; -2.2000000E-01;8;0.0;0.0;0.0;1000.0;  4.0000001E-01;0.0;0;0.0;0.0;0.0;0;0.0;  1.0000000E+04;  0.0000000E+00;  0.0000000E+00;  1.0000000E+04;  0.0000000E+00;  1.0000000E+04;0.0;0.0;0.0;0.0
 -2.2000000E-01;  9.9999998E-03; -2.0000000E-01;9;0.0;0.0;0.0;1000.0;  4.0000001E-01;0.0;0;0.0;0.0;0.0;0;0.0;  1.0000000E+04;  0.0000000E+00;  0.0000000E+00;  1.0000000E+04;  0.0000000E+00;  1.0000000E+04;0.0;0.0;0.0;0.0
 -2.0000000E-01;  9.9999998E-03; -3.4000000E-01;42;0.0;0.0;0.0;1000.0;  4.0000001E-01;0.0;0;0.0;0.0;0.0;0;0.0;  1.0000000E+04;  0.0000000E+00;  0.0000000E+00;  1.0000000E+04;  0.0000000E+00;  1.0000000E+04;0.0;0.0;0.0;0.0
 -2.0000000E-01;  9.9999998E-03; -3.1999999E-01;43;0.0;0.0;0.0;1000.0;  4.0000001E-01;0.0;0;0.0;0.0;0.0;0;0.0;  1.0000000E+04;  0.0000000E+00;  0.0000000E+00;  1.0000000E+04;  0.0000000E+00;  1.0000000E+04;0.0;0.0;0.0;0.0
 -2.0000000E-01;  9.9999998E-03; -3.0000001E-01;44;0.0;0.0;0.0;1000.0;  4.0000001E-01;0.0;0;0.0;0.0;0.0;0;0.0;  1.0000000E+04;  0.0000000E+00;  0.0000000E+00;  1.0000000E+04;  0.0000000E+00;  1.0000000E+04;0.0;0.0;0.0;0.0
 -2.0000000E-01;  9.9999998E-03; -2.8000000E-01;45;0.0;0.0;0.0;1000.0;  4.0000001E-01;0.0;0;0.0;0.0;0.0;0;0.0;  1.0000000E+04;  0.0000000E+00;  0.0000000E+00;  1.0000000E+04;  0.0000000E+00;  1.0000000E+04;0.0;0.0;0.0;0.0
 -2.0000000E-01;  9.9999998E-03; -2.5999999E-01;46;0.0;0.0;0.0;1000.0;  4.0000001E-01;0.0;0;0.0;0.0;0.0;0;0.0;  1.0000000E+04;  0.0000000E+00;  0.0000000E+00;  1.0000000E+04;  0.0000000E+00;  1.0000000E+04;0.0;0.0;0.0;0.0
 -2.0000000E-01;  9.9999998E-03; -2.3999999E-01;47;0.0;0.0;0.0;1000.0;  4.0000001E-01;0.0;0;0.0;0.0;0.0;0;0.0;  1.0000000E+04;  0.0000000E+00;  0.0000000E+00;  1.0000000E+04;  0.0000000E+00;  1.0000000E+04;0.0;0.0;0.0;0.0
 -2.0000000E-01;  9.9999998E-03; -2.2000000E-01;48;0.0;0.0;0.0;1000.0;  4.0000001E-01;0.0;0;0.0;0.0;0.0;0;0.0;  1.0000000E+04;  0.0000000E+00;  0.0000000E+00;  1.0000000E+04;  0.0000000E+00;  1.0000000E+04;0.0;0.0;0.0;0.0
 -2.0000000E-01;  9.9999998E-03; -2.0000000E-01;49;0.0;0.0;0.0;1000.0;  4.0000001E-01;0.0;0;0.0;0.0;0.0;0;0.0;  1.0000000E+04;  0.0000000E+00;  0.0000000E+00;  1.0000000E+04;  0.0000000E+00;  1.0000000E+04;0.0;0.0;0.0;0.0
 -1.8000001E-01;  9.9999998E-03; -3.4000000E-01;83;0.0;0.0;0.0;1000.0;  4.0000001E-01;0.0;0;0.0;0.0;0.0;0;0.0;  1.0000000E+04;  0.0000000E+00;  0.0000000E+00;  1.0000000E+04;  0.0000000E+00;  1.0000000E+04;0.0;0.0;0.0;0.0
 -1.8000001E-01;  9.9999998E-03; -3.1999999E-01;84;0.0;0.0;0.0;1000.0;  4.0000001E-01;0.0;0;0.0;0.0;0.0;0;0.0;  1.0000000E+04;  0.0000000E+00;  0.0000000E+00;  1.0000000E+04;  0.0000000E+00;  1.0000000E+04;0.0;0.0;0.0;0.0
 -1.8000001E-01;  9.9999998E-03; -3.0000001E-01;85;0.0;0.0;0.0;1000.0;  4.0000001E-01;0.0;0;0.0;0.0;0.0;0;0.0;  1.0000000E+04;  0.0000000E+00;  0.0000000E+00;  1.0000000E+04;  0.0000000E+00;  1.0000000E+04;0.0;0.0;0.0;0.0
 -1.8000001E-01;  9.9999998E-03; -2.8000000E-01;86;0.0;0.0;0.0;1000.0;  4.0000001E-01;0.0;0;0.0;0.0;0.0;0;0.0;  1.0000000E+04;  0.0000000E+00;  0.0000000E+00;  1.0000000E+04;  0.0000000E+00;  1.0000000E+04;0.0;0.0;0.0;0.0
 -1.8000001E-01;  9.9999998E-03; -2.5999999E-01;87;0.0;0.0;0.0;1000.0;  4.0000001E-01;0.0;0;0.0;0.0;0.0;0;0.0;  1.0000000E+04;  0.0000000E+00;  0.0000000E+00;  1.0000000E+04;  0.0000000E+00;  1.0000000E+04;0.0;0.0;0.0;0.0
 -1.8000001E-01;  9.9999998E-03; -2.3999999E-01;88;0.0;0.0;0.0;1000.0;  4.0000001E-01;0.0;0;0.0;0.0;0.0;0;0.0;  1.0000000E+04;  0.0000000E+00;  0.0000000E+00;  1.0000000E+04;  0.0000000E+00;  1.0000000E+04;0.0;0.0;0.0;0.0
 -1.8000001E-01;  9.9999998E-03; -2.2000000E-01;89;0.0;0.0;0.0;1000.0;  4.0000001E-01;0.0;0;0.0;0.0;0.0;0;0.0;  1.0000000E+04;  0.0000000E+00;  0.0000000E+00;  1.0000000E+04;  0.0000000E+00;  1.0000000E+04;0.0;0.0;0.0;0.0
 -1.8000001E-01;  9.9999998E-03; -2.0000000E-01;90;0.0;0.0;0.0;1000.0;  4.0000001E-01;0.0;0;0.0;0.0;0.0;0;0.0;  1.0000000E+04;  0.0000000E+00;  0.0000000E+00;  1.0000000E+04;  0.0000000E+00;  1.0000000E+04;0.0;0.0;0.0;0.0
 -1.6000000E-01;  9.9999998E-03; -3.4000000E-01;124;0.0;0.0;0.0;1000.0;  4.0000001E-01;0.0;0;0.0;0.0;0.0;0;0.0;  1.0000000E+04;  0.0000000E+00;  0.0000000E+00;  1.0000000E+04;  0.0000000E+00;  1.0000000E+04;0.0;0.0;0.0;0.0
 -1.6000000E-01;  9.9999998E-03; -3.1999999E-01;125;0.0;0.0;0.0;1000.0;  4.0000001E-01;0.0;0;0.0;0.0;0.0;0;-1.904306e-09;  1.0000000E+04;  0.0000000E+00;  0.0000000E+00;  1.0000000E+04;  0.0000000E+00;  1.0000000E+04;-1.7546709e-09;0.0;-1.4963517e-10;5.0299627e-07
 -1.6000000E-01;  9.9999998E-03; -3.0000001E-01;126;0.0;0.0;0.0;1000.0;  4.0000001E-01;0.0;0;0.0;0.0;0.0;0;-1.2097374e-08;  1.0000000E+04;  0.0000000E+00;  0.0000000E+00;  1.0000000E+04;  0.0000000E+00;  1.0000000E+04;-1.1591583e-08;0.0;-5.0579069e-10;1.5623627e-06
 -1.6000000E-01;  9.9999998E-03; -2.8000000E-01;127;0.0;0.0;0.0;1000.0;  4.0000001E-01;0.0;0;0.0;0.0;0.0;0;-2.8488804e-08;  1.0000000E+04;  0.0000000E+00;  0.0000000E+00;  1.0000000E+04;  0.0000000E+00;  1.0000000E+04;-2.8030044e-08;0.0;-4.5876011e-10;8.7928021e-07
 -1.6000000E-01;  9.9999998E-03; -2.5999999E-01;128;0.0;0.0;0.0;1000.0;  4.0000001E-01;0.0;0;0.0;0.0;0.0;0;-4.2313832e-08;  1.0000000E+04;  0.0000000E+00;  0.0000000E+00;  1.0000000E+04;  0.0000000E+00;  1.0000000E+04;-4.2254907e-08;0.0;-5.8926856e-11;1.1294316e-06
 -1.6000000E-01;  9.9999998E-03; -2.3999999E-01;129;0.0;0.0;0.0;1000.0;  4.0000001E-01;0.0;0;0.0;0.0;0.0;0;-4.9795055e-08;  1.0000000E+04;  0.0000000E+00;  0.0000000E+00;  1.0000000E+04;  0.0000000E+00;  1.0000000E+04;-4.989802e-08;0.0;1.0296607e-10;1.9668109e-06
 -1.6000000E-01;  9.9999998E-03; -2.2000000E-01;130;0.0;0.0;0.0;1000.0;  4.0000001E-01;0.0;0;0.0;0.0;0.0;0;-5.4961863e-08;  1.0000000E+04;  0.0000000E+00;  0.0000000E+00;  1.0000000E+04;  0.0000000E+00;  1.0000000E+04;-5.5082683e-08;0.0;1.2081967e-10;2.2003358e-06
 -1.6000000E-01;  9.9999998E-03; -2.0000000E-01;131;0.0;0.0;0.0;1000.0;  4.0000001E-01;0.0;0;0.0;0.0;0.0;0;-5.9070668e-08;  1.0000000E+04;  0.0000000E+00;  0.0000000E+00;  1.0000000E+04;  0.0000000E+00;  1.0000000E+04;-5.9196395e-08;0.0;1.2572596e-10;2.356471e-06
 -1.4000000E-01;  9.9999998E-03; -3.4000000E-01;165;0.0;0.0;0.0;1000.0;  4.0000001E-01;0.0;0;0.0;0.0;0.0;0;-9.1483898e-08;  1.0000000E+04;  0.0000000E+00;  0.0000000E+00;  1.0000000E+04;  0.0000000E+00;  1.0000000E+04;-7.7487982e-08;0.0;-1.3995914e-08;4.9523296e-05
 -1.4000000E-01;  9.9999998E-03; -3.1999999E-01;166;0.0;0.0;0.0;1000.0;  4.0000001E-01;0.0;0;0.0;0.0;0.0;0;-2.9709133e-07;  1.0000000E+04;  0.0000000E+00;  0.0000000E+00;  1.0000000E+04;  0.0000000E+00;  1.0000000E+04;-2.6675644e-07;0.0;-3.0334874e-08;0.00010520712
 -1.4000000E-01;  9.9999998E-03; -3.0000001E-01;167;0.0;0.0;0.0;1000.0;  4.0000001E-01;0.0;0;0.0;0.0;0.0;0;-6.3108035e-07;  1.0000000E+04;  0.0000000E+00;  0.0000000E+00;  1.0000000E+04;  0.0000000E+00;  1.0000000E+04;-5.9167968e-07;0.0;-3.940065e-08;0.00012826391
 -1.4000000E-01;  9.9999998E-03; -2.8000000E-01;168;0.0;0.0;0.0;1000.0;  4.0000001E-01;0.0;0;0.0;0.0;0.0;0;-1.0395445e-06;  1.0000000E+04;  0.0000000E+00;  0.0000000E+00;  1.0000000E+04;  0.0000000E+00;  1.0000000E+04;-1.0051181e-06;0.0;-3.44264e-08;9.576603e-05
 -1.4000000E-01;  9.9999998E-03; -2.5999999E-01;169;0.0;0.0;0.0;1000.0;  4.0000001E-01;0.0;0;0.0;0.0;0.0;0;-1.4383334e-06;  1.0000000E+04;  0.0000000E+00;  0.0000000E+00;  1.0000000E+04;  0.0000000E+00;  1.0000000E+04;-1.420762e-06;0.0;-1.7571352e-08;2.0283222e-05
 -1.4000000E-01;  9.9999998E-03; -2.3999999E-01;170;0.0;0.0;0.0;1000.0;  4.0000001E-01;0.0;0;0.0;0.0;0.0;0;-1.7611975e-06;  1.0000000E+04;  0.0000000E+00;  0.0000000E+00;  1.0000000E+04;  0.0000000E+00;  1.0000000E+04;-1.7628237e-06;0.0;1.6262123e-09;6.1252518e-05
 -1.4000000E-01;  9.9999998E-03; -2.2000000E-01;171;0.0;0.0;0.0;1000.0;  4.0000001E-01;0.0;0;0.0;0.0;0.0;0;-1.9893046e-06;  1.0000000E+04;  0.0000000E+00;  0.0000000E+00;  1.0000000E+04;  0.0000000E+00;  1.0000000E+04;-2.0021528e-06;0.0;1.2848308e-08;0.00011027331
 -1.4000000E-01;  9.9999998E-03; -2.0000000E-01;172;0.0;0.0;0.0;1000.0;  4.0000001E-01;0.0;0;0.0;0.0;0.0;0;-2.1483847e-06;  1.0000000E+04;  0.0000000E+00;  0.0000000E+00;  1.0000000E+04;  0.0000000E+00;  1.0000000E+04;-2.1634983e-06;0.0;1.5113489e-08;0.00012405957
 -1.2000000E-01;  9.9999998E-03; -3.4000000E-01;206;0.0;0.0;0.0;1000.0;  4.0000001E-01;0.0;0;0.0;0.0;0.0;0;-1.1510531e-06;  1.0000000E+04;  0.0000000E+00;  0.0000000E+00;  1.0000000E+04;  0.0000000E+00;  1.0000000E+04;-9.4694144e-07;0.0;-2.0411166e-07;0.00073282182
 -1.2000000E-01;  9.9999998E-03; -3.1999999E-01;207;0.0;0.0;0.0;1000.0;  4.0000001E-01;0.0;0;0.0;0.0;0.0;0;-2.430306e-06;  1.0000000E+04;  0.0000000E+00;  0.0000000E+00;  1.0000000E+04;  0.0000000E+00;  1.0000000E+04;-2.1392254e-06;0.0;-2.9108062e-07;0.0010188078
 -1.2000000E-01;  9.9999998E-03; -3.0000001E-01;208;0.0;0.0;0.0;1000.0;  4.0000001E-01;0.0;0;0.0;0.0;0.0;0;-4.1688518e-06;  1.0000000E+04;  0.0000000E+00;  0.0000000E+00;  1.0000000E+04;  0.0000000E+00;  1.0000000E+04;-3.856168e-06;0.0;-3.1268362e-07;0.0010410504
 -1.2000000E-01;  9.9999998E-03; -2.8000000E-01;209;0.0;0.0;0.0;1000.0;  4.0000001E-01;0.0;0;0.0;0.0;0.0;0;-6.1546366e-06;  1.0000000E+04;  0.0000000E+00;  0.0000000E+00;  1.0000000E+04;  0.0000000E+00;  1.0000000E+04;-5.8979599e-06;0.0;-2.5667654e-07;0.00076685514
 -1.2000000E-01;  9.9999998E-03; -2.5999999E-01;210;0.0;0.0;0.0;1000.0;  4.0000001E-01;0.0;0;0.0;0.0;0.0;0;-8.088783e-06;  1.0000000E+04;  0.0000000E+00;  0.0000000E+00;  1.0000000E+04;  0.0000000E+00;  1.0000000E+04;-7.9477359e-06;0.0;-1.4104712e-07;0.00027372336
 -1.2000000E-01;  9.9999998E-03; -2.3999999E-01;211;0.0;0.0;0.0;1000.0;  4.0000001E-01;0.0;0;0.0;0.0;0.0;0;-9.7363654e-06;  1.0000000E+04;  0.0000000E+00;  0.0000000E+00;  1.0000000E+04;  0.0000000E+00;  1.0000000E+04;-9.7257889e-06;0.0;-1.057662e-08;0.00026465658
 -1.2000000E-01;  9.9999998E-03; -2.2000000E-01;212;0.0;0.0;0.0;1000.0;  4.0000001E-01;0.0;0;0.0;0.0;0.0;0;-1.1017124e-05;  1.0000000E+04;  0.0000000E+00;  0.0000000E+00;  1.0000000E+04;  0.0000000E+00;  1.0000000E+04;-1.110454e-05;0.0;8.7416517e-08;0.00067042984
 -1.2000000E-01;  9.9999998E-03; -2.0000000E-01;213;0.0;0.0;0.0;1000.0;  4.0000001E-01;0.0;0;0.0;0.0;0.0;0;-1.1970898e-05;  1.0000000E+04;  0.0000000E+00;  0.0000000E+00;  1.0000000E+04;  0.0000000E+00;  1.0000000E+04;-1.2105517e-05;0.0;1.3461973e-07;0.00087840296
 -1.0000000E-01;  9.9999998E-03; -3.4000000E-01;247;0.0;0.0;0.0;1000.0;  4.0000001E-01;0.0;0;0.0;0.0;0.0;0;-5.3327358e-06;  1.0000000E+04;  0.0000000E+00;  0.0000000E+00;  1.0000000E+04;  0.0000000E+00;  1.0000000E+04;-4.2680867e-06;0.0;-1.0646489e-06;0.0038569437
 -1.0000000E-01;  9.9999998E-03; -3.1999999E-01;248;0.0;0.0;0.0;1000.0;  4.0000001E-01;0.0;0;0.0;0.0;0.0;0;-9.5541291e-06;  1.0000000E+04;  0.0000000E+00;  0.0000000E+00;  1.0000000E+04;  0.0000000E+00;  1.0000000E+04;-8.2557481e-06;0.0;-1.2983805e-06;0.0046019536
 -1.0000000E-01;  9.9999998E-03; -3.0000001E-01;249;0.0;0.0;0.0;1000.0;  4.0000001E-01;0.0;0;0.0;0.0;0.0;0;-1.4933493e-05;  1.0000000E+04;  0.0000000E+00;  0.0000000E+00;  1.0000000E+04;  0.0000000E+00;  1.0000000E+04;-1.3648562e-05;0.0;-1.2849308e-06;0.00437479
 -1.0000000E-01;  9.9999998E-03; -2.8000000E-01;250;0.0;0.0;0.0;1000.0;  4.0000001E-01;0.0;0;0.0;0.0;0.0;0;-2.0897109e-05;  1.0000000E+04;  0.0000000E+00;  0.0000000E+00;  1.0000000E+04;  0.0000000E+00;  1.0000000E+04;-1.9881516e-05;0.0;-1.0155923e-06;0.0031658409
 -1.0000000E-01;  9.9999998E-03; -2.5999999E-01;251;0.0;0.0;0.0;1000.0;  4.0000001E-01;0.0;0;0.0;0.0;0.0;0;-2.6658441e-05;  1.0000000E+04;  0.0000000E+00;  0.0000000E+00;  1.0000000E+04;  0.0000000E+00;  1.0000000E+04;-2.6102281e-05;0.0;-5.5616044e-07;0.0012527022
 -1.0000000E-01;  9.9999998E-03; -2.3999999E-01;252;0.0;0.0;0.0;1000.0;  4.0000001E-01;0.0;0;0.0;0.0;0.0;0;-3.1629257e-05;  1.0000000E+04;  0.0000000E+00;  0.0000000E+00;  1.0000000E+04;  0.0000000E+00;  1.0000000E+04;-3.1577667e-05;0.0;-5.1589485e-08;0.00079841173
 -1.0000000E-01;  9.9999998E-03; -2.2000000E-01;253;0.0;0.0;0.0;1000.0;  4.0000001E-01;0.0;0;0.0;0.0;0.0;0;-3.5615547e-05;  1.0000000E+04;  0.0000000E+00;  0.0000000E+00;  1.0000000E+04;  0.0000000E+00;  1.0000000E+04;-3.5959143e-05;0.0;3.4359616e-07;0.0024050442
 -1.0000000E-01;  9.9999998E-03; -2.0000000E-01;254;0.0;0.0;0.0;1000.0;  4.0000001E-01;0.0;0;0.0;0.0;0.0;0;-3.8698756e-05;  1.0000000E+04;  0.0000000E+00;  0.0000000E+00;  1.0000000E+04;  0.0000000E+00;  1.0000000E+04;-3.9262512e-05;0.0;5.6375535e-07;0.0033319222
 -7.9999998E-02;  9.9999998E-03; -3.4000000E-01;288;0.0;0.0;0.0;1000.0;  4.0000001E-01;0.0;0;0.0;0.0;0.0;0;-1.5872962e-05;  1.0000000E+04;  0.0000000E+00;  0.0000000E+00;  1.0000000E+04;  0.0000000E+00;  1.0000000E+04;-1.2379934e-05;0.0;-3.4930281e-06;0.012812963
 -7.9999998E-02;  9.9999998E-03; -3.1999999E-01;289;0.0;0.0;0.0;1000.0;  4.0000001E-01;0.0;0;0.0;0.0;0.0;0;-2.6185955e-05;  1.0000000E+04;  0.0000000E+00;  0.0000000E+00;  1.0000000E+04;  0.0000000E+00;  1.0000000E+04;-2.2237404e-05;0.0;-3.9485512e-06;0.01421281
 -7.9999998E-02;  9.9999998E-03; -3.0000001E-01;290;0.0;0.0;0.0;1000.0;  4.0000001E-01;0.0;0;0.0;0.0;0.0;0;-3.8921775e-05;  1.0000000E+04;  0.0000000E+00;  0.0000000E+00;  1.0000000E+04;  0.0000000E+00;  1.0000000E+04;-3.5179666e-05;0.0;-3.7421087e-06;0.013002643
 -7.9999998E-02;  9.9999998E-03; -2.8000000E-01;291;0.0;0.0;0.0;1000.0;  4.0000001E-01;0.0;0;0.0;0.0;0.0;0;-5.2781372e-05;  1.0000000E+04;  0.0000000E+00;  0.0000000E+00;  1.0000000E+04;  0.0000000E+00;  1.0000000E+04;-4.9895858e-05;0.0;-2.8855129e-06;0.0092835929
 -7.9999998E-02;  9.9999998E-03; -2.5999999E-01;292;0.0;0.0;0.0;1000.0;  4.0000001E-01;0.0;0;0.0;0.0;0.0;0;-6.6053188e-05;  1.0000000E+04;  0.0000000E+00;  0.0000000E+00;  1.0000000E+04;  0.0000000E+00;  1.0000000E+04;-6.4497726e-05;0.0;-1.5554641e-06;0.0038009372
 -7.9999998E-02;  9.9999998E-03; -2.3999999E-01;293;0.0;0.0;0.0;1000.0;  4.0000001E-01;0.0;0;0.0;0.0;0.0;0;-7.7515862e-05;  1.0000000E+04;  0.0000000E+00;  0.0000000E+00;  1.0000000E+04;  0.0000000E+00;  1.0000000E+04;-7.7392433e-05;0.0;-1.2343233e-07;0.0019873772
 -7.9999998E-02;  9.9999998E-03; -2.2000000E-01;294;0.0;0.0;0.0;1000.0;  4.0000001E-01;0.0;0;0.0;0.0;0.0;0;-8.6815162e-05;  1.0000000E+04;  0.0000000E+00;  0.0000000E+00;  1.0000000E+04;  0.0000000E+00;  1.0000000E+04;-8.7828004e-05;0.0;1.0128407e-06;0.0065727369
 -7.9999998E-02;  9.9999998E-03; -2.0000000E-01;295;0.0;0.0;0.0;1000.0;  4.0000001E-01;0.0;0;0.0;0.0;0.0;0;-9.4141236e-05;  1.0000000E+04;  0.0000000E+00;  0.0000000E+00;  1.0000000E+04;  0.0000000E+00;  1.0000000E+04;-9.5816649e-05;0.0;1.6754108e-06;0.0093125449
 -5.9999999E-02;  9.9999998E-03; -3.4000000E-01;329;0.0;0.0;0.0;1000.0;  4.0000001E-01;0.0;0;0.0;0.0;0.0;0;-3.6237958e-05;  1.0000000E+04;  0.0000000E+00;  0.0000000E+00;  1.0000000E+04;  0.0000000E+00;  1.0000000E+04;-2.75039e-05;0.0;-8.7340586e-06;0.032506995
 -5.9999999E-02;  9.9999998E-03; -3.1999999E-01;330;0.0;0.0;0.0;1000.0;  4.0000001E-01;0.0;0;0.0;0.0;0.0;0;-5.6952085e-05;  1.0000000E+04;  0.0000000E+00;  0.0000000E+00;  1.0000000E+04;  0.0000000E+00;  1.0000000E+04;-4.7478716e-05;0.0;-9.4733687e-06;0.034667265
 -5.9999999E-02;  9.9999998E-03; -3.0000001E-01;331;0.0;0.0;0.0;1000.0;  4.0000001E-01;0.0;0;0.0;0.0;0.0;0;-8.2047947e-05;  1.0000000E+04;  0.0000000E+00;  0.0000000E+00;  1.0000000E+04;  0.0000000E+00;  1.0000000E+04;-7.3297226e-05;0.0;-8.7507206e-06;0.031024782
 -5.9999999E-02;  9.9999998E-03; -2.8000000E-01;332;0.0;0.0;0.0;1000.0;  4.0000001E-01;0.0;0;0.0;0.0;0.0;0;-0.00010898128;  1.0000000E+04;  0.0000000E+00;  0.0000000E+00;  1.0000000E+04;  0.0000000E+00;  1.0000000E+04;-0.00010235969;0.0;-6.6215857e-06;0.021916227
 -5.9999999E-02;  9.9999998E-03; -2.5999999E-01;333;0.0;0.0;0.0;1000.0001;  4.0000001E-01;0.098762624;0;0.0;0.0;0.0;0;-0.00013448232;  1.0000000E+04;  0.0000000E+00;  0.0000000E+00;  1.0000000E+04;  0.0000000E+00;  1.0000000E+04;-0.00013099119;0.0;-3.4911311e-06;0.0090510203
 -5.9999999E-02;  9.9999998E-03; -2.3999999E-01;334;0.0;0.0;0.0;1000.0001;  4.0000001E-01;0.098762624;0;0.0;0.0;0.0;0;-0.0001563806;  1.0000000E+04;  0.0000000E+00;  0.0000000E+00;  1.0000000E+04;  0.0000000E+00;  1.0000000E+04;-0.0001561964;0.0;-1.8420296e-07;0.0043137725
 -5.9999999E-02;  9.9999998E-03; -2.2000000E-01;335;0.0;0.0;0.0;1000.0001;  4.0000001E-01;0.098762624;0;0.0;0.0;0.0;0;-0.00017419524;  1.0000000E+04;  0.0000000E+00;  0.0000000E+00;  1.0000000E+04;  0.0000000E+00;  1.0000000E+04;-0.00017663493;0.0;2.4396827e-06;0.014890576
 -5.9999999E-02;  9.9999998E-03; -2.0000000E-01;336;0.0;0.0;0.0;1000.0001;  4.0000001E-01;0.098762624;0;0.0;0.0;0.0;0;-0.00018836418;  1.0000000E+04;  0.0000000E+00;  0.0000000E+00;  1.0000000E+04;  0.0000000E+00;  1.0000000E+04;-0.00019236165;0.0;3.997472e-06;0.021284502
 -3.9999999E-02;  9.9999998E-03; -3.4000000E-01;370;0.0;0.0;0.0;1000.0;  4.0000001E-01;0.0;0;0.0;0.0;0.0;0;-6.8836853e-05;  1.0000000E+04;  0.0000000E+00;  0.0000000E+00;  1.0000000E+04;  0.0000000E+00;  1.0000000E+04;-5.0659113e-05;0.0;-1.817774e-05;0.068782426
 -3.9999999E-02;  9.9999998E-03; -3.1999999E-01;371;0.0;0.0;0.0;1000.0;  4.0000001E-01;0.0;0;0.0;0.0;0.0;0;-0.00010485019;  1.0000000E+04;  0.0000000E+00;  0.0000000E+00;  1.0000000E+04;  0.0000000E+00;  1.0000000E+04;-8.5587541e-05;0.0;-1.9262645e-05;0.07178621
 -3.9999999E-02;  9.9999998E-03; -3.0000001E-01;372;0.0;0.0;0.0;1000.0001;  4.0000001E-01;0.098762624;0;0.0;0.0;0.0;0;-0.00014786399;  1.0000000E+04;  0.0000000E+00;  0.0000000E+00;  1.0000000E+04;  0.0000000E+00;  1.0000000E+04;-0.00013035978;0.0;-1.7504208e-05;0.063394986
 -3.9999999E-02;  9.9999998E-03; -2.8000000E-01;373;0.0;0.0;0.0;1000.0001;  4.0000001E-01;0.098762624;0;0.0;0.0;0.0;0;-0.00019335847;  1.0000000E+04;  0.0000000E+00;  0.0000000E+00;  1.0000000E+04;  0.0000000E+00;  1.0000000E+04;-0.00018034298;0.0;-1.3015495e-05;0.044299759
 -3.9999999E-02;  9.9999998E-03; -2.5999999E-01;374;0.0;0.0;0.0;1000.0001;  4.0000001E-01;0.098762624;0;0.0;0.0;0.0;0;-0.0002357615;  1.0000000E+04;  0.0000000E+00;  0.0000000E+00;  1.0000000E+04;  0.0000000E+00;  1.0000000E+04;-0.00022910409;0.0;-6.6574194e-06;0.01813004
 -3.9999999E-02;  9.9999998E-03; -2.3999999E-01;375;0.0;0.0;0.0;1000.0001;  4.0000001E-01;0.098762624;0;0.0;0.0;0.0;0;-0.0002718016;  1.0000000E+04;  0.0000000E+00;  0.0000000E+00;  1.0000000E+04;  0.0000000E+00;  1.0000000E+04;-0.00027170617;0.0;-9.5442296e-08;0.0084975576
 -3.9999999E-02;  9.9999998E-03; -2.2000000E-01;376;0.0;0.0;0.0;1000.0001;  4.0000001E-01;0.098762624;0;0.0;0.0;0.0;0;-0.00030108017;  1.0000000E+04;  0.0000000E+00;  0.0000000E+00;  1.0000000E+04;  0.0000000E+00;  1.0000000E+04;-0.00030613982;0.0;5.0596382e-06;0.029355854
 -3.9999999E-02;  9.9999998E-03; -2.0000000E-01;377;0.0;0.0;0.0;1000.0001;  4.0000001E-01;0.098762624;0;0.0;0.0;0.0;0;-0.00032448719;  1.0000000E+04;  0.0000000E+00;  0.0000000E+00;  1.0000000E+04;  0.0000000E+00;  1.0000000E+04;-0.00033261755;0.0;8.130356e-06;0.041953672
 -2.0000000E-02;  9.9999998E-03; -3.4000000E-01;411;0.0;0.0;0.0;1000.0;  4.0000001E-01;0.0;0;0.0;0.0;0.0;0;-0.00011440915;  1.0000000E+04;  0.0000000E+00;  0.0000000E+00;  1.0000000E+04;  0.0000000E+00;  1.0000000E+04;-8.1380953e-05;0.0;-3.3028202e-05;0.12738116
 -2.0000000E-02;  9.9999998E-03; -3.1999999E-01;412;0.0;0.0;0.0;1000.0001;  4.0000001E-01;0.098762624;0;0.0;0.0;0.0;0;-0.00017045633;  1.0000000E+04;  0.0000000E+00;  0.0000000E+00;  1.0000000E+04;  0.0000000E+00;  1.0000000E+04;-0.0001359239;0.0;-3.4532437e-05;0.13135722
 -2.0000000E-02;  9.9999998E-03; -3.0000001E-01;413;0.0;0.0;0.0;1000.0001;  4.0000001E-01;0.098762624;0;0.0;0.0;0.0;0;-0.00023633681;  1.0000000E+04;  0.0000000E+00;  0.0000000E+00;  1.0000000E+04;  0.0000000E+00;  1.0000000E+04;-0.00020533804;0.0;-3.099877e-05;0.1148918
 -2.0000000E-02;  9.9999998E-03; -2.8000000E-01;414;0.0;0.0;0.0;1000.0001;  4.0000001E-01;0.098762624;0;0.0;0.0;0.0;0;-0.00030469662;  1.0000000E+04;  0.0000000E+00;  0.0000000E+00;  1.0000000E+04;  0.0000000E+00;  1.0000000E+04;-0.00028209222;0.0;-2.260439e-05;0.079165064
 -2.0000000E-02;  9.9999998E-03; -2.5999999E-01;415;0.0;0.0;0.0;1000.0002;  4.0000001E-01;0.19752525;0;0.0;0.0;0.0;0;-0.00036711042;  1.0000000E+04;  0.0000000E+00;  0.0000000E+00;  1.0000000E+04;  0.0000000E+00;  1.0000000E+04;-0.00035600358;0.0;-1.1106847e-05;0.031563908
 -2.0000000E-02;  9.9999998E-03; -2.3999999E-01;416;0.0;0.0;0.0;1000.0002;  4.0000001E-01;0.19752525;0;0.0;0.0;0.0;0;-0.00041957191;  1.0000000E+04;  0.0000000E+00;  0.0000000E+00;  1.0000000E+04;  0.0000000E+00;  1.0000000E+04;-0.0004199789;0.0;4.0698615e-07;0.015563809
 -2.0000000E-02;  9.9999998E-03; -2.2000000E-01;417;0.0;0.0;0.0;1000.0002;  4.0000001E-01;0.19752525;0;0.0;0.0;0.0;0;-0.00046207494;  1.0000000E+04;  0.0000000E+00;  0.0000000E+00;  1.0000000E+04;  0.0000000E+00;  1.0000000E+04;-0.00047138482;0.0;9.3098834e-06;0.051905967
 -2.0000000E-02;  9.9999998E-03; -2.0000000E-01;418;0.0;0.0;0.0;1000.0002;  4.0000001E-01;0.19752525;0;0.0;0.0;0.0;0;-0.00049613212;  1.0000000E+04;  0.0000000E+00;  0.0000000E+00;  1.0000000E+04;  0.0000000E+00;  1.0000000E+04;-0.00051071774;0.0;1.4585594e-05;0.073675402
  0.0000000E+00;  9.9999998E-03; -3.4000000E-01;452;0.0;0.0;0.0;1000.0001;  4.0000001E-01;0.098762624;0;0.0;0.0;0.0;0;-0.0001722264;  1.0000000E+04;  0.0000000E+00;  0.0000000E+00;  1.0000000E+04;  0.0000000E+00;  1.0000000E+04;-0.00011830169;0.0;-5.3924708e-05;0.21266878
  0.0000000E+00;  9.9999998E-03; -3.1999999E-01;453;0.0;0.0;0.0;1000.0001;  4.0000001E-01;0.098762624;0;0.0;0.0;0.0;0;-0.00025220407;  1.0000000E+04;  0.0000000E+00;  0.0000000E+00;  1.0000000E+04;  0.0000000E+00;  1.0000000E+04;-0.00019631349;0.0;-5.5890592e-05;0.21766734
  0.0000000E+00;  9.9999998E-03; -3.0000001E-01;454;0.0;0.0;0.0;1000.0001;  4.0000001E-01;0.098762624;0;0.0;0.0;0.0;0;-0.00034397256;  1.0000000E+04;  0.0000000E+00;  0.0000000E+00;  1.0000000E+04;  0.0000000E+00;  1.0000000E+04;-0.00029450937;0.0;-4.9463182e-05;0.18812291
  2.0000000E-02;  9.9999998E-03; -3.4000000E-01;464;0.0;0.0;0.0;1000.0001;  4.0000001E-01;0.098762624;0;0.0;0.0;0.0;0;-0.00024178369;  1.0000000E+04;  0.0000000E+00;  0.0000000E+00;  1.0000000E+04;  0.0000000E+00;  1.0000000E+04;-0.00016099746;0.0;-8.0786238e-05;0.3271026
  2.0000000E-02;  9.9999998E-03; -3.1999999E-01;465;0.0;0.0;0.0;1000.0002;  4.0000001E-01;0.19752525;0;0.0;0.0;0.0;0;-0.0003489932;  1.0000000E+04;  0.0000000E+00;  0.0000000E+00;  1.0000000E+04;  0.0000000E+00;  1.0000000E+04;-0.00026588768;0.0;-8.3105522e-05;0.33265659
  3.9999999E-02;  9.9999998E-03; -3.4000000E-01;474;0.0;0.0;0.0;1000.0001;  4.0000001E-01;0.098762624;0;0.0;0.0;0.0;0;-0.00032566313;  1.0000000E+04;  0.0000000E+00;  0.0000000E+00;  1.0000000E+04;  0.0000000E+00;  1.0000000E+04;-0.00021226831;0.0;-0.00011339482;0.47343183
  3.9999999E-02;  9.9999998E-03; -3.1999999E-01;475;0.0;0.0;0.0;1000.0002;  4.0000001E-01;0.19752525;0;0.0;0.0;0.0;0;-0.00046511731;  1.0000000E+04;  0.0000000E+00;  0.0000000E+00;  1.0000000E+04;  0.0000000E+00;  1.0000000E+04;-0.00034946823;0.0;-0.00011564907;0.47784275
  5.9999999E-02;  9.9999998E-03; -3.4000000E-01;484;0.0;0.0;0.0;1000.0002;  4.0000001E-01;0.19752525;0;0.0;0.0;0.0;0;-0.0004312564;  1.0000000E+04;  0.0000000E+00;  0.0000000E+00;  1.0000000E+04;  0.0000000E+00;  1.0000000E+04;-0.00027867794;0.0;-0.00015257846;0.65936738
  5.9999999E-02;  9.9999998E-03; -3.1999999E-01;485;0.0;0.0;0.0;1000.0004;  4.0000001E-01;0.29628786;0;0.0;0.0;0.0;0;-0.00061211502;  1.0000000E+04;  0.0000000E+00;  0.0000000E+00;  1.0000000E+04;  0.0000000E+00;  1.0000000E+04;-0.00045771623;0.0;-0.00015439882;0.66087466
  7.9999998E-02;  9.9999998E-03; -3.4000000E-01;494;0.0;0.0;0.0;1000.0003;  4.0000001E-01;0.29628786;0;0.0;0.0;0.0;0;-0.00057338341;  1.0000000E+04;  0.0000000E+00;  0.0000000E+00;  1.0000000E+04;  0.0000000E+00;  1.0000000E+04;-0.0003724173;0.0;-0.00020096608;0.90258867
  7.9999998E-02;  9.9999998E-03; -3.1999999E-01;495;0.0;0.0;0.0;1000.0005;  4.0000001E-01;0.3950505;0;0.0;0.0;0.0;0;-0.00080985937;  1.0000000E+04;  0.0000000E+00;  0.0000000E+00;  1.0000000E+04;  0.0000000E+00;  1.0000000E+04;-0.00060786301;0.0;-0.00020199636;0.89879084
  1.0000000E-01;  9.9999998E-03; -3.4000000E-01;504;0.0;0.0;0.0;1000.0004;  4.0000001E-01;0.3950505;0;0.0;0.0;0.0;0;-0.00077938649;  1.0000000E+04;  0.0000000E+00;  0.0000000E+00;  1.0000000E+04;  0.0000000E+00;  1.0000000E+04;-0.00051540049;0.0;-0.000263986;1.2636561
  1.0000000E-01;  9.9999998E-03; -3.1999999E-01;505;0.0;0.0;0.0;1000.0007;  4.0000001E-01;0.59257573;0;0.0;0.0;0.0;0;-0.0010938649;  1.0000000E+04;  0.0000000E+00;  0.0000000E+00;  1.0000000E+04;  0.0000000E+00;  1.0000000E+04;-0.00083017437;0.0;-0.0002636906;1.2687684
  1.2000000E-01;  9.9999998E-03; -3.4000000E-01;514;0.0;0.0;0.0;1000.0007;  4.0000001E-01;0.59257573;0;0.0;0.0;0.0;0;-0.0010960896;  1.0000000E+04;  0.0000000E+00;  0.0000000E+00;  1.0000000E+04;  0.0000000E+00;  1.0000000E+04;-0.00074385211;0.0;-0.00035223746;2.0330894
  1.2000000E-01;  9.9999998E-03; -3.1999999E-01;515;0.0;0.0;0.0;1000.001;  4.0000001E-01;0.79010099;0;0.0;0.0;0.0;0;-0.0015225746;  1.0000000E+04;  0.0000000E+00;  0.0000000E+00;  1.0000000E+04;  0.0000000E+00;  1.0000000E+04;-0.0011730662;0.0;-0.00034950834;2.2837219
  1.4000000E-01;  9.9999998E-03; -3.4000000E-01;524;0.0;0.0;0.0;1000.0011;  4.0000001E-01;0.88886362;0;0.0;0.0;0.0;0;-0.0015988632;  1.0000000E+04;  0.0000000E+00;  0.0000000E+00;  1.0000000E+04;  0.0000000E+00;  1.0000000E+04;-0.0011132183;0.0;-0.00048564488;4.1477733
  1.4000000E-01;  9.9999998E-03; -3.1999999E-01;525;0.0;0.0;0.0;1000.0014;  4.0000001E-01;1.1851515;0;0.0;0.0;0.0;0;-0.0021854981;  1.0000000E+04;  0.0000000E+00;  0.0000000E+00;  1.0000000E+04;  0.0000000E+00;  1.0000000E+04;-0.0017072471;0.0;-0.00047825093;5.5527391
  1.6000000E-01;  9.9999998E-03; -3.4000000E-01;534;0.0;0.0;0.0;1000.0016;  4.0000001E-01;1.2839141;0;0.0;0.0;0.0;0;-0.0023885483;  1.0000000E+04;  0.0000000E+00;  0.0000000E+00;  1.0000000E+04;  0.0000000E+00;  1.0000000E+04;-0.0016887661;0.0;-0.00069978234;9.2722683
  1.6000000E-01;  9.9999998E-03; -3.1999999E-01;535;0.0;0.0;0.0;1000.0021;  4.0000001E-01;1.7777272;0;0.0;0.0;0.0;0;-0.0031991843;  1.0000000E+04;  0.0000000E+00;  0.0000000E+00;  1.0000000E+04;  0.0000000E+00;  1.0000000E+04;-0.0025148629;0.0;-0.00068432128;13.768409
  1.8000001E-01;  9.9999998E-03; -3.4000000E-01;544;0.0;0.0;0.0;1000.0024;  4.0000001E-01;1.9752525;0;0.0;0.0;0.0;0;-0.003548793;  1.0000000E+04;  0.0000000E+00;  0.0000000E+00;  1.0000000E+04;  0.0000000E+00;  1.0000000E+04;-0.0024952991;0.0;-0.0010534941;18.893091
  1.8000001E-01;  9.9999998E-03; -3.1999999E-01;545;0.0;0.0;0.0;1000.0032;  4.0000001E-01;2.6665909;0;0.0;0.0;0.0;0;-0.0046661566;  1.0000000E+04;  0.0000000E+00;  0.0000000E+00;  1.0000000E+04;  0.0000000E+00;  1.0000000E+04;-0.0036392498;0.0;-0.0010269067;29.949244
  2.0000000E-01;  9.9999998E-03; -3.4000000E-01;553;0.0;0.0;0.0;1000.0036;  4.0000001E-01;2.9628787;0;0.0;0.0;0.0;0;-0.0051019406;  1.0000000E+04;  0.0000000E+00;  0.0000000E+00;  1.0000000E+04;  0.0000000E+00;  1.0000000E+04;-0.0034704374;0.0;-0.0016315035;32.020493
  2.0000000E-01;  9.9999998E-03; -3.1999999E-01;554;0.0;0.0;0.0;1000.0047;  4.0000001E-01;3.8517423;0;0.0;0.0;0.0;0;-0.0066219382;  1.0000000E+04;  0.0000000E+00;  0.0000000E+00;  1.0000000E+04;  0.0000000E+00;  1.0000000E+04;-0.0050289906;0.0;-0.0015929476;54.009518
 -2.2000000E-01;  9.9999998E-03; -1.8000001E-01;10;0.0;0.0;0.0;1000.0;  4.0000001E-01;0.0;0;0.0;0.0;0.0;0;0.0;  1.0000000E+04;  0.0000000E+00;  0.0000000E+00;  1.0000000E+04;  0.0000000E+00;  1.0000000E+04;0.0;0.0;0.0;0.0
 -2.2000000E-01;  9.9999998E-03; -1.6000000E-01;11;0.0;0.0;0.0;1000.0;  4.0000001E-01;0.0;0;0.0;0.0;0.0;0;0.0;  1.0000000E+04;  0.0000000E+00;  0.0000000E+00;  1.0000000E+04;  0.0000000E+00;  1.0000000E+04;0.0;0.0;0.0;0.0
 -2.2000000E-01;  9.9999998E-03; -1.4000000E-01;12;0.0;0.0;0.0;1000.0;  4.0000001E-01;0.0;0;0.0;0.0;0.0;0;0.0;  1.0000000E+04;  0.0000000E+00;  0.0000000E+00;  1.0000000E+04;  0.0000000E+00;  1.0000000E+04;0.0;0.0;0.0;0.0
 -2.2000000E-01;  9.9999998E-03; -1.2000000E-01;13;0.0;0.0;0.0;1000.0;  4.0000001E-01;0.0;0;0.0;0.0;0.0;0;0.0;  1.0000000E+04;  0.0000000E+00;  0.0000000E+00;  1.0000000E+04;  0.0000000E+00;  1.0000000E+04;0.0;0.0;0.0;0.0
 -2.2000000E-01;  9.9999998E-03; -1.0000000E-01;14;0.0;0.0;0.0;1000.0;  4.0000001E-01;0.0;0;0.0;0.0;0.0;0;0.0;  1.0000000E+04;  0.0000000E+00;  0.0000000E+00;  1.0000000E+04;  0.0000000E+00;  1.0000000E+04;0.0;0.0;0.0;0.0
 -2.2000000E-01;  9.9999998E-03; -7.9999998E-02;15;0.0;0.0;0.0;1000.0;  4.0000001E-01;0.0;0;0.0;0.0;0.0;0;0.0;  1.0000000E+04;  0.0000000E+00;  0.0000000E+00;  1.0000000E+04;  0.0000000E+00;  1.0000000E+04;0.0;0.0;0.0;0.0
 -2.2000000E-01;  9.9999998E-03; -5.9999999E-02;16;0.0;0.0;0.0;1000.0;  4.0000001E-01;0.0;0;0.0;0.0;0.0;0;0.0;  1.0000000E+04;  0.0000000E+00;  0.0000000E+00;  1.0000000E+04;  0.0000000E+00;  1.0000000E+04;0.0;0.0;0.0;0.0
 -2.2000000E-01;  9.9999998E-03; -3.9999999E-02;17;0.0;0.0;0.0;1000.0;  4.0000001E-01;0.0;0;0.0;0.0;0.0;0;0.0;  1.0000000E+04;  0.0000000E+00;  0.0000000E+00;  1.0000000E+04;  0.0000000E+00;  1.0000000E+04;0.0;0.0;0.0;0.0
 -2.2000000E-01;  9.9999998E-03; -2.0000000E-02;18;0.0;0.0;0.0;1000.0;  4.0000001E-01;0.0;0;0.0;0.0;0.0;0;0.0;  1.0000000E+04;  0.0000000E+00;  0.0000000E+00;  1.0000000E+04;  0.0000000E+00;  1.0000000E+04;0.0;0.0;0.0;0.0
 -2.0000000E-01;  9.9999998E-03; -1.8000001E-01;50;0.0;0.0;0.0;1000.0;  4.0000001E-01;0.0;0;0.0;0.0;0.0;0;0.0;  1.0000000E+04;  0.0000000E+00;  0.0000000E+00;  1.0000000E+04;  0.0000000E+00;  1.0000000E+04;0.0;0.0;0.0;0.0
 -2.0000000E-01;  9.9999998E-03; -1.6000000E-01;51;0.0;0.0;0.0;1000.0;  4.0000001E-01;0.0;0;0.0;0.0;0.0;0;0.0;  1.0000000E+04;  0.0000000E+00;  0.0000000E+00;  1.0000000E+04;  0.0000000E+00;  1.0000000E+04;0.0;0.0;0.0;0.0
 -2.0000000E-01;  9.9999998E-03; -1.4000000E-01;52;0.0;0.0;0.0;1000.0;  4.0000001E-01;0.0;0;0.0;0.0;0.0;0;0.0;  1.0000000E+04;  0.0000000E+00;  0.0000000E+00;  1.0000000E+04;  0.0000000E+00;  1.0000000E+04;0.0;0.0;0.0;0.0
 -2.0000000E-01;  9.9999998E-03; -1.2000000E-01;53;0.0;0.0;0.0;1000.0;  4.0000001E-01;0.0;0;0.0;0.0;0.0;0;0.0;  1.0000000E+04;  0.0000000E+00;  0.0000000E+00;  1.0000000E+04;  0.0000000E+00;  1.0000000E+04;0.0;0.0;0.0;0.0
 -2.0000000E-01;  9.9999998E-03; -1.0000000E-01;54;0.0;0.0;0.0;1000.0;  4.0000001E-01;0.0;0;0.0;0.0;0.0;0;0.0;  1.0000000E+04;  0.0000000E+00;  0.0000000E+00;  1.0000000E+04;  0.0000000E+00;  1.0000000E+04;0.0;0.0;0.0;0.0
 -2.0000000E-01;  9.9999998E-03; -7.9999998E-02;55;0.0;0.0;0.0;1000.0;  4.0000001E-01;0.0;0;0.0;0.0;0.0;0;0.0;  1.0000000E+04;  0.0000000E+00;  0.0000000E+00;  1.0000000E+04;  0.0000000E+00;  1.0000000E+04;0.0;0.0;0.0;0.0
 -2.0000000E-01;  9.9999998E-03; -5.9999999E-02;56;0.0;0.0;0.0;1000.0;  4.0000001E-01;0.0;0;0.0;0.0;0.0;0;0.0;  1.0000000E+04;  0.0000000E+00;  0.0000000E+00;  1.0000000E+04;  0.0000000E+00;  1.0000000E+04;0.0;0.0;0.0;0.0
 -2.0000000E-01;  9.9999998E-03; -3.9999999E-02;57;0.0;0.0;0.0;1000.0;  4.0000001E-01;0.0;0;0.0;0.0;0.0;0;0.0;  1.0000000E+04;  0.0000000E+00;  0.0000000E+00;  1.0000000E+04;  0.0000000E+00;  1.0000000E+04;0.0;0.0;0.0;0.0
 -2.0000000E-01;  9.9999998E-03; -2.0000000E-02;58;0.0;0.0;0.0;1000.0;  4.0000001E-01;0.0;0;0.0;0.0;0.0;0;0.0;  1.0000000E+04;  0.0000000E+00;  0.0000000E+00;  1.0000000E+04;  0.0000000E+00;  1.0000000E+04;0.0;0.0;0.0;0.0
 -1.8000001E-01;  9.9999998E-03; -1.8000001E-01;91;0.0;0.0;0.0;1000.0;  4.0000001E-01;0.0;0;0.0;0.0;0.0;0;0.0;  1.0000000E+04;  0.0000000E+00;  0.0000000E+00;  1.0000000E+04;  0.0000000E+00;  1.0000000E+04;0.0;0.0;0.0;0.0
 -1.8000001E-01;  9.9999998E-03; -1.6000000E-01;92;0.0;0.0;0.0;1000.0;  4.0000001E-01;0.0;0;0.0;0.0;0.0;0;0.0;  1.0000000E+04;  0.0000000E+00;  0.0000000E+00;  1.0000000E+04;  0.0000000E+00;  1.0000000E+04;0.0;0.0;0.0;0.0
 -1.8000001E-01;  9.9999998E-03; -1.4000000E-01;93;0.0;0.0;0.0;1000.0;  4.0000001E-01;0.0;0;0.0;0.0;0.0;0;0.0;  1.0000000E+04;  0.0000000E+00;  0.0000000E+00;  1.0000000E+04;  0.0000000E+00;  1.0000000E+04;0.0;0.0;0.0;0.0
 -1.8000001E-01;  9.9999998E-03; -1.2000000E-01;94;0.0;0.0;0.0;1000.0;  4.0000001E-01;0.0;0;0.0;0.0;0.0;0;0.0;  1.0000000E+04;  0.0000000E+00;  0.0000000E+00;  1.0000000E+04;  0.0000000E+00;  1.0000000E+04;0.0;0.0;0.0;0.0
 -1.8000001E-01;  9.9999998E-03; -1.0000000E-01;95;0.0;0.0;0.0;1000.0;  4.0000001E-01;0.0;0;0.0;0.0;0.0;0;0.0;  1.0000000E+04;  0.0000000E+00;  0.0000000E+00;  1.0000000E+04;  0.0000000E+00;  1.0000000E+04;0.0;0.0;0.0;0.0
 -1.8000001E-01;  9.9999998E-03; -7.9999998E-02;96;0.0;0.0;0.0;1000.0;  4.0000001E-01;0.0;0;0.0;0.0;0.0;0;0.0;  1.0000000E+04;  0.0000000E+00;  0.0000000E+00;  1.0000000E+04;  0.0000000E+00;  1.0000000E+04;0.0;0.0;0.0;0.0
 -1.8000001E-01;  9.9999998E-03; -5.9999999E-02;97;0.0;0.0;0.0;1000.0;  4.0000001E-01;0.0;0;0.0;0.0;0.0;0;0.0;  1.0000000E+04;  0.0000000E+00;  0.0000000E+00;  1.0000000E+04;  0.0000000E+00;  1.0000000E+04;0.0;0.0;0.0;0.0
 -1.8000001E-01;  9.9999998E-03; -3.9999999E-02;98;0.0;0.0;0.0;1000.0;  4.0000001E-01;0.0;0;0.0;0.0;0.0;0;0.0;  1.0000000E+04;  0.0000000E+00;  0.0000000E+00;  1.0000000E+04;  0.0000000E+00;  1.0000000E+04;0.0;0.0;0.0;0.0
 -1.8000001E-01;  9.9999998E-03; -2.0000000E-02;99;0.0;0.0;0.0;1000.0;  4.0000001E-01;0.0;0;0.0;0.0;0.0;0;0.0;  1.0000000E+04;  0.0000000E+00;  0.0000000E+00;  1.0000000E+04;  0.0000000E+00;  1.0000000E+04;0.0;0.0;0.0;0.0
 -1.6000000E-01;  9.9999998E-03; -1.8000001E-01;132;0.0;0.0;0.0;1000.0;  4.0000001E-01;0.0;0;0.0;0.0;0.0;0;-6.2267723e-08;  1.0000000E+04;  0.0000000E+00;  0.0000000E+00;  1.0000000E+04;  0.0000000E+00;  1.0000000E+04;-6.2388814e-08;0.0;1.2109275e-10;2.450294e-06
 -1.6000000E-01;  9.9999998E-03; -1.6000000E-01;133;0.0;0.0;0.0;1000.0;  4.0000001E-01;0.0;0;0.0;0.0;0.0;0;-6.4704899e-08;  1.0000000E+04;  0.0000000E+00;  0.0000000E+00;  1.0000000E+04;  0.0000000E+00;  1.0000000E+04;-6.481558e-08;0.0;1.1068382e-10;2.5001843e-06
 -1.6000000E-01;  9.9999998E-03; -1.4000000E-01;134;0.0;0.0;0.0;1000.0;  4.0000001E-01;0.0;0;0.0;0.0;0.0;0;-6.6529545e-08;  1.0000000E+04;  0.0000000E+00;  0.0000000E+00;  1.0000000E+04;  0.0000000E+00;  1.0000000E+04;-6.6628395e-08;0.0;9.8849984e-11;2.5264021e-06
 -1.6000000E-01;  9.9999998E-03; -1.2000000E-01;135;0.0;0.0;0.0;1000.0;  4.0000001E-01;0.0;0;0.0;0.0;0.0;0;-6.7875675e-08;  1.0000000E+04;  0.0000000E+00;  0.0000000E+00;  1.0000000E+04;  0.0000000E+00;  1.0000000E+04;-6.7963597e-08;0.0;8.7921018e-11;2.540133e-06
 -1.6000000E-01;  9.9999998E-03; -1.0000000E-01;136;0.0;0.0;0.0;1000.0;  4.0000001E-01;0.0;0;0.0;0.0;0.0;0;-6.8855392e-08;  1.0000000E+04;  0.0000000E+00;  0.0000000E+00;  1.0000000E+04;  0.0000000E+00;  1.0000000E+04;-6.8933389e-08;0.0;7.7993723e-11;2.5439278e-06
 -1.6000000E-01;  9.9999998E-03; -7.9999998E-02;137;0.0;0.0;0.0;1000.0;  4.0000001E-01;0.0;0;0.0;0.0;0.0;0;-6.9554389e-08;  1.0000000E+04;  0.0000000E+00;  0.0000000E+00;  1.0000000E+04;  0.0000000E+00;  1.0000000E+04;-6.9623965e-08;0.0;6.9579627e-11;2.5418747e-06
 -1.6000000E-01;  9.9999998E-03; -5.9999999E-02;138;0.0;0.0;0.0;1000.0;  4.0000001E-01;0.0;0;0.0;0.0;0.0;0;-7.0038141e-08;  1.0000000E+04;  0.0000000E+00;  0.0000000E+00;  1.0000000E+04;  0.0000000E+00;  1.0000000E+04;-7.0100761e-08;0.0;6.2618237e-11;2.5361053e-06
 -1.6000000E-01;  9.9999998E-03; -3.9999999E-02;139;0.0;0.0;0.0;1000.0;  4.0000001E-01;0.0;0;0.0;0.0;0.0;0;-7.0353714e-08;  1.0000000E+04;  0.0000000E+00;  0.0000000E+00;  1.0000000E+04;  0.0000000E+00;  1.0000000E+04;-7.0410778e-08;0.0;5.7062494e-11;2.5286849e-06
 -1.6000000E-01;  9.9999998E-03; -2.0000000E-02;140;0.0;0.0;0.0;1000.0;  4.0000001E-01;0.0;0;0.0;0.0;0.0;0;-7.0531463e-08;  1.0000000E+04;  0.0000000E+00;  0.0000000E+00;  1.0000000E+04;  0.0000000E+00;  1.0000000E+04;-7.0585017e-08;0.0;5.3555067e-11;2.5230918e-06
 -1.4000000E-01;  9.9999998E-03; -1.8000001E-01;173;0.0;0.0;0.0;1000.0;  4.0000001E-01;0.0;0;0.0;0.0;0.0;0;-2.270828e-06;  1.0000000E+04;  0.0000000E+00;  0.0000000E+00;  1.0000000E+04;  0.0000000E+00;  1.0000000E+04;-2.2856616e-06;0.0;1.4833678e-08;0.00012750379
 -1.4000000E-01;  9.9999998E-03; -1.6000000E-01;174;0.0;0.0;0.0;1000.0;  4.0000001E-01;0.0;0;0.0;0.0;0.0;0;-2.3655309e-06;  1.0000000E+04;  0.0000000E+00;  0.0000000E+00;  1.0000000E+04;  0.0000000E+00;  1.0000000E+04;-2.3793702e-06;0.0;1.3839406e-08;0.00012758402
 -1.4000000E-01;  9.9999998E-03; -1.4000000E-01;175;0.0;0.0;0.0;1000.0;  4.0000001E-01;0.0;0;0.0;0.0;0.0;0;-2.4374417e-06;  1.0000000E+04;  0.0000000E+00;  0.0000000E+00;  1.0000000E+04;  0.0000000E+00;  1.0000000E+04;-2.4499711e-06;0.0;1.2529512e-08;0.00012583047
 -1.4000000E-01;  9.9999998E-03; -1.2000000E-01;176;0.0;0.0;0.0;1000.0;  4.0000001E-01;0.0;0;0.0;0.0;0.0;0;-2.4911051e-06;  1.0000000E+04;  0.0000000E+00;  0.0000000E+00;  1.0000000E+04;  0.0000000E+00;  1.0000000E+04;-2.5022944e-06;0.0;1.1189177e-08;0.00012333746
 -1.4000000E-01;  9.9999998E-03; -1.0000000E-01;177;0.0;0.0;0.0;1000.0;  4.0000001E-01;0.0;0;0.0;0.0;0.0;0;-2.5304785e-06;  1.0000000E+04;  0.0000000E+00;  0.0000000E+00;  1.0000000E+04;  0.0000000E+00;  1.0000000E+04;-2.540442e-06;0.0;9.9634265e-09;0.00012066992
 -1.4000000E-01;  9.9999998E-03; -7.9999998E-02;178;0.0;0.0;0.0;1000.0;  4.0000001E-01;0.0;0;0.0;0.0;0.0;0;-2.5587949e-06;  1.0000000E+04;  0.0000000E+00;  0.0000000E+00;  1.0000000E+04;  0.0000000E+00;  1.0000000E+04;-2.5676984e-06;0.0;8.9036103e-09;0.00011807633
 -1.4000000E-01;  9.9999998E-03; -5.9999999E-02;179;0.0;0.0;0.0;1000.0;  4.0000001E-01;0.0;0;0.0;0.0;0.0;0;-2.5785362e-06;  1.0000000E+04;  0.0000000E+00;  0.0000000E+00;  1.0000000E+04;  0.0000000E+00;  1.0000000E+04;-2.5865647e-06;0.0;8.0285512e-09;0.00011572464
 -1.4000000E-01;  9.9999998E-03; -3.9999999E-02;180;0.0;0.0;0.0;1000.0;  4.0000001E-01;0.0;0;0.0;0.0;0.0;0;-2.5914778e-06;  1.0000000E+04;  0.0000000E+00;  0.0000000E+00;  1.0000000E+04;  0.0000000E+00;  1.0000000E+04;-2.5988443e-06;0.0;7.366431e-09;0.00011382495
 -1.4000000E-01;  9.9999998E-03; -2.0000000E-02;181;0.0;0.0;0.0;1000.0;  4.0000001E-01;0.0;0;0.0;0.0;0.0;0;-2.5988024e-06;  1.0000000E+04;  0.0000000E+00;  0.0000000E+00;  1.0000000E+04;  0.0000000E+00;  1.0000000E+04;-2.6057505e-06;0.0;6.948174e-09;0.00011257584
 -1.2000000E-01;  9.9999998E-03; -1.8000001E-01;214;0.0;0.0;0.0;1000.0;  4.0000001E-01;0.0;0;0.0;0.0;0.0;0;-1.2681793e-05;  1.0000000E+04;  0.0000000E+00;  0.0000000E+00;  1.0000000E+04;  0.0000000E+00;  1.0000000E+04;-1.2823029e-05;0.0;1.4123616e-07;0.0009297856
 -1.2000000E-01;  9.9999998E-03; -1.6000000E-01;215;0.0;0.0;0.0;1000.0;  4.0000001E-01;0.0;0;0.0;0.0;0.0;0;-1.3228119e-05;  1.0000000E+04;  0.0000000E+00;  0.0000000E+00;  1.0000000E+04;  0.0000000E+00;  1.0000000E+04;-1.3361707e-05;0.0;1.3358759e-07;0.00092449755
 -1.2000000E-01;  9.9999998E-03; -1.4000000E-01;216;0.0;0.0;0.0;1000.0;  4.0000001E-01;0.0;0;0.0;0.0;0.0;0;-1.3646193e-05;  1.0000000E+04;  0.0000000E+00;  0.0000000E+00;  1.0000000E+04;  0.0000000E+00;  1.0000000E+04;-1.3768394e-05;0.0;1.2220048e-07;0.00090185506
 -1.2000000E-01;  9.9999998E-03; -1.2000000E-01;217;0.0;0.0;0.0;1000.0;  4.0000001E-01;0.0;0;0.0;0.0;0.0;0;-1.3960425e-05;  1.0000000E+04;  0.0000000E+00;  0.0000000E+00;  1.0000000E+04;  0.0000000E+00;  1.0000000E+04;-1.4070258e-05;0.0;1.0983204e-07;0.00087193551
 -1.2000000E-01;  9.9999998E-03; -1.0000000E-01;218;0.0;0.0;0.0;1000.0;  4.0000001E-01;0.0;0;0.0;0.0;0.0;0;-1.4192382e-05;  1.0000000E+04;  0.0000000E+00;  0.0000000E+00;  1.0000000E+04;  0.0000000E+00;  1.0000000E+04;-1.4290503e-05;0.0;9.8121284e-08;0.00084080867
 -1.2000000E-01;  9.9999998E-03; -7.9999998E-02;219;0.0;0.0;0.0;1000.0;  4.0000001E-01;0.0;0;0.0;0.0;0.0;0;-1.4359983e-05;  1.0000000E+04;  0.0000000E+00;  0.0000000E+00;  1.0000000E+04;  0.0000000E+00;  1.0000000E+04;-1.4447853e-05;0.0;8.7869587e-08;0.00081165304
 -1.2000000E-01;  9.9999998E-03; -5.9999999E-02;220;0.0;0.0;0.0;1000.0;  4.0000001E-01;0.0;0;0.0;0.0;0.0;0;-1.4477252e-05;  1.0000000E+04;  0.0000000E+00;  0.0000000E+00;  1.0000000E+04;  0.0000000E+00;  1.0000000E+04;-1.4556705e-05;0.0;7.9452185e-08;0.00078634138
 -1.2000000E-01;  9.9999998E-03; -3.9999999E-02;221;0.0;0.0;0.0;1000.0;  4.0000001E-01;0.0;0;0.0;0.0;0.0;0;-1.4554368e-05;  1.0000000E+04;  0.0000000E+00;  0.0000000E+00;  1.0000000E+04;  0.0000000E+00;  1.0000000E+04;-1.4627504e-05;0.0;7.3136157e-08;0.000766518
 -1.2000000E-01;  9.9999998E-03; -2.0000000E-02;222;0.0;0.0;0.0;1000.0;  4.0000001E-01;0.0;0;0.0;0.0;0.0;0;-1.4598092e-05;  1.0000000E+04;  0.0000000E+00;  0.0000000E+00;  1.0000000E+04;  0.0000000E+00;  1.0000000E+04;-1.4667286e-05;0.0;6.9193753e-08;0.00075379794
 -1.0000000E-01;  9.9999998E-03; -1.8000001E-01;255;0.0;0.0;0.0;1000.0;  4.0000001E-01;0.0;0;0.0;0.0;0.0;0;-4.1055926e-05;  1.0000000E+04;  0.0000000E+00;  0.0000000E+00;  1.0000000E+04;  0.0000000E+00;  1.0000000E+04;-4.1689036e-05;0.0;6.3310881e-07;0.0036804518
 -1.0000000E-01;  9.9999998E-03; -1.6000000E-01;256;0.0;0.0;0.0;1000.0;  4.0000001E-01;0.0;0;0.0;0.0;0.0;0;-4.2861247e-05;  1.0000000E+04;  0.0000000E+00;  0.0000000E+00;  1.0000000E+04;  0.0000000E+00;  1.0000000E+04;-4.3474785e-05;0.0;6.135362e-07;0.0036867822
 -1.0000000E-01;  9.9999998E-03; -1.4000000E-01;257;0.0;0.0;0.0;1000.0;  4.0000001E-01;0.0;0;0.0;0.0;0.0;0;-4.4245673e-05;  1.0000000E+04;  0.0000000E+00;  0.0000000E+00;  1.0000000E+04;  0.0000000E+00;  1.0000000E+04;-4.4811732e-05;0.0;5.6605808e-07;0.0035789469
 -1.0000000E-01;  9.9999998E-03; -1.2000000E-01;258;0.0;0.0;0.0;1000.0;  4.0000001E-01;0.0;0;0.0;0.0;0.0;0;-4.5291472e-05;  1.0000000E+04;  0.0000000E+00;  0.0000000E+00;  1.0000000E+04;  0.0000000E+00;  1.0000000E+04;-4.5803168e-05;0.0;5.1169781e-07;0.0034339144
 -1.0000000E-01;  9.9999998E-03; -1.0000000E-01;259;0.0;0.0;0.0;1000.0;  4.0000001E-01;0.0;0;0.0;0.0;0.0;0;-4.6066823e-05;  1.0000000E+04;  0.0000000E+00;  0.0000000E+00;  1.0000000E+04;  0.0000000E+00;  1.0000000E+04;-4.6525583e-05;0.0;4.5876169e-07;0.0032818399
 -1.0000000E-01;  9.9999998E-03; -7.9999998E-02;260;0.0;0.0;0.0;1000.0;  4.0000001E-01;0.0;0;0.0;0.0;0.0;0;-4.6629066e-05;  1.0000000E+04;  0.0000000E+00;  0.0000000E+00;  1.0000000E+04;  0.0000000E+00;  1.0000000E+04;-4.7040874e-05;0.0;4.1180772e-07;0.0031399643
 -1.0000000E-01;  9.9999998E-03; -5.9999999E-02;261;0.0;0.0;0.0;1000.0;  4.0000001E-01;0.0;0;0.0;0.0;0.0;0;-4.7023543e-05;  1.0000000E+04;  0.0000000E+00;  0.0000000E+00;  1.0000000E+04;  0.0000000E+00;  1.0000000E+04;-4.7396716e-05;0.0;3.7317238e-07;0.0030183366
 -1.0000000E-01;  9.9999998E-03; -3.9999999E-02;262;0.0;0.0;0.0;1000.0;  4.0000001E-01;0.0;0;0.0;0.0;0.0;0;-4.7283469e-05;  1.0000000E+04;  0.0000000E+00;  0.0000000E+00;  1.0000000E+04;  0.0000000E+00;  1.0000000E+04;-4.7627778e-05;0.0;3.4430838e-07;0.0029244528
 -1.0000000E-01;  9.9999998E-03; -2.0000000E-02;263;0.0;0.0;0.0;1000.0;  4.0000001E-01;0.0;0;0.0;0.0;0.0;0;-4.7431069e-05;  1.0000000E+04;  0.0000000E+00;  0.0000000E+00;  1.0000000E+04;  0.0000000E+00;  1.0000000E+04;-4.7757465e-05;0.0;3.2639483e-07;0.0028648612
 -7.9999998E-02;  9.9999998E-03; -1.8000001E-01;296;0.0;0.0;0.0;1000.0;  4.0000001E-01;0.0;0;0.0;0.0;0.0;0;-9.9847915e-05;  1.0000000E+04;  0.0000000E+00;  0.0000000E+00;  1.0000000E+04;  0.0000000E+00;  1.0000000E+04;-0.00010176923;0.0;1.9213217e-06;0.010453212
 -7.9999998E-02;  9.9999998E-03; -1.6000000E-01;297;0.0;0.0;0.0;1000.0;  4.0000001E-01;0.0;0;0.0;0.0;0.0;0;-0.00010426562;  1.0000000E+04;  0.0000000E+00;  0.0000000E+00;  1.0000000E+04;  0.0000000E+00;  1.0000000E+04;-0.00010617211;0.0;1.9064912e-06;0.010595562
 -7.9999998E-02;  9.9999998E-03; -1.4000000E-01;298;0.0;0.0;0.0;1000.0;  4.0000001E-01;0.0;0;0.0;0.0;0.0;0;-0.00010765933;  1.0000000E+04;  0.0000000E+00;  0.0000000E+00;  1.0000000E+04;  0.0000000E+00;  1.0000000E+04;-0.00010943275;0.0;1.7734166e-06;0.01027367
 -7.9999998E-02;  9.9999998E-03; -1.2000000E-01;299;0.0;0.0;0.0;1000.0;  4.0000001E-01;0.0;0;0.0;0.0;0.0;0;-0.00011023038;  1.0000000E+04;  0.0000000E+00;  0.0000000E+00;  1.0000000E+04;  0.0000000E+00;  1.0000000E+04;-0.00011184137;0.0;1.610988e-06;0.0098151928
 -7.9999998E-02;  9.9999998E-03; -1.0000000E-01;300;0.0;0.0;0.0;1000.0;  4.0000001E-01;0.0;0;0.0;0.0;0.0;0;-0.00011214199;  1.0000000E+04;  0.0000000E+00;  0.0000000E+00;  1.0000000E+04;  0.0000000E+00;  1.0000000E+04;-0.00011359101;0.0;1.449024e-06;0.0093281437
 -7.9999998E-02;  9.9999998E-03; -7.9999998E-02;301;0.0;0.0;0.0;1000.0;  4.0000001E-01;0.0;0;0.0;0.0;0.0;0;-0.0001135315;  1.0000000E+04;  0.0000000E+00;  0.0000000E+00;  1.0000000E+04;  0.0000000E+00;  1.0000000E+04;-0.00011483511;0.0;1.303622e-06;0.0088723619
 -7.9999998E-02;  9.9999998E-03; -5.9999999E-02;302;0.0;0.0;0.0;1000.0;  4.0000001E-01;0.0;0;0.0;0.0;0.0;0;-0.00011450813;  1.0000000E+04;  0.0000000E+00;  0.0000000E+00;  1.0000000E+04;  0.0000000E+00;  1.0000000E+04;-0.00011569163;0.0;1.183492e-06;0.0084831724
 -7.9999998E-02;  9.9999998E-03; -3.9999999E-02;303;0.0;0.0;0.0;1000.0001;  4.0000001E-01;0.098762624;0;0.0;0.0;0.0;0;-0.00011515256;  1.0000000E+04;  0.0000000E+00;  0.0000000E+00;  1.0000000E+04;  0.0000000E+00;  1.0000000E+04;-0.00011624638;0.0;1.0938189e-06;0.0081848651
 -7.9999998E-02;  9.9999998E-03; -2.0000000E-02;304;0.0;0.0;0.0;1000.0001;  4.0000001E-01;0.098762624;0;0.0;0.0;0.0;0;-0.00011551882;  1.0000000E+04;  0.0000000E+00;  0.0000000E+00;  1.0000000E+04;  0.0000000E+00;  1.0000000E+04;-0.00011655713;0.0;1.0383112e-06;0.0079967091
 -5.9999999E-02;  9.9999998E-03; -1.8000001E-01;337;0.0;0.0;0.0;1000.0001;  4.0000001E-01;0.098762624;0;0.0;0.0;0.0;0;-0.00019953595;  1.0000000E+04;  0.0000000E+00;  0.0000000E+00;  1.0000000E+04;  0.0000000E+00;  1.0000000E+04;-0.00020414345;0.0;4.6074997e-06;0.024020102
 -5.9999999E-02;  9.9999998E-03; -1.6000000E-01;338;0.0;0.0;0.0;1000.0001;  4.0000001E-01;0.098762624;0;0.0;0.0;0.0;0;-0.00020827189;  1.0000000E+04;  0.0000000E+00;  0.0000000E+00;  1.0000000E+04;  0.0000000E+00;  1.0000000E+04;-0.00021288793;0.0;4.6160403e-06;0.024449563
 -5.9999999E-02;  9.9999998E-03; -1.4000000E-01;339;0.0;0.0;0.0;1000.0001;  4.0000001E-01;0.098762624;0;0.0;0.0;0.0;0;-0.00021501322;  1.0000000E+04;  0.0000000E+00;  0.0000000E+00;  1.0000000E+04;  0.0000000E+00;  1.0000000E+04;-0.0002193429;0.0;4.3296814e-06;0.023731904
 -5.9999999E-02;  9.9999998E-03; -1.2000000E-01;340;0.0;0.0;0.0;1000.0001;  4.0000001E-01;0.098762624;0;0.0;0.0;0.0;0;-0.00022012953;  1.0000000E+04;  0.0000000E+00;  0.0000000E+00;  1.0000000E+04;  0.0000000E+00;  1.0000000E+04;-0.00022407807;0.0;3.9485471e-06;0.022607721
 -5.9999999E-02;  9.9999998E-03; -1.0000000E-01;341;0.0;0.0;0.0;1000.0001;  4.0000001E-01;0.098762624;0;0.0;0.0;0.0;0;-0.00022393891;  1.0000000E+04;  0.0000000E+00;  0.0000000E+00;  1.0000000E+04;  0.0000000E+00;  1.0000000E+04;-0.00022750015;0.0;3.5612388e-06;0.021400262
 -5.9999999E-02;  9.9999998E-03; -7.9999998E-02;342;0.0;0.0;0.0;1000.0001;  4.0000001E-01;0.098762624;0;0.0;0.0;0.0;0;-0.00022671162;  1.0000000E+04;  0.0000000E+00;  0.0000000E+00;  1.0000000E+04;  0.0000000E+00;  1.0000000E+04;-0.00022992158;0.0;3.2099638e-06;0.020265691
 -5.9999999E-02;  9.9999998E-03; -5.9999999E-02;343;0.0;0.0;0.0;1000.0001;  4.0000001E-01;0.098762624;0;0.0;0.0;0.0;0;-0.00022866261;  1.0000000E+04;  0.0000000E+00;  0.0000000E+00;  1.0000000E+04;  0.0000000E+00;  1.0000000E+04;-0.0002315811;0.0;2.9184862e-06;0.019297894
 -5.9999999E-02;  9.9999998E-03; -3.9999999E-02;344;0.0;0.0;0.0;1000.0001;  4.0000001E-01;0.098762624;0;0.0;0.0;0.0;0;-0.00022995107;  1.0000000E+04;  0.0000000E+00;  0.0000000E+00;  1.0000000E+04;  0.0000000E+00;  1.0000000E+04;-0.0002326518;0.0;2.7007338e-06;0.018558729
 -5.9999999E-02;  9.9999998E-03; -2.0000000E-02;345;0.0;0.0;0.0;1000.0001;  4.0000001E-01;0.098762624;0;0.0;0.0;0.0;0;-0.00023068397;  1.0000000E+04;  0.0000000E+00;  0.0000000E+00;  1.0000000E+04;  0.0000000E+00;  1.0000000E+04;-0.00023325003;0.0;2.5660488e-06;0.018094262
 -3.9999999E-02;  9.9999998E-03; -1.8000001E-01;378;0.0;0.0;0.0;1000.0001;  4.0000001E-01;0.098762624;0;0.0;0.0;0.0;0;-0.00034309371;  1.0000000E+04;  0.0000000E+00;  0.0000000E+00;  1.0000000E+04;  0.0000000E+00;  1.0000000E+04;-0.00035244698;0.0;9.3532817e-06;0.047349256
 -3.9999999E-02;  9.9999998E-03; -1.6000000E-01;379;0.0;0.0;0.0;1000.0002;  4.0000001E-01;0.19752525;0;0.0;0.0;0.0;0;-0.00035775441;  1.0000000E+04;  0.0000000E+00;  0.0000000E+00;  1.0000000E+04;  0.0000000E+00;  1.0000000E+04;-0.00036714706;0.0;9.3926374e-06;0.048177514
 -3.9999999E-02;  9.9999998E-03; -1.4000000E-01;380;0.0;0.0;0.0;1000.0002;  4.0000001E-01;0.19752525;0;0.0;0.0;0.0;0;-0.00036911402;  1.0000000E+04;  0.0000000E+00;  0.0000000E+00;  1.0000000E+04;  0.0000000E+00;  1.0000000E+04;-0.00037796531;0.0;8.8512888e-06;0.046747625
 -3.9999999E-02;  9.9999998E-03; -1.2000000E-01;381;0.0;0.0;0.0;1000.0002;  4.0000001E-01;0.19752525;0;0.0;0.0;0.0;0;-0.00037774595;  1.0000000E+04;  0.0000000E+00;  0.0000000E+00;  1.0000000E+04;  0.0000000E+00;  1.0000000E+04;-0.00038584106;0.0;8.0951031e-06;0.044423595
 -3.9999999E-02;  9.9999998E-03; -1.0000000E-01;382;0.0;0.0;0.0;1000.0002;  4.0000001E-01;0.19752525;0;0.0;0.0;0.0;0;-0.00038417408;  1.0000000E+04;  0.0000000E+00;  0.0000000E+00;  1.0000000E+04;  0.0000000E+00;  1.0000000E+04;-0.00039148986;0.0;7.3157803e-06;0.041910112
 -3.9999999E-02;  9.9999998E-03; -7.9999998E-02;383;0.0;0.0;0.0;1000.0002;  4.0000001E-01;0.19752525;0;0.0;0.0;0.0;0;-0.0003888545;  1.0000000E+04;  0.0000000E+00;  0.0000000E+00;  1.0000000E+04;  0.0000000E+00;  1.0000000E+04;-0.00039545796;0.0;6.6034695e-06;0.039541725
 -3.9999999E-02;  9.9999998E-03; -5.9999999E-02;384;0.0;0.0;0.0;1000.0002;  4.0000001E-01;0.19752525;0;0.0;0.0;0.0;0;-0.00039214946;  1.0000000E+04;  0.0000000E+00;  0.0000000E+00;  1.0000000E+04;  0.0000000E+00;  1.0000000E+04;-0.00039815964;0.0;6.0101615e-06;0.037521962
 -3.9999999E-02;  9.9999998E-03; -3.9999999E-02;385;0.0;0.0;0.0;1000.0002;  4.0000001E-01;0.19752525;0;0.0;0.0;0.0;0;-0.00039432652;  1.0000000E+04;  0.0000000E+00;  0.0000000E+00;  1.0000000E+04;  0.0000000E+00;  1.0000000E+04;-0.00039989286;0.0;5.5663349e-06;0.035982482
 -3.9999999E-02;  9.9999998E-03; -2.0000000E-02;386;0.0;0.0;0.0;1000.0002;  4.0000001E-01;0.19752525;0;0.0;0.0;0.0;0;-0.00039556556;  1.0000000E+04;  0.0000000E+00;  0.0000000E+00;  1.0000000E+04;  0.0000000E+00;  1.0000000E+04;-0.00040085736;0.0;5.2918062e-06;0.035017416
 -2.0000000E-02;  9.9999998E-03; -1.8000001E-01;419;0.0;0.0;0.0;1000.0002;  4.0000001E-01;0.19752525;0;0.0;0.0;0.0;0;-0.0005233367;  1.0000000E+04;  0.0000000E+00;  0.0000000E+00;  1.0000000E+04;  0.0000000E+00;  1.0000000E+04;-0.00054001727;0.0;1.6680582e-05;0.082872443
 -2.0000000E-02;  9.9999998E-03; -1.6000000E-01;420;0.0;0.0;0.0;1000.0002;  4.0000001E-01;0.19752525;0;0.0;0.0;0.0;0;-0.00054487813;  1.0000000E+04;  0.0000000E+00;  0.0000000E+00;  1.0000000E+04;  0.0000000E+00;  1.0000000E+04;-0.00056160986;0.0;1.6731743e-05;0.084090598
 -2.0000000E-02;  9.9999998E-03; -1.4000000E-01;421;0.0;0.0;0.0;1000.0002;  4.0000001E-01;0.19752525;0;0.0;0.0;0.0;0;-0.00056160556;  1.0000000E+04;  0.0000000E+00;  0.0000000E+00;  1.0000000E+04;  0.0000000E+00;  1.0000000E+04;-0.00057739567;0.0;1.5790129e-05;0.081425279
 -2.0000000E-02;  9.9999998E-03; -1.2000000E-01;422;0.0;0.0;0.0;1000.0002;  4.0000001E-01;0.19752525;0;0.0;0.0;0.0;0;-0.0005743113;  1.0000000E+04;  0.0000000E+00;  0.0000000E+00;  1.0000000E+04;  0.0000000E+00;  1.0000000E+04;-0.00058877957;0.0;1.4468294e-05;0.077189438
 -2.0000000E-02;  9.9999998E-03; -1.0000000E-01;423;0.0;0.0;0.0;1000.0003;  4.0000001E-01;0.29628786;0;0.0;0.0;0.0;0;-0.00058376329;  1.0000000E+04;  0.0000000E+00;  0.0000000E+00;  1.0000000E+04;  0.0000000E+00;  1.0000000E+04;-0.00059685577;0.0;1.3092466e-05;0.07259424
 -2.0000000E-02;  9.9999998E-03; -7.9999998E-02;424;0.0;0.0;0.0;1000.0004;  4.0000001E-01;0.29628786;0;0.0;0.0;0.0;0;-0.0005906407;  1.0000000E+04;  0.0000000E+00;  0.0000000E+00;  1.0000000E+04;  0.0000000E+00;  1.0000000E+04;-0.00060246879;0.0;1.1828114e-05;0.06825953
 -2.0000000E-02;  9.9999998E-03; -5.9999999E-02;425;0.0;0.0;0.0;1000.0004;  4.0000001E-01;0.29628786;0;0.0;0.0;0.0;0;-0.00059548084;  1.0000000E+04;  0.0000000E+00;  0.0000000E+00;  1.0000000E+04;  0.0000000E+00;  1.0000000E+04;-0.00060625264;0.0;1.0771812e-05;0.064563982
 -2.0000000E-02;  9.9999998E-03; -3.9999999E-02;426;0.0;0.0;0.0;1000.0004;  4.0000001E-01;0.29628786;0;0.0;0.0;0.0;0;-0.00059867912;  1.0000000E+04;  0.0000000E+00;  0.0000000E+00;  1.0000000E+04;  0.0000000E+00;  1.0000000E+04;-0.0006086597;0.0;9.9805748e-06;0.061751064
 -2.0000000E-02;  9.9999998E-03; -2.0000000E-02;427;0.0;0.0;0.0;1000.0004;  4.0000001E-01;0.29628786;0;0.0;0.0;0.0;0;-0.0006004998;  1.0000000E+04;  0.0000000E+00;  0.0000000E+00;  1.0000000E+04;  0.0000000E+00;  1.0000000E+04;-0.00060999079;0.0;9.4910083e-06;0.059990689
 -2.2000000E-01;  9.9999998E-03;  0.0000000E+00;19;0.0;0.0;0.0;1000.0;  4.0000001E-01;0.0;0;0.0;0.0;0.0;0;0.0;  1.0000000E+04;  0.0000000E+00;  0.0000000E+00;  1.0000000E+04;  0.0000000E+00;  1.0000000E+04;0.0;0.0;0.0;0.0
 -2.2000000E-01;  9.9999998E-03;  2.0000000E-02;20;0.0;0.0;0.0;1000.0;  4.0000001E-01;0.0;0;0.0;0.0;0.0;0;0.0;  1.0000000E+04;  0.0000000E+00;  0.0000000E+00;  1.0000000E+04;  0.0000000E+00;  1.0000000E+04;0.0;0.0;0.0;0.0
 -2.2000000E-01;  9.9999998E-03;  3.9999999E-02;21;0.0;0.0;0.0;1000.0;  4.0000001E-01;0.0;0;0.0;0.0;0.0;0;0.0;  1.0000000E+04;  0.0000000E+00;  0.0000000E+00;  1.0000000E+04;  0.0000000E+00;  1.0000000E+04;0.0;0.0;0.0;0.0
 -2.2000000E-01;  9.9999998E-03;  5.9999999E-02;22;0.0;0.0;0.0;1000.0;  4.0000001E-01;0.0;0;0.0;0.0;0.0;0;0.0;  1.0000000E+04;  0.0000000E+00;  0.0000000E+00;  1.0000000E+04;  0.0000000E+00;  1.0000000E+04;0.0;0.0;0.0;0.0
 -2.2000000E-01;  9.9999998E-03;  7.9999998E-02;23;0.0;0.0;0.0;1000.0;  4.0000001E-01;0.0;0;0.0;0.0;0.0;0;0.0;  1.0000000E+04;  0.0000000E+00;  0.0000000E+00;  1.0000000E+04;  0.0000000E+00;  1.0000000E+04;0.0;0.0;0.0;0.0
 -2.2000000E-01;  9.9999998E-03;  1.0000000E-01;24;0.0;0.0;0.0;1000.0;  4.0000001E-01;0.0;0;0.0;0.0;0.0;0;0.0;  1.0000000E+04;  0.0000000E+00;  0.0000000E+00;  1.0000000E+04;  0.0000000E+00;  1.0000000E+04;0.0;0.0;0.0;0.0
 -2.2000000E-01;  9.9999998E-03;  1.2000000E-01;25;0.0;0.0;0.0;1000.0;  4.0000001E-01;0.0;0;0.0;0.0;0.0;0;0.0;  1.0000000E+04;  0.0000000E+00;  0.0000000E+00;  1.0000000E+04;  0.0000000E+00;  1.0000000E+04;0.0;0.0;0.0;0.0
 -2.2000000E-01;  9.9999998E-03;  1.4000000E-01;26;0.0;0.0;0.0;1000.0;  4.0000001E-01;0.0;0;0.0;0.0;0.0;0;0.0;  1.0000000E+04;  0.0000000E+00;  0.0000000E+00;  1.0000000E+04;  0.0000000E+00;  1.0000000E+04;0.0;0.0;0.0;0.0
 -2.0000000E-01;  9.9999998E-03;  0.0000000E+00;59;0.0;0.0;0.0;1000.0;  4.0000001E-01;0.0;0;0.0;0.0;0.0;0;0.0;  1.0000000E+04;  0.0000000E+00;  0.0000000E+00;  1.0000000E+04;  0.0000000E+00;  1.0000000E+04;0.0;0.0;0.0;0.0
 -2.0000000E-01;  9.9999998E-03;  2.0000000E-02;60;0.0;0.0;0.0;1000.0;  4.0000001E-01;0.0;0;0.0;0.0;0.0;0;0.0;  1.0000000E+04;  0.0000000E+00;  0.0000000E+00;  1.0000000E+04;  0.0000000E+00;  1.0000000E+04;0.0;0.0;0.0;0.0
 -2.0000000E-01;  9.9999998E-03;  3.9999999E-02;61;0.0;0.0;0.0;1000.0;  4.0000001E-01;0.0;0;0.0;0.0;0.0;0;0.0;  1.0000000E+04;  0.0000000E+00;  0.0000000E+00;  1.0000000E+04;  0.0000000E+00;  1.0000000E+04;0.0;0.0;0.0;0.0
 -2.0000000E-01;  9.9999998E-03;  5.9999999E-02;62;0.0;0.0;0.0;1000.0;  4.0000001E-01;0.0;0;0.0;0.0;0.0;0;0.0;  1.0000000E+04;  0.0000000E+00;  0.0000000E+00;  1.0000000E+04;  0.0000000E+00;  1.0000000E+04;0.0;0.0;0.0;0.0
 -2.0000000E-01;  9.9999998E-03;  7.9999998E-02;63;0.0;0.0;0.0;1000.0;  4.0000001E-01;0.0;0;0.0;0.0;0.0;0;0.0;  1.0000000E+04;  0.0000000E+00;  0.0000000E+00;  1.0000000E+04;  0.0000000E+00;  1.0000000E+04;0.0;0.0;0.0;0.0
 -2.0000000E-01;  9.9999998E-03;  1.0000000E-01;64;0.0;0.0;0.0;1000.0;  4.0000001E-01;0.0;0;0.0;0.0;0.0;0;0.0;  1.0000000E+04;  0.0000000E+00;  0.0000000E+00;  1.0000000E+04;  0.0000000E+00;  1.0000000E+04;0.0;0.0;0.0;0.0
 -2.0000000E-01;  9.9999998E-03;  1.2000000E-01;65;0.0;0.0;0.0;1000.0;  4.0000001E-01;0.0;0;0.0;0.0;0.0;0;0.0;  1.0000000E+04;  0.0000000E+00;  0.0000000E+00;  1.0000000E+04;  0.0000000E+00;  1.0000000E+04;0.0;0.0;0.0;0.0
 -2.0000000E-01;  9.9999998E-03;  1.4000000E-01;66;0.0;0.0;0.0;1000.0;  4.0000001E-01;0.0;0;0.0;0.0;0.0;0;0.0;  1.0000000E+04;  0.0000000E+00;  0.0000000E+00;  1.0000000E+04;  0.0000000E+00;  1.0000000E+04;0.0;0.0;0.0;0.0
 -1.8000001E-01;  9.9999998E-03;  0.0000000E+00;100;0.0;0.0;0.0;1000.0;  4.0000001E-01;0.0;0;0.0;0.0;0.0;0;0.0;  1.0000000E+04;  0.0000000E+00;  0.0000000E+00;  1.0000000E+04;  0.0000000E+00;  1.0000000E+04;0.0;0.0;0.0;0.0
 -1.8000001E-01;  9.9999998E-03;  2.0000000E-02;101;0.0;0.0;0.0;1000.0;  4.0000001E-01;0.0;0;0.0;0.0;0.0;0;0.0;  1.0000000E+04;  0.0000000E+00;  0.0000000E+00;  1.0000000E+04;  0.0000000E+00;  1.0000000E+04;0.0;0.0;0.0;0.0
 -1.8000001E-01;  9.9999998E-03;  3.9999999E-02;102;0.0;0.0;0.0;1000.0;  4.0000001E-01;0.0;0;0.0;0.0;0.0;0;0.0;  1.0000000E+04;  0.0000000E+00;  0.0000000E+00;  1.0000000E+04;  0.0000000E+00;  1.0000000E+04;0.0;0.0;0.0;0.0
 -1.8000001E-01;  9.9999998E-03;  5.9999999E-02;103;0.0;0.0;0.0;1000.0;  4.0000001E-01;0.0;0;0.0;0.0;0.0;0;0.0;  1.0000000E+04;  0.0000000E+00;  0.0000000E+00;  1.0000000E+04;  0.0000000E+00;  1.0000000E+04;0.0;0.0;0.0;0.0
 -1.8000001E-01;  9.9999998E-03;  7.9999998E-02;104;0.0;0.0;0.0;1000.0;  4.0000001E-01;0.0;0;0.0;0.0;0.0;0;0.0;  1.0000000E+04;  0.0000000E+00;  0.0000000E+00;  1.0000000E+04;  0.0000000E+00;  1.0000000E+04;0.0;0.0;0.0;0.0
 -1.8000001E-01;  9.9999998E-03;  1.0000000E-01;105;0.0;0.0;0.0;1000.0;  4.0000001E-01;0.0;0;0.0;0.0;0.0;0;0.0;  1.0000000E+04;  0.0000000E+00;  0.0000000E+00;  1.0000000E+04;  0.0000000E+00;  1.0000000E+04;0.0;0.0;0.0;0.0
 -1.8000001E-01;  9.9999998E-03;  1.2000000E-01;106;0.0;0.0;0.0;1000.0;  4.0000001E-01;0.0;0;0.0;0.0;0.0;0;0.0;  1.0000000E+04;  0.0000000E+00;  0.0000000E+00;  1.0000000E+04;  0.0000000E+00;  1.0000000E+04;0.0;0.0;0.0;0.0
 -1.8000001E-01;  9.9999998E-03;  1.4000000E-01;107;0.0;0.0;0.0;1000.0;  4.0000001E-01;0.0;0;0.0;0.0;0.0;0;0.0;  1.0000000E+04;  0.0000000E+00;  0.0000000E+00;  1.0000000E+04;  0.0000000E+00;  1.0000000E+04;0.0;0.0;0.0;0.0
 -1.6000000E-01;  9.9999998E-03;  0.0000000E+00;141;0.0;0.0;0.0;1000.0;  4.0000001E-01;0.0;0;0.0;0.0;0.0;0;-7.058879e-08;  1.0000000E+04;  0.0000000E+00;  0.0000000E+00;  1.0000000E+04;  0.0000000E+00;  1.0000000E+04;-7.0641192e-08;0.0;5.2404043e-11;2.5211432e-06
 -1.6000000E-01;  9.9999998E-03;  2.0000000E-02;142;0.0;0.0;0.0;1000.0;  4.0000001E-01;0.0;0;0.0;0.0;0.0;0;-7.0531478e-08;  1.0000000E+04;  0.0000000E+00;  0.0000000E+00;  1.0000000E+04;  0.0000000E+00;  1.0000000E+04;-7.0585031e-08;0.0;5.3554938e-11;2.523092e-06
 -1.6000000E-01;  9.9999998E-03;  3.9999999E-02;143;0.0;0.0;0.0;1000.0;  4.0000001E-01;0.0;0;0.0;0.0;0.0;0;-7.0353728e-08;  1.0000000E+04;  0.0000000E+00;  0.0000000E+00;  1.0000000E+04;  0.0000000E+00;  1.0000000E+04;-7.0410792e-08;0.0;5.7062445e-11;2.5286852e-06
 -1.6000000E-01;  9.9999998E-03;  5.9999999E-02;144;0.0;0.0;0.0;1000.0;  4.0000001E-01;0.0;0;0.0;0.0;0.0;0;-7.0038148e-08;  1.0000000E+04;  0.0000000E+00;  0.0000000E+00;  1.0000000E+04;  0.0000000E+00;  1.0000000E+04;-7.0100768e-08;0.0;6.261832e-11;2.5361057e-06
 -1.6000000E-01;  9.9999998E-03;  7.9999998E-02;145;0.0;0.0;0.0;1000.0;  4.0000001E-01;0.0;0;0.0;0.0;0.0;0;-6.9554389e-08;  1.0000000E+04;  0.0000000E+00;  0.0000000E+00;  1.0000000E+04;  0.0000000E+00;  1.0000000E+04;-6.9623965e-08;0.0;6.9579724e-11;2.5418749e-06
 -1.6000000E-01;  9.9999998E-03;  1.0000000E-01;146;0.0;0.0;0.0;1000.0;  4.0000001E-01;0.0;0;0.0;0.0;0.0;0;-6.88554e-08;  1.0000000E+04;  0.0000000E+00;  0.0000000E+00;  1.0000000E+04;  0.0000000E+00;  1.0000000E+04;-6.8933396e-08;0.0;7.7993903e-11;2.5439285e-06
 -1.6000000E-01;  9.9999998E-03;  1.2000000E-01;147;0.0;0.0;0.0;1000.0;  4.0000001E-01;0.0;0;0.0;0.0;0.0;0;-6.7875675e-08;  1.0000000E+04;  0.0000000E+00;  0.0000000E+00;  1.0000000E+04;  0.0000000E+00;  1.0000000E+04;-6.7963597e-08;0.0;8.7921309e-11;2.5401334e-06
 -1.6000000E-01;  9.9999998E-03;  1.4000000E-01;148;0.0;0.0;0.0;1000.0;  4.0000001E-01;0.0;0;0.0;0.0;0.0;0;-6.6529523e-08;  1.0000000E+04;  0.0000000E+00;  0.0000000E+00;  1.0000000E+04;  0.0000000E+00;  1.0000000E+04;-6.6628374e-08;0.0;9.8850039e-11;2.5264017e-06
 -1.4000000E-01;  9.9999998E-03;  0.0000000E+00;182;0.0;0.0;0.0;1000.0;  4.0000001E-01;0.0;0;0.0;0.0;0.0;0;-2.6011735e-06;  1.0000000E+04;  0.0000000E+00;  0.0000000E+00;  1.0000000E+04;  0.0000000E+00;  1.0000000E+04;-2.6079774e-06;0.0;6.8040125e-09;0.00011213742
 -1.4000000E-01;  9.9999998E-03;  2.0000000E-02;183;0.0;0.0;0.0;1000.0;  4.0000001E-01;0.0;0;0.0;0.0;0.0;0;-2.5988027e-06;  1.0000000E+04;  0.0000000E+00;  0.0000000E+00;  1.0000000E+04;  0.0000000E+00;  1.0000000E+04;-2.6057508e-06;0.0;6.9481709e-09;0.00011257586
 -1.4000000E-01;  9.9999998E-03;  3.9999999E-02;184;0.0;0.0;0.0;1000.0;  4.0000001E-01;0.0;0;0.0;0.0;0.0;0;-2.5914776e-06;  1.0000000E+04;  0.0000000E+00;  0.0000000E+00;  1.0000000E+04;  0.0000000E+00;  1.0000000E+04;-2.598844e-06;0.0;7.3664306e-09;0.00011382495
 -1.4000000E-01;  9.9999998E-03;  5.9999999E-02;185;0.0;0.0;0.0;1000.0;  4.0000001E-01;0.0;0;0.0;0.0;0.0;0;-2.5785362e-06;  1.0000000E+04;  0.0000000E+00;  0.0000000E+00;  1.0000000E+04;  0.0000000E+00;  1.0000000E+04;-2.5865647e-06;0.0;8.0285547e-09;0.00011572467
 -1.4000000E-01;  9.9999998E-03;  7.9999998E-02;186;0.0;0.0;0.0;1000.0;  4.0000001E-01;0.0;0;0.0;0.0;0.0;0;-2.5587949e-06;  1.0000000E+04;  0.0000000E+00;  0.0000000E+00;  1.0000000E+04;  0.0000000E+00;  1.0000000E+04;-2.5676986e-06;0.0;8.9036245e-09;0.00011807638
 -1.4000000E-01;  9.9999998E-03;  1.0000000E-01;187;0.0;0.0;0.0;1000.0;  4.0000001E-01;0.0;0;0.0;0.0;0.0;0;-2.5304785e-06;  1.0000000E+04;  0.0000000E+00;  0.0000000E+00;  1.0000000E+04;  0.0000000E+00;  1.0000000E+04;-2.540442e-06;0.0;9.9634461e-09;0.00012066997
 -1.4000000E-01;  9.9999998E-03;  1.2000000E-01;188;0.0;0.0;0.0;1000.0;  4.0000001E-01;0.0;0;0.0;0.0;0.0;0;-2.4911049e-06;  1.0000000E+04;  0.0000000E+00;  0.0000000E+00;  1.0000000E+04;  0.0000000E+00;  1.0000000E+04;-2.5022941e-06;0.0;1.1189192e-08;0.00012333749
 -1.4000000E-01;  9.9999998E-03;  1.4000000E-01;189;0.0;0.0;0.0;1000.0;  4.0000001E-01;0.0;0;0.0;0.0;0.0;0;-2.4374417e-06;  1.0000000E+04;  0.0000000E+00;  0.0000000E+00;  1.0000000E+04;  0.0000000E+00;  1.0000000E+04;-2.4499711e-06;0.0;1.2529519e-08;0.00012583048
 -1.2000000E-01;  9.9999998E-03;  0.0000000E+00;223;0.0;0.0;0.0;1000.0;  4.0000001E-01;0.0;0;0.0;0.0;0.0;0;-1.4612256e-05;  1.0000000E+04;  0.0000000E+00;  0.0000000E+00;  1.0000000E+04;  0.0000000E+00;  1.0000000E+04;-1.4680106e-05;0.0;6.7849768e-08;0.00074940361
 -1.2000000E-01;  9.9999998E-03;  2.0000000E-02;224;0.0;0.0;0.0;1000.0;  4.0000001E-01;0.0;0;0.0;0.0;0.0;0;-1.4598088e-05;  1.0000000E+04;  0.0000000E+00;  0.0000000E+00;  1.0000000E+04;  0.0000000E+00;  1.0000000E+04;-1.4667281e-05;0.0;6.9193746e-08;0.00075379794
 -1.2000000E-01;  9.9999998E-03;  3.9999999E-02;225;0.0;0.0;0.0;1000.0;  4.0000001E-01;0.0;0;0.0;0.0;0.0;0;-1.4554366e-05;  1.0000000E+04;  0.0000000E+00;  0.0000000E+00;  1.0000000E+04;  0.0000000E+00;  1.0000000E+04;-1.4627502e-05;0.0;7.3136142e-08;0.00076651806
 -1.2000000E-01;  9.9999998E-03;  5.9999999E-02;226;0.0;0.0;0.0;1000.0;  4.0000001E-01;0.0;0;0.0;0.0;0.0;0;-1.4477248e-05;  1.0000000E+04;  0.0000000E+00;  0.0000000E+00;  1.0000000E+04;  0.0000000E+00;  1.0000000E+04;-1.45567e-05;0.0;7.9452249e-08;0.00078634149
 -1.2000000E-01;  9.9999998E-03;  7.9999998E-02;227;0.0;0.0;0.0;1000.0;  4.0000001E-01;0.0;0;0.0;0.0;0.0;0;-1.4359985e-05;  1.0000000E+04;  0.0000000E+00;  0.0000000E+00;  1.0000000E+04;  0.0000000E+00;  1.0000000E+04;-1.4447854e-05;0.0;8.7869708e-08;0.00081165339
 -1.2000000E-01;  9.9999998E-03;  1.0000000E-01;228;0.0;0.0;0.0;1000.0;  4.0000001E-01;0.0;0;0.0;0.0;0.0;0;-1.4192384e-05;  1.0000000E+04;  0.0000000E+00;  0.0000000E+00;  1.0000000E+04;  0.0000000E+00;  1.0000000E+04;-1.4290506e-05;0.0;9.8121419e-08;0.00084080902
 -1.2000000E-01;  9.9999998E-03;  1.2000000E-01;229;0.0;0.0;0.0;1000.0;  4.0000001E-01;0.0;0;0.0;0.0;0.0;0;-1.3960432e-05;  1.0000000E+04;  0.0000000E+00;  0.0000000E+00;  1.0000000E+04;  0.0000000E+00;  1.0000000E+04;-1.4070264e-05;0.0;1.0983216e-07;0.00087193598
 -1.2000000E-01;  9.9999998E-03;  1.4000000E-01;230;0.0;0.0;0.0;1000.0;  4.0000001E-01;0.0;0;0.0;0.0;0.0;0;-1.3646192e-05;  1.0000000E+04;  0.0000000E+00;  0.0000000E+00;  1.0000000E+04;  0.0000000E+00;  1.0000000E+04;-1.3768393e-05;0.0;1.2220053e-07;0.00090185506
 -1.0000000E-01;  9.9999998E-03;  0.0000000E+00;264;0.0;0.0;0.0;1000.0;  4.0000001E-01;0.0;0;0.0;0.0;0.0;0;-4.7478909e-05;  1.0000000E+04;  0.0000000E+00;  0.0000000E+00;  1.0000000E+04;  0.0000000E+00;  1.0000000E+04;-4.7799225e-05;0.0;3.2031534e-07;0.0028444091
 -1.0000000E-01;  9.9999998E-03;  2.0000000E-02;265;0.0;0.0;0.0;1000.0;  4.0000001E-01;0.0;0;0.0;0.0;0.0;0;-4.7431076e-05;  1.0000000E+04;  0.0000000E+00;  0.0000000E+00;  1.0000000E+04;  0.0000000E+00;  1.0000000E+04;-4.7757472e-05;0.0;3.2639485e-07;0.0028648609
 -1.0000000E-01;  9.9999998E-03;  3.9999999E-02;266;0.0;0.0;0.0;1000.0;  4.0000001E-01;0.0;0;0.0;0.0;0.0;0;-4.7283469e-05;  1.0000000E+04;  0.0000000E+00;  0.0000000E+00;  1.0000000E+04;  0.0000000E+00;  1.0000000E+04;-4.7627778e-05;0.0;3.4430843e-07;0.0029244525
 -1.0000000E-01;  9.9999998E-03;  5.9999999E-02;267;0.0;0.0;0.0;1000.0;  4.0000001E-01;0.0;0;0.0;0.0;0.0;0;-4.702355e-05;  1.0000000E+04;  0.0000000E+00;  0.0000000E+00;  1.0000000E+04;  0.0000000E+00;  1.0000000E+04;-4.7396723e-05;0.0;3.7317253e-07;0.0030183373
 -1.0000000E-01;  9.9999998E-03;  7.9999998E-02;268;0.0;0.0;0.0;1000.0;  4.0000001E-01;0.0;0;0.0;0.0;0.0;0;-4.6629073e-05;  1.0000000E+04;  0.0000000E+00;  0.0000000E+00;  1.0000000E+04;  0.0000000E+00;  1.0000000E+04;-4.7040881e-05;0.0;4.1180817e-07;0.0031399655
 -1.0000000E-01;  9.9999998E-03;  1.0000000E-01;269;0.0;0.0;0.0;1000.0;  4.0000001E-01;0.0;0;0.0;0.0;0.0;0;-4.6066816e-05;  1.0000000E+04;  0.0000000E+00;  0.0000000E+00;  1.0000000E+04;  0.0000000E+00;  1.0000000E+04;-4.652558e-05;0.0;4.5876212e-07;0.0032818406
 -1.0000000E-01;  9.9999998E-03;  1.2000000E-01;270;0.0;0.0;0.0;1000.0;  4.0000001E-01;0.0;0;0.0;0.0;0.0;0;-4.5291476e-05;  1.0000000E+04;  0.0000000E+00;  0.0000000E+00;  1.0000000E+04;  0.0000000E+00;  1.0000000E+04;-4.5803175e-05;0.0;5.1169815e-07;0.0034339156
 -1.0000000E-01;  9.9999998E-03;  1.4000000E-01;271;0.0;0.0;0.0;1000.0;  4.0000001E-01;0.0;0;0.0;0.0;0.0;0;-4.4245677e-05;  1.0000000E+04;  0.0000000E+00;  0.0000000E+00;  1.0000000E+04;  0.0000000E+00;  1.0000000E+04;-4.4811735e-05;0.0;5.6605836e-07;0.0035789481
 -7.9999998E-02;  9.9999998E-03;  0.0000000E+00;305;0.0;0.0;0.0;1000.0001;  4.0000001E-01;0.098762624;0;0.0;0.0;0.0;0;-0.00011563765;  1.0000000E+04;  0.0000000E+00;  0.0000000E+00;  1.0000000E+04;  0.0000000E+00;  1.0000000E+04;-0.00011665715;0.0;1.0195023e-06;0.0079323277
 -7.9999998E-02;  9.9999998E-03;  2.0000000E-02;306;0.0;0.0;0.0;1000.0001;  4.0000001E-01;0.098762624;0;0.0;0.0;0.0;0;-0.00011551882;  1.0000000E+04;  0.0000000E+00;  0.0000000E+00;  1.0000000E+04;  0.0000000E+00;  1.0000000E+04;-0.00011655713;0.0;1.0383112e-06;0.0079967091
 -7.9999998E-02;  9.9999998E-03;  3.9999999E-02;307;0.0;0.0;0.0;1000.0001;  4.0000001E-01;0.098762624;0;0.0;0.0;0.0;0;-0.00011515261;  1.0000000E+04;  0.0000000E+00;  0.0000000E+00;  1.0000000E+04;  0.0000000E+00;  1.0000000E+04;-0.00011624643;0.0;1.0938195e-06;0.008184867
 -7.9999998E-02;  9.9999998E-03;  5.9999999E-02;308;0.0;0.0;0.0;1000.0;  4.0000001E-01;0.0;0;0.0;0.0;0.0;0;-0.00011450814;  1.0000000E+04;  0.0000000E+00;  0.0000000E+00;  1.0000000E+04;  0.0000000E+00;  1.0000000E+04;-0.00011569163;0.0;1.1834924e-06;0.0084831752
 -7.9999998E-02;  9.9999998E-03;  7.9999998E-02;309;0.0;0.0;0.0;1000.0;  4.0000001E-01;0.0;0;0.0;0.0;0.0;0;-0.00011353149;  1.0000000E+04;  0.0000000E+00;  0.0000000E+00;  1.0000000E+04;  0.0000000E+00;  1.0000000E+04;-0.00011483511;0.0;1.3036229e-06;0.0088723646
 -7.9999998E-02;  9.9999998E-03;  1.0000000E-01;310;0.0;0.0;0.0;1000.0;  4.0000001E-01;0.0;0;0.0;0.0;0.0;0;-0.00011214198;  1.0000000E+04;  0.0000000E+00;  0.0000000E+00;  1.0000000E+04;  0.0000000E+00;  1.0000000E+04;-0.00011359101;0.0;1.4490255e-06;0.0093281483
 -7.9999998E-02;  9.9999998E-03;  1.2000000E-01;311;0.0;0.0;0.0;1000.0;  4.0000001E-01;0.0;0;0.0;0.0;0.0;0;-0.00011023039;  1.0000000E+04;  0.0000000E+00;  0.0000000E+00;  1.0000000E+04;  0.0000000E+00;  1.0000000E+04;-0.00011184138;0.0;1.6109886e-06;0.0098151965
 -7.9999998E-02;  9.9999998E-03;  1.4000000E-01;312;0.0;0.0;0.0;1000.0;  4.0000001E-01;0.0;0;0.0;0.0;0.0;0;-0.0001076593;  1.0000000E+04;  0.0000000E+00;  0.0000000E+00;  1.0000000E+04;  0.0000000E+00;  1.0000000E+04;-0.00010943272;0.0;1.7734172e-06;0.010273673
 -5.9999999E-02;  9.9999998E-03;  0.0000000E+00;346;0.0;0.0;0.0;1000.0001;  4.0000001E-01;0.098762624;0;0.0;0.0;0.0;0;-0.00023092184;  1.0000000E+04;  0.0000000E+00;  0.0000000E+00;  1.0000000E+04;  0.0000000E+00;  1.0000000E+04;-0.00023344228;0.0;2.5204326e-06;0.017935647
 -5.9999999E-02;  9.9999998E-03;  2.0000000E-02;347;0.0;0.0;0.0;1000.0001;  4.0000001E-01;0.098762624;0;0.0;0.0;0.0;0;-0.00023068406;  1.0000000E+04;  0.0000000E+00;  0.0000000E+00;  1.0000000E+04;  0.0000000E+00;  1.0000000E+04;-0.00023325012;0.0;2.566049e-06;0.018094262
 -5.9999999E-02;  9.9999998E-03;  3.9999999E-02;348;0.0;0.0;0.0;1000.0001;  4.0000001E-01;0.098762624;0;0.0;0.0;0.0;0;-0.00022995114;  1.0000000E+04;  0.0000000E+00;  0.0000000E+00;  1.0000000E+04;  0.0000000E+00;  1.0000000E+04;-0.00023265187;0.0;2.7007341e-06;0.018558728
 -5.9999999E-02;  9.9999998E-03;  5.9999999E-02;349;0.0;0.0;0.0;1000.0001;  4.0000001E-01;0.098762624;0;0.0;0.0;0.0;0;-0.00022866255;  1.0000000E+04;  0.0000000E+00;  0.0000000E+00;  1.0000000E+04;  0.0000000E+00;  1.0000000E+04;-0.00023158104;0.0;2.9184873e-06;0.019297894
 -5.9999999E-02;  9.9999998E-03;  7.9999998E-02;350;0.0;0.0;0.0;1000.0001;  4.0000001E-01;0.098762624;0;0.0;0.0;0.0;0;-0.00022671164;  1.0000000E+04;  0.0000000E+00;  0.0000000E+00;  1.0000000E+04;  0.0000000E+00;  1.0000000E+04;-0.0002299216;0.0;3.2099656e-06;0.020265698
 -5.9999999E-02;  9.9999998E-03;  1.0000000E-01;351;0.0;0.0;0.0;1000.0001;  4.0000001E-01;0.098762624;0;0.0;0.0;0.0;0;-0.0002239389;  1.0000000E+04;  0.0000000E+00;  0.0000000E+00;  1.0000000E+04;  0.0000000E+00;  1.0000000E+04;-0.00022750015;0.0;3.5612406e-06;0.021400265
 -5.9999999E-02;  9.9999998E-03;  1.2000000E-01;352;0.0;0.0;0.0;1000.0001;  4.0000001E-01;0.098762624;0;0.0;0.0;0.0;0;-0.00022012953;  1.0000000E+04;  0.0000000E+00;  0.0000000E+00;  1.0000000E+04;  0.0000000E+00;  1.0000000E+04;-0.00022407807;0.0;3.9485494e-06;0.022607727
 -5.9999999E-02;  9.9999998E-03;  1.4000000E-01;353;0.0;0.0;0.0;1000.0001;  4.0000001E-01;0.098762624;0;0.0;0.0;0.0;0;-0.00021501319;  1.0000000E+04;  0.0000000E+00;  0.0000000E+00;  1.0000000E+04;  0.0000000E+00;  1.0000000E+04;-0.00021934288;0.0;4.3296836e-06;0.023731906
 -3.9999999E-02;  9.9999998E-03;  0.0000000E+00;387;0.0;0.0;0.0;1000.0002;  4.0000001E-01;0.19752525;0;0.0;0.0;0.0;0;-0.00039596768;  1.0000000E+04;  0.0000000E+00;  0.0000000E+00;  1.0000000E+04;  0.0000000E+00;  1.0000000E+04;-0.00040116653;0.0;5.1988491e-06;0.034688346
 -3.9999999E-02;  9.9999998E-03;  2.0000000E-02;388;0.0;0.0;0.0;1000.0002;  4.0000001E-01;0.19752525;0;0.0;0.0;0.0;0;-0.00039556567;  1.0000000E+04;  0.0000000E+00;  0.0000000E+00;  1.0000000E+04;  0.0000000E+00;  1.0000000E+04;-0.00040085748;0.0;5.2918058e-06;0.035017412
 -3.9999999E-02;  9.9999998E-03;  3.9999999E-02;389;0.0;0.0;0.0;1000.0002;  4.0000001E-01;0.19752525;0;0.0;0.0;0.0;0;-0.00039432661;  1.0000000E+04;  0.0000000E+00;  0.0000000E+00;  1.0000000E+04;  0.0000000E+00;  1.0000000E+04;-0.00039989295;0.0;5.5663354e-06;0.035982482
 -3.9999999E-02;  9.9999998E-03;  5.9999999E-02;390;0.0;0.0;0.0;1000.0002;  4.0000001E-01;0.19752525;0;0.0;0.0;0.0;0;-0.00039214946;  1.0000000E+04;  0.0000000E+00;  0.0000000E+00;  1.0000000E+04;  0.0000000E+00;  1.0000000E+04;-0.00039815964;0.0;6.0101634e-06;0.037521973
 -3.9999999E-02;  9.9999998E-03;  7.9999998E-02;391;0.0;0.0;0.0;1000.0002;  4.0000001E-01;0.19752525;0;0.0;0.0;0.0;0;-0.00038885456;  1.0000000E+04;  0.0000000E+00;  0.0000000E+00;  1.0000000E+04;  0.0000000E+00;  1.0000000E+04;-0.00039545805;0.0;6.603474e-06;0.039541733
 -3.9999999E-02;  9.9999998E-03;  1.0000000E-01;392;0.0;0.0;0.0;1000.0002;  4.0000001E-01;0.19752525;0;0.0;0.0;0.0;0;-0.00038417405;  1.0000000E+04;  0.0000000E+00;  0.0000000E+00;  1.0000000E+04;  0.0000000E+00;  1.0000000E+04;-0.00039148983;0.0;7.3157858e-06;0.041910119
 -3.9999999E-02;  9.9999998E-03;  1.2000000E-01;393;0.0;0.0;0.0;1000.0002;  4.0000001E-01;0.19752525;0;0.0;0.0;0.0;0;-0.00037774592;  1.0000000E+04;  0.0000000E+00;  0.0000000E+00;  1.0000000E+04;  0.0000000E+00;  1.0000000E+04;-0.00038584103;0.0;8.0951077e-06;0.044423606
 -3.9999999E-02;  9.9999998E-03;  1.4000000E-01;394;0.0;0.0;0.0;1000.0002;  4.0000001E-01;0.19752525;0;0.0;0.0;0.0;0;-0.00036911407;  1.0000000E+04;  0.0000000E+00;  0.0000000E+00;  1.0000000E+04;  0.0000000E+00;  1.0000000E+04;-0.00037796536;0.0;8.8512925e-06;0.046747632
 -2.0000000E-02;  9.9999998E-03;  0.0000000E+00;428;0.0;0.0;0.0;1000.0004;  4.0000001E-01;0.29628786;0;0.0;0.0;0.0;0;-0.00060109096;  1.0000000E+04;  0.0000000E+00;  0.0000000E+00;  1.0000000E+04;  0.0000000E+00;  1.0000000E+04;-0.00061041623;0.0;9.3252602e-06;0.059391133
 -2.0000000E-02;  9.9999998E-03;  2.0000000E-02;429;0.0;0.0;0.0;1000.0004;  4.0000001E-01;0.29628786;0;0.0;0.0;0.0;0;-0.00060049986;  1.0000000E+04;  0.0000000E+00;  0.0000000E+00;  1.0000000E+04;  0.0000000E+00;  1.0000000E+04;-0.00060999085;0.0;9.4910047e-06;0.059990682
 -2.0000000E-02;  9.9999998E-03;  3.9999999E-02;430;0.0;0.0;0.0;1000.0004;  4.0000001E-01;0.29628786;0;0.0;0.0;0.0;0;-0.00059867918;  1.0000000E+04;  0.0000000E+00;  0.0000000E+00;  1.0000000E+04;  0.0000000E+00;  1.0000000E+04;-0.00060865976;0.0;9.9805775e-06;0.061751068
 -2.0000000E-02;  9.9999998E-03;  5.9999999E-02;431;0.0;0.0;0.0;1000.0004;  4.0000001E-01;0.29628786;0;0.0;0.0;0.0;0;-0.00059548079;  1.0000000E+04;  0.0000000E+00;  0.0000000E+00;  1.0000000E+04;  0.0000000E+00;  1.0000000E+04;-0.00060625258;0.0;1.0771822e-05;0.06456399
 -2.0000000E-02;  9.9999998E-03;  7.9999998E-02;432;0.0;0.0;0.0;1000.0004;  4.0000001E-01;0.29628786;0;0.0;0.0;0.0;0;-0.0005906407;  1.0000000E+04;  0.0000000E+00;  0.0000000E+00;  1.0000000E+04;  0.0000000E+00;  1.0000000E+04;-0.00060246879;0.0;1.1828115e-05;0.06825953
 -2.0000000E-02;  9.9999998E-03;  1.0000000E-01;433;0.0;0.0;0.0;1000.0003;  4.0000001E-01;0.29628786;0;0.0;0.0;0.0;0;-0.00058376335;  1.0000000E+04;  0.0000000E+00;  0.0000000E+00;  1.0000000E+04;  0.0000000E+00;  1.0000000E+04;-0.00059685583;0.0;1.3092465e-05;0.072594248
 -2.0000000E-02;  9.9999998E-03;  1.2000000E-01;434;0.0;0.0;0.0;1000.0002;  4.0000001E-01;0.19752525;0;0.0;0.0;0.0;0;-0.00057431124;  1.0000000E+04;  0.0000000E+00;  0.0000000E+00;  1.0000000E+04;  0.0000000E+00;  1.0000000E+04;-0.00058877957;0.0;1.4468301e-05;0.077189445
 -2.0000000E-02;  9.9999998E-03;  1.4000000E-01;435;0.0;0.0;0.0;1000.0002;  4.0000001E-01;0.19752525;0;0.0;0.0;0.0;0;-0.00056160585;  1.0000000E+04;  0.0000000E+00;  0.0000000E+00;  1.0000000E+04;  0.0000000E+00;  1.0000000E+04;-0.00057739596;0.0;1.5790134e-05;0.081425294
 -2.2000000E-01;  9.9999998E-03;  1.6000000E-01;27;0.0;0.0;0.0;1000.0;  4.0000001E-01;0.0;0;0.0;0.0;0.0;0;0.0;  1.0000000E+04;  0.0000000E+00;  0.0000000E+00;  1.0000000E+04;  0.0000000E+00;  1.0000000E+04;0.0;0.0;0.0;0.0
 -2.2000000E-01;  9.9999998E-03;  1.8000001E-01;28;0.0;0.0;0.0;1000.0;  4.0000001E-01;0.0;0;0.0;0.0;0.0;0;0.0;  1.0000000E+04;  0.0000000E+00;  0.0000000E+00;  1.0000000E+04;  0.0000000E+00;  1.0000000E+04;0.0;0.0;0.0;0.0
 -2.2000000E-01;  9.9999998E-03;  2.0000000E-01;29;0.0;0.0;0.0;1000.0;  4.0000001E-01;0.0;0;0.0;0.0;0.0;0;0.0;  1.0000000E+04;  0.0000000E+00;  0.0000000E+00;  1.0000000E+04;  0.0000000E+00;  1.0000000E+04;0.0;0.0;0.0;0.0
 -2.2000000E-01;  9.9999998E-03;  2.2000000E-01;30;0.0;0.0;0.0;1000.0;  4.0000001E-01;0.0;0;0.0;0.0;0.0;0;0.0;  1.0000000E+04;  0.0000000E+00;  0.0000000E+00;  1.0000000E+04;  0.0000000E+00;  1.0000000E+04;0.0;0.0;0.0;0.0
 -2.2000000E-01;  9.9999998E-03;  2.3999999E-01;31;0.0;0.0;0.0;1000.0;  4.0000001E-01;0.0;0;0.0;0.0;0.0;0;0.0;  1.0000000E+04;  0.0000000E+00;  0.0000000E+00;  1.0000000E+04;  0.0000000E+00;  1.0000000E+04;0.0;0.0;0.0;0.0
 -2.2000000E-01;  9.9999998E-03;  2.5999999E-01;32;0.0;0.0;0.0;1000.0;  4.0000001E-01;0.0;0;0.0;0.0;0.0;0;0.0;  1.0000000E+04;  0.0000000E+00;  0.0000000E+00;  1.0000000E+04;  0.0000000E+00;  1.0000000E+04;0.0;0.0;0.0;0.0
 -2.2000000E-01;  9.9999998E-03;  2.8000000E-01;33;0.0;0.0;0.0;1000.0;  4.0000001E-01;0.0;0;0.0;0.0;0.0;0;0.0;  1.0000000E+04;  0.0000000E+00;  0.0000000E+00;  1.0000000E+04;  0.0000000E+00;  1.0000000E+04;0.0;0.0;0.0;0.0
 -2.2000000E-01;  9.9999998E-03;  3.0000001E-01;34;0.0;0.0;0.0;1000.0;  4.0000001E-01;0.0;0;0.0;0.0;0.0;0;0.0;  1.0000000E+04;  0.0000000E+00;  0.0000000E+00;  1.0000000E+04;  0.0000000E+00;  1.0000000E+04;0.0;0.0;0.0;0.0
 -2.2000000E-01;  9.9999998E-03;  3.1999999E-01;35;0.0;0.0;0.0;1000.0;  4.0000001E-01;0.0;0;0.0;0.0;0.0;0;0.0;  1.0000000E+04;  0.0000000E+00;  0.0000000E+00;  1.0000000E+04;  0.0000000E+00;  1.0000000E+04;0.0;0.0;0.0;0.0
 -2.0000000E-01;  9.9999998E-03;  1.6000000E-01;67;0.0;0.0;0.0;1000.0;  4.0000001E-01;0.0;0;0.0;0.0;0.0;0;0.0;  1.0000000E+04;  0.0000000E+00;  0.0000000E+00;  1.0000000E+04;  0.0000000E+00;  1.0000000E+04;0.0;0.0;0.0;0.0
 -2.0000000E-01;  9.9999998E-03;  1.8000001E-01;68;0.0;0.0;0.0;1000.0;  4.0000001E-01;0.0;0;0.0;0.0;0.0;0;0.0;  1.0000000E+04;  0.0000000E+00;  0.0000000E+00;  1.0000000E+04;  0.0000000E+00;  1.0000000E+04;0.0;0.0;0.0;0.0
 -2.0000000E-01;  9.9999998E-03;  2.0000000E-01;69;0.0;0.0;0.0;1000.0;  4.0000001E-01;0.0;0;0.0;0.0;0.0;0;0.0;  1.0000000E+04;  0.0000000E+00;  0.0000000E+00;  1.0000000E+04;  0.0000000E+00;  1.0000000E+04;0.0;0.0;0.0;0.0
 -2.0000000E-01;  9.9999998E-03;  2.2000000E-01;70;0.0;0.0;0.0;1000.0;  4.0000001E-01;0.0;0;0.0;0.0;0.0;0;0.0;  1.0000000E+04;  0.0000000E+00;  0.0000000E+00;  1.0000000E+04;  0.0000000E+00;  1.0000000E+04;0.0;0.0;0.0;0.0
 -2.0000000E-01;  9.9999998E-03;  2.3999999E-01;71;0.0;0.0;0.0;1000.0;  4.0000001E-01;0.0;0;0.0;0.0;0.0;0;0.0;  1.0000000E+04;  0.0000000E+00;  0.0000000E+00;  1.0000000E+04;  0.0000000E+00;  1.0000000E+04;0.0;0.0;0.0;0.0
 -2.0000000E-01;  9.9999998E-03;  2.5999999E-01;72;0.0;0.0;0.0;1000.0;  4.0000001E-01;0.0;0;0.0;0.0;0.0;0;0.0;  1.0000000E+04;  0.0000000E+00;  0.0000000E+00;  1.0000000E+04;  0.0000000E+00;  1.0000000E+04;0.0;0.0;0.0;0.0
 -2.0000000E-01;  9.9999998E-03;  2.8000000E-01;73;0.0;0.0;0.0;1000.0;  4.0000001E-01;0.0;0;0.0;0.0;0.0;0;0.0;  1.0000000E+04;  0.0000000E+00;  0.0000000E+00;  1.0000000E+04;  0.0000000E+00;  1.0000000E+04;0.0;0.0;0.0;0.0
 -2.0000000E-01;  9.9999998E-03;  3.0000001E-01;74;0.0;0.0;0.0;1000.0;  4.0000001E-01;0.0;0;0.0;0.0;0.0;0;0.0;  1.0000000E+04;  0.0000000E+00;  0.0000000E+00;  1.0000000E+04;  0.0000000E+00;  1.0000000E+04;0.0;0.0;0.0;0.0
 -2.0000000E-01;  9.9999998E-03;  3.1999999E-01;75;0.0;0.0;0.0;1000.0;  4.0000001E-01;0.0;0;0.0;0.0;0.0;0;0.0;  1.0000000E+04;  0.0000000E+00;  0.0000000E+00;  1.0000000E+04;  0.0000000E+00;  1.0000000E+04;0.0;0.0;0.0;0.0
 -1.8000001E-01;  9.9999998E-03;  1.6000000E-01;108;0.0;0.0;0.0;1000.0;  4.0000001E-01;0.0;0;0.0;0.0;0.0;0;0.0;  1.0000000E+04;  0.0000000E+00;  0.0000000E+00;  1.0000000E+04;  0.0000000E+00;  1.0000000E+04;0.0;0.0;0.0;0.0
 -1.8000001E-01;  9.9999998E-03;  1.8000001E-01;109;0.0;0.0;0.0;1000.0;  4.0000001E-01;0.0;0;0.0;0.0;0.0;0;0.0;  1.0000000E+04;  0.0000000E+00;  0.0000000E+00;  1.0000000E+04;  0.0000000E+00;  1.0000000E+04;0.0;0.0;0.0;0.0
 -1.8000001E-01;  9.9999998E-03;  2.0000000E-01;110;0.0;0.0;0.0;1000.0;  4.0000001E-01;0.0;0;0.0;0.0;0.0;0;0.0;  1.0000000E+04;  0.0000000E+00;  0.0000000E+00;  1.0000000E+04;  0.0000000E+00;  1.0000000E+04;0.0;0.0;0.0;0.0
 -1.8000001E-01;  9.9999998E-03;  2.2000000E-01;111;0.0;0.0;0.0;1000.0;  4.0000001E-01;0.0;0;0.0;0.0;0.0;0;0.0;  1.0000000E+04;  0.0000000E+00;  0.0000000E+00;  1.0000000E+04;  0.0000000E+00;  1.0000000E+04;0.0;0.0;0.0;0.0
 -1.8000001E-01;  9.9999998E-03;  2.3999999E-01;112;0.0;0.0;0.0;1000.0;  4.0000001E-01;0.0;0;0.0;0.0;0.0;0;0.0;  1.0000000E+04;  0.0000000E+00;  0.0000000E+00;  1.0000000E+04;  0.0000000E+00;  1.0000000E+04;0.0;0.0;0.0;0.0
 -1.8000001E-01;  9.9999998E-03;  2.5999999E-01;113;0.0;0.0;0.0;1000.0;  4.0000001E-01;0.0;0;0.0;0.0;0.0;0;0.0;  1.0000000E+04;  0.0000000E+00;  0.0000000E+00;  1.0000000E+04;  0.0000000E+00;  1.0000000E+04;0.0;0.0;0.0;0.0
 -1.8000001E-01;  9.9999998E-03;  2.8000000E-01;114;0.0;0.0;0.0;1000.0;  4.0000001E-01;0.0;0;0.0;0.0;0.0;0;0.0;  1.0000000E+04;  0.0000000E+00;  0.0000000E+00;  1.0000000E+04;  0.0000000E+00;  1.0000000E+04;0.0;0.0;0.0;0.0
 -1.8000001E-01;  9.9999998E-03;  3.0000001E-01;115;0.0;0.0;0.0;1000.0;  4.0000001E-01;0.0;0;0.0;0.0;0.0;0;0.0;  1.0000000E+04;  0.0000000E+00;  0.0000000E+00;  1.0000000E+04;  0.0000000E+00;  1.0000000E+04;0.0;0.0;0.0;0.0
 -1.8000001E-01;  9.9999998E-03;  3.1999999E-01;116;0.0;0.0;0.0;1000.0;  4.0000001E-01;0.0;0;0.0;0.0;0.0;0;0.0;  1.0000000E+04;  0.0000000E+00;  0.0000000E+00;  1.0000000E+04;  0.0000000E+00;  1.0000000E+04;0.0;0.0;0.0;0.0
 -1.6000000E-01;  9.9999998E-03;  1.6000000E-01;149;0.0;0.0;0.0;1000.0;  4.0000001E-01;0.0;0;0.0;0.0;0.0;0;-6.4704878e-08;  1.0000000E+04;  0.0000000E+00;  0.0000000E+00;  1.0000000E+04;  0.0000000E+00;  1.0000000E+04;-6.4815559e-08;0.0;1.1068366e-10;2.5001839e-06
 -1.6000000E-01;  9.9999998E-03;  1.8000001E-01;150;0.0;0.0;0.0;1000.0;  4.0000001E-01;0.0;0;0.0;0.0;0.0;0;-6.2267723e-08;  1.0000000E+04;  0.0000000E+00;  0.0000000E+00;  1.0000000E+04;  0.0000000E+00;  1.0000000E+04;-6.2388814e-08;0.0;1.2109264e-10;2.4502945e-06
 -1.6000000E-01;  9.9999998E-03;  2.0000000E-01;151;0.0;0.0;0.0;1000.0;  4.0000001E-01;0.0;0;0.0;0.0;0.0;0;-5.90707e-08;  1.0000000E+04;  0.0000000E+00;  0.0000000E+00;  1.0000000E+04;  0.0000000E+00;  1.0000000E+04;-5.9196427e-08;0.0;1.2572578e-10;2.3564714e-06
 -1.6000000E-01;  9.9999998E-03;  2.2000000E-01;152;0.0;0.0;0.0;1000.0;  4.0000001E-01;0.0;0;0.0;0.0;0.0;0;-5.4961866e-08;  1.0000000E+04;  0.0000000E+00;  0.0000000E+00;  1.0000000E+04;  0.0000000E+00;  1.0000000E+04;-5.5082687e-08;0.0;1.2081963e-10;2.2003358e-06
 -1.6000000E-01;  9.9999998E-03;  2.3999999E-01;153;0.0;0.0;0.0;1000.0;  4.0000001E-01;0.0;0;0.0;0.0;0.0;0;-4.9795052e-08;  1.0000000E+04;  0.0000000E+00;  0.0000000E+00;  1.0000000E+04;  0.0000000E+00;  1.0000000E+04;-4.9898016e-08;0.0;1.0296614e-10;1.9668109e-06
 -1.6000000E-01;  9.9999998E-03;  2.5999999E-01;154;0.0;0.0;0.0;1000.0;  4.0000001E-01;0.0;0;0.0;0.0;0.0;0;-4.2313843e-08;  1.0000000E+04;  0.0000000E+00;  0.0000000E+00;  1.0000000E+04;  0.0000000E+00;  1.0000000E+04;-4.2254918e-08;0.0;-5.8926808e-11;1.1294325e-06
 -1.6000000E-01;  9.9999998E-03;  2.8000000E-01;155;0.0;0.0;0.0;1000.0;  4.0000001E-01;0.0;0;0.0;0.0;0.0;0;-2.8488806e-08;  1.0000000E+04;  0.0000000E+00;  0.0000000E+00;  1.0000000E+04;  0.0000000E+00;  1.0000000E+04;-2.8030046e-08;0.0;-4.587602e-10;8.7928004e-07
 -1.6000000E-01;  9.9999998E-03;  3.0000001E-01;156;0.0;0.0;0.0;1000.0;  4.0000001E-01;0.0;0;0.0;0.0;0.0;0;-1.2097376e-08;  1.0000000E+04;  0.0000000E+00;  0.0000000E+00;  1.0000000E+04;  0.0000000E+00;  1.0000000E+04;-1.1591585e-08;0.0;-5.0579069e-10;1.5623625e-06
 -1.6000000E-01;  9.9999998E-03;  3.1999999E-01;157;0.0;0.0;0.0;1000.0;  4.0000001E-01;0.0;0;0.0;0.0;0.0;0;-1.9043065e-09;  1.0000000E+04;  0.0000000E+00;  0.0000000E+00;  1.0000000E+04;  0.0000000E+00;  1.0000000E+04;-1.7546714e-09;0.0;-1.4963517e-10;5.0299604e-07
 -1.4000000E-01;  9.9999998E-03;  1.6000000E-01;190;0.0;0.0;0.0;1000.0;  4.0000001E-01;0.0;0;0.0;0.0;0.0;0;-2.3655309e-06;  1.0000000E+04;  0.0000000E+00;  0.0000000E+00;  1.0000000E+04;  0.0000000E+00;  1.0000000E+04;-2.3793702e-06;0.0;1.3839399e-08;0.00012758399
 -1.4000000E-01;  9.9999998E-03;  1.8000001E-01;191;0.0;0.0;0.0;1000.0;  4.0000001E-01;0.0;0;0.0;0.0;0.0;0;-2.2708284e-06;  1.0000000E+04;  0.0000000E+00;  0.0000000E+00;  1.0000000E+04;  0.0000000E+00;  1.0000000E+04;-2.285662e-06;0.0;1.4833661e-08;0.00012750379
 -1.4000000E-01;  9.9999998E-03;  2.0000000E-01;192;0.0;0.0;0.0;1000.0;  4.0000001E-01;0.0;0;0.0;0.0;0.0;0;-2.1483847e-06;  1.0000000E+04;  0.0000000E+00;  0.0000000E+00;  1.0000000E+04;  0.0000000E+00;  1.0000000E+04;-2.1634983e-06;0.0;1.5113475e-08;0.00012405956
 -1.4000000E-01;  9.9999998E-03;  2.2000000E-01;193;0.0;0.0;0.0;1000.0;  4.0000001E-01;0.0;0;0.0;0.0;0.0;0;-1.9893048e-06;  1.0000000E+04;  0.0000000E+00;  0.0000000E+00;  1.0000000E+04;  0.0000000E+00;  1.0000000E+04;-2.002153e-06;0.0;1.2848308e-08;0.00011027329
 -1.4000000E-01;  9.9999998E-03;  2.3999999E-01;194;0.0;0.0;0.0;1000.0;  4.0000001E-01;0.0;0;0.0;0.0;0.0;0;-1.7611975e-06;  1.0000000E+04;  0.0000000E+00;  0.0000000E+00;  1.0000000E+04;  0.0000000E+00;  1.0000000E+04;-1.7628237e-06;0.0;1.6262172e-09;6.1252533e-05
 -1.4000000E-01;  9.9999998E-03;  2.5999999E-01;195;0.0;0.0;0.0;1000.0;  4.0000001E-01;0.0;0;0.0;0.0;0.0;0;-1.4383332e-06;  1.0000000E+04;  0.0000000E+00;  0.0000000E+00;  1.0000000E+04;  0.0000000E+00;  1.0000000E+04;-1.4207619e-06;0.0;-1.7571349e-08;2.02832e-05
 -1.4000000E-01;  9.9999998E-03;  2.8000000E-01;196;0.0;0.0;0.0;1000.0;  4.0000001E-01;0.0;0;0.0;0.0;0.0;0;-1.0395446e-06;  1.0000000E+04;  0.0000000E+00;  0.0000000E+00;  1.0000000E+04;  0.0000000E+00;  1.0000000E+04;-1.0051182e-06;0.0;-3.4426407e-08;9.5766045e-05
 -1.4000000E-01;  9.9999998E-03;  3.0000001E-01;197;0.0;0.0;0.0;1000.0;  4.0000001E-01;0.0;0;0.0;0.0;0.0;0;-6.3108058e-07;  1.0000000E+04;  0.0000000E+00;  0.0000000E+00;  1.0000000E+04;  0.0000000E+00;  1.0000000E+04;-5.9167991e-07;0.0;-3.940065e-08;0.00012826391
 -1.4000000E-01;  9.9999998E-03;  3.1999999E-01;198;0.0;0.0;0.0;1000.0;  4.0000001E-01;0.0;0;0.0;0.0;0.0;0;-2.9709133e-07;  1.0000000E+04;  0.0000000E+00;  0.0000000E+00;  1.0000000E+04;  0.0000000E+00;  1.0000000E+04;-2.6675644e-07;0.0;-3.0334874e-08;0.00010520707
 -1.2000000E-01;  9.9999998E-03;  1.6000000E-01;231;0.0;0.0;0.0;1000.0;  4.0000001E-01;0.0;0;0.0;0.0;0.0;0;-1.3228118e-05;  1.0000000E+04;  0.0000000E+00;  0.0000000E+00;  1.0000000E+04;  0.0000000E+00;  1.0000000E+04;-1.3361706e-05;0.0;1.3358753e-07;0.00092449755
 -1.2000000E-01;  9.9999998E-03;  1.8000001E-01;232;0.0;0.0;0.0;1000.0;  4.0000001E-01;0.0;0;0.0;0.0;0.0;0;-1.2681794e-05;  1.0000000E+04;  0.0000000E+00;  0.0000000E+00;  1.0000000E+04;  0.0000000E+00;  1.0000000E+04;-1.282303e-05;0.0;1.4123609e-07;0.0009297856
 -1.2000000E-01;  9.9999998E-03;  2.0000000E-01;233;0.0;0.0;0.0;1000.0;  4.0000001E-01;0.0;0;0.0;0.0;0.0;0;-1.19709e-05;  1.0000000E+04;  0.0000000E+00;  0.0000000E+00;  1.0000000E+04;  0.0000000E+00;  1.0000000E+04;-1.210552e-05;0.0;1.3461963e-07;0.00087840285
 -1.2000000E-01;  9.9999998E-03;  2.2000000E-01;234;0.0;0.0;0.0;1000.0;  4.0000001E-01;0.0;0;0.0;0.0;0.0;0;-1.1017122e-05;  1.0000000E+04;  0.0000000E+00;  0.0000000E+00;  1.0000000E+04;  0.0000000E+00;  1.0000000E+04;-1.1104538e-05;0.0;8.7416517e-08;0.0006704299
 -1.2000000E-01;  9.9999998E-03;  2.3999999E-01;235;0.0;0.0;0.0;1000.0;  4.0000001E-01;0.0;0;0.0;0.0;0.0;0;-9.7363636e-06;  1.0000000E+04;  0.0000000E+00;  0.0000000E+00;  1.0000000E+04;  0.0000000E+00;  1.0000000E+04;-9.7257871e-06;0.0;-1.0576598e-08;0.00026465653
 -1.2000000E-01;  9.9999998E-03;  2.5999999E-01;236;0.0;0.0;0.0;1000.0;  4.0000001E-01;0.0;0;0.0;0.0;0.0;0;-8.0887821e-06;  1.0000000E+04;  0.0000000E+00;  0.0000000E+00;  1.0000000E+04;  0.0000000E+00;  1.0000000E+04;-7.947735e-06;0.0;-1.410471e-07;0.00027372327
 -1.2000000E-01;  9.9999998E-03;  2.8000000E-01;237;0.0;0.0;0.0;1000.0;  4.0000001E-01;0.0;0;0.0;0.0;0.0;0;-6.154638e-06;  1.0000000E+04;  0.0000000E+00;  0.0000000E+00;  1.0000000E+04;  0.0000000E+00;  1.0000000E+04;-5.8979613e-06;0.0;-2.566766e-07;0.00076685514
 -1.2000000E-01;  9.9999998E-03;  3.0000001E-01;238;0.0;0.0;0.0;1000.0;  4.0000001E-01;0.0;0;0.0;0.0;0.0;0;-4.1688518e-06;  1.0000000E+04;  0.0000000E+00;  0.0000000E+00;  1.0000000E+04;  0.0000000E+00;  1.0000000E+04;-3.856168e-06;0.0;-3.1268365e-07;0.0010410503
 -1.2000000E-01;  9.9999998E-03;  3.1999999E-01;239;0.0;0.0;0.0;1000.0;  4.0000001E-01;0.0;0;0.0;0.0;0.0;0;-2.4303067e-06;  1.0000000E+04;  0.0000000E+00;  0.0000000E+00;  1.0000000E+04;  0.0000000E+00;  1.0000000E+04;-2.1392261e-06;0.0;-2.9108065e-07;0.0010188075
 -1.0000000E-01;  9.9999998E-03;  1.6000000E-01;272;0.0;0.0;0.0;1000.0;  4.0000001E-01;0.0;0;0.0;0.0;0.0;0;-4.2861251e-05;  1.0000000E+04;  0.0000000E+00;  0.0000000E+00;  1.0000000E+04;  0.0000000E+00;  1.0000000E+04;-4.3474789e-05;0.0;6.1353614e-07;0.0036867827
 -1.0000000E-01;  9.9999998E-03;  1.8000001E-01;273;0.0;0.0;0.0;1000.0;  4.0000001E-01;0.0;0;0.0;0.0;0.0;0;-4.1055919e-05;  1.0000000E+04;  0.0000000E+00;  0.0000000E+00;  1.0000000E+04;  0.0000000E+00;  1.0000000E+04;-4.1689029e-05;0.0;6.3310875e-07;0.0036804518
 -1.0000000E-01;  9.9999998E-03;  2.0000000E-01;274;0.0;0.0;0.0;1000.0;  4.0000001E-01;0.0;0;0.0;0.0;0.0;0;-3.8698756e-05;  1.0000000E+04;  0.0000000E+00;  0.0000000E+00;  1.0000000E+04;  0.0000000E+00;  1.0000000E+04;-3.9262512e-05;0.0;5.6375507e-07;0.003331922
 -1.0000000E-01;  9.9999998E-03;  2.2000000E-01;275;0.0;0.0;0.0;1000.0;  4.0000001E-01;0.0;0;0.0;0.0;0.0;0;-3.561554e-05;  1.0000000E+04;  0.0000000E+00;  0.0000000E+00;  1.0000000E+04;  0.0000000E+00;  1.0000000E+04;-3.5959136e-05;0.0;3.4359621e-07;0.0024050442
 -1.0000000E-01;  9.9999998E-03;  2.3999999E-01;276;0.0;0.0;0.0;1000.0;  4.0000001E-01;0.0;0;0.0;0.0;0.0;0;-3.1629257e-05;  1.0000000E+04;  0.0000000E+00;  0.0000000E+00;  1.0000000E+04;  0.0000000E+00;  1.0000000E+04;-3.1577667e-05;0.0;-5.1589513e-08;0.00079841207
 -1.0000000E-01;  9.9999998E-03;  2.5999999E-01;277;0.0;0.0;0.0;1000.0;  4.0000001E-01;0.0;0;0.0;0.0;0.0;0;-2.6658437e-05;  1.0000000E+04;  0.0000000E+00;  0.0000000E+00;  1.0000000E+04;  0.0000000E+00;  1.0000000E+04;-2.6102278e-05;0.0;-5.561605e-07;0.0012527021
 -1.0000000E-01;  9.9999998E-03;  2.8000000E-01;278;0.0;0.0;0.0;1000.0;  4.0000001E-01;0.0;0;0.0;0.0;0.0;0;-2.0897111e-05;  1.0000000E+04;  0.0000000E+00;  0.0000000E+00;  1.0000000E+04;  0.0000000E+00;  1.0000000E+04;-1.9881518e-05;0.0;-1.0155923e-06;0.0031658409
 -1.0000000E-01;  9.9999998E-03;  3.0000001E-01;279;0.0;0.0;0.0;1000.0;  4.0000001E-01;0.0;0;0.0;0.0;0.0;0;-1.4933496e-05;  1.0000000E+04;  0.0000000E+00;  0.0000000E+00;  1.0000000E+04;  0.0000000E+00;  1.0000000E+04;-1.3648566e-05;0.0;-1.2849308e-06;0.0043747895
 -1.0000000E-01;  9.9999998E-03;  3.1999999E-01;280;0.0;0.0;0.0;1000.0;  4.0000001E-01;0.0;0;0.0;0.0;0.0;0;-9.5541309e-06;  1.0000000E+04;  0.0000000E+00;  0.0000000E+00;  1.0000000E+04;  0.0000000E+00;  1.0000000E+04;-8.2557499e-06;0.0;-1.2983807e-06;0.0046019526
 -7.9999998E-02;  9.9999998E-03;  1.6000000E-01;313;0.0;0.0;0.0;1000.0;  4.0000001E-01;0.0;0;0.0;0.0;0.0;0;-0.00010426562;  1.0000000E+04;  0.0000000E+00;  0.0000000E+00;  1.0000000E+04;  0.0000000E+00;  1.0000000E+04;-0.00010617211;0.0;1.9064915e-06;0.010595564
 -7.9999998E-02;  9.9999998E-03;  1.8000001E-01;314;0.0;0.0;0.0;1000.0;  4.0000001E-01;0.0;0;0.0;0.0;0.0;0;-9.9847923e-05;  1.0000000E+04;  0.0000000E+00;  0.0000000E+00;  1.0000000E+04;  0.0000000E+00;  1.0000000E+04;-0.00010176924;0.0;1.9213221e-06;0.010453212
 -7.9999998E-02;  9.9999998E-03;  2.0000000E-01;315;0.0;0.0;0.0;1000.0;  4.0000001E-01;0.0;0;0.0;0.0;0.0;0;-9.4141251e-05;  1.0000000E+04;  0.0000000E+00;  0.0000000E+00;  1.0000000E+04;  0.0000000E+00;  1.0000000E+04;-9.5816664e-05;0.0;1.6754108e-06;0.0093125449
 -7.9999998E-02;  9.9999998E-03;  2.2000000E-01;316;0.0;0.0;0.0;1000.0;  4.0000001E-01;0.0;0;0.0;0.0;0.0;0;-8.6815162e-05;  1.0000000E+04;  0.0000000E+00;  0.0000000E+00;  1.0000000E+04;  0.0000000E+00;  1.0000000E+04;-8.7828004e-05;0.0;1.0128415e-06;0.0065727378
 -7.9999998E-02;  9.9999998E-03;  2.3999999E-01;317;0.0;0.0;0.0;1000.0;  4.0000001E-01;0.0;0;0.0;0.0;0.0;0;-7.7515855e-05;  1.0000000E+04;  0.0000000E+00;  0.0000000E+00;  1.0000000E+04;  0.0000000E+00;  1.0000000E+04;-7.7392426e-05;0.0;-1.2343214e-07;0.0019873786
 -7.9999998E-02;  9.9999998E-03;  2.5999999E-01;318;0.0;0.0;0.0;1000.0;  4.0000001E-01;0.0;0;0.0;0.0;0.0;0;-6.6053188e-05;  1.0000000E+04;  0.0000000E+00;  0.0000000E+00;  1.0000000E+04;  0.0000000E+00;  1.0000000E+04;-6.4497726e-05;0.0;-1.555464e-06;0.003800936
 -7.9999998E-02;  9.9999998E-03;  2.8000000E-01;319;0.0;0.0;0.0;1000.0;  4.0000001E-01;0.0;0;0.0;0.0;0.0;0;-5.2781379e-05;  1.0000000E+04;  0.0000000E+00;  0.0000000E+00;  1.0000000E+04;  0.0000000E+00;  1.0000000E+04;-4.9895865e-05;0.0;-2.8855136e-06;0.009283592
 -7.9999998E-02;  9.9999998E-03;  3.0000001E-01;320;0.0;0.0;0.0;1000.0;  4.0000001E-01;0.0;0;0.0;0.0;0.0;0;-3.8921782e-05;  1.0000000E+04;  0.0000000E+00;  0.0000000E+00;  1.0000000E+04;  0.0000000E+00;  1.0000000E+04;-3.5179673e-05;0.0;-3.7421075e-06;0.013002641
 -7.9999998E-02;  9.9999998E-03;  3.1999999E-01;321;0.0;0.0;0.0;1000.0;  4.0000001E-01;0.0;0;0.0;0.0;0.0;0;-2.618596e-05;  1.0000000E+04;  0.0000000E+00;  0.0000000E+00;  1.0000000E+04;  0.0000000E+00;  1.0000000E+04;-2.2237409e-05;0.0;-3.9485503e-06;0.014212808
 -5.9999999E-02;  9.9999998E-03;  1.6000000E-01;354;0.0;0.0;0.0;1000.0001;  4.0000001E-01;0.098762624;0;0.0;0.0;0.0;0;-0.0002082718;  1.0000000E+04;  0.0000000E+00;  0.0000000E+00;  1.0000000E+04;  0.0000000E+00;  1.0000000E+04;-0.00021288784;0.0;4.6160403e-06;0.024449563
 -5.9999999E-02;  9.9999998E-03;  1.8000001E-01;355;0.0;0.0;0.0;1000.0001;  4.0000001E-01;0.098762624;0;0.0;0.0;0.0;0;-0.00019953599;  1.0000000E+04;  0.0000000E+00;  0.0000000E+00;  1.0000000E+04;  0.0000000E+00;  1.0000000E+04;-0.00020414349;0.0;4.6074992e-06;0.024020102
 -5.9999999E-02;  9.9999998E-03;  2.0000000E-01;356;0.0;0.0;0.0;1000.0001;  4.0000001E-01;0.098762624;0;0.0;0.0;0.0;0;-0.00018836423;  1.0000000E+04;  0.0000000E+00;  0.0000000E+00;  1.0000000E+04;  0.0000000E+00;  1.0000000E+04;-0.00019236169;0.0;3.997473e-06;0.021284502
 -5.9999999E-02;  9.9999998E-03;  2.2000000E-01;357;0.0;0.0;0.0;1000.0001;  4.0000001E-01;0.098762624;0;0.0;0.0;0.0;0;-0.00017419527;  1.0000000E+04;  0.0000000E+00;  0.0000000E+00;  1.0000000E+04;  0.0000000E+00;  1.0000000E+04;-0.00017663496;0.0;2.4396832e-06;0.014890579
 -5.9999999E-02;  9.9999998E-03;  2.3999999E-01;358;0.0;0.0;0.0;1000.0001;  4.0000001E-01;0.098762624;0;0.0;0.0;0.0;0;-0.00015638059;  1.0000000E+04;  0.0000000E+00;  0.0000000E+00;  1.0000000E+04;  0.0000000E+00;  1.0000000E+04;-0.00015619639;0.0;-1.8420246e-07;0.0043137772
 -5.9999999E-02;  9.9999998E-03;  2.5999999E-01;359;0.0;0.0;0.0;1000.0001;  4.0000001E-01;0.098762624;0;0.0;0.0;0.0;0;-0.00013448237;  1.0000000E+04;  0.0000000E+00;  0.0000000E+00;  1.0000000E+04;  0.0000000E+00;  1.0000000E+04;-0.00013099123;0.0;-3.4911316e-06;0.0090510184
 -5.9999999E-02;  9.9999998E-03;  2.8000000E-01;360;0.0;0.0;0.0;1000.0;  4.0000001E-01;0.0;0;0.0;0.0;0.0;0;-0.00010898127;  1.0000000E+04;  0.0000000E+00;  0.0000000E+00;  1.0000000E+04;  0.0000000E+00;  1.0000000E+04;-0.00010235969;0.0;-6.6215875e-06;0.021916233
 -5.9999999E-02;  9.9999998E-03;  3.0000001E-01;361;0.0;0.0;0.0;1000.0;  4.0000001E-01;0.0;0;0.0;0.0;0.0;0;-8.2047947e-05;  1.0000000E+04;  0.0000000E+00;  0.0000000E+00;  1.0000000E+04;  0.0000000E+00;  1.0000000E+04;-7.3297226e-05;0.0;-8.7507224e-06;0.031024788
 -5.9999999E-02;  9.9999998E-03;  3.1999999E-01;362;0.0;0.0;0.0;1000.0;  4.0000001E-01;0.0;0;0.0;0.0;0.0;0;-5.69521e-05;  1.0000000E+04;  0.0000000E+00;  0.0000000E+00;  1.0000000E+04;  0.0000000E+00;  1.0000000E+04;-4.747873e-05;0.0;-9.4733678e-06;0.034667257
 -3.9999999E-02;  9.9999998E-03;  1.6000000E-01;395;0.0;0.0;0.0;1000.0002;  4.0000001E-01;0.19752525;0;0.0;0.0;0.0;0;-0.00035775444;  1.0000000E+04;  0.0000000E+00;  0.0000000E+00;  1.0000000E+04;  0.0000000E+00;  1.0000000E+04;-0.00036714709;0.0;9.3926365e-06;0.048177529
 -3.9999999E-02;  9.9999998E-03;  1.8000001E-01;396;0.0;0.0;0.0;1000.0001;  4.0000001E-01;0.098762624;0;0.0;0.0;0.0;0;-0.00034309353;  1.0000000E+04;  0.0000000E+00;  0.0000000E+00;  1.0000000E+04;  0.0000000E+00;  1.0000000E+04;-0.0003524468;0.0;9.3532863e-06;0.047349259
 -3.9999999E-02;  9.9999998E-03;  2.0000000E-01;397;0.0;0.0;0.0;1000.0001;  4.0000001E-01;0.098762624;0;0.0;0.0;0.0;0;-0.00032448719;  1.0000000E+04;  0.0000000E+00;  0.0000000E+00;  1.0000000E+04;  0.0000000E+00;  1.0000000E+04;-0.00033261755;0.0;8.1303588e-06;0.04195369
 -3.9999999E-02;  9.9999998E-03;  2.2000000E-01;398;0.0;0.0;0.0;1000.0001;  4.0000001E-01;0.098762624;0;0.0;0.0;0.0;0;-0.00030108026;  1.0000000E+04;  0.0000000E+00;  0.0000000E+00;  1.0000000E+04;  0.0000000E+00;  1.0000000E+04;-0.0003061399;0.0;5.0596454e-06;0.029355869
 -3.9999999E-02;  9.9999998E-03;  2.3999999E-01;399;0.0;0.0;0.0;1000.0001;  4.0000001E-01;0.098762624;0;0.0;0.0;0.0;0;-0.00027180157;  1.0000000E+04;  0.0000000E+00;  0.0000000E+00;  1.0000000E+04;  0.0000000E+00;  1.0000000E+04;-0.00027170614;0.0;-9.5440278e-08;0.008497566
 -3.9999999E-02;  9.9999998E-03;  2.5999999E-01;400;0.0;0.0;0.0;1000.0001;  4.0000001E-01;0.098762624;0;0.0;0.0;0.0;0;-0.0002357615;  1.0000000E+04;  0.0000000E+00;  0.0000000E+00;  1.0000000E+04;  0.0000000E+00;  1.0000000E+04;-0.00022910409;0.0;-6.6574203e-06;0.01813004
 -3.9999999E-02;  9.9999998E-03;  2.8000000E-01;401;0.0;0.0;0.0;1000.0001;  4.0000001E-01;0.098762624;0;0.0;0.0;0.0;0;-0.00019335843;  1.0000000E+04;  0.0000000E+00;  0.0000000E+00;  1.0000000E+04;  0.0000000E+00;  1.0000000E+04;-0.00018034293;0.0;-1.3015499e-05;0.044299774
 -3.9999999E-02;  9.9999998E-03;  3.0000001E-01;402;0.0;0.0;0.0;1000.0001;  4.0000001E-01;0.098762624;0;0.0;0.0;0.0;0;-0.000147864;  1.0000000E+04;  0.0000000E+00;  0.0000000E+00;  1.0000000E+04;  0.0000000E+00;  1.0000000E+04;-0.0001303598;0.0;-1.750421e-05;0.063394994
 -3.9999999E-02;  9.9999998E-03;  3.1999999E-01;403;0.0;0.0;0.0;1000.0;  4.0000001E-01;0.0;0;0.0;0.0;0.0;0;-0.0001048502;  1.0000000E+04;  0.0000000E+00;  0.0000000E+00;  1.0000000E+04;  0.0000000E+00;  1.0000000E+04;-8.5587562e-05;0.0;-1.9262643e-05;0.071786202
 -2.0000000E-02;  9.9999998E-03;  1.6000000E-01;436;0.0;0.0;0.0;1000.0002;  4.0000001E-01;0.19752525;0;0.0;0.0;0.0;0;-0.00054487836;  1.0000000E+04;  0.0000000E+00;  0.0000000E+00;  1.0000000E+04;  0.0000000E+00;  1.0000000E+04;-0.0005616101;0.0;1.673175e-05;0.084090613
 -2.0000000E-02;  9.9999998E-03;  1.8000001E-01;437;0.0;0.0;0.0;1000.0002;  4.0000001E-01;0.19752525;0;0.0;0.0;0.0;0;-0.00052333658;  1.0000000E+04;  0.0000000E+00;  0.0000000E+00;  1.0000000E+04;  0.0000000E+00;  1.0000000E+04;-0.00054001715;0.0;1.6680588e-05;0.082872473
 -2.0000000E-02;  9.9999998E-03;  2.0000000E-01;438;0.0;0.0;0.0;1000.0002;  4.0000001E-01;0.19752525;0;0.0;0.0;0.0;0;-0.00049613207;  1.0000000E+04;  0.0000000E+00;  0.0000000E+00;  1.0000000E+04;  0.0000000E+00;  1.0000000E+04;-0.00051071768;0.0;1.45856e-05;0.073675424
 -2.0000000E-02;  9.9999998E-03;  2.2000000E-01;439;0.0;0.0;0.0;1000.0002;  4.0000001E-01;0.19752525;0;0.0;0.0;0.0;0;-0.000462075;  1.0000000E+04;  0.0000000E+00;  0.0000000E+00;  1.0000000E+04;  0.0000000E+00;  1.0000000E+04;-0.00047138488;0.0;9.3098924e-06;0.051905993
 -2.0000000E-02;  9.9999998E-03;  2.3999999E-01;440;0.0;0.0;0.0;1000.0002;  4.0000001E-01;0.19752525;0;0.0;0.0;0.0;0;-0.00041957197;  1.0000000E+04;  0.0000000E+00;  0.0000000E+00;  1.0000000E+04;  0.0000000E+00;  1.0000000E+04;-0.00041997895;0.0;4.0699118e-07;0.015563831
 -2.0000000E-02;  9.9999998E-03;  2.5999999E-01;441;0.0;0.0;0.0;1000.0002;  4.0000001E-01;0.19752525;0;0.0;0.0;0.0;0;-0.00036711051;  1.0000000E+04;  0.0000000E+00;  0.0000000E+00;  1.0000000E+04;  0.0000000E+00;  1.0000000E+04;-0.00035600367;0.0;-1.1106847e-05;0.031563908
 -2.0000000E-02;  9.9999998E-03;  2.8000000E-01;442;0.0;0.0;0.0;1000.0001;  4.0000001E-01;0.098762624;0;0.0;0.0;0.0;0;-0.00030469673;  1.0000000E+04;  0.0000000E+00;  0.0000000E+00;  1.0000000E+04;  0.0000000E+00;  1.0000000E+04;-0.00028209234;0.0;-2.2604396e-05;0.079165071
 -2.0000000E-02;  9.9999998E-03;  3.0000001E-01;443;0.0;0.0;0.0;1000.0001;  4.0000001E-01;0.098762624;0;0.0;0.0;0.0;0;-0.00023633687;  1.0000000E+04;  0.0000000E+00;  0.0000000E+00;  1.0000000E+04;  0.0000000E+00;  1.0000000E+04;-0.00020533809;0.0;-3.0998777e-05;0.11489181
 -2.0000000E-02;  9.9999998E-03;  3.1999999E-01;444;0.0;0.0;0.0;1000.0001;  4.0000001E-01;0.098762624;0;0.0;0.0;0.0;0;-0.00017045633;  1.0000000E+04;  0.0000000E+00;  0.0000000E+00;  1.0000000E+04;  0.0000000E+00;  1.0000000E+04;-0.00013592391;0.0;-3.4532426e-05;0.13135719
  0.0000000E+00;  9.9999998E-03;  3.0000001E-01;455;0.0;0.0;0.0;1000.0001;  4.0000001E-01;0.098762624;0;0.0;0.0;0.0;0;-0.00034397264;  1.0000000E+04;  0.0000000E+00;  0.0000000E+00;  1.0000000E+04;  0.0000000E+00;  1.0000000E+04;-0.00029450943;0.0;-4.9463197e-05;0.18812293
  0.0000000E+00;  9.9999998E-03;  3.1999999E-01;456;0.0;0.0;0.0;1000.0001;  4.0000001E-01;0.098762624;0;0.0;0.0;0.0;0;-0.00025220407;  1.0000000E+04;  0.0000000E+00;  0.0000000E+00;  1.0000000E+04;  0.0000000E+00;  1.0000000E+04;-0.00019631349;0.0;-5.5890585e-05;0.21766731
  2.0000000E-02;  9.9999998E-03;  3.1999999E-01;466;0.0;0.0;0.0;1000.0002;  4.0000001E-01;0.19752525;0;0.0;0.0;0.0;0;-0.00034899329;  1.0000000E+04;  0.0000000E+00;  0.0000000E+00;  1.0000000E+04;  0.0000000E+00;  1.0000000E+04;-0.00026588773;0.0;-8.3105551e-05;0.33265659
  3.9999999E-02;  9.9999998E-03;  3.1999999E-01;476;0.0;0.0;0.0;1000.0002;  4.0000001E-01;0.19752525;0;0.0;0.0;0.0;0;-0.00046511739;  1.0000000E+04;  0.0000000E+00;  0.0000000E+00;  1.0000000E+04;  0.0000000E+00;  1.0000000E+04;-0.00034946829;0.0;-0.0001156491;0.4778429
  5.9999999E-02;  9.9999998E-03;  3.1999999E-01;486;0.0;0.0;0.0;1000.0004;  4.0000001E-01;0.29628786;0;0.0;0.0;0.0;0;-0.00061211508;  1.0000000E+04;  0.0000000E+00;  0.0000000E+00;  1.0000000E+04;  0.0000000E+00;  1.0000000E+04;-0.00045771626;0.0;-0.00015439882;0.66087478
  7.9999998E-02;  9.9999998E-03;  3.1999999E-01;496;0.0;0.0;0.0;1000.0005;  4.0000001E-01;0.3950505;0;0.0;0.0;0.0;0;-0.00080985948;  1.0000000E+04;  0.0000000E+00;  0.0000000E+00;  1.0000000E+04;  0.0000000E+00;  1.0000000E+04;-0.00060786313;0.0;-0.00020199637;0.8987909
  1.0000000E-01;  9.9999998E-03;  3.1999999E-01;506;0.0;0.0;0.0;1000.0007;  4.0000001E-01;0.59257573;0;0.0;0.0;0.0;0;-0.001093865;  1.0000000E+04;  0.0000000E+00;  0.0000000E+00;  1.0000000E+04;  0.0000000E+00;  1.0000000E+04;-0.00083017431;0.0;-0.00026369074;1.2687683
  1.2000000E-01;  9.9999998E-03;  3.1999999E-01;516;0.0;0.0;0.0;1000.001;  4.0000001E-01;0.79010099;0;0.0;0.0;0.0;0;-0.0015225746;  1.0000000E+04;  0.0000000E+00;  0.0000000E+00;  1.0000000E+04;  0.0000000E+00;  1.0000000E+04;-0.0011730662;0.0;-0.00034950834;2.2837212
  1.4000000E-01;  9.9999998E-03;  3.1999999E-01;526;0.0;0.0;0.0;1000.0014;  4.0000001E-01;1.1851515;0;0.0;0.0;0.0;0;-0.0021854979;  1.0000000E+04;  0.0000000E+00;  0.0000000E+00;  1.0000000E+04;  0.0000000E+00;  1.0000000E+04;-0.0017072469;0.0;-0.00047825102;5.5527401
  1.6000000E-01;  9.9999998E-03;  3.1999999E-01;536;0.0;0.0;0.0;1000.0021;  4.0000001E-01;1.7777272;0;0.0;0.0;0.0;0;-0.003199185;  1.0000000E+04;  0.0000000E+00;  0.0000000E+00;  1.0000000E+04;  0.0000000E+00;  1.0000000E+04;-0.0025148636;0.0;-0.00068432145;13.768414
  1.8000001E-01;  9.9999998E-03;  3.1999999E-01;546;0.0;0.0;0.0;1000.0032;  4.0000001E-01;2.6665909;0;0.0;0.0;0.0;0;-0.0046661575;  1.0000000E+04;  0.0000000E+00;  0.0000000E+00;  1.0000000E+04;  0.0000000E+00;  1.0000000E+04;-0.0036392512;0.0;-0.0010269064;29.949247
  2.0000000E-01;  9.9999998E-03;  3.1999999E-01;555;0.0;0.0;0.0;1000.0047;  4.0000001E-01;3.8517423;0;0.0;0.0;0.0;0;-0.0066219424;  1.0000000E+04;  0.0000000E+00;  0.0000000E+00;  1.0000000E+04;  0.0000000E+00;  1.0000000E+04;-0.0050289943;0.0;-0.0015929481;54.009525
 -2.2000000E-01;  9.9999998E-03;  3.4000000E-01;36;0.0;0.0;0.0;1000.0;  4.0000001E-01;0.0;0;0.0;0.0;0.0;0;0.0;  1.0000000E+04;  0.0000000E+00;  0.0000000E+00;  1.0000000E+04;  0.0000000E+00;  1.0000000E+04;0.0;0.0;0.0;0.0
 -2.2000000E-01;  9.9999998E-03;  3.6000001E-01;37;0.0;0.0;0.0;1000.0;  4.0000001E-01;0.0;0;0.0;0.0;0.0;0;0.0;  1.0000000E+04;  0.0000000E+00;  0.0000000E+00;  1.0000000E+04;  0.0000000E+00;  1.0000000E+04;0.0;0.0;0.0;0.0
 -2.2000000E-01;  9.9999998E-03;  3.8000000E-01;38;0.0;0.0;0.0;1000.0;  4.0000001E-01;0.0;0;0.0;0.0;0.0;0;0.0;  1.0000000E+04;  0.0000000E+00;  0.0000000E+00;  1.0000000E+04;  0.0000000E+00;  1.0000000E+04;0.0;0.0;0.0;0.0
 -2.0000000E-01;  9.9999998E-03;  3.4000000E-01;76;0.0;0.0;0.0;1000.0;  4.0000001E-01;0.0;0;0.0;0.0;0.0;0;0.0;  1.0000000E+04;  0.0000000E+00;  0.0000000E+00;  1.0000000E+04;  0.0000000E+00;  1.0000000E+04;0.0;0.0;0.0;0.0
 -2.0000000E-01;  9.9999998E-03;  3.6000001E-01;77;0.0;0.0;0.0;1000.0;  4.0000001E-01;0.0;0;0.0;0.0;0.0;0;0.0;  1.0000000E+04;  0.0000000E+00;  0.0000000E+00;  1.0000000E+04;  0.0000000E+00;  1.0000000E+04;0.0;0.0;0.0;0.0
 -2.0000000E-01;  9.9999998E-03;  3.8000000E-01;78;0.0;0.0;0.0;1000.0;  4.0000001E-01;0.0;0;0.0;0.0;0.0;0;0.0;  1.0000000E+04;  0.0000000E+00;  0.0000000E+00;  1.0000000E+04;  0.0000000E+00;  1.0000000E+04;0.0;0.0;0.0;0.0
 -2.0000000E-01;  9.9999998E-03;  4.0000001E-01;79;0.0;0.0;0.0;1000.0;  4.0000001E-01;0.0;0;0.0;0.0;0.0;0;0.0;  1.0000000E+04;  0.0000000E+00;  0.0000000E+00;  1.0000000E+04;  0.0000000E+00;  1.0000000E+04;0.0;0.0;0.0;0.0
 -1.8000001E-01;  9.9999998E-03;  3.4000000E-01;117;0.0;0.0;0.0;1000.0;  4.0000001E-01;0.0;0;0.0;0.0;0.0;0;0.0;  1.0000000E+04;  0.0000000E+00;  0.0000000E+00;  1.0000000E+04;  0.0000000E+00;  1.0000000E+04;0.0;0.0;0.0;0.0
 -1.8000001E-01;  9.9999998E-03;  3.6000001E-01;118;0.0;0.0;0.0;1000.0;  4.0000001E-01;0.0;0;0.0;0.0;0.0;0;0.0;  1.0000000E+04;  0.0000000E+00;  0.0000000E+00;  1.0000000E+04;  0.0000000E+00;  1.0000000E+04;0.0;0.0;0.0;0.0
 -1.8000001E-01;  9.9999998E-03;  3.8000000E-01;119;0.0;0.0;0.0;1000.0;  4.0000001E-01;0.0;0;0.0;0.0;0.0;0;0.0;  1.0000000E+04;  0.0000000E+00;  0.0000000E+00;  1.0000000E+04;  0.0000000E+00;  1.0000000E+04;0.0;0.0;0.0;0.0
 -1.8000001E-01;  9.9999998E-03;  4.0000001E-01;120;0.0;0.0;0.0;1000.0;  4.0000001E-01;0.0;0;0.0;0.0;0.0;0;0.0;  1.0000000E+04;  0.0000000E+00;  0.0000000E+00;  1.0000000E+04;  0.0000000E+00;  1.0000000E+04;0.0;0.0;0.0;0.0
 -1.6000000E-01;  9.9999998E-03;  3.4000000E-01;158;0.0;0.0;0.0;1000.0;  4.0000001E-01;0.0;0;0.0;0.0;0.0;0;0.0;  1.0000000E+04;  0.0000000E+00;  0.0000000E+00;  1.0000000E+04;  0.0000000E+00;  1.0000000E+04;0.0;0.0;0.0;0.0
 -1.6000000E-01;  9.9999998E-03;  3.6000001E-01;159;0.0;0.0;0.0;1000.0;  4.0000001E-01;0.0;0;0.0;0.0;0.0;0;0.0;  1.0000000E+04;  0.0000000E+00;  0.0000000E+00;  1.0000000E+04;  0.0000000E+00;  1.0000000E+04;0.0;0.0;0.0;0.0
 -1.6000000E-01;  9.9999998E-03;  3.8000000E-01;160;0.0;0.0;0.0;1000.0;  4.0000001E-01;0.0;0;0.0;0.0;0.0;0;0.0;  1.0000000E+04;  0.0000000E+00;  0.0000000E+00;  1.0000000E+04;  0.0000000E+00;  1.0000000E+04;0.0;0.0;0.0;0.0
 -1.6000000E-01;  9.9999998E-03;  4.0000001E-01;161;0.0;0.0;0.0;1000.0;  4.0000001E-01;0.0;0;0.0;0.0;0.0;0;0.0;  1.0000000E+04;  0.0000000E+00;  0.0000000E+00;  1.0000000E+04;  0.0000000E+00;  1.0000000E+04;0.0;0.0;0.0;0.0
 -1.4000000E-01;  9.9999998E-03;  3.4000000E-01;199;0.0;0.0;0.0;1000.0;  4.0000001E-01;0.0;0;0.0;0.0;0.0;0;-9.1483912e-08;  1.0000000E+04;  0.0000000E+00;  0.0000000E+00;  1.0000000E+04;  0.0000000E+00;  1.0000000E+04;-7.7487996e-08;0.0;-1.3995912e-08;4.9523282e-05
 -1.4000000E-01;  9.9999998E-03;  3.6000001E-01;200;0.0;0.0;0.0;1000.0;  4.0000001E-01;0.0;0;0.0;0.0;0.0;0;-1.0609188e-08;  1.0000000E+04;  0.0000000E+00;  0.0000000E+00;  1.0000000E+04;  0.0000000E+00;  1.0000000E+04;-8.4016394e-09;0.0;-2.2075486e-09;7.9320653e-06
 -1.4000000E-01;  9.9999998E-03;  3.8000000E-01;201;0.0;0.0;0.0;1000.0;  4.0000001E-01;0.0;0;0.0;0.0;0.0;0;0.0;  1.0000000E+04;  0.0000000E+00;  0.0000000E+00;  1.0000000E+04;  0.0000000E+00;  1.0000000E+04;0.0;0.0;0.0;0.0
 -1.4000000E-01;  9.9999998E-03;  4.0000001E-01;202;0.0;0.0;0.0;1000.0;  4.0000001E-01;0.0;0;0.0;0.0;0.0;0;0.0;  1.0000000E+04;  0.0000000E+00;  0.0000000E+00;  1.0000000E+04;  0.0000000E+00;  1.0000000E+04;0.0;0.0;0.0;0.0
 -1.2000000E-01;  9.9999998E-03;  3.4000000E-01;240;0.0;0.0;0.0;1000.0;  4.0000001E-01;0.0;0;0.0;0.0;0.0;0;-1.1510531e-06;  1.0000000E+04;  0.0000000E+00;  0.0000000E+00;  1.0000000E+04;  0.0000000E+00;  1.0000000E+04;-9.469415e-07;0.0;-2.0411164e-07;0.0007328217
 -1.2000000E-01;  9.9999998E-03;  3.6000001E-01;241;0.0;0.0;0.0;1000.0;  4.0000001E-01;0.0;0;0.0;0.0;0.0;0;-3.8486007e-07;  1.0000000E+04;  0.0000000E+00;  0.0000000E+00;  1.0000000E+04;  0.0000000E+00;  1.0000000E+04;-2.9212794e-07;0.0;-9.2732151e-08;0.00033604528
 -1.2000000E-01;  9.9999998E-03;  3.8000000E-01;242;0.0;0.0;0.0;1000.0;  4.0000001E-01;0.0;0;0.0;0.0;0.0;0;-5.6833848e-08;  1.0000000E+04;  0.0000000E+00;  0.0000000E+00;  1.0000000E+04;  0.0000000E+00;  1.0000000E+04;-4.0459327e-08;0.0;-1.637452e-08;5.965884e-05
 -1.2000000E-01;  9.9999998E-03;  4.0000001E-01;243;0.0;0.0;0.0;1000.0;  4.0000001E-01;0.0;0;0.0;0.0;0.0;0;-2.3439629e-26;  1.0000000E+04;  0.0000000E+00;  0.0000000E+00;  1.0000000E+04;  0.0000000E+00;  1.0000000E+04;-1.6590732e-26;0.0;-6.8488965e-27;0.0
 -1.0000000E-01;  9.9999998E-03;  3.4000000E-01;281;0.0;0.0;0.0;1000.0;  4.0000001E-01;0.0;0;0.0;0.0;0.0;0;-5.3327376e-06;  1.0000000E+04;  0.0000000E+00;  0.0000000E+00;  1.0000000E+04;  0.0000000E+00;  1.0000000E+04;-4.2680886e-06;0.0;-1.0646488e-06;0.0038569432
 -1.0000000E-01;  9.9999998E-03;  3.6000001E-01;282;0.0;0.0;0.0;1000.0;  4.0000001E-01;0.0;0;0.0;0.0;0.0;0;-2.4403537e-06;  1.0000000E+04;  0.0000000E+00;  0.0000000E+00;  1.0000000E+04;  0.0000000E+00;  1.0000000E+04;-1.7809505e-06;0.0;-6.5940327e-07;0.0024157879
 -1.0000000E-01;  9.9999998E-03;  3.8000000E-01;283;0.0;0.0;0.0;1000.0;  4.0000001E-01;0.0;0;0.0;0.0;0.0;0;-7.7429263e-07;  1.0000000E+04;  0.0000000E+00;  0.0000000E+00;  1.0000000E+04;  0.0000000E+00;  1.0000000E+04;-5.2312572e-07;0.0;-2.5116694e-07;0.0009237029
 -1.0000000E-01;  9.9999998E-03;  4.0000001E-01;284;0.0;0.0;0.0;1000.0;  4.0000001E-01;0.0;0;0.0;0.0;0.0;0;-1.0685339e-07;  1.0000000E+04;  0.0000000E+00;  0.0000000E+00;  1.0000000E+04;  0.0000000E+00;  1.0000000E+04;-7.1436681e-08;0.0;-3.5416715e-08;0.00013041668
 -7.9999998E-02;  9.9999998E-03;  3.4000000E-01;322;0.0;0.0;0.0;1000.0;  4.0000001E-01;0.0;0;0.0;0.0;0.0;0;-1.5872964e-05;  1.0000000E+04;  0.0000000E+00;  0.0000000E+00;  1.0000000E+04;  0.0000000E+00;  1.0000000E+04;-1.2379936e-05;0.0;-3.4930276e-06;0.012812959
 -7.9999998E-02;  9.9999998E-03;  3.6000001E-01;323;0.0;0.0;0.0;1000.0;  4.0000001E-01;0.0;0;0.0;0.0;0.0;0;-8.3699233e-06;  1.0000000E+04;  0.0000000E+00;  0.0000000E+00;  1.0000000E+04;  0.0000000E+00;  1.0000000E+04;-5.8898363e-06;0.0;-2.4800866e-06;0.0091868732
 -7.9999998E-02;  9.9999998E-03;  3.8000000E-01;324;0.0;0.0;0.0;1000.0;  4.0000001E-01;0.0;0;0.0;0.0;0.0;0;-3.4758978e-06;  1.0000000E+04;  0.0000000E+00;  0.0000000E+00;  1.0000000E+04;  0.0000000E+00;  1.0000000E+04;-2.2404472e-06;0.0;-1.2354506e-06;0.0045925537
 -7.9999998E-02;  9.9999998E-03;  4.0000001E-01;325;0.0;0.0;0.0;1000.0;  4.0000001E-01;0.0;0;0.0;0.0;0.0;0;-9.140872e-07;  1.0000000E+04;  0.0000000E+00;  0.0000000E+00;  1.0000000E+04;  0.0000000E+00;  1.0000000E+04;-5.7719535e-07;0.0;-3.3689184e-07;0.0012512631
 -5.9999999E-02;  9.9999998E-03;  3.4000000E-01;363;0.0;0.0;0.0;1000.0;  4.0000001E-01;0.0;0;0.0;0.0;0.0;0;-3.6237965e-05;  1.0000000E+04;  0.0000000E+00;  0.0000000E+00;  1.0000000E+04;  0.0000000E+00;  1.0000000E+04;-2.7503907e-05;0.0;-8.7340595e-06;0.032506999
 -5.9999999E-02;  9.9999998E-03;  3.6000001E-01;364;0.0;0.0;0.0;1000.0;  4.0000001E-01;0.0;0;0.0;0.0;0.0;0;-2.0655913e-05;  1.0000000E+04;  0.0000000E+00;  0.0000000E+00;  1.0000000E+04;  0.0000000E+00;  1.0000000E+04;-1.3997066e-05;0.0;-6.6588459e-06;0.024995683
 -5.9999999E-02;  9.9999998E-03;  3.8000000E-01;365;0.0;0.0;0.0;1000.0;  4.0000001E-01;0.0;0;0.0;0.0;0.0;0;-9.7945849e-06;  1.0000000E+04;  0.0000000E+00;  0.0000000E+00;  1.0000000E+04;  0.0000000E+00;  1.0000000E+04;-6.0177581e-06;0.0;-3.7768264e-06;0.014214228
 -5.9999999E-02;  9.9999998E-03;  4.0000001E-01;366;0.0;0.0;0.0;1000.0;  4.0000001E-01;0.0;0;0.0;0.0;0.0;0;-3.3339638e-06;  1.0000000E+04;  0.0000000E+00;  0.0000000E+00;  1.0000000E+04;  0.0000000E+00;  1.0000000E+04;-1.9921401e-06;0.0;-1.3418236e-06;0.005040314
 -3.9999999E-02;  9.9999998E-03;  3.4000000E-01;404;0.0;0.0;0.0;1000.0;  4.0000001E-01;0.0;0;0.0;0.0;0.0;0;-6.883686e-05;  1.0000000E+04;  0.0000000E+00;  0.0000000E+00;  1.0000000E+04;  0.0000000E+00;  1.0000000E+04;-5.065912e-05;0.0;-1.8177736e-05;0.068782426
 -3.9999999E-02;  9.9999998E-03;  3.6000001E-01;405;0.0;0.0;0.0;1000.0;  4.0000001E-01;0.0;0;0.0;0.0;0.0;0;-4.1147727e-05;  1.0000000E+04;  0.0000000E+00;  0.0000000E+00;  1.0000000E+04;  0.0000000E+00;  1.0000000E+04;-2.6732274e-05;0.0;-1.4415454e-05;0.054954723
 -3.9999999E-02;  9.9999998E-03;  3.8000000E-01;406;0.0;0.0;0.0;1000.0;  4.0000001E-01;0.0;0;0.0;0.0;0.0;0;-2.1023436e-05;  1.0000000E+04;  0.0000000E+00;  0.0000000E+00;  1.0000000E+04;  0.0000000E+00;  1.0000000E+04;-1.225077e-05;0.0;-8.7726648e-06;0.03350269
 -3.9999999E-02;  9.9999998E-03;  4.0000001E-01;407;0.0;0.0;0.0;1000.0;  4.0000001E-01;0.0;0;0.0;0.0;0.0;0;-8.1436956e-06;  1.0000000E+04;  0.0000000E+00;  0.0000000E+00;  1.0000000E+04;  0.0000000E+00;  1.0000000E+04;-4.5800562e-06;0.0;-3.5636399e-06;0.013571624
 -2.0000000E-02;  9.9999998E-03;  3.4000000E-01;445;0.0;0.0;0.0;1000.0;  4.0000001E-01;0.0;0;0.0;0.0;0.0;0;-0.00011440918;  1.0000000E+04;  0.0000000E+00;  0.0000000E+00;  1.0000000E+04;  0.0000000E+00;  1.0000000E+04;-8.1380975e-05;0.0;-3.3028206e-05;0.12738116
 -2.0000000E-02;  9.9999998E-03;  3.6000001E-01;446;0.0;0.0;0.0;1000.0;  4.0000001E-01;0.0;0;0.0;0.0;0.0;0;-7.0527894e-05;  1.0000000E+04;  0.0000000E+00;  0.0000000E+00;  1.0000000E+04;  0.0000000E+00;  1.0000000E+04;-4.3754124e-05;0.0;-2.6773772e-05;0.10393838
 -2.0000000E-02;  9.9999998E-03;  3.8000000E-01;447;0.0;0.0;0.0;1000.0;  4.0000001E-01;0.0;0;0.0;0.0;0.0;0;-3.7670849e-05;  1.0000000E+04;  0.0000000E+00;  0.0000000E+00;  1.0000000E+04;  0.0000000E+00;  1.0000000E+04;-2.0715344e-05;0.0;-1.6955502e-05;0.065892875
 -2.0000000E-02;  9.9999998E-03;  4.0000001E-01;448;0.0;0.0;0.0;1000.0;  4.0000001E-01;0.0;0;0.0;0.0;0.0;0;-1.5644473e-05;  1.0000000E+04;  0.0000000E+00;  0.0000000E+00;  1.0000000E+04;  0.0000000E+00;  1.0000000E+04;-8.2259294e-06;0.0;-7.4185427e-06;0.028728342
  0.0000000E+00;  9.9999998E-03;  3.4000000E-01;457;0.0;0.0;0.0;1000.0001;  4.0000001E-01;0.098762624;0;0.0;0.0;0.0;0;-0.00017222646;  1.0000000E+04;  0.0000000E+00;  0.0000000E+00;  1.0000000E+04;  0.0000000E+00;  1.0000000E+04;-0.00011830173;0.0;-5.3924723e-05;0.21266879
  0.0000000E+00;  9.9999998E-03;  3.6000001E-01;458;0.0;0.0;0.0;1000.0;  4.0000001E-01;0.0;0;0.0;0.0;0.0;0;-0.00010844925;  1.0000000E+04;  0.0000000E+00;  0.0000000E+00;  1.0000000E+04;  0.0000000E+00;  1.0000000E+04;-6.4186199e-05;0.0;-4.4263052e-05;0.17557818
  0.0000000E+00;  9.9999998E-03;  3.8000000E-01;459;0.0;0.0;0.0;1000.0;  4.0000001E-01;0.0;0;0.0;0.0;0.0;0;-5.9521713e-05;  1.0000000E+04;  0.0000000E+00;  0.0000000E+00;  1.0000000E+04;  0.0000000E+00;  1.0000000E+04;-3.0838892e-05;0.0;-2.8682824e-05;0.11382587
  0.0000000E+00;  9.9999998E-03;  4.0000001E-01;460;0.0;0.0;0.0;1000.0;  4.0000001E-01;0.0;0;0.0;0.0;0.0;0;-2.5659752e-05;  1.0000000E+04;  0.0000000E+00;  0.0000000E+00;  1.0000000E+04;  0.0000000E+00;  1.0000000E+04;-1.256837e-05;0.0;-1.3091382e-05;0.051734366
  2.0000000E-02;  9.9999998E-03;  3.4000000E-01;467;0.0;0.0;0.0;1000.0001;  4.0000001E-01;0.098762624;0;0.0;0.0;0.0;0;-0.0002417838;  1.0000000E+04;  0.0000000E+00;  0.0000000E+00;  1.0000000E+04;  0.0000000E+00;  1.0000000E+04;-0.00016099753;0.0;-8.078626e-05;0.32710266
  2.0000000E-02;  9.9999998E-03;  3.6000001E-01;468;0.0;0.0;0.0;1000.0001;  4.0000001E-01;0.098762624;0;0.0;0.0;0.0;0;-0.00015461085;  1.0000000E+04;  0.0000000E+00;  0.0000000E+00;  1.0000000E+04;  0.0000000E+00;  1.0000000E+04;-8.7728011e-05;0.0;-6.6882843e-05;0.27218693
  2.0000000E-02;  9.9999998E-03;  3.8000000E-01;469;0.0;0.0;0.0;1000.0;  4.0000001E-01;0.0;0;0.0;0.0;0.0;0;-8.6289423e-05;  1.0000000E+04;  0.0000000E+00;  0.0000000E+00;  1.0000000E+04;  0.0000000E+00;  1.0000000E+04;-4.23405e-05;0.0;-4.3948923e-05;0.17882912
  2.0000000E-02;  9.9999998E-03;  4.0000001E-01;470;0.0;0.0;0.0;1000.0;  4.0000001E-01;0.0;0;0.0;0.0;0.0;0;-3.790194e-05;  1.0000000E+04;  0.0000000E+00;  0.0000000E+00;  1.0000000E+04;  0.0000000E+00;  1.0000000E+04;-1.7358077e-05;0.0;-2.0543865e-05;0.08319357
  3.9999999E-02;  9.9999998E-03;  3.4000000E-01;477;0.0;0.0;0.0;1000.0001;  4.0000001E-01;0.098762624;0;0.0;0.0;0.0;0;-0.00032566313;  1.0000000E+04;  0.0000000E+00;  0.0000000E+00;  1.0000000E+04;  0.0000000E+00;  1.0000000E+04;-0.00021226829;0.0;-0.00011339483;0.47343189
  3.9999999E-02;  9.9999998E-03;  3.6000001E-01;478;0.0;0.0;0.0;1000.0001;  4.0000001E-01;0.098762624;0;0.0;0.0;0.0;0;-0.00021043574;  1.0000000E+04;  0.0000000E+00;  0.0000000E+00;  1.0000000E+04;  0.0000000E+00;  1.0000000E+04;-0.00011584708;0.0;-9.4588657e-05;0.39663863
  3.9999999E-02;  9.9999998E-03;  3.8000000E-01;479;0.0;0.0;0.0;1000.0001;  4.0000001E-01;0.098762624;0;0.0;0.0;0.0;0;-0.0001185993;  1.0000000E+04;  0.0000000E+00;  0.0000000E+00;  1.0000000E+04;  0.0000000E+00;  1.0000000E+04;-5.5875429e-05;0.0;-6.2723877e-05;0.2628344
  3.9999999E-02;  9.9999998E-03;  4.0000001E-01;480;0.0;0.0;0.0;1000.0;  4.0000001E-01;0.0;0;0.0;0.0;0.0;0;-5.2515432e-05;  1.0000000E+04;  0.0000000E+00;  0.0000000E+00;  1.0000000E+04;  0.0000000E+00;  1.0000000E+04;-2.2811424e-05;0.0;-2.9704008e-05;0.12381473
  5.9999999E-02;  9.9999998E-03;  3.4000000E-01;487;0.0;0.0;0.0;1000.0002;  4.0000001E-01;0.19752525;0;0.0;0.0;0.0;0;-0.0004312564;  1.0000000E+04;  0.0000000E+00;  0.0000000E+00;  1.0000000E+04;  0.0000000E+00;  1.0000000E+04;-0.00027867794;0.0;-0.00015257846;0.65936744
  5.9999999E-02;  9.9999998E-03;  3.6000001E-01;488;0.0;0.0;0.0;1000.0001;  4.0000001E-01;0.098762624;0;0.0;0.0;0.0;0;-0.00028040272;  1.0000000E+04;  0.0000000E+00;  0.0000000E+00;  1.0000000E+04;  0.0000000E+00;  1.0000000E+04;-0.00015230716;0.0;-0.00012809558;0.55562979
  5.9999999E-02;  9.9999998E-03;  3.8000000E-01;489;0.0;0.0;0.0;1000.0001;  4.0000001E-01;0.098762624;0;0.0;0.0;0.0;0;-0.00015886308;  1.0000000E+04;  0.0000000E+00;  0.0000000E+00;  1.0000000E+04;  0.0000000E+00;  1.0000000E+04;-7.3402094e-05;0.0;-8.5460983e-05;0.37024462
  5.9999999E-02;  9.9999998E-03;  4.0000001E-01;490;0.0;0.0;0.0;1000.0;  4.0000001E-01;0.0;0;0.0;0.0;0.0;0;-7.0552851e-05;  1.0000000E+04;  0.0000000E+00;  0.0000000E+00;  1.0000000E+04;  0.0000000E+00;  1.0000000E+04;-2.9811459e-05;0.0;-4.074139e-05;0.17550839
  7.9999998E-02;  9.9999998E-03;  3.4000000E-01;497;0.0;0.0;0.0;1000.0003;  4.0000001E-01;0.29628786;0;0.0;0.0;0.0;0;-0.00057338353;  1.0000000E+04;  0.0000000E+00;  0.0000000E+00;  1.0000000E+04;  0.0000000E+00;  1.0000000E+04;-0.00037241739;0.0;-0.00020096615;0.90258884
  7.9999998E-02;  9.9999998E-03;  3.6000001E-01;498;0.0;0.0;0.0;1000.0002;  4.0000001E-01;0.19752525;0;0.0;0.0;0.0;0;-0.00037411068;  1.0000000E+04;  0.0000000E+00;  0.0000000E+00;  1.0000000E+04;  0.0000000E+00;  1.0000000E+04;-0.00020457643;0.0;-0.00016953425;0.76349568
  7.9999998E-02;  9.9999998E-03;  3.8000000E-01;499;0.0;0.0;0.0;1000.0001;  4.0000001E-01;0.098762624;0;0.0;0.0;0.0;0;-0.00021237266;  1.0000000E+04;  0.0000000E+00;  0.0000000E+00;  1.0000000E+04;  0.0000000E+00;  1.0000000E+04;-9.8864541e-05;0.0;-0.00011350811;0.50987238
  7.9999998E-02;  9.9999998E-03;  4.0000001E-01;500;0.0;0.0;0.0;1000.0;  4.0000001E-01;0.0;0;0.0;0.0;0.0;0;-9.4403178e-05;  1.0000000E+04;  0.0000000E+00;  0.0000000E+00;  1.0000000E+04;  0.0000000E+00;  1.0000000E+04;-4.0118772e-05;0.0;-5.4284403e-05;0.24247898
  1.0000000E-01;  9.9999998E-03;  3.4000000E-01;507;0.0;0.0;0.0;1000.0004;  4.0000001E-01;0.3950505;0;0.0;0.0;0.0;0;-0.00077938655;  1.0000000E+04;  0.0000000E+00;  0.0000000E+00;  1.0000000E+04;  0.0000000E+00;  1.0000000E+04;-0.00051540049;0.0;-0.00026398606;1.2636563
  1.0000000E-01;  9.9999998E-03;  3.6000001E-01;508;0.0;0.0;0.0;1000.0002;  4.0000001E-01;0.19752525;0;0.0;0.0;0.0;0;-0.00050970161;  1.0000000E+04;  0.0000000E+00;  0.0000000E+00;  1.0000000E+04;  0.0000000E+00;  1.0000000E+04;-0.00028630396;0.0;-0.00022339767;1.0517893
  1.0000000E-01;  9.9999998E-03;  3.8000000E-01;509;0.0;0.0;0.0;1000.0001;  4.0000001E-01;0.098762624;0;0.0;0.0;0.0;0;-0.00028930051;  1.0000000E+04;  0.0000000E+00;  0.0000000E+00;  1.0000000E+04;  0.0000000E+00;  1.0000000E+04;-0.00013954136;0.0;-0.00014975916;0.69848949
  1.0000000E-01;  9.9999998E-03;  4.0000001E-01;510;0.0;0.0;0.0;1000.0001;  4.0000001E-01;0.098762624;0;0.0;0.0;0.0;0;-0.00012866571;  1.0000000E+04;  0.0000000E+00;  0.0000000E+00;  1.0000000E+04;  0.0000000E+00;  1.0000000E+04;-5.6966383e-05;0.0;-7.1699316e-05;0.34018341
  1.2000000E-01;  9.9999998E-03;  3.4000000E-01;517;0.0;0.0;0.0;1000.0007;  4.0000001E-01;0.59257573;0;0.0;0.0;0.0;0;-0.0010960898;  1.0000000E+04;  0.0000000E+00;  0.0000000E+00;  1.0000000E+04;  0.0000000E+00;  1.0000000E+04;-0.00074385235;0.0;-0.00035223746;2.0330894
  1.2000000E-01;  9.9999998E-03;  3.6000001E-01;518;0.0;0.0;0.0;1000.0004;  4.0000001E-01;0.3950505;0;0.0;0.0;0.0;0;-0.00071944797;  1.0000000E+04;  0.0000000E+00;  0.0000000E+00;  1.0000000E+04;  0.0000000E+00;  1.0000000E+04;-0.00042066429;0.0;-0.00029878365;1.4913266
  1.2000000E-01;  9.9999998E-03;  3.8000000E-01;519;0.0;0.0;0.0;1000.0002;  4.0000001E-01;0.19752525;0;0.0;0.0;0.0;0;-0.00040849275;  1.0000000E+04;  0.0000000E+00;  0.0000000E+00;  1.0000000E+04;  0.0000000E+00;  1.0000000E+04;-0.00020808306;0.0;-0.00020040969;1.0017307
  1.2000000E-01;  9.9999998E-03;  4.0000001E-01;520;0.0;0.0;0.0;1000.0001;  4.0000001E-01;0.098762624;0;0.0;0.0;0.0;0;-0.00018213048;  1.0000000E+04;  0.0000000E+00;  0.0000000E+00;  1.0000000E+04;  0.0000000E+00;  1.0000000E+04;-8.6099091e-05;0.0;-9.6031385e-05;0.60001904
  1.4000000E-01;  9.9999998E-03;  3.4000000E-01;527;0.0;0.0;0.0;1000.0011;  4.0000001E-01;0.88886362;0;0.0;0.0;0.0;0;-0.0015988634;  1.0000000E+04;  0.0000000E+00;  0.0000000E+00;  1.0000000E+04;  0.0000000E+00;  1.0000000E+04;-0.0011132185;0.0;-0.00048564491;4.1477728
  1.4000000E-01;  9.9999998E-03;  3.6000001E-01;528;0.0;0.0;0.0;1000.0007;  4.0000001E-01;0.59257573;0;0.0;0.0;0.0;0;-0.0010577583;  1.0000000E+04;  0.0000000E+00;  0.0000000E+00;  1.0000000E+04;  0.0000000E+00;  1.0000000E+04;-0.000644502;0.0;-0.00041325638;2.2158206
  1.4000000E-01;  9.9999998E-03;  3.8000000E-01;529;0.0;0.0;0.0;1000.0004;  4.0000001E-01;0.3950505;0;0.0;0.0;0.0;0;-0.00060431455;  1.0000000E+04;  0.0000000E+00;  0.0000000E+00;  1.0000000E+04;  0.0000000E+00;  1.0000000E+04;-0.00032571808;0.0;-0.00027859648;1.8206021
  1.4000000E-01;  9.9999998E-03;  4.0000001E-01;530;0.0;0.0;0.0;1000.0001;  4.0000001E-01;0.098762624;0;0.0;0.0;0.0;0;-0.00027269134;  1.0000000E+04;  0.0000000E+00;  0.0000000E+00;  1.0000000E+04;  0.0000000E+00;  1.0000000E+04;-0.00013789618;0.0;-0.00013479516;1.6255108
  1.6000000E-01;  9.9999998E-03;  3.4000000E-01;537;0.0;0.0;0.0;1000.0016;  4.0000001E-01;1.2839141;0;0.0;0.0;0.0;0;-0.0023885488;  1.0000000E+04;  0.0000000E+00;  0.0000000E+00;  1.0000000E+04;  0.0000000E+00;  1.0000000E+04;-0.0016887664;0.0;-0.00069978234;9.2722702
  1.6000000E-01;  9.9999998E-03;  3.6000001E-01;538;0.0;0.0;0.0;1000.0011;  4.0000001E-01;0.88886362;0;0.0;0.0;0.0;0;-0.0016003735;  1.0000000E+04;  0.0000000E+00;  0.0000000E+00;  1.0000000E+04;  0.0000000E+00;  1.0000000E+04;-0.0010019686;0.0;-0.00059840491;3.37975
  1.6000000E-01;  9.9999998E-03;  3.8000000E-01;539;0.0;0.0;0.0;1000.0007;  4.0000001E-01;0.59257573;0;0.0;0.0;0.0;0;-0.0009313483;  1.0000000E+04;  0.0000000E+00;  0.0000000E+00;  1.0000000E+04;  0.0000000E+00;  1.0000000E+04;-0.00052066497;0.0;-0.00041068331;4.5034366
  1.6000000E-01;  9.9999998E-03;  4.0000001E-01;540;0.0;0.0;0.0;1000.0002;  4.0000001E-01;0.19752525;0;0.0;0.0;0.0;0;-0.00043567916;  1.0000000E+04;  0.0000000E+00;  0.0000000E+00;  1.0000000E+04;  0.0000000E+00;  1.0000000E+04;-0.00022921906;0.0;-0.0002064601;4.8882823
  1.8000001E-01;  9.9999998E-03;  3.4000000E-01;547;0.0;0.0;0.0;1000.0024;  4.0000001E-01;1.9752525;0;0.0;0.0;0.0;0;-0.0035487935;  1.0000000E+04;  0.0000000E+00;  0.0000000E+00;  1.0000000E+04;  0.0000000E+00;  1.0000000E+04;-0.0024952993;0.0;-0.0010534942;18.893095
  1.8000001E-01;  9.9999998E-03;  3.6000001E-01;548;0.0;0.0;0.0;1000.0016;  4.0000001E-01;1.3826767;0;0.0;0.0;0.0;0;-0.0024136761;  1.0000000E+04;  0.0000000E+00;  0.0000000E+00;  1.0000000E+04;  0.0000000E+00;  1.0000000E+04;-0.0015063733;0.0;-0.00090730283;5.0377045
  1.8000001E-01;  9.9999998E-03;  3.8000000E-01;549;0.0;0.0;0.0;1000.001;  4.0000001E-01;0.79010099;0;0.0;0.0;0.0;0;-0.0014539401;  1.0000000E+04;  0.0000000E+00;  0.0000000E+00;  1.0000000E+04;  0.0000000E+00;  1.0000000E+04;-0.00080704672;0.0;-0.00064689334;11.283209
  1.8000001E-01;  9.9999998E-03;  4.0000001E-01;550;0.0;0.0;0.0;1000.0004;  4.0000001E-01;0.3950505;0;0.0;0.0;0.0;0;-0.00073226326;  1.0000000E+04;  0.0000000E+00;  0.0000000E+00;  1.0000000E+04;  0.0000000E+00;  1.0000000E+04;-0.00037767267;0.0;-0.00035459059;13.186078
  2.0000000E-01;  9.9999998E-03;  3.4000000E-01;556;0.0;0.0;0.0;1000.0036;  4.0000001E-01;2.9628787;0;0.0;0.0;0.0;0;-0.0051019411;  1.0000000E+04;  0.0000000E+00;  0.0000000E+00;  1.0000000E+04;  0.0000000E+00;  1.0000000E+04;-0.0034704376;0.0;-0.0016315033;32.020493
  2.0000000E-01;  9.9999998E-03;  3.6000001E-01;557;0.0;0.0;0.0;1000.0024;  4.0000001E-01;1.9752525;0;0.0;0.0;0.0;0;-0.0035330909;  1.0000000E+04;  0.0000000E+00;  0.0000000E+00;  1.0000000E+04;  0.0000000E+00;  1.0000000E+04;-0.0021119628;0.0;-0.0014211281;7.6814518
  2.0000000E-01;  9.9999998E-03;  3.8000000E-01;558;0.0;0.0;0.0;1000.0016;  4.0000001E-01;1.2839141;0;0.0;0.0;0.0;0;-0.0022365132;  1.0000000E+04;  0.0000000E+00;  0.0000000E+00;  1.0000000E+04;  0.0000000E+00;  1.0000000E+04;-0.0011639326;0.0;-0.0010725806;23.895878
  1.9200000E+00;  9.9999998E-03; -3.6000001E-01;559;0.0;0.0;0.0;1000.0;  4.0000001E-01;0.0;0;0.0;0.0;0.0;0;0.0;  1.0000000E+04;  0.0000000E+00;  0.0000000E+00;  1.0000000E+04;  0.0000000E+00;  1.0000000E+04;0.0;0.0;0.0;0.0
  1.9200000E+00;  9.9999998E-03; -3.4000000E-01;560;0.0;0.0;0.0;1000.0;  4.0000001E-01;0.0;0;0.0;0.0;0.0;0;0.0;  1.0000000E+04;  0.0000000E+00;  0.0000000E+00;  1.0000000E+04;  0.0000000E+00;  1.0000000E+04;0.0;0.0;0.0;0.0
  1.9200000E+00;  9.9999998E-03; -3.1999999E-01;561;0.0;0.0;0.0;1000.0;  4.0000001E-01;0.0;0;0.0;0.0;0.0;0;0.0;  1.0000000E+04;  0.0000000E+00;  0.0000000E+00;  1.0000000E+04;  0.0000000E+00;  1.0000000E+04;0.0;0.0;0.0;0.0
  1.9400001E+00;  9.9999998E-03; -3.8000000E-01;562;0.0;0.0;0.0;1000.0;  4.0000001E-01;0.0;0;0.0;0.0;0.0;0;0.0;  1.0000000E+04;  0.0000000E+00;  0.0000000E+00;  1.0000000E+04;  0.0000000E+00;  1.0000000E+04;0.0;0.0;0.0;0.0
  1.9400001E+00;  9.9999998E-03; -3.6000001E-01;563;0.0;0.0;0.0;1000.0;  4.0000001E-01;0.0;0;0.0;0.0;0.0;0;0.0;  1.0000000E+04;  0.0000000E+00;  0.0000000E+00;  1.0000000E+04;  0.0000000E+00;  1.0000000E+04;0.0;0.0;0.0;0.0
  1.9400001E+00;  9.9999998E-03; -3.4000000E-01;564;0.0;0.0;0.0;1000.0;  4.0000001E-01;0.0;0;0.0;0.0;0.0;0;0.0;  1.0000000E+04;  0.0000000E+00;  0.0000000E+00;  1.0000000E+04;  0.0000000E+00;  1.0000000E+04;0.0;0.0;0.0;0.0
  1.9400001E+00;  9.9999998E-03; -3.1999999E-01;565;0.0;0.0;0.0;1000.0;  4.0000001E-01;0.0;0;0.0;0.0;0.0;0;0.0;  1.0000000E+04;  0.0000000E+00;  0.0000000E+00;  1.0000000E+04;  0.0000000E+00;  1.0000000E+04;0.0;0.0;0.0;0.0
  1.9400001E+00;  9.9999998E-03; -3.0000001E-01;566;0.0;0.0;0.0;1000.0;  4.0000001E-01;0.0;0;0.0;0.0;0.0;0;0.0;  1.0000000E+04;  0.0000000E+00;  0.0000000E+00;  1.0000000E+04;  0.0000000E+00;  1.0000000E+04;0.0;0.0;0.0;0.0
  1.9400001E+00;  9.9999998E-03; -2.8000000E-01;567;0.0;0.0;0.0;1000.0;  4.0000001E-01;0.0;0;0.0;0.0;0.0;0;0.0;  1.0000000E+04;  0.0000000E+00;  0.0000000E+00;  1.0000000E+04;  0.0000000E+00;  1.0000000E+04;0.0;0.0;0.0;0.0
  1.9400001E+00;  9.9999998E-03; -2.5999999E-01;568;0.0;0.0;0.0;1000.0;  4.0000001E-01;0.0;0;0.0;0.0;0.0;0;0.0;  1.0000000E+04;  0.0000000E+00;  0.0000000E+00;  1.0000000E+04;  0.0000000E+00;  1.0000000E+04;0.0;0.0;0.0;0.0
  1.9400001E+00;  9.9999998E-03; -2.3999999E-01;569;0.0;0.0;0.0;1000.0;  4.0000001E-01;0.0;0;0.0;0.0;0.0;0;0.0;  1.0000000E+04;  0.0000000E+00;  0.0000000E+00;  1.0000000E+04;  0.0000000E+00;  1.0000000E+04;0.0;0.0;0.0;0.0
  1.9400001E+00;  9.9999998E-03; -2.2000000E-01;570;0.0;0.0;0.0;1000.0;  4.0000001E-01;0.0;0;0.0;0.0;0.0;0;0.0;  1.0000000E+04;  0.0000000E+00;  0.0000000E+00;  1.0000000E+04;  0.0000000E+00;  1.0000000E+04;0.0;0.0;0.0;0.0
  1.9600000E+00;  9.9999998E-03; -3.8000000E-01;571;0.0;0.0;0.0;1000.0;  4.0000001E-01;0.0;0;0.0;0.0;0.0;0;0.0;  1.0000000E+04;  0.0000000E+00;  0.0000000E+00;  1.0000000E+04;  0.0000000E+00;  1.0000000E+04;0.0;0.0;0.0;0.0
  1.9600000E+00;  9.9999998E-03; -3.6000001E-01;572;0.0;0.0;0.0;1000.0;  4.0000001E-01;0.0;0;0.0;0.0;0.0;0;0.0;  1.0000000E+04;  0.0000000E+00;  0.0000000E+00;  1.0000000E+04;  0.0000000E+00;  1.0000000E+04;0.0;0.0;0.0;0.0
  1.9600000E+00;  9.9999998E-03; -3.4000000E-01;573;0.0;0.0;0.0;1000.0;  4.0000001E-01;0.0;0;0.0;0.0;0.0;0;0.0;  1.0000000E+04;  0.0000000E+00;  0.0000000E+00;  1.0000000E+04;  0.0000000E+00;  1.0000000E+04;0.0;0.0;0.0;0.0
  1.9600000E+00;  9.9999998E-03; -3.1999999E-01;574;0.0;0.0;0.0;1000.0;  4.0000001E-01;0.0;0;0.0;0.0;0.0;0;0.0;  1.0000000E+04;  0.0000000E+00;  0.0000000E+00;  1.0000000E+04;  0.0000000E+00;  1.0000000E+04;0.0;0.0;0.0;0.0
  1.9600000E+00;  9.9999998E-03; -3.0000001E-01;575;0.0;0.0;0.0;1000.0;  4.0000001E-01;0.0;0;0.0;0.0;0.0;0;0.0;  1.0000000E+04;  0.0000000E+00;  0.0000000E+00;  1.0000000E+04;  0.0000000E+00;  1.0000000E+04;0.0;0.0;0.0;0.0
  1.9600000E+00;  9.9999998E-03; -2.8000000E-01;576;0.0;0.0;0.0;1000.0;  4.0000001E-01;0.0;0;0.0;0.0;0.0;0;0.0;  1.0000000E+04;  0.0000000E+00;  0.0000000E+00;  1.0000000E+04;  0.0000000E+00;  1.0000000E+04;0.0;0.0;0.0;0.0
  1.9600000E+00;  9.9999998E-03; -2.5999999E-01;577;0.0;0.0;0.0;1000.0;  4.0000001E-01;0.0;0;0.0;0.0;0.0;0;0.0;  1.0000000E+04;  0.0000000E+00;  0.0000000E+00;  1.0000000E+04;  0.0000000E+00;  1.0000000E+04;0.0;0.0;0.0;0.0
  1.9600000E+00;  9.9999998E-03; -2.3999999E-01;578;0.0;0.0;0.0;1000.0;  4.0000001E-01;0.0;0;0.0;0.0;0.0;0;0.0;  1.0000000E+04;  0.0000000E+00;  0.0000000E+00;  1.0000000E+04;  0.0000000E+00;  1.0000000E+04;0.0;0.0;0.0;0.0
  1.9600000E+00;  9.9999998E-03; -2.2000000E-01;579;0.0;0.0;0.0;1000.0;  4.0000001E-01;0.0;0;0.0;0.0;0.0;0;0.0;  1.0000000E+04;  0.0000000E+00;  0.0000000E+00;  1.0000000E+04;  0.0000000E+00;  1.0000000E+04;0.0;0.0;0.0;0.0
  1.9600000E+00;  9.9999998E-03; -2.0000000E-01;580;0.0;0.0;0.0;1000.0;  4.0000001E-01;0.0;0;0.0;0.0;0.0;0;0.0;  1.0000000E+04;  0.0000000E+00;  0.0000000E+00;  1.0000000E+04;  0.0000000E+00;  1.0000000E+04;0.0;0.0;0.0;0.0
  1.9600000E+00;  9.9999998E-03; -1.8000001E-01;581;0.0;0.0;0.0;1000.0;  4.0000001E-01;0.0;0;0.0;0.0;0.0;0;0.0;  1.0000000E+04;  0.0000000E+00;  0.0000000E+00;  1.0000000E+04;  0.0000000E+00;  1.0000000E+04;0.0;0.0;0.0;0.0
  1.9600000E+00;  9.9999998E-03; -1.6000000E-01;582;0.0;0.0;0.0;1000.0;  4.0000001E-01;0.0;0;0.0;0.0;0.0;0;0.0;  1.0000000E+04;  0.0000000E+00;  0.0000000E+00;  1.0000000E+04;  0.0000000E+00;  1.0000000E+04;0.0;0.0;0.0;0.0
  1.9600000E+00;  9.9999998E-03; -1.4000000E-01;583;0.0;0.0;0.0;1000.0;  4.0000001E-01;0.0;0;0.0;0.0;0.0;0;0.0;  1.0000000E+04;  0.0000000E+00;  0.0000000E+00;  1.0000000E+04;  0.0000000E+00;  1.0000000E+04;0.0;0.0;0.0;0.0
  1.9600000E+00;  9.9999998E-03; -1.2000000E-01;584;0.0;0.0;0.0;1000.0;  4.0000001E-01;0.0;0;0.0;0.0;0.0;0;0.0;  1.0000000E+04;  0.0000000E+00;  0.0000000E+00;  1.0000000E+04;  0.0000000E+00;  1.0000000E+04;0.0;0.0;0.0;0.0
  1.9800000E+00;  9.9999998E-03; -3.8000000E-01;585;0.0;0.0;0.0;1000.0;  4.0000001E-01;0.0;0;0.0;0.0;0.0;0;0.0;  1.0000000E+04;  0.0000000E+00;  0.0000000E+00;  1.0000000E+04;  0.0000000E+00;  1.0000000E+04;0.0;0.0;0.0;0.0
  1.9800000E+00;  9.9999998E-03; -3.6000001E-01;586;0.0;0.0;0.0;1000.0;  4.0000001E-01;0.0;0;0.0;0.0;0.0;0;0.0;  1.0000000E+04;  0.0000000E+00;  0.0000000E+00;  1.0000000E+04;  0.0000000E+00;  1.0000000E+04;0.0;0.0;0.0;0.0
  1.9800000E+00;  9.9999998E-03; -3.4000000E-01;587;0.0;0.0;0.0;1000.0;  4.0000001E-01;0.0;0;0.0;0.0;0.0;0;0.0;  1.0000000E+04;  0.0000000E+00;  0.0000000E+00;  1.0000000E+04;  0.0000000E+00;  1.0000000E+04;0.0;0.0;0.0;0.0
  1.9800000E+00;  9.9999998E-03; -3.1999999E-01;588;0.0;0.0;0.0;1000.0;  4.0000001E-01;0.0;0;0.0;0.0;0.0;0;0.0;  1.0000000E+04;  0.0000000E+00;  0.0000000E+00;  1.0000000E+04;  0.0000000E+00;  1.0000000E+04;0.0;0.0;0.0;0.0
  1.9800000E+00;  9.9999998E-03; -3.0000001E-01;589;0.0;0.0;0.0;1000.0;  4.0000001E-01;0.0;0;0.0;0.0;0.0;0;0.0;  1.0000000E+04;  0.0000000E+00;  0.0000000E+00;  1.0000000E+04;  0.0000000E+00;  1.0000000E+04;0.0;0.0;0.0;0.0
  1.9800000E+00;  9.9999998E-03; -2.8000000E-01;590;0.0;0.0;0.0;1000.0;  4.0000001E-01;0.0;0;0.0;0.0;0.0;0;0.0;  1.0000000E+04;  0.0000000E+00;  0.0000000E+00;  1.0000000E+04;  0.0000000E+00;  1.0000000E+04;0.0;0.0;0.0;0.0
  1.9800000E+00;  9.9999998E-03; -2.5999999E-01;591;0.0;0.0;0.0;1000.0;  4.0000001E-01;0.0;0;0.0;0.0;0.0;0;0.0;  1.0000000E+04;  0.0000000E+00;  0.0000000E+00;  1.0000000E+04;  0.0000000E+00;  1.0000000E+04;0.0;0.0;0.0;0.0
  1.9800000E+00;  9.9999998E-03; -2.3999999E-01;592;0.0;0.0;0.0;1000.0;  4.0000001E-01;0.0;0;0.0;0.0;0.0;0;0.0;  1.0000000E+04;  0.0000000E+00;  0.0000000E+00;  1.0000000E+04;  0.0000000E+00;  1.0000000E+04;0.0;0.0;0.0;0.0
  1.9800000E+00;  9.9999998E-03; -2.2000000E-01;593;0.0;0.0;0.0;1000.0;  4.0000001E-01;0.0;0;0.0;0.0;0.0;0;0.0;  1.0000000E+04;  0.0000000E+00;  0.0000000E+00;  1.0000000E+04;  0.0000000E+00;  1.0000000E+04;0.0;0.0;0.0;0.0
  1.9800000E+00;  9.9999998E-03; -2.0000000E-01;594;0.0;0.0;0.0;1000.0;  4.0000001E-01;0.0;0;0.0;0.0;0.0;0;0.0;  1.0000000E+04;  0.0000000E+00;  0.0000000E+00;  1.0000000E+04;  0.0000000E+00;  1.0000000E+04;0.0;0.0;0.0;0.0
  1.9800000E+00;  9.9999998E-03; -1.8000001E-01;595;0.0;0.0;0.0;1000.0;  4.0000001E-01;0.0;0;0.0;0.0;0.0;0;0.0;  1.0000000E+04;  0.0000000E+00;  0.0000000E+00;  1.0000000E+04;  0.0000000E+00;  1.0000000E+04;0.0;0.0;0.0;0.0
  1.9800000E+00;  9.9999998E-03; -1.6000000E-01;596;0.0;0.0;0.0;1000.0;  4.0000001E-01;0.0;0;0.0;0.0;0.0;0;0.0;  1.0000000E+04;  0.0000000E+00;  0.0000000E+00;  1.0000000E+04;  0.0000000E+00;  1.0000000E+04;0.0;0.0;0.0;0.0
  1.9800000E+00;  9.9999998E-03; -1.4000000E-01;597;0.0;0.0;0.0;1000.0;  4.0000001E-01;0.0;0;0.0;0.0;0.0;0;0.0;  1.0000000E+04;  0.0000000E+00;  0.0000000E+00;  1.0000000E+04;  0.0000000E+00;  1.0000000E+04;0.0;0.0;0.0;0.0
  1.9800000E+00;  9.9999998E-03; -1.2000000E-01;598;0.0;0.0;0.0;1000.0;  4.0000001E-01;0.0;0;0.0;0.0;0.0;0;0.0;  1.0000000E+04;  0.0000000E+00;  0.0000000E+00;  1.0000000E+04;  0.0000000E+00;  1.0000000E+04;0.0;0.0;0.0;0.0
  1.9800000E+00;  9.9999998E-03; -1.0000000E-01;599;0.0;0.0;0.0;1000.0;  4.0000001E-01;0.0;0;0.0;0.0;0.0;0;0.0;  1.0000000E+04;  0.0000000E+00;  0.0000000E+00;  1.0000000E+04;  0.0000000E+00;  1.0000000E+04;0.0;0.0;0.0;0.0
  1.9800000E+00;  9.9999998E-03; -7.9999998E-02;600;0.0;0.0;0.0;1000.0;  4.0000001E-01;0.0;0;0.0;0.0;0.0;0;0.0;  1.0000000E+04;  0.0000000E+00;  0.0000000E+00;  1.0000000E+04;  0.0000000E+00;  1.0000000E+04;0.0;0.0;0.0;0.0
  1.9800000E+00;  9.9999998E-03; -5.9999999E-02;601;0.0;0.0;0.0;1000.0;  4.0000001E-01;0.0;0;0.0;0.0;0.0;0;0.0;  1.0000000E+04;  0.0000000E+00;  0.0000000E+00;  1.0000000E+04;  0.0000000E+00;  1.0000000E+04;0.0;0.0;0.0;0.0
  1.9800000E+00;  9.9999998E-03; -3.9999999E-02;602;0.0;0.0;0.0;1000.0;  4.0000001E-01;0.0;0;0.0;0.0;0.0;0;0.0;  1.0000000E+04;  0.0000000E+00;  0.0000000E+00;  1.0000000E+04;  0.0000000E+00;  1.0000000E+04;0.0;0.0;0.0;0.0
  1.9800000E+00;  9.9999998E-03; -2.0000000E-02;603;0.0;0.0;0.0;1000.0;  4.0000001E-01;0.0;0;0.0;0.0;0.0;0;0.0;  1.0000000E+04;  0.0000000E+00;  0.0000000E+00;  1.0000000E+04;  0.0000000E+00;  1.0000000E+04;0.0;0.0;0.0;0.0
  2.0000000E+00;  9.9999998E-03; -3.8000000E-01;604;0.0;0.0;0.0;1000.0;  4.0000001E-01;0.0;0;0.0;0.0;0.0;0;0.0;  1.0000000E+04;  0.0000000E+00;  0.0000000E+00;  1.0000000E+04;  0.0000000E+00;  1.0000000E+04;0.0;0.0;0.0;0.0
  2.0000000E+00;  9.9999998E-03; -3.6000001E-01;605;0.0;0.0;0.0;1000.0;  4.0000001E-01;0.0;0;0.0;0.0;0.0;0;0.0;  1.0000000E+04;  0.0000000E+00;  0.0000000E+00;  1.0000000E+04;  0.0000000E+00;  1.0000000E+04;0.0;0.0;0.0;0.0
  2.0000000E+00;  9.9999998E-03; -3.4000000E-01;606;0.0;0.0;0.0;1000.0;  4.0000001E-01;0.0;0;0.0;0.0;0.0;0;0.0;  1.0000000E+04;  0.0000000E+00;  0.0000000E+00;  1.0000000E+04;  0.0000000E+00;  1.0000000E+04;0.0;0.0;0.0;0.0
  2.0000000E+00;  9.9999998E-03; -3.1999999E-01;607;0.0;0.0;0.0;1000.0;  4.0000001E-01;0.0;0;0.0;0.0;0.0;0;0.0;  1.0000000E+04;  0.0000000E+00;  0.0000000E+00;  1.0000000E+04;  0.0000000E+00;  1.0000000E+04;0.0;0.0;0.0;0.0
  2.0000000E+00;  9.9999998E-03; -3.0000001E-01;608;0.0;0.0;0.0;1000.0;  4.0000001E-01;0.0;0;0.0;0.0;0.0;0;0.0;  1.0000000E+04;  0.0000000E+00;  0.0000000E+00;  1.0000000E+04;  0.0000000E+00;  1.0000000E+04;0.0;0.0;0.0;0.0
  2.0000000E+00;  9.9999998E-03; -2.8000000E-01;609;0.0;0.0;0.0;1000.0;  4.0000001E-01;0.0;0;0.0;0.0;0.0;0;0.0;  1.0000000E+04;  0.0000000E+00;  0.0000000E+00;  1.0000000E+04;  0.0000000E+00;  1.0000000E+04;0.0;0.0;0.0;0.0
  2.0000000E+00;  9.9999998E-03; -2.5999999E-01;610;0.0;0.0;0.0;1000.0;  4.0000001E-01;0.0;0;0.0;0.0;0.0;0;0.0;  1.0000000E+04;  0.0000000E+00;  0.0000000E+00;  1.0000000E+04;  0.0000000E+00;  1.0000000E+04;0.0;0.0;0.0;0.0
  2.0000000E+00;  9.9999998E-03; -2.3999999E-01;611;0.0;0.0;0.0;1000.0;  4.0000001E-01;0.0;0;0.0;0.0;0.0;0;0.0;  1.0000000E+04;  0.0000000E+00;  0.0000000E+00;  1.0000000E+04;  0.0000000E+00;  1.0000000E+04;0.0;0.0;0.0;0.0
  2.0000000E+00;  9.9999998E-03; -2.2000000E-01;612;0.0;0.0;0.0;1000.0;  4.0000001E-01;0.0;0;0.0;0.0;0.0;0;0.0;  1.0000000E+04;  0.0000000E+00;  0.0000000E+00;  1.0000000E+04;  0.0000000E+00;  1.0000000E+04;0.0;0.0;0.0;0.0
  2.0000000E+00;  9.9999998E-03; -2.0000000E-01;613;0.0;0.0;0.0;1000.0;  4.0000001E-01;0.0;0;0.0;0.0;0.0;0;0.0;  1.0000000E+04;  0.0000000E+00;  0.0000000E+00;  1.0000000E+04;  0.0000000E+00;  1.0000000E+04;0.0;0.0;0.0;0.0
  2.0000000E+00;  9.9999998E-03; -1.8000001E-01;614;0.0;0.0;0.0;1000.0;  4.0000001E-01;0.0;0;0.0;0.0;0.0;0;0.0;  1.0000000E+04;  0.0000000E+00;  0.0000000E+00;  1.0000000E+04;  0.0000000E+00;  1.0000000E+04;0.0;0.0;0.0;0.0
  2.0000000E+00;  9.9999998E-03; -1.6000000E-01;615;0.0;0.0;0.0;1000.0;  4.0000001E-01;0.0;0;0.0;0.0;0.0;0;0.0;  1.0000000E+04;  0.0000000E+00;  0.0000000E+00;  1.0000000E+04;  0.0000000E+00;  1.0000000E+04;0.0;0.0;0.0;0.0
  2.0000000E+00;  9.9999998E-03; -1.4000000E-01;616;0.0;0.0;0.0;1000.0;  4.0000001E-01;0.0;0;0.0;0.0;0.0;0;0.0;  1.0000000E+04;  0.0000000E+00;  0.0000000E+00;  1.0000000E+04;  0.0000000E+00;  1.0000000E+04;0.0;0.0;0.0;0.0
  2.0000000E+00;  9.9999998E-03; -1.2000000E-01;617;0.0;0.0;0.0;1000.0;  4.0000001E-01;0.0;0;0.0;0.0;0.0;0;0.0;  1.0000000E+04;  0.0000000E+00;  0.0000000E+00;  1.0000000E+04;  0.0000000E+00;  1.0000000E+04;0.0;0.0;0.0;0.0
  2.0000000E+00;  9.9999998E-03; -1.0000000E-01;618;0.0;0.0;0.0;1000.0;  4.0000001E-01;0.0;0;0.0;0.0;0.0;0;0.0;  1.0000000E+04;  0.0000000E+00;  0.0000000E+00;  1.0000000E+04;  0.0000000E+00;  1.0000000E+04;0.0;0.0;0.0;0.0
  2.0000000E+00;  9.9999998E-03; -7.9999998E-02;619;0.0;0.0;0.0;1000.0;  4.0000001E-01;0.0;0;0.0;0.0;0.0;0;0.0;  1.0000000E+04;  0.0000000E+00;  0.0000000E+00;  1.0000000E+04;  0.0000000E+00;  1.0000000E+04;0.0;0.0;0.0;0.0
  2.0000000E+00;  9.9999998E-03; -5.9999999E-02;620;0.0;0.0;0.0;1000.0;  4.0000001E-01;0.0;0;0.0;0.0;0.0;0;0.0;  1.0000000E+04;  0.0000000E+00;  0.0000000E+00;  1.0000000E+04;  0.0000000E+00;  1.0000000E+04;0.0;0.0;0.0;0.0
  2.0000000E+00;  9.9999998E-03; -3.9999999E-02;621;0.0;0.0;0.0;1000.0;  4.0000001E-01;0.0;0;0.0;0.0;0.0;0;0.0;  1.0000000E+04;  0.0000000E+00;  0.0000000E+00;  1.0000000E+04;  0.0000000E+00;  1.0000000E+04;0.0;0.0;0.0;0.0
  2.0000000E+00;  9.9999998E-03; -2.0000000E-02;622;0.0;0.0;0.0;1000.0;  4.0000001E-01;0.0;0;0.0;0.0;0.0;0;0.0;  1.0000000E+04;  0.0000000E+00;  0.0000000E+00;  1.0000000E+04;  0.0000000E+00;  1.0000000E+04;0.0;0.0;0.0;0.0
  2.0000000E+00;  9.9999998E-03;  0.0000000E+00;623;0.0;0.0;0.0;1000.0;  4.0000001E-01;0.0;0;0.0;0.0;0.0;0;0.0;  1.0000000E+04;  0.0000000E+00;  0.0000000E+00;  1.0000000E+04;  0.0000000E+00;  1.0000000E+04;0.0;0.0;0.0;0.0
  2.0000000E+00;  9.9999998E-03;  2.0000000E-02;624;0.0;0.0;0.0;1000.0;  4.0000001E-01;0.0;0;0.0;0.0;0.0;0;0.0;  1.0000000E+04;  0.0000000E+00;  0.0000000E+00;  1.0000000E+04;  0.0000000E+00;  1.0000000E+04;0.0;0.0;0.0;0.0
  2.0000000E+00;  9.9999998E-03;  3.9999999E-02;625;0.0;0.0;0.0;1000.0;  4.0000001E-01;0.0;0;0.0;0.0;0.0;0;0.0;  1.0000000E+04;  0.0000000E+00;  0.0000000E+00;  1.0000000E+04;  0.0000000E+00;  1.0000000E+04;0.0;0.0;0.0;0.0
  2.0000000E+00;  9.9999998E-03;  5.9999999E-02;626;0.0;0.0;0.0;1000.0;  4.0000001E-01;0.0;0;0.0;0.0;0.0;0;0.0;  1.0000000E+04;  0.0000000E+00;  0.0000000E+00;  1.0000000E+04;  0.0000000E+00;  1.0000000E+04;0.0;0.0;0.0;0.0
  2.0000000E+00;  9.9999998E-03;  7.9999998E-02;627;0.0;0.0;0.0;1000.0;  4.0000001E-01;0.0;0;0.0;0.0;0.0;0;0.0;  1.0000000E+04;  0.0000000E+00;  0.0000000E+00;  1.0000000E+04;  0.0000000E+00;  1.0000000E+04;0.0;0.0;0.0;0.0
  2.0200000E+00;  9.9999998E-03; -4.0000001E-01;628;0.0;0.0;0.0;1000.0;  4.0000001E-01;0.0;0;0.0;0.0;0.0;0;0.0;  1.0000000E+04;  0.0000000E+00;  0.0000000E+00;  1.0000000E+04;  0.0000000E+00;  1.0000000E+04;0.0;0.0;0.0;0.0
  2.0200000E+00;  9.9999998E-03; -3.8000000E-01;629;0.0;0.0;0.0;1000.0;  4.0000001E-01;0.0;0;0.0;0.0;0.0;0;0.0;  1.0000000E+04;  0.0000000E+00;  0.0000000E+00;  1.0000000E+04;  0.0000000E+00;  1.0000000E+04;0.0;0.0;0.0;0.0
  2.0200000E+00;  9.9999998E-03; -3.6000001E-01;630;0.0;0.0;0.0;1000.0;  4.0000001E-01;0.0;0;0.0;0.0;0.0;0;0.0;  1.0000000E+04;  0.0000000E+00;  0.0000000E+00;  1.0000000E+04;  0.0000000E+00;  1.0000000E+04;0.0;0.0;0.0;0.0
  2.0200000E+00;  9.9999998E-03; -3.4000000E-01;631;0.0;0.0;0.0;1000.0;  4.0000001E-01;0.0;0;0.0;0.0;0.0;0;0.0;  1.0000000E+04;  0.0000000E+00;  0.0000000E+00;  1.0000000E+04;  0.0000000E+00;  1.0000000E+04;0.0;0.0;0.0;0.0
  2.0200000E+00;  9.9999998E-03; -3.1999999E-01;632;0.0;0.0;0.0;1000.0;  4.0000001E-01;0.0;0;0.0;0.0;0.0;0;0.0;  1.0000000E+04;  0.0000000E+00;  0.0000000E+00;  1.0000000E+04;  0.0000000E+00;  1.0000000E+04;0.0;0.0;0.0;0.0
  2.0200000E+00;  9.9999998E-03; -3.0000001E-01;633;0.0;0.0;0.0;1000.0;  4.0000001E-01;0.0;0;0.0;0.0;0.0;0;0.0;  1.0000000E+04;  0.0000000E+00;  0.0000000E+00;  1.0000000E+04;  0.0000000E+00;  1.0000000E+04;0.0;0.0;0.0;0.0
  2.0200000E+00;  9.9999998E-03; -2.8000000E-01;634;0.0;0.0;0.0;1000.0;  4.0000001E-01;0.0;0;0.0;0.0;0.0;0;0.0;  1.0000000E+04;  0.0000000E+00;  0.0000000E+00;  1.0000000E+04;  0.0000000E+00;  1.0000000E+04;0.0;0.0;0.0;0.0
  2.0200000E+00;  9.9999998E-03; -2.5999999E-01;635;0.0;0.0;0.0;1000.0;  4.0000001E-01;0.0;0;0.0;0.0;0.0;0;0.0;  1.0000000E+04;  0.0000000E+00;  0.0000000E+00;  1.0000000E+04;  0.0000000E+00;  1.0000000E+04;0.0;0.0;0.0;0.0
  2.0200000E+00;  9.9999998E-03; -2.3999999E-01;636;0.0;0.0;0.0;1000.0;  4.0000001E-01;0.0;0;0.0;0.0;0.0;0;0.0;  1.0000000E+04;  0.0000000E+00;  0.0000000E+00;  1.0000000E+04;  0.0000000E+00;  1.0000000E+04;0.0;0.0;0.0;0.0
  2.0200000E+00;  9.9999998E-03; -2.2000000E-01;637;0.0;0.0;0.0;1000.0;  4.0000001E-01;0.0;0;0.0;0.0;0.0;0;0.0;  1.0000000E+04;  0.0000000E+00;  0.0000000E+00;  1.0000000E+04;  0.0000000E+00;  1.0000000E+04;0.0;0.0;0.0;0.0
  2.0200000E+00;  9.9999998E-03; -2.0000000E-01;638;0.0;0.0;0.0;1000.0;  4.0000001E-01;0.0;0;0.0;0.0;0.0;0;0.0;  1.0000000E+04;  0.0000000E+00;  0.0000000E+00;  1.0000000E+04;  0.0000000E+00;  1.0000000E+04;0.0;0.0;0.0;0.0
  2.0200000E+00;  9.9999998E-03; -1.8000001E-01;639;0.0;0.0;0.0;1000.0;  4.0000001E-01;0.0;0;0.0;0.0;0.0;0;0.0;  1.0000000E+04;  0.0000000E+00;  0.0000000E+00;  1.0000000E+04;  0.0000000E+00;  1.0000000E+04;0.0;0.0;0.0;0.0
  2.0200000E+00;  9.9999998E-03; -1.6000000E-01;640;0.0;0.0;0.0;1000.0;  4.0000001E-01;0.0;0;0.0;0.0;0.0;0;0.0;  1.0000000E+04;  0.0000000E+00;  0.0000000E+00;  1.0000000E+04;  0.0000000E+00;  1.0000000E+04;0.0;0.0;0.0;0.0
  2.0200000E+00;  9.9999998E-03; -1.4000000E-01;641;0.0;0.0;0.0;1000.0;  4.0000001E-01;0.0;0;0.0;0.0;0.0;0;0.0;  1.0000000E+04;  0.0000000E+00;  0.0000000E+00;  1.0000000E+04;  0.0000000E+00;  1.0000000E+04;0.0;0.0;0.0;0.0
  2.0200000E+00;  9.9999998E-03; -1.2000000E-01;642;0.0;0.0;0.0;1000.0;  4.0000001E-01;0.0;0;0.0;0.0;0.0;0;0.0;  1.0000000E+04;  0.0000000E+00;  0.0000000E+00;  1.0000000E+04;  0.0000000E+00;  1.0000000E+04;0.0;0.0;0.0;0.0
  2.0200000E+00;  9.9999998E-03; -1.0000000E-01;643;0.0;0.0;0.0;1000.0;  4.0000001E-01;0.0;0;0.0;0.0;0.0;0;0.0;  1.0000000E+04;  0.0000000E+00;  0.0000000E+00;  1.0000000E+04;  0.0000000E+00;  1.0000000E+04;0.0;0.0;0.0;0.0
  2.0200000E+00;  9.9999998E-03; -7.9999998E-02;644;0.0;0.0;0.0;1000.0;  4.0000001E-01;0.0;0;0.0;0.0;0.0;0;0.0;  1.0000000E+04;  0.0000000E+00;  0.0000000E+00;  1.0000000E+04;  0.0000000E+00;  1.0000000E+04;0.0;0.0;0.0;0.0
  2.0200000E+00;  9.9999998E-03; -5.9999999E-02;645;0.0;0.0;0.0;1000.0;  4.0000001E-01;0.0;0;0.0;0.0;0.0;0;0.0;  1.0000000E+04;  0.0000000E+00;  0.0000000E+00;  1.0000000E+04;  0.0000000E+00;  1.0000000E+04;0.0;0.0;0.0;0.0
  2.0200000E+00;  9.9999998E-03; -3.9999999E-02;646;0.0;0.0;0.0;1000.0;  4.0000001E-01;0.0;0;0.0;0.0;0.0;0;0.0;  1.0000000E+04;  0.0000000E+00;  0.0000000E+00;  1.0000000E+04;  0.0000000E+00;  1.0000000E+04;0.0;0.0;0.0;0.0
  2.0200000E+00;  9.9999998E-03; -2.0000000E-02;647;0.0;0.0;0.0;1000.0;  4.0000001E-01;0.0;0;0.0;0.0;0.0;0;0.0;  1.0000000E+04;  0.0000000E+00;  0.0000000E+00;  1.0000000E+04;  0.0000000E+00;  1.0000000E+04;0.0;0.0;0.0;0.0
  2.0200000E+00;  9.9999998E-03;  0.0000000E+00;648;0.0;0.0;0.0;1000.0;  4.0000001E-01;0.0;0;0.0;0.0;0.0;0;0.0;  1.0000000E+04;  0.0000000E+00;  0.0000000E+00;  1.0000000E+04;  0.0000000E+00;  1.0000000E+04;0.0;0.0;0.0;0.0
  2.0200000E+00;  9.9999998E-03;  2.0000000E-02;649;0.0;0.0;0.0;1000.0;  4.0000001E-01;0.0;0;0.0;0.0;0.0;0;0.0;  1.0000000E+04;  0.0000000E+00;  0.0000000E+00;  1.0000000E+04;  0.0000000E+00;  1.0000000E+04;0.0;0.0;0.0;0.0
  2.0200000E+00;  9.9999998E-03;  3.9999999E-02;650;0.0;0.0;0.0;1000.0;  4.0000001E-01;0.0;0;0.0;0.0;0.0;0;0.0;  1.0000000E+04;  0.0000000E+00;  0.0000000E+00;  1.0000000E+04;  0.0000000E+00;  1.0000000E+04;0.0;0.0;0.0;0.0
  2.0200000E+00;  9.9999998E-03;  5.9999999E-02;651;0.0;0.0;0.0;1000.0;  4.0000001E-01;0.0;0;0.0;0.0;0.0;0;0.0;  1.0000000E+04;  0.0000000E+00;  0.0000000E+00;  1.0000000E+04;  0.0000000E+00;  1.0000000E+04;0.0;0.0;0.0;0.0
  2.0200000E+00;  9.9999998E-03;  7.9999998E-02;652;0.0;0.0;0.0;1000.0;  4.0000001E-01;0.0;0;0.0;0.0;0.0;0;0.0;  1.0000000E+04;  0.0000000E+00;  0.0000000E+00;  1.0000000E+04;  0.0000000E+00;  1.0000000E+04;0.0;0.0;0.0;0.0
  2.0200000E+00;  9.9999998E-03;  1.0000000E-01;653;0.0;0.0;0.0;1000.0;  4.0000001E-01;0.0;0;0.0;0.0;0.0;0;0.0;  1.0000000E+04;  0.0000000E+00;  0.0000000E+00;  1.0000000E+04;  0.0000000E+00;  1.0000000E+04;0.0;0.0;0.0;0.0
  2.0200000E+00;  9.9999998E-03;  1.2000000E-01;654;0.0;0.0;0.0;1000.0;  4.0000001E-01;0.0;0;0.0;0.0;0.0;0;0.0;  1.0000000E+04;  0.0000000E+00;  0.0000000E+00;  1.0000000E+04;  0.0000000E+00;  1.0000000E+04;0.0;0.0;0.0;0.0
  2.0200000E+00;  9.9999998E-03;  1.4000000E-01;655;0.0;0.0;0.0;1000.0;  4.0000001E-01;0.0;0;0.0;0.0;0.0;0;0.0;  1.0000000E+04;  0.0000000E+00;  0.0000000E+00;  1.0000000E+04;  0.0000000E+00;  1.0000000E+04;0.0;0.0;0.0;0.0
  2.0200000E+00;  9.9999998E-03;  1.6000000E-01;656;0.0;0.0;0.0;1000.0;  4.0000001E-01;0.0;0;0.0;0.0;0.0;0;0.0;  1.0000000E+04;  0.0000000E+00;  0.0000000E+00;  1.0000000E+04;  0.0000000E+00;  1.0000000E+04;0.0;0.0;0.0;0.0
  2.0200000E+00;  9.9999998E-03;  1.8000001E-01;657;0.0;0.0;0.0;1000.0;  4.0000001E-01;0.0;0;0.0;0.0;0.0;0;0.0;  1.0000000E+04;  0.0000000E+00;  0.0000000E+00;  1.0000000E+04;  0.0000000E+00;  1.0000000E+04;0.0;0.0;0.0;0.0
  2.0400000E+00;  9.9999998E-03; -4.0000001E-01;658;0.0;0.0;0.0;1000.0;  4.0000001E-01;0.0;0;0.0;0.0;0.0;0;0.0;  1.0000000E+04;  0.0000000E+00;  0.0000000E+00;  1.0000000E+04;  0.0000000E+00;  1.0000000E+04;0.0;0.0;0.0;0.0
  2.0400000E+00;  9.9999998E-03; -3.8000000E-01;659;0.0;0.0;0.0;1000.0;  4.0000001E-01;0.0;0;0.0;0.0;0.0;0;0.0;  1.0000000E+04;  0.0000000E+00;  0.0000000E+00;  1.0000000E+04;  0.0000000E+00;  1.0000000E+04;0.0;0.0;0.0;0.0
  2.0400000E+00;  9.9999998E-03; -3.6000001E-01;660;0.0;0.0;0.0;1000.0;  4.0000001E-01;0.0;0;0.0;0.0;0.0;0;0.0;  1.0000000E+04;  0.0000000E+00;  0.0000000E+00;  1.0000000E+04;  0.0000000E+00;  1.0000000E+04;0.0;0.0;0.0;0.0
  2.0400000E+00;  9.9999998E-03; -3.4000000E-01;661;0.0;0.0;0.0;1000.0;  4.0000001E-01;0.0;0;0.0;0.0;0.0;0;0.0;  1.0000000E+04;  0.0000000E+00;  0.0000000E+00;  1.0000000E+04;  0.0000000E+00;  1.0000000E+04;0.0;0.0;0.0;0.0
  2.0400000E+00;  9.9999998E-03; -3.1999999E-01;662;0.0;0.0;0.0;1000.0;  4.0000001E-01;0.0;0;0.0;0.0;0.0;0;0.0;  1.0000000E+04;  0.0000000E+00;  0.0000000E+00;  1.0000000E+04;  0.0000000E+00;  1.0000000E+04;0.0;0.0;0.0;0.0
  2.0400000E+00;  9.9999998E-03; -3.0000001E-01;663;0.0;0.0;0.0;1000.0;  4.0000001E-01;0.0;0;0.0;0.0;0.0;0;0.0;  1.0000000E+04;  0.0000000E+00;  0.0000000E+00;  1.0000000E+04;  0.0000000E+00;  1.0000000E+04;0.0;0.0;0.0;0.0
  2.0400000E+00;  9.9999998E-03; -2.8000000E-01;664;0.0;0.0;0.0;1000.0;  4.0000001E-01;0.0;0;0.0;0.0;0.0;0;0.0;  1.0000000E+04;  0.0000000E+00;  0.0000000E+00;  1.0000000E+04;  0.0000000E+00;  1.0000000E+04;0.0;0.0;0.0;0.0
  2.0400000E+00;  9.9999998E-03; -2.5999999E-01;665;0.0;0.0;0.0;1000.0;  4.0000001E-01;0.0;0;0.0;0.0;0.0;0;0.0;  1.0000000E+04;  0.0000000E+00;  0.0000000E+00;  1.0000000E+04;  0.0000000E+00;  1.0000000E+04;0.0;0.0;0.0;0.0
  2.0400000E+00;  9.9999998E-03; -2.3999999E-01;666;0.0;0.0;0.0;1000.0;  4.0000001E-01;0.0;0;0.0;0.0;0.0;0;0.0;  1.0000000E+04;  0.0000000E+00;  0.0000000E+00;  1.0000000E+04;  0.0000000E+00;  1.0000000E+04;0.0;0.0;0.0;0.0
  2.0400000E+00;  9.9999998E-03; -2.2000000E-01;667;0.0;0.0;0.0;1000.0;  4.0000001E-01;0.0;0;0.0;0.0;0.0;0;0.0;  1.0000000E+04;  0.0000000E+00;  0.0000000E+00;  1.0000000E+04;  0.0000000E+00;  1.0000000E+04;0.0;0.0;0.0;0.0
  2.0400000E+00;  9.9999998E-03; -2.0000000E-01;668;0.0;0.0;0.0;1000.0;  4.0000001E-01;0.0;0;0.0;0.0;0.0;0;0.0;  1.0000000E+04;  0.0000000E+00;  0.0000000E+00;  1.0000000E+04;  0.0000000E+00;  1.0000000E+04;0.0;0.0;0.0;0.0
  2.0400000E+00;  9.9999998E-03; -1.8000001E-01;669;0.0;0.0;0.0;1000.0;  4.0000001E-01;0.0;0;0.0;0.0;0.0;0;0.0;  1.0000000E+04;  0.0000000E+00;  0.0000000E+00;  1.0000000E+04;  0.0000000E+00;  1.0000000E+04;0.0;0.0;0.0;0.0
  2.0400000E+00;  9.9999998E-03; -1.6000000E-01;670;0.0;0.0;0.0;1000.0;  4.0000001E-01;0.0;0;0.0;0.0;0.0;0;0.0;  1.0000000E+04;  0.0000000E+00;  0.0000000E+00;  1.0000000E+04;  0.0000000E+00;  1.0000000E+04;0.0;0.0;0.0;0.0
  2.0400000E+00;  9.9999998E-03; -1.4000000E-01;671;0.0;0.0;0.0;1000.0;  4.0000001E-01;0.0;0;0.0;0.0;0.0;0;0.0;  1.0000000E+04;  0.0000000E+00;  0.0000000E+00;  1.0000000E+04;  0.0000000E+00;  1.0000000E+04;0.0;0.0;0.0;0.0
  2.0400000E+00;  9.9999998E-03; -1.2000000E-01;672;0.0;0.0;0.0;1000.0;  4.0000001E-01;0.0;0;0.0;0.0;0.0;0;0.0;  1.0000000E+04;  0.0000000E+00;  0.0000000E+00;  1.0000000E+04;  0.0000000E+00;  1.0000000E+04;0.0;0.0;0.0;0.0
  2.0400000E+00;  9.9999998E-03; -1.0000000E-01;673;0.0;0.0;0.0;1000.0;  4.0000001E-01;0.0;0;0.0;0.0;0.0;0;0.0;  1.0000000E+04;  0.0000000E+00;  0.0000000E+00;  1.0000000E+04;  0.0000000E+00;  1.0000000E+04;0.0;0.0;0.0;0.0
  2.0400000E+00;  9.9999998E-03; -7.9999998E-02;674;0.0;0.0;0.0;1000.0;  4.0000001E-01;0.0;0;0.0;0.0;0.0;0;0.0;  1.0000000E+04;  0.0000000E+00;  0.0000000E+00;  1.0000000E+04;  0.0000000E+00;  1.0000000E+04;0.0;0.0;0.0;0.0
  2.0400000E+00;  9.9999998E-03; -5.9999999E-02;675;0.0;0.0;0.0;1000.0;  4.0000001E-01;0.0;0;0.0;0.0;0.0;0;0.0;  1.0000000E+04;  0.0000000E+00;  0.0000000E+00;  1.0000000E+04;  0.0000000E+00;  1.0000000E+04;0.0;0.0;0.0;0.0
  2.0400000E+00;  9.9999998E-03; -3.9999999E-02;676;0.0;0.0;0.0;1000.0;  4.0000001E-01;0.0;0;0.0;0.0;0.0;0;0.0;  1.0000000E+04;  0.0000000E+00;  0.0000000E+00;  1.0000000E+04;  0.0000000E+00;  1.0000000E+04;0.0;0.0;0.0;0.0
  2.0400000E+00;  9.9999998E-03; -2.0000000E-02;677;0.0;0.0;0.0;1000.0;  4.0000001E-01;0.0;0;0.0;0.0;0.0;0;0.0;  1.0000000E+04;  0.0000000E+00;  0.0000000E+00;  1.0000000E+04;  0.0000000E+00;  1.0000000E+04;0.0;0.0;0.0;0.0
  2.0400000E+00;  9.9999998E-03;  0.0000000E+00;678;0.0;0.0;0.0;1000.0;  4.0000001E-01;0.0;0;0.0;0.0;0.0;0;0.0;  1.0000000E+04;  0.0000000E+00;  0.0000000E+00;  1.0000000E+04;  0.0000000E+00;  1.0000000E+04;0.0;0.0;0.0;0.0
  2.0400000E+00;  9.9999998E-03;  2.0000000E-02;679;0.0;0.0;0.0;1000.0;  4.0000001E-01;0.0;0;0.0;0.0;0.0;0;0.0;  1.0000000E+04;  0.0000000E+00;  0.0000000E+00;  1.0000000E+04;  0.0000000E+00;  1.0000000E+04;0.0;0.0;0.0;0.0
  2.0400000E+00;  9.9999998E-03;  3.9999999E-02;680;0.0;0.0;0.0;1000.0;  4.0000001E-01;0.0;0;0.0;0.0;0.0;0;0.0;  1.0000000E+04;  0.0000000E+00;  0.0000000E+00;  1.0000000E+04;  0.0000000E+00;  1.0000000E+04;0.0;0.0;0.0;0.0
  2.0400000E+00;  9.9999998E-03;  5.9999999E-02;681;0.0;0.0;0.0;1000.0;  4.0000001E-01;0.0;0;0.0;0.0;0.0;0;0.0;  1.0000000E+04;  0.0000000E+00;  0.0000000E+00;  1.0000000E+04;  0.0000000E+00;  1.0000000E+04;0.0;0.0;0.0;0.0
  2.0400000E+00;  9.9999998E-03;  7.9999998E-02;682;0.0;0.0;0.0;1000.0;  4.0000001E-01;0.0;0;0.0;0.0;0.0;0;0.0;  1.0000000E+04;  0.0000000E+00;  0.0000000E+00;  1.0000000E+04;  0.0000000E+00;  1.0000000E+04;0.0;0.0;0.0;0.0
  2.0400000E+00;  9.9999998E-03;  1.0000000E-01;683;0.0;0.0;0.0;1000.0;  4.0000001E-01;0.0;0;0.0;0.0;0.0;0;0.0;  1.0000000E+04;  0.0000000E+00;  0.0000000E+00;  1.0000000E+04;  0.0000000E+00;  1.0000000E+04;0.0;0.0;0.0;0.0
  2.0400000E+00;  9.9999998E-03;  1.2000000E-01;684;0.0;0.0;0.0;1000.0;  4.0000001E-01;0.0;0;0.0;0.0;0.0;0;0.0;  1.0000000E+04;  0.0000000E+00;  0.0000000E+00;  1.0000000E+04;  0.0000000E+00;  1.0000000E+04;0.0;0.0;0.0;0.0
  2.0400000E+00;  9.9999998E-03;  1.4000000E-01;685;0.0;0.0;0.0;1000.0;  4.0000001E-01;0.0;0;0.0;0.0;0.0;0;0.0;  1.0000000E+04;  0.0000000E+00;  0.0000000E+00;  1.0000000E+04;  0.0000000E+00;  1.0000000E+04;0.0;0.0;0.0;0.0
  2.0400000E+00;  9.9999998E-03;  1.6000000E-01;686;0.0;0.0;0.0;1000.0;  4.0000001E-01;0.0;0;0.0;0.0;0.0;0;0.0;  1.0000000E+04;  0.0000000E+00;  0.0000000E+00;  1.0000000E+04;  0.0000000E+00;  1.0000000E+04;0.0;0.0;0.0;0.0
  2.0400000E+00;  9.9999998E-03;  1.8000001E-01;687;0.0;0.0;0.0;1000.0;  4.0000001E-01;0.0;0;0.0;0.0;0.0;0;0.0;  1.0000000E+04;  0.0000000E+00;  0.0000000E+00;  1.0000000E+04;  0.0000000E+00;  1.0000000E+04;0.0;0.0;0.0;0.0
  2.0400000E+00;  9.9999998E-03;  2.0000000E-01;688;0.0;0.0;0.0;1000.0;  4.0000001E-01;0.0;0;0.0;0.0;0.0;0;0.0;  1.0000000E+04;  0.0000000E+00;  0.0000000E+00;  1.0000000E+04;  0.0000000E+00;  1.0000000E+04;0.0;0.0;0.0;0.0
  2.0400000E+00;  9.9999998E-03;  2.2000000E-01;689;0.0;0.0;0.0;1000.0;  4.0000001E-01;0.0;0;0.0;0.0;0.0;0;0.0;  1.0000000E+04;  0.0000000E+00;  0.0000000E+00;  1.0000000E+04;  0.0000000E+00;  1.0000000E+04;0.0;0.0;0.0;0.0
  2.0400000E+00;  9.9999998E-03;  2.3999999E-01;690;0.0;0.0;0.0;1000.0;  4.0000001E-01;0.0;0;0.0;0.0;0.0;0;0.0;  1.0000000E+04;  0.0000000E+00;  0.0000000E+00;  1.0000000E+04;  0.0000000E+00;  1.0000000E+04;0.0;0.0;0.0;0.0
  2.0400000E+00;  9.9999998E-03;  2.5999999E-01;691;0.0;0.0;0.0;1000.0;  4.0000001E-01;0.0;0;0.0;0.0;0.0;0;0.0;  1.0000000E+04;  0.0000000E+00;  0.0000000E+00;  1.0000000E+04;  0.0000000E+00;  1.0000000E+04;0.0;0.0;0.0;0.0
  2.0400000E+00;  9.9999998E-03;  2.8000000E-01;692;0.0;0.0;0.0;1000.0;  4.0000001E-01;0.0;0;0.0;0.0;0.0;0;0.0;  1.0000000E+04;  0.0000000E+00;  0.0000000E+00;  1.0000000E+04;  0.0000000E+00;  1.0000000E+04;0.0;0.0;0.0;0.0
  2.0599999E+00;  9.9999998E-03; -4.0000001E-01;693;0.0;0.0;0.0;1000.0;  4.0000001E-01;0.0;0;0.0;0.0;0.0;0;0.0;  1.0000000E+04;  0.0000000E+00;  0.0000000E+00;  1.0000000E+04;  0.0000000E+00;  1.0000000E+04;0.0;0.0;0.0;0.0
  2.0599999E+00;  9.9999998E-03; -3.8000000E-01;694;0.0;0.0;0.0;1000.0;  4.0000001E-01;0.0;0;0.0;0.0;0.0;0;0.0;  1.0000000E+04;  0.0000000E+00;  0.0000000E+00;  1.0000000E+04;  0.0000000E+00;  1.0000000E+04;0.0;0.0;0.0;0.0
  2.0599999E+00;  9.9999998E-03; -3.6000001E-01;695;0.0;0.0;0.0;1000.0;  4.0000001E-01;0.0;0;0.0;0.0;0.0;0;0.0;  1.0000000E+04;  0.0000000E+00;  0.0000000E+00;  1.0000000E+04;  0.0000000E+00;  1.0000000E+04;0.0;0.0;0.0;0.0
  2.0599999E+00;  9.9999998E-03; -3.4000000E-01;696;0.0;0.0;0.0;1000.0;  4.0000001E-01;0.0;0;0.0;0.0;0.0;0;0.0;  1.0000000E+04;  0.0000000E+00;  0.0000000E+00;  1.0000000E+04;  0.0000000E+00;  1.0000000E+04;0.0;0.0;0.0;0.0
  2.0599999E+00;  9.9999998E-03; -3.1999999E-01;697;0.0;0.0;0.0;1000.0;  4.0000001E-01;0.0;0;0.0;0.0;0.0;0;0.0;  1.0000000E+04;  0.0000000E+00;  0.0000000E+00;  1.0000000E+04;  0.0000000E+00;  1.0000000E+04;0.0;0.0;0.0;0.0
  2.0599999E+00;  9.9999998E-03; -3.0000001E-01;698;0.0;0.0;0.0;1000.0;  4.0000001E-01;0.0;0;0.0;0.0;0.0;0;0.0;  1.0000000E+04;  0.0000000E+00;  0.0000000E+00;  1.0000000E+04;  0.0000000E+00;  1.0000000E+04;0.0;0.0;0.0;0.0
  2.0599999E+00;  9.9999998E-03; -2.8000000E-01;699;0.0;0.0;0.0;1000.0;  4.0000001E-01;0.0;0;0.0;0.0;0.0;0;0.0;  1.0000000E+04;  0.0000000E+00;  0.0000000E+00;  1.0000000E+04;  0.0000000E+00;  1.0000000E+04;0.0;0.0;0.0;0.0
  2.0599999E+00;  9.9999998E-03; -2.5999999E-01;700;0.0;0.0;0.0;1000.0;  4.0000001E-01;0.0;0;0.0;0.0;0.0;0;0.0;  1.0000000E+04;  0.0000000E+00;  0.0000000E+00;  1.0000000E+04;  0.0000000E+00;  1.0000000E+04;0.0;0.0;0.0;0.0
  2.0599999E+00;  9.9999998E-03; -2.3999999E-01;701;0.0;0.0;0.0;1000.0;  4.0000001E-01;0.0;0;0.0;0.0;0.0;0;0.0;  1.0000000E+04;  0.0000000E+00;  0.0000000E+00;  1.0000000E+04;  0.0000000E+00;  1.0000000E+04;0.0;0.0;0.0;0.0
  2.0599999E+00;  9.9999998E-03; -2.2000000E-01;702;0.0;0.0;0.0;1000.0;  4.0000001E-01;0.0;0;0.0;0.0;0.0;0;0.0;  1.0000000E+04;  0.0000000E+00;  0.0000000E+00;  1.0000000E+04;  0.0000000E+00;  1.0000000E+04;0.0;0.0;0.0;0.0
  2.0599999E+00;  9.9999998E-03; -2.0000000E-01;703;0.0;0.0;0.0;1000.0;  4.0000001E-01;0.0;0;0.0;0.0;0.0;0;0.0;  1.0000000E+04;  0.0000000E+00;  0.0000000E+00;  1.0000000E+04;  0.0000000E+00;  1.0000000E+04;0.0;0.0;0.0;0.0
  2.0599999E+00;  9.9999998E-03; -1.8000001E-01;704;0.0;0.0;0.0;1000.0;  4.0000001E-01;0.0;0;0.0;0.0;0.0;0;0.0;  1.0000000E+04;  0.0000000E+00;  0.0000000E+00;  1.0000000E+04;  0.0000000E+00;  1.0000000E+04;0.0;0.0;0.0;0.0
  2.0599999E+00;  9.9999998E-03; -1.6000000E-01;705;0.0;0.0;0.0;1000.0;  4.0000001E-01;0.0;0;0.0;0.0;0.0;0;0.0;  1.0000000E+04;  0.0000000E+00;  0.0000000E+00;  1.0000000E+04;  0.0000000E+00;  1.0000000E+04;0.0;0.0;0.0;0.0
  2.0599999E+00;  9.9999998E-03; -1.4000000E-01;706;0.0;0.0;0.0;1000.0;  4.0000001E-01;0.0;0;0.0;0.0;0.0;0;0.0;  1.0000000E+04;  0.0000000E+00;  0.0000000E+00;  1.0000000E+04;  0.0000000E+00;  1.0000000E+04;0.0;0.0;0.0;0.0
  2.0599999E+00;  9.9999998E-03; -1.2000000E-01;707;0.0;0.0;0.0;1000.0;  4.0000001E-01;0.0;0;0.0;0.0;0.0;0;0.0;  1.0000000E+04;  0.0000000E+00;  0.0000000E+00;  1.0000000E+04;  0.0000000E+00;  1.0000000E+04;0.0;0.0;0.0;0.0
  2.0599999E+00;  9.9999998E-03; -1.0000000E-01;708;0.0;0.0;0.0;1000.0;  4.0000001E-01;0.0;0;0.0;0.0;0.0;0;0.0;  1.0000000E+04;  0.0000000E+00;  0.0000000E+00;  1.0000000E+04;  0.0000000E+00;  1.0000000E+04;0.0;0.0;0.0;0.0
  2.0599999E+00;  9.9999998E-03; -7.9999998E-02;709;0.0;0.0;0.0;1000.0;  4.0000001E-01;0.0;0;0.0;0.0;0.0;0;0.0;  1.0000000E+04;  0.0000000E+00;  0.0000000E+00;  1.0000000E+04;  0.0000000E+00;  1.0000000E+04;0.0;0.0;0.0;0.0
  2.0599999E+00;  9.9999998E-03; -5.9999999E-02;710;0.0;0.0;0.0;1000.0;  4.0000001E-01;0.0;0;0.0;0.0;0.0;0;0.0;  1.0000000E+04;  0.0000000E+00;  0.0000000E+00;  1.0000000E+04;  0.0000000E+00;  1.0000000E+04;0.0;0.0;0.0;0.0
  2.0599999E+00;  9.9999998E-03; -3.9999999E-02;711;0.0;0.0;0.0;1000.0;  4.0000001E-01;0.0;0;0.0;0.0;0.0;0;0.0;  1.0000000E+04;  0.0000000E+00;  0.0000000E+00;  1.0000000E+04;  0.0000000E+00;  1.0000000E+04;0.0;0.0;0.0;0.0
  2.0599999E+00;  9.9999998E-03; -2.0000000E-02;712;0.0;0.0;0.0;1000.0;  4.0000001E-01;0.0;0;0.0;0.0;0.0;0;0.0;  1.0000000E+04;  0.0000000E+00;  0.0000000E+00;  1.0000000E+04;  0.0000000E+00;  1.0000000E+04;0.0;0.0;0.0;0.0
  2.0599999E+00;  9.9999998E-03;  0.0000000E+00;713;0.0;0.0;0.0;1000.0;  4.0000001E-01;0.0;0;0.0;0.0;0.0;0;0.0;  1.0000000E+04;  0.0000000E+00;  0.0000000E+00;  1.0000000E+04;  0.0000000E+00;  1.0000000E+04;0.0;0.0;0.0;0.0
  2.0599999E+00;  9.9999998E-03;  2.0000000E-02;714;0.0;0.0;0.0;1000.0;  4.0000001E-01;0.0;0;0.0;0.0;0.0;0;0.0;  1.0000000E+04;  0.0000000E+00;  0.0000000E+00;  1.0000000E+04;  0.0000000E+00;  1.0000000E+04;0.0;0.0;0.0;0.0
  2.0599999E+00;  9.9999998E-03;  3.9999999E-02;715;0.0;0.0;0.0;1000.0;  4.0000001E-01;0.0;0;0.0;0.0;0.0;0;0.0;  1.0000000E+04;  0.0000000E+00;  0.0000000E+00;  1.0000000E+04;  0.0000000E+00;  1.0000000E+04;0.0;0.0;0.0;0.0
  2.0599999E+00;  9.9999998E-03;  5.9999999E-02;716;0.0;0.0;0.0;1000.0;  4.0000001E-01;0.0;0;0.0;0.0;0.0;0;0.0;  1.0000000E+04;  0.0000000E+00;  0.0000000E+00;  1.0000000E+04;  0.0000000E+00;  1.0000000E+04;0.0;0.0;0.0;0.0
  2.0599999E+00;  9.9999998E-03;  7.9999998E-02;717;0.0;0.0;0.0;1000.0;  4.0000001E-01;0.0;0;0.0;0.0;0.0;0;0.0;  1.0000000E+04;  0.0000000E+00;  0.0000000E+00;  1.0000000E+04;  0.0000000E+00;  1.0000000E+04;0.0;0.0;0.0;0.0
  2.0599999E+00;  9.9999998E-03;  1.0000000E-01;718;0.0;0.0;0.0;1000.0;  4.0000001E-01;0.0;0;0.0;0.0;0.0;0;0.0;  1.0000000E+04;  0.0000000E+00;  0.0000000E+00;  1.0000000E+04;  0.0000000E+00;  1.0000000E+04;0.0;0.0;0.0;0.0
  2.0599999E+00;  9.9999998E-03;  1.2000000E-01;719;0.0;0.0;0.0;1000.0;  4.0000001E-01;0.0;0;0.0;0.0;0.0;0;0.0;  1.0000000E+04;  0.0000000E+00;  0.0000000E+00;  1.0000000E+04;  0.0000000E+00;  1.0000000E+04;0.0;0.0;0.0;0.0
  2.0599999E+00;  9.9999998E-03;  1.4000000E-01;720;0.0;0.0;0.0;1000.0;  4.0000001E-01;0.0;0;0.0;0.0;0.0;0;0.0;  1.0000000E+04;  0.0000000E+00;  0.0000000E+00;  1.0000000E+04;  0.0000000E+00;  1.0000000E+04;0.0;0.0;0.0;0.0
  2.0599999E+00;  9.9999998E-03;  1.6000000E-01;721;0.0;0.0;0.0;1000.0;  4.0000001E-01;0.0;0;0.0;0.0;0.0;0;0.0;  1.0000000E+04;  0.0000000E+00;  0.0000000E+00;  1.0000000E+04;  0.0000000E+00;  1.0000000E+04;0.0;0.0;0.0;0.0
  2.0599999E+00;  9.9999998E-03;  1.8000001E-01;722;0.0;0.0;0.0;1000.0;  4.0000001E-01;0.0;0;0.0;0.0;0.0;0;0.0;  1.0000000E+04;  0.0000000E+00;  0.0000000E+00;  1.0000000E+04;  0.0000000E+00;  1.0000000E+04;0.0;0.0;0.0;0.0
  2.0599999E+00;  9.9999998E-03;  2.0000000E-01;723;0.0;0.0;0.0;1000.0;  4.0000001E-01;0.0;0;0.0;0.0;0.0;0;0.0;  1.0000000E+04;  0.0000000E+00;  0.0000000E+00;  1.0000000E+04;  0.0000000E+00;  1.0000000E+04;0.0;0.0;0.0;0.0
  2.0599999E+00;  9.9999998E-03;  2.2000000E-01;724;0.0;0.0;0.0;1000.0;  4.0000001E-01;0.0;0;0.0;0.0;0.0;0;0.0;  1.0000000E+04;  0.0000000E+00;  0.0000000E+00;  1.0000000E+04;  0.0000000E+00;  1.0000000E+04;0.0;0.0;0.0;0.0
  2.0599999E+00;  9.9999998E-03;  2.3999999E-01;725;0.0;0.0;0.0;1000.0;  4.0000001E-01;0.0;0;0.0;0.0;0.0;0;0.0;  1.0000000E+04;  0.0000000E+00;  0.0000000E+00;  1.0000000E+04;  0.0000000E+00;  1.0000000E+04;0.0;0.0;0.0;0.0
  2.0599999E+00;  9.9999998E-03;  2.5999999E-01;726;0.0;0.0;0.0;1000.0;  4.0000001E-01;0.0;0;0.0;0.0;0.0;0;0.0;  1.0000000E+04;  0.0000000E+00;  0.0000000E+00;  1.0000000E+04;  0.0000000E+00;  1.0000000E+04;0.0;0.0;0.0;0.0
  2.0599999E+00;  9.9999998E-03;  2.8000000E-01;727;0.0;0.0;0.0;1000.0;  4.0000001E-01;0.0;0;0.0;0.0;0.0;0;0.0;  1.0000000E+04;  0.0000000E+00;  0.0000000E+00;  1.0000000E+04;  0.0000000E+00;  1.0000000E+04;0.0;0.0;0.0;0.0
  2.0599999E+00;  9.9999998E-03;  3.0000001E-01;728;0.0;0.0;0.0;1000.0;  4.0000001E-01;0.0;0;0.0;0.0;0.0;0;0.0;  1.0000000E+04;  0.0000000E+00;  0.0000000E+00;  1.0000000E+04;  0.0000000E+00;  1.0000000E+04;0.0;0.0;0.0;0.0
  2.0599999E+00;  9.9999998E-03;  3.1999999E-01;729;0.0;0.0;0.0;1000.0;  4.0000001E-01;0.0;0;0.0;0.0;0.0;0;0.0;  1.0000000E+04;  0.0000000E+00;  0.0000000E+00;  1.0000000E+04;  0.0000000E+00;  1.0000000E+04;0.0;0.0;0.0;0.0
  2.0599999E+00;  9.9999998E-03;  3.4000000E-01;730;0.0;0.0;0.0;1000.0;  4.0000001E-01;0.0;0;0.0;0.0;0.0;0;0.0;  1.0000000E+04;  0.0000000E+00;  0.0000000E+00;  1.0000000E+04;  0.0000000E+00;  1.0000000E+04;0.0;0.0;0.0;0.0
  2.0599999E+00;  9.9999998E-03;  3.6000001E-01;731;0.0;0.0;0.0;1000.0;  4.0000001E-01;0.0;0;0.0;0.0;0.0;0;0.0;  1.0000000E+04;  0.0000000E+00;  0.0000000E+00;  1.0000000E+04;  0.0000000E+00;  1.0000000E+04;0.0;0.0;0.0;0.0
  2.0599999E+00;  9.9999998E-03;  3.8000000E-01;732;0.0;0.0;0.0;1000.0;  4.0000001E-01;0.0;0;0.0;0.0;0.0;0;0.0;  1.0000000E+04;  0.0000000E+00;  0.0000000E+00;  1.0000000E+04;  0.0000000E+00;  1.0000000E+04;0.0;0.0;0.0;0.0
  2.0799999E+00;  9.9999998E-03; -4.0000001E-01;733;0.0;0.0;0.0;1000.0;  4.0000001E-01;0.0;0;0.0;0.0;0.0;0;0.0;  1.0000000E+04;  0.0000000E+00;  0.0000000E+00;  1.0000000E+04;  0.0000000E+00;  1.0000000E+04;0.0;0.0;0.0;0.0
  2.0799999E+00;  9.9999998E-03; -3.8000000E-01;734;0.0;0.0;0.0;1000.0;  4.0000001E-01;0.0;0;0.0;0.0;0.0;0;0.0;  1.0000000E+04;  0.0000000E+00;  0.0000000E+00;  1.0000000E+04;  0.0000000E+00;  1.0000000E+04;0.0;0.0;0.0;0.0
  2.0799999E+00;  9.9999998E-03; -3.6000001E-01;735;0.0;0.0;0.0;1000.0;  4.0000001E-01;0.0;0;0.0;0.0;0.0;0;0.0;  1.0000000E+04;  0.0000000E+00;  0.0000000E+00;  1.0000000E+04;  0.0000000E+00;  1.0000000E+04;0.0;0.0;0.0;0.0
  2.0799999E+00;  9.9999998E-03; -3.4000000E-01;736;0.0;0.0;0.0;1000.0;  4.0000001E-01;0.0;0;0.0;0.0;0.0;0;0.0;  1.0000000E+04;  0.0000000E+00;  0.0000000E+00;  1.0000000E+04;  0.0000000E+00;  1.0000000E+04;0.0;0.0;0.0;0.0
  2.0799999E+00;  9.9999998E-03; -3.1999999E-01;737;0.0;0.0;0.0;1000.0;  4.0000001E-01;0.0;0;0.0;0.0;0.0;0;0.0;  1.0000000E+04;  0.0000000E+00;  0.0000000E+00;  1.0000000E+04;  0.0000000E+00;  1.0000000E+04;0.0;0.0;0.0;0.0
  2.0799999E+00;  9.9999998E-03; -3.0000001E-01;738;0.0;0.0;0.0;1000.0;  4.0000001E-01;0.0;0;0.0;0.0;0.0;0;0.0;  1.0000000E+04;  0.0000000E+00;  0.0000000E+00;  1.0000000E+04;  0.0000000E+00;  1.0000000E+04;0.0;0.0;0.0;0.0
  2.0799999E+00;  9.9999998E-03; -2.8000000E-01;739;0.0;0.0;0.0;1000.0;  4.0000001E-01;0.0;0;0.0;0.0;0.0;0;0.0;  1.0000000E+04;  0.0000000E+00;  0.0000000E+00;  1.0000000E+04;  0.0000000E+00;  1.0000000E+04;0.0;0.0;0.0;0.0
  2.0799999E+00;  9.9999998E-03; -2.5999999E-01;740;0.0;0.0;0.0;1000.0;  4.0000001E-01;0.0;0;0.0;0.0;0.0;0;0.0;  1.0000000E+04;  0.0000000E+00;  0.0000000E+00;  1.0000000E+04;  0.0000000E+00;  1.0000000E+04;0.0;0.0;0.0;0.0
  2.0799999E+00;  9.9999998E-03; -2.3999999E-01;741;0.0;0.0;0.0;1000.0;  4.0000001E-01;0.0;0;0.0;0.0;0.0;0;0.0;  1.0000000E+04;  0.0000000E+00;  0.0000000E+00;  1.0000000E+04;  0.0000000E+00;  1.0000000E+04;0.0;0.0;0.0;0.0
  2.0799999E+00;  9.9999998E-03; -2.2000000E-01;742;0.0;0.0;0.0;1000.0;  4.0000001E-01;0.0;0;0.0;0.0;0.0;0;0.0;  1.0000000E+04;  0.0000000E+00;  0.0000000E+00;  1.0000000E+04;  0.0000000E+00;  1.0000000E+04;0.0;0.0;0.0;0.0
  2.0799999E+00;  9.9999998E-03; -2.0000000E-01;743;0.0;0.0;0.0;1000.0;  4.0000001E-01;0.0;0;0.0;0.0;0.0;0;0.0;  1.0000000E+04;  0.0000000E+00;  0.0000000E+00;  1.0000000E+04;  0.0000000E+00;  1.0000000E+04;0.0;0.0;0.0;0.0
  2.0799999E+00;  9.9999998E-03; -1.8000001E-01;744;0.0;0.0;0.0;1000.0;  4.0000001E-01;0.0;0;0.0;0.0;0.0;0;0.0;  1.0000000E+04;  0.0000000E+00;  0.0000000E+00;  1.0000000E+04;  0.0000000E+00;  1.0000000E+04;0.0;0.0;0.0;0.0
  2.0799999E+00;  9.9999998E-03; -1.6000000E-01;745;0.0;0.0;0.0;1000.0;  4.0000001E-01;0.0;0;0.0;0.0;0.0;0;0.0;  1.0000000E+04;  0.0000000E+00;  0.0000000E+00;  1.0000000E+04;  0.0000000E+00;  1.0000000E+04;0.0;0.0;0.0;0.0
  2.0799999E+00;  9.9999998E-03; -1.4000000E-01;746;0.0;0.0;0.0;1000.0;  4.0000001E-01;0.0;0;0.0;0.0;0.0;0;0.0;  1.0000000E+04;  0.0000000E+00;  0.0000000E+00;  1.0000000E+04;  0.0000000E+00;  1.0000000E+04;0.0;0.0;0.0;0.0
  2.0799999E+00;  9.9999998E-03; -1.2000000E-01;747;0.0;0.0;0.0;1000.0;  4.0000001E-01;0.0;0;0.0;0.0;0.0;0;0.0;  1.0000000E+04;  0.0000000E+00;  0.0000000E+00;  1.0000000E+04;  0.0000000E+00;  1.0000000E+04;0.0;0.0;0.0;0.0
  2.0799999E+00;  9.9999998E-03; -1.0000000E-01;748;0.0;0.0;0.0;1000.0;  4.0000001E-01;0.0;0;0.0;0.0;0.0;0;0.0;  1.0000000E+04;  0.0000000E+00;  0.0000000E+00;  1.0000000E+04;  0.0000000E+00;  1.0000000E+04;0.0;0.0;0.0;0.0
  2.0799999E+00;  9.9999998E-03; -7.9999998E-02;749;0.0;0.0;0.0;1000.0;  4.0000001E-01;0.0;0;0.0;0.0;0.0;0;0.0;  1.0000000E+04;  0.0000000E+00;  0.0000000E+00;  1.0000000E+04;  0.0000000E+00;  1.0000000E+04;0.0;0.0;0.0;0.0
  2.0799999E+00;  9.9999998E-03; -5.9999999E-02;750;0.0;0.0;0.0;1000.0;  4.0000001E-01;0.0;0;0.0;0.0;0.0;0;0.0;  1.0000000E+04;  0.0000000E+00;  0.0000000E+00;  1.0000000E+04;  0.0000000E+00;  1.0000000E+04;0.0;0.0;0.0;0.0
  2.0799999E+00;  9.9999998E-03; -3.9999999E-02;751;0.0;0.0;0.0;1000.0;  4.0000001E-01;0.0;0;0.0;0.0;0.0;0;0.0;  1.0000000E+04;  0.0000000E+00;  0.0000000E+00;  1.0000000E+04;  0.0000000E+00;  1.0000000E+04;0.0;0.0;0.0;0.0
  2.0799999E+00;  9.9999998E-03; -2.0000000E-02;752;0.0;0.0;0.0;1000.0;  4.0000001E-01;0.0;0;0.0;0.0;0.0;0;0.0;  1.0000000E+04;  0.0000000E+00;  0.0000000E+00;  1.0000000E+04;  0.0000000E+00;  1.0000000E+04;0.0;0.0;0.0;0.0
  2.0799999E+00;  9.9999998E-03;  0.0000000E+00;753;0.0;0.0;0.0;1000.0;  4.0000001E-01;0.0;0;0.0;0.0;0.0;0;0.0;  1.0000000E+04;  0.0000000E+00;  0.0000000E+00;  1.0000000E+04;  0.0000000E+00;  1.0000000E+04;0.0;0.0;0.0;0.0
  2.0799999E+00;  9.9999998E-03;  2.0000000E-02;754;0.0;0.0;0.0;1000.0;  4.0000001E-01;0.0;0;0.0;0.0;0.0;0;0.0;  1.0000000E+04;  0.0000000E+00;  0.0000000E+00;  1.0000000E+04;  0.0000000E+00;  1.0000000E+04;0.0;0.0;0.0;0.0
  2.0799999E+00;  9.9999998E-03;  3.9999999E-02;755;0.0;0.0;0.0;1000.0;  4.0000001E-01;0.0;0;0.0;0.0;0.0;0;0.0;  1.0000000E+04;  0.0000000E+00;  0.0000000E+00;  1.0000000E+04;  0.0000000E+00;  1.0000000E+04;0.0;0.0;0.0;0.0
  2.0799999E+00;  9.9999998E-03;  5.9999999E-02;756;0.0;0.0;0.0;1000.0;  4.0000001E-01;0.0;0;0.0;0.0;0.0;0;0.0;  1.0000000E+04;  0.0000000E+00;  0.0000000E+00;  1.0000000E+04;  0.0000000E+00;  1.0000000E+04;0.0;0.0;0.0;0.0
  2.0799999E+00;  9.9999998E-03;  7.9999998E-02;757;0.0;0.0;0.0;1000.0;  4.0000001E-01;0.0;0;0.0;0.0;0.0;0;0.0;  1.0000000E+04;  0.0000000E+00;  0.0000000E+00;  1.0000000E+04;  0.0000000E+00;  1.0000000E+04;0.0;0.0;0.0;0.0
  2.0799999E+00;  9.9999998E-03;  1.0000000E-01;758;0.0;0.0;0.0;1000.0;  4.0000001E-01;0.0;0;0.0;0.0;0.0;0;0.0;  1.0000000E+04;  0.0000000E+00;  0.0000000E+00;  1.0000000E+04;  0.0000000E+00;  1.0000000E+04;0.0;0.0;0.0;0.0
  2.0799999E+00;  9.9999998E-03;  1.2000000E-01;759;0.0;0.0;0.0;1000.0;  4.0000001E-01;0.0;0;0.0;0.0;0.0;0;0.0;  1.0000000E+04;  0.0000000E+00;  0.0000000E+00;  1.0000000E+04;  0.0000000E+00;  1.0000000E+04;0.0;0.0;0.0;0.0
  2.0799999E+00;  9.9999998E-03;  1.4000000E-01;760;0.0;0.0;0.0;1000.0;  4.0000001E-01;0.0;0;0.0;0.0;0.0;0;0.0;  1.0000000E+04;  0.0000000E+00;  0.0000000E+00;  1.0000000E+04;  0.0000000E+00;  1.0000000E+04;0.0;0.0;0.0;0.0
  2.0799999E+00;  9.9999998E-03;  1.6000000E-01;761;0.0;0.0;0.0;1000.0;  4.0000001E-01;0.0;0;0.0;0.0;0.0;0;0.0;  1.0000000E+04;  0.0000000E+00;  0.0000000E+00;  1.0000000E+04;  0.0000000E+00;  1.0000000E+04;0.0;0.0;0.0;0.0
  2.0799999E+00;  9.9999998E-03;  1.8000001E-01;762;0.0;0.0;0.0;1000.0;  4.0000001E-01;0.0;0;0.0;0.0;0.0;0;0.0;  1.0000000E+04;  0.0000000E+00;  0.0000000E+00;  1.0000000E+04;  0.0000000E+00;  1.0000000E+04;0.0;0.0;0.0;0.0
  2.0799999E+00;  9.9999998E-03;  2.0000000E-01;763;0.0;0.0;0.0;1000.0;  4.0000001E-01;0.0;0;0.0;0.0;0.0;0;0.0;  1.0000000E+04;  0.0000000E+00;  0.0000000E+00;  1.0000000E+04;  0.0000000E+00;  1.0000000E+04;0.0;0.0;0.0;0.0
  2.0799999E+00;  9.9999998E-03;  2.2000000E-01;764;0.0;0.0;0.0;1000.0;  4.0000001E-01;0.0;0;0.0;0.0;0.0;0;0.0;  1.0000000E+04;  0.0000000E+00;  0.0000000E+00;  1.0000000E+04;  0.0000000E+00;  1.0000000E+04;0.0;0.0;0.0;0.0
  2.0799999E+00;  9.9999998E-03;  2.3999999E-01;765;0.0;0.0;0.0;1000.0;  4.0000001E-01;0.0;0;0.0;0.0;0.0;0;0.0;  1.0000000E+04;  0.0000000E+00;  0.0000000E+00;  1.0000000E+04;  0.0000000E+00;  1.0000000E+04;0.0;0.0;0.0;0.0
  2.0799999E+00;  9.9999998E-03;  2.5999999E-01;766;0.0;0.0;0.0;1000.0;  4.0000001E-01;0.0;0;0.0;0.0;0.0;0;0.0;  1.0000000E+04;  0.0000000E+00;  0.0000000E+00;  1.0000000E+04;  0.0000000E+00;  1.0000000E+04;0.0;0.0;0.0;0.0
  2.0799999E+00;  9.9999998E-03;  2.8000000E-01;767;0.0;0.0;0.0;1000.0;  4.0000001E-01;0.0;0;0.0;0.0;0.0;0;0.0;  1.0000000E+04;  0.0000000E+00;  0.0000000E+00;  1.0000000E+04;  0.0000000E+00;  1.0000000E+04;0.0;0.0;0.0;0.0
  2.0799999E+00;  9.9999998E-03;  3.0000001E-01;768;0.0;0.0;0.0;1000.0;  4.0000001E-01;0.0;0;0.0;0.0;0.0;0;0.0;  1.0000000E+04;  0.0000000E+00;  0.0000000E+00;  1.0000000E+04;  0.0000000E+00;  1.0000000E+04;0.0;0.0;0.0;0.0
  2.0799999E+00;  9.9999998E-03;  3.1999999E-01;769;0.0;0.0;0.0;1000.0;  4.0000001E-01;0.0;0;0.0;0.0;0.0;0;0.0;  1.0000000E+04;  0.0000000E+00;  0.0000000E+00;  1.0000000E+04;  0.0000000E+00;  1.0000000E+04;0.0;0.0;0.0;0.0
  2.0799999E+00;  9.9999998E-03;  3.4000000E-01;770;0.0;0.0;0.0;1000.0;  4.0000001E-01;0.0;0;0.0;0.0;0.0;0;0.0;  1.0000000E+04;  0.0000000E+00;  0.0000000E+00;  1.0000000E+04;  0.0000000E+00;  1.0000000E+04;0.0;0.0;0.0;0.0
  2.0799999E+00;  9.9999998E-03;  3.6000001E-01;771;0.0;0.0;0.0;1000.0;  4.0000001E-01;0.0;0;0.0;0.0;0.0;0;0.0;  1.0000000E+04;  0.0000000E+00;  0.0000000E+00;  1.0000000E+04;  0.0000000E+00;  1.0000000E+04;0.0;0.0;0.0;0.0
  2.0799999E+00;  9.9999998E-03;  3.8000000E-01;772;0.0;0.0;0.0;1000.0;  4.0000001E-01;0.0;0;0.0;0.0;0.0;0;0.0;  1.0000000E+04;  0.0000000E+00;  0.0000000E+00;  1.0000000E+04;  0.0000000E+00;  1.0000000E+04;0.0;0.0;0.0;0.0
  2.0799999E+00;  9.9999998E-03;  4.0000001E-01;773;0.0;0.0;0.0;1000.0;  4.0000001E-01;0.0;0;0.0;0.0;0.0;0;0.0;  1.0000000E+04;  0.0000000E+00;  0.0000000E+00;  1.0000000E+04;  0.0000000E+00;  1.0000000E+04;0.0;0.0;0.0;0.0
  2.0999999E+00;  9.9999998E-03; -4.0000001E-01;774;0.0;0.0;0.0;1000.0;  4.0000001E-01;0.0;0;0.0;0.0;0.0;0;0.0;  1.0000000E+04;  0.0000000E+00;  0.0000000E+00;  1.0000000E+04;  0.0000000E+00;  1.0000000E+04;0.0;0.0;0.0;0.0
  2.0999999E+00;  9.9999998E-03; -3.8000000E-01;775;0.0;0.0;0.0;1000.0;  4.0000001E-01;0.0;0;0.0;0.0;0.0;0;0.0;  1.0000000E+04;  0.0000000E+00;  0.0000000E+00;  1.0000000E+04;  0.0000000E+00;  1.0000000E+04;0.0;0.0;0.0;0.0
  2.0999999E+00;  9.9999998E-03; -3.6000001E-01;776;0.0;0.0;0.0;1000.0;  4.0000001E-01;0.0;0;0.0;0.0;0.0;0;0.0;  1.0000000E+04;  0.0000000E+00;  0.0000000E+00;  1.0000000E+04;  0.0000000E+00;  1.0000000E+04;0.0;0.0;0.0;0.0
  2.0999999E+00;  9.9999998E-03; -3.4000000E-01;777;0.0;0.0;0.0;1000.0;  4.0000001E-01;0.0;0;0.0;0.0;0.0;0;0.0;  1.0000000E+04;  0.0000000E+00;  0.0000000E+00;  1.0000000E+04;  0.0000000E+00;  1.0000000E+04;0.0;0.0;0.0;0.0
  2.0999999E+00;  9.9999998E-03; -3.1999999E-01;778;0.0;0.0;0.0;1000.0;  4.0000001E-01;0.0;0;0.0;0.0;0.0;0;0.0;  1.0000000E+04;  0.0000000E+00;  0.0000000E+00;  1.0000000E+04;  0.0000000E+00;  1.0000000E+04;0.0;0.0;0.0;0.0
  2.0999999E+00;  9.9999998E-03; -3.0000001E-01;779;0.0;0.0;0.0;1000.0;  4.0000001E-01;0.0;0;0.0;0.0;0.0;0;0.0;  1.0000000E+04;  0.0000000E+00;  0.0000000E+00;  1.0000000E+04;  0.0000000E+00;  1.0000000E+04;0.0;0.0;0.0;0.0
  2.0999999E+00;  9.9999998E-03; -2.8000000E-01;780;0.0;0.0;0.0;1000.0;  4.0000001E-01;0.0;0;0.0;0.0;0.0;0;0.0;  1.0000000E+04;  0.0000000E+00;  0.0000000E+00;  1.0000000E+04;  0.0000000E+00;  1.0000000E+04;0.0;0.0;0.0;0.0
  2.0999999E+00;  9.9999998E-03; -2.5999999E-01;781;0.0;0.0;0.0;1000.0;  4.0000001E-01;0.0;0;0.0;0.0;0.0;0;0.0;  1.0000000E+04;  0.0000000E+00;  0.0000000E+00;  1.0000000E+04;  0.0000000E+00;  1.0000000E+04;0.0;0.0;0.0;0.0
  2.0999999E+00;  9.9999998E-03; -2.3999999E-01;782;0.0;0.0;0.0;1000.0;  4.0000001E-01;0.0;0;0.0;0.0;0.0;0;0.0;  1.0000000E+04;  0.0000000E+00;  0.0000000E+00;  1.0000000E+04;  0.0000000E+00;  1.0000000E+04;0.0;0.0;0.0;0.0
  2.0999999E+00;  9.9999998E-03; -2.2000000E-01;783;0.0;0.0;0.0;1000.0;  4.0000001E-01;0.0;0;0.0;0.0;0.0;0;0.0;  1.0000000E+04;  0.0000000E+00;  0.0000000E+00;  1.0000000E+04;  0.0000000E+00;  1.0000000E+04;0.0;0.0;0.0;0.0
  2.0999999E+00;  9.9999998E-03; -2.0000000E-01;784;0.0;0.0;0.0;1000.0;  4.0000001E-01;0.0;0;0.0;0.0;0.0;0;0.0;  1.0000000E+04;  0.0000000E+00;  0.0000000E+00;  1.0000000E+04;  0.0000000E+00;  1.0000000E+04;0.0;0.0;0.0;0.0
  2.0999999E+00;  9.9999998E-03; -1.8000001E-01;785;0.0;0.0;0.0;1000.0;  4.0000001E-01;0.0;0;0.0;0.0;0.0;0;0.0;  1.0000000E+04;  0.0000000E+00;  0.0000000E+00;  1.0000000E+04;  0.0000000E+00;  1.0000000E+04;0.0;0.0;0.0;0.0
  2.0999999E+00;  9.9999998E-03; -1.6000000E-01;786;0.0;0.0;0.0;1000.0;  4.0000001E-01;0.0;0;0.0;0.0;0.0;0;0.0;  1.0000000E+04;  0.0000000E+00;  0.0000000E+00;  1.0000000E+04;  0.0000000E+00;  1.0000000E+04;0.0;0.0;0.0;0.0
  2.0999999E+00;  9.9999998E-03; -1.4000000E-01;787;0.0;0.0;0.0;1000.0;  4.0000001E-01;0.0;0;0.0;0.0;0.0;0;0.0;  1.0000000E+04;  0.0000000E+00;  0.0000000E+00;  1.0000000E+04;  0.0000000E+00;  1.0000000E+04;0.0;0.0;0.0;0.0
  2.0999999E+00;  9.9999998E-03; -1.2000000E-01;788;0.0;0.0;0.0;1000.0;  4.0000001E-01;0.0;0;0.0;0.0;0.0;0;0.0;  1.0000000E+04;  0.0000000E+00;  0.0000000E+00;  1.0000000E+04;  0.0000000E+00;  1.0000000E+04;0.0;0.0;0.0;0.0
  2.0999999E+00;  9.9999998E-03; -1.0000000E-01;789;0.0;0.0;0.0;1000.0;  4.0000001E-01;0.0;0;0.0;0.0;0.0;0;0.0;  1.0000000E+04;  0.0000000E+00;  0.0000000E+00;  1.0000000E+04;  0.0000000E+00;  1.0000000E+04;0.0;0.0;0.0;0.0
  2.0999999E+00;  9.9999998E-03; -7.9999998E-02;790;0.0;0.0;0.0;1000.0;  4.0000001E-01;0.0;0;0.0;0.0;0.0;0;0.0;  1.0000000E+04;  0.0000000E+00;  0.0000000E+00;  1.0000000E+04;  0.0000000E+00;  1.0000000E+04;0.0;0.0;0.0;0.0
  2.0999999E+00;  9.9999998E-03; -5.9999999E-02;791;0.0;0.0;0.0;1000.0;  4.0000001E-01;0.0;0;0.0;0.0;0.0;0;0.0;  1.0000000E+04;  0.0000000E+00;  0.0000000E+00;  1.0000000E+04;  0.0000000E+00;  1.0000000E+04;0.0;0.0;0.0;0.0
  2.0999999E+00;  9.9999998E-03; -3.9999999E-02;792;0.0;0.0;0.0;1000.0;  4.0000001E-01;0.0;0;0.0;0.0;0.0;0;0.0;  1.0000000E+04;  0.0000000E+00;  0.0000000E+00;  1.0000000E+04;  0.0000000E+00;  1.0000000E+04;0.0;0.0;0.0;0.0
  2.0999999E+00;  9.9999998E-03; -2.0000000E-02;793;0.0;0.0;0.0;1000.0;  4.0000001E-01;0.0;0;0.0;0.0;0.0;0;0.0;  1.0000000E+04;  0.0000000E+00;  0.0000000E+00;  1.0000000E+04;  0.0000000E+00;  1.0000000E+04;0.0;0.0;0.0;0.0
  2.0999999E+00;  9.9999998E-03;  0.0000000E+00;794;0.0;0.0;0.0;1000.0;  4.0000001E-01;0.0;0;0.0;0.0;0.0;0;0.0;  1.0000000E+04;  0.0000000E+00;  0.0000000E+00;  1.0000000E+04;  0.0000000E+00;  1.0000000E+04;0.0;0.0;0.0;0.0
  2.0999999E+00;  9.9999998E-03;  2.0000000E-02;795;0.0;0.0;0.0;1000.0;  4.0000001E-01;0.0;0;0.0;0.0;0.0;0;0.0;  1.0000000E+04;  0.0000000E+00;  0.0000000E+00;  1.0000000E+04;  0.0000000E+00;  1.0000000E+04;0.0;0.0;0.0;0.0
  2.0999999E+00;  9.9999998E-03;  3.9999999E-02;796;0.0;0.0;0.0;1000.0;  4.0000001E-01;0.0;0;0.0;0.0;0.0;0;0.0;  1.0000000E+04;  0.0000000E+00;  0.0000000E+00;  1.0000000E+04;  0.0000000E+00;  1.0000000E+04;0.0;0.0;0.0;0.0
  2.0999999E+00;  9.9999998E-03;  5.9999999E-02;797;0.0;0.0;0.0;1000.0;  4.0000001E-01;0.0;0;0.0;0.0;0.0;0;0.0;  1.0000000E+04;  0.0000000E+00;  0.0000000E+00;  1.0000000E+04;  0.0000000E+00;  1.0000000E+04;0.0;0.0;0.0;0.0
  2.0999999E+00;  9.9999998E-03;  7.9999998E-02;798;0.0;0.0;0.0;1000.0;  4.0000001E-01;0.0;0;0.0;0.0;0.0;0;0.0;  1.0000000E+04;  0.0000000E+00;  0.0000000E+00;  1.0000000E+04;  0.0000000E+00;  1.0000000E+04;0.0;0.0;0.0;0.0
  2.0999999E+00;  9.9999998E-03;  1.0000000E-01;799;0.0;0.0;0.0;1000.0;  4.0000001E-01;0.0;0;0.0;0.0;0.0;0;0.0;  1.0000000E+04;  0.0000000E+00;  0.0000000E+00;  1.0000000E+04;  0.0000000E+00;  1.0000000E+04;0.0;0.0;0.0;0.0
  2.0999999E+00;  9.9999998E-03;  1.2000000E-01;800;0.0;0.0;0.0;1000.0;  4.0000001E-01;0.0;0;0.0;0.0;0.0;0;0.0;  1.0000000E+04;  0.0000000E+00;  0.0000000E+00;  1.0000000E+04;  0.0000000E+00;  1.0000000E+04;0.0;0.0;0.0;0.0
  2.0999999E+00;  9.9999998E-03;  1.4000000E-01;801;0.0;0.0;0.0;1000.0;  4.0000001E-01;0.0;0;0.0;0.0;0.0;0;0.0;  1.0000000E+04;  0.0000000E+00;  0.0000000E+00;  1.0000000E+04;  0.0000000E+00;  1.0000000E+04;0.0;0.0;0.0;0.0
  2.0999999E+00;  9.9999998E-03;  1.6000000E-01;802;0.0;0.0;0.0;1000.0;  4.0000001E-01;0.0;0;0.0;0.0;0.0;0;0.0;  1.0000000E+04;  0.0000000E+00;  0.0000000E+00;  1.0000000E+04;  0.0000000E+00;  1.0000000E+04;0.0;0.0;0.0;0.0
  2.0999999E+00;  9.9999998E-03;  1.8000001E-01;803;0.0;0.0;0.0;1000.0;  4.0000001E-01;0.0;0;0.0;0.0;0.0;0;0.0;  1.0000000E+04;  0.0000000E+00;  0.0000000E+00;  1.0000000E+04;  0.0000000E+00;  1.0000000E+04;0.0;0.0;0.0;0.0
  2.0999999E+00;  9.9999998E-03;  2.0000000E-01;804;0.0;0.0;0.0;1000.0;  4.0000001E-01;0.0;0;0.0;0.0;0.0;0;0.0;  1.0000000E+04;  0.0000000E+00;  0.0000000E+00;  1.0000000E+04;  0.0000000E+00;  1.0000000E+04;0.0;0.0;0.0;0.0
  2.0999999E+00;  9.9999998E-03;  2.2000000E-01;805;0.0;0.0;0.0;1000.0;  4.0000001E-01;0.0;0;0.0;0.0;0.0;0;0.0;  1.0000000E+04;  0.0000000E+00;  0.0000000E+00;  1.0000000E+04;  0.0000000E+00;  1.0000000E+04;0.0;0.0;0.0;0.0
  2.0999999E+00;  9.9999998E-03;  2.3999999E-01;806;0.0;0.0;0.0;1000.0;  4.0000001E-01;0.0;0;0.0;0.0;0.0;0;0.0;  1.0000000E+04;  0.0000000E+00;  0.0000000E+00;  1.0000000E+04;  0.0000000E+00;  1.0000000E+04;0.0;0.0;0.0;0.0
  2.0999999E+00;  9.9999998E-03;  2.5999999E-01;807;0.0;0.0;0.0;1000.0;  4.0000001E-01;0.0;0;0.0;0.0;0.0;0;0.0;  1.0000000E+04;  0.0000000E+00;  0.0000000E+00;  1.0000000E+04;  0.0000000E+00;  1.0000000E+04;0.0;0.0;0.0;0.0
  2.0999999E+00;  9.9999998E-03;  2.8000000E-01;808;0.0;0.0;0.0;1000.0;  4.0000001E-01;0.0;0;0.0;0.0;0.0;0;0.0;  1.0000000E+04;  0.0000000E+00;  0.0000000E+00;  1.0000000E+04;  0.0000000E+00;  1.0000000E+04;0.0;0.0;0.0;0.0
  2.0999999E+00;  9.9999998E-03;  3.0000001E-01;809;0.0;0.0;0.0;1000.0;  4.0000001E-01;0.0;0;0.0;0.0;0.0;0;0.0;  1.0000000E+04;  0.0000000E+00;  0.0000000E+00;  1.0000000E+04;  0.0000000E+00;  1.0000000E+04;0.0;0.0;0.0;0.0
  2.0999999E+00;  9.9999998E-03;  3.1999999E-01;810;0.0;0.0;0.0;1000.0;  4.0000001E-01;0.0;0;0.0;0.0;0.0;0;0.0;  1.0000000E+04;  0.0000000E+00;  0.0000000E+00;  1.0000000E+04;  0.0000000E+00;  1.0000000E+04;0.0;0.0;0.0;0.0
  2.0999999E+00;  9.9999998E-03;  3.4000000E-01;811;0.0;0.0;0.0;1000.0;  4.0000001E-01;0.0;0;0.0;0.0;0.0;0;0.0;  1.0000000E+04;  0.0000000E+00;  0.0000000E+00;  1.0000000E+04;  0.0000000E+00;  1.0000000E+04;0.0;0.0;0.0;0.0
  2.0999999E+00;  9.9999998E-03;  3.6000001E-01;812;0.0;0.0;0.0;1000.0;  4.0000001E-01;0.0;0;0.0;0.0;0.0;0;0.0;  1.0000000E+04;  0.0000000E+00;  0.0000000E+00;  1.0000000E+04;  0.0000000E+00;  1.0000000E+04;0.0;0.0;0.0;0.0
  2.0999999E+00;  9.9999998E-03;  3.8000000E-01;813;0.0;0.0;0.0;1000.0;  4.0000001E-01;0.0;0;0.0;0.0;0.0;0;0.0;  1.0000000E+04;  0.0000000E+00;  0.0000000E+00;  1.0000000E+04;  0.0000000E+00;  1.0000000E+04;0.0;0.0;0.0;0.0
  2.0999999E+00;  9.9999998E-03;  4.0000001E-01;814;0.0;0.0;0.0;1000.0;  4.0000001E-01;0.0;0;0.0;0.0;0.0;0;0.0;  1.0000000E+04;  0.0000000E+00;  0.0000000E+00;  1.0000000E+04;  0.0000000E+00;  1.0000000E+04;0.0;0.0;0.0;0.0
  2.1199999E+00;  9.9999998E-03; -4.1999999E-01;815;0.0;0.0;0.0;1000.0;  4.0000001E-01;0.0;0;0.0;0.0;0.0;0;0.0;  1.0000000E+04;  0.0000000E+00;  0.0000000E+00;  1.0000000E+04;  0.0000000E+00;  1.0000000E+04;0.0;0.0;0.0;0.0
  2.1199999E+00;  9.9999998E-03; -4.0000001E-01;816;0.0;0.0;0.0;1000.0;  4.0000001E-01;0.0;0;0.0;0.0;0.0;0;0.0;  1.0000000E+04;  0.0000000E+00;  0.0000000E+00;  1.0000000E+04;  0.0000000E+00;  1.0000000E+04;0.0;0.0;0.0;0.0
  2.1199999E+00;  9.9999998E-03; -3.8000000E-01;817;0.0;0.0;0.0;1000.0;  4.0000001E-01;0.0;0;0.0;0.0;0.0;0;0.0;  1.0000000E+04;  0.0000000E+00;  0.0000000E+00;  1.0000000E+04;  0.0000000E+00;  1.0000000E+04;0.0;0.0;0.0;0.0
  2.1199999E+00;  9.9999998E-03; -3.6000001E-01;818;0.0;0.0;0.0;1000.0;  4.0000001E-01;0.0;0;0.0;0.0;0.0;0;0.0;  1.0000000E+04;  0.0000000E+00;  0.0000000E+00;  1.0000000E+04;  0.0000000E+00;  1.0000000E+04;0.0;0.0;0.0;0.0
  2.1199999E+00;  9.9999998E-03; -3.4000000E-01;819;0.0;0.0;0.0;1000.0;  4.0000001E-01;0.0;0;0.0;0.0;0.0;0;0.0;  1.0000000E+04;  0.0000000E+00;  0.0000000E+00;  1.0000000E+04;  0.0000000E+00;  1.0000000E+04;0.0;0.0;0.0;0.0
  2.1199999E+00;  9.9999998E-03; -3.1999999E-01;820;0.0;0.0;0.0;1000.0;  4.0000001E-01;0.0;0;0.0;0.0;0.0;0;0.0;  1.0000000E+04;  0.0000000E+00;  0.0000000E+00;  1.0000000E+04;  0.0000000E+00;  1.0000000E+04;0.0;0.0;0.0;0.0
  2.1199999E+00;  9.9999998E-03; -3.0000001E-01;821;0.0;0.0;0.0;1000.0;  4.0000001E-01;0.0;0;0.0;0.0;0.0;0;0.0;  1.0000000E+04;  0.0000000E+00;  0.0000000E+00;  1.0000000E+04;  0.0000000E+00;  1.0000000E+04;0.0;0.0;0.0;0.0
  2.1199999E+00;  9.9999998E-03; -2.8000000E-01;822;0.0;0.0;0.0;1000.0;  4.0000001E-01;0.0;0;0.0;0.0;0.0;0;0.0;  1.0000000E+04;  0.0000000E+00;  0.0000000E+00;  1.0000000E+04;  0.0000000E+00;  1.0000000E+04;0.0;0.0;0.0;0.0
  2.1199999E+00;  9.9999998E-03; -2.5999999E-01;823;0.0;0.0;0.0;1000.0;  4.0000001E-01;0.0;0;0.0;0.0;0.0;0;0.0;  1.0000000E+04;  0.0000000E+00;  0.0000000E+00;  1.0000000E+04;  0.0000000E+00;  1.0000000E+04;0.0;0.0;0.0;0.0
  2.1199999E+00;  9.9999998E-03; -2.3999999E-01;824;0.0;0.0;0.0;1000.0;  4.0000001E-01;0.0;0;0.0;0.0;0.0;0;0.0;  1.0000000E+04;  0.0000000E+00;  0.0000000E+00;  1.0000000E+04;  0.0000000E+00;  1.0000000E+04;0.0;0.0;0.0;0.0
  2.1199999E+00;  9.9999998E-03; -2.2000000E-01;825;0.0;0.0;0.0;1000.0;  4.0000001E-01;0.0;0;0.0;0.0;0.0;0;0.0;  1.0000000E+04;  0.0000000E+00;  0.0000000E+00;  1.0000000E+04;  0.0000000E+00;  1.0000000E+04;0.0;0.0;0.0;0.0
  2.1199999E+00;  9.9999998E-03; -2.0000000E-01;826;0.0;0.0;0.0;1000.0;  4.0000001E-01;0.0;0;0.0;0.0;0.0;0;0.0;  1.0000000E+04;  0.0000000E+00;  0.0000000E+00;  1.0000000E+04;  0.0000000E+00;  1.0000000E+04;0.0;0.0;0.0;0.0
  2.1199999E+00;  9.9999998E-03; -1.8000001E-01;827;0.0;0.0;0.0;1000.0;  4.0000001E-01;0.0;0;0.0;0.0;0.0;0;0.0;  1.0000000E+04;  0.0000000E+00;  0.0000000E+00;  1.0000000E+04;  0.0000000E+00;  1.0000000E+04;0.0;0.0;0.0;0.0
  2.1199999E+00;  9.9999998E-03; -1.6000000E-01;828;0.0;0.0;0.0;1000.0;  4.0000001E-01;0.0;0;0.0;0.0;0.0;0;0.0;  1.0000000E+04;  0.0000000E+00;  0.0000000E+00;  1.0000000E+04;  0.0000000E+00;  1.0000000E+04;0.0;0.0;0.0;0.0
  2.1199999E+00;  9.9999998E-03; -1.4000000E-01;829;0.0;0.0;0.0;1000.0;  4.0000001E-01;0.0;0;0.0;0.0;0.0;0;0.0;  1.0000000E+04;  0.0000000E+00;  0.0000000E+00;  1.0000000E+04;  0.0000000E+00;  1.0000000E+04;0.0;0.0;0.0;0.0
  2.1199999E+00;  9.9999998E-03; -1.2000000E-01;830;0.0;0.0;0.0;1000.0;  4.0000001E-01;0.0;0;0.0;0.0;0.0;0;0.0;  1.0000000E+04;  0.0000000E+00;  0.0000000E+00;  1.0000000E+04;  0.0000000E+00;  1.0000000E+04;0.0;0.0;0.0;0.0
  2.1199999E+00;  9.9999998E-03; -1.0000000E-01;831;0.0;0.0;0.0;1000.0;  4.0000001E-01;0.0;0;0.0;0.0;0.0;0;0.0;  1.0000000E+04;  0.0000000E+00;  0.0000000E+00;  1.0000000E+04;  0.0000000E+00;  1.0000000E+04;0.0;0.0;0.0;0.0
  2.1199999E+00;  9.9999998E-03; -7.9999998E-02;832;0.0;0.0;0.0;1000.0;  4.0000001E-01;0.0;0;0.0;0.0;0.0;0;0.0;  1.0000000E+04;  0.0000000E+00;  0.0000000E+00;  1.0000000E+04;  0.0000000E+00;  1.0000000E+04;0.0;0.0;0.0;0.0
  2.1199999E+00;  9.9999998E-03; -5.9999999E-02;833;0.0;0.0;0.0;1000.0;  4.0000001E-01;0.0;0;0.0;0.0;0.0;0;0.0;  1.0000000E+04;  0.0000000E+00;  0.0000000E+00;  1.0000000E+04;  0.0000000E+00;  1.0000000E+04;0.0;0.0;0.0;0.0
  2.1199999E+00;  9.9999998E-03; -3.9999999E-02;834;0.0;0.0;0.0;1000.0;  4.0000001E-01;0.0;0;0.0;0.0;0.0;0;0.0;  1.0000000E+04;  0.0000000E+00;  0.0000000E+00;  1.0000000E+04;  0.0000000E+00;  1.0000000E+04;0.0;0.0;0.0;0.0
  2.1199999E+00;  9.9999998E-03; -2.0000000E-02;835;0.0;0.0;0.0;1000.0;  4.0000001E-01;0.0;0;0.0;0.0;0.0;0;0.0;  1.0000000E+04;  0.0000000E+00;  0.0000000E+00;  1.0000000E+04;  0.0000000E+00;  1.0000000E+04;0.0;0.0;0.0;0.0
  2.1199999E+00;  9.9999998E-03;  0.0000000E+00;836;0.0;0.0;0.0;1000.0;  4.0000001E-01;0.0;0;0.0;0.0;0.0;0;0.0;  1.0000000E+04;  0.0000000E+00;  0.0000000E+00;  1.0000000E+04;  0.0000000E+00;  1.0000000E+04;0.0;0.0;0.0;0.0
  2.1199999E+00;  9.9999998E-03;  2.0000000E-02;837;0.0;0.0;0.0;1000.0;  4.0000001E-01;0.0;0;0.0;0.0;0.0;0;0.0;  1.0000000E+04;  0.0000000E+00;  0.0000000E+00;  1.0000000E+04;  0.0000000E+00;  1.0000000E+04;0.0;0.0;0.0;0.0
  2.1199999E+00;  9.9999998E-03;  3.9999999E-02;838;0.0;0.0;0.0;1000.0;  4.0000001E-01;0.0;0;0.0;0.0;0.0;0;0.0;  1.0000000E+04;  0.0000000E+00;  0.0000000E+00;  1.0000000E+04;  0.0000000E+00;  1.0000000E+04;0.0;0.0;0.0;0.0
  2.1199999E+00;  9.9999998E-03;  5.9999999E-02;839;0.0;0.0;0.0;1000.0;  4.0000001E-01;0.0;0;0.0;0.0;0.0;0;0.0;  1.0000000E+04;  0.0000000E+00;  0.0000000E+00;  1.0000000E+04;  0.0000000E+00;  1.0000000E+04;0.0;0.0;0.0;0.0
  2.1199999E+00;  9.9999998E-03;  7.9999998E-02;840;0.0;0.0;0.0;1000.0;  4.0000001E-01;0.0;0;0.0;0.0;0.0;0;0.0;  1.0000000E+04;  0.0000000E+00;  0.0000000E+00;  1.0000000E+04;  0.0000000E+00;  1.0000000E+04;0.0;0.0;0.0;0.0
  2.1199999E+00;  9.9999998E-03;  1.0000000E-01;841;0.0;0.0;0.0;1000.0;  4.0000001E-01;0.0;0;0.0;0.0;0.0;0;0.0;  1.0000000E+04;  0.0000000E+00;  0.0000000E+00;  1.0000000E+04;  0.0000000E+00;  1.0000000E+04;0.0;0.0;0.0;0.0
  2.1199999E+00;  9.9999998E-03;  1.2000000E-01;842;0.0;0.0;0.0;1000.0;  4.0000001E-01;0.0;0;0.0;0.0;0.0;0;0.0;  1.0000000E+04;  0.0000000E+00;  0.0000000E+00;  1.0000000E+04;  0.0000000E+00;  1.0000000E+04;0.0;0.0;0.0;0.0
  2.1199999E+00;  9.9999998E-03;  1.4000000E-01;843;0.0;0.0;0.0;1000.0;  4.0000001E-01;0.0;0;0.0;0.0;0.0;0;0.0;  1.0000000E+04;  0.0000000E+00;  0.0000000E+00;  1.0000000E+04;  0.0000000E+00;  1.0000000E+04;0.0;0.0;0.0;0.0
  2.1199999E+00;  9.9999998E-03;  1.6000000E-01;844;0.0;0.0;0.0;1000.0;  4.0000001E-01;0.0;0;0.0;0.0;0.0;0;0.0;  1.0000000E+04;  0.0000000E+00;  0.0000000E+00;  1.0000000E+04;  0.0000000E+00;  1.0000000E+04;0.0;0.0;0.0;0.0
  2.1199999E+00;  9.9999998E-03;  1.8000001E-01;845;0.0;0.0;0.0;1000.0;  4.0000001E-01;0.0;0;0.0;0.0;0.0;0;0.0;  1.0000000E+04;  0.0000000E+00;  0.0000000E+00;  1.0000000E+04;  0.0000000E+00;  1.0000000E+04;0.0;0.0;0.0;0.0
  2.1199999E+00;  9.9999998E-03;  2.0000000E-01;846;0.0;0.0;0.0;1000.0;  4.0000001E-01;0.0;0;0.0;0.0;0.0;0;0.0;  1.0000000E+04;  0.0000000E+00;  0.0000000E+00;  1.0000000E+04;  0.0000000E+00;  1.0000000E+04;0.0;0.0;0.0;0.0
  2.1199999E+00;  9.9999998E-03;  2.2000000E-01;847;0.0;0.0;0.0;1000.0;  4.0000001E-01;0.0;0;0.0;0.0;0.0;0;0.0;  1.0000000E+04;  0.0000000E+00;  0.0000000E+00;  1.0000000E+04;  0.0000000E+00;  1.0000000E+04;0.0;0.0;0.0;0.0
  2.1199999E+00;  9.9999998E-03;  2.3999999E-01;848;0.0;0.0;0.0;1000.0;  4.0000001E-01;0.0;0;0.0;0.0;0.0;0;0.0;  1.0000000E+04;  0.0000000E+00;  0.0000000E+00;  1.0000000E+04;  0.0000000E+00;  1.0000000E+04;0.0;0.0;0.0;0.0
  2.1199999E+00;  9.9999998E-03;  2.5999999E-01;849;0.0;0.0;0.0;1000.0;  4.0000001E-01;0.0;0;0.0;0.0;0.0;0;0.0;  1.0000000E+04;  0.0000000E+00;  0.0000000E+00;  1.0000000E+04;  0.0000000E+00;  1.0000000E+04;0.0;0.0;0.0;0.0
  2.1199999E+00;  9.9999998E-03;  2.8000000E-01;850;0.0;0.0;0.0;1000.0;  4.0000001E-01;0.0;0;0.0;0.0;0.0;0;0.0;  1.0000000E+04;  0.0000000E+00;  0.0000000E+00;  1.0000000E+04;  0.0000000E+00;  1.0000000E+04;0.0;0.0;0.0;0.0
  2.1199999E+00;  9.9999998E-03;  3.0000001E-01;851;0.0;0.0;0.0;1000.0;  4.0000001E-01;0.0;0;0.0;0.0;0.0;0;0.0;  1.0000000E+04;  0.0000000E+00;  0.0000000E+00;  1.0000000E+04;  0.0000000E+00;  1.0000000E+04;0.0;0.0;0.0;0.0
  2.1199999E+00;  9.9999998E-03;  3.1999999E-01;852;0.0;0.0;0.0;1000.0;  4.0000001E-01;0.0;0;0.0;0.0;0.0;0;0.0;  1.0000000E+04;  0.0000000E+00;  0.0000000E+00;  1.0000000E+04;  0.0000000E+00;  1.0000000E+04;0.0;0.0;0.0;0.0
  2.1199999E+00;  9.9999998E-03;  3.4000000E-01;853;0.0;0.0;0.0;1000.0;  4.0000001E-01;0.0;0;0.0;0.0;0.0;0;0.0;  1.0000000E+04;  0.0000000E+00;  0.0000000E+00;  1.0000000E+04;  0.0000000E+00;  1.0000000E+04;0.0;0.0;0.0;0.0
  2.1199999E+00;  9.9999998E-03;  3.6000001E-01;854;0.0;0.0;0.0;1000.0;  4.0000001E-01;0.0;0;0.0;0.0;0.0;0;0.0;  1.0000000E+04;  0.0000000E+00;  0.0000000E+00;  1.0000000E+04;  0.0000000E+00;  1.0000000E+04;0.0;0.0;0.0;0.0
  2.1199999E+00;  9.9999998E-03;  3.8000000E-01;855;0.0;0.0;0.0;1000.0;  4.0000001E-01;0.0;0;0.0;0.0;0.0;0;0.0;  1.0000000E+04;  0.0000000E+00;  0.0000000E+00;  1.0000000E+04;  0.0000000E+00;  1.0000000E+04;0.0;0.0;0.0;0.0
  2.1199999E+00;  9.9999998E-03;  4.0000001E-01;856;0.0;0.0;0.0;1000.0;  4.0000001E-01;0.0;0;0.0;0.0;0.0;0;0.0;  1.0000000E+04;  0.0000000E+00;  0.0000000E+00;  1.0000000E+04;  0.0000000E+00;  1.0000000E+04;0.0;0.0;0.0;0.0
  2.1400001E+00;  9.9999998E-03; -3.8000000E-01;857;0.0;0.0;0.0;1000.0;  4.0000001E-01;0.0;0;0.0;0.0;0.0;0;0.0;  1.0000000E+04;  0.0000000E+00;  0.0000000E+00;  1.0000000E+04;  0.0000000E+00;  1.0000000E+04;0.0;0.0;0.0;0.0
  2.1400001E+00;  9.9999998E-03; -3.6000001E-01;858;0.0;0.0;0.0;1000.0;  4.0000001E-01;0.0;0;0.0;0.0;0.0;0;0.0;  1.0000000E+04;  0.0000000E+00;  0.0000000E+00;  1.0000000E+04;  0.0000000E+00;  1.0000000E+04;0.0;0.0;0.0;0.0
  2.1400001E+00;  9.9999998E-03; -3.4000000E-01;859;0.0;0.0;0.0;1000.0;  4.0000001E-01;0.0;0;0.0;0.0;0.0;0;0.0;  1.0000000E+04;  0.0000000E+00;  0.0000000E+00;  1.0000000E+04;  0.0000000E+00;  1.0000000E+04;0.0;0.0;0.0;0.0
  2.1400001E+00;  9.9999998E-03; -3.1999999E-01;860;0.0;0.0;0.0;1000.0;  4.0000001E-01;0.0;0;0.0;0.0;0.0;0;0.0;  1.0000000E+04;  0.0000000E+00;  0.0000000E+00;  1.0000000E+04;  0.0000000E+00;  1.0000000E+04;0.0;0.0;0.0;0.0
  2.1400001E+00;  9.9999998E-03; -3.0000001E-01;861;0.0;0.0;0.0;1000.0;  4.0000001E-01;0.0;0;0.0;0.0;0.0;0;0.0;  1.0000000E+04;  0.0000000E+00;  0.0000000E+00;  1.0000000E+04;  0.0000000E+00;  1.0000000E+04;0.0;0.0;0.0;0.0
  2.1400001E+00;  9.9999998E-03; -2.8000000E-01;862;0.0;0.0;0.0;1000.0;  4.0000001E-01;0.0;0;0.0;0.0;0.0;0;0.0;  1.0000000E+04;  0.0000000E+00;  0.0000000E+00;  1.0000000E+04;  0.0000000E+00;  1.0000000E+04;0.0;0.0;0.0;0.0
  2.1400001E+00;  9.9999998E-03; -2.5999999E-01;863;0.0;0.0;0.0;1000.0;  4.0000001E-01;0.0;0;0.0;0.0;0.0;0;0.0;  1.0000000E+04;  0.0000000E+00;  0.0000000E+00;  1.0000000E+04;  0.0000000E+00;  1.0000000E+04;0.0;0.0;0.0;0.0
  2.1400001E+00;  9.9999998E-03; -2.3999999E-01;864;0.0;0.0;0.0;1000.0;  4.0000001E-01;0.0;0;0.0;0.0;0.0;0;0.0;  1.0000000E+04;  0.0000000E+00;  0.0000000E+00;  1.0000000E+04;  0.0000000E+00;  1.0000000E+04;0.0;0.0;0.0;0.0
  2.1400001E+00;  9.9999998E-03; -2.2000000E-01;865;0.0;0.0;0.0;1000.0;  4.0000001E-01;0.0;0;0.0;0.0;0.0;0;0.0;  1.0000000E+04;  0.0000000E+00;  0.0000000E+00;  1.0000000E+04;  0.0000000E+00;  1.0000000E+04;0.0;0.0;0.0;0.0
  2.1400001E+00;  9.9999998E-03; -2.0000000E-01;866;0.0;0.0;0.0;1000.0;  4.0000001E-01;0.0;0;0.0;0.0;0.0;0;0.0;  1.0000000E+04;  0.0000000E+00;  0.0000000E+00;  1.0000000E+04;  0.0000000E+00;  1.0000000E+04;0.0;0.0;0.0;0.0
  2.1400001E+00;  9.9999998E-03; -1.8000001E-01;867;0.0;0.0;0.0;1000.0;  4.0000001E-01;0.0;0;0.0;0.0;0.0;0;0.0;  1.0000000E+04;  0.0000000E+00;  0.0000000E+00;  1.0000000E+04;  0.0000000E+00;  1.0000000E+04;0.0;0.0;0.0;0.0
  2.1400001E+00;  9.9999998E-03; -1.6000000E-01;868;0.0;0.0;0.0;1000.0;  4.0000001E-01;0.0;0;0.0;0.0;0.0;0;0.0;  1.0000000E+04;  0.0000000E+00;  0.0000000E+00;  1.0000000E+04;  0.0000000E+00;  1.0000000E+04;0.0;0.0;0.0;0.0
  2.1400001E+00;  9.9999998E-03; -1.4000000E-01;869;0.0;0.0;0.0;1000.0;  4.0000001E-01;0.0;0;0.0;0.0;0.0;0;0.0;  1.0000000E+04;  0.0000000E+00;  0.0000000E+00;  1.0000000E+04;  0.0000000E+00;  1.0000000E+04;0.0;0.0;0.0;0.0
  2.1400001E+00;  9.9999998E-03; -1.2000000E-01;870;0.0;0.0;0.0;1000.0;  4.0000001E-01;0.0;0;0.0;0.0;0.0;0;0.0;  1.0000000E+04;  0.0000000E+00;  0.0000000E+00;  1.0000000E+04;  0.0000000E+00;  1.0000000E+04;0.0;0.0;0.0;0.0
  2.1400001E+00;  9.9999998E-03; -1.0000000E-01;871;0.0;0.0;0.0;1000.0;  4.0000001E-01;0.0;0;0.0;0.0;0.0;0;0.0;  1.0000000E+04;  0.0000000E+00;  0.0000000E+00;  1.0000000E+04;  0.0000000E+00;  1.0000000E+04;0.0;0.0;0.0;0.0
  2.1400001E+00;  9.9999998E-03; -7.9999998E-02;872;0.0;0.0;0.0;1000.0;  4.0000001E-01;0.0;0;0.0;0.0;0.0;0;0.0;  1.0000000E+04;  0.0000000E+00;  0.0000000E+00;  1.0000000E+04;  0.0000000E+00;  1.0000000E+04;0.0;0.0;0.0;0.0
  2.1400001E+00;  9.9999998E-03; -5.9999999E-02;873;0.0;0.0;0.0;1000.0;  4.0000001E-01;0.0;0;0.0;0.0;0.0;0;0.0;  1.0000000E+04;  0.0000000E+00;  0.0000000E+00;  1.0000000E+04;  0.0000000E+00;  1.0000000E+04;0.0;0.0;0.0;0.0
  2.1400001E+00;  9.9999998E-03; -3.9999999E-02;874;0.0;0.0;0.0;1000.0;  4.0000001E-01;0.0;0;0.0;0.0;0.0;0;0.0;  1.0000000E+04;  0.0000000E+00;  0.0000000E+00;  1.0000000E+04;  0.0000000E+00;  1.0000000E+04;0.0;0.0;0.0;0.0
  2.1400001E+00;  9.9999998E-03; -2.0000000E-02;875;0.0;0.0;0.0;1000.0;  4.0000001E-01;0.0;0;0.0;0.0;0.0;0;0.0;  1.0000000E+04;  0.0000000E+00;  0.0000000E+00;  1.0000000E+04;  0.0000000E+00;  1.0000000E+04;0.0;0.0;0.0;0.0
  2.1400001E+00;  9.9999998E-03;  0.0000000E+00;876;0.0;0.0;0.0;1000.0;  4.0000001E-01;0.0;0;0.0;0.0;0.0;0;0.0;  1.0000000E+04;  0.0000000E+00;  0.0000000E+00;  1.0000000E+04;  0.0000000E+00;  1.0000000E+04;0.0;0.0;0.0;0.0
  2.1400001E+00;  9.9999998E-03;  2.0000000E-02;877;0.0;0.0;0.0;1000.0;  4.0000001E-01;0.0;0;0.0;0.0;0.0;0;0.0;  1.0000000E+04;  0.0000000E+00;  0.0000000E+00;  1.0000000E+04;  0.0000000E+00;  1.0000000E+04;0.0;0.0;0.0;0.0
  2.1400001E+00;  9.9999998E-03;  3.9999999E-02;878;0.0;0.0;0.0;1000.0;  4.0000001E-01;0.0;0;0.0;0.0;0.0;0;0.0;  1.0000000E+04;  0.0000000E+00;  0.0000000E+00;  1.0000000E+04;  0.0000000E+00;  1.0000000E+04;0.0;0.0;0.0;0.0
  2.1400001E+00;  9.9999998E-03;  5.9999999E-02;879;0.0;0.0;0.0;1000.0;  4.0000001E-01;0.0;0;0.0;0.0;0.0;0;0.0;  1.0000000E+04;  0.0000000E+00;  0.0000000E+00;  1.0000000E+04;  0.0000000E+00;  1.0000000E+04;0.0;0.0;0.0;0.0
  2.1400001E+00;  9.9999998E-03;  7.9999998E-02;880;0.0;0.0;0.0;1000.0;  4.0000001E-01;0.0;0;0.0;0.0;0.0;0;0.0;  1.0000000E+04;  0.0000000E+00;  0.0000000E+00;  1.0000000E+04;  0.0000000E+00;  1.0000000E+04;0.0;0.0;0.0;0.0
  2.1400001E+00;  9.9999998E-03;  1.0000000E-01;881;0.0;0.0;0.0;1000.0;  4.0000001E-01;0.0;0;0.0;0.0;0.0;0;0.0;  1.0000000E+04;  0.0000000E+00;  0.0000000E+00;  1.0000000E+04;  0.0000000E+00;  1.0000000E+04;0.0;0.0;0.0;0.0
  2.1400001E+00;  9.9999998E-03;  1.2000000E-01;882;0.0;0.0;0.0;1000.0;  4.0000001E-01;0.0;0;0.0;0.0;0.0;0;0.0;  1.0000000E+04;  0.0000000E+00;  0.0000000E+00;  1.0000000E+04;  0.0000000E+00;  1.0000000E+04;0.0;0.0;0.0;0.0
  2.1400001E+00;  9.9999998E-03;  1.4000000E-01;883;0.0;0.0;0.0;1000.0;  4.0000001E-01;0.0;0;0.0;0.0;0.0;0;0.0;  1.0000000E+04;  0.0000000E+00;  0.0000000E+00;  1.0000000E+04;  0.0000000E+00;  1.0000000E+04;0.0;0.0;0.0;0.0
  2.1400001E+00;  9.9999998E-03;  1.6000000E-01;884;0.0;0.0;0.0;1000.0;  4.0000001E-01;0.0;0;0.0;0.0;0.0;0;0.0;  1.0000000E+04;  0.0000000E+00;  0.0000000E+00;  1.0000000E+04;  0.0000000E+00;  1.0000000E+04;0.0;0.0;0.0;0.0
  2.1400001E+00;  9.9999998E-03;  1.8000001E-01;885;0.0;0.0;0.0;1000.0;  4.0000001E-01;0.0;0;0.0;0.0;0.0;0;0.0;  1.0000000E+04;  0.0000000E+00;  0.0000000E+00;  1.0000000E+04;  0.0000000E+00;  1.0000000E+04;0.0;0.0;0.0;0.0
  2.1400001E+00;  9.9999998E-03;  2.0000000E-01;886;0.0;0.0;0.0;1000.0;  4.0000001E-01;0.0;0;0.0;0.0;0.0;0;0.0;  1.0000000E+04;  0.0000000E+00;  0.0000000E+00;  1.0000000E+04;  0.0000000E+00;  1.0000000E+04;0.0;0.0;0.0;0.0
  2.1400001E+00;  9.9999998E-03;  2.2000000E-01;887;0.0;0.0;0.0;1000.0;  4.0000001E-01;0.0;0;0.0;0.0;0.0;0;0.0;  1.0000000E+04;  0.0000000E+00;  0.0000000E+00;  1.0000000E+04;  0.0000000E+00;  1.0000000E+04;0.0;0.0;0.0;0.0
  2.1400001E+00;  9.9999998E-03;  2.3999999E-01;888;0.0;0.0;0.0;1000.0;  4.0000001E-01;0.0;0;0.0;0.0;0.0;0;0.0;  1.0000000E+04;  0.0000000E+00;  0.0000000E+00;  1.0000000E+04;  0.0000000E+00;  1.0000000E+04;0.0;0.0;0.0;0.0
  2.1400001E+00;  9.9999998E-03;  2.5999999E-01;889;0.0;0.0;0.0;1000.0;  4.0000001E-01;0.0;0;0.0;0.0;0.0;0;0.0;  1.0000000E+04;  0.0000000E+00;  0.0000000E+00;  1.0000000E+04;  0.0000000E+00;  1.0000000E+04;0.0;0.0;0.0;0.0
  2.1400001E+00;  9.9999998E-03;  2.8000000E-01;890;0.0;0.0;0.0;1000.0;  4.0000001E-01;0.0;0;0.0;0.0;0.0;0;0.0;  1.0000000E+04;  0.0000000E+00;  0.0000000E+00;  1.0000000E+04;  0.0000000E+00;  1.0000000E+04;0.0;0.0;0.0;0.0
  2.1400001E+00;  9.9999998E-03;  3.0000001E-01;891;0.0;0.0;0.0;1000.0;  4.0000001E-01;0.0;0;0.0;0.0;0.0;0;0.0;  1.0000000E+04;  0.0000000E+00;  0.0000000E+00;  1.0000000E+04;  0.0000000E+00;  1.0000000E+04;0.0;0.0;0.0;0.0
  2.1400001E+00;  9.9999998E-03;  3.1999999E-01;892;0.0;0.0;0.0;1000.0;  4.0000001E-01;0.0;0;0.0;0.0;0.0;0;0.0;  1.0000000E+04;  0.0000000E+00;  0.0000000E+00;  1.0000000E+04;  0.0000000E+00;  1.0000000E+04;0.0;0.0;0.0;0.0
  2.1400001E+00;  9.9999998E-03;  3.4000000E-01;893;0.0;0.0;0.0;1000.0;  4.0000001E-01;0.0;0;0.0;0.0;0.0;0;0.0;  1.0000000E+04;  0.0000000E+00;  0.0000000E+00;  1.0000000E+04;  0.0000000E+00;  1.0000000E+04;0.0;0.0;0.0;0.0
  2.1400001E+00;  9.9999998E-03;  3.6000001E-01;894;0.0;0.0;0.0;1000.0;  4.0000001E-01;0.0;0;0.0;0.0;0.0;0;0.0;  1.0000000E+04;  0.0000000E+00;  0.0000000E+00;  1.0000000E+04;  0.0000000E+00;  1.0000000E+04;0.0;0.0;0.0;0.0
  2.1400001E+00;  9.9999998E-03;  3.8000000E-01;895;0.0;0.0;0.0;1000.0;  4.0000001E-01;0.0;0;0.0;0.0;0.0;0;0.0;  1.0000000E+04;  0.0000000E+00;  0.0000000E+00;  1.0000000E+04;  0.0000000E+00;  1.0000000E+04;0.0;0.0;0.0;0.0
  2.1400001E+00;  9.9999998E-03;  4.0000001E-01;896;0.0;0.0;0.0;1000.0;  4.0000001E-01;0.0;0;0.0;0.0;0.0;0;0.0;  1.0000000E+04;  0.0000000E+00;  0.0000000E+00;  1.0000000E+04;  0.0000000E+00;  1.0000000E+04;0.0;0.0;0.0;0.0
  2.1600001E+00;  9.9999998E-03; -2.8000000E-01;897;0.0;0.0;0.0;1000.0;  4.0000001E-01;0.0;0;0.0;0.0;0.0;0;0.0;  1.0000000E+04;  0.0000000E+00;  0.0000000E+00;  1.0000000E+04;  0.0000000E+00;  1.0000000E+04;0.0;0.0;0.0;0.0
  2.1600001E+00;  9.9999998E-03; -2.5999999E-01;898;0.0;0.0;0.0;1000.0;  4.0000001E-01;0.0;0;0.0;0.0;0.0;0;0.0;  1.0000000E+04;  0.0000000E+00;  0.0000000E+00;  1.0000000E+04;  0.0000000E+00;  1.0000000E+04;0.0;0.0;0.0;0.0
  2.1600001E+00;  9.9999998E-03; -2.3999999E-01;899;0.0;0.0;0.0;1000.0;  4.0000001E-01;0.0;0;0.0;0.0;0.0;0;0.0;  1.0000000E+04;  0.0000000E+00;  0.0000000E+00;  1.0000000E+04;  0.0000000E+00;  1.0000000E+04;0.0;0.0;0.0;0.0
  2.1600001E+00;  9.9999998E-03; -2.2000000E-01;900;0.0;0.0;0.0;1000.0;  4.0000001E-01;0.0;0;0.0;0.0;0.0;0;0.0;  1.0000000E+04;  0.0000000E+00;  0.0000000E+00;  1.0000000E+04;  0.0000000E+00;  1.0000000E+04;0.0;0.0;0.0;0.0
  2.1600001E+00;  9.9999998E-03; -2.0000000E-01;901;0.0;0.0;0.0;1000.0;  4.0000001E-01;0.0;0;0.0;0.0;0.0;0;0.0;  1.0000000E+04;  0.0000000E+00;  0.0000000E+00;  1.0000000E+04;  0.0000000E+00;  1.0000000E+04;0.0;0.0;0.0;0.0
  2.1600001E+00;  9.9999998E-03; -1.8000001E-01;902;0.0;0.0;0.0;1000.0;  4.0000001E-01;0.0;0;0.0;0.0;0.0;0;0.0;  1.0000000E+04;  0.0000000E+00;  0.0000000E+00;  1.0000000E+04;  0.0000000E+00;  1.0000000E+04;0.0;0.0;0.0;0.0
  2.1600001E+00;  9.9999998E-03; -1.6000000E-01;903;0.0;0.0;0.0;1000.0;  4.0000001E-01;0.0;0;0.0;0.0;0.0;0;0.0;  1.0000000E+04;  0.0000000E+00;  0.0000000E+00;  1.0000000E+04;  0.0000000E+00;  1.0000000E+04;0.0;0.0;0.0;0.0
  2.1600001E+00;  9.9999998E-03; -1.4000000E-01;904;0.0;0.0;0.0;1000.0;  4.0000001E-01;0.0;0;0.0;0.0;0.0;0;0.0;  1.0000000E+04;  0.0000000E+00;  0.0000000E+00;  1.0000000E+04;  0.0000000E+00;  1.0000000E+04;0.0;0.0;0.0;0.0
  2.1600001E+00;  9.9999998E-03; -1.2000000E-01;905;0.0;0.0;0.0;1000.0;  4.0000001E-01;0.0;0;0.0;0.0;0.0;0;0.0;  1.0000000E+04;  0.0000000E+00;  0.0000000E+00;  1.0000000E+04;  0.0000000E+00;  1.0000000E+04;0.0;0.0;0.0;0.0
  2.1600001E+00;  9.9999998E-03; -1.0000000E-01;906;0.0;0.0;0.0;1000.0;  4.0000001E-01;0.0;0;0.0;0.0;0.0;0;0.0;  1.0000000E+04;  0.0000000E+00;  0.0000000E+00;  1.0000000E+04;  0.0000000E+00;  1.0000000E+04;0.0;0.0;0.0;0.0
  2.1600001E+00;  9.9999998E-03; -7.9999998E-02;907;0.0;0.0;0.0;1000.0;  4.0000001E-01;0.0;0;0.0;0.0;0.0;0;0.0;  1.0000000E+04;  0.0000000E+00;  0.0000000E+00;  1.0000000E+04;  0.0000000E+00;  1.0000000E+04;0.0;0.0;0.0;0.0
  2.1600001E+00;  9.9999998E-03; -5.9999999E-02;908;0.0;0.0;0.0;1000.0;  4.0000001E-01;0.0;0;0.0;0.0;0.0;0;0.0;  1.0000000E+04;  0.0000000E+00;  0.0000000E+00;  1.0000000E+04;  0.0000000E+00;  1.0000000E+04;0.0;0.0;0.0;0.0
  2.1600001E+00;  9.9999998E-03; -3.9999999E-02;909;0.0;0.0;0.0;1000.0;  4.0000001E-01;0.0;0;0.0;0.0;0.0;0;0.0;  1.0000000E+04;  0.0000000E+00;  0.0000000E+00;  1.0000000E+04;  0.0000000E+00;  1.0000000E+04;0.0;0.0;0.0;0.0
  2.1600001E+00;  9.9999998E-03; -2.0000000E-02;910;0.0;0.0;0.0;1000.0;  4.0000001E-01;0.0;0;0.0;0.0;0.0;0;0.0;  1.0000000E+04;  0.0000000E+00;  0.0000000E+00;  1.0000000E+04;  0.0000000E+00;  1.0000000E+04;0.0;0.0;0.0;0.0
  2.1600001E+00;  9.9999998E-03;  0.0000000E+00;911;0.0;0.0;0.0;1000.0;  4.0000001E-01;0.0;0;0.0;0.0;0.0;0;0.0;  1.0000000E+04;  0.0000000E+00;  0.0000000E+00;  1.0000000E+04;  0.0000000E+00;  1.0000000E+04;0.0;0.0;0.0;0.0
  2.1600001E+00;  9.9999998E-03;  2.0000000E-02;912;0.0;0.0;0.0;1000.0;  4.0000001E-01;0.0;0;0.0;0.0;0.0;0;0.0;  1.0000000E+04;  0.0000000E+00;  0.0000000E+00;  1.0000000E+04;  0.0000000E+00;  1.0000000E+04;0.0;0.0;0.0;0.0
  2.1600001E+00;  9.9999998E-03;  3.9999999E-02;913;0.0;0.0;0.0;1000.0;  4.0000001E-01;0.0;0;0.0;0.0;0.0;0;0.0;  1.0000000E+04;  0.0000000E+00;  0.0000000E+00;  1.0000000E+04;  0.0000000E+00;  1.0000000E+04;0.0;0.0;0.0;0.0
  2.1600001E+00;  9.9999998E-03;  5.9999999E-02;914;0.0;0.0;0.0;1000.0;  4.0000001E-01;0.0;0;0.0;0.0;0.0;0;0.0;  1.0000000E+04;  0.0000000E+00;  0.0000000E+00;  1.0000000E+04;  0.0000000E+00;  1.0000000E+04;0.0;0.0;0.0;0.0
  2.1600001E+00;  9.9999998E-03;  7.9999998E-02;915;0.0;0.0;0.0;1000.0;  4.0000001E-01;0.0;0;0.0;0.0;0.0;0;0.0;  1.0000000E+04;  0.0000000E+00;  0.0000000E+00;  1.0000000E+04;  0.0000000E+00;  1.0000000E+04;0.0;0.0;0.0;0.0
  2.1600001E+00;  9.9999998E-03;  1.0000000E-01;916;0.0;0.0;0.0;1000.0;  4.0000001E-01;0.0;0;0.0;0.0;0.0;0;0.0;  1.0000000E+04;  0.0000000E+00;  0.0000000E+00;  1.0000000E+04;  0.0000000E+00;  1.0000000E+04;0.0;0.0;0.0;0.0
  2.1600001E+00;  9.9999998E-03;  1.2000000E-01;917;0.0;0.0;0.0;1000.0;  4.0000001E-01;0.0;0;0.0;0.0;0.0;0;0.0;  1.0000000E+04;  0.0000000E+00;  0.0000000E+00;  1.0000000E+04;  0.0000000E+00;  1.0000000E+04;0.0;0.0;0.0;0.0
  2.1600001E+00;  9.9999998E-03;  1.4000000E-01;918;0.0;0.0;0.0;1000.0;  4.0000001E-01;0.0;0;0.0;0.0;0.0;0;0.0;  1.0000000E+04;  0.0000000E+00;  0.0000000E+00;  1.0000000E+04;  0.0000000E+00;  1.0000000E+04;0.0;0.0;0.0;0.0
  2.1600001E+00;  9.9999998E-03;  1.6000000E-01;919;0.0;0.0;0.0;1000.0;  4.0000001E-01;0.0;0;0.0;0.0;0.0;0;0.0;  1.0000000E+04;  0.0000000E+00;  0.0000000E+00;  1.0000000E+04;  0.0000000E+00;  1.0000000E+04;0.0;0.0;0.0;0.0
  2.1600001E+00;  9.9999998E-03;  1.8000001E-01;920;0.0;0.0;0.0;1000.0;  4.0000001E-01;0.0;0;0.0;0.0;0.0;0;0.0;  1.0000000E+04;  0.0000000E+00;  0.0000000E+00;  1.0000000E+04;  0.0000000E+00;  1.0000000E+04;0.0;0.0;0.0;0.0
  2.1600001E+00;  9.9999998E-03;  2.0000000E-01;921;0.0;0.0;0.0;1000.0;  4.0000001E-01;0.0;0;0.0;0.0;0.0;0;0.0;  1.0000000E+04;  0.0000000E+00;  0.0000000E+00;  1.0000000E+04;  0.0000000E+00;  1.0000000E+04;0.0;0.0;0.0;0.0
  2.1600001E+00;  9.9999998E-03;  2.2000000E-01;922;0.0;0.0;0.0;1000.0;  4.0000001E-01;0.0;0;0.0;0.0;0.0;0;0.0;  1.0000000E+04;  0.0000000E+00;  0.0000000E+00;  1.0000000E+04;  0.0000000E+00;  1.0000000E+04;0.0;0.0;0.0;0.0
  2.1600001E+00;  9.9999998E-03;  2.3999999E-01;923;0.0;0.0;0.0;1000.0;  4.0000001E-01;0.0;0;0.0;0.0;0.0;0;0.0;  1.0000000E+04;  0.0000000E+00;  0.0000000E+00;  1.0000000E+04;  0.0000000E+00;  1.0000000E+04;0.0;0.0;0.0;0.0
  2.1600001E+00;  9.9999998E-03;  2.5999999E-01;924;0.0;0.0;0.0;1000.0;  4.0000001E-01;0.0;0;0.0;0.0;0.0;0;0.0;  1.0000000E+04;  0.0000000E+00;  0.0000000E+00;  1.0000000E+04;  0.0000000E+00;  1.0000000E+04;0.0;0.0;0.0;0.0
  2.1600001E+00;  9.9999998E-03;  2.8000000E-01;925;0.0;0.0;0.0;1000.0;  4.0000001E-01;0.0;0;0.0;0.0;0.0;0;0.0;  1.0000000E+04;  0.0000000E+00;  0.0000000E+00;  1.0000000E+04;  0.0000000E+00;  1.0000000E+04;0.0;0.0;0.0;0.0
  2.1600001E+00;  9.9999998E-03;  3.0000001E-01;926;0.0;0.0;0.0;1000.0;  4.0000001E-01;0.0;0;0.0;0.0;0.0;0;0.0;  1.0000000E+04;  0.0000000E+00;  0.0000000E+00;  1.0000000E+04;  0.0000000E+00;  1.0000000E+04;0.0;0.0;0.0;0.0
  2.1600001E+00;  9.9999998E-03;  3.1999999E-01;927;0.0;0.0;0.0;1000.0;  4.0000001E-01;0.0;0;0.0;0.0;0.0;0;0.0;  1.0000000E+04;  0.0000000E+00;  0.0000000E+00;  1.0000000E+04;  0.0000000E+00;  1.0000000E+04;0.0;0.0;0.0;0.0
  2.1600001E+00;  9.9999998E-03;  3.4000000E-01;928;0.0;0.0;0.0;1000.0;  4.0000001E-01;0.0;0;0.0;0.0;0.0;0;0.0;  1.0000000E+04;  0.0000000E+00;  0.0000000E+00;  1.0000000E+04;  0.0000000E+00;  1.0000000E+04;0.0;0.0;0.0;0.0
  2.1600001E+00;  9.9999998E-03;  3.6000001E-01;929;0.0;0.0;0.0;1000.0;  4.0000001E-01;0.0;0;0.0;0.0;0.0;0;0.0;  1.0000000E+04;  0.0000000E+00;  0.0000000E+00;  1.0000000E+04;  0.0000000E+00;  1.0000000E+04;0.0;0.0;0.0;0.0
  2.1600001E+00;  9.9999998E-03;  3.8000000E-01;930;0.0;0.0;0.0;1000.0;  4.0000001E-01;0.0;0;0.0;0.0;0.0;0;0.0;  1.0000000E+04;  0.0000000E+00;  0.0000000E+00;  1.0000000E+04;  0.0000000E+00;  1.0000000E+04;0.0;0.0;0.0;0.0
  2.1600001E+00;  9.9999998E-03;  4.0000001E-01;931;0.0;0.0;0.0;1000.0;  4.0000001E-01;0.0;0;0.0;0.0;0.0;0;0.0;  1.0000000E+04;  0.0000000E+00;  0.0000000E+00;  1.0000000E+04;  0.0000000E+00;  1.0000000E+04;0.0;0.0;0.0;0.0
  2.1800001E+00;  9.9999998E-03; -1.8000001E-01;932;0.0;0.0;0.0;1000.0;  4.0000001E-01;0.0;0;0.0;0.0;0.0;0;0.0;  1.0000000E+04;  0.0000000E+00;  0.0000000E+00;  1.0000000E+04;  0.0000000E+00;  1.0000000E+04;0.0;0.0;0.0;0.0
  2.1800001E+00;  9.9999998E-03; -1.6000000E-01;933;0.0;0.0;0.0;1000.0;  4.0000001E-01;0.0;0;0.0;0.0;0.0;0;0.0;  1.0000000E+04;  0.0000000E+00;  0.0000000E+00;  1.0000000E+04;  0.0000000E+00;  1.0000000E+04;0.0;0.0;0.0;0.0
  2.1800001E+00;  9.9999998E-03; -1.4000000E-01;934;0.0;0.0;0.0;1000.0;  4.0000001E-01;0.0;0;0.0;0.0;0.0;0;0.0;  1.0000000E+04;  0.0000000E+00;  0.0000000E+00;  1.0000000E+04;  0.0000000E+00;  1.0000000E+04;0.0;0.0;0.0;0.0
  2.1800001E+00;  9.9999998E-03; -1.2000000E-01;935;0.0;0.0;0.0;1000.0;  4.0000001E-01;0.0;0;0.0;0.0;0.0;0;0.0;  1.0000000E+04;  0.0000000E+00;  0.0000000E+00;  1.0000000E+04;  0.0000000E+00;  1.0000000E+04;0.0;0.0;0.0;0.0
  2.1800001E+00;  9.9999998E-03; -1.0000000E-01;936;0.0;0.0;0.0;1000.0;  4.0000001E-01;0.0;0;0.0;0.0;0.0;0;0.0;  1.0000000E+04;  0.0000000E+00;  0.0000000E+00;  1.0000000E+04;  0.0000000E+00;  1.0000000E+04;0.0;0.0;0.0;0.0
  2.1800001E+00;  9.9999998E-03; -7.9999998E-02;937;0.0;0.0;0.0;1000.0;  4.0000001E-01;0.0;0;0.0;0.0;0.0;0;0.0;  1.0000000E+04;  0.0000000E+00;  0.0000000E+00;  1.0000000E+04;  0.0000000E+00;  1.0000000E+04;0.0;0.0;0.0;0.0
  2.1800001E+00;  9.9999998E-03; -5.9999999E-02;938;0.0;0.0;0.0;1000.0;  4.0000001E-01;0.0;0;0.0;0.0;0.0;0;0.0;  1.0000000E+04;  0.0000000E+00;  0.0000000E+00;  1.0000000E+04;  0.0000000E+00;  1.0000000E+04;0.0;0.0;0.0;0.0
  2.1800001E+00;  9.9999998E-03; -3.9999999E-02;939;0.0;0.0;0.0;1000.0;  4.0000001E-01;0.0;0;0.0;0.0;0.0;0;0.0;  1.0000000E+04;  0.0000000E+00;  0.0000000E+00;  1.0000000E+04;  0.0000000E+00;  1.0000000E+04;0.0;0.0;0.0;0.0
  2.1800001E+00;  9.9999998E-03; -2.0000000E-02;940;0.0;0.0;0.0;1000.0;  4.0000001E-01;0.0;0;0.0;0.0;0.0;0;0.0;  1.0000000E+04;  0.0000000E+00;  0.0000000E+00;  1.0000000E+04;  0.0000000E+00;  1.0000000E+04;0.0;0.0;0.0;0.0
  2.1800001E+00;  9.9999998E-03;  0.0000000E+00;941;0.0;0.0;0.0;1000.0;  4.0000001E-01;0.0;0;0.0;0.0;0.0;0;0.0;  1.0000000E+04;  0.0000000E+00;  0.0000000E+00;  1.0000000E+04;  0.0000000E+00;  1.0000000E+04;0.0;0.0;0.0;0.0
  2.1800001E+00;  9.9999998E-03;  2.0000000E-02;942;0.0;0.0;0.0;1000.0;  4.0000001E-01;0.0;0;0.0;0.0;0.0;0;0.0;  1.0000000E+04;  0.0000000E+00;  0.0000000E+00;  1.0000000E+04;  0.0000000E+00;  1.0000000E+04;0.0;0.0;0.0;0.0
  2.1800001E+00;  9.9999998E-03;  3.9999999E-02;943;0.0;0.0;0.0;1000.0;  4.0000001E-01;0.0;0;0.0;0.0;0.0;0;0.0;  1.0000000E+04;  0.0000000E+00;  0.0000000E+00;  1.0000000E+04;  0.0000000E+00;  1.0000000E+04;0.0;0.0;0.0;0.0
  2.1800001E+00;  9.9999998E-03;  5.9999999E-02;944;0.0;0.0;0.0;1000.0;  4.0000001E-01;0.0;0;0.0;0.0;0.0;0;0.0;  1.0000000E+04;  0.0000000E+00;  0.0000000E+00;  1.0000000E+04;  0.0000000E+00;  1.0000000E+04;0.0;0.0;0.0;0.0
  2.1800001E+00;  9.9999998E-03;  7.9999998E-02;945;0.0;0.0;0.0;1000.0;  4.0000001E-01;0.0;0;0.0;0.0;0.0;0;0.0;  1.0000000E+04;  0.0000000E+00;  0.0000000E+00;  1.0000000E+04;  0.0000000E+00;  1.0000000E+04;0.0;0.0;0.0;0.0
  2.1800001E+00;  9.9999998E-03;  1.0000000E-01;946;0.0;0.0;0.0;1000.0;  4.0000001E-01;0.0;0;0.0;0.0;0.0;0;0.0;  1.0000000E+04;  0.0000000E+00;  0.0000000E+00;  1.0000000E+04;  0.0000000E+00;  1.0000000E+04;0.0;0.0;0.0;0.0
  2.1800001E+00;  9.9999998E-03;  1.2000000E-01;947;0.0;0.0;0.0;1000.0;  4.0000001E-01;0.0;0;0.0;0.0;0.0;0;0.0;  1.0000000E+04;  0.0000000E+00;  0.0000000E+00;  1.0000000E+04;  0.0000000E+00;  1.0000000E+04;0.0;0.0;0.0;0.0
  2.1800001E+00;  9.9999998E-03;  1.4000000E-01;948;0.0;0.0;0.0;1000.0;  4.0000001E-01;0.0;0;0.0;0.0;0.0;0;0.0;  1.0000000E+04;  0.0000000E+00;  0.0000000E+00;  1.0000000E+04;  0.0000000E+00;  1.0000000E+04;0.0;0.0;0.0;0.0
  2.1800001E+00;  9.9999998E-03;  1.6000000E-01;949;0.0;0.0;0.0;1000.0;  4.0000001E-01;0.0;0;0.0;0.0;0.0;0;0.0;  1.0000000E+04;  0.0000000E+00;  0.0000000E+00;  1.0000000E+04;  0.0000000E+00;  1.0000000E+04;0.0;0.0;0.0;0.0
  2.1800001E+00;  9.9999998E-03;  1.8000001E-01;950;0.0;0.0;0.0;1000.0;  4.0000001E-01;0.0;0;0.0;0.0;0.0;0;0.0;  1.0000000E+04;  0.0000000E+00;  0.0000000E+00;  1.0000000E+04;  0.0000000E+00;  1.0000000E+04;0.0;0.0;0.0;0.0
  2.1800001E+00;  9.9999998E-03;  2.0000000E-01;951;0.0;0.0;0.0;1000.0;  4.0000001E-01;0.0;0;0.0;0.0;0.0;0;0.0;  1.0000000E+04;  0.0000000E+00;  0.0000000E+00;  1.0000000E+04;  0.0000000E+00;  1.0000000E+04;0.0;0.0;0.0;0.0
  2.1800001E+00;  9.9999998E-03;  2.2000000E-01;952;0.0;0.0;0.0;1000.0;  4.0000001E-01;0.0;0;0.0;0.0;0.0;0;0.0;  1.0000000E+04;  0.0000000E+00;  0.0000000E+00;  1.0000000E+04;  0.0000000E+00;  1.0000000E+04;0.0;0.0;0.0;0.0
  2.1800001E+00;  9.9999998E-03;  2.3999999E-01;953;0.0;0.0;0.0;1000.0;  4.0000001E-01;0.0;0;0.0;0.0;0.0;0;0.0;  1.0000000E+04;  0.0000000E+00;  0.0000000E+00;  1.0000000E+04;  0.0000000E+00;  1.0000000E+04;0.0;0.0;0.0;0.0
  2.1800001E+00;  9.9999998E-03;  2.5999999E-01;954;0.0;0.0;0.0;1000.0;  4.0000001E-01;0.0;0;0.0;0.0;0.0;0;0.0;  1.0000000E+04;  0.0000000E+00;  0.0000000E+00;  1.0000000E+04;  0.0000000E+00;  1.0000000E+04;0.0;0.0;0.0;0.0
  2.1800001E+00;  9.9999998E-03;  2.8000000E-01;955;0.0;0.0;0.0;1000.0;  4.0000001E-01;0.0;0;0.0;0.0;0.0;0;0.0;  1.0000000E+04;  0.0000000E+00;  0.0000000E+00;  1.0000000E+04;  0.0000000E+00;  1.0000000E+04;0.0;0.0;0.0;0.0
  2.1800001E+00;  9.9999998E-03;  3.0000001E-01;956;0.0;0.0;0.0;1000.0;  4.0000001E-01;0.0;0;0.0;0.0;0.0;0;0.0;  1.0000000E+04;  0.0000000E+00;  0.0000000E+00;  1.0000000E+04;  0.0000000E+00;  1.0000000E+04;0.0;0.0;0.0;0.0
  2.1800001E+00;  9.9999998E-03;  3.1999999E-01;957;0.0;0.0;0.0;1000.0;  4.0000001E-01;0.0;0;0.0;0.0;0.0;0;0.0;  1.0000000E+04;  0.0000000E+00;  0.0000000E+00;  1.0000000E+04;  0.0000000E+00;  1.0000000E+04;0.0;0.0;0.0;0.0
  2.1800001E+00;  9.9999998E-03;  3.4000000E-01;958;0.0;0.0;0.0;1000.0;  4.0000001E-01;0.0;0;0.0;0.0;0.0;0;0.0;  1.0000000E+04;  0.0000000E+00;  0.0000000E+00;  1.0000000E+04;  0.0000000E+00;  1.0000000E+04;0.0;0.0;0.0;0.0
  2.1800001E+00;  9.9999998E-03;  3.6000001E-01;959;0.0;0.0;0.0;1000.0;  4.0000001E-01;0.0;0;0.0;0.0;0.0;0;0.0;  1.0000000E+04;  0.0000000E+00;  0.0000000E+00;  1.0000000E+04;  0.0000000E+00;  1.0000000E+04;0.0;0.0;0.0;0.0
  2.1800001E+00;  9.9999998E-03;  3.8000000E-01;960;0.0;0.0;0.0;1000.0;  4.0000001E-01;0.0;0;0.0;0.0;0.0;0;0.0;  1.0000000E+04;  0.0000000E+00;  0.0000000E+00;  1.0000000E+04;  0.0000000E+00;  1.0000000E+04;0.0;0.0;0.0;0.0
  2.1800001E+00;  9.9999998E-03;  4.0000001E-01;961;0.0;0.0;0.0;1000.0;  4.0000001E-01;0.0;0;0.0;0.0;0.0;0;0.0;  1.0000000E+04;  0.0000000E+00;  0.0000000E+00;  1.0000000E+04;  0.0000000E+00;  1.0000000E+04;0.0;0.0;0.0;0.0
  2.2000000E+00;  9.9999998E-03; -7.9999998E-02;962;0.0;0.0;0.0;1000.0;  4.0000001E-01;0.0;0;0.0;0.0;0.0;0;0.0;  1.0000000E+04;  0.0000000E+00;  0.0000000E+00;  1.0000000E+04;  0.0000000E+00;  1.0000000E+04;0.0;0.0;0.0;0.0
  2.2000000E+00;  9.9999998E-03; -5.9999999E-02;963;0.0;0.0;0.0;1000.0;  4.0000001E-01;0.0;0;0.0;0.0;0.0;0;0.0;  1.0000000E+04;  0.0000000E+00;  0.0000000E+00;  1.0000000E+04;  0.0000000E+00;  1.0000000E+04;0.0;0.0;0.0;0.0
  2.2000000E+00;  9.9999998E-03; -3.9999999E-02;964;0.0;0.0;0.0;1000.0;  4.0000001E-01;0.0;0;0.0;0.0;0.0;0;0.0;  1.0000000E+04;  0.0000000E+00;  0.0000000E+00;  1.0000000E+04;  0.0000000E+00;  1.0000000E+04;0.0;0.0;0.0;0.0
  2.2000000E+00;  9.9999998E-03; -2.0000000E-02;965;0.0;0.0;0.0;1000.0;  4.0000001E-01;0.0;0;0.0;0.0;0.0;0;0.0;  1.0000000E+04;  0.0000000E+00;  0.0000000E+00;  1.0000000E+04;  0.0000000E+00;  1.0000000E+04;0.0;0.0;0.0;0.0
  2.2000000E+00;  9.9999998E-03;  0.0000000E+00;966;0.0;0.0;0.0;1000.0;  4.0000001E-01;0.0;0;0.0;0.0;0.0;0;0.0;  1.0000000E+04;  0.0000000E+00;  0.0000000E+00;  1.0000000E+04;  0.0000000E+00;  1.0000000E+04;0.0;0.0;0.0;0.0
  2.2000000E+00;  9.9999998E-03;  2.0000000E-02;967;0.0;0.0;0.0;1000.0;  4.0000001E-01;0.0;0;0.0;0.0;0.0;0;0.0;  1.0000000E+04;  0.0000000E+00;  0.0000000E+00;  1.0000000E+04;  0.0000000E+00;  1.0000000E+04;0.0;0.0;0.0;0.0
  2.2000000E+00;  9.9999998E-03;  3.9999999E-02;968;0.0;0.0;0.0;1000.0;  4.0000001E-01;0.0;0;0.0;0.0;0.0;0;0.0;  1.0000000E+04;  0.0000000E+00;  0.0000000E+00;  1.0000000E+04;  0.0000000E+00;  1.0000000E+04;0.0;0.0;0.0;0.0
  2.2000000E+00;  9.9999998E-03;  5.9999999E-02;969;0.0;0.0;0.0;1000.0;  4.0000001E-01;0.0;0;0.0;0.0;0.0;0;0.0;  1.0000000E+04;  0.0000000E+00;  0.0000000E+00;  1.0000000E+04;  0.0000000E+00;  1.0000000E+04;0.0;0.0;0.0;0.0
  2.2000000E+00;  9.9999998E-03;  7.9999998E-02;970;0.0;0.0;0.0;1000.0;  4.0000001E-01;0.0;0;0.0;0.0;0.0;0;0.0;  1.0000000E+04;  0.0000000E+00;  0.0000000E+00;  1.0000000E+04;  0.0000000E+00;  1.0000000E+04;0.0;0.0;0.0;0.0
  2.2000000E+00;  9.9999998E-03;  1.0000000E-01;971;0.0;0.0;0.0;1000.0;  4.0000001E-01;0.0;0;0.0;0.0;0.0;0;0.0;  1.0000000E+04;  0.0000000E+00;  0.0000000E+00;  1.0000000E+04;  0.0000000E+00;  1.0000000E+04;0.0;0.0;0.0;0.0
  2.2000000E+00;  9.9999998E-03;  1.2000000E-01;972;0.0;0.0;0.0;1000.0;  4.0000001E-01;0.0;0;0.0;0.0;0.0;0;0.0;  1.0000000E+04;  0.0000000E+00;  0.0000000E+00;  1.0000000E+04;  0.0000000E+00;  1.0000000E+04;0.0;0.0;0.0;0.0
  2.2000000E+00;  9.9999998E-03;  1.4000000E-01;973;0.0;0.0;0.0;1000.0;  4.0000001E-01;0.0;0;0.0;0.0;0.0;0;0.0;  1.0000000E+04;  0.0000000E+00;  0.0000000E+00;  1.0000000E+04;  0.0000000E+00;  1.0000000E+04;0.0;0.0;0.0;0.0
  2.2000000E+00;  9.9999998E-03;  1.6000000E-01;974;0.0;0.0;0.0;1000.0;  4.0000001E-01;0.0;0;0.0;0.0;0.0;0;0.0;  1.0000000E+04;  0.0000000E+00;  0.0000000E+00;  1.0000000E+04;  0.0000000E+00;  1.0000000E+04;0.0;0.0;0.0;0.0
  2.2000000E+00;  9.9999998E-03;  1.8000001E-01;975;0.0;0.0;0.0;1000.0;  4.0000001E-01;0.0;0;0.0;0.0;0.0;0;0.0;  1.0000000E+04;  0.0000000E+00;  0.0000000E+00;  1.0000000E+04;  0.0000000E+00;  1.0000000E+04;0.0;0.0;0.0;0.0
  2.2000000E+00;  9.9999998E-03;  2.0000000E-01;976;0.0;0.0;0.0;1000.0;  4.0000001E-01;0.0;0;0.0;0.0;0.0;0;0.0;  1.0000000E+04;  0.0000000E+00;  0.0000000E+00;  1.0000000E+04;  0.0000000E+00;  1.0000000E+04;0.0;0.0;0.0;0.0
  2.2000000E+00;  9.9999998E-03;  2.2000000E-01;977;0.0;0.0;0.0;1000.0;  4.0000001E-01;0.0;0;0.0;0.0;0.0;0;0.0;  1.0000000E+04;  0.0000000E+00;  0.0000000E+00;  1.0000000E+04;  0.0000000E+00;  1.0000000E+04;0.0;0.0;0.0;0.0
  2.2000000E+00;  9.9999998E-03;  2.3999999E-01;978;0.0;0.0;0.0;1000.0;  4.0000001E-01;0.0;0;0.0;0.0;0.0;0;0.0;  1.0000000E+04;  0.0000000E+00;  0.0000000E+00;  1.0000000E+04;  0.0000000E+00;  1.0000000E+04;0.0;0.0;0.0;0.0
  2.2000000E+00;  9.9999998E-03;  2.5999999E-01;979;0.0;0.0;0.0;1000.0;  4.0000001E-01;0.0;0;0.0;0.0;0.0;0;0.0;  1.0000000E+04;  0.0000000E+00;  0.0000000E+00;  1.0000000E+04;  0.0000000E+00;  1.0000000E+04;0.0;0.0;0.0;0.0
  2.2000000E+00;  9.9999998E-03;  2.8000000E-01;980;0.0;0.0;0.0;1000.0;  4.0000001E-01;0.0;0;0.0;0.0;0.0;0;0.0;  1.0000000E+04;  0.0000000E+00;  0.0000000E+00;  1.0000000E+04;  0.0000000E+00;  1.0000000E+04;0.0;0.0;0.0;0.0
  2.2000000E+00;  9.9999998E-03;  3.0000001E-01;981;0.0;0.0;0.0;1000.0;  4.0000001E-01;0.0;0;0.0;0.0;0.0;0;0.0;  1.0000000E+04;  0.0000000E+00;  0.0000000E+00;  1.0000000E+04;  0.0000000E+00;  1.0000000E+04;0.0;0.0;0.0;0.0
  2.2000000E+00;  9.9999998E-03;  3.1999999E-01;982;0.0;0.0;0.0;1000.0;  4.0000001E-01;0.0;0;0.0;0.0;0.0;0;0.0;  1.0000000E+04;  0.0000000E+00;  0.0000000E+00;  1.0000000E+04;  0.0000000E+00;  1.0000000E+04;0.0;0.0;0.0;0.0
  2.2000000E+00;  9.9999998E-03;  3.4000000E-01;983;0.0;0.0;0.0;1000.0;  4.0000001E-01;0.0;0;0.0;0.0;0.0;0;0.0;  1.0000000E+04;  0.0000000E+00;  0.0000000E+00;  1.0000000E+04;  0.0000000E+00;  1.0000000E+04;0.0;0.0;0.0;0.0
  2.2000000E+00;  9.9999998E-03;  3.6000001E-01;984;0.0;0.0;0.0;1000.0;  4.0000001E-01;0.0;0;0.0;0.0;0.0;0;0.0;  1.0000000E+04;  0.0000000E+00;  0.0000000E+00;  1.0000000E+04;  0.0000000E+00;  1.0000000E+04;0.0;0.0;0.0;0.0
  2.2000000E+00;  9.9999998E-03;  3.8000000E-01;985;0.0;0.0;0.0;1000.0;  4.0000001E-01;0.0;0;0.0;0.0;0.0;0;0.0;  1.0000000E+04;  0.0000000E+00;  0.0000000E+00;  1.0000000E+04;  0.0000000E+00;  1.0000000E+04;0.0;0.0;0.0;0.0
  2.2200000E+00;  9.9999998E-03;  2.0000000E-02;986;0.0;0.0;0.0;1000.0;  4.0000001E-01;0.0;0;0.0;0.0;0.0;0;0.0;  1.0000000E+04;  0.0000000E+00;  0.0000000E+00;  1.0000000E+04;  0.0000000E+00;  1.0000000E+04;0.0;0.0;0.0;0.0
  2.2200000E+00;  9.9999998E-03;  3.9999999E-02;987;0.0;0.0;0.0;1000.0;  4.0000001E-01;0.0;0;0.0;0.0;0.0;0;0.0;  1.0000000E+04;  0.0000000E+00;  0.0000000E+00;  1.0000000E+04;  0.0000000E+00;  1.0000000E+04;0.0;0.0;0.0;0.0
  2.2200000E+00;  9.9999998E-03;  5.9999999E-02;988;0.0;0.0;0.0;1000.0;  4.0000001E-01;0.0;0;0.0;0.0;0.0;0;0.0;  1.0000000E+04;  0.0000000E+00;  0.0000000E+00;  1.0000000E+04;  0.0000000E+00;  1.0000000E+04;0.0;0.0;0.0;0.0
  2.2200000E+00;  9.9999998E-03;  7.9999998E-02;989;0.0;0.0;0.0;1000.0;  4.0000001E-01;0.0;0;0.0;0.0;0.0;0;0.0;  1.0000000E+04;  0.0000000E+00;  0.0000000E+00;  1.0000000E+04;  0.0000000E+00;  1.0000000E+04;0.0;0.0;0.0;0.0
  2.2200000E+00;  9.9999998E-03;  1.0000000E-01;990;0.0;0.0;0.0;1000.0;  4.0000001E-01;0.0;0;0.0;0.0;0.0;0;0.0;  1.0000000E+04;  0.0000000E+00;  0.0000000E+00;  1.0000000E+04;  0.0000000E+00;  1.0000000E+04;0.0;0.0;0.0;0.0
  2.2200000E+00;  9.9999998E-03;  1.2000000E-01;991;0.0;0.0;0.0;1000.0;  4.0000001E-01;0.0;0;0.0;0.0;0.0;0;0.0;  1.0000000E+04;  0.0000000E+00;  0.0000000E+00;  1.0000000E+04;  0.0000000E+00;  1.0000000E+04;0.0;0.0;0.0;0.0
  2.2200000E+00;  9.9999998E-03;  1.4000000E-01;992;0.0;0.0;0.0;1000.0;  4.0000001E-01;0.0;0;0.0;0.0;0.0;0;0.0;  1.0000000E+04;  0.0000000E+00;  0.0000000E+00;  1.0000000E+04;  0.0000000E+00;  1.0000000E+04;0.0;0.0;0.0;0.0
  2.2200000E+00;  9.9999998E-03;  1.6000000E-01;993;0.0;0.0;0.0;1000.0;  4.0000001E-01;0.0;0;0.0;0.0;0.0;0;0.0;  1.0000000E+04;  0.0000000E+00;  0.0000000E+00;  1.0000000E+04;  0.0000000E+00;  1.0000000E+04;0.0;0.0;0.0;0.0
  2.2200000E+00;  9.9999998E-03;  1.8000001E-01;994;0.0;0.0;0.0;1000.0;  4.0000001E-01;0.0;0;0.0;0.0;0.0;0;0.0;  1.0000000E+04;  0.0000000E+00;  0.0000000E+00;  1.0000000E+04;  0.0000000E+00;  1.0000000E+04;0.0;0.0;0.0;0.0
  2.2200000E+00;  9.9999998E-03;  2.0000000E-01;995;0.0;0.0;0.0;1000.0;  4.0000001E-01;0.0;0;0.0;0.0;0.0;0;0.0;  1.0000000E+04;  0.0000000E+00;  0.0000000E+00;  1.0000000E+04;  0.0000000E+00;  1.0000000E+04;0.0;0.0;0.0;0.0
  2.2200000E+00;  9.9999998E-03;  2.2000000E-01;996;0.0;0.0;0.0;1000.0;  4.0000001E-01;0.0;0;0.0;0.0;0.0;0;0.0;  1.0000000E+04;  0.0000000E+00;  0.0000000E+00;  1.0000000E+04;  0.0000000E+00;  1.0000000E+04;0.0;0.0;0.0;0.0
  2.2200000E+00;  9.9999998E-03;  2.3999999E-01;997;0.0;0.0;0.0;1000.0;  4.0000001E-01;0.0;0;0.0;0.0;0.0;0;0.0;  1.0000000E+04;  0.0000000E+00;  0.0000000E+00;  1.0000000E+04;  0.0000000E+00;  1.0000000E+04;0.0;0.0;0.0;0.0
  2.2200000E+00;  9.9999998E-03;  2.5999999E-01;998;0.0;0.0;0.0;1000.0;  4.0000001E-01;0.0;0;0.0;0.0;0.0;0;0.0;  1.0000000E+04;  0.0000000E+00;  0.0000000E+00;  1.0000000E+04;  0.0000000E+00;  1.0000000E+04;0.0;0.0;0.0;0.0
  2.2200000E+00;  9.9999998E-03;  2.8000000E-01;999;0.0;0.0;0.0;1000.0;  4.0000001E-01;0.0;0;0.0;0.0;0.0;0;0.0;  1.0000000E+04;  0.0000000E+00;  0.0000000E+00;  1.0000000E+04;  0.0000000E+00;  1.0000000E+04;0.0;0.0;0.0;0.0
  2.2200000E+00;  9.9999998E-03;  3.0000001E-01;1000;0.0;0.0;0.0;1000.0;  4.0000001E-01;0.0;0;0.0;0.0;0.0;0;0.0;  1.0000000E+04;  0.0000000E+00;  0.0000000E+00;  1.0000000E+04;  0.0000000E+00;  1.0000000E+04;0.0;0.0;0.0;0.0
  2.2200000E+00;  9.9999998E-03;  3.1999999E-01;1001;0.0;0.0;0.0;1000.0;  4.0000001E-01;0.0;0;0.0;0.0;0.0;0;0.0;  1.0000000E+04;  0.0000000E+00;  0.0000000E+00;  1.0000000E+04;  0.0000000E+00;  1.0000000E+04;0.0;0.0;0.0;0.0
  2.2200000E+00;  9.9999998E-03;  3.4000000E-01;1002;0.0;0.0;0.0;1000.0;  4.0000001E-01;0.0;0;0.0;0.0;0.0;0;0.0;  1.0000000E+04;  0.0000000E+00;  0.0000000E+00;  1.0000000E+04;  0.0000000E+00;  1.0000000E+04;0.0;0.0;0.0;0.0
  2.2200000E+00;  9.9999998E-03;  3.6000001E-01;1003;0.0;0.0;0.0;1000.0;  4.0000001E-01;0.0;0;0.0;0.0;0.0;0;0.0;  1.0000000E+04;  0.0000000E+00;  0.0000000E+00;  1.0000000E+04;  0.0000000E+00;  1.0000000E+04;0.0;0.0;0.0;0.0
  2.2200000E+00;  9.9999998E-03;  3.8000000E-01;1004;0.0;0.0;0.0;1000.0;  4.0000001E-01;0.0;0;0.0;0.0;0.0;0;0.0;  1.0000000E+04;  0.0000000E+00;  0.0000000E+00;  1.0000000E+04;  0.0000000E+00;  1.0000000E+04;0.0;0.0;0.0;0.0
  2.2400000E+00;  9.9999998E-03;  1.2000000E-01;1005;0.0;0.0;0.0;1000.0;  4.0000001E-01;0.0;0;0.0;0.0;0.0;0;0.0;  1.0000000E+04;  0.0000000E+00;  0.0000000E+00;  1.0000000E+04;  0.0000000E+00;  1.0000000E+04;0.0;0.0;0.0;0.0
  2.2400000E+00;  9.9999998E-03;  1.4000000E-01;1006;0.0;0.0;0.0;1000.0;  4.0000001E-01;0.0;0;0.0;0.0;0.0;0;0.0;  1.0000000E+04;  0.0000000E+00;  0.0000000E+00;  1.0000000E+04;  0.0000000E+00;  1.0000000E+04;0.0;0.0;0.0;0.0
  2.2400000E+00;  9.9999998E-03;  1.6000000E-01;1007;0.0;0.0;0.0;1000.0;  4.0000001E-01;0.0;0;0.0;0.0;0.0;0;0.0;  1.0000000E+04;  0.0000000E+00;  0.0000000E+00;  1.0000000E+04;  0.0000000E+00;  1.0000000E+04;0.0;0.0;0.0;0.0
  2.2400000E+00;  9.9999998E-03;  1.8000001E-01;1008;0.0;0.0;0.0;1000.0;  4.0000001E-01;0.0;0;0.0;0.0;0.0;0;0.0;  1.0000000E+04;  0.0000000E+00;  0.0000000E+00;  1.0000000E+04;  0.0000000E+00;  1.0000000E+04;0.0;0.0;0.0;0.0
  2.2400000E+00;  9.9999998E-03;  2.0000000E-01;1009;0.0;0.0;0.0;1000.0;  4.0000001E-01;0.0;0;0.0;0.0;0.0;0;0.0;  1.0000000E+04;  0.0000000E+00;  0.0000000E+00;  1.0000000E+04;  0.0000000E+00;  1.0000000E+04;0.0;0.0;0.0;0.0
  2.2400000E+00;  9.9999998E-03;  2.2000000E-01;1010;0.0;0.0;0.0;1000.0;  4.0000001E-01;0.0;0;0.0;0.0;0.0;0;0.0;  1.0000000E+04;  0.0000000E+00;  0.0000000E+00;  1.0000000E+04;  0.0000000E+00;  1.0000000E+04;0.0;0.0;0.0;0.0
  2.2400000E+00;  9.9999998E-03;  2.3999999E-01;1011;0.0;0.0;0.0;1000.0;  4.0000001E-01;0.0;0;0.0;0.0;0.0;0;0.0;  1.0000000E+04;  0.0000000E+00;  0.0000000E+00;  1.0000000E+04;  0.0000000E+00;  1.0000000E+04;0.0;0.0;0.0;0.0
  2.2400000E+00;  9.9999998E-03;  2.5999999E-01;1012;0.0;0.0;0.0;1000.0;  4.0000001E-01;0.0;0;0.0;0.0;0.0;0;0.0;  1.0000000E+04;  0.0000000E+00;  0.0000000E+00;  1.0000000E+04;  0.0000000E+00;  1.0000000E+04;0.0;0.0;0.0;0.0
  2.2400000E+00;  9.9999998E-03;  2.8000000E-01;1013;0.0;0.0;0.0;1000.0;  4.0000001E-01;0.0;0;0.0;0.0;0.0;0;0.0;  1.0000000E+04;  0.0000000E+00;  0.0000000E+00;  1.0000000E+04;  0.0000000E+00;  1.0000000E+04;0.0;0.0;0.0;0.0
  2.2400000E+00;  9.9999998E-03;  3.0000001E-01;1014;0.0;0.0;0.0;1000.0;  4.0000001E-01;0.0;0;0.0;0.0;0.0;0;0.0;  1.0000000E+04;  0.0000000E+00;  0.0000000E+00;  1.0000000E+04;  0.0000000E+00;  1.0000000E+04;0.0;0.0;0.0;0.0
  2.2400000E+00;  9.9999998E-03;  3.1999999E-01;1015;0.0;0.0;0.0;1000.0;  4.0000001E-01;0.0;0;0.0;0.0;0.0;0;0.0;  1.0000000E+04;  0.0000000E+00;  0.0000000E+00;  1.0000000E+04;  0.0000000E+00;  1.0000000E+04;0.0;0.0;0.0;0.0
  2.2400000E+00;  9.9999998E-03;  3.4000000E-01;1016;0.0;0.0;0.0;1000.0;  4.0000001E-01;0.0;0;0.0;0.0;0.0;0;0.0;  1.0000000E+04;  0.0000000E+00;  0.0000000E+00;  1.0000000E+04;  0.0000000E+00;  1.0000000E+04;0.0;0.0;0.0;0.0
  2.2400000E+00;  9.9999998E-03;  3.6000001E-01;1017;0.0;0.0;0.0;1000.0;  4.0000001E-01;0.0;0;0.0;0.0;0.0;0;0.0;  1.0000000E+04;  0.0000000E+00;  0.0000000E+00;  1.0000000E+04;  0.0000000E+00;  1.0000000E+04;0.0;0.0;0.0;0.0
  2.2400000E+00;  9.9999998E-03;  3.8000000E-01;1018;0.0;0.0;0.0;1000.0;  4.0000001E-01;0.0;0;0.0;0.0;0.0;0;0.0;  1.0000000E+04;  0.0000000E+00;  0.0000000E+00;  1.0000000E+04;  0.0000000E+00;  1.0000000E+04;0.0;0.0;0.0;0.0
  2.2600000E+00;  9.9999998E-03;  2.2000000E-01;1019;0.0;0.0;0.0;1000.0;  4.0000001E-01;0.0;0;0.0;0.0;0.0;0;0.0;  1.0000000E+04;  0.0000000E+00;  0.0000000E+00;  1.0000000E+04;  0.0000000E+00;  1.0000000E+04;0.0;0.0;0.0;0.0
  2.2600000E+00;  9.9999998E-03;  2.3999999E-01;1020;0.0;0.0;0.0;1000.0;  4.0000001E-01;0.0;0;0.0;0.0;0.0;0;0.0;  1.0000000E+04;  0.0000000E+00;  0.0000000E+00;  1.0000000E+04;  0.0000000E+00;  1.0000000E+04;0.0;0.0;0.0;0.0
  2.2600000E+00;  9.9999998E-03;  2.5999999E-01;1021;0.0;0.0;0.0;1000.0;  4.0000001E-01;0.0;0;0.0;0.0;0.0;0;0.0;  1.0000000E+04;  0.0000000E+00;  0.0000000E+00;  1.0000000E+04;  0.0000000E+00;  1.0000000E+04;0.0;0.0;0.0;0.0
  2.2600000E+00;  9.9999998E-03;  2.8000000E-01;1022;0.0;0.0;0.0;1000.0;  4.0000001E-01;0.0;0;0.0;0.0;0.0;0;0.0;  1.0000000E+04;  0.0000000E+00;  0.0000000E+00;  1.0000000E+04;  0.0000000E+00;  1.0000000E+04;0.0;0.0;0.0;0.0
  2.2600000E+00;  9.9999998E-03;  3.0000001E-01;1023;0.0;0.0;0.0;1000.0;  4.0000001E-01;0.0;0;0.0;0.0;0.0;0;0.0;  1.0000000E+04;  0.0000000E+00;  0.0000000E+00;  1.0000000E+04;  0.0000000E+00;  1.0000000E+04;0.0;0.0;0.0;0.0
  2.2600000E+00;  9.9999998E-03;  3.1999999E-01;1024;0.0;0.0;0.0;1000.0;  4.0000001E-01;0.0;0;0.0;0.0;0.0;0;0.0;  1.0000000E+04;  0.0000000E+00;  0.0000000E+00;  1.0000000E+04;  0.0000000E+00;  1.0000000E+04;0.0;0.0;0.0;0.0
  2.2600000E+00;  9.9999998E-03;  3.4000000E-01;1025;0.0;0.0;0.0;1000.0;  4.0000001E-01;0.0;0;0.0;0.0;0.0;0;0.0;  1.0000000E+04;  0.0000000E+00;  0.0000000E+00;  1.0000000E+04;  0.0000000E+00;  1.0000000E+04;0.0;0.0;0.0;0.0
  2.2600000E+00;  9.9999998E-03;  3.6000001E-01;1026;0.0;0.0;0.0;1000.0;  4.0000001E-01;0.0;0;0.0;0.0;0.0;0;0.0;  1.0000000E+04;  0.0000000E+00;  0.0000000E+00;  1.0000000E+04;  0.0000000E+00;  1.0000000E+04;0.0;0.0;0.0;0.0
  2.2600000E+00;  9.9999998E-03;  3.8000000E-01;1027;0.0;0.0;0.0;1000.0;  4.0000001E-01;0.0;0;0.0;0.0;0.0;0;0.0;  1.0000000E+04;  0.0000000E+00;  0.0000000E+00;  1.0000000E+04;  0.0000000E+00;  1.0000000E+04;0.0;0.0;0.0;0.0
  2.2800000E+00;  9.9999998E-03;  3.1999999E-01;1028;0.0;0.0;0.0;1000.0;  4.0000001E-01;0.0;0;0.0;0.0;0.0;0;0.0;  1.0000000E+04;  0.0000000E+00;  0.0000000E+00;  1.0000000E+04;  0.0000000E+00;  1.0000000E+04;0.0;0.0;0.0;0.0
  2.2800000E+00;  9.9999998E-03;  3.4000000E-01;1029;0.0;0.0;0.0;1000.0;  4.0000001E-01;0.0;0;0.0;0.0;0.0;0;0.0;  1.0000000E+04;  0.0000000E+00;  0.0000000E+00;  1.0000000E+04;  0.0000000E+00;  1.0000000E+04;0.0;0.0;0.0;0.0
  2.2800000E+00;  9.9999998E-03;  3.6000001E-01;1030;0.0;0.0;0.0;1000.0;  4.0000001E-01;0.0;0;0.0;0.0;0.0;0;0.0;  1.0000000E+04;  0.0000000E+00;  0.0000000E+00;  1.0000000E+04;  0.0000000E+00;  1.0000000E+04;0.0;0.0;0.0;0.0
 -9.2878105E-09;  9.9999998E-03; -2.8000000E-01;1031;-2.1105583e-05;0.0;-7.9898282e-06;1000.0002;  4.0000001E-01;0.19752525;3;-0.036642902;0.0;-0.013948416;0;-0.00043580486;  1.0000004E+04;  0.0000000E+00;  3.6729508E-12;  1.0000000E+04;  0.0000000E+00;  1.0000000E+04;-0.00040105035;0.0;-3.475451e-05;0.12541915
 -1.1231980E-08;  9.9999998E-03; -2.5999999E-01;1032;-2.5494166e-05;0.0;-7.7143613e-06;1000.0002;  4.0000001E-01;0.19752525;3;-0.043656044;0.0;-0.013280474;0;-0.00051908719;  1.0000006E+04;  0.0000000E+00; -1.7275063E-11;  1.0000000E+04;  0.0000000E+00;  1.0000000E+04;-0.00050256855;0.0;-1.6518623e-05;0.048793435
 -1.2876431E-08;  9.9999998E-03; -2.4000001E-01;1033;-2.9197945e-05;0.0;-7.0886331e-06;1000.0004;  4.0000001E-01;0.29628786;3;-0.049521603;0.0;-0.012058658;0;-0.00058822159;  1.0000007E+04;  0.0000000E+00;  1.1416873E-11;  1.0000000E+04;  0.0000000E+00;  1.0000000E+04;-0.0005898393;0.0;1.6176955e-06;0.026550218
 -1.4200316E-08;  9.9999998E-03; -2.2000000E-01;1034;-3.2149557e-05;0.0;-6.3227712e-06;1000.0004;  4.0000001E-01;0.29628786;3;-0.054186977;0.0;-0.010654024;0;-0.00064396119;  1.0000008E+04;  0.0000000E+00;  5.4572718E-11;  1.0000000E+04;  0.0000000E+00;  1.0000000E+04;-0.00065940357;0.0;1.5442401e-05;0.083826773
 -1.5254004E-08;  9.9999998E-03; -2.0000000E-01;1035;-3.4463093e-05;0.0;-5.4726224e-06;1000.0004;  4.0000001E-01;0.29628786;3;-0.057849891;0.0;-0.0091500338;0;-0.00068854674;  1.0000008E+04;  0.0000000E+00; -3.0753591E-11;  1.0000000E+04;  0.0000000E+00;  1.0000000E+04;-0.00071210851;0.0;2.3561739e-05;0.11774347
  1.9999990E-02;  9.9999998E-03; -3.0000001E-01;1060;-2.269683e-05;0.0;-1.1287502e-05;1000.0002;  4.0000001E-01;0.19752525;3;-0.038787786;0.0;-0.019436006;0;-0.00046501664;  1.0000004E+04;  0.0000000E+00; -3.2893667E-11;  1.0000000E+04;  0.0000000E+00;  1.0000000E+04;-0.00039656076;0.0;-6.8455876e-05;0.26866096
  1.9999987E-02;  9.9999998E-03; -2.8000000E-01;1061;-3.0945441e-05;0.0;-1.0888372e-05;1000.0004;  4.0000001E-01;0.29628786;3;-0.051931679;0.0;-0.018240331;0;-0.00058595539;  1.0000006E+04;  0.0000000E+00;  2.7580804E-12;  1.0000000E+04;  0.0000000E+00;  1.0000000E+04;-0.00053652818;0.0;-4.9427221e-05;0.18429537
  1.9999983E-02;  9.9999998E-03; -2.5999999E-01;1062;-3.7980153e-05;0.0;-1.070548e-05;1000.0004;  4.0000001E-01;0.3950505;3;-0.062738061;0.0;-0.017659904;0;-0.00069114985;  1.0000008E+04;  0.0000000E+00; -3.4546657E-11;  1.0000000E+04;  0.0000000E+00;  1.0000000E+04;-0.00066863693;0.0;-2.2512933e-05;0.068848349
  1.9999981E-02;  9.9999998E-03; -2.4000001E-01;1063;-4.3678661e-05;0.0;-1.0007995e-05;1000.0004;  4.0000001E-01;0.3950505;3;-0.07134328;0.0;-0.016306859;0;-0.00077738019;  1.0000009E+04;  0.0000000E+00; -2.2043327E-11;  1.0000000E+04;  0.0000000E+00;  1.0000000E+04;-0.00078109279;0.0;3.7125756e-06;0.04256789
  1.9999979E-02;  9.9999998E-03; -2.2000000E-01;1064;-4.8100443e-05;0.0;-9.0364574e-06;1000.0005;  4.0000001E-01;0.3950505;3;-0.077996016;0.0;-0.014580988;0;-0.00084611314;  1.0000011E+04;  0.0000000E+00;  6.4817859E-11;  1.0000000E+04;  0.0000000E+00;  1.0000000E+04;-0.0008695852;0.0;2.3472057e-05;0.12626201
  1.9999977E-02;  9.9999998E-03; -2.0000000E-01;1065;-5.1491686e-05;0.0;-7.8493749e-06;1000.0005;  4.0000001E-01;0.3950505;3;-0.083109297;0.0;-0.01256578;0;-0.00090063381;  1.0000011E+04;  0.0000000E+00; -7.6543589E-12;  1.0000000E+04;  0.0000000E+00;  1.0000000E+04;-0.00093557616;0.0;3.4942357e-05;0.1751442
  3.9999984E-02;  9.9999998E-03; -3.0000001E-01;1091;-3.3328877e-05;0.0;-1.4369976e-05;1000.0004;  4.0000001E-01;0.29628786;3;-0.055481207;0.0;-0.023745682;0;-0.00061364047;  1.0000007E+04;  0.0000000E+00;  3.7284346E-11;  1.0000000E+04;  0.0000000E+00;  1.0000001E+04;-0.00051937829;0.0;-9.426217e-05;0.38230252
  3.9999980E-02;  9.9999998E-03; -2.8000000E-01;1092;-4.5298657e-05;0.0;-1.4291571e-05;1000.0004;  4.0000001E-01;0.3950505;3;-0.073806003;0.0;-0.022925928;0;-0.00076699414;  1.0000008E+04;  0.0000000E+00; -5.4042651E-12;  1.0000000E+04;  0.0000000E+00;  1.0000000E+04;-0.00070054212;0.0;-6.6452019e-05;0.25660285
  3.9999973E-02;  9.9999998E-03; -2.6000002E-01;1093;-5.5493107e-05;0.0;-1.3940795e-05;1000.0005;  4.0000001E-01;0.3950505;3;-0.08877819;0.0;-0.021950154;0;-0.00089873082;  1.0000011E+04;  0.0000000E+00; -5.1175880E-11;  1.0000000E+04;  0.0000000E+00;  1.0000000E+04;-0.00086974783;0.0;-2.898301e-05;0.091357715
  3.9999969E-02;  9.9999998E-03; -2.4000001E-01;1094;-6.3773288e-05;0.0;-1.302404e-05;1000.0006;  4.0000001E-01;0.49381313;3;-0.10072217;0.0;-0.020216662;0;-0.0010047852;  1.0000011E+04;  0.0000000E+00; -8.4079185E-13;  1.0000000E+04;  0.0000000E+00;  1.0000000E+04;-0.0010116674;0.0;6.8822246e-06;0.065548956
  3.9999969E-02;  9.9999998E-03; -2.2000000E-01;1095;-7.0125454e-05;0.0;-1.1791383e-05;1000.0007;  4.0000001E-01;0.59257573;3;-0.10985216;0.0;-0.018118721;0;-0.0010877801;  1.0000014E+04;  0.0000000E+00;  4.8218422E-11;  1.0000000E+04;  0.0000000E+00;  1.0000000E+04;-0.0011213399;0.0;3.3559765e-05;0.18191716
  3.9999966E-02;  9.9999998E-03; -2.0000000E-01;1096;-7.4912772e-05;0.0;-1.0264308e-05;1000.0007;  4.0000001E-01;0.59257573;3;-0.11676183;0.0;-0.015640639;0;-0.0011525962;  1.0000015E+04;  0.0000000E+00;  2.5452173E-11;  1.0000000E+04;  0.0000000E+00;  1.0000000E+04;-0.0012013916;0.0;4.8795315e-05;0.24871096
  5.9999976E-02;  9.9999998E-03; -3.0000001E-01;1122;-4.7614707e-05;0.0;-1.8258017e-05;1000.0004;  4.0000001E-01;0.3950505;3;-0.077447928;0.0;-0.02899228;0;-0.00080318085;  1.0000008E+04;  0.0000000E+00; -6.1331114E-08;  1.0000000E+04;  0.0000000E+00;  1.0000001E+04;-0.00067846384;0.0;-0.00012471704;0.52431625
  5.9999969E-02;  9.9999998E-03; -2.8000000E-01;1123;-6.4540523e-05;0.0;-1.8170153e-05;1000.0006;  4.0000001E-01;0.49381313;3;-0.10246007;0.0;-0.027906567;0;-0.00099860784;  1.0000011E+04;  0.0000000E+00; -1.6274038E-08;  1.0000000E+04;  0.0000000E+00;  1.0000000E+04;-0.00091224728;0.0;-8.6360604e-05;0.34595206
  5.9999965E-02;  9.9999998E-03; -2.6000002E-01;1124;-7.8712284e-05;0.0;-1.7745457e-05;1000.0007;  4.0000001E-01;0.59257573;3;-0.12242734;0.0;-0.026681773;0;-0.0011642196;  1.0000014E+04;  0.0000000E+00; -7.1237814E-11;  1.0000000E+04;  0.0000000E+00;  1.0000000E+04;-0.0011282088;0.0;-3.6010788e-05;0.11644679
  5.9999958E-02;  9.9999998E-03; -2.4000001E-01;1125;-9.0146081e-05;0.0;-1.6524835e-05;1000.0008;  4.0000001E-01;0.69133836;3;-0.13824549;0.0;-0.024441548;0;-0.0012949753;  1.0000016E+04;  0.0000000E+00; -6.2914000E-11;  1.0000000E+04;  0.0000000E+00;  1.0000000E+04;-0.0013064228;0.0;1.1447428e-05;0.098482363
  5.9999954E-02;  9.9999998E-03; -2.2000001E-01;1126;-9.8817378e-05;0.0;-1.4937067e-05;1000.0009;  4.0000001E-01;0.69133836;3;-0.15020666;0.0;-0.021849031;0;-0.0013950423;  1.0000019E+04;  0.0000000E+00; -1.8712052E-12;  1.0000000E+04;  0.0000000E+00;  1.0000000E+04;-0.0014412769;0.0;4.6234618e-05;0.25567141
  5.9999950E-02;  9.9999998E-03; -2.0000000E-01;1127;-0.00010525312;0.0;-1.2990384e-05;1000.0009;  4.0000001E-01;0.69133836;3;-0.15912768;0.0;-0.018833911;0;-0.0014715625;  1.0000019E+04;  0.0000000E+00; -6.0669803E-11;  1.0000000E+04;  0.0000000E+00;  1.0000000E+04;-0.0015372507;0.0;6.5688175e-05;0.34403476
  7.9999968E-02;  9.9999998E-03; -3.0000001E-01;1153;-6.6529967e-05;0.0;-2.3327022e-05;1000.0007;  4.0000001E-01;0.59257573;3;-0.10597707;0.0;-0.035742156;0;-0.001058217;  1.0000011E+04;  0.0000000E+00; -7.2399816E-06;  1.0000000E+04;  0.0000000E+00;  1.0000002E+04;-0.00089673221;0.0;-0.00016148484;0.70564008
  7.9999961E-02;  9.9999998E-03; -2.8000000E-01;1154;-8.9847104e-05;0.0;-2.2962538e-05;1000.0009;  4.0000001E-01;0.69133836;3;-0.13938445;0.0;-0.033822469;0;-0.0013074032;  1.0000015E+04;  0.0000000E+00; -4.1428648E-06;  1.0000000E+04;  0.0000000E+00;  1.0000001E+04;-0.001197388;0.0;-0.0001100151;0.45779496
  7.9999946E-02;  9.9999998E-03; -2.6000002E-01;1155;-0.00010904055;0.0;-2.2314191e-05;1000.0009;  4.0000001E-01;0.79010099;3;-0.16544682;0.0;-0.032103643;0;-0.0015152365;  1.0000019E+04;  0.0000000E+00; -1.4837698E-06;  1.0000000E+04;  0.0000000E+00;  1.0000000E+04;-0.0014715713;0.0;-4.3665117e-05;0.14395186
  7.9999939E-02;  9.9999998E-03; -2.4000001E-01;1156;-0.00012430563;0.0;-2.0685387e-05;1000.001;  4.0000001E-01;0.88886362;3;-0.18577556;0.0;-0.029204812;0;-0.0016765082;  1.0000021E+04;  0.0000000E+00; -1.6790260E-07;  1.0000000E+04;  0.0000000E+00;  1.0000000E+04;-0.0016944993;0.0;1.7991111e-05;0.14619493
  7.9999939E-02;  9.9999998E-03; -2.2000001E-01;1157;-0.00013569844;0.0;-1.8656976e-05;1000.0012;  4.0000001E-01;0.98762625;3;-0.20090193;0.0;-0.026009589;0;-0.001797458;  1.0000022E+04;  0.0000000E+00; -1.0892707E-10;  1.0000000E+04;  0.0000000E+00;  1.0000000E+04;-0.0018599513;0.0;6.2493215e-05;0.35525572
  7.9999931E-02;  9.9999998E-03; -2.0000000E-01;1158;-0.00014401336;0.0;-1.6191234e-05;1000.0012;  4.0000001E-01;0.98762625;3;-0.2119945;0.0;-0.022351898;0;-0.0018877226;  1.0000024E+04;  0.0000000E+00; -7.0201692E-11;  1.0000000E+04;  0.0000000E+00;  1.0000000E+04;-0.0019745259;0.0;8.6803215e-05;0.4701567
  9.9999957E-02;  9.9999998E-03; -3.0000001E-01;1184;-9.1752867e-05;0.0;-3.0036623e-05;1000.0009;  4.0000001E-01;0.69133836;3;-0.14335677;0.0;-0.04450202;0;-0.0014257145;  1.0000016E+04;  0.0000000E+00; -7.1703762E-05;  1.0000000E+04;  0.0000000E+00;  1.0000002E+04;-0.0012186371;0.0;-0.00020707742;0.98612559
  9.9999942E-02;  9.9999998E-03; -2.8000000E-01;1185;-0.00012324615;0.0;-2.900322e-05;1000.0012;  4.0000001E-01;0.98762625;3;-0.18721768;0.0;-0.041038916;0;-0.0017382043;  1.0000021E+04;  0.0000000E+00; -4.6482928E-05;  1.0000000E+04;  0.0000000E+00;  1.0000001E+04;-0.0015997883;0.0;-0.00013841591;0.62797105
  9.9999927E-02;  9.9999998E-03; -2.6000002E-01;1186;-0.00014868454;0.0;-2.788687e-05;1000.0013;  4.0000001E-01;1.0863888;3;-0.22056553;0.0;-0.038422231;0;-0.0019914664;  1.0000025E+04;  0.0000000E+00; -2.2218617E-05;  1.0000000E+04;  0.0000000E+00;  1.0000000E+04;-0.0019400199;0.0;-5.1446397e-05;0.1940722
  9.9999920E-02;  9.9999998E-03; -2.4000001E-01;1187;-0.00016855463;0.0;-2.5697995e-05;1000.0013;  4.0000001E-01;1.0863888;3;-0.24604249;0.0;-0.034665421;0;-0.0021841722;  1.0000029E+04;  0.0000000E+00; -6.4514406E-06;  1.0000000E+04;  0.0000000E+00;  1.0000000E+04;-0.0022121696;0.0;2.7997463e-05;0.22061455
  9.9999912E-02;  9.9999998E-03; -2.2000001E-01;1188;-0.00018310304;0.0;-2.3139371e-05;1000.0015;  4.0000001E-01;1.1851515;3;-0.26461914;0.0;-0.030787274;0;-0.0023272764;  1.0000030E+04;  0.0000000E+00; -7.7407833E-07;  1.0000000E+04;  0.0000000E+00;  1.0000000E+04;-0.0024115422;0.0;8.4265943e-05;0.49397576
  9.9999905E-02;  9.9999998E-03; -2.0000000E-01;1189;-0.00019352778;0.0;-2.0049398e-05;1000.0016;  4.0000001E-01;1.2839141;3;-0.27798909;0.0;-0.026386106;0;-0.0024329475;  1.0000033E+04;  0.0000000E+00; -3.8366990E-11;  1.0000000E+04;  0.0000000E+00;  9.9999990E+03;-0.0025471572;0.0;0.00011420962;0.64131945
  1.1999994E-01;  9.9999998E-03; -3.0000001E-01;1215;-0.00012578593;0.0;-3.8985883e-05;1000.0013;  4.0000001E-01;1.0863888;3;-0.1929124;0.0;-0.05597043;0;-0.0019880182;  1.0000021E+04;  0.0000000E+00; -3.3954534E-04;  1.0000000E+04;  0.0000000E+00;  1.0000003E+04;-0.0017232837;0.0;-0.00026473452;1.9053885
  1.1999992E-01;  9.9999998E-03; -2.8000003E-01;1216;-0.00016760772;0.0;-3.6810852e-05;1000.0015;  4.0000001E-01;1.2839141;3;-0.24953669;0.0;-0.050101385;0;-0.0023657768;  1.0000029E+04;  0.0000000E+00; -2.3826472E-04;  1.0000000E+04;  0.0000000E+00;  1.0000002E+04;-0.0021938665;0.0;-0.00017191036;1.2714013
  1.1999990E-01;  9.9999998E-03; -2.6000002E-01;1217;-0.00020071199;0.0;-3.4852954e-05;1000.0018;  4.0000001E-01;1.4814394;3;-0.29138654;0.0;-0.046000019;0;-0.0026527883;  1.0000034E+04;  0.0000000E+00; -1.2425466E-04;  1.0000000E+04;  0.0000000E+00;  1.0000000E+04;-0.0025958905;0.0;-5.6897698e-05;0.56144321
  1.1999989E-01;  9.9999998E-03; -2.4000002E-01;1218;-0.00022604388;0.0;-3.1898453e-05;1000.0018;  4.0000001E-01;1.4814394;3;-0.32256669;0.0;-0.041120984;0;-0.0028646302;  1.0000038E+04;  0.0000000E+00; -4.5563447E-05;  1.0000000E+04;  0.0000000E+00;  1.0000000E+04;-0.0029102077;0.0;4.5577515e-05;0.39374155
  1.1999988E-01;  9.9999998E-03; -2.2000001E-01;1219;-0.00024423428;0.0;-2.8658098e-05;1000.002;  4.0000001E-01;1.6789646;3;-0.3447901;0.0;-0.036424454;0;-0.0030223005;  1.0000041E+04;  0.0000000E+00; -9.8483670E-06;  1.0000000E+04;  0.0000000E+00;  9.9999990E+03;-0.0031382693;0.0;0.00011596871;0.70019591
  1.1999987E-01;  9.9999998E-03; -2.0000002E-01;1220;-0.00025699675;0.0;-2.4822244e-05;1000.0021;  4.0000001E-01;1.7777272;3;-0.36042306;0.0;-0.031180084;0;-0.0031409576;  1.0000043E+04;  0.0000000E+00; -7.7260978E-07;  1.0000000E+04;  0.0000000E+00;  9.9999980E+03;-0.0032928064;0.0;0.00015184894;0.88235366
  1.3999991E-01;  9.9999998E-03; -3.0000004E-01;1246;-0.000172158;0.0;-5.1161231e-05;1000.0019;  4.0000001E-01;1.580202;3;-0.25924218;0.0;-0.071305633;0;-0.0028736372;  1.0000034E+04;  0.0000000E+00; -1.1222467E-03;  1.0000000E+04;  0.0000000E+00;  1.0000004E+04;-0.0025355746;0.0;-0.00033806276;5.0839138
  1.3999988E-01;  9.9999998E-03; -2.8000003E-01;1247;-0.00022678563;0.0;-4.7185684e-05;1000.0021;  4.0000001E-01;1.7777272;3;-0.33084491;0.0;-0.061966166;0;-0.0032975485;  1.0000041E+04;  0.0000000E+00; -8.0948160E-04;  1.0000000E+04;  0.0000000E+00;  1.0000002E+04;-0.0030886033;0.0;-0.00020894517;3.6097972
  1.3999987E-01;  9.9999998E-03; -2.6000002E-01;1248;-0.00026914236;0.0;-4.3869579e-05;1000.0024;  4.0000001E-01;1.9752525;3;-0.38234773;0.0;-0.055529349;0;-0.0035791227;  1.0000047E+04;  0.0000000E+00; -4.3787633E-04;  1.0000000E+04;  0.0000000E+00;  1.0000000E+04;-0.0035256899;0.0;-5.343285e-05;1.896452
  1.3999985E-01;  9.9999998E-03; -2.4000002E-01;1249;-0.00030083273;0.0;-3.9909981e-05;1000.0025;  4.0000001E-01;2.0740151;3;-0.41958454;0.0;-0.049230408;0;-0.0037757349;  1.0000052E+04;  0.0000000E+00; -1.7474162E-04;  1.0000000E+04;  0.0000000E+00;  1.0000000E+04;-0.0038557248;0.0;7.9989877e-05;0.94747746
  1.3999984E-01;  9.9999998E-03; -2.2000001E-01;1250;-0.00032319585;0.0;-3.5743109e-05;1000.0026;  4.0000001E-01;2.1727777;3;-0.4455567;0.0;-0.043430217;0;-0.0039269971;  1.0000055E+04;  0.0000000E+00; -4.6795187E-05;  1.0000000E+04;  0.0000000E+00;  9.9999980E+03;-0.0040939436;0.0;0.00016694641;1.0445025
  1.3999982E-01;  9.9999998E-03; -2.0000002E-01;1251;-0.00033852944;0.0;-3.0960487e-05;1000.0027;  4.0000001E-01;2.2715404;3;-0.46330106;0.0;-0.03720076;0;-0.0040494204;  1.0000058E+04;  0.0000000E+00; -6.6119151E-06;  1.0000000E+04;  0.0000000E+00;  9.9999980E+03;-0.0042569167;0.0;0.00020749627;1.2395127
  1.5999988E-01;  9.9999998E-03; -3.0000004E-01;1277;-0.00023585465;0.0;-6.7282468e-05;1000.0028;  4.0000001E-01;2.3703029;3;-0.3487131;0.0;-0.0910649;0;-0.0042480896;  1.0000053E+04;  0.0000000E+00; -2.9295485E-03;  1.0000000E+04;  0.0000000E+00;  1.0000006E+04;-0.0038176789;0.0;-0.00043041073;12.850595
  1.5999985E-01;  9.9999998E-03; -2.8000003E-01;1278;-0.00030573559;0.0;-6.103584e-05;1000.0032;  4.0000001E-01;2.6665909;3;-0.43685284;0.0;-0.077501178;0;-0.0046552946;  1.0000061E+04;  0.0000000E+00; -2.1001026E-03;  1.0000000E+04;  0.0000000E+00;  1.0000003E+04;-0.0044117374;0.0;-0.00024355709;9.1827888
  1.5999982E-01;  9.9999998E-03; -2.6000002E-01;1279;-0.00035890518;0.0;-5.5893852e-05;1000.0033;  4.0000001E-01;2.7653534;3;-0.49859625;0.0;-0.068065211;0;-0.0048527988;  1.0000067E+04;  0.0000000E+00; -1.1396342E-03;  1.0000000E+04;  0.0000000E+00;  1.0000000E+04;-0.0048258365;0.0;-2.6962342e-05;4.9671607
  1.5999979E-01;  9.9999998E-03; -2.4000002E-01;1280;-0.0003978608;0.0;-5.0796967e-05;1000.0035;  4.0000001E-01;2.8641162;3;-0.54194027;0.0;-0.060245059;0;-0.0049756044;  1.0000071E+04;  0.0000000E+00; -4.6758648E-04;  1.0000000E+04;  0.0000000E+00;  9.9999980E+03;-0.0051245005;0.0;0.00014889604;2.2787137
  1.5999977E-01;  9.9999998E-03; -2.2000003E-01;1281;-0.0004249973;0.0;-4.5340152e-05;1000.0036;  4.0000001E-01;2.9628787;3;-0.57166463;0.0;-0.052939139;0;-0.0050880769;  1.0000075E+04;  0.0000000E+00; -1.3723012E-04;  1.0000000E+04;  0.0000000E+00;  9.9999971E+03;-0.0053421026;0.0;0.00025402557;1.6795686
  1.5999977E-01;  9.9999998E-03; -2.0000002E-01;1282;-0.00044318265;0.0;-3.9107752e-05;1000.0037;  4.0000001E-01;3.0616415;3;-0.59134763;0.0;-0.045168709;0;-0.0052004438;  1.0000076E+04;  0.0000000E+00; -2.4593093E-05;  1.0000000E+04;  0.0000000E+00;  9.9999961E+03;-0.0054952013;0.0;0.00029475751;1.7938479
  1.7999983E-01;  9.9999998E-03; -3.0000004E-01;1308;-0.00032406926;0.0;-8.7279921e-05;1000.0043;  4.0000001E-01;3.5554545;3;-0.47053161;0.0;-0.11405987;0;-0.0062377881;  1.0000078E+04;  0.0000000E+00; -6.2266239E-03;  1.0000000E+04;  0.0000000E+00;  1.0000007E+04;-0.0056941081;0.0;-0.00054367987;27.312616
  1.7999978E-01;  9.9999998E-03; -2.8000006E-01;1309;-0.00041104064;0.0;-7.8800775e-05;1000.0045;  4.0000001E-01;3.654217;3;-0.57489616;0.0;-0.096772403;0;-0.006514289;  1.0000087E+04;  0.0000000E+00; -4.3652984E-03;  1.0000000E+04;  0.0000000E+00;  1.0000003E+04;-0.0062530204;0.0;-0.0002612684;19.154465
  1.7999974E-01;  9.9999998E-03; -2.6000005E-01;1310;-0.0004761274;0.0;-7.2166455e-05;1000.0045;  4.0000001E-01;3.7529798;3;-0.64628863;0.0;-0.084940687;0;-0.006518947;  1.0000092E+04;  0.0000000E+00; -2.3298105E-03;  1.0000000E+04;  0.0000000E+00;  1.0000000E+04;-0.0065685273;0.0;4.9580296e-05;10.259658
  1.7999972E-01;  9.9999998E-03; -2.4000004E-01;1311;-0.0005234477;0.0;-6.5537046e-05;1000.0046;  4.0000001E-01;3.7529798;3;-0.69572419;0.0;-0.075209007;0;-0.0065027345;  1.0000096E+04;  0.0000000E+00; -9.5491862E-04;  1.0000000E+04;  0.0000000E+00;  9.9999961E+03;-0.0067848014;0.0;0.00028206699;4.5912561
  1.7999971E-01;  9.9999998E-03; -2.2000003E-01;1312;-0.00055596151;0.0;-5.8267498e-05;1000.0046;  4.0000001E-01;3.8517423;3;-0.72903746;0.0;-0.06576772;0;-0.0065469309;  1.0000099E+04;  0.0000000E+00; -2.8971551E-04;  1.0000000E+04;  0.0000000E+00;  9.9999951E+03;-0.0069502909;0.0;0.00040335982;2.7937667
  1.7999969E-01;  9.9999998E-03; -2.0000003E-01;1313;-0.00057711138;0.0;-5.0082799e-05;1000.0048;  4.0000001E-01;3.950505;3;-0.75011176;0.0;-0.056040101;0;-0.006639454;  1.0000100E+04;  0.0000000E+00; -5.7569745E-05;  1.0000000E+04;  0.0000000E+00;  9.9999941E+03;-0.007073476;0.0;0.00043402213;2.6681273
  1.9999976E-01;  9.9999998E-03; -3.0000007E-01;1339;-0.00044566329;0.0;-0.00011229764;1000.0062;  4.0000001E-01;5.1356564;3;-0.63555127;0.0;-0.1407218;0;-0.0087748235;  1.0000112E+04;  0.0000000E+00; -1.0642528E-02;  1.0000000E+04;  0.0000000E+00;  1.0000011E+04;-0.0081025735;0.0;-0.00067225;47.023548
  1.9999970E-01;  9.9999998E-03; -2.8000006E-01;1340;-0.00055126881;0.0;-0.00010142497;1000.0062;  4.0000001E-01;5.1356564;3;-0.75460827;0.0;-0.11990157;0;-0.0088172248;  1.0000123E+04;  0.0000000E+00; -7.3082475E-03;  1.0000000E+04;  0.0000000E+00;  1.0000003E+04;-0.0085840244;0.0;-0.00023320061;32.331867
  1.9999966E-01;  9.9999998E-03; -2.6000005E-01;1341;-0.00062903244;0.0;-9.3449322e-05;1000.0061;  4.0000001E-01;5.0368938;3;-0.83384544;0.0;-0.10638058;0;-0.0085485242;  1.0000127E+04;  0.0000000E+00; -3.8128051E-03;  1.0000000E+04;  0.0000000E+00;  9.9999971E+03;-0.0087688584;0.0;0.00022033375;16.999632
  1.9999963E-01;  9.9999998E-03; -2.4000005E-01;1342;-0.00068568141;0.0;-8.4893669e-05;1000.006;  4.0000001E-01;4.9381313;3;-0.88862842;0.0;-0.094644889;0;-0.0083622374;  1.0000129E+04;  0.0000000E+00; -1.5378969E-03;  1.0000000E+04;  0.0000000E+00;  9.9999932E+03;-0.0088851983;0.0;0.00052296079;7.5922351
  1.9999960E-01;  9.9999998E-03; -2.2000004E-01;1343;-0.00072372385;0.0;-7.5834978e-05;1000.006;  4.0000001E-01;4.9381313;3;-0.92434454;0.0;-0.08357884;0;-0.0083352653;  1.0000132E+04;  0.0000000E+00; -4.6716354E-04;  1.0000000E+04;  0.0000000E+00;  9.9999902E+03;-0.0089855744;0.0;0.00065030932;4.4918637
  1.9999959E-01;  9.9999998E-03; -2.0000003E-01;1344;-0.00074789528;0.0;-6.47501e-05;1000.0062;  4.0000001E-01;5.1356564;3;-0.94613969;0.0;-0.070741922;0;-0.0084142704;  1.0000132E+04;  0.0000000E+00; -9.6020332E-05;  1.0000000E+04;  0.0000000E+00;  9.9999902E+03;-0.0090658218;0.0;0.00065155118;4.0167198
  2.1999967E-01;  9.9999998E-03; -3.0000010E-01;1370;-0.00060247834;0.0;-0.00017844068;1000.0082;  4.0000001E-01;6.814621;3;-0.84198117;0.0;-0.22190487;0;-0.011323029;  1.0000153E+04;  0.0000000E+00; -1.4606257E-02;  1.0000000E+04;  0.0000000E+00;  1.0000009E+04;-0.010752768;0.0;-0.00057026057;65.068726
  2.1999960E-01;  9.9999998E-03; -2.8000009E-01;1371;-0.00073488092;0.0;-0.00014656907;1000.0082;  4.0000001E-01;6.814621;3;-0.98355442;0.0;-0.17036378;0;-0.011318472;  1.0000162E+04;  0.0000000E+00; -9.8396204E-03;  1.0000000E+04;  0.0000000E+00;  1.0000000E+04;-0.011280183;0.0;-3.8289494e-05;43.959831
  2.1999954E-01;  9.9999998E-03; -2.6000008E-01;1372;-0.00082758465;0.0;-0.00012816608;1000.008;  4.0000001E-01;6.6170959;3;-1.0705308;0.0;-0.14269626;0;-0.010847016;  1.0000166E+04;  0.0000000E+00; -5.0151139E-03;  1.0000000E+04;  0.0000000E+00;  9.9999932E+03;-0.011411809;0.0;0.00056479324;22.780493
  2.1999949E-01;  9.9999998E-03; -2.4000007E-01;1373;-0.00089437276;0.0;-0.00011311626;1000.0079;  4.0000001E-01;6.518333;3;-1.129315;0.0;-0.12342333;0;-0.01054341;  1.0000171E+04;  0.0000000E+00; -1.9723589E-03;  1.0000000E+04;  0.0000000E+00;  9.9999883E+03;-0.01147139;0.0;0.00092797959;10.546727
  2.1999946E-01;  9.9999998E-03; -2.2000006E-01;1374;-0.0009380813;0.0;-9.9446916e-05;1000.0079;  4.0000001E-01;6.518333;3;-1.166064;0.0;-0.10746951;0;-0.010487759;  1.0000173E+04;  0.0000000E+00; -5.8664090E-04;  1.0000000E+04;  0.0000000E+00;  9.9999844E+03;-0.011522228;0.0;0.001034469;6.8390741
  2.1999945E-01;  9.9999998E-03; -2.0000005E-01;1375;-0.0009647446;0.0;-8.4270083e-05;1000.008;  4.0000001E-01;6.6170959;3;-1.186903;0.0;-0.090555683;0;-0.010581215;  1.0000173E+04;  0.0000000E+00; -1.1877056E-04;  1.0000000E+04;  0.0000000E+00;  9.9999873E+03;-0.011556887;0.0;0.00097567233;6.0107131
  2.3999953E-01;  9.9999998E-03; -3.0000019E-01;1401;-0.00083154574;0.0;-0.00032933883;1000.0098;  4.0000001E-01;8.0985355;3;-1.1361384;0.0;-0.42011267;0;-0.01333896;  1.0000203E+04;  0.0000000E+00; -1.6077496E-02;  1.0000000E+04;  0.0000000E+00;  9.9999971E+03;-0.013715543;0.0;0.00037658331;72.273552
  2.3999944E-01;  9.9999998E-03; -2.8000015E-01;1402;-0.00098179688;0.0;-0.00024390501;1000.0103;  4.0000001E-01;8.5923481;3;-1.2837291;0.0;-0.28771967;0;-0.013733052;  1.0000213E+04;  0.0000000E+00; -1.0671357E-02;  1.0000000E+04;  0.0000000E+00;  9.9999932E+03;-0.01436698;0.0;0.0006339277;48.34597
  2.3999937E-01;  9.9999998E-03; -2.6000011E-01;1403;-0.001086944;0.0;-0.00019219793;1000.0101;  4.0000001E-01;8.3948231;3;-1.3709403;0.0;-0.21471156;0;-0.013347077;  1.0000219E+04;  0.0000000E+00; -5.2996865E-03;  1.0000000E+04;  0.0000000E+00;  9.9999824E+03;-0.014559966;0.0;0.0012128886;25.148045
  2.3999932E-01;  9.9999998E-03; -2.4000010E-01;1404;-0.0011629801;0.0;-0.00015768771;1000.0101;  4.0000001E-01;8.2960606;3;-1.4297739;0.0;-0.17105094;0;-0.013074687;  1.0000223E+04;  0.0000000E+00; -2.0111436E-03;  1.0000000E+04;  0.0000000E+00;  9.9999785E+03;-0.014632059;0.0;0.0015573729;13.188271
  2.3999929E-01;  9.9999998E-03; -2.2000009E-01;1405;-0.0012109812;0.0;-0.00013332261;1000.0101;  4.0000001E-01;8.2960606;3;-1.4639202;0.0;-0.14284633;0;-0.013068466;  1.0000225E+04;  0.0000000E+00; -5.7260896E-04;  1.0000000E+04;  0.0000000E+00;  9.9999775E+03;-0.01465969;0.0;0.0015912242;10.066863
  2.3999928E-01;  9.9999998E-03; -2.0000006E-01;1406;-0.0012390254;0.0;-0.00011058973;1000.0102;  4.0000001E-01;8.4935856;3;-1.4813566;0.0;-0.11772816;0;-0.013217547;  1.0000228E+04;  0.0000000E+00; -1.0866936E-04;  1.0000000E+04;  0.0000000E+00;  9.9999795E+03;-0.014648431;0.0;0.001430884;8.8298321
  2.5999933E-01;  9.9999998E-03; -3.0000031E-01;1432;-0.0011580553;0.0;-0.00052283797;1000.0118;  4.0000001E-01;9.7774992;3;-1.5484104;0.0;-0.66240096;0;-0.015264914;  1.0000261E+04;  0.0000000E+00; -1.4131002E-02;  1.0000000E+04;  0.0000000E+00;  9.9999756E+03;-0.01736276;0.0;0.0020978458;65.12999
  2.5999922E-01;  9.9999998E-03; -2.8000024E-01;1433;-0.0013162806;0.0;-0.00038622456;1000.0126;  4.0000001E-01;10.468838;3;-1.6805357;0.0;-0.45775193;0;-0.016199719;  1.0000277E+04;  0.0000000E+00; -9.2729712E-03;  1.0000000E+04;  0.0000000E+00;  9.9999736E+03;-0.018115336;0.0;0.0019156167;43.785858
  2.5999916E-01;  9.9999998E-03; -2.6000017E-01;1434;-0.0014280205;0.0;-0.00028767492;1000.0126;  4.0000001E-01;10.468838;3;-1.7555424;0.0;-0.32314736;0;-0.016169801;  1.0000285E+04;  0.0000000E+00; -4.4629546E-03;  1.0000000E+04;  0.0000000E+00;  9.9999678E+03;-0.018410539;0.0;0.0022407384;24.552128
  2.5999910E-01;  9.9999998E-03; -2.4000014E-01;1435;-0.00150804;0.0;-0.00022376805;1000.0126;  4.0000001E-01;10.468838;3;-1.8040895;0.0;-0.24318281;0;-0.01607544;  1.0000290E+04;  0.0000000E+00; -1.6081500E-03;  1.0000000E+04;  0.0000000E+00;  9.9999658E+03;-0.01852322;0.0;0.0024477795;16.725624
  2.5999907E-01;  9.9999998E-03; -2.2000012E-01;1436;-0.0015571428;0.0;-0.0001815922;1000.0128;  4.0000001E-01;10.666363;3;-1.8294828;0.0;-0.19433349;0;-0.016191013;  1.0000294E+04;  0.0000000E+00; -4.2451016E-04;  1.0000000E+04;  0.0000000E+00;  9.9999658E+03;-0.018532325;0.0;0.0023413124;14.56501
  2.5999904E-01;  9.9999998E-03; -2.0000009E-01;1437;-0.0015846322;0.0;-0.00014568408;1000.0132;  4.0000001E-01;10.96265;3;-1.8400069;0.0;-0.15432264;0;-0.016430203;  1.0000293E+04;  0.0000000E+00; -7.0314789E-05;  1.0000000E+04;  0.0000000E+00;  9.9999707E+03;-0.018463273;0.0;0.0020330702;12.641918
  2.7999905E-01;  9.9999998E-03; -3.0000046E-01;1463;-0.0015915072;0.0;-0.00073289295;1000.0145;  4.0000001E-01;11.950276;3;-2.0835896;0.0;-0.90521747;0;-0.017955374;  1.0000347E+04;  0.0000000E+00; -9.9223619E-03;  1.0000000E+04;  0.0000000E+00;  9.9999443E+03;-0.02211499;0.0;0.0041596163;50.909248
  2.7999893E-01;  9.9999998E-03; -2.8000036E-01;1464;-0.0017530225;0.0;-0.00055368699;1000.0155;  4.0000001E-01;12.83914;3;-2.1843088;0.0;-0.64550126;0;-0.019255809;  1.0000362E+04;  0.0000000E+00; -6.3729179E-03;  1.0000000E+04;  0.0000000E+00;  9.9999482E+03;-0.022881603;0.0;0.0036257938;36.247688
  2.7999887E-01;  9.9999998E-03; -2.6000026E-01;1465;-0.0018672324;0.0;-0.00040935073;1000.0159;  4.0000001E-01;13.234191;3;-2.2360802;0.0;-0.45648995;0;-0.019617269;  1.0000370E+04;  0.0000000E+00; -2.9248630E-03;  1.0000000E+04;  0.0000000E+00;  9.9999463E+03;-0.023225844;0.0;0.0036085746;25.875011
  2.7999881E-01;  9.9999998E-03; -2.4000020E-01;1466;-0.00194684;0.0;-0.00031097446;1000.0161;  4.0000001E-01;13.332953;3;-2.264806;0.0;-0.33787814;0;-0.019751392;  1.0000375E+04;  0.0000000E+00; -9.7207306E-04;  1.0000000E+04;  0.0000000E+00;  9.9999463E+03;-0.023341522;0.0;0.0035901289;22.76071
  2.7999878E-01;  9.9999998E-03; -2.2000016E-01;1467;-0.0019935328;0.0;-0.00024402767;1000.0165;  4.0000001E-01;13.629241;3;-2.2748313;0.0;-0.26036239;0;-0.020014539;  1.0000377E+04;  0.0000000E+00; -2.2468432E-04;  1.0000000E+04;  0.0000000E+00;  9.9999502E+03;-0.023300804;0.0;0.0032862644;20.598425
  2.7999875E-01;  9.9999998E-03; -2.0000012E-01;1468;-0.0020181113;0.0;-0.0001898738;1000.0168;  4.0000001E-01;13.925529;3;-2.2745178;0.0;-0.1999552;0;-0.020354547;  1.0000377E+04;  0.0000000E+00; -2.8319211E-05;  1.0000000E+04;  0.0000000E+00;  9.9999580E+03;-0.023144335;0.0;0.002789787;17.586557
  2.9999870E-01;  9.9999998E-03; -3.0000061E-01;1494;-0.0021372556;0.0;-0.00096105103;1000.0185;  4.0000001E-01;15.308204;3;-2.7355814;0.0;-1.1472918;0;-0.022002481;  1.0000459E+04;  0.0000000E+00; -5.3946120E-03;  1.0000000E+04;  0.0000000E+00;  9.9999121E+03;-0.028317781;0.0;0.0063152993;43.630035
  2.9999858E-01;  9.9999998E-03; -2.8000048E-01;1495;-0.0023041212;0.0;-0.00074022269;1000.0196;  4.0000001E-01;16.197067;3;-2.7997611;0.0;-0.84148145;0;-0.023425817;  1.0000473E+04;  0.0000000E+00; -3.3126792E-03;  1.0000000E+04;  0.0000000E+00;  9.9999199E+03;-0.02895914;0.0;0.0055333227;36.620598
  2.9999849E-01;  9.9999998E-03; -2.6000035E-01;1496;-0.0024196759;0.0;-0.00055070233;1000.0201;  4.0000001E-01;16.69088;3;-2.8189447;0.0;-0.60400683;0;-0.024028689;  1.0000481E+04;  0.0000000E+00; -1.3973429E-03;  1.0000000E+04;  0.0000000E+00;  9.9999219E+03;-0.029241784;0.0;0.0052130958;33.174072
  2.9999843E-01;  9.9999998E-03; -2.4000026E-01;1497;-0.0024976896;0.0;-0.00041538748;1000.0204;  4.0000001E-01;16.987167;3;-2.8218555;0.0;-0.44571516;0;-0.024329344;  1.0000484E+04;  0.0000000E+00; -4.0558231E-04;  1.0000000E+04;  0.0000000E+00;  9.9999258E+03;-0.029283868;0.0;0.0049545243;31.499949
  2.9999840E-01;  9.9999998E-03; -2.2000021E-01;1498;-0.0025402829;0.0;-0.00032031006;1000.0209;  4.0000001E-01;17.283455;3;-2.813153;0.0;-0.34030548;0;-0.024716271;  1.0000485E+04;  0.0000000E+00; -7.2702867E-05;  1.0000000E+04;  0.0000000E+00;  9.9999346E+03;-0.029140847;0.0;0.0044245757;28.272573
  2.9999837E-01;  9.9999998E-03; -2.0000015E-01;1499;-0.0025592837;0.0;-0.00024300162;1000.0213;  4.0000001E-01;17.678505;3;-2.7980511;0.0;-0.25463861;0;-0.025147816;  1.0000483E+04;  0.0000000E+00; -4.8960565E-06;  1.0000000E+04;  0.0000000E+00;  9.9999443E+03;-0.02885469;0.0;0.0037068743;23.805494
  3.1999823E-01;  9.9999998E-03; -3.0000082E-01;1525;-0.0028026728;0.0;-0.0012195081;1000.024;  4.0000001E-01;19.851282;3;-3.4996698;0.0;-1.4056612;0;-0.027597729;  1.0000605E+04;  0.0000000E+00; -2.0340499E-03;  1.0000000E+04;  0.0000000E+00;  9.9998750E+03;-0.036119681;0.0;0.0085219517;51.762051
  3.1999809E-01;  9.9999998E-03; -2.8000063E-01;1526;-0.0029835526;0.0;-0.00094994262;1000.0251;  4.0000001E-01;20.740147;3;-3.5283985;0.0;-1.047228;0;-0.028949143;  1.0000615E+04;  0.0000000E+00; -1.1354416E-03;  1.0000000E+04;  0.0000000E+00;  9.9998848E+03;-0.036516741;0.0;0.0075675976;47.433937
  3.1999800E-01;  9.9999998E-03; -2.6000047E-01;1527;-0.0031052267;0.0;-0.00071160565;1000.0256;  4.0000001E-01;21.233959;3;-3.5145013;0.0;-0.76389641;0;-0.029635189;  1.0000621E+04;  0.0000000E+00; -4.1321028E-04;  1.0000000E+04;  0.0000000E+00;  9.9998916E+03;-0.036643852;0.0;0.007008662;45.052677
  3.1999794E-01;  9.9999998E-03; -2.4000035E-01;1528;-0.0031834864;0.0;-0.00053492608;1000.0261;  4.0000001E-01;21.629009;3;-3.489372;0.0;-0.56454349;0;-0.030012814;  1.0000624E+04;  0.0000000E+00; -9.0983049E-05;  1.0000000E+04;  0.0000000E+00;  9.9998975E+03;-0.036547005;0.0;0.0065341904;42.583012
  3.1999791E-01;  9.9999998E-03; -2.2000027E-01;1529;-0.0032212092;0.0;-0.00040832767;1000.0266;  4.0000001E-01;22.024059;3;-3.4582469;0.0;-0.42705938;0;-0.03048161;  1.0000623E+04;  0.0000000E+00; -8.6955351E-06;  1.0000000E+04;  0.0000000E+00;  9.9999102E+03;-0.036250263;0.0;0.0057686521;37.763191
  3.1999788E-01;  9.9999998E-03; -2.0000020E-01;1530;-0.0032320628;0.0;-0.00030511306;1000.0272;  4.0000001E-01;22.517874;3;-3.4247849;0.0;-0.3172105;0;-0.030989392;  1.0000618E+04;  0.0000000E+00; -2.5367952E-09;  1.0000000E+04;  0.0000000E+00;  9.9999268E+03;-0.03578449;0.0;0.0047950987;31.486851
  3.3999765E-01;  9.9999998E-03; -3.0000106E-01;1556;-0.0036080708;0.0;-0.0015262536;1000.0311;  4.0000001E-01;25.777037;3;-4.3877254;0.0;-1.6948613;0;-0.034545973;  1.0000790E+04;  0.0000000E+00; -3.7202673E-04;  1.0000000E+04;  0.0000000E+00;  9.9998311E+03;-0.045545887;0.0;0.010999916;69.222824
  3.3999750E-01;  9.9999998E-03; -2.8000084E-01;1557;-0.0038165557;0.0;-0.0011940592;1000.0322;  4.0000001E-01;26.665901;3;-4.3855329;0.0;-1.2732886;0;-0.035860352;  1.0000795E+04;  0.0000000E+00; -1.7531592E-04;  1.0000000E+04;  0.0000000E+00;  9.9998486E+03;-0.045693297;0.0;0.0098329457;63.773102
  3.3999738E-01;  9.9999998E-03; -2.6000062E-01;1558;-0.0039527356;0.0;-0.00089822558;1000.0328;  4.0000001E-01;27.159714;3;-4.3391714;0.0;-0.93949139;0;-0.036573105;  1.0000798E+04;  0.0000000E+00; -4.4727145E-05;  1.0000000E+04;  0.0000000E+00;  9.9998574E+03;-0.045644335;0.0;0.00907123;60.116253
  3.3999729E-01;  9.9999998E-03; -2.4000046E-01;1559;-0.00403438;0.0;-0.00067211781;1000.0332;  4.0000001E-01;27.554764;3;-4.2841907;0.0;-0.69569314;0;-0.036997903;  1.0000798E+04;  0.0000000E+00; -3.6011018E-06;  1.0000000E+04;  0.0000000E+00;  9.9998682E+03;-0.04537376;0.0;0.008375858;56.162323
  3.3999726E-01;  9.9999998E-03; -2.2000034E-01;1560;-0.004066491;0.0;-0.0005079339;1000.0338;  4.0000001E-01;28.048576;3;-4.2282577;0.0;-0.52207458;0;-0.037526827;  1.0000793E+04;  0.0000000E+00;  2.6915787E-08;  1.0000000E+04;  0.0000000E+00;  9.9998848E+03;-0.044871677;0.0;0.0073448503;49.385704
  3.3999723E-01;  9.9999998E-03; -2.0000026E-01;1561;-0.0040648854;0.0;-0.00037520187;1000.0345;  4.0000001E-01;28.641151;3;-4.1701183;0.0;-0.38360122;0;-0.038091104;  1.0000783E+04;  0.0000000E+00; -2.0908688E-09;  1.0000000E+04;  0.0000000E+00;  9.9999033E+03;-0.044158664;0.0;0.0060675596;40.859028
  3.5999691E-01;  9.9999998E-03; -3.0000135E-01;1587;-0.0045914324;0.0;-0.0018957843;1000.0398;  4.0000001E-01;32.986702;3;-5.4287419;0.0;-2.0285819;0;-0.042827092;  1.0001018E+04;  0.0000000E+00; -5.2851105E-06;  1.0000000E+04;  0.0000000E+00;  9.9997783E+03;-0.056812976;0.0;0.013985883;92.239449
  3.5999671E-01;  9.9999998E-03; -2.8000107E-01;1588;-0.0048426636;0.0;-0.0014846077;1000.0409;  4.0000001E-01;33.875565;3;-5.3981071;0.0;-1.5300276;0;-0.044278603;  1.0001021E+04;  0.0000000E+00; -2.0031722E-07;  1.0000000E+04;  0.0000000E+00;  9.9997988E+03;-0.056801654;0.0;0.01252305;84.321068
  3.5999659E-01;  9.9999998E-03; -2.6000080E-01;1589;-0.0050013093;0.0;-0.001116548;1000.0417;  4.0000001E-01;34.566902;3;-5.3172755;0.0;-1.1365634;0;-0.045085162;  1.0001019E+04;  0.0000000E+00;  5.4144994E-07;  1.0000000E+04;  0.0000000E+00;  9.9998145E+03;-0.056583997;0.0;0.011498834;78.600487
  3.5999650E-01;  9.9999998E-03; -2.4000058E-01;1590;-0.0050882683;0.0;-0.00083123875;1000.0422;  4.0000001E-01;34.961952;3;-5.2291265;0.0;-0.84388489;0;-0.045552358;  1.0001016E+04;  0.0000000E+00;  1.9429315E-07;  1.0000000E+04;  0.0000000E+00;  9.9998291E+03;-0.056091953;0.0;0.010539596;72.761528
  3.5999644E-01;  9.9999998E-03; -2.2000043E-01;1591;-0.0051112678;0.0;-0.00062075641;1000.0428;  4.0000001E-01;35.455765;3;-5.1411896;0.0;-0.62602395;0;-0.046116475;  1.0001006E+04;  0.0000000E+00;  3.7051901E-08;  1.0000000E+04;  0.0000000E+00;  9.9998525E+03;-0.055297907;0.0;0.0091814334;63.507023
  3.5999644E-01;  9.9999998E-03; -2.0000032E-01;1592;-0.0050907908;0.0;-0.00045264277;1000.0436;  4.0000001E-01;36.147102;3;-5.0524383;0.0;-0.45334834;0;-0.046697903;  1.0000993E+04;  0.0000000E+00; -3.7957948E-09;  1.0000000E+04;  0.0000000E+00;  9.9998789E+03;-0.054230146;0.0;0.0075322422;52.1572
  3.7999597E-01;  9.9999998E-03; -3.0000174E-01;1618;-0.0058069248;0.0;-0.0023462102;1000.0506;  4.0000001E-01;41.875328;3;-6.6664977;0.0;-2.4179356;0;-0.052798841;  1.0001304E+04;  0.0000000E+00;  1.4306995E-06;  1.0000000E+04;  0.0000000E+00;  9.9997090E+03;-0.070552081;0.0;0.01775324;122.55548
  3.7999570E-01;  9.9999998E-03; -2.8000134E-01;1619;-0.0061123683;0.0;-0.0018351077;1000.0521;  4.0000001E-01;43.159241;3;-6.6002383;0.0;-1.8279514;0;-0.054561108;  1.0001304E+04;  0.0000000E+00;  1.4156852E-06;  1.0000000E+04;  0.0000000E+00;  9.9997393E+03;-0.070382461;0.0;0.015821351;110.24473
  3.7999555E-01;  9.9999998E-03; -2.6000100E-01;1620;-0.0062983832;0.0;-0.0013732346;1000.053;  4.0000001E-01;43.850578;3;-6.4766073;0.0;-1.3596562;0;-0.055545498;  1.0001300E+04;  0.0000000E+00;  7.8522140E-07;  1.0000000E+04;  0.0000000E+00;  9.9997627E+03;-0.069920197;0.0;0.014374699;101.20566
  3.7999547E-01;  9.9999998E-03; -2.4000072E-01;1621;-0.0063889595;0.0;-0.0010134329;1000.0536;  4.0000001E-01;44.443153;3;-6.3466396;0.0;-1.0060716;0;-0.056027312;  1.0001288E+04;  0.0000000E+00;  2.7722896E-07;  1.0000000E+04;  0.0000000E+00;  9.9997832E+03;-0.06908147;0.0;0.013054159;92.804207
  3.7999541E-01;  9.9999998E-03; -2.2000054E-01;1622;-0.0063961581;0.0;-0.00074761931;1000.0543;  4.0000001E-01;44.936966;3;-6.2189274;0.0;-0.7377134;0;-0.056559544;  1.0001271E+04;  0.0000000E+00;  5.0984465E-08;  1.0000000E+04;  0.0000000E+00;  9.9998135E+03;-0.067845292;0.0;0.011285749;80.434303
  3.7999541E-01;  9.9999998E-03; -2.0000039E-01;1623;-0.0063471007;0.0;-0.00053914764;1000.0549;  4.0000001E-01;45.430779;3;-6.0911064;0.0;-0.52669328;0;-0.0570812;  1.0001250E+04;  0.0000000E+00; -4.1800812E-09;  1.0000000E+04;  0.0000000E+00;  9.9998477E+03;-0.066268891;0.0;0.0091876918;65.625084
  3.9999476E-01;  9.9999998E-03; -3.0000225E-01;1649;-0.0073142084;0.0;-0.0028966197;1000.0642;  4.0000001E-01;53.233009;3;-8.1399593;0.0;-2.8772523;0;-0.064968452;  1.0001668E+04;  0.0000000E+00;  1.9681363E-06;  1.0000000E+04;  0.0000000E+00;  9.9996172E+03;-0.087472126;0.0;0.02250367;161.73709
  3.9999443E-01;  9.9999998E-03; -2.8000173E-01;1650;-0.0076836236;0.0;-0.0022569788;1000.0664;  4.0000001E-01;55.010735;3;-8.0256948;0.0;-2.1761212;0;-0.067194283;  1.0001662E+04;  0.0000000E+00;  2.0208522E-06;  1.0000000E+04;  0.0000000E+00;  9.9996650E+03;-0.086999699;0.0;0.019805415;142.24684
  3.9999422E-01;  9.9999998E-03; -2.6000124E-01;1651;-0.0078990282;0.0;-0.0016733266;1000.0674;  4.0000001E-01;55.899597;3;-7.8464956;0.0;-1.6130561;0;-0.068420656;  1.0001650E+04;  0.0000000E+00;  1.1204850E-06;  1.0000000E+04;  0.0000000E+00;  9.9997012E+03;-0.086114593;0.0;0.017693939;128.15314
  3.9999413E-01;  9.9999998E-03; -2.4000089E-01;1652;-0.0079873493;0.0;-0.0012210887;1000.0678;  4.0000001E-01;56.195885;3;-7.663393;0.0;-1.1835519;0;-0.068828151;  1.0001629E+04;  0.0000000E+00;  3.8875839E-07;  1.0000000E+04;  0.0000000E+00;  9.9997285E+03;-0.084727205;0.0;0.015899055;116.53052
  3.9999411E-01;  9.9999998E-03; -2.2000065E-01;1653;-0.0079671275;0.0;-0.00089102669;1000.0684;  4.0000001E-01;56.590935;3;-7.4856033;0.0;-0.85654151;0;-0.069198653;  1.0001601E+04;  0.0000000E+00;  7.4463081E-08;  1.0000000E+04;  0.0000000E+00;  9.9997686E+03;-0.082837433;0.0;0.013638777;100.44314
  3.9999413E-01;  9.9999998E-03; -2.0000048E-01;1654;-0.0078746472;0.0;-0.00063830399;1000.0689;  4.0000001E-01;57.084751;3;-7.3061109;0.0;-0.60365474;0;-0.069530264;  1.0001566E+04;  0.0000000E+00; -3.8483772E-09;  1.0000000E+04;  0.0000000E+00;  9.9998145E+03;-0.080549337;0.0;0.011019077;81.564171
  4.1999316E-01;  9.9999998E-03; -3.0000287E-01;1680;-0.009183092;0.0;-0.0035680626;1000.0818;  4.0000001E-01;67.849846;3;-9.8911915;0.0;-3.4178667;0;-0.079808772;  1.0002132E+04;  0.0000000E+00;  2.5464856E-06;  1.0000000E+04;  0.0000000E+00;  9.9995049E+03;-0.10818885;0.0;0.028380072;211.33028
  4.1999277E-01;  9.9999998E-03; -2.8000215E-01;1681;-0.0096262302;0.0;-0.0027593756;1000.0846;  4.0000001E-01;70.121384;3;-9.7116966;0.0;-2.5814867;0;-0.08277528;  1.0002115E+04;  0.0000000E+00;  2.8115651E-06;  1.0000000E+04;  0.0000000E+00;  9.9995811E+03;-0.10718412;0.0;0.02440884;180.0847
  4.1999257E-01;  9.9999998E-03; -2.6000154E-01;1682;-0.0098695708;0.0;-0.0020195756;1000.0858;  4.0000001E-01;71.109009;3;-9.4599533;0.0;-1.8992928;0;-0.084263653;  1.0002087E+04;  0.0000000E+00;  1.5904266E-06;  1.0000000E+04;  0.0000000E+00;  9.9996299E+03;-0.10561427;0.0;0.021350618;159.16792
  4.1999248E-01;  9.9999998E-03; -2.4000110E-01;1683;-0.0099432226;0.0;-0.0014564134;1000.0858;  4.0000001E-01;71.109009;3;-9.2085533;0.0;-1.3768958;0;-0.084402293;  1.0002049E+04;  0.0000000E+00;  5.6050948E-07;  1.0000000E+04;  0.0000000E+00;  9.9996660E+03;-0.10339741;0.0;0.018995119;144.06094
  4.1999248E-01;  9.9999998E-03; -2.2000080E-01;1684;-0.0098763062;0.0;-0.0010566389;1000.086;  4.0000001E-01;71.207771;3;-8.9638405;0.0;-0.98396045;0;-0.084383786;  1.0002001E+04;  0.0000000E+00;  1.1099038E-07;  1.0000000E+04;  0.0000000E+00;  9.9997168E+03;-0.10057576;0.0;0.016191971;123.89571
  4.1999254E-01;  9.9999998E-03; -2.0000060E-01;1685;-0.0097188484;0.0;-0.00075848267;1000.0861;  4.0000001E-01;71.306534;3;-8.7170038;0.0;-0.68597519;0;-0.084320687;  1.0001953E+04;  0.0000000E+00;  1.5638210E-09;  1.0000000E+04;  0.0000000E+00;  9.9997725E+03;-0.097324595;0.0;0.013003906;100.48999
  4.3999112E-01;  9.9999998E-03; -3.0000365E-01;1711;-0.011503644;0.0;-0.0043829395;1000.1039;  4.0000001E-01;86.022118;3;-11.969514;0.0;-4.0575027;0;-0.097903661;  1.0002712E+04;  0.0000000E+00;  2.9611449E-06;  1.0000000E+04;  0.0000000E+00;  9.9993672E+03;-0.133255;0.0;0.035351343;270.89044
  4.3999064E-01;  9.9999998E-03; -2.8000271E-01;1712;-0.012027512;0.0;-0.0033534977;1000.1077;  4.0000001E-01;89.281281;3;-11.701529;0.0;-3.0543191;0;-0.10194792;  1.0002673E+04;  0.0000000E+00;  3.8729909E-06;  1.0000000E+04;  0.0000000E+00;  9.9994834E+03;-0.13138621;0.0;0.029438285;222.30345
  4.3999040E-01;  9.9999998E-03; -2.6000190E-01;1713;-0.012291024;0.0;-0.0024131089;1000.1088;  4.0000001E-01;90.071381;3;-11.355672;0.0;-2.2171896;0;-0.10366178;  1.0002622E+04;  0.0000000E+00;  2.3041775E-06;  1.0000000E+04;  0.0000000E+00;  9.9995537E+03;-0.12877227;0.0;0.025110498;193.49161
  4.3999037E-01;  9.9999998E-03; -2.4000134E-01;1714;-0.012327349;0.0;-0.0017241139;1000.1078;  4.0000001E-01;89.380043;3;-11.014279;0.0;-1.5833913;0;-0.10315766;  1.0002560E+04;  0.0000000E+00;  8.5323211E-07;  1.0000000E+04;  0.0000000E+00;  9.9995977E+03;-0.12536174;0.0;0.022204079;175.72989
  4.3999043E-01;  9.9999998E-03; -2.2000100E-01;1715;-0.012185539;0.0;-0.0012553496;1000.1072;  4.0000001E-01;88.88623;3;-10.680231;0.0;-1.1267081;0;-0.10238967;  1.0002488E+04;  0.0000000E+00;  1.9521428E-07;  1.0000000E+04;  0.0000000E+00;  9.9996563E+03;-0.12126872;0.0;0.01887905;151.60172
  4.3999058E-01;  9.9999998E-03; -2.0000076E-01;1716;-0.011932799;0.0;-0.00091743056;1000.1068;  4.0000001E-01;88.49118;3;-10.344902;0.0;-0.78415734;0;-0.10163054;  1.0002415E+04;  0.0000000E+00;  2.1863913E-08;  1.0000000E+04;  0.0000000E+00;  9.9997246E+03;-0.11676636;0.0;0.015135828;123.48123
  4.5998847E-01;  9.9999998E-03; -3.0000460E-01;1742;-0.014392785;0.0;-0.0053695845;1000.1321;  4.0000030E-01;109.42876;3;-14.436046;0.0;-4.8197579;0;-0.11971732;  1.0003415E+04;  0.0000000E+00;  3.0553247E-06;  1.0000000E+04;  0.0000000E+00;  9.9992129E+03;-0.16293581;0.0;0.043218486;339.30652
  4.5998794E-01;  9.9999998E-03; -2.8000334E-01;1743;-0.014995943;0.0;-0.0040486204;1000.1373;  4.0000033E-01;113.67554;3;-14.047652;0.0;-3.6037583;0;-0.1253415;  1.0003348E+04;  0.0000000E+00;  5.4529282E-06;  1.0000000E+04;  0.0000000E+00;  9.9993838E+03;-0.15976736;0.0;0.034425858;266.40234
  4.5998770E-01;  9.9999998E-03; -2.6000232E-01;1744;-0.015259855;0.0;-0.0028592646;1000.1375;  4.0000033E-01;113.97182;3;-13.578749;0.0;-2.5607202;0;-0.12703174;  1.0003267E+04;  0.0000000E+00;  3.5223579E-06;  1.0000000E+04;  0.0000000E+00;  9.9994717E+03;-0.15566161;0.0;0.028629869;230.89362
  4.5998770E-01;  9.9999998E-03; -2.4000165E-01;1745;-0.0152218;0.0;-0.0020400174;1000.1351;  4.0000027E-01;111.89782;3;-13.114737;0.0;-1.8028909;0;-0.12525494;  1.0003170E+04;  0.0000000E+00;  1.4281781E-06;  1.0000000E+04;  0.0000000E+00;  9.9995166E+03;-0.15063009;0.0;0.025375141;213.00948
  4.5998788E-01;  9.9999998E-03; -2.2000125E-01;1746;-0.014966713;0.0;-0.0015079997;1000.1331;  4.0000033E-01;110.31762;3;-12.661306;0.0;-1.2883556;0;-0.12322588;  1.0003065E+04;  0.0000000E+00;  4.0225947E-07;  1.0000000E+04;  0.0000000E+00;  9.9995840E+03;-0.14489138;0.0;0.021665508;185.65317
  4.5998812E-01;  9.9999998E-03; -2.0000100E-01;1747;-0.014578518;0.0;-0.0011492296;1000.1317;  4.0000033E-01;109.13247;3;-12.207985;0.0;-0.91532481;0;-0.12136527;  1.0002961E+04;  0.0000000E+00;  8.8874643E-08;  1.0000000E+04;  0.0000000E+00;  9.9996631E+03;-0.138842;0.0;0.017476728;152.79761
  4.7998500E-01;  9.9999998E-03; -3.0000582E-01;1773;-0.018010363;0.0;-0.0065702205;1000.167;  4.0000090E-01;138.36604;3;-17.375557;0.0;-5.7438164;0;-0.14532775;  1.0004250E+04;  0.0000000E+00;  2.8068332E-06;  1.0000000E+04;  0.0000000E+00;  9.9990469E+03;-0.19683114;0.0;0.051503398;412.10944
  4.7998443E-01;  9.9999998E-03; -2.8000414E-01;1774;-0.01866232;0.0;-0.0048540877;1000.1739;  4.0000087E-01;144.09425;3;-16.813173;0.0;-4.2350931;0;-0.15325212;  1.0004141E+04;  0.0000000E+00;  8.1935186E-06;  1.0000000E+04;  0.0000000E+00;  9.9992910E+03;-0.19187109;0.0;0.038618974;308.80862
  4.7998425E-01;  9.9999998E-03; -2.6000282E-01;1775;-0.018882222;0.0;-0.0033764476;1000.172;  4.0000096E-01;142.51405;3;-16.177069;0.0;-2.937511;0;-0.15425387;  1.0004013E+04;  0.0000000E+00;  5.8533979E-06;  1.0000000E+04;  0.0000000E+00;  9.9993857E+03;-0.18578938;0.0;0.031535503;272.83905
  4.7998440E-01;  9.9999998E-03; -2.4000208E-01;1776;-0.018713793;0.0;-0.0024401976;1000.1667;  4.0000087E-01;138.16852;3;-15.54275;0.0;-2.039659;0;-0.1502437;  1.0003871E+04;  0.0000000E+00;  2.6152927E-06;  1.0000000E+04;  0.0000000E+00;  9.9994170E+03;-0.17870319;0.0;0.028459482;260.25897
  4.7998470E-01;  9.9999998E-03; -2.2000164E-01;1777;-0.018295189;0.0;-0.001865724;1000.163;  4.0000090E-01;135.00812;3;-14.932207;0.0;-1.486352;0;-0.14630283;  1.0003726E+04;  0.0000000E+00;  8.7655417E-07;  1.0000000E+04;  0.0000000E+00;  9.9994883E+03;-0.17096598;0.0;0.024663148;230.85521
  4.7998509E-01;  9.9999998E-03; -2.0000137E-01;1778;-0.017726084;0.0;-0.0015060705;1000.1605;  4.0000084E-01;132.93411;3;-14.320847;0.0;-1.1129562;0;-0.14287743;  1.0003586E+04;  0.0000000E+00;  2.8059640E-07;  1.0000000E+04;  0.0000000E+00;  9.9995791E+03;-0.16311364;0.0;0.020236202;192.86185
  4.9998042E-01;  9.9999998E-03; -3.0000737E-01;1804;-0.02254946;0.0;-0.0080093462;1000.2085;  4.0000206E-01;172.73517;3;-20.878496;0.0;-6.8321505;0;-0.17423128;  1.0005176E+04;  0.0000000E+00;  2.7516087E-06;  1.0000000E+04;  0.0000000E+00;  9.9988896E+03;-0.23339574;0.0;0.059164461;482.35056
  4.9997994E-01;  9.9999998E-03; -2.8000510E-01;1805;-0.023174979;0.0;-0.0057841907;1000.2165;  4.0000215E-01;179.35223;3;-20.067663;0.0;-4.9510555;0;-0.1851784;  1.0005015E+04;  0.0000000E+00;  1.3982843E-05;  1.0000000E+04;  0.0000000E+00;  9.9992119E+03;-0.22619963;0.0;0.041021224;346.81409
  4.9997997E-01;  9.9999998E-03; -2.6000351E-01;1806;-0.023258124;0.0;-0.0039876872;1000.2108;  4.0000212E-01;174.61165;3;-19.186558;0.0;-3.3283615;0;-0.18421541;  1.0004833E+04;  0.0000000E+00;  1.0908189E-05;  1.0000000E+04;  0.0000000E+00;  9.9992793E+03;-0.21772787;0.0;0.033512458;325.78244
  4.9998033E-01;  9.9999998E-03; -2.4000271E-01;1807;-0.022885712;0.0;-0.003003218;1000.2012;  4.0000212E-01;166.71066;3;-18.326168;0.0;-2.3546164;0;-0.17658004;  1.0004643E+04;  0.0000000E+00;  5.2237297E-06;  1.0000000E+04;  0.0000000E+00;  9.9992793E+03;-0.20825289;0.0;0.031672843;327.62216
  4.9998081E-01;  9.9999998E-03; -2.2000225E-01;1808;-0.022239313;0.0;-0.0024192429;1000.1952;  4.0000209E-01;161.6738;3;-17.507318;0.0;-1.7682053;0;-0.17000285;  1.0004448E+04;  0.0000000E+00;  1.9202535E-06;  1.0000000E+04;  0.0000000E+00;  9.9993506E+03;-0.19828139;0.0;0.028278539;297.10529
  4.9998134E-01;  9.9999998E-03; -2.0000196E-01;1809;-0.021441283;0.0;-0.0020808778;1000.1913;  4.0000212E-01;158.5134;3;-16.695766;0.0;-1.4254407;0;-0.16458814;  1.0004267E+04;  0.0000000E+00;  7.3489957E-07;  1.0000000E+04;  0.0000000E+00;  9.9994541E+03;-0.18848175;0.0;0.023893613;251.90974
  5.1997441E-01;  9.9999998E-03; -3.0000934E-01;1835;-0.028250286;0.0;-0.0097369794;1000.2584;  4.0000585E-01;214.11626;3;-25.06292;0.0;-8.0980864;0;-0.20469569;  1.0006122E+04;  0.0000000E+00;  5.4502561E-06;  1.0000000E+04;  0.0000000E+00;  9.9987529E+03;-0.26943886;0.0;0.064743176;543.96527
  5.1997435E-01;  9.9999998E-03; -2.8000638E-01;1836;-0.028679043;0.0;-0.0069013773;1000.2669;  4.0000591E-01;221.12836;3;-23.881203;0.0;-5.7509656;0;-0.21879497;  1.0005903E+04;  0.0000000E+00;  2.7756454E-05;  1.0000000E+04;  0.0000000E+00;  9.9991387E+03;-0.25977004;0.0;0.04097506;386.55618
  5.1997471E-01;  9.9999998E-03; -2.6000449E-01;1837;-0.028481353;0.0;-0.0048097139;1000.2538;  4.0000591E-01;210.26453;3;-22.657806;0.0;-3.7815573;0;-0.21381912;  1.0005663E+04;  0.0000000E+00;  2.2778877E-05;  1.0000000E+04;  0.0000000E+00;  9.9991182E+03;-0.24873066;0.0;0.034911543;406.80783
  5.1997536E-01;  9.9999998E-03; -2.4000369E-01;1838;-0.027793296;0.0;-0.0038412574;1000.2384;  4.0000588E-01;197.52422;3;-21.494993;0.0;-2.7564964;0;-0.20102042;  1.0005418E+04;  0.0000000E+00;  1.1253336E-05;  1.0000000E+04;  0.0000000E+00;  9.9990586E+03;-0.23679169;0.0;0.035771273;435.33774
  5.1997608E-01;  9.9999998E-03; -2.2000322E-01;1839;-0.026838606;0.0;-0.0033112827;1000.2299;  4.0000591E-01;190.51212;3;-20.389877;0.0;-2.20276;0;-0.19116588;  1.0005175E+04;  0.0000000E+00;  4.1584890E-06;  1.0000000E+04;  0.0000000E+00;  9.9991289E+03;-0.22460471;0.0;0.033438828;402.73889
  5.1997679E-01;  9.9999998E-03; -2.0000288E-01;1840;-0.025767116;0.0;-0.0030091177;1000.2253;  4.0000594E-01;186.66039;3;-19.32865;0.0;-1.9447725;0;-0.18356742;  1.0004953E+04;  0.0000000E+00;  1.5603041E-06;  1.0000000E+04;  0.0000000E+00;  9.9992568E+03;-0.21293084;0.0;0.029363427;344.43582
  5.3996676E-01;  9.9999998E-03; -3.0001202E-01;1866;-0.035328858;0.0;-0.011840513;1000.3188;  4.0001556E-01;264.08939;3;-30.029217;0.0;-9.5186262;0;-0.2330091;  1.0006946E+04;  0.0000000E+00;  1.6635744E-05;  1.0000000E+04;  0.0000000E+00;  9.9986465E+03;-0.29976571;0.0;0.066756606;597.15735
  5.3996742E-01;  9.9999998E-03; -2.8000820E-01;1867;-0.035261102;0.0;-0.0083205765;1000.3246;  4.0001556E-01;268.92871;3;-28.289974;0.0;-6.6468678;0;-0.24966282;  1.0006679E+04;  0.0000000E+00;  6.1100109E-05;  1.0000000E+04;  0.0000000E+00;  9.9990342E+03;-0.28781718;0.0;0.03815436;446.26276
  5.3996849E-01;  9.9999998E-03; -2.6000607E-01;1868;-0.034559041;0.0;-0.0060183555;1000.3003;  4.0001556E-01;248.78128;3;-26.600256;0.0;-4.3523979;0;-0.23769897;  1.0006391E+04;  0.0000000E+00;  5.1676820E-05;  1.0000000E+04;  0.0000000E+00;  9.9988350E+03;-0.27449811;0.0;0.036799125;548.0694
  5.3996962E-01;  9.9999998E-03; -2.4000525E-01;1869;-0.033407241;0.0;-0.0051740403;1000.2778;  4.0001562E-01;230.11528;3;-25.016859;0.0;-3.3564367;0;-0.218136;  1.0006098E+04;  0.0000000E+00;  2.5647436E-05;  1.0000000E+04;  0.0000000E+00;  9.9986807E+03;-0.26048663;0.0;0.042350639;616.5202
  5.3997058E-01;  9.9999998E-03; -2.2000475E-01;1870;-0.032067969;0.0;-0.0047503114;1000.2676;  4.0001562E-01;221.72052;3;-23.55014;0.0;-2.9030485;0;-0.2047354;  1.0005814E+04;  0.0000000E+00;  8.8683537E-06;  1.0000000E+04;  0.0000000E+00;  9.9987617E+03;-0.24652331;0.0;0.041787911;576.82141
  5.3997147E-01;  9.9999998E-03; -2.0000425E-01;1871;-0.030691907;0.0;-0.0044512036;1000.2636;  4.0001559E-01;218.36261;3;-22.194138;0.0;-2.7769456;0;-0.19523431;  1.0005556E+04;  0.0000000E+00;  2.7373649E-06;  1.0000000E+04;  0.0000000E+00;  9.9989375E+03;-0.23338279;0.0;0.038148474;493.58359
  5.5995721E-01;  9.9999998E-03; -3.0001581E-01;1897;-0.043827984;0.0;-0.014484677;1000.404;  4.0004191E-01;334.70334;3;-35.751633;0.0;-11.0733;0;-0.2527495;  1.0007460E+04;  0.0000000E+00;  4.6508707E-05;  1.0000000E+04;  0.0000000E+00;  9.9985176E+03;-0.31708556;0.0;0.064336054;666.91168
  5.5995935E-01;  9.9999998E-03; -2.8001103E-01;1898;-0.042841896;0.0;-0.010293517;1000.4031;  4.0004191E-01;333.91327;3;-33.25285;0.0;-7.628068;0;-0.26980764;  1.0007162E+04;  0.0000000E+00;  1.3742781E-04;  1.0000000E+04;  0.0000000E+00;  9.9987988E+03;-0.30373025;0.0;0.03392262;571.8266
  5.5996144E-01;  9.9999998E-03; -2.6000860E-01;1899;-0.041344669;0.0;-0.0079197083;1000.3637;  4.0004188E-01;301.3219;3;-30.941843;0.0;-5.1209836;0;-0.247688;  1.0006849E+04;  0.0000000E+00;  1.1870415E-04;  1.0000000E+04;  0.0000000E+00;  9.9983271E+03;-0.28914127;0.0;0.04145328;797.01172
  5.5996305E-01;  9.9999998E-03; -2.4000765E-01;1900;-0.039568726;0.0;-0.0072999238;1000.3345;  4.0004194E-01;277.12527;3;-28.825777;0.0;-4.2428851;0;-0.22026955;  1.0006535E+04;  0.0000000E+00;  5.8758425E-05;  1.0000000E+04;  0.0000000E+00;  9.9980566E+03;-0.27413481;0.0;0.053865265;913.20044
  5.5996436E-01;  9.9999998E-03; -2.2000693E-01;1901;-0.037789859;0.0;-0.0069894572;1000.3246;  4.0004200E-01;268.92807;3;-26.902237;0.0;-4.0503893;0;-0.20378703;  1.0006231E+04;  0.0000000E+00;  1.8659677E-05;  1.0000000E+04;  0.0000000E+00;  9.9981650E+03;-0.25941679;0.0;0.055629756;857.18207
  5.5996543E-01;  9.9999998E-03; -2.0000616E-01;1902;-0.036102839;0.0;-0.0065975664;1000.3239;  4.0004188E-01;268.33551;3;-25.184448;0.0;-4.155303;0;-0.19333896;  1.0005954E+04;  0.0000000E+00;  3.7196990E-06;  1.0000000E+04;  0.0000000E+00;  9.9984258E+03;-0.24566004;0.0;0.05232108;730.81891
  5.7994622E-01;  9.9999998E-03; -3.0002147E-01;1928;-0.053435557;0.0;-0.017950747;1000.5609;  4.0011185E-01;464.67215;3;-41.994209;0.0;-12.650272;0;-0.25351459;  1.0007410E+04;  0.0000000E+00;  1.0917734E-04;  1.0000000E+04;  0.0000000E+00;  9.9982041E+03;-0.31229746;0.0;0.058782887;828.02118
  5.7995045E-01;  9.9999998E-03; -2.8001574E-01;1929;-0.051060952;0.0;-0.01325669;1000.5484;  4.0011182E-01;454.30222;3;-38.56496;0.0;-8.7573948;0;-0.26751989;  1.0007128E+04;  0.0000000E+00;  2.9358050E-04;  1.0000000E+04;  0.0000000E+00;  9.9982402E+03;-0.29920733;0.0;0.03168745;852.79022
  5.7995373E-01;  9.9999998E-03; -2.6001257E-01;1930;-0.048466448;0.0;-0.010983327;1000.4952;  4.0011185E-01;410.25464;3;-35.458378;0.0;-6.2226782;0;-0.2325889;  1.0006829E+04;  0.0000000E+00;  2.5723752E-04;  1.0000000E+04;  0.0000000E+00;  9.9974766E+03;-0.28517041;0.0;0.052581508;1205.1467
  5.7995594E-01;  9.9999998E-03; -2.4001098E-01;1931;-0.045953359;0.0;-0.010551848;1000.4611;  4.0011185E-01;382.00891;3;-32.602364;0.0;-5.8732514;0;-0.19807088;  1.0006533E+04;  0.0000000E+00;  1.2729954E-04;  1.0000000E+04;  0.0000000E+00;  9.9970938E+03;-0.27099779;0.0;0.072926916;1366.3622
  5.7995749E-01;  9.9999998E-03; -2.2000979E-01;1932;-0.043733474;0.0;-0.010228384;1000.4544;  4.0011182E-01;376.47827;3;-29.994228;0.0;-6.300931;0;-0.17988704;  1.0006248E+04;  0.0000000E+00;  3.7884409E-05;  1.0000000E+04;  0.0000000E+00;  9.9972451E+03;-0.25718832;0.0;0.077301279;1283.5988
  5.7995880E-01;  9.9999998E-03; -2.0000853E-01;1933;-0.041837595;0.0;-0.0094392877;1000.4608;  4.0011185E-01;381.71262;3;-28.044836;0.0;-6.3248124;0;-0.17007594;  1.0005979E+04;  0.0000000E+00;  3.6845686E-06;  1.0000000E+04;  0.0000000E+00;  9.9976416E+03;-0.24417169;0.0;0.074095756;1090.4244
  5.9993482E-01;  9.9999998E-03; -3.0003035E-01;1959;-0.063325383;0.0;-0.022682479;1000.9192;  4.0028945E-01;761.54535;3;-48.271961;0.0;-14.171727;0;-0.22081277;  1.0006546E+04;  0.0000000E+00;  2.1498815E-04;  1.0000000E+04;  0.0000000E+00;  9.9973574E+03;-0.27557799;0.0;0.054765228;1251.8992
  5.9994125E-01;  9.9999998E-03; -2.8002349E-01;1960;-0.059249815;0.0;-0.017966183;1000.8936;  4.0028948E-01;740.31171;3;-43.768005;0.0;-10.033596;0;-0.22489898;  1.0006330E+04;  0.0000000E+00;  5.5950426E-04;  1.0000000E+04;  0.0000000E+00;  9.9970625E+03;-0.26502597;0.0;0.040126998;1425.137
  5.9994560E-01;  9.9999998E-03; -2.6001850E-01;1961;-0.05542231;0.0;-0.015771614;1000.8374;  4.0028951E-01;693.79535;3;-39.622528;0.0;-8.2465019;0;-0.179829;  1.0006104E+04;  0.0000000E+00;  4.9534452E-04;  1.0000000E+04;  0.0000000E+00;  9.9961709E+03;-0.25391549;0.0;0.074086495;1824.1693
  5.9994847E-01;  9.9999998E-03; -2.4001551E-01;1962;-0.052266967;0.0;-0.015023629;1000.8032;  4.0028951E-01;665.35217;3;-35.59333;0.0;-8.690238;0;-0.14207742;  1.0005878E+04;  0.0000000E+00;  2.4697292E-04;  1.0000000E+04;  0.0000000E+00;  9.9957129E+03;-0.24288316;0.0;0.10080574;2012.9457
  5.9995037E-01;  9.9999998E-03; -2.2001323E-01;1963;-0.049878068;0.0;-0.014043608;1000.8035;  4.0028957E-01;665.6485;3;-32.970177;0.0;-8.8828974;0;-0.12393869;  1.0005656E+04;  0.0000000E+00;  7.1369534E-05;  1.0000000E+04;  0.0000000E+00;  9.9959434E+03;-0.23208387;0.0;0.10814518;1886.2739
  5.9995204E-01;  9.9999998E-03; -2.0001137E-01;1964;-0.04768686;0.0;-0.012852311;1000.8217;  4.0028954E-01;680.75891;3;-30.980904;0.0;-8.7343254;0;-0.11627861;  1.0005435E+04;  0.0000000E+00;  2.0110874E-06;  1.0000000E+04;  0.0000000E+00;  9.9965254E+03;-0.22159827;0.0;0.10531966;1599.9352
  6.1992455E-01;  9.9999998E-03; -3.0004439E-01;1990;-0.072318144;0.0;-0.029205406;1001.7393;  4.0069616E-01;1440.9127;3;-53.919312;0.0;-15.233932;0;-0.1367269;  1.0004692E+04;  0.0000000E+00;  3.5087863E-04;  1.0000000E+04;  0.0000000E+00;  9.9952881E+03;-0.1989121;0.0;0.062185198;2263.4973
  6.1993253E-01;  9.9999998E-03; -2.8003642E-01;1991;-0.066723451;0.0;-0.025251823;1001.7058;  4.0069613E-01;1413.1611;3;-48.166065;0.0;-11.70857;0;-0.12445448;  1.0004591E+04;  0.0000000E+00;  9.0333610E-04;  1.0000000E+04;  0.0000000E+00;  9.9947217E+03;-0.19325989;0.0;0.068805419;2545.3511
  6.1993754E-01;  9.9999998E-03; -2.6002824E-01;1992;-0.062063646;0.0;-0.022631111;1001.6702;  4.0069625E-01;1383.6318;3;-42.383984;0.0;-11.213151;0;-0.079987697;  1.0004489E+04;  0.0000000E+00;  8.0881920E-04;  1.0000000E+04;  0.0000000E+00;  9.9941182E+03;-0.18743747;0.0;0.10744978;2794.3259
  6.1994070E-01;  9.9999998E-03; -2.4002182E-01;1993;-0.05872022;0.0;-0.020560671;1001.6517;  4.0069628E-01;1368.324;3;-38.586815;0.0;-11.534474;0;-0.044034302;  1.0004383E+04;  0.0000000E+00;  4.1079245E-04;  1.0000000E+04;  0.0000000E+00;  9.9938574E+03;-0.18181697;0.0;0.13778266;2880.8674
  6.1994338E-01;  9.9999998E-03; -2.2001775E-01;1994;-0.055802729;0.0;-0.018816065;1001.6649;  4.0069628E-01;1379.2864;3;-35.826111;0.0;-11.775518;0;-0.026879147;  1.0004269E+04;  0.0000000E+00;  1.1989530E-04;  1.0000000E+04;  0.0000000E+00;  9.9942324E+03;-0.17615199;0.0;0.14927284;2677.1145
  6.1994553E-01;  9.9999998E-03; -2.0001481E-01;1995;-0.05328263;0.0;-0.016917299;1001.7;  4.0069631E-01;1408.3219;3;-33.76458;0.0;-11.513645;0;-0.023431093;  1.0004137E+04;  0.0000000E+00;  9.8653288E-08;  1.0000000E+04;  0.0000000E+00;  9.9950625E+03;-0.17010497;0.0;0.14667387;2265.7971
  6.3991719E-01;  9.9999998E-03; -3.0006543E-01;2021;-0.079269871;0.0;-0.038012479;1003.2556;  4.0144116E-01;2697.1216;3;-58.764999;0.0;-14.950346;0;0.014181249;  1.0001846E+04;  0.0000000E+00;  4.5892899E-04;  1.0000000E+04;  0.0000000E+00;  9.9912471E+03;-0.080056243;0.0;0.094237491;4221.4487
  6.3992602E-01;  9.9999998E-03; -2.8005731E-01;2022;-0.072847493;0.0;-0.03589274;1003.2174;  4.0144128E-01;2665.5186;3;-51.97477;0.0;-11.822416;0;0.051887386;  1.0001895E+04;  0.0000000E+00;  1.1976433E-03;  1.0000000E+04;  0.0000000E+00;  9.9904375E+03;-0.081098042;0.0;0.13298543;4583.6357
  6.3993120E-01;  9.9999998E-03; -2.6004541E-01;2023;-0.067616679;0.0;-0.033957668;1003.2381;  4.0144125E-01;2682.604;3;-45.708698;0.0;-13.305854;0;0.091673091;  1.0001944E+04;  0.0000000E+00;  1.0972797E-03;  1.0000000E+04;  0.0000000E+00;  9.9908018E+03;-0.082319319;0.0;0.17399241;4346.3462
  6.3993436E-01;  9.9999998E-03; -2.4003291E-01;2024;-0.064063668;0.0;-0.029381145;1003.2692;  4.0144131E-01;2708.3801;3;-41.339096;0.0;-14.627871;0;0.10705962;  1.0001990E+04;  0.0000000E+00;  5.7100493E-04;  1.0000000E+04;  0.0000000E+00;  9.9913809E+03;-0.083744489;0.0;0.19080411;4032.9053
  6.3993704E-01;  9.9999998E-03; -2.2002429E-01;2025;-0.061070468;0.0;-0.025174694;1003.3089;  4.0144128E-01;2741.2671;3;-38.401775;0.0;-15.116842;0;0.11539921;  1.0002013E+04;  0.0000000E+00;  1.7225943E-04;  1.0000000E+04;  0.0000000E+00;  9.9921504E+03;-0.084736362;0.0;0.20013557;3635.6704
  6.3993961E-01;  9.9999998E-03; -2.0001915E-01;2026;-0.058245327;0.0;-0.021909745;1003.3666;  4.0144116E-01;2789.0667;3;-36.198944;0.0;-14.824085;0;0.11235563;  1.0002005E+04;  0.0000000E+00;  1.0344097E-06;  1.0000000E+04;  0.0000000E+00;  9.9933057E+03;-0.084582478;0.0;0.19693811;3062.0415
  6.5991414E-01;  9.9999998E-03; -3.0009091E-01;2052;-0.083152674;0.0;-0.048029602;1005.1471;  4.0237731E-01;4264.0913;3;-62.070335;0.0;-13.350125;0;0.21279207;  9.9982598E+03;  0.0000000E+00;  4.5536394E-04;  1.0000000E+04;  0.0000000E+00;  9.9859287E+03;0.07333234;0.0;0.13945973;6799.748
  6.5992302E-01;  9.9999998E-03; -2.8008437E-01;2053;-0.076231867;0.0;-0.04944177;1005.0934;  4.0237740E-01;4219.5513;3;-55.077366;0.0;-10.138445;0;0.2964358;  9.9984580E+03;  0.0000000E+00;  1.2674471E-03;  1.0000000E+04;  0.0000000E+00;  9.9846563E+03;0.064976357;0.0;0.23145944;7321.9707
  6.5992796E-01;  9.9999998E-03; -2.6006925E-01;2054;-0.070295677;0.0;-0.050499439;1005.1926;  4.0237731E-01;4301.8169;3;-47.325668;0.0;-16.958183;0;0.33253631;  9.9986631E+03;  0.0000000E+00;  1.2006211E-03;  1.0000000E+04;  0.0000000E+00;  9.9864336E+03;0.056129545;0.0;0.27640676;6369.6001
  6.5993029E-01;  9.9999998E-03; -2.4004897E-01;2055;-0.067232095;0.0;-0.042880915;1005.3023;  4.0237719E-01;4392.6743;3;-42.451782;0.0;-19.842163;0;0.30834767;  9.9988555E+03;  0.0000000E+00;  6.4171694E-04;  1.0000000E+04;  0.0000000E+00;  9.9884268E+03;0.047294937;0.0;0.26105273;5395.0757
  6.5993273E-01;  9.9999998E-03; -2.2003406E-01;2056;-0.064517505;0.0;-0.034679323;1005.3806;  4.0237719E-01;4457.5586;3;-39.562237;0.0;-19.994059;0;0.29830319;  9.9990186E+03;  0.0000000E+00;  2.0351376E-04;  1.0000000E+04;  0.0000000E+00;  9.9898271E+03;0.039366797;0.0;0.25893638;4699.9697
  6.5993536E-01;  9.9999998E-03; -2.0002519E-01;2057;-0.06172999;0.0;-0.028686469;1005.465;  4.0237713E-01;4527.4795;3;-37.544559;0.0;-19.187788;0;0.2858775;  9.9991377E+03;  0.0000000E+00;  6.4631968E-06;  1.0000000E+04;  0.0000000E+00;  9.9913867E+03;0.033201762;0.0;0.25267574;3927.6406
  6.7991853E-01;  9.9999998E-03; -3.0011371E-01;2083;-0.080924898;0.0;-0.057513647;1006.6008;  4.0312389E-01;5468.3677;3;-62.748192;0.0;-12.689333;0;0.41355467;  9.9944531E+03;  0.0000000E+00;  3.7449368E-04;  1.0000000E+04;  0.0000000E+00;  9.9815576E+03;0.24128449;0.0;0.17227019;8921.416
  6.7992485E-01;  9.9999998E-03; -2.8010914E-01;2084;-0.075471476;0.0;-0.062275186;1006.5156;  4.0312400E-01;5397.7563;3;-55.739025;0.0;-9.1318941;0;0.54299021;  9.9947646E+03;  0.0000000E+00;  1.0456902E-03;  1.0000000E+04;  0.0000000E+00;  9.9795566E+03;0.22688571;0.0;0.31610447;9740.0723
  6.7992884E-01;  9.9999998E-03; -2.6009223E-01;2085;-0.069787301;0.0;-0.067258373;1006.6696;  4.0312368E-01;5525.3501;3;-46.668888;0.0;-19.886459;0;0.59017718;  9.9950889E+03;  0.0000000E+00;  1.0298785E-03;  1.0000000E+04;  0.0000000E+00;  9.9823057E+03;0.21164499;0.0;0.3785322;8272.7969
  6.7992997E-01;  9.9999998E-03; -2.4006543E-01;2086;-0.067870647;0.0;-0.05830713;1006.8474;  4.0312341E-01;5672.5967;3;-42.438702;0.0;-27.921364;0;0.53107458;  9.9953916E+03;  0.0000000E+00;  5.6888786E-04;  1.0000000E+04;  0.0000000E+00;  9.9855449E+03;0.19673811;0.0;0.33433646;6715.0498
  6.7993182E-01;  9.9999998E-03; -2.2004442E-01;2087;-0.065890104;0.0;-0.045978509;1006.9623;  4.0312332E-01;5767.7983;3;-40.377926;0.0;-27.518545;0;0.50110251;  9.9956631E+03;  0.0000000E+00;  1.9113625E-04;  1.0000000E+04;  0.0000000E+00;  9.9875596E+03;0.18307157;0.0;0.31803095;5733.4976
  6.7993426E-01;  9.9999998E-03; -2.0003177E-01;2088;-0.063289292;0.0;-0.036864717;1007.0718;  4.0312323E-01;5858.4575;3;-38.594658;0.0;-25.526382;0;0.47939694;  9.9958896E+03;  0.0000000E+00;  1.2553830E-05;  1.0000000E+04;  0.0000000E+00;  9.9895137E+03;0.17136891;0.0;0.30802801;4770.897
  6.9993365E-01;  9.9999998E-03; -3.0012935E-01;2114;-0.067240871;0.0;-0.065056272;1007.3412;  4.0353212E-01;6081.5249;3;-54.102253;0.0;-13.688773;0;0.57213277;  9.9911299E+03;  0.0000000E+00;  3.3815505E-04;  1.0000000E+04;  0.0000000E+00;  9.9793408E+03;0.39371625;0.0;0.17841652;10003.121
  6.9993430E-01;  9.9999998E-03; -2.8012598E-01;2115;-0.067498438;0.0;-0.071804933;1007.2153;  4.0353203E-01;5977.2397;3;-51.101112;0.0;-9.7798138;0;0.73581827;  9.9914775E+03;  0.0000000E+00;  7.1564806E-04;  1.0000000E+04;  0.0000000E+00;  9.9765000E+03;0.37671369;0.0;0.35910454;11192.584
  6.9993615E-01;  9.9999998E-03; -2.6010862E-01;2116;-0.064217508;0.0;-0.080197804;1007.3779;  4.0353170E-01;6112.0405;3;-43.712658;0.0;-23.581184;0;0.80646169;  9.9918486E+03;  0.0000000E+00;  7.0157775E-04;  1.0000000E+04;  0.0000000E+00;  9.9793779E+03;0.35832334;0.0;0.44813839;9624.0801
  6.9993651E-01;  9.9999998E-03; -2.4007805E-01;2117;-0.063699268;0.0;-0.071212031;1007.5889;  4.0353155E-01;6286.7378;3;-41.276646;0.0;-36.217392;0;0.73273695;  9.9922031E+03;  0.0000000E+00;  3.9783205E-04;  1.0000000E+04;  0.0000000E+00;  9.9832197E+03;0.34020892;0.0;0.39252803;7779.1309
  6.9993764E-01;  9.9999998E-03; -2.2005309E-01;2118;-0.062570438;0.0;-0.056123201;1007.7258;  4.0353125E-01;6400.1084;3;-40.211082;0.0;-35.260391;0;0.69160396;  9.9925322E+03;  0.0000000E+00;  1.4019680E-04;  1.0000000E+04;  0.0000000E+00;  9.9856152E+03;0.32312968;0.0;0.36847427;6617.8369
  6.9993967E-01;  9.9999998E-03; -2.0003779E-01;2119;-0.060332835;0.0;-0.044727281;1007.8544;  4.0353104E-01;6506.7637;3;-38.660168;0.0;-32.26524;0;0.66419256;  9.9928311E+03;  0.0000000E+00;  1.4090018E-05;  1.0000000E+04;  0.0000000E+00;  9.9878750E+03;0.30756375;0.0;0.35662884;5505.7192
  7.1995324E-01;  9.9999998E-03; -3.0013865E-01;2145;-0.047420315;0.0;-0.069871373;1007.6432;  4.0371037E-01;6331.5967;3;-38.143166;0.0;-15.206753;0;0.65788215;  9.9888965E+03;  0.0000000E+00;  2.3215986E-04;  1.0000000E+04;  0.0000000E+00;  9.9787354E+03;0.50112653;0.0;0.15675561;10323.695
  7.1995217E-01;  9.9999998E-03; -2.8013477E-01;2146;-0.049246497;0.0;-0.076637551;1007.4896;  4.0371048E-01;6204.3052;3;-37.110283;0.0;-10.496666;0;0.83736098;  9.9892139E+03;  0.0000000E+00;  4.5673602E-04;  1.0000000E+04;  0.0000000E+00;  9.9753740E+03;0.48534715;0.0;0.3520138;11754.474
  7.1995187E-01;  9.9999998E-03; -2.6011723E-01;2147;-0.04990999;0.0;-0.087132484;1007.629;  4.0371010E-01;6319.8452;3;-35.633469;0.0;-26.536512;0;0.94150913;  9.9895576E+03;  0.0000000E+00;  4.0702507E-04;  1.0000000E+04;  0.0000000E+00;  9.9778174E+03;0.46775904;0.0;0.47375011;10354.744
  7.1995223E-01;  9.9999998E-03; -2.4008502E-01;2148;-0.049893606;0.0;-0.078607149;1007.84;  4.0370971E-01;6494.5376;3;-35.039734;0.0;-41.939785;0;0.8750695;  9.9899053E+03;  0.0000000E+00;  2.2792431E-04;  1.0000000E+04;  0.0000000E+00;  9.9816631E+03;0.44970787;0.0;0.42536163;8497.4736
  7.1995342E-01;  9.9999998E-03; -2.2005840E-01;2149;-0.048622843;0.0;-0.062493116;1007.9828;  4.0370953E-01;6612.9414;3;-33.702423;0.0;-40.505211;0;0.83590078;  9.9902432E+03;  0.0000000E+00;  8.0940546E-05;  1.0000000E+04;  0.0000000E+00;  9.9841631E+03;0.43175793;0.0;0.40414289;7280.6797
  7.1995515E-01;  9.9999998E-03; -2.0004189E-01;2150;-0.046607826;0.0;-0.050103839;1008.1219;  4.0370935E-01;6728.1855;3;-32.089447;0.0;-36.976894;0;0.80814695;  9.9905723E+03;  0.0000000E+00;  1.0539928E-05;  1.0000000E+04;  0.0000000E+00;  9.9866035E+03;0.41428539;0.0;0.39386156;6075.7681
  7.3997104E-01;  9.9999998E-03; -3.0014396E-01;2176;-0.029391889;0.0;-0.072826773;1007.7763;  4.0378052E-01;6441.5659;3;-23.580458;0.0;-16.511017;0;0.67998475;  9.9880098E+03;  0.0000000E+00;  7.3685398E-05;  1.0000000E+04;  0.0000000E+00;  9.9787939E+03;0.54914963;0.0;0.13083513;10322.252
  7.3997015E-01;  9.9999998E-03; -2.8013921E-01;2177;-0.030764522;0.0;-0.078990325;1007.6024;  4.0378061E-01;6297.5903;3;-23.09334;0.0;-10.8873;0;0.86676288;  9.9882568E+03;  0.0000000E+00;  2.1262075E-04;  1.0000000E+04;  0.0000000E+00;  9.9751074E+03;0.53675264;0.0;0.33001021;11911.323
  7.3996979E-01;  9.9999998E-03; -2.6012096E-01;2178;-0.031522993;0.0;-0.089472674;1007.718;  4.0378037E-01;6393.2778;3;-22.56954;0.0;-26.577898;0;0.99328816;  9.9885313E+03;  0.0000000E+00;  1.8633055E-04;  1.0000000E+04;  0.0000000E+00;  9.9771318E+03;0.52248722;0.0;0.47080097;10694.03
  7.3996997E-01;  9.9999998E-03; -2.4008819E-01;2179;-0.031657919;0.0;-0.081320316;1007.9143;  4.0377998E-01;6555.9165;3;-22.45961;0.0;-42.989403;0;0.94518036;  9.9888320E+03;  0.0000000E+00;  9.9978533E-05;  1.0000000E+04;  0.0000000E+00;  9.9807344E+03;0.50678366;0.0;0.43839669;8935.1045
  7.3997080E-01;  9.9999998E-03; -2.2006117E-01;2180;-0.03085332;0.0;-0.065429255;1008.054;  4.0377972E-01;6671.6499;3;-21.688013;0.0;-42.224358;0;0.91554379;  9.9891484E+03;  0.0000000E+00;  3.4523520E-05;  1.0000000E+04;  0.0000000E+00;  9.9831973E+03;0.4899089;0.0;0.42563486;7724.5034
  7.3997194E-01;  9.9999998E-03; -2.0004430E-01;2181;-0.029519465;0.0;-0.052995708;1008.1979;  4.0377951E-01;6790.8394;3;-20.672058;0.0;-39.02549;0;0.89099777;  9.9894766E+03;  0.0000000E+00;  5.4509846E-06;  1.0000000E+04;  0.0000000E+00;  9.9857295E+03;0.47226703;0.0;0.41873074;6468.6245
  7.5998503E-01;  9.9999998E-03; -3.0014688E-01;2207;-0.015276073;0.0;-0.074737199;1007.8646;  4.0380701E-01;6514.4136;3;-12.250525;0.0;-17.842194;0;0.65797579;  9.9882656E+03;  0.0000000E+00; -2.0729423E-05;  1.0000000E+04;  0.0000000E+00;  9.9789834E+03;0.54401392;0.0;0.11396185;10244.167
  7.5998443E-01;  9.9999998E-03; -2.8014135E-01;2208;-0.01616919;0.0;-0.08019948;1007.6784;  4.0380710E-01;6360.1763;3;-12.163424;0.0;-11.302547;0;0.84698904;  9.9884385E+03;  0.0000000E+00;  5.1168801E-05;  1.0000000E+04;  0.0000000E+00;  9.9751221E+03;0.53546792;0.0;0.31152114;11923.337
  7.5998414E-01;  9.9999998E-03; -2.6012257E-01;2209;-0.016736159;0.0;-0.090333283;1007.7747;  4.0380684E-01;6439.9609;3;-12.090086;0.0;-26.346508;0;0.988379;  9.9886436E+03;  0.0000000E+00;  5.1638413E-05;  1.0000000E+04;  0.0000000E+00;  9.9768418E+03;0.52510571;0.0;0.46327332;10843.97
  7.5998414E-01;  9.9999998E-03; -2.4008968E-01;2210;-0.016938688;0.0;-0.08244808;1007.957;  4.0380654E-01;6590.9399;3;-12.193583;0.0;-43.205303;0;0.9556793;  9.9888818E+03;  0.0000000E+00;  2.7289710E-05;  1.0000000E+04;  0.0000000E+00;  9.9802217E+03;0.51257956;0.0;0.44309977;9178.2373
  7.5998455E-01;  9.9999998E-03; -2.2006264E-01;2211;-0.016584488;0.0;-0.066919275;1008.0923;  4.0380636E-01;6703.1128;3;-11.908575;0.0;-42.93475;0;0.93490463;  9.9891621E+03;  0.0000000E+00;  9.2075607E-06;  1.0000000E+04;  0.0000000E+00;  9.9826309E+03;0.49782547;0.0;0.43707916;7985.0103
  7.5998521E-01;  9.9999998E-03; -2.0004573E-01;2212;-0.015890876;0.0;-0.054653451;1008.2374;  4.0380609E-01;6823.1851;3;-11.439183;0.0;-40.100323;0;0.91420007;  9.9894668E+03;  0.0000000E+00;  1.9287058E-06;  1.0000000E+04;  0.0000000E+00;  9.9852090E+03;0.48124564;0.0;0.43295446;6702.8096
  7.7999538E-01;  9.9999998E-03; -3.0014831E-01;2238;-0.0048280964;0.0;-0.075898208;1007.9415;  4.0381667E-01;6577.6611;3;-3.9790742;0.0;-18.922997;0;0.61329401;  9.9892061E+03;  0.0000000E+00; -3.0522289E-05;  1.0000000E+04;  0.0000000E+00;  9.9790928E+03;0.50559741;0.0;0.10769662;10190.894
  7.7999508E-01;  9.9999998E-03; -2.8014228E-01;2239;-0.0052677221;0.0;-0.080834754;1007.7496;  4.0381688E-01;6418.6943;3;-4.0860434;0.0;-11.731505;0;0.80249757;  9.9893154E+03;  0.0000000E+00; -6.2817412E-06;  1.0000000E+04;  0.0000000E+00;  9.9751807E+03;0.50037283;0.0;0.30212474;11899.337
  7.7999490E-01;  9.9999998E-03; -2.6012310E-01;2240;-0.0055925502;0.0;-0.090569831;1007.8356;  4.0381655E-01;6489.9824;3;-4.2037754;0.0;-26.247198;0;0.95089352;  9.9894580E+03;  0.0000000E+00;  1.2111240E-06;  1.0000000E+04;  0.0000000E+00;  9.9767520E+03;0.49333414;0.0;0.45755938;10889.685
  7.7999485E-01;  9.9999998E-03; -2.4009018E-01;2241;-0.0058124387;0.0;-0.082717352;1008.0087;  4.0381622E-01;6633.3486;3;-4.4257531;0.0;-43.033123;0;0.92741609;  9.9896494E+03;  0.0000000E+00;  1.2839467E-06;  1.0000000E+04;  0.0000000E+00;  9.9800020E+03;0.48372141;0.0;0.44369465;9280.3008
  7.7999490E-01;  9.9999998E-03; -2.2006324E-01;2242;-0.005788133;0.0;-0.067463949;1008.1401;  4.0381598E-01;6742.1567;3;-4.4576082;0.0;-43.077759;0;0.91271234;  9.9898857E+03;  0.0000000E+00;  5.6134957E-07;  1.0000000E+04;  0.0000000E+00;  9.9823760E+03;0.47125599;0.0;0.44145635;8100.8159
  7.7999508E-01;  9.9999998E-03; -2.0004639E-01;2243;-0.0055995197;0.0;-0.055380147;1008.2847;  4.0381578E-01;6861.9248;3;-4.3827715;0.0;-40.495388;0;0.89526892;  9.9901631E+03;  0.0000000E+00;  3.9420269E-07;  1.0000000E+04;  0.0000000E+00;  9.9849727E+03;0.45630682;0.0;0.4389621;6808.4185
  8.0000359E-01;  9.9999998E-03; -3.0014870E-01;2269;0.003412748;0.0;-0.076454744;1008.0046;  4.0381914E-01;6629.3892;3;2.5076425;0.0;-19.575577;0;0.56653392;  9.9903486E+03;  0.0000000E+00; -7.9990568E-06;  1.0000000E+04;  0.0000000E+00;  9.9790791E+03;0.45566031;0.0;0.11087359;10182.746
  8.0000353E-01;  9.9999998E-03; -2.8014243E-01;2270;0.003378344;0.0;-0.081153125;1007.8126;  4.0381935E-01;6470.3384;3;2.3069942;0.0;-12.146557;0;0.75506532;  9.9904160E+03;  0.0000000E+00; -4.6373307E-06;  1.0000000E+04;  0.0000000E+00;  9.9752080E+03;0.45270962;0.0;0.30235568;11873.783
  8.0000341E-01;  9.9999998E-03; -2.6012298E-01;2271;0.0032799528;0.0;-0.09052705;1007.8966;  4.0381905E-01;6539.9419;3;2.0982597;0.0;-26.413282;0;0.90332997;  9.9905186E+03;  0.0000000E+00; -1.3620177E-06;  1.0000000E+04;  0.0000000E+00;  9.9767764E+03;0.44790158;0.0;0.45542842;10868.99
  8.0000329E-01;  9.9999998E-03; -2.4009004E-01;2272;0.0030916729;0.0;-0.082511164;1008.0662;  4.0381873E-01;6680.333;3;1.8282962;0.0;-42.803761;0;0.8827123;  9.9906719E+03;  0.0000000E+00; -2.0368383E-09;  1.0000000E+04;  0.0000000E+00;  9.9799951E+03;0.44039351;0.0;0.4423188;9276.9893
  8.0000311E-01;  9.9999998E-03; -2.2006319E-01;2273;0.0028749732;0.0;-0.06735675;1008.1952;  4.0381855E-01;6787.1567;3;1.5847319;0.0;-42.887356;0;0.87083721;  9.9908760E+03;  0.0000000E+00;  1.1400966E-07;  1.0000000E+04;  0.0000000E+00;  9.9823545E+03;0.42982221;0.0;0.44101498;8104.5425
  8.0000299E-01;  9.9999998E-03; -2.0004643E-01;2274;0.0026670434;0.0;-0.055396624;1008.3383;  4.0381828E-01;6905.6304;3;1.3707502;0.0;-40.409531;0;0.85549903;  9.9911230E+03;  0.0000000E+00; -1.3225719E-08;  1.0000000E+04;  0.0000000E+00;  9.9849502E+03;0.41650647;0.0;0.43899256;6813.4541
  8.2001102E-01;  9.9999998E-03; -3.0014822E-01;2300;0.011000348;0.0;-0.076394729;1008.0412;  4.0381506E-01;6658.7832;3;8.5879993;0.0;-19.633154;0;0.52887911;  9.9913887E+03;  0.0000000E+00;  8.9675796E-06;  1.0000000E+04;  0.0000000E+00;  9.9789648E+03;0.40865424;0.0;0.12022484;10211.104
  8.2001120E-01;  9.9999998E-03; -2.8014195E-01;2301;0.011313261;0.0;-0.081111751;1007.8533;  4.0381521E-01;6503.3057;3;8.2406063;0.0;-12.429614;0;0.71604079;  9.9914365E+03;  0.0000000E+00;  1.8046248E-05;  1.0000000E+04;  0.0000000E+00;  9.9751973E+03;0.40679055;0.0;0.30925024;11850.241
  8.2001120E-01;  9.9999998E-03; -2.6012242E-01;2302;0.011378691;0.0;-0.090244189;1007.9422;  4.0381488E-01;6576.8491;3;7.8750434;0.0;-26.618172;0;0.85931492;  9.9915205E+03;  0.0000000E+00;  1.6799640E-05;  1.0000000E+04;  0.0000000E+00;  9.9768867E+03;0.40306425;0.0;0.45625067;10796.576
  8.2001102E-01;  9.9999998E-03; -2.4008943E-01;2303;0.011251921;0.0;-0.081950039;1008.1136;  4.0381464E-01;6718.8027;3;7.6122522;0.0;-42.543587;0;0.83624828;  9.9916523E+03;  0.0000000E+00;  9.4352836E-06;  1.0000000E+04;  0.0000000E+00;  9.9801592E+03;0.39672476;0.0;0.43952355;9186.8428
  8.2001066E-01;  9.9999998E-03; -2.2006266E-01;2304;0.010831795;0.0;-0.066733368;1008.2419;  4.0381435E-01;6825.021;3;7.1841187;0.0;-42.45002;0;0.82427955;  9.9918340E+03;  0.0000000E+00;  3.0750396E-06;  1.0000000E+04;  0.0000000E+00;  9.9825205E+03;0.38740507;0.0;0.43687445;8015.6221
  8.2001019E-01;  9.9999998E-03; -2.0004600E-01;2305;0.010283006;0.0;-0.054829329;1008.3828;  4.0381414E-01;6941.7031;3;6.7212553;0.0;-39.947174;0;0.80979502;  9.9920605E+03;  0.0000000E+00;  1.0583980E-07;  1.0000000E+04;  0.0000000E+00;  9.9851006E+03;0.37537012;0.0;0.43442488;6735.6914
  8.4001863E-01;  9.9999998E-03; -3.0014586E-01;2331;0.018781122;0.0;-0.075408638;1007.9408;  4.0375340E-01;6574.5771;3;14.963135;0.0;-19.437269;0;0.49577117;  9.9922578E+03;  0.0000000E+00;  2.2971277E-05;  1.0000000E+04;  0.0000000E+00;  9.9791572E+03;0.36861303;0.0;0.12715814;10084.462
  8.4001899E-01;  9.9999998E-03; -2.8013965E-01;2332;0.019377517;0.0;-0.080073602;1007.759;  4.0375349E-01;6424.0605;3;14.366517;0.0;-12.589841;0;0.67871279;  9.9923047E+03;  0.0000000E+00;  5.4793330E-05;  1.0000000E+04;  0.0000000E+00;  9.9755117E+03;0.36682016;0.0;0.31189263;11664.66
  8.4001905E-01;  9.9999998E-03; -2.6012027E-01;2333;0.019534707;0.0;-0.088867269;1007.8507;  4.0375325E-01;6500.0591;3;13.637922;0.0;-26.60548;0;0.81553173;  9.9923848E+03;  0.0000000E+00;  4.9429502E-05;  1.0000000E+04;  0.0000000E+00;  9.9772598E+03;0.36322337;0.0;0.45230839;10592.164
  8.4001875E-01;  9.9999998E-03; -2.4008775E-01;2334;0.019470725;0.0;-0.08045911;1008.0215;  4.0375286E-01;6641.4956;3;13.482075;0.0;-41.879166;0;0.7901209;  9.9925088E+03;  0.0000000E+00;  2.6720183E-05;  1.0000000E+04;  0.0000000E+00;  9.9805273E+03;0.35721195;0.0;0.43290895;8993.0352
  8.4001821E-01;  9.9999998E-03; -2.2006138E-01;2335;0.01884431;0.0;-0.065382227;1008.1481;  4.0375268E-01;6746.2158;3;12.845245;0.0;-41.621902;0;0.77731359;  9.9926807E+03;  0.0000000E+00;  8.7099233E-06;  1.0000000E+04;  0.0000000E+00;  9.9828721E+03;0.3484495;0.0;0.42886409;7837.5962
  8.4001750E-01;  9.9999998E-03; -2.0004502E-01;2336;0.017968226;0.0;-0.053658344;1008.2864;  4.0375248E-01;6860.7075;3;12.127173;0.0;-39.097862;0;0.76288104;  9.9928906E+03;  0.0000000E+00;  7.1728482E-07;  1.0000000E+04;  0.0000000E+00;  9.9854092E+03;0.33716965;0.0;0.42571136;6582.1221
  8.6002630E-01;  9.9999998E-03; -3.0014160E-01;2362;0.026714975;0.0;-0.073439315;1007.7048;  4.0363196E-01;6377.728;3;21.540466;0.0;-18.988527;0;0.46179074;  9.9930508E+03;  0.0000000E+00;  4.8516460E-05;  1.0000000E+04;  0.0000000E+00;  9.9796953E+03;0.33184758;0.0;0.12994318;9785.1709
  8.6002684E-01;  9.9999998E-03; -2.8013548E-01;2363;0.027530765;0.0;-0.0779365;1007.5306;  4.0363210E-01;6233.5601;3;20.686211;0.0;-12.63642;0;0.63745511;  9.9931055E+03;  0.0000000E+00;  1.1086778E-04;  1.0000000E+04;  0.0000000E+00;  9.9761865E+03;0.3294194;0.0;0.30803573;11299.181
  8.6002690E-01;  9.9999998E-03; -2.6011652E-01;2364;0.027701864;0.0;-0.086229578;1007.6221;  4.0363181E-01;6309.3447;3;19.261997;0.0;-26.019117;0;0.76717567;  9.9931924E+03;  0.0000000E+00;  9.8526420E-05;  1.0000000E+04;  0.0000000E+00;  9.9779258E+03;0.32525048;0.0;0.4419252;10245.996
  8.6002660E-01;  9.9999998E-03; -2.4008492E-01;2365;0.02773389;0.0;-0.077951871;1007.789;  4.0363157E-01;6447.4932;3;19.414883;0.0;-40.711483;0;0.74052262;  9.9933232E+03;  0.0000000E+00;  5.2989959E-05;  1.0000000E+04;  0.0000000E+00;  9.9811143E+03;0.31886297;0.0;0.42165965;8693.166
  8.6002582E-01;  9.9999998E-03; -2.2005937E-01;2366;0.026886683;0.0;-0.063270099;1007.9126;  4.0363133E-01;6549.8218;3;18.536655;0.0;-40.351749;0;0.7266646;  9.9934951E+03;  0.0000000E+00;  1.7496086E-05;  1.0000000E+04;  0.0000000E+00;  9.9834004E+03;0.30998114;0.0;0.41668347;7571.2856
  8.6002481E-01;  9.9999998E-03; -2.0004351E-01;2367;0.025683345;0.0;-0.051890019;1008.0472;  4.0363115E-01;6661.229;3;17.545752;0.0;-37.849327;0;0.71169245;  9.9937012E+03;  0.0000000E+00;  1.9043093E-06;  1.0000000E+04;  0.0000000E+00;  9.9858672E+03;0.2988621;0.0;0.41283038;6354.6362
  8.8003361E-01;  9.9999998E-03; -3.0013558E-01;2393;0.034338165;0.0;-0.070616737;1007.355;  4.0345776E-01;6086.376;3;27.921818;0.0;-18.366961;0;0.4225353;  9.9938887E+03;  0.0000000E+00;  8.8674278E-05;  1.0000000E+04;  0.0000000E+00;  9.9805420E+03;0.29268828;0.0;0.12984702;9330.0342
  8.8003427E-01;  9.9999998E-03; -2.8012952E-01;2394;0.035247955;0.0;-0.074774794;1007.1903;  4.0345791E-01;5950.1431;3;26.714437;0.0;-12.519464;0;0.58749163;  9.9939600E+03;  0.0000000E+00;  1.8452093E-04;  1.0000000E+04;  0.0000000E+00;  9.9772070E+03;0.28914019;0.0;0.29835144;10764.115
  8.8003439E-01;  9.9999998E-03; -2.6011124E-01;2395;0.035406131;0.0;-0.082419291;1007.2791;  4.0345764E-01;6023.5371;3;24.593218;0.0;-25.069258;0;0.70864159;  9.9940703E+03;  0.0000000E+00;  1.6149844E-04;  1.0000000E+04;  0.0000000E+00;  9.9788721E+03;0.28383946;0.0;0.42480212;9763.0439
  8.8003397E-01;  9.9999998E-03; -2.4008103E-01;2396;0.035548799;0.0;-0.07445731;1007.4393;  4.0345740E-01;6156.2188;3;25.052576;0.0;-39.029804;0;0.68196976;  9.9942158E+03;  0.0000000E+00;  8.6519001E-05;  1.0000000E+04;  0.0000000E+00;  9.9819092E+03;0.27643117;0.0;0.40553862;8289.7783
  8.8003302E-01;  9.9999998E-03; -2.2005662E-01;2397;0.03447653;0.0;-0.06041475;1007.559;  4.0345719E-01;6255.1621;3;23.920351;0.0;-38.626129;0;0.66693228;  9.9944014E+03;  0.0000000E+00;  2.8759454E-05;  1.0000000E+04;  0.0000000E+00;  9.9840996E+03;0.26675543;0.0;0.40017685;7218.9248
  8.8003176E-01;  9.9999998E-03; -2.0004152E-01;2398;0.032956071;0.0;-0.049546167;1007.6892;  4.0345696E-01;6362.9844;3;22.654037;0.0;-36.200195;0;0.65094334;  9.9946191E+03;  0.0000000E+00;  3.3922267E-06;  1.0000000E+04;  0.0000000E+00;  9.9864775E+03;0.25519681;0.0;0.39574653;6055.4717
  9.0004003E-01;  9.9999998E-03; -3.0012807E-01;2424;0.041069523;0.0;-0.067169413;1006.9144;  4.0324029E-01;5719.4512;3;33.725101;0.0;-17.984716;0;0.37655914;  9.9948311E+03;  0.0000000E+00;  1.3461109E-04;  1.0000000E+04;  0.0000000E+00;  9.9816367E+03;0.24862054;0.0;0.1279386;8746.1563
  9.0004069E-01;  9.9999998E-03; -2.8012207E-01;2425;0.041935861;0.0;-0.07076522;1006.7621;  4.0324038E-01;5593.4302;3;32.012043;0.0;-12.304196;0;0.52765346;  9.9949346E+03;  0.0000000E+00;  2.6367666E-04;  1.0000000E+04;  0.0000000E+00;  9.9785127E+03;0.24349713;0.0;0.28415635;10083.795
  9.0004075E-01;  9.9999998E-03; -2.6010460E-01;2426;0.041935947;0.0;-0.077542074;1006.8467;  4.0324020E-01;5663.5405;3;28.9555;0.0;-23.69018;0;0.63803905;  9.9950732E+03;  0.0000000E+00;  2.2778391E-04;  1.0000000E+04;  0.0000000E+00;  9.9800664E+03;0.23650046;0.0;0.40153861;9157.7275
  9.0004039E-01;  9.9999998E-03; -2.4007617E-01;2427;0.042314306;0.0;-0.070081756;1006.9979;  4.0323988E-01;5788.4766;3;29.965805;0.0;-36.877731;0;0.61225796;  9.9952490E+03;  0.0000000E+00;  1.2085196E-04;  1.0000000E+04;  0.0000000E+00;  9.9828936E+03;0.22740537;0.0;0.38485259;7792.0586
  9.0003926E-01;  9.9999998E-03; -2.2005326E-01;2428;0.041031759;0.0;-0.056885477;1007.1127;  4.0323976E-01;5883.4355;3;28.596102;0.0;-36.473473;0;0.59584498;  9.9954648E+03;  0.0000000E+00;  3.9904295E-05;  1.0000000E+04;  0.0000000E+00;  9.9849639E+03;0.21627511;0.0;0.37956986;6787.6333
  9.0003777E-01;  9.9999998E-03; -2.0003907E-01;2429;0.03922525;0.0;-0.046680488;1007.2381;  4.0323964E-01;5987.27;3;27.077457;0.0;-34.176899;0;0.57847524;  9.9957021E+03;  0.0000000E+00;  4.5759480E-06;  1.0000000E+04;  0.0000000E+00;  9.9872207E+03;0.20376009;0.0;0.37471515;5690.6382
  9.2004502E-01;  9.9999998E-03; -3.0011943E-01;2455;0.046390336;0.0;-0.063159347;1006.4053;  4.0299067E-01;5295.4966;3;38.36459;0.0;-17.404497;0;0.32682878;  9.9958223E+03;  0.0000000E+00;  1.7326965E-04;  1.0000000E+04;  0.0000000E+00;  9.9829141E+03;0.20210031;0.0;0.12472849;8066.8818
  9.2004538E-01;  9.9999998E-03; -2.8011343E-01;2456;0.046910848;0.0;-0.066101313;1006.2686;  4.0299073E-01;5182.4556;3;36.245922;0.0;-12.16013;0;0.46094555;  9.9959668E+03;  0.0000000E+00;  3.3487155E-04;  1.0000000E+04;  0.0000000E+00;  9.9800576E+03;0.19487467;0.0;0.26607087;9282.8604
  9.2004561E-01;  9.9999998E-03; -2.6009691E-01;2457;0.046847321;0.0;-0.071826741;1006.3479;  4.0299055E-01;5247.9937;3;32.284962;0.0;-22.028526;0;0.55892968;  9.9961514E+03;  0.0000000E+00;  2.8231466E-04;  1.0000000E+04;  0.0000000E+00;  9.9814590E+03;0.18554437;0.0;0.37338531;8453.4199
  9.2004526E-01;  9.9999998E-03; -2.4007055E-01;2458;0.047501516;0.0;-0.064947456;1006.4888;  4.0299040E-01;5364.4844;3;33.63409;0.0;-34.136692;0;0.53442186;  9.9963789E+03;  0.0000000E+00;  1.4713107E-04;  1.0000000E+04;  0.0000000E+00;  9.9840332E+03;0.17408226;0.0;0.36033961;7216.0586
  9.2004395E-01;  9.9999998E-03; -2.2004937E-01;2459;0.046035111;0.0;-0.0528051;1006.5984;  4.0299019E-01;5455.1548;3;32.200371;0.0;-33.963409;0;0.51645541;  9.9966338E+03;  0.0000000E+00;  4.7619385E-05;  1.0000000E+04;  0.0000000E+00;  9.9859551E+03;0.1609372;0.0;0.35551822;6290.2617
  9.2004210E-01;  9.9999998E-03; -2.0003629E-01;2460;0.043743346;0.0;-0.04339489;1006.718;  4.0299007E-01;5553.9058;3;30.249199;0.0;-31.8445;0;0.49754754;  9.9969014E+03;  0.0000000E+00;  4.9846349E-06;  1.0000000E+04;  0.0000000E+00;  9.9880713E+03;0.14716905;0.0;0.35037848;5270.9854
  9.4004828E-01;  9.9999998E-03; -3.0011007E-01;2486;0.049982712;0.0;-0.058750737;1005.8473;  4.0272084E-01;4830.604;3;41.541576;0.0;-16.588022;0;0.27970898;  9.9967295E+03;  0.0000000E+00;  1.9598032E-04;  1.0000000E+04;  0.0000000E+00;  9.9843066E+03;0.1589072;0.0;0.12080178;7324.5581
  9.4004846E-01;  9.9999998E-03; -2.8010404E-01;2487;0.050269093;0.0;-0.061065167;1005.7279;  4.0272096E-01;4731.9258;3;38.998753;0.0;-11.798177;0;0.39612782;  9.9969336E+03;  0.0000000E+00;  4.2359982E-04;  1.0000000E+04;  0.0000000E+00;  9.9817344E+03;0.14899892;0.0;0.24712889;8410.3252
  9.4004881E-01;  9.9999998E-03; -2.6008856E-01;2488;0.050189748;0.0;-0.065774038;1005.8026;  4.0272078E-01;4793.6733;3;34.855995;0.0;-20.577635;0;0.48009151;  9.9971826E+03;  0.0000000E+00;  3.2261264E-04;  1.0000000E+04;  0.0000000E+00;  9.9829775E+03;0.13670279;0.0;0.34338874;7680.062
  9.4004840E-01;  9.9999998E-03; -2.4006441E-01;2489;0.05084797;0.0;-0.059344791;1005.9331;  4.0272057E-01;4901.4121;3;36.050076;0.0;-31.228418;0;0.45550075;  9.9974736E+03;  0.0000000E+00;  1.5780864E-04;  1.0000000E+04;  0.0000000E+00;  9.9852832E+03;0.12232605;0.0;0.33317471;6582.2715
  9.4004637E-01;  9.9999998E-03; -2.2004515E-01;2490;0.048430752;0.0;-0.048358627;1006.0369;  4.0272051E-01;4987.1895;3;33.740463;0.0;-31.220232;0;0.43592551;  9.9977842E+03;  0.0000000E+00;  4.9841590E-05;  1.0000000E+04;  0.0000000E+00;  9.9870420E+03;0.10687396;0.0;0.32905155;5744.6563
  9.4004369E-01;  9.9999998E-03; -2.0003331E-01;2491;0.045243919;0.0;-0.039858598;1006.1503;  4.0272036E-01;5080.9443;3;31.10025;0.0;-29.318354;0;0.41557568;  9.9980830E+03;  0.0000000E+00;  4.7430417E-06;  1.0000000E+04;  0.0000000E+00;  9.9890020E+03;0.091846816;0.0;0.32372886;4811.8374
  9.6005040E-01;  9.9999998E-03; -3.0010036E-01;2517;0.052460492;0.0;-0.054193344;1005.2596;  4.0244260E-01;4340.7813;3;43.788486;0.0;-15.67075;0;0.24191239;  9.9974268E+03;  0.0000000E+00;  1.9215974E-04;  1.0000000E+04;  0.0000000E+00;  9.9857432E+03;0.12469077;0.0;0.11722163;6551.397
  9.6005052E-01;  9.9999998E-03; -2.8009444E-01;2518;0.052618541;0.0;-0.055921882;1005.1579;  4.0244260E-01;4256.8604;3;41.051414;0.0;-11.415181;0;0.34015763;  9.9977041E+03;  0.0000000E+00;  1.9122055E-03;  1.0000000E+04;  0.0000000E+00;  9.9834414E+03;0.11160073;0.0;0.2285569;7511.4038
  9.6005052E-01;  9.9999998E-03; -2.6007998E-01;2519;0.052343614;0.0;-0.059724126;1005.2296;  4.0244254E-01;4315.9888;3;36.909348;0.0;-19.387835;0;0.4096992;  9.9980352E+03;  0.0000000E+00;  1.6235156E-03;  1.0000000E+04;  0.0000000E+00;  9.9845488E+03;0.095950507;0.0;0.31374869;6872.6504
  9.6004945E-01;  9.9999998E-03; -2.4005803E-01;2520;0.051946796;0.0;-0.053579651;1005.3505;  4.0244243E-01;4415.7495;3;36.958908;0.0;-28.531336;0;0.38323373;  9.9984004E+03;  0.0000000E+00;  6.2455924E-04;  1.0000000E+04;  0.0000000E+00;  9.9865898E+03;0.078478247;0.0;0.30475548;5915.0366
  9.6004665E-01;  9.9999998E-03; -2.2004075E-01;2521;0.048610918;0.0;-0.043732516;1005.4484;  4.0244225E-01;4496.6216;3;33.746185;0.0;-28.364883;0;0.3621273;  9.9987676E+03;  0.0000000E+00;  8.9442161E-05;  1.0000000E+04;  0.0000000E+00;  9.9881738E+03;0.060734313;0.0;0.301393;5171.7524
  9.6004361E-01;  9.9999998E-03; -2.0003022E-01;2522;0.045066327;0.0;-0.036192369;1005.5552;  4.0244225E-01;4584.7744;3;30.951042;0.0;-26.681734;0;0.34050137;  9.9991016E+03;  0.0000000E+00;  4.1626927E-06;  1.0000000E+04;  0.0000000E+00;  9.9899678E+03;0.044542942;0.0;0.29595843;4331.3159
  9.8005229E-01;  9.9999998E-03; -3.0009067E-01;2548;0.054544076;0.0;-0.049534298;1004.6658;  4.0216675E-01;3845.4973;3;45.665699;0.0;-14.634056;0;0.21337342;  9.9978643E+03;  0.0000000E+00;  1.0669973E-04;  1.0000000E+04;  0.0000000E+00;  9.9872002E+03;0.1017025;0.0;0.11167092;5765.0918
  9.8005193E-01;  9.9999998E-03; -2.8008494E-01;2549;0.054401219;0.0;-0.050796602;1004.5801;  4.0216669E-01;3774.8538;3;42.591103;0.0;-10.885745;0;0.29573226;  9.9982246E+03;  0.0000000E+00;  7.5631058E-03;  1.0000000E+04;  0.0000000E+00;  9.9851377E+03;0.08529447;0.0;0.21043779;6611.8149
  9.8005128E-01;  9.9999998E-03; -2.6007152E-01;2550;0.053616557;0.0;-0.053816732;1004.6489;  4.0216660E-01;3831.644;3;38.622219;0.0;-18.432936;0;0.35171512;  9.9986367E+03;  0.0000000E+00;  7.3398673E-03;  1.0000000E+04;  0.0000000E+00;  9.9861016E+03;0.0663637;0.0;0.28535143;6063.4717
  9.8004931E-01;  9.9999998E-03; -2.4005170E-01;2551;0.051803846;0.0;-0.047759797;1004.7607;  4.0216652E-01;3923.707;3;36.84483;0.0;-25.555397;0;0.32268596;  9.9990771E+03;  0.0000000E+00;  3.5705450E-03;  1.0000000E+04;  0.0000000E+00;  9.9878896E+03;0.046089694;0.0;0.27659628;5243.4766
  9.8004597E-01;  9.9999998E-03; -2.2003640E-01;2552;0.047997434;0.0;-0.03912298;1004.8526;  4.0216646E-01;3999.5586;3;33.43116;0.0;-25.515965;0;0.30039543;  9.9995000E+03;  0.0000000E+00;  9.0807176E-04;  1.0000000E+04;  0.0000000E+00;  9.9892979E+03;0.026393924;0.0;0.27400151;4595.1416
  9.8004276E-01;  9.9999998E-03; -2.0002717E-01;2553;0.044264987;0.0;-0.032540131;1004.9527;  4.0216643E-01;4081.9937;3;30.518534;0.0;-24.071941;0;0.27761284;  9.9998711E+03;  0.0000000E+00;  7.9917438E-05;  1.0000000E+04;  0.0000000E+00;  9.9909199E+03;0.0092125162;0.0;0.26840031;3849.1091
  1.0000547E+00;  9.9999998E-03; -3.0008122E-01;2579;0.056913301;0.0;-0.044802818;1004.0901;  4.0190217E-01;3364.9963;3;47.545868;0.0;-13.336302;0;0.19049013;  9.9980801E+03;  0.0000000E+00; -1.3475992E-03;  1.0000000E+04;  0.0000000E+00;  9.9886777E+03;0.088292599;0.0;0.10219753;4971.5122
  1.0000535E+00;  9.9999998E-03; -2.8007573E-01;2580;0.056171805;0.0;-0.045700289;1004.0177;  4.0190223E-01;3305.4644;3;44.162952;0.0;-10.287933;0;0.25987676;  9.9985254E+03;  0.0000000E+00;  1.7672779E-02;  1.0000000E+04;  0.0000000E+00;  9.9867988E+03;0.068756521;0.0;0.19112024;5725.4341
  1.0000516E+00;  9.9999998E-03; -2.6006344E-01;2581;0.054414034;0.0;-0.048044384;1004.0813;  4.0190211E-01;3357.7397;3;40.045605;0.0;-17.540039;0;0.30493414;  9.9990117E+03;  0.0000000E+00;  1.8629594E-02;  1.0000000E+04;  0.0000000E+00;  9.9875811E+03;0.046984896;0.0;0.25794926;5282.7993
  1.0000489E+00;  9.9999998E-03; -2.4004577E-01;2582;0.051315457;0.0;-0.042245861;1004.1835;  4.0190202E-01;3441.8899;3;36.509209;0.0;-22.689579;0;0.27525491;  9.9995117E+03;  0.0000000E+00;  9.7869476E-03;  1.0000000E+04;  0.0000000E+00;  9.9891182E+03;0.024629228;0.0;0.25062567;4596.4497
  1.0000449E+00;  9.9999998E-03; -2.2003229E-01;2583;0.046975702;0.0;-0.034724995;1004.2693;  4.0190202E-01;3512.5066;3;32.852406;0.0;-22.76211;0;0.25219664;  9.9999785E+03;  0.0000000E+00;  2.8141639E-03;  1.0000000E+04;  0.0000000E+00;  9.9903613E+03;0.0037683002;0.0;0.24842834;4038.1133
  1.0000414E+00;  9.9999998E-03; -2.0002426E-01;2584;0.0430969;0.0;-0.029083807;1004.3625;  4.0190187E-01;3589.2031;3;29.92675;0.0;-21.608578;0;0.22862977;  1.0000375E+04;  0.0000000E+00;  3.3634822E-04;  1.0000000E+04;  0.0000000E+00;  9.9918223E+03;-0.013883547;0.0;0.24251331;3384.967
  1.0200584E+00;  9.9999998E-03; -3.0007231E-01;2610;0.060256738;0.0;-0.040197033;1003.5535;  4.0165621E-01;2916.5303;3;49.996601;0.0;-11.784881;0;0.17081484;  9.9981641E+03;  0.0000000E+00; -4.6966099E-03;  1.0000000E+04;  0.0000000E+00;  9.9901455E+03;0.080931462;0.0;0.08988338;4189.416
  1.0200558E+00;  9.9999998E-03; -2.8006709E-01;2611;0.058421731;0.0;-0.040620238;1003.4918;  4.0165627E-01;2865.8499;3;45.706543;0.0;-9.2998867;0;0.22773477;  9.9986982E+03;  0.0000000E+00;  2.5548788E-02;  1.0000000E+04;  0.0000000E+00;  9.9883838E+03;0.058124986;0.0;0.16960979;4877.5571
  1.0200523E+00;  9.9999998E-03; -2.6005614E-01;2612;0.055226509;0.0;-0.042504419;1003.5468;  4.0165630E-01;2911.0535;3;40.977512;0.0;-16.22945;0;0.26623744;  9.9992529E+03;  0.0000000E+00;  2.9534589E-02;  1.0000000E+04;  0.0000000E+00;  9.9889258E+03;0.033908248;0.0;0.2323292;4560.6489
  1.0200483E+00;  9.9999998E-03; -2.4004063E-01;2613;0.050757747;0.0;-0.037340377;1003.6386;  4.0165618E-01;2986.3926;3;36.195847;0.0;-20.07906;0;0.23906252;  9.9997891E+03;  0.0000000E+00;  1.5144124E-02;  1.0000000E+04;  0.0000000E+00;  9.9902227E+03;0.01054325;0.0;0.22851926;3997.6394
  1.0200436E+00;  9.9999998E-03; -2.2002876E-01;2614;0.045801774;0.0;-0.03086482;1003.7178;  4.0165612E-01;3051.3608;3;32.272751;0.0;-20.34339;0;0.21607386;  1.0000268E+04;  0.0000000E+00;  3.2898076E-03;  1.0000000E+04;  0.0000000E+00;  9.9913213E+03;-0.010129018;0.0;0.22620288;3520.0359
  1.0200399E+00;  9.9999998E-03; -2.0002171E-01;2615;0.041784015;0.0;-0.025970811;1003.8036;  4.0165609E-01;3121.8076;3;29.321535;0.0;-19.379467;0;0.1924458;  1.0000669E+04;  0.0000000E+00; -3.3079213E-04;  1.0000000E+04;  0.0000000E+00;  9.9926318E+03;-0.027163805;0.0;0.2196096;2955.1248
  1.0400642E+00;  9.9999998E-03; -3.0006447E-01;2641;0.065713175;0.0;-0.036614232;1003.0623;  4.0143389E-01;2505.3467;3;53.783398;0.0;-11.27443;0;0.1647657;  9.9981240E+03;  0.0000000E+00; -1.2024295E-03;  1.0000000E+04;  0.0000000E+00;  9.9914668E+03;0.079871207;0.0;0.084894493;3469.3489
  1.0400593E+00;  9.9999998E-03; -2.8005949E-01;2642;0.061665967;0.0;-0.0364003;1003.0144;  4.0143391E-01;2466.1436;3;47.480331;0.0;-9.3111887;0;0.20241311;  9.9988252E+03;  0.0000000E+00;  1.5858831E-02;  1.0000000E+04;  0.0000000E+00;  9.9898164E+03;0.050459951;0.0;0.15195316;4096.5015
  1.0400536E+00;  9.9999998E-03; -2.6004997E-01;2643;0.056209151;0.0;-0.037612308;1003.0598;  4.0143391E-01;2503.2061;3;41.39455;0.0;-14.605454;0;0.234312;  9.9994639E+03;  0.0000000E+00;  2.4917301E-02;  1.0000000E+04;  0.0000000E+00;  9.9900801E+03;0.022786306;0.0;0.21152569;3916.1436
  1.0400478E+00;  9.9999998E-03; -2.4003656E-01;2644;0.050217528;0.0;-0.033335745;1003.1415;  4.0143394E-01;2570.1118;3;35.985554;0.0;-17.955736;0;0.21104386;  1.0000008E+04;  0.0000000E+00;  9.4686216E-03;  1.0000000E+04;  0.0000000E+00;  9.9911641E+03;-0.00050345063;0.0;0.21154732;3460.25
  1.0400423E+00;  9.9999998E-03; -2.2002600E-01;2645;0.044649575;0.0;-0.027656272;1003.2134;  4.0143386E-01;2628.9229;3;31.799154;0.0;-18.174528;0;0.18902609;  1.0000453E+04;  0.0000000E+00; -4.1402415E-03;  1.0000000E+04;  0.0000000E+00;  9.9921523E+03;-0.019120097;0.0;0.20814618;3051.6025
  1.0400383E+00;  9.9999998E-03; -2.0001948E-01;2646;0.040393684;0.0;-0.023110574;1003.2904;  4.0143380E-01;2691.9268;3;28.652271;0.0;-17.207796;0;0.16651869;  1.0000813E+04;  0.0000000E+00; -5.2737291E-03;  1.0000000E+04;  0.0000000E+00;  9.9933271E+03;-0.033921059;0.0;0.20043975;2568.2534
  1.0600708E+00;  9.9999998E-03; -3.0005786E-01;2672;0.071128115;0.0;-0.034670807;1002.6188;  4.0123814E-01;2133.2661;3;57.227013;0.0;-13.700673;0;0.18167652;  9.9978809E+03;  0.0000000E+00;  3.9162006E-02;  1.0000000E+04;  0.0000000E+00;  9.9926270E+03;0.087535061;0.0;0.094141461;2812.3955
  1.0600632E+00;  9.9999998E-03; -2.8005329E-01;2673;0.064558096;0.0;-0.033556625;1002.5908;  4.0123817E-01;2110.4497;3;48.814213;0.0;-10.797064;0;0.18933395;  9.9989160E+03;  0.0000000E+00; -2.2361415E-02;  1.0000000E+04;  0.0000000E+00;  9.9910303E+03;0.044187501;0.0;0.14514644;3405.0701
  1.0600551E+00;  9.9999998E-03; -2.6004526E-01;2674;0.057277903;0.0;-0.033832613;1002.629;  4.0123811E-01;2141.5286;3;42.133186;0.0;-13.468849;0;0.20895241;  9.9996973E+03;  0.0000000E+00; -1.2414722E-02;  1.0000000E+04;  0.0000000E+00;  9.9910078E+03;0.011268758;0.0;0.19768365;3359.0227
  1.0600474E+00;  9.9999998E-03; -2.4003373E-01;2675;0.049817055;0.0;-0.030270977;1002.7024;  4.0123808E-01;2201.3513;3;36.042419;0.0;-16.110338;0;0.18849573;  1.0000237E+04;  0.0000000E+00; -1.8727686E-02;  1.0000000E+04;  0.0000000E+00;  9.9919336E+03;-0.011444822;0.0;0.19994055;2990.6917
  1.0600412E+00;  9.9999998E-03; -2.2002402E-01;2676;0.043709397;0.0;-0.02504728;1002.7667;  4.0123811E-01;2253.6963;3;31.593735;0.0;-16.193905;0;0.16803364;  1.0000602E+04;  0.0000000E+00; -2.7208289E-02;  1.0000000E+04;  0.0000000E+00;  9.9928516E+03;-0.026157226;0.0;0.19419087;2635.3462
  1.0600368E+00;  9.9999998E-03; -2.0001769E-01;2677;0.039022569;0.0;-0.02066966;1002.8334;  4.0123808E-01;2308.1765;3;27.986067;0.0;-15.275712;0;0.14822958;  1.0000879E+04;  0.0000000E+00; -1.9520428E-02;  1.0000000E+04;  0.0000000E+00;  9.9939053E+03;-0.036973491;0.0;0.18520308;2226.3447
  1.0800755E+00;  9.9999998E-03; -3.0005243E-01;2703;0.074583746;0.0;-0.033291362;1002.2264;  4.0106994E-01;1803.2595;3;60.817013;0.0;-15.213335;0;0.20964095;  9.9974492E+03;  0.0000000E+00;  1.6413470E-01;  1.0000000E+04;  0.0000000E+00;  9.9936113E+03;0.10130028;0.0;0.10834068;2310.6501
  1.0800661E+00;  9.9999998E-03; -2.8004852E-01;2704;0.066567726;0.0;-0.031474724;1002.2226;  4.0107006E-01;1800.1752;3;51.101646;0.0;-11.778003;0;0.18400869;  9.9989561E+03;  0.0000000E+00; -6.8097815E-02;  1.0000000E+04;  0.0000000E+00;  9.9920244E+03;0.039958753;0.0;0.14404994;2820.7188
  1.0800565E+00;  9.9999998E-03; -2.6004189E-01;2705;0.058299724;0.0;-0.030836562;1002.2569;  4.0106994E-01;1827.989;3;43.617817;0.0;-12.081005;0;0.18875343;  9.9999258E+03;  0.0000000E+00; -8.4965184E-02;  1.0000000E+04;  0.0000000E+00;  9.9917432E+03;0.00044901465;0.0;0.18830441;2894.3386
  1.0800472E+00;  9.9999998E-03; -2.4003208E-01;2706;0.049704175;0.0;-0.027974565;1002.3245;  4.0107000E-01;1882.7416;3;36.74485;0.0;-14.310164;0;0.17032872;  1.0000479E+04;  0.0000000E+00; -7.4715443E-02;  1.0000000E+04;  0.0000000E+00;  9.9925352E+03;-0.022488711;0.0;0.19281743;2595.9622
  1.0800403E+00;  9.9999998E-03; -2.2002287E-01;2707;0.042982463;0.0;-0.023124937;1002.3821;  4.0106988E-01;1929.3824;3;31.425156;0.0;-14.606592;0;0.15153335;  1.0000736E+04;  0.0000000E+00; -7.0389718E-02;  1.0000000E+04;  0.0000000E+00;  9.9934258E+03;-0.03239724;0.0;0.18393059;2276.0547
  1.0800354E+00;  9.9999998E-03; -2.0001647E-01;2708;0.03779535;0.0;-0.018772915;1002.4374;  4.0107000E-01;1974.2841;3;27.469778;0.0;-13.654038;0;0.13554528;  1.0000889E+04;  0.0000000E+00; -4.7823805E-02;  1.0000000E+04;  0.0000000E+00;  9.9943750E+03;-0.037980042;0.0;0.17352532;1928.5619
  1.1000670E+00;  9.9999998E-03; -2.8004459E-01;2734;0.067179747;0.0;-0.029486071;1001.9177;  4.0092894E-01;1541.6035;3;53.379425;0.0;-12.251703;0;0.17658181;  9.9989521E+03;  0.0000000E+00; -5.9443731E-02;  1.0000000E+04;  0.0000000E+00;  9.9929824E+03;0.038926903;0.0;0.13765492;2271.0046
  1.1000574E+00;  9.9999998E-03; -2.6003933E-01;2735;0.059028994;0.0;-0.028208191;1001.9455;  4.0092897E-01;1563.9384;3;45.403149;0.0;-10.854636;0;0.17030013;  1.0000069E+04;  0.0000000E+00; -1.6484718E-01;  1.0000000E+04;  0.0000000E+00;  9.9924150E+03;-0.0057099238;0.0;0.17601006;2493.4958
  1.1000476E+00;  9.9999998E-03; -2.4003123E-01;2736;0.050214142;0.0;-0.025895724;1002.0051;  4.0092891E-01;1611.8599;3;38.422421;0.0;-11.86012;0;0.15610868;  1.0000661E+04;  0.0000000E+00; -1.5292186E-01;  1.0000000E+04;  0.0000000E+00;  9.9930127E+03;-0.030329518;0.0;0.18643819;2280.5442
  1.1000400E+00;  9.9999998E-03; -2.2002251E-01;2737;0.042606205;0.0;-0.021754971;1002.0579;  4.0092903E-01;1654.3181;3;31.936895;0.0;-12.929914;0;0.1393643;  1.0000832E+04;  0.0000000E+00; -1.3137677E-01;  1.0000000E+04;  0.0000000E+00;  9.9938936E+03;-0.037388686;0.0;0.17675298;1981.4381
  1.1000344E+00;  9.9999998E-03; -2.0001586E-01;2738;0.036880903;0.0;-0.017367812;1002.1027;  4.0092894E-01;1690.2583;3;27.249355;0.0;-12.195596;0;0.12702894;  1.0000859E+04;  0.0000000E+00; -9.2079423E-02;  1.0000000E+04;  0.0000000E+00;  9.9947588E+03;-0.037536345;0.0;0.16456528;1676.1787
  1.1200665E+00;  9.9999998E-03; -2.8004113E-01;2763;0.066626966;0.0;-0.027935565;1001.6727;  4.0081325E-01;1331.3199;3;55.158604;0.0;-13.220141;0;0.17311434;  9.9988379E+03;  0.0000000E+00;  5.8379285E-02;  1.0000000E+04;  0.0000000E+00;  9.9939717E+03;0.043417003;0.0;0.12969734;1750.3003
  1.1200577E+00;  9.9999998E-03; -2.6003712E-01;2764;0.059308443;0.0;-0.0261542;1001.6907;  4.0081325E-01;1345.749;3;47.018833;0.0;-10.727847;0;0.15744998;  1.0000019E+04;  0.0000000E+00; -1.9866954E-01;  1.0000000E+04;  0.0000000E+00;  9.9931523E+03;-0.0034193529;0.0;0.16086933;2074.7661
  1.1200484E+00;  9.9999998E-03; -2.4003071E-01;2765;0.051098187;0.0;-0.024089571;1001.7377;  4.0081328E-01;1383.1407;3;39.970646;0.0;-10.266657;0;0.14693922;  1.0000668E+04;  0.0000000E+00; -2.3411521E-01;  1.0000000E+04;  0.0000000E+00;  9.9934375E+03;-0.030413784;0.0;0.17735301;2017.0398
  1.1200401E+00;  9.9999998E-03; -2.2002277E-01;2766;0.042902038;0.0;-0.020605266;1001.7883;  4.0081325E-01;1423.3788;3;33.12989;0.0;-10.885671;0;0.13163614;  1.0000847E+04;  0.0000000E+00; -2.0220408E-01;  1.0000000E+04;  0.0000000E+00;  9.9942637E+03;-0.038911782;0.0;0.17054792;1750.9009
  1.1200339E+00;  9.9999998E-03; -2.0001586E-01;2767;0.036394782;0.0;-0.016405074;1001.8257;  4.0081328E-01;1453.178;3;27.504255;0.0;-10.731771;0;0.12155855;  1.0000781E+04;  0.0000000E+00; -1.4994477E-01;  1.0000000E+04;  0.0000000E+00;  9.9950801E+03;-0.03586008;0.0;0.15741862;1471.1442
  1.1400577E+00;  9.9999998E-03; -2.6003519E-01;2792;0.059023403;0.0;-0.024812311;1001.4834;  4.0072060E-01;1165.6178;3;48.603153;0.0;-11.384045;0;0.15587972;  9.9997139E+03;  0.0000000E+00; -1.2237002E-01;  1.0000000E+04;  0.0000000E+00;  9.9939414E+03;0.0089643337;0.0;0.14691539;1588.4719
  1.1400495E+00;  9.9999998E-03; -2.4003029E-01;2793;0.051873319;0.0;-0.022835299;1001.5154;  4.0072054E-01;1190.7281;3;41.440571;0.0;-9.8336554;0;0.14622423;  1.0000415E+04;  0.0000000E+00; -2.7804279E-01;  1.0000000E+04;  0.0000000E+00;  9.9938789E+03;-0.020145059;0.0;0.16636929;1732.4314
  1.1400410E+00;  9.9999998E-03; -2.2002350E-01;2794;0.043915145;0.0;-0.019851128;1001.5634;  4.0072051E-01;1228.4846;3;34.642315;0.0;-9.5719461;0;0.13072129;  1.0000699E+04;  0.0000000E+00; -2.7148864E-01;  1.0000000E+04;  0.0000000E+00;  9.9945498E+03;-0.033666238;0.0;0.16438752;1562.1846
  1.1400340E+00;  9.9999998E-03; -2.0001654E-01;2795;0.036597647;0.0;-0.015881164;1001.6003;  4.0072051E-01;1257.4352;3;28.319126;0.0;-9.3093987;0;0.1189627;  1.0000645E+04;  0.0000000E+00; -2.1462664E-01;  1.0000000E+04;  0.0000000E+00;  9.9953398E+03;-0.032332547;0.0;0.15129524;1308.8854
  1.1600571E+00;  9.9999998E-03; -2.6003340E-01;2819;0.058113374;0.0;-0.023923868;1001.3142;  4.0064776E-01;1015.625;3;50.001041;0.0;-12.421986;0;0.16429779;  9.9991729E+03;  0.0000000E+00;  1.0719301E-01;  1.0000000E+04;  0.0000000E+00;  9.9947373E+03;0.029589353;0.0;0.13470843;1188.9575
  1.1600504E+00;  9.9999998E-03; -2.4002987E-01;2820;0.052354001;0.0;-0.022151824;1001.3305;  4.0064779E-01;1028.2531;3;43.120678;0.0;-10.344444;0;0.15638429;  9.9998691E+03;  0.0000000E+00; -2.2347297E-01;  1.0000000E+04;  0.0000000E+00;  9.9943652E+03;0.0011375116;0.0;0.15524678;1352.8292
  1.1600428E+00;  9.9999998E-03; -2.2002444E-01;2821;0.045300383;0.0;-0.019564649;1001.3727;  4.0064776E-01;1060.8744;3;36.380547;0.0;-9.130085;0;0.14009614;  1.0000298E+04;  0.0000000E+00; -3.1325236E-01;  1.0000000E+04;  0.0000000E+00;  9.9947803E+03;-0.018055165;0.0;0.15815131;1360.8663
  1.1600353E+00;  9.9999998E-03; -2.0001796E-01;2822;0.037811793;0.0;-0.015972575;1001.4148;  4.0064785E-01;1093.4038;3;29.859865;0.0;-8.4571915;0;0.12260677;  1.0000394E+04;  0.0000000E+00; -2.7610186E-01;  1.0000000E+04;  0.0000000E+00;  9.9955225E+03;-0.023924815;0.0;0.14653158;1171.809
  1.1800507E+00;  9.9999998E-03; -2.4002936E-01;2846;0.052066751;0.0;-0.021722181;1001.1802;  4.0059185E-01;893.11389;3;44.579147;0.0;-11.236647;0;0.17273152;  9.9991436E+03;  0.0000000E+00; -1.9699838E-03;  1.0000000E+04;  0.0000000E+00;  9.9948799E+03;0.028527411;0.0;0.14420411;961.49261
  1.1800445E+00;  9.9999998E-03; -2.2002529E-01;2847;0.046511501;0.0;-0.019628156;1001.2101;  4.0059185E-01;915.76404;3;38.379608;0.0;-9.5594931;0;0.16048875;  9.9996133E+03;  0.0000000E+00; -2.6402625E-01;  1.0000000E+04;  0.0000000E+00;  9.9950078E+03;0.0086945165;0.0;0.15179424;1069.744
  1.1800376E+00;  9.9999998E-03; -2.0001973E-01;2848;0.039793015;0.0;-0.01655749;1001.2557;  4.0059188E-01;950.23364;3;31.990175;0.0;-8.3671103;0;0.13801767;  9.9999023E+03;  0.0000000E+00; -3.1246459E-01;  1.0000000E+04;  0.0000000E+00;  9.9956279E+03;-0.0053418959;0.0;0.14335957;1018.6265
  1.2000457E+00;  9.9999998E-03; -2.2002570E-01;2871;0.04688184;0.0;-0.019650504;1001.0772;  4.0054974E-01;794.15198;3;40.065895;0.0;-10.349732;0;0.18423904;  9.9987832E+03;  0.0000000E+00; -3.7766915E-02;  1.0000000E+04;  0.0000000E+00;  9.9952822E+03;0.040423278;0.0;0.14381577;735.95013
  1.2000403E+00;  9.9999998E-03; -2.0002128E-01;2872;0.041638415;0.0;-0.017321276;1001.1152;  4.0054974E-01;822.1944;3;34.177822;0.0;-9.0009327;0;0.16562811;  9.9991006E+03;  0.0000000E+00; -2.6203483E-01;  1.0000000E+04;  0.0000000E+00;  9.9957246E+03;0.024684466;0.0;0.14094363;785.09015
  1.2200456E+00;  9.9999998E-03; -2.2002552E-01;2894;0.045682363;0.0;-0.019272067;1000.9831;  4.0051872E-01;702.16071;3;40.632576;0.0;-10.898814;0;0.19327733;  9.9981494E+03;  0.0000000E+00;  3.6937323E-01;  1.0000000E+04;  0.0000000E+00;  9.9955840E+03;0.059754808;0.0;0.13352253;737.37524
  1.2200422E+00;  9.9999998E-03; -2.0002227E-01;2895;0.042497329;0.0;-0.017818553;1001.0012;  4.0051877E-01;715.02118;3;36.096699;0.0;-10.008816;0;0.19335687;  9.9982373E+03;  0.0000000E+00; -3.6290340E-02;  1.0000000E+04;  0.0000000E+00;  9.9958604E+03;0.056616709;0.0;0.13674016;517.85364
 -1.6072326E-08;  9.9999998E-03; -1.8000001E-01;1036;-3.6224323e-05;0.0;-4.6304044e-06;1000.0004;  4.0000001E-01;0.3950505;3;-0.060627349;0.0;-0.0076898145;0;-0.00072419632;  1.0000008E+04;  0.0000000E+00; -2.7397938E-11;  1.0000000E+04;  0.0000000E+00;  1.0000000E+04;-0.00075093179;0.0;2.673545e-05;0.13173294
 -1.6700019E-08;  9.9999998E-03; -1.6000000E-01;1037;-3.7542846e-05;0.0;-3.8319026e-06;1000.0004;  4.0000001E-01;0.3950505;3;-0.062676452;0.0;-0.0063125133;0;-0.0007524729;  1.0000009E+04;  0.0000000E+00; -6.5562378E-12;  1.0000000E+04;  0.0000000E+00;  1.0000000E+04;-0.00077921315;0.0;2.6740237e-05;0.13313453
 -1.7172143E-08;  9.9999998E-03; -1.4000000E-01;1038;-3.8503131e-05;0.0;-3.1311874e-06;1000.0004;  4.0000001E-01;0.3950505;3;-0.064122282;0.0;-0.0051075434;0;-0.00077441568;  1.0000009E+04;  0.0000000E+00;  1.6346411E-12;  1.0000000E+04;  0.0000000E+00;  1.0000000E+04;-0.00079964311;0.0;2.5227411e-05;0.12852381
 -1.7527512E-08;  9.9999998E-03; -1.2000000E-01;1039;-3.9201164e-05;0.0;-2.5000729e-06;1000.0004;  4.0000001E-01;0.3950505;3;-0.065129019;0.0;-0.0040268041;0;-0.00079103169;  1.0000009E+04;  0.0000000E+00; -1.1962257E-13;  1.0000000E+04;  0.0000000E+00;  1.0000000E+04;-0.0008141693;0.0;2.3137605e-05;0.12151968
 -1.7791729E-08;  9.9999998E-03; -1.0000000E-01;1040;-3.9702983e-05;0.0;-1.9439169e-06;1000.0004;  4.0000001E-01;0.3950505;3;-0.065818228;0.0;-0.0030796244;0;-0.00080335845;  1.0000009E+04;  0.0000000E+00; -1.7783037E-12;  1.0000000E+04;  0.0000000E+00;  1.0000000E+04;-0.00082430977;0.0;2.0951342e-05;0.11393471
 -1.7984251E-08;  9.9999998E-03; -7.9999998E-02;1041;-4.005701e-05;0.0;-1.4600499e-06;1000.0005;  4.0000001E-01;0.3950505;3;-0.066280514;0.0;-0.0022761917;0;-0.00081230886;  1.0000010E+04;  0.0000000E+00;  6.6651539E-14;  1.0000000E+04;  0.0000000E+00;  1.0000000E+04;-0.00083124352;0.0;1.8934634e-05;0.10678092
 -1.8119859E-08;  9.9999998E-03; -5.9999999E-02;1042;-4.0298986e-05;0.0;-1.0348125e-06;1000.0005;  4.0000001E-01;0.3950505;3;-0.066581078;0.0;-0.0015918626;0;-0.00081859954;  1.0000011E+04;  0.0000000E+00;  1.9095864E-12;  1.0000000E+04;  0.0000000E+00;  1.0000000E+04;-0.00083584536;0.0;1.7245817e-05;0.10068562
 -1.8209086E-08;  9.9999998E-03; -3.9999999E-02;1043;-4.0454135e-05;0.0;-6.5979151e-07;1000.0005;  4.0000001E-01;0.3950505;3;-0.066765063;0.0;-0.0010045924;0;-0.00082275458;  1.0000011E+04;  0.0000000E+00;  1.9936485E-12;  1.0000000E+04;  0.0000000E+00;  1.0000000E+04;-0.00083873392;0.0;1.5979353e-05;0.096051916
 -1.8259563E-08;  9.9999998E-03; -2.0000000E-02;1044;-4.0540097e-05;0.0;-3.2165636e-07;1000.0005;  4.0000001E-01;0.3950505;3;-0.066863246;0.0;-0.00048636616;0;-0.00082511915;  1.0000011E+04;  0.0000000E+00; -8.2654516E-13;  1.0000000E+04;  0.0000000E+00;  1.0000000E+04;-0.00084031472;0.0;1.5195566e-05;0.093156353
  1.9999975E-02;  9.9999998E-03; -1.8000001E-01;1066;-5.4010558e-05;0.0;-6.6588191e-06;1000.0005;  4.0000001E-01;0.3950505;3;-0.086894564;0.0;-0.010574408;0;-0.00094402389;  1.0000011E+04;  0.0000000E+00; -1.1204013E-11;  1.0000000E+04;  0.0000000E+00;  1.0000000E+04;-0.0009833324;0.0;3.930851e-05;0.19466293
  1.9999975E-02;  9.9999998E-03; -1.6000000E-01;1067;-5.5853507e-05;0.0;-5.5325645e-06;1000.0005;  4.0000001E-01;0.49381313;3;-0.089608289;0.0;-0.0087119127;0;-0.00097833201;  1.0000012E+04;  0.0000000E+00;  1.9890001E-11;  1.0000000E+04;  0.0000000E+00;  1.0000000E+04;-0.0010174962;0.0;3.9164268e-05;0.19582295
  1.9999973E-02;  9.9999998E-03; -1.4000000E-01;1068;-5.7174741e-05;0.0;-4.5393745e-06;1000.0005;  4.0000001E-01;0.49381313;3;-0.091476806;0.0;-0.0070819971;0;-0.0010048153;  1.0000012E+04;  0.0000000E+00; -2.5649532E-12;  1.0000000E+04;  0.0000000E+00;  1.0000000E+04;-0.001041719;0.0;3.690369e-05;0.18841863
  1.9999973E-02;  9.9999998E-03; -1.2000000E-01;1069;-5.8125537e-05;0.0;-3.6334222e-06;1000.0006;  4.0000001E-01;0.49381313;3;-0.092754431;0.0;-0.0055999882;0;-0.0010247268;  1.0000012E+04;  0.0000000E+00;  4.6779650E-12;  1.0000000E+04;  0.0000000E+00;  1.0000000E+04;-0.0010585801;0.0;3.3853357e-05;0.17768934
  1.9999973E-02;  9.9999998E-03; -1.0000000E-01;1070;-5.8795187e-05;0.0;-2.8446366e-06;1000.0007;  4.0000001E-01;0.59257573;3;-0.093600303;0.0;-0.0043268576;0;-0.0010394162;  1.0000013E+04;  0.0000000E+00; -2.5513270E-12;  1.0000000E+04;  0.0000000E+00;  1.0000000E+04;-0.0010700723;0.0;3.0656083e-05;0.16612083
  1.9999973E-02;  9.9999998E-03; -7.9999998E-02;1071;-5.9258233e-05;0.0;-2.1498777e-06;1000.0007;  4.0000001E-01;0.59257573;3;-0.094150119;0.0;-0.0032317536;0;-0.0010500374;  1.0000013E+04;  0.0000000E+00; -1.2866403E-12;  1.0000000E+04;  0.0000000E+00;  1.0000000E+04;-0.0010777356;0.0;2.7698154e-05;0.15521786
  1.9999973E-02;  9.9999998E-03; -6.0000002E-02;1072;-5.9569818e-05;0.0;-1.5298563e-06;1000.0007;  4.0000001E-01;0.59257573;3;-0.094497874;0.0;-0.0022779573;0;-0.0010574802;  1.0000013E+04;  0.0000000E+00;  2.7304065E-13;  1.0000000E+04;  0.0000000E+00;  1.0000000E+04;-0.0010826965;0.0;2.521627e-05;0.14593561
  1.9999973E-02;  9.9999998E-03; -3.9999999E-02;1073;-5.9766113e-05;0.0;-9.7983434e-07;1000.0007;  4.0000001E-01;0.59257573;3;-0.094703615;0.0;-0.0014491563;0;-0.0010623867;  1.0000013E+04;  0.0000000E+00;  5.3546534E-13;  1.0000000E+04;  0.0000000E+00;  1.0000000E+04;-0.0010857403;0.0;2.3353623e-05;0.138889
  1.9999973E-02;  9.9999998E-03; -2.0000000E-02;1074;-5.9873641e-05;0.0;-4.7825398e-07;1000.0007;  4.0000001E-01;0.59257573;3;-0.094811171;0.0;-0.00070397521;0;-0.0010651764;  1.0000013E+04;  0.0000000E+00;  9.3762149E-14;  1.0000000E+04;  0.0000000E+00;  1.0000000E+04;-0.0010873772;0.0;2.2200787e-05;0.1344921
  3.9999966E-02;  9.9999998E-03; -1.8000001E-01;1097;-7.8397774e-05;0.0;-8.7362505e-06;1000.0007;  4.0000001E-01;0.59257573;3;-0.12176893;0.0;-0.013206099;0;-0.001203594;  1.0000015E+04;  0.0000000E+00; -7.6974503E-12;  1.0000000E+04;  0.0000000E+00;  1.0000000E+04;-0.0012579635;0.0;5.4369393e-05;0.2742781
  3.9999962E-02;  9.9999998E-03; -1.6000000E-01;1098;-8.0900892e-05;0.0;-7.2775238e-06;1000.0007;  4.0000001E-01;0.59257573;3;-0.12527722;0.0;-0.01090625;0;-0.001243538;  1.0000015E+04;  0.0000000E+00; -9.2834776E-12;  1.0000000E+04;  0.0000000E+00;  1.0000000E+04;-0.0012974472;0.0;5.3909247e-05;0.27448767
  3.9999962E-02;  9.9999998E-03; -1.4000000E-01;1099;-8.2664534e-05;0.0;-5.9853319e-06;1000.0007;  4.0000001E-01;0.59257573;3;-0.12763008;0.0;-0.0088867294;0;-0.0012740217;  1.0000016E+04;  0.0000000E+00; -4.7863042E-12;  1.0000000E+04;  0.0000000E+00;  1.0000000E+04;-0.0013247193;0.0;5.0697603e-05;0.26321408
  3.9999962E-02;  9.9999998E-03; -1.2000000E-01;1100;-8.3905717e-05;0.0;-4.8108104e-06;1000.0007;  4.0000001E-01;0.59257573;3;-0.12918101;0.0;-0.0070674908;0;-0.0012966562;  1.0000016E+04;  0.0000000E+00;  9.3953257E-12;  1.0000000E+04;  0.0000000E+00;  1.0000000E+04;-0.0013431351;0.0;4.6478901e-05;0.24758781
  3.9999962E-02;  9.9999998E-03; -1.0000000E-01;1101;-8.4758714e-05;0.0;-3.7802631e-06;1000.0009;  4.0000001E-01;0.69133836;3;-0.13016595;0.0;-0.0054951105;0;-0.0013131985;  1.0000017E+04;  0.0000000E+00;  4.7383842E-12;  1.0000000E+04;  0.0000000E+00;  1.0000000E+04;-0.0013552562;0.0;4.2057713e-05;0.23083445
  3.9999962E-02;  9.9999998E-03; -7.9999998E-02;1102;-8.533441e-05;0.0;-2.8639397e-06;1000.0009;  4.0000001E-01;0.69133836;3;-0.13077116;0.0;-0.004124566;0;-0.0013250728;  1.0000017E+04;  0.0000000E+00;  2.9959889E-12;  1.0000000E+04;  0.0000000E+00;  1.0000000E+04;-0.0013630312;0.0;3.7958325e-05;0.21506414
  3.9999962E-02;  9.9999998E-03; -6.0000002E-02;1103;-8.5713233e-05;0.0;-2.0437478e-06;1000.0009;  4.0000001E-01;0.69133836;3;-0.13112891;0.0;-0.0029222062;0;-0.0013333472;  1.0000017E+04;  0.0000000E+00; -1.7508603E-12;  1.0000000E+04;  0.0000000E+00;  1.0000000E+04;-0.0013678599;0.0;3.4512745e-05;0.2016508
  3.9999962E-02;  9.9999998E-03; -3.9999999E-02;1104;-8.5947744e-05;0.0;-1.3120547e-06;1000.0009;  4.0000001E-01;0.69133836;3;-0.13132654;0.0;-0.0018673807;0;-0.0013387814;  1.0000017E+04;  0.0000000E+00; -1.4604274E-12;  1.0000000E+04;  0.0000000E+00;  1.0000000E+04;-0.0013707066;0.0;3.1925123e-05;0.19148283
  3.9999958E-02;  9.9999998E-03; -2.0000000E-02;1105;-8.6074695e-05;0.0;-6.4081649e-07;1000.0009;  4.0000001E-01;0.69133836;3;-0.13142405;0.0;-0.00090905617;0;-0.0013418635;  1.0000017E+04;  0.0000000E+00; -5.1944987E-14;  1.0000000E+04;  0.0000000E+00;  1.0000000E+04;-0.0013721872;0.0;3.0323579e-05;0.1851477
  5.9999950E-02;  9.9999998E-03; -1.8000001E-01;1128;-0.0001098604;0.0;-1.1048543e-05;1000.0009;  4.0000001E-01;0.79010099;3;-0.16548204;0.0;-0.015882116;0;-0.001530729;  1.0000020E+04;  0.0000000E+00; -2.1931575E-11;  1.0000000E+04;  0.0000000E+00;  1.0000000E+04;-0.0016031582;0.0;7.2429233e-05;0.37610763
  5.9999947E-02;  9.9999998E-03; -1.6000001E-01;1129;-0.00011310841;0.0;-9.2082428e-06;1000.001;  4.0000001E-01;0.79010099;3;-0.16982892;0.0;-0.013120016;0;-0.0015763503;  1.0000021E+04;  0.0000000E+00;  2.5554363E-12;  1.0000000E+04;  0.0000000E+00;  1.0000000E+04;-0.001647757;0.0;7.140667e-05;0.37427217
  5.9999947E-02;  9.9999998E-03; -1.4000000E-01;1130;-0.00011535404;0.0;-7.5704615e-06;1000.001;  4.0000001E-01;0.79010099;3;-0.17265292;0.0;-0.010683727;0;-0.0016105456;  1.0000021E+04;  0.0000000E+00;  5.8316962E-12;  1.0000000E+04;  0.0000000E+00;  1.0000000E+04;-0.001677515;0.0;6.6969384e-05;0.35760394
  5.9999947E-02;  9.9999998E-03; -1.2000000E-01;1131;-0.0001168923;0.0;-6.0916677e-06;1000.001;  4.0000001E-01;0.79010099;3;-0.17442136;0.0;-0.0085188281;0;-0.0016354868;  1.0000021E+04;  0.0000000E+00;  7.3596831E-13;  1.0000000E+04;  0.0000000E+00;  1.0000000E+04;-0.0016967845;0.0;6.1297622e-05;0.33541179
  5.9999943E-02;  9.9999998E-03; -1.0000000E-01;1132;-0.00011791847;0.0;-4.7913727e-06;1000.001;  4.0000001E-01;0.88886362;3;-0.17546865;0.0;-0.0066421069;0;-0.0016534665;  1.0000021E+04;  0.0000000E+00;  5.5173726E-12;  1.0000000E+04;  0.0000000E+00;  1.0000000E+04;-0.0017088319;0.0;5.5365392e-05;0.31178695
  5.9999943E-02;  9.9999998E-03; -7.9999998E-02;1133;-0.00011859164;0.0;-3.6320419e-06;1000.001;  4.0000001E-01;0.88886362;3;-0.17605533;0.0;-0.0049917302;0;-0.0016662268;  1.0000021E+04;  0.0000000E+00;  7.5732541E-13;  1.0000000E+04;  0.0000000E+00;  1.0000000E+04;-0.0017160836;0.0;4.9856833e-05;0.28959346
  5.9999943E-02;  9.9999998E-03; -6.0000002E-02;1134;-0.00011902237;0.0;-2.5954737e-06;1000.001;  4.0000001E-01;0.88886362;3;-0.17635928;0.0;-0.0035448216;0;-0.0016750405;  1.0000021E+04;  0.0000000E+00;  5.0058568E-13;  1.0000000E+04;  0.0000000E+00;  1.0000000E+04;-0.00172026;0.0;4.5219509e-05;0.27074128
  5.9999943E-02;  9.9999998E-03; -3.9999999E-02;1135;-0.00011928262;0.0;-1.6687218e-06;1000.001;  4.0000001E-01;0.88886362;3;-0.17650032;0.0;-0.0022709076;0;-0.0016807902;  1.0000021E+04;  0.0000000E+00; -2.0712447E-12;  1.0000000E+04;  0.0000000E+00;  1.0000000E+04;-0.0017225249;0.0;4.1734653e-05;0.25647327
  5.9999943E-02;  9.9999998E-03; -2.0000000E-02;1136;-0.0001194212;0.0;-8.1492351e-07;1000.001;  4.0000001E-01;0.88886362;3;-0.17655778;0.0;-0.0011058436;0;-0.0016840369;  1.0000021E+04;  0.0000000E+00; -4.5844172E-13;  1.0000000E+04;  0.0000000E+00;  1.0000000E+04;-0.0017236148;0.0;3.9577779e-05;0.24759813
  7.9999931E-02;  9.9999998E-03; -1.8000001E-01;1159;-0.00014985471;0.0;-1.3749381e-05;1000.0012;  4.0000001E-01;0.98762625;3;-0.21972704;0.0;-0.018810121;0;-0.0019559863;  1.0000024E+04;  0.0000000E+00; -7.7656596E-12;  1.0000000E+04;  0.0000000E+00;  9.9999990E+03;-0.0020506678;0.0;9.4681498e-05;0.50931013
  7.9999924E-02;  9.9999998E-03; -1.6000001E-01;1160;-0.00015388781;0.0;-1.1452898e-05;1000.0013;  4.0000001E-01;1.0863888;3;-0.22485884;0.0;-0.015523298;0;-0.0020075543;  1.0000025E+04;  0.0000000E+00; -2.6986260E-11;  1.0000000E+04;  0.0000000E+00;  9.9999990E+03;-0.0021003182;0.0;9.2764036e-05;0.5038057
  7.9999924E-02;  9.9999998E-03; -1.4000000E-01;1161;-0.00015661983;0.0;-9.3929193e-06;1000.0013;  4.0000001E-01;1.0863888;3;-0.22806278;0.0;-0.012594917;0;-0.0020453199;  1.0000026E+04;  0.0000000E+00; -1.3257898E-11;  1.0000000E+04;  0.0000000E+00;  1.0000000E+04;-0.0021320134;0.0;8.6693537e-05;0.47941971
  7.9999924E-02;  9.9999998E-03; -1.2000000E-01;1162;-0.00015843722;0.0;-7.550042e-06;1000.0013;  4.0000001E-01;1.0863888;3;-0.22993667;0.0;-0.010033806;0;-0.0020722647;  1.0000028E+04;  0.0000000E+00; -4.5474132E-12;  1.0000000E+04;  0.0000000E+00;  1.0000000E+04;-0.0021513901;0.0;7.9125326e-05;0.44808486
  7.9999924E-02;  9.9999998E-03; -1.0000000E-01;1163;-0.00015961086;0.0;-5.9315794e-06;1000.0013;  4.0000001E-01;1.0863888;3;-0.23093337;0.0;-0.0078173233;0;-0.0020913279;  1.0000029E+04;  0.0000000E+00;  7.8592731E-13;  1.0000000E+04;  0.0000000E+00;  1.0000000E+04;-0.0021625659;0.0;7.123797e-05;0.41502091
  7.9999924E-02;  9.9999998E-03; -8.0000006E-02;1164;-0.00016035353;0.0;-4.4910166e-06;1000.0013;  4.0000001E-01;1.0863888;3;-0.23140015;0.0;-0.0058662905;0;-0.0021046416;  1.0000029E+04;  0.0000000E+00; -7.3678971E-12;  1.0000000E+04;  0.0000000E+00;  1.0000000E+04;-0.0021685497;0.0;6.3908017e-05;0.38405856
  7.9999924E-02;  9.9999998E-03; -6.0000002E-02;1165;-0.00016081009;0.0;-3.2095625e-06;1000.0013;  4.0000001E-01;1.0863888;3;-0.23156826;0.0;-0.0041664615;0;-0.0021137162;  1.0000029E+04;  0.0000000E+00; -6.0101806E-12;  1.0000000E+04;  0.0000000E+00;  1.0000000E+04;-0.0021714456;0.0;5.7729449e-05;0.35781023
  7.9999924E-02;  9.9999998E-03; -4.0000003E-02;1166;-0.00016107512;0.0;-2.0650409e-06;1000.0013;  4.0000001E-01;1.0863888;3;-0.23159125;0.0;-0.0026717864;0;-0.0021195738;  1.0000029E+04;  0.0000000E+00; -2.7762037E-12;  1.0000000E+04;  0.0000000E+00;  1.0000000E+04;-0.0021726575;0.0;5.3083782e-05;0.33798629
  7.9999924E-02;  9.9999998E-03; -2.0000001E-02;1167;-0.00016121237;0.0;-1.0075257e-06;1000.0013;  4.0000001E-01;1.0863888;3;-0.23157144;0.0;-0.001298886;0;-0.0021228576;  1.0000029E+04;  0.0000000E+00; -2.0641003E-13;  1.0000000E+04;  0.0000000E+00;  1.0000000E+04;-0.0021730664;0.0;5.020868e-05;0.325679
  9.9999905E-02;  9.9999998E-03; -1.8000001E-01;1190;-0.00020069245;0.0;-1.7005597e-05;1000.0016;  4.0000001E-01;1.2839141;3;-0.28705311;0.0;-0.022162812;0;-0.0025111507;  1.0000034E+04;  0.0000000E+00; -3.0699717E-11;  1.0000000E+04;  0.0000000E+00;  9.9999990E+03;-0.0026343158;0.0;0.00012316497;0.68781263
  9.9999897E-02;  9.9999998E-03; -1.6000001E-01;1191;-0.00020551891;0.0;-1.415819e-05;1000.0016;  4.0000001E-01;1.3826767;3;-0.29283586;0.0;-0.018271562;0;-0.0025688095;  1.0000035E+04;  0.0000000E+00; -2.6322632E-11;  1.0000000E+04;  0.0000000E+00;  9.9999990E+03;-0.0026886761;0.0;0.00011986647;0.67595786
  9.9999897E-02;  9.9999998E-03; -1.4000000E-01;1192;-0.00020870927;0.0;-1.1571175e-05;1000.0017;  4.0000001E-01;1.3826767;3;-0.29627031;0.0;-0.014748434;0;-0.0026099572;  1.0000036E+04;  0.0000000E+00; -2.9351438E-11;  1.0000000E+04;  0.0000000E+00;  9.9999990E+03;-0.0027214729;0.0;0.00011151559;0.64010596
  9.9999897E-02;  9.9999998E-03; -1.2000000E-01;1193;-0.00021075753;0.0;-9.2784385e-06;1000.0017;  4.0000001E-01;1.3826767;3;-0.29809326;0.0;-0.011710887;0;-0.0026385586;  1.0000036E+04;  0.0000000E+00; -9.1185904E-12;  1.0000000E+04;  0.0000000E+00;  9.9999990E+03;-0.0027399051;0.0;0.00010134657;0.59557772
  9.9999897E-02;  9.9999998E-03; -1.0000000E-01;1194;-0.00021202574;0.0;-7.2693724e-06;1000.0018;  4.0000001E-01;1.4814394;3;-0.29889283;0.0;-0.0090893274;0;-0.0026583155;  1.0000036E+04;  0.0000000E+00; -8.9746448E-12;  1.0000000E+04;  0.0000000E+00;  1.0000000E+04;-0.0027491122;0.0;9.0796624e-05;0.54908597
  9.9999897E-02;  9.9999998E-03; -8.0000006E-02;1195;-0.00021278851;0.0;-5.4882053e-06;1000.0018;  4.0000001E-01;1.4814394;3;-0.29911289;0.0;-0.0067915348;0;-0.002671812;  1.0000036E+04;  0.0000000E+00; -1.7900761E-13;  1.0000000E+04;  0.0000000E+00;  1.0000000E+04;-0.0027528033;0.0;8.0991413e-05;0.50574982
  9.9999897E-02;  9.9999998E-03; -6.0000002E-02;1196;-0.00021322859;0.0;-3.9173815e-06;1000.0018;  4.0000001E-01;1.4814394;3;-0.29904166;0.0;-0.0048145461;0;-0.002680833;  1.0000036E+04;  0.0000000E+00; -1.7916475E-12;  1.0000000E+04;  0.0000000E+00;  1.0000000E+04;-0.0027535532;0.0;7.2720235e-05;0.46912992
  9.9999897E-02;  9.9999998E-03; -4.0000003E-02;1197;-0.00021346688;0.0;-2.5185504e-06;1000.0018;  4.0000001E-01;1.4814394;3;-0.29887289;0.0;-0.0030807073;0;-0.0026865634;  1.0000037E+04;  0.0000000E+00; -6.8813645E-13;  1.0000000E+04;  0.0000000E+00;  1.0000000E+04;-0.002753064;0.0;6.6500659e-05;0.44155616
  9.9999897E-02;  9.9999998E-03; -2.0000001E-02;1198;-0.00021358277;0.0;-1.2278903e-06;1000.0018;  4.0000001E-01;1.4814394;3;-0.29872945;0.0;-0.0014972034;0;-0.0026897402;  1.0000037E+04;  0.0000000E+00;  5.4432560E-13;  1.0000000E+04;  0.0000000E+00;  1.0000000E+04;-0.0027523928;0.0;6.265274e-05;0.42448044
  1.1999987E-01;  9.9999998E-03; -1.8000001E-01;1221;-0.00026556462;0.0;-2.1040052e-05;1000.0021;  4.0000001E-01;1.7777272;3;-0.37069258;0.0;-0.026158895;0;-0.0032291317;  1.0000044E+04;  0.0000000E+00; -4.0332859E-11;  1.0000000E+04;  0.0000000E+00;  9.9999980E+03;-0.0033903907;0.0;0.0001612589;0.93325955
  1.1999986E-01;  9.9999998E-03; -1.6000001E-01;1222;-0.0002711663;0.0;-1.7511824e-05;1000.0021;  4.0000001E-01;1.7777272;3;-0.37692761;0.0;-0.021561675;0;-0.0032927191;  1.0000045E+04;  0.0000000E+00; -1.0168590E-10;  1.0000000E+04;  0.0000000E+00;  9.9999980E+03;-0.0034483084;0.0;0.00015558921;0.90934336
  1.1999986E-01;  9.9999998E-03; -1.4000000E-01;1223;-0.00027475072;0.0;-1.4255229e-05;1000.0023;  4.0000001E-01;1.8764899;3;-0.38036874;0.0;-0.017311737;0;-0.0033368217;  1.0000047E+04;  0.0000000E+00; -5.1525881E-11;  1.0000000E+04;  0.0000000E+00;  9.9999980E+03;-0.0034806607;0.0;0.00014383908;0.85552001
  1.1999986E-01;  9.9999998E-03; -1.2000000E-01;1224;-0.00027694387;0.0;-1.1388826e-05;1000.0023;  4.0000001E-01;1.8764899;3;-0.38191792;0.0;-0.013669969;0;-0.0033665195;  1.0000047E+04;  0.0000000E+00;  3.5954419E-12;  1.0000000E+04;  0.0000000E+00;  9.9999990E+03;-0.0034964501;0.0;0.00012993057;0.79130596
  1.1999986E-01;  9.9999998E-03; -1.0000000E-01;1225;-0.00027821821;0.0;-8.8863208e-06;1000.0023;  4.0000001E-01;1.8764899;3;-0.38231969;0.0;-0.010545205;0;-0.0033864079;  1.0000047E+04;  0.0000000E+00;  2.2509462E-12;  1.0000000E+04;  0.0000000E+00;  9.9999990E+03;-0.0035020085;0.0;0.00011560058;0.72520149
  1.1999986E-01;  9.9999998E-03; -8.0000006E-02;1226;-0.00027892136;0.0;-6.6784178e-06;1000.0023;  4.0000001E-01;1.8764899;3;-0.3821269;0.0;-0.0078244386;0;-0.0033995847;  1.0000048E+04;  0.0000000E+00; -1.6381625E-12;  1.0000000E+04;  0.0000000E+00;  9.9999990E+03;-0.0035018851;0.0;0.00010230036;0.66401029
  1.1999986E-01;  9.9999998E-03; -6.0000002E-02;1227;-0.00027927849;0.0;-4.754228e-06;1000.0023;  4.0000001E-01;1.8764899;3;-0.38168296;0.0;-0.0055237599;0;-0.0034081405;  1.0000048E+04;  0.0000000E+00; -8.5969063E-13;  1.0000000E+04;  0.0000000E+00;  1.0000000E+04;-0.0034992278;0.0;9.1087357e-05;0.61256325
  1.1999986E-01;  9.9999998E-03; -4.0000003E-02;1228;-0.00027944191;0.0;-3.0492613e-06;1000.0023;  4.0000001E-01;1.8764899;3;-0.38122723;0.0;-0.0035155918;0;-0.003413436;  1.0000048E+04;  0.0000000E+00; -5.2150246E-12;  1.0000000E+04;  0.0000000E+00;  1.0000000E+04;-0.0034960986;0.0;8.2662496e-05;0.57399255
  1.1999986E-01;  9.9999998E-03; -2.0000001E-02;1229;-0.00027950664;0.0;-1.4850154e-06;1000.0023;  4.0000001E-01;1.8764899;3;-0.38090125;0.0;-0.0017064664;0;-0.003416315;  1.0000048E+04;  0.0000000E+00; -1.6205134E-12;  1.0000000E+04;  0.0000000E+00;  1.0000000E+04;-0.00349377;0.0;7.7455181e-05;0.55018735
  1.3999982E-01;  9.9999998E-03; -1.8000002E-01;1252;-0.00034856534;0.0;-2.618655e-05;1000.0028;  4.0000001E-01;2.3703029;3;-0.4745478;0.0;-0.031143121;0;-0.0041452143;  1.0000061E+04;  0.0000000E+00; -1.7027401E-07;  1.0000000E+04;  0.0000000E+00;  9.9999980E+03;-0.004360023;0.0;0.00021480839;1.2812182
  1.3999982E-01;  9.9999998E-03; -1.6000001E-01;1253;-0.00035488361;0.0;-2.1759812e-05;1000.0029;  4.0000001E-01;2.3703029;3;-0.48091993;0.0;-0.025645817;0;-0.00421442;  1.0000061E+04;  0.0000000E+00; -1.3523056E-10;  1.0000000E+04;  0.0000000E+00;  9.9999980E+03;-0.0044187438;0.0;0.00020432373;1.2315049
  1.3999982E-01;  9.9999998E-03; -1.4000002E-01;1254;-0.00035874624;0.0;-1.7631332e-05;1000.0029;  4.0000001E-01;2.4690657;3;-0.48402736;0.0;-0.020482445;0;-0.0042607766;  1.0000061E+04;  0.0000000E+00; -2.3811772E-11;  1.0000000E+04;  0.0000000E+00;  9.9999980E+03;-0.0044478299;0.0;0.00018705316;1.147542
  1.3999981E-01;  9.9999998E-03; -1.2000000E-01;1255;-0.00036094533;0.0;-1.4012397e-05;1000.003;  4.0000001E-01;2.4690657;3;-0.48498583;0.0;-0.016055966;0;-0.0042907023;  1.0000061E+04;  0.0000000E+00; -2.2907424E-11;  1.0000000E+04;  0.0000000E+00;  9.9999980E+03;-0.0044581965;0.0;0.00016749396;1.0528747
  1.3999981E-01;  9.9999998E-03; -1.0000001E-01;1256;-0.0003620873;0.0;-1.0866121e-05;1000.0031;  4.0000001E-01;2.5678282;3;-0.48472109;0.0;-0.012265784;0;-0.0043098819;  1.0000062E+04;  0.0000000E+00; -6.8922220E-12;  1.0000000E+04;  0.0000000E+00;  9.9999980E+03;-0.0044575091;0.0;0.0001476272;0.95756656
  1.3999981E-01;  9.9999998E-03; -8.0000006E-02;1257;-0.00036260529;0.0;-8.119855e-06;1000.0031;  4.0000001E-01;2.5678282;3;-0.48387882;0.0;-0.0090322169;0;-0.0043220161;  1.0000062E+04;  0.0000000E+00; -5.4729229E-12;  1.0000000E+04;  0.0000000E+00;  9.9999990E+03;-0.0044513009;0.0;0.00012928482;0.8703348
  1.3999981E-01;  9.9999998E-03; -6.0000002E-02;1258;-0.00036277861;0.0;-5.755146e-06;1000.0031;  4.0000001E-01;2.5678282;3;-0.48287728;0.0;-0.0063311611;0;-0.0043295133;  1.0000062E+04;  0.0000000E+00; -5.3575894E-12;  1.0000000E+04;  0.0000000E+00;  9.9999990E+03;-0.004443381;0.0;0.00011386754;0.79756171
  1.3999981E-01;  9.9999998E-03; -4.0000003E-02;1259;-0.00036279301;0.0;-3.6772644e-06;1000.0031;  4.0000001E-01;2.5678282;3;-0.48199913;0.0;-0.0040010898;0;-0.004333938;  1.0000063E+04;  0.0000000E+00; -6.3169229E-13;  1.0000000E+04;  0.0000000E+00;  9.9999990E+03;-0.0044362494;0.0;0.00010231129;0.74333024
  1.3999981E-01;  9.9999998E-03; -2.0000001E-02;1260;-0.0003627621;0.0;-1.7876724e-06;1000.0031;  4.0000001E-01;2.5678282;3;-0.48141015;0.0;-0.0019350747;0;-0.0043362495;  1.0000063E+04;  0.0000000E+00; -4.7886491E-12;  1.0000000E+04;  0.0000000E+00;  9.9999990E+03;-0.0044314316;0.0;9.5181909e-05;0.71000642
  1.5999976E-01;  9.9999998E-03; -1.8000002E-01;1283;-0.00045468728;0.0;-3.2930584e-05;1000.0037;  4.0000001E-01;3.0616415;3;-0.60318327;0.0;-0.037668381;0;-0.0052999798;  1.0000077E+04;  0.0000000E+00; -1.6222164E-06;  1.0000000E+04;  0.0000000E+00;  9.9999961E+03;-0.0055936282;0.0;0.00029364825;1.789811
  1.5999976E-01;  9.9999998E-03; -1.6000001E-01;1284;-0.00046158777;0.0;-2.7258513e-05;1000.0038;  4.0000001E-01;3.160404;3;-0.60923499;0.0;-0.030915299;0;-0.0053743981;  1.0000080E+04;  0.0000000E+00; -2.8494521E-10;  1.0000000E+04;  0.0000000E+00;  9.9999971E+03;-0.00564725;0.0;0.00027285187;1.6839373
  1.5999976E-01;  9.9999998E-03; -1.4000002E-01;1285;-0.00046554094;0.0;-2.1938587e-05;1000.0039;  4.0000001E-01;3.2591665;3;-0.61154127;0.0;-0.024516031;0;-0.0054223794;  1.0000080E+04;  0.0000000E+00; -3.2716264E-11;  1.0000000E+04;  0.0000000E+00;  9.9999971E+03;-0.00566831;0.0;0.0002459308;1.5466384
  1.5999976E-01;  9.9999998E-03; -1.2000001E-01;1286;-0.00046753496;0.0;-1.7304514e-05;1000.004;  4.0000001E-01;3.2591665;3;-0.61145574;0.0;-0.019046117;0;-0.0054514389;  1.0000080E+04;  0.0000000E+00;  5.6866439E-12;  1.0000000E+04;  0.0000000E+00;  9.9999971E+03;-0.0056688776;0.0;0.00021743859;1.4032949
  1.5999974E-01;  9.9999998E-03; -1.0000001E-01;1287;-0.00046833753;0.0;-1.330908e-05;1000.004;  4.0000001E-01;3.2591665;3;-0.61011422;0.0;-0.014384058;0;-0.0054687657;  1.0000080E+04;  0.0000000E+00;  1.6693795E-12;  1.0000000E+04;  0.0000000E+00;  9.9999980E+03;-0.0056580459;0.0;0.00018928028;1.2639042
  1.5999974E-01;  9.9999998E-03; -8.0000006E-02;1288;-0.00046848759;0.0;-9.8672217e-06;1000.004;  4.0000001E-01;3.2591665;3;-0.60827994;0.0;-0.01047071;0;-0.0054788156;  1.0000081E+04;  0.0000000E+00; -1.2389750E-12;  1.0000000E+04;  0.0000000E+00;  9.9999980E+03;-0.0056424183;0.0;0.00016360242;1.1386192
  1.5999974E-01;  9.9999998E-03; -6.0000002E-02;1289;-0.0004683263;0.0;-6.948494e-06;1000.004;  4.0000001E-01;3.2591665;3;-0.60644656;0.0;-0.0072592688;0;-0.005484411;  1.0000081E+04;  0.0000000E+00;  1.3095133E-12;  1.0000000E+04;  0.0000000E+00;  9.9999980E+03;-0.0056265807;0.0;0.00014216977;1.0353011
  1.5999974E-01;  9.9999998E-03; -4.0000003E-02;1290;-0.00046808104;0.0;-4.4162971e-06;1000.004;  4.0000001E-01;3.3579292;3;-0.60494912;0.0;-0.0045426833;0;-0.0054873331;  1.0000080E+04;  0.0000000E+00; -9.8161895E-12;  1.0000000E+04;  0.0000000E+00;  9.9999990E+03;-0.0056135138;0.0;0.00012618072;0.95893663
  1.5999974E-01;  9.9999998E-03; -2.0000001E-02;1291;-0.00046788674;0.0;-2.1406399e-06;1000.004;  4.0000001E-01;3.3579292;3;-0.60397869;0.0;-0.0021837212;0;-0.0054886905;  1.0000080E+04;  0.0000000E+00; -5.1050011E-12;  1.0000000E+04;  0.0000000E+00;  9.9999990E+03;-0.0056050387;0.0;0.00011634814;0.91227382
  1.7999968E-01;  9.9999998E-03; -1.8000002E-01;1314;-0.00058995734;0.0;-4.195272e-05;1000.0048;  4.0000001E-01;3.950505;3;-0.76192605;0.0;-0.046532463;0;-0.0067412648;  1.0000103E+04;  0.0000000E+00; -5.2118039E-06;  1.0000000E+04;  0.0000000E+00;  9.9999941E+03;-0.0071537192;0.0;0.00041245448;2.5457449
  1.7999968E-01;  9.9999998E-03; -1.6000003E-01;1315;-0.00059721543;0.0;-3.4436751e-05;1000.0049;  4.0000001E-01;4.0492678;3;-0.76703489;0.0;-0.037868626;0;-0.0068216813;  1.0000103E+04;  0.0000000E+00; -2.0287192E-08;  1.0000000E+04;  0.0000000E+00;  9.9999951E+03;-0.0071927398;0.0;0.00037105853;2.3266308
  1.7999966E-01;  9.9999998E-03; -1.4000002E-01;1316;-0.0006009583;0.0;-2.7462171e-05;1000.0051;  4.0000001E-01;4.1480303;3;-0.76789188;0.0;-0.029721614;0;-0.0068713096;  1.0000103E+04;  0.0000000E+00; -4.6688719E-11;  1.0000000E+04;  0.0000000E+00;  9.9999961E+03;-0.0071983216;0.0;0.00032701195;2.0944984
  1.7999966E-01;  9.9999998E-03; -1.2000001E-01;1317;-0.00060242938;0.0;-2.1439737e-05;1000.0051;  4.0000001E-01;4.1480303;3;-0.76612943;0.0;-0.022809567;0;-0.0068984339;  1.0000103E+04;  0.0000000E+00; -2.0265634E-12;  1.0000000E+04;  0.0000000E+00;  9.9999961E+03;-0.0071825339;0.0;0.00028409989;1.8723401
  1.7999966E-01;  9.9999998E-03; -1.0000001E-01;1318;-0.0006025894;0.0;-1.6311506e-05;1000.0051;  4.0000001E-01;4.1480303;3;-0.7631318;0.0;-0.016971452;0;-0.0069124671;  1.0000104E+04;  0.0000000E+00;  9.3899298E-12;  1.0000000E+04;  0.0000000E+00;  9.9999971E+03;-0.0071558775;0.0;0.00024341042;1.6661255
  1.7999966E-01;  9.9999998E-03; -8.0000006E-02;1319;-0.0006021036;0.0;-1.1965035e-05;1000.0051;  4.0000001E-01;4.1480303;3;-0.75981605;0.0;-0.012156795;0;-0.0069190231;  1.0000104E+04;  0.0000000E+00; -9.7271358E-12;  1.0000000E+04;  0.0000000E+00;  9.9999971E+03;-0.007126105;0.0;0.000207082;1.4855236
  1.7999966E-01;  9.9999998E-03; -6.0000006E-02;1320;-0.00060138956;0.0;-8.3501773e-06;1000.0051;  4.0000001E-01;4.1480303;3;-0.75676847;0.0;-0.0083003528;0;-0.0069214907;  1.0000104E+04;  0.0000000E+00; -7.8746844E-12;  1.0000000E+04;  0.0000000E+00;  9.9999980E+03;-0.0070986166;0.0;0.00017712584;1.3389666
  1.7999966E-01;  9.9999998E-03; -4.0000003E-02;1321;-0.00060072372;0.0;-5.2684391e-06;1000.0051;  4.0000001E-01;4.1480303;3;-0.75437659;0.0;-0.0051236562;0;-0.0069219996;  1.0000103E+04;  0.0000000E+00; -1.1385302E-11;  1.0000000E+04;  0.0000000E+00;  9.9999980E+03;-0.0070769503;0.0;0.00015495086;1.231812
  1.7999966E-01;  9.9999998E-03; -2.0000001E-02;1322;-0.00060026796;0.0;-2.5429281e-06;1000.0051;  4.0000001E-01;4.1480303;3;-0.75285923;0.0;-0.0024422684;0;-0.0069218366;  1.0000103E+04;  0.0000000E+00; -3.4234965E-12;  1.0000000E+04;  0.0000000E+00;  9.9999980E+03;-0.007063217;0.0;0.0001413804;1.1667904
  1.9999957E-01;  9.9999998E-03; -1.8000004E-01;1345;-0.00076176971;0.0;-5.3941814e-05;1000.0063;  4.0000001E-01;5.2344189;3;-0.95699549;0.0;-0.058507405;0;-0.008524416;  1.0000136E+04;  0.0000000E+00; -9.7254497E-06;  1.0000000E+04;  0.0000000E+00;  9.9999932E+03;-0.0091144349;0.0;0.00059001922;3.6631088
  1.9999957E-01;  9.9999998E-03; -1.6000003E-01;1346;-0.00076902792;0.0;-4.3736462e-05;1000.0064;  4.0000001E-01;5.3331819;3;-0.96034342;0.0;-0.046974346;0;-0.0086145913;  1.0000137E+04;  0.0000000E+00; -9.2667136E-08;  1.0000000E+04;  0.0000000E+00;  9.9999932E+03;-0.0091263251;0.0;0.00051173399;3.2386506
  1.9999957E-01;  9.9999998E-03; -1.4000002E-01;1347;-0.00077209505;0.0;-3.4505996e-05;1000.0066;  4.0000001E-01;5.4319444;3;-0.9588657;0.0;-0.036409765;0;-0.0086669875;  1.0000137E+04;  0.0000000E+00; -5.8162440E-11;  1.0000000E+04;  0.0000000E+00;  9.9999941E+03;-0.009105566;0.0;0.00043857825;2.844861
  1.9999957E-01;  9.9999998E-03; -1.2000002E-01;1348;-0.00077257509;0.0;-2.6583302e-05;1000.0067;  4.0000001E-01;5.5307069;3;-0.95458537;0.0;-0.027480315;0;-0.0086913016;  1.0000137E+04;  0.0000000E+00; -3.6918510E-11;  1.0000000E+04;  0.0000000E+00;  9.9999951E+03;-0.009064015;0.0;0.00037271308;2.4970727
  1.9999956E-01;  9.9999998E-03; -1.0000002E-01;1349;-0.00077164755;0.0;-1.9951005e-05;1000.0067;  4.0000001E-01;5.5307069;3;-0.94916934;0.0;-0.020038208;0;-0.0087002767;  1.0000137E+04;  0.0000000E+00; -3.0155639E-12;  1.0000000E+04;  0.0000000E+00;  9.9999961E+03;-0.0090135289;0.0;0.0003132525;2.1906259
  1.9999956E-01;  9.9999998E-03; -8.0000006E-02;1350;-0.00077014067;0.0;-1.4436345e-05;1000.0067;  4.0000001E-01;5.5307069;3;-0.94372016;0.0;-0.014048181;0;-0.0087013887;  1.0000137E+04;  0.0000000E+00; -4.8899973E-12;  1.0000000E+04;  0.0000000E+00;  9.9999971E+03;-0.0089630494;0.0;0.00026166067;1.9307113
  1.9999956E-01;  9.9999998E-03; -6.0000006E-02;1351;-0.00076856307;0.0;-9.9574545e-06;1000.0067;  4.0000001E-01;5.5307069;3;-0.93894082;0.0;-0.009399835;0;-0.0086989878;  1.0000136E+04;  0.0000000E+00; -1.0664659E-11;  1.0000000E+04;  0.0000000E+00;  9.9999971E+03;-0.008918833;0.0;0.00021984556;1.7240646
  1.9999956E-01;  9.9999998E-03; -4.0000003E-02;1352;-0.00076725119;0.0;-6.2238037e-06;1000.0067;  4.0000001E-01;5.5307069;3;-0.93528348;0.0;-0.005703079;0;-0.0086957281;  1.0000135E+04;  0.0000000E+00; -1.0299980E-11;  1.0000000E+04;  0.0000000E+00;  9.9999971E+03;-0.0088849571;0.0;0.00018922905;1.5750164
  1.9999956E-01;  9.9999998E-03; -2.0000001E-02;1353;-0.00076639786;0.0;-2.9872192e-06;1000.0067;  4.0000001E-01;5.5307069;3;-0.93299538;0.0;-0.0026861618;0;-0.0086932005;  1.0000134E+04;  0.0000000E+00; -5.9091404E-12;  1.0000000E+04;  0.0000000E+00;  9.9999980E+03;-0.0088638198;0.0;0.00017061879;1.4853488
  2.1999943E-01;  9.9999998E-03; -1.8000004E-01;1376;-0.00097915018;0.0;-6.95079e-05;1000.0082;  4.0000001E-01;6.814621;3;-1.1956174;0.0;-0.074197948;0;-0.010715058;  1.0000176E+04;  0.0000000E+00; -1.1863274E-05;  1.0000000E+04;  0.0000000E+00;  9.9999883E+03;-0.011561736;0.0;0.00084667775;5.2732544
  2.1999943E-01;  9.9999998E-03; -1.6000004E-01;1377;-0.00098580727;0.0;-5.5590746e-05;1000.0083;  4.0000001E-01;6.9133835;3;-1.1960815;0.0;-0.058660712;0;-0.010822117;  1.0000177E+04;  0.0000000E+00; -1.1089124E-07;  1.0000000E+04;  0.0000000E+00;  9.9999893E+03;-0.011531179;0.0;0.00070906163;4.512712
  2.1999943E-01;  9.9999998E-03; -1.4000003E-01;1378;-0.00098751776;0.0;-4.3327251e-05;1000.0083;  4.0000001E-01;6.9133835;3;-1.1911263;0.0;-0.044794049;0;-0.010879442;  1.0000176E+04;  0.0000000E+00; -5.2038214E-11;  1.0000000E+04;  0.0000000E+00;  9.9999932E+03;-0.011469339;0.0;0.00058989733;3.8611259
  2.1999943E-01;  9.9999998E-03; -1.2000002E-01;1379;-0.0009863408;0.0;-3.2845008e-05;1000.0083;  4.0000001E-01;6.9133835;3;-1.1832665;0.0;-0.033060629;0;-0.010900104;  1.0000176E+04;  0.0000000E+00; -3.1952841E-12;  1.0000000E+04;  0.0000000E+00;  9.9999932E+03;-0.01138912;0.0;0.00048901624;3.3208337
  2.1999943E-01;  9.9999998E-03; -1.0000002E-01;1380;-0.00098369399;0.0;-2.4266748e-05;1000.0084;  4.0000001E-01;6.9133835;3;-1.174443;0.0;-0.023545228;0;-0.010901691;  1.0000175E+04;  0.0000000E+00;  1.6378652E-11;  1.0000000E+04;  0.0000000E+00;  9.9999941E+03;-0.011303888;0.0;0.00040219634;2.8679378
  2.1999943E-01;  9.9999998E-03; -8.0000013E-02;1381;-0.00098062668;0.0;-1.7276781e-05;1000.0084;  4.0000001E-01;6.9133835;3;-1.1660179;0.0;-0.016071076;0;-0.010894584;  1.0000174E+04;  0.0000000E+00; -2.0529550E-12;  1.0000000E+04;  0.0000000E+00;  9.9999951E+03;-0.011223841;0.0;0.00032925693;2.4969523
  2.1999943E-01;  9.9999998E-03; -6.0000010E-02;1382;-0.00097775494;0.0;-1.1747147e-05;1000.0084;  4.0000001E-01;7.0121465;3;-1.1588275;0.0;-0.010465393;0;-0.010884747;  1.0000174E+04;  0.0000000E+00; -1.5015385E-11;  1.0000000E+04;  0.0000000E+00;  9.9999971E+03;-0.011156119;0.0;0.00027137285;2.2089031
  2.1999943E-01;  9.9999998E-03; -4.0000007E-02;1383;-0.00097548845;0.0;-7.2566395e-06;1000.0084;  4.0000001E-01;7.0121465;3;-1.153417;0.0;-0.0061997012;0;-0.010875705;  1.0000173E+04;  0.0000000E+00; -1.9273057E-11;  1.0000000E+04;  0.0000000E+00;  9.9999971E+03;-0.011105278;0.0;0.00022957327;2.0044625
  2.1999943E-01;  9.9999998E-03; -2.0000003E-02;1384;-0.0009740509;0.0;-3.458789e-06;1000.0085;  4.0000001E-01;7.0121465;3;-1.1500666;0.0;-0.0028755511;0;-0.010869553;  1.0000173E+04;  0.0000000E+00; -7.9024383E-12;  1.0000000E+04;  0.0000000E+00;  9.9999971E+03;-0.011073936;0.0;0.00020438206;1.8827283
  2.3999926E-01;  9.9999998E-03; -1.8000005E-01;1407;-0.0012530356;0.0;-8.949011e-05;1000.0104;  4.0000001E-01;8.6911106;3;-1.4861865;0.0;-0.094440199;0;-0.013394892;  1.0000228E+04;  0.0000000E+00; -9.4237876E-06;  1.0000000E+04;  0.0000000E+00;  9.9999814E+03;-0.014595585;0.0;0.0012006923;7.5097675
  2.3999925E-01;  9.9999998E-03; -1.6000004E-01;1408;-0.0012580793;0.0;-7.0416558e-05;1000.0107;  4.0000001E-01;8.8886366;3;-1.4821596;0.0;-0.073243469;0;-0.013527174;  1.0000228E+04;  0.0000000E+00; -3.4517704E-08;  1.0000000E+04;  0.0000000E+00;  9.9999873E+03;-0.014503505;0.0;0.00097633043;6.2458887
  2.3999925E-01;  9.9999998E-03; -1.4000003E-01;1409;-0.0012574055;0.0;-5.4092139e-05;1000.0107;  4.0000001E-01;8.8886366;3;-1.4721892;0.0;-0.054904517;0;-0.013591651;  1.0000227E+04;  0.0000000E+00; -7.2996826E-12;  1.0000000E+04;  0.0000000E+00;  9.9999893E+03;-0.014381494;0.0;0.00078984309;5.2111316
  2.3999925E-01;  9.9999998E-03; -1.2000003E-01;1410;-0.0012535998;0.0;-4.026133e-05;1000.0107;  4.0000001E-01;8.8886366;3;-1.4593424;0.0;-0.039475728;0;-0.013607105;  1.0000224E+04;  0.0000000E+00;  3.8660623E-11;  1.0000000E+04;  0.0000000E+00;  9.9999912E+03;-0.014245588;0.0;0.00063848286;4.3907442
  2.3999925E-01;  9.9999998E-03; -1.0000002E-01;1411;-0.0012483476;0.0;-2.9243625e-05;1000.0107;  4.0000001E-01;8.8886366;3;-1.4458331;0.0;-0.027357008;0;-0.013597764;  1.0000224E+04;  0.0000000E+00;  1.1806704E-11;  1.0000000E+04;  0.0000000E+00;  9.9999932E+03;-0.014111175;0.0;0.00051341136;3.7319458
  2.3999925E-01;  9.9999998E-03; -8.0000013E-02;1412;-0.001242972;0.0;-2.0442061e-05;1000.0108;  4.0000001E-01;8.9873991;3;-1.4333473;0.0;-0.018048262;0;-0.013578315;  1.0000223E+04;  0.0000000E+00; -3.7106841E-12;  1.0000000E+04;  0.0000000E+00;  9.9999941E+03;-0.013989951;0.0;0.00041163634;3.2104506
  2.3999925E-01;  9.9999998E-03; -6.0000010E-02;1413;-0.0012382197;0.0;-1.3675589e-05;1000.0108;  4.0000001E-01;8.9873991;3;-1.4228863;0.0;-0.01134695;0;-0.013557228;  1.0000221E+04;  0.0000000E+00; -3.9432429E-12;  1.0000000E+04;  0.0000000E+00;  9.9999951E+03;-0.013889947;0.0;0.00033271892;2.8157029
  2.3999925E-01;  9.9999998E-03; -4.0000007E-02;1414;-0.0012345802;0.0;-8.3293071e-06;1000.0108;  4.0000001E-01;8.9873991;3;-1.4150938;0.0;-0.0064976574;0;-0.013539436;  1.0000222E+04;  0.0000000E+00; -2.1915568E-11;  1.0000000E+04;  0.0000000E+00;  9.9999951E+03;-0.013816076;0.0;0.00027664003;2.5405693
  2.3999925E-01;  9.9999998E-03; -2.0000003E-02;1415;-0.0012323092;0.0;-3.9380702e-06;1000.0108;  4.0000001E-01;8.9873991;3;-1.4103049;0.0;-0.0029532237;0;-0.013527796;  1.0000222E+04;  0.0000000E+00; -6.3026862E-12;  1.0000000E+04;  0.0000000E+00;  9.9999971E+03;-0.013770984;0.0;0.00024318761;2.3786731
  2.5999904E-01;  9.9999998E-03; -1.8000007E-01;1438;-0.0015965678;0.0;-0.0001149068;1000.0135;  4.0000001E-01;11.160175;3;-1.8383503;0.0;-0.12025202;0;-0.016666384;  1.0000293E+04;  0.0000000E+00; -4.3014584E-06;  1.0000000E+04;  0.0000000E+00;  9.9999766E+03;-0.018331852;0.0;0.001665467;10.496485
  2.5999904E-01;  9.9999998E-03; -1.6000006E-01;1439;-0.0015984023;0.0;-8.856869e-05;1000.0137;  4.0000001E-01;11.357701;3;-1.8275545;0.0;-0.090938762;0;-0.01682988;  1.0000292E+04;  0.0000000E+00; -3.9306616E-10;  1.0000000E+04;  0.0000000E+00;  9.9999814E+03;-0.018153738;0.0;0.0013238575;8.5311422
  2.5999904E-01;  9.9999998E-03; -1.4000005E-01;1440;-0.0015937884;0.0;-6.6854576e-05;1000.0138;  4.0000001E-01;11.456464;3;-1.8104663;0.0;-0.066621654;0;-0.016901925;  1.0000292E+04;  0.0000000E+00;  3.8824196E-12;  1.0000000E+04;  0.0000000E+00;  9.9999844E+03;-0.017947335;0.0;0.001045409;6.9614782
  2.5999904E-01;  9.9999998E-03; -1.2000003E-01;1441;-0.0015859244;0.0;-4.8788563e-05;1000.0139;  4.0000001E-01;11.456464;3;-1.7907151;0.0;-0.046419419;0;-0.016908418;  1.0000289E+04;  0.0000000E+00;  6.3457947E-11;  1.0000000E+04;  0.0000000E+00;  9.9999893E+03;-0.017733857;0.0;0.00082543842;5.7549233
  2.5999904E-01;  9.9999998E-03; -1.0000002E-01;1442;-0.0015768192;0.0;-3.4782941e-05;1000.0139;  4.0000001E-01;11.456464;3;-1.7708371;0.0;-0.031115929;0;-0.016882274;  1.0000288E+04;  0.0000000E+00;  4.8819900E-11;  1.0000000E+04;  0.0000000E+00;  9.9999902E+03;-0.017531725;0.0;0.00064945017;4.8194389
  2.5999904E-01;  9.9999998E-03; -8.0000021E-02;1443;-0.0015681126;0.0;-2.3861909e-05;1000.0139;  4.0000001E-01;11.456464;3;-1.7528989;0.0;-0.019744335;0;-0.016844181;  1.0000286E+04;  0.0000000E+00;  9.4084835E-12;  1.0000000E+04;  0.0000000E+00;  9.9999922E+03;-0.017354563;0.0;0.00051038183;4.1020689
  2.5999904E-01;  9.9999998E-03; -6.0000014E-02;1444;-0.0015606814;0.0;-1.5687194e-05;1000.0139;  4.0000001E-01;11.555226;3;-1.7380362;0.0;-0.011849725;0;-0.01680617;  1.0000286E+04;  0.0000000E+00; -1.9634913E-11;  1.0000000E+04;  0.0000000E+00;  9.9999941E+03;-0.017211253;0.0;0.00040508341;3.5729823
  2.5999904E-01;  9.9999998E-03; -4.0000007E-02;1445;-0.0015551127;0.0;-9.402519e-06;1000.0139;  4.0000001E-01;11.555226;3;-1.7270553;0.0;-0.0064603202;0;-0.016775252;  1.0000284E+04;  0.0000000E+00; -2.0227937E-11;  1.0000000E+04;  0.0000000E+00;  9.9999951E+03;-0.017106829;0.0;0.00033157723;3.2114134
  2.5999904E-01;  9.9999998E-03; -2.0000003E-02;1446;-0.0015516805;0.0;-4.407113e-06;1000.0139;  4.0000001E-01;11.555226;3;-1.7203417;0.0;-0.0028411569;0;-0.016755382;  1.0000284E+04;  0.0000000E+00; -2.1590217E-13;  1.0000000E+04;  0.0000000E+00;  9.9999951E+03;-0.017043626;0.0;0.0002882437;3.0014834
  2.7999875E-01;  9.9999998E-03; -1.8000010E-01;1469;-0.0020255905;0.0;-0.00014617461;1000.0172;  4.0000001E-01;14.221817;3;-2.2631607;0.0;-0.15195632;0;-0.020654378;  1.0000377E+04;  0.0000000E+00; -6.5199652E-07;  1.0000000E+04;  0.0000000E+00;  9.9999668E+03;-0.022903714;0.0;0.0022493352;14.347164
  2.7999872E-01;  9.9999998E-03; -1.6000007E-01;1470;-0.00202178;0.0;-0.0001101797;1000.0175;  4.0000001E-01;14.518105;3;-2.2424293;0.0;-0.11169241;0;-0.020850036;  1.0000375E+04;  0.0000000E+00; -3.0805666E-10;  1.0000000E+04;  0.0000000E+00;  9.9999736E+03;-0.022608072;0.0;0.0017580359;11.454014
  2.7999872E-01;  9.9999998E-03; -1.4000006E-01;1471;-0.0020109476;0.0;-8.1561455e-05;1000.0176;  4.0000001E-01;14.518105;3;-2.2153671;0.0;-0.07967601;0;-0.020925861;  1.0000371E+04;  0.0000000E+00; -2.6754942E-11;  1.0000000E+04;  0.0000000E+00;  9.9999814E+03;-0.0222866;0.0;0.001360739;9.174612
  2.7999872E-01;  9.9999998E-03; -1.2000004E-01;1472;-0.0019969752;0.0;-5.8338363e-05;1000.0176;  4.0000001E-01;14.518105;3;-2.1861522;0.0;-0.053683762;0;-0.020915315;  1.0000367E+04;  0.0000000E+00;  6.0850221E-11;  1.0000000E+04;  0.0000000E+00;  9.9999834E+03;-0.021967782;0.0;0.0010524666;7.4617319
  2.7999875E-01;  9.9999998E-03; -1.0000003E-01;1473;-0.001982277;0.0;-4.0782201e-05;1000.0176;  4.0000001E-01;14.518105;3;-2.1576746;0.0;-0.034539361;0;-0.020862529;  1.0000365E+04;  0.0000000E+00;  8.5232585E-12;  1.0000000E+04;  0.0000000E+00;  9.9999893E+03;-0.021674633;0.0;0.00081210362;6.1716132
  2.7999875E-01;  9.9999998E-03; -8.0000021E-02;1474;-0.0019688362;0.0;-2.7430982e-05;1000.0175;  4.0000001E-01;14.518105;3;-2.1324165;0.0;-0.020704461;0;-0.020796068;  1.0000363E+04;  0.0000000E+00; -3.7410046E-13;  1.0000000E+04;  0.0000000E+00;  9.9999912E+03;-0.02142323;0.0;0.00062716135;5.210743
  2.7999875E-01;  9.9999998E-03; -6.0000014E-02;1475;-0.001957671;0.0;-1.7744578e-05;1000.0175;  4.0000001E-01;14.518105;3;-2.1117513;0.0;-0.01172997;0;-0.020732787;  1.0000360E+04;  0.0000000E+00; -2.1383338E-11;  1.0000000E+04;  0.0000000E+00;  9.9999922E+03;-0.021223228;0.0;0.00049044163;4.5202961
  2.7999875E-01;  9.9999998E-03; -4.0000010E-02;1476;-0.0019494363;0.0;-1.0461667e-05;1000.0175;  4.0000001E-01;14.518105;3;-2.0965638;0.0;-0.0059232716;0;-0.020682413;  1.0000359E+04;  0.0000000E+00; -2.4995863E-11;  1.0000000E+04;  0.0000000E+00;  9.9999932E+03;-0.021079237;0.0;0.00039682389;4.058311
  2.7999875E-01;  9.9999998E-03; -2.0000005E-02;1477;-0.0019444111;0.0;-4.856885e-06;1000.0175;  4.0000001E-01;14.518105;3;-2.0873208;0.0;-0.0024435897;0;-0.020650405;  1.0000358E+04;  0.0000000E+00; -1.3526515E-11;  1.0000000E+04;  0.0000000E+00;  9.9999941E+03;-0.02099278;0.0;0.00034237446;3.7940636
  2.9999834E-01;  9.9999998E-03; -1.8000013E-01;1500;-0.0025589792;0.0;-0.00018308259;1000.0218;  4.0000001E-01;18.073557;3;-2.7724986;0.0;-0.18820056;0;-0.025506757;  1.0000481E+04;  0.0000000E+00; -2.0685922E-09;  1.0000000E+04;  0.0000000E+00;  9.9999551E+03;-0.028464453;0.0;0.0029576963;19.177288
  2.9999834E-01;  9.9999998E-03; -1.6000009E-01;1501;-0.002546252;0.0;-0.00013525937;1000.022;  4.0000001E-01;18.271082;3;-2.7379937;0.0;-0.13485622;0;-0.025728891;  1.0000478E+04;  0.0000000E+00; -6.5721467E-10;  1.0000000E+04;  0.0000000E+00;  9.9999658E+03;-0.02801045;0.0;0.0022815603;15.095353
  2.9999834E-01;  9.9999998E-03; -1.4000008E-01;1502;-0.0025260111;0.0;-9.8116885e-05;1000.0223;  4.0000001E-01;18.468607;3;-2.697252;0.0;-0.0935499;0;-0.025797341;  1.0000472E+04;  0.0000000E+00;  3.7158686E-11;  1.0000000E+04;  0.0000000E+00;  9.9999746E+03;-0.027534418;0.0;0.0017370764;11.911356
  2.9999837E-01;  9.9999998E-03; -1.2000005E-01;1503;-0.0025030943;0.0;-6.884295e-05;1000.0223;  4.0000001E-01;18.468607;3;-2.6552474;0.0;-0.060840767;0;-0.025754688;  1.0000468E+04;  0.0000000E+00;  5.6364420E-11;  1.0000000E+04;  0.0000000E+00;  9.9999814E+03;-0.027075181;0.0;0.0013204926;9.563673
  2.9999837E-01;  9.9999998E-03; -1.0000004E-01;1504;-0.0024804245;0.0;-4.7191195e-05;1000.0225;  4.0000001E-01;18.567369;3;-2.6152651;0.0;-0.03725189;0;-0.025659382;  1.0000464E+04;  0.0000000E+00;  4.0782616E-12;  1.0000000E+04;  0.0000000E+00;  9.9999844E+03;-0.026662244;0.0;0.0010028603;7.8399415
  2.9999837E-01;  9.9999998E-03; -8.0000028E-02;1505;-0.0024603631;0.0;-3.1176827e-05;1000.0223;  4.0000001E-01;18.468607;3;-2.5803401;0.0;-0.020806668;0;-0.025549974;  1.0000460E+04;  0.0000000E+00;  2.8617057E-11;  1.0000000E+04;  0.0000000E+00;  9.9999883E+03;-0.026314566;0.0;0.00076459209;6.5909929
  2.9999837E-01;  9.9999998E-03; -6.0000017E-02;1506;-0.0024440729;0.0;-1.9860001e-05;1000.0223;  4.0000001E-01;18.468607;3;-2.5520759;0.0;-0.010778018;0;-0.025449352;  1.0000456E+04;  0.0000000E+00; -8.6000729E-12;  1.0000000E+04;  0.0000000E+00;  9.9999912E+03;-0.026042087;0.0;0.0005927342;5.7168746
  2.9999837E-01;  9.9999998E-03; -4.0000010E-02;1507;-0.0024322113;0.0;-1.1557746e-05;1000.0222;  4.0000001E-01;18.369844;3;-2.5314186;0.0;-0.0047803055;0;-0.025370656;  1.0000452E+04;  0.0000000E+00; -3.0522952E-11;  1.0000000E+04;  0.0000000E+00;  9.9999912E+03;-0.025848184;0.0;0.00047752744;5.1450787
  2.9999837E-01;  9.9999998E-03; -2.0000005E-02;1508;-0.0024250404;0.0;-5.3141671e-06;1000.0222;  4.0000001E-01;18.369844;3;-2.5188978;0.0;-0.0017143183;0;-0.025321113;  1.0000452E+04;  0.0000000E+00;  1.0153600E-11;  1.0000000E+04;  0.0000000E+00;  9.9999932E+03;-0.025732676;0.0;0.00041156204;4.8234739
  3.1999788E-01;  9.9999998E-03; -1.8000016E-01;1531;-0.003219753;0.0;-0.00022558037;1000.0276;  4.0000001E-01;22.912924;3;-3.3803499;0.0;-0.22924751;0;-0.031396396;  1.0000613E+04;  0.0000000E+00; -2.6651794E-09;  1.0000000E+04;  0.0000000E+00;  9.9999424E+03;-0.03519126;0.0;0.0037948631;25.115505
  3.1999788E-01;  9.9999998E-03; -1.6000012E-01;1532;-0.0031934706;0.0;-0.0001633307;1000.0279;  4.0000001E-01;23.110449;3;-3.3269639;0.0;-0.1598749;0;-0.031629335;  1.0000605E+04;  0.0000000E+00; -6.7611494E-10;  1.0000000E+04;  0.0000000E+00;  9.9999551E+03;-0.034523841;0.0;0.0028945045;19.540424
  3.1999788E-01;  9.9999998E-03; -1.4000009E-01;1533;-0.0031595319;0.0;-0.00011612913;1000.0282;  4.0000001E-01;23.406736;3;-3.267627;0.0;-0.10701697;0;-0.031668339;  1.0000598E+04;  0.0000000E+00;  4.9062338E-11;  1.0000000E+04;  0.0000000E+00;  9.9999668E+03;-0.03384196;0.0;0.0021736219;15.240675
  3.1999788E-01;  9.9999998E-03; -1.2000006E-01;1534;-0.0031238948;0.0;-8.0211328e-05;1000.0282;  4.0000001E-01;23.406736;3;-3.2084782;0.0;-0.066918708;0;-0.031568598;  1.0000589E+04;  0.0000000E+00;  9.7376352E-12;  1.0000000E+04;  0.0000000E+00;  9.9999756E+03;-0.033198491;0.0;0.0016298933;12.129121
  3.1999791E-01;  9.9999998E-03; -1.0000005E-01;1535;-0.0030901663;0.0;-5.4164295e-05;1000.0281;  4.0000001E-01;23.307974;3;-3.1534564;0.0;-0.039002273;0;-0.031406589;  1.0000583E+04;  0.0000000E+00; -2.3459824E-11;  1.0000000E+04;  0.0000000E+00;  9.9999814E+03;-0.032630991;0.0;0.0012244008;9.8995781
  3.1999791E-01;  9.9999998E-03; -8.0000035E-02;1536;-0.003061044;0.0;-3.534491e-05;1000.0281;  4.0000001E-01;23.307974;3;-3.1058888;0.0;-0.019952772;0;-0.031233218;  1.0000578E+04;  0.0000000E+00; -7.0284410E-11;  1.0000000E+04;  0.0000000E+00;  9.9999844E+03;-0.032161292;0.0;0.0009280743;8.3272371
  3.1999791E-01;  9.9999998E-03; -6.0000021E-02;1537;-0.003037842;0.0;-2.2272188e-05;1000.028;  4.0000001E-01;23.209211;3;-3.0677664;0.0;-0.0088749109;0;-0.031078478;  1.0000575E+04;  0.0000000E+00; -4.2763258E-11;  1.0000000E+04;  0.0000000E+00;  9.9999873E+03;-0.031798456;0.0;0.00071997778;7.2561641
  3.1999794E-01;  9.9999998E-03; -4.0000014E-02;1538;-0.0030211611;0.0;-1.2906987e-05;1000.028;  4.0000001E-01;23.110449;3;-3.040113;0.0;-0.0030737373;0;-0.030959392;  1.0000572E+04;  0.0000000E+00; -1.1308884E-11;  1.0000000E+04;  0.0000000E+00;  9.9999893E+03;-0.031543214;0.0;0.00058382202;6.5724306
  3.1999794E-01;  9.9999998E-03; -2.0000007E-02;1539;-0.003011157;0.0;-5.9090785e-06;1000.0279;  4.0000001E-01;23.110449;3;-3.0233984;0.0;-0.00069645495;0;-0.030885125;  1.0000570E+04;  0.0000000E+00;  1.3054635E-11;  1.0000000E+04;  0.0000000E+00;  9.9999902E+03;-0.03139244;0.0;0.00050731527;6.1951008
  3.3999723E-01;  9.9999998E-03; -1.8000019E-01;1562;-0.0040350799;0.0;-0.00027296561;1000.035;  4.0000001E-01;29.036203;3;-4.1016846;0.0;-0.27277038;0;-0.038522251;  1.0000775E+04;  0.0000000E+00; -3.1301941E-09;  1.0000000E+04;  0.0000000E+00;  9.9999258E+03;-0.043285526;0.0;0.0047632735;32.304821
  3.3999726E-01;  9.9999998E-03; -1.6000015E-01;1563;-0.0039891414;0.0;-0.00019461031;1000.0354;  4.0000001E-01;29.332491;3;-4.0232668;0.0;-0.18582383;0;-0.038734645;  1.0000765E+04;  0.0000000E+00; -4.4810261E-10;  1.0000000E+04;  0.0000000E+00;  9.9999443E+03;-0.042330001;0.0;0.0035953554;24.893261
  3.3999726E-01;  9.9999998E-03; -1.4000010E-01;1564;-0.003935914;0.0;-0.00013600707;1000.0356;  4.0000001E-01;29.431253;3;-3.939409;0.0;-0.1202093;0;-0.038707059;  1.0000753E+04;  0.0000000E+00;  4.6657109E-11;  1.0000000E+04;  0.0000000E+00;  9.9999580E+03;-0.041376427;0.0;0.0026693689;19.259438
  3.3999729E-01;  9.9999998E-03; -1.2000008E-01;1565;-0.0038826643;0.0;-9.3027149e-05;1000.0356;  4.0000001E-01;29.431253;3;-3.8576589;0.0;-0.071917735;0;-0.038512044;  1.0000742E+04;  0.0000000E+00; -6.0645960E-11;  1.0000000E+04;  0.0000000E+00;  9.9999688E+03;-0.04049509;0.0;0.0019830465;15.265751
  3.3999732E-01;  9.9999998E-03; -1.0000005E-01;1566;-0.0038339677;0.0;-6.2391686e-05;1000.0355;  4.0000001E-01;29.332491;3;-3.7831223;0.0;-0.039901778;0;-0.038248617;  1.0000732E+04;  0.0000000E+00; -1.8141974E-10;  1.0000000E+04;  0.0000000E+00;  9.9999756E+03;-0.039732244;0.0;0.0014836267;12.474134
  3.3999732E-01;  9.9999998E-03; -8.0000043E-02;1567;-0.0037927658;0.0;-4.0699084e-05;1000.0354;  4.0000001E-01;29.332491;3;-3.7192845;0.0;-0.018435473;0;-0.0379823;  1.0000726E+04;  0.0000000E+00; -7.2837680E-11;  1.0000000E+04;  0.0000000E+00;  9.9999814E+03;-0.039111391;0.0;0.0011290915;10.55794
  3.3999735E-01;  9.9999998E-03; -6.0000028E-02;1568;-0.0037604843;0.0;-2.5715686e-05;1000.0353;  4.0000001E-01;29.233728;3;-3.6685848;0.0;-0.0065513602;0;-0.037751202;  1.0000719E+04;  0.0000000E+00; -4.9646412E-11;  1.0000000E+04;  0.0000000E+00;  9.9999844E+03;-0.038638845;0.0;0.00088764192;9.2883701
  3.3999735E-01;  9.9999998E-03; -4.0000018E-02;1569;-0.0037375409;0.0;-1.5045296e-05;1000.0351;  4.0000001E-01;29.036203;3;-3.6320682;0.0;-0.0011481534;0;-0.037576187;  1.0000715E+04;  0.0000000E+00; -5.3031649E-11;  1.0000000E+04;  0.0000000E+00;  9.9999863E+03;-0.038310397;0.0;0.00073421001;8.498806
  3.3999735E-01;  9.9999998E-03; -2.0000009E-02;1570;-0.0037238819;0.0;-6.9292587e-06;1000.0351;  4.0000001E-01;29.036203;3;-3.6100667;0.0;0.00041277058;0;-0.037468009;  1.0000714E+04;  0.0000000E+00; -2.8154800E-11;  1.0000000E+04;  0.0000000E+00;  9.9999873E+03;-0.038118027;0.0;0.00065002014;8.0722027
  3.5999644E-01;  9.9999998E-03; -1.8000023E-01;1593;-0.0050359168;0.0;-0.00032556223;1000.0442;  4.0000001E-01;36.640919;3;-4.952898;0.0;-0.31803897;0;-0.047105845;  1.0000979E+04;  0.0000000E+00; -3.9677102E-09;  1.0000000E+04;  0.0000000E+00;  9.9999063E+03;-0.052968659;0.0;0.0058628134;40.914124
  3.5999647E-01;  9.9999998E-03; -1.6000018E-01;1594;-0.0049622934;0.0;-0.00022984162;1000.0444;  4.0000001E-01;36.739681;3;-4.8416824;0.0;-0.21181765;0;-0.04724472;  1.0000961E+04;  0.0000000E+00; -1.9598619E-10;  1.0000000E+04;  0.0000000E+00;  9.9999297E+03;-0.05162704;0.0;0.0043823193;31.301771
  3.5999650E-01;  9.9999998E-03; -1.4000012E-01;1595;-0.0048826844;0.0;-0.00015902563;1000.0446;  4.0000001E-01;36.937206;3;-4.7262235;0.0;-0.13325837;0;-0.047093775;  1.0000943E+04;  0.0000000E+00; -1.5232021E-10;  1.0000000E+04;  0.0000000E+00;  9.9999473E+03;-0.050320178;0.0;0.0032264031;24.128561
  3.5999656E-01;  9.9999998E-03; -1.2000009E-01;1596;-0.0048057078;0.0;-0.00010893922;1000.0444;  4.0000001E-01;36.838444;3;-4.6153359;0.0;-0.077139109;0;-0.046748679;  1.0000929E+04;  0.0000000E+00; -2.2852152E-11;  1.0000000E+04;  0.0000000E+00;  9.9999609E+03;-0.049137626;0.0;0.002388946;19.161566
  3.5999656E-01;  9.9999998E-03; -1.0000007E-01;1597;-0.0047372985;0.0;-7.3582225e-05;1000.0442;  4.0000001E-01;36.640919;3;-4.5157404;0.0;-0.040784169;0;-0.046336468;  1.0000916E+04;  0.0000000E+00; -2.4943683E-10;  1.0000000E+04;  0.0000000E+00;  9.9999697E+03;-0.048133351;0.0;0.0017968825;15.77634
  3.5999659E-01;  9.9999998E-03; -8.0000050E-02;1598;-0.0046804552;0.0;-4.8969352e-05;1000.0441;  4.0000001E-01;36.542156;3;-4.4314008;0.0;-0.017497528;0;-0.045939524;  1.0000905E+04;  0.0000000E+00; -9.0918897E-11;  1.0000000E+04;  0.0000000E+00;  9.9999756E+03;-0.047329962;0.0;0.0013904403;13.512705
  3.5999662E-01;  9.9999998E-03; -6.0000036E-02;1599;-0.0046365871;0.0;-3.1664167e-05;1000.0439;  4.0000001E-01;36.44339;3;-4.364954;0.0;-0.00496434;0;-0.04560411;  1.0000898E+04;  0.0000000E+00; -1.1889440E-11;  1.0000000E+04;  0.0000000E+00;  9.9999785E+03;-0.046727721;0.0;0.00112361;12.05272
  3.5999662E-01;  9.9999998E-03; -4.0000021E-02;1600;-0.0046057324;0.0;-1.9038016e-05;1000.0438;  4.0000001E-01;36.344627;3;-4.3173966;0.0;0.0001316626;0;-0.045354243;  1.0000895E+04;  0.0000000E+00;  7.6888468E-11;  1.0000000E+04;  0.0000000E+00;  9.9999814E+03;-0.046314422;0.0;0.00096017733;11.168269
  3.5999665E-01;  9.9999998E-03; -2.0000011E-02;1601;-0.0045875045;0.0;-8.9333598e-06;1000.0438;  4.0000001E-01;36.245865;3;-4.2888737;0.0;0.0011413445;0;-0.045201279;  1.0000892E+04;  0.0000000E+00; -4.3690329E-11;  1.0000000E+04;  0.0000000E+00;  9.9999824E+03;-0.046074566;0.0;0.00087328797;10.700925
  3.7999547E-01;  9.9999998E-03; -1.8000029E-01;1624;-0.0062559485;0.0;-0.00038438945;1000.0555;  4.0000001E-01;45.924591;3;-5.9498329;0.0;-0.36094829;0;-0.057386026;  1.0001225E+04;  0.0000000E+00; -3.7882351E-09;  1.0000000E+04;  0.0000000E+00;  9.9998838E+03;-0.064475909;0.0;0.0070898826;51.166466
  3.7999550E-01;  9.9999998E-03; -1.6000022E-01;1625;-0.0061443066;0.0;-0.00027192943;1000.0557;  4.0000001E-01;46.122116;3;-5.7972279;0.0;-0.24018131;0;-0.057369556;  1.0001200E+04;  0.0000000E+00; -3.3536435E-10;  1.0000000E+04;  0.0000000E+00;  9.9999141E+03;-0.062626243;0.0;0.0052566864;39.008926
  3.7999555E-01;  9.9999998E-03; -1.4000016E-01;1626;-0.0060292729;0.0;-0.00018862871;1000.0557;  4.0000001E-01;46.122116;3;-5.6415687;0.0;-0.14759541;0;-0.05701359;  1.0001178E+04;  0.0000000E+00; -2.4590446E-10;  1.0000000E+04;  0.0000000E+00;  9.9999355E+03;-0.060869876;0.0;0.003856285;30.137117
  3.7999561E-01;  9.9999998E-03; -1.2000012E-01;1627;-0.0059211119;0.0;-0.00013169082;1000.0554;  4.0000001E-01;45.825829;3;-5.4936919;0.0;-0.085014753;0;-0.056443874;  1.0001156E+04;  0.0000000E+00; -7.2719386E-10;  1.0000000E+04;  0.0000000E+00;  9.9999512E+03;-0.059314888;0.0;0.0028710139;24.15082
  3.7999564E-01;  9.9999998E-03; -1.0000009E-01;1628;-0.0058273324;0.0;-9.1410722e-05;1000.0551;  4.0000001E-01;45.628304;3;-5.3627129;0.0;-0.044385184;0;-0.055821676;  1.0001140E+04;  0.0000000E+00; -3.4101330E-10;  1.0000000E+04;  0.0000000E+00;  9.9999609E+03;-0.058019675;0.0;0.0021979986;20.168512
  3.7999567E-01;  9.9999998E-03; -8.0000065E-02;1629;-0.0057507926;0.0;-6.3424006e-05;1000.0547;  4.0000001E-01;45.332016;3;-5.2529898;0.0;-0.019878006;0;-0.055247918;  1.0001128E+04;  0.0000000E+00; -1.8402167E-10;  1.0000000E+04;  0.0000000E+00;  9.9999678E+03;-0.057001673;0.0;0.0017537565;17.563883
  3.7999570E-01;  9.9999998E-03; -6.0000047E-02;1630;-0.0056925663;0.0;-4.2832435e-05;1000.0546;  4.0000001E-01;45.233253;3;-5.1672463;0.0;-0.0065103839;0;-0.054775633;  1.0001119E+04;  0.0000000E+00;  1.3866251E-10;  1.0000000E+04;  0.0000000E+00;  9.9999717E+03;-0.056250419;0.0;0.001474785;15.9196
  3.7999570E-01;  9.9999998E-03; -4.0000033E-02;1631;-0.0056520551;0.0;-2.6773005e-05;1000.0544;  4.0000001E-01;45.134491;3;-5.1062737;0.0;-0.00097749394;0;-0.054429792;  1.0001112E+04;  0.0000000E+00; -1.1143535E-10;  1.0000000E+04;  0.0000000E+00;  9.9999746E+03;-0.055741679;0.0;0.0013118883;14.944615
  3.7999573E-01;  9.9999998E-03; -2.0000016E-02;1632;-0.0056282971;0.0;-1.2916785e-05;1000.0542;  4.0000001E-01;44.936966;3;-5.0698743;0.0;0.00052355678;0;-0.054220293;  1.0001108E+04;  0.0000000E+00; -1.4746314E-11;  1.0000000E+04;  0.0000000E+00;  9.9999756E+03;-0.055449311;0.0;0.0012290179;14.439194
  3.9999419E-01;  9.9999998E-03; -1.8000036E-01;1655;-0.0077318647;0.0;-0.00045546092;1000.0695;  4.0000001E-01;57.578564;3;-7.1111836;0.0;-0.40811446;0;-0.0696069;  1.0001529E+04;  0.0000000E+00; -4.1847348E-09;  1.0000000E+04;  0.0000000E+00;  9.9998574E+03;-0.078047171;0.0;0.0084402673;63.416561
  3.9999428E-01;  9.9999998E-03; -1.6000026E-01;1656;-0.0075683938;0.0;-0.00032612763;1000.0695;  4.0000001E-01;57.578564;3;-6.9050026;0.0;-0.27142727;0;-0.069315657;  1.0001493E+04;  0.0000000E+00; -4.0440729E-10;  1.0000000E+04;  0.0000000E+00;  9.9998945E+03;-0.075546913;0.0;0.0062312591;48.452423
  3.9999437E-01;  9.9999998E-03; -1.4000021E-01;1657;-0.0074060438;0.0;-0.00023172014;1000.0692;  4.0000001E-01;57.282276;3;-6.697854;0.0;-0.16770312;0;-0.068643145;  1.0001464E+04;  0.0000000E+00; -6.9031464E-10;  1.0000000E+04;  0.0000000E+00;  9.9999209E+03;-0.073234767;0.0;0.0045916243;37.807526
  3.9999443E-01;  9.9999998E-03; -1.2000016E-01;1658;-0.0072577903;0.0;-0.00016777942;1000.0687;  4.0000001E-01;56.887222;3;-6.5039759;0.0;-0.10002028;0;-0.067753084;  1.0001436E+04;  0.0000000E+00; -7.2054490E-10;  1.0000000E+04;  0.0000000E+00;  9.9999385E+03;-0.071232513;0.0;0.0034794286;30.810946
  3.9999449E-01;  9.9999998E-03; -1.0000012E-01;1659;-0.0071320003;0.0;-0.00012256105;1000.0682;  4.0000001E-01;56.492172;3;-6.3343973;0.0;-0.056815673;0;-0.066847004;  1.0001413E+04;  0.0000000E+00; -7.0582173E-10;  1.0000000E+04;  0.0000000E+00;  9.9999482E+03;-0.069596685;0.0;0.002749684;26.243759
  3.9999455E-01;  9.9999998E-03; -8.0000095E-02;1660;-0.0070312773;0.0;-8.9610796e-05;1000.0677;  4.0000001E-01;56.097122;3;-6.193851;0.0;-0.030479383;0;-0.066044033;  1.0001399E+04;  0.0000000E+00; -1.3766846E-10;  1.0000000E+04;  0.0000000E+00;  9.9999561E+03;-0.068333223;0.0;0.0022891937;23.290379
  3.9999458E-01;  9.9999998E-03; -6.0000069E-02;1661;-0.0069557684;0.0;-6.3700092e-05;1000.0674;  4.0000001E-01;55.899597;3;-6.0850015;0.0;-0.015527149;0;-0.0654006;  1.0001387E+04;  0.0000000E+00; -6.0985217E-11;  1.0000000E+04;  0.0000000E+00;  9.9999609E+03;-0.067415506;0.0;0.0020149052;21.438948
  3.9999458E-01;  9.9999998E-03; -4.0000044E-02;1662;-0.0069038495;0.0;-4.136606e-05;1000.0671;  4.0000001E-01;55.60331;3;-6.0081372;0.0;-0.0075925058;0;-0.064938039;  1.0001380E+04;  0.0000000E+00;  9.3859698E-11;  1.0000000E+04;  0.0000000E+00;  9.9999648E+03;-0.066802412;0.0;0.0018643738;20.347834
  3.9999461E-01;  9.9999998E-03; -2.0000022E-02;1663;-0.0068736412;0.0;-2.0455493e-05;1000.0671;  4.0000001E-01;55.60331;3;-5.9624825;0.0;-0.0030080997;0;-0.06466116;  1.0001376E+04;  0.0000000E+00;  1.0104319E-10;  1.0000000E+04;  0.0000000E+00;  9.9999658E+03;-0.066453673;0.0;0.001792512;19.785604
  4.1999266E-01;  9.9999998E-03; -1.8000045E-01;1686;-0.0095035937;0.0;-0.00055000698;1000.0863;  4.0000001E-01;71.504059;3;-8.4530592;0.0;-0.46561298;0;-0.083984874;  1.0001899E+04;  0.0000000E+00; -1.4301561E-09;  1.0000000E+04;  0.0000000E+00;  9.9998262E+03;-0.093906984;0.0;0.0099221105;78.322678
  4.1999277E-01;  9.9999998E-03; -1.6000035E-01;1687;-0.0092699444;0.0;-0.00040488882;1000.0861;  4.0000001E-01;71.306534;3;-8.1775236;0.0;-0.31417498;0;-0.083254218;  1.0001851E+04;  0.0000000E+00;  1.0450797E-09;  1.0000000E+04;  0.0000000E+00;  9.9998701E+03;-0.090602078;0.0;0.0073478576;60.434799
  4.1999289E-01;  9.9999998E-03; -1.4000027E-01;1688;-0.0090457369;0.0;-0.00030087799;1000.0856;  4.0000001E-01;70.911484;3;-7.9062247;0.0;-0.20307109;0;-0.082121737;  1.0001809E+04;  0.0000000E+00; -6.2564648E-10;  1.0000000E+04;  0.0000000E+00;  9.9998994E+03;-0.087626658;0.0;0.0055049183;48.049217
  4.1999298E-01;  9.9999998E-03; -1.2000022E-01;1689;-0.008846594;0.0;-0.00022927218;1000.0847;  4.0000001E-01;70.220146;3;-7.6558909;0.0;-0.13195799;0;-0.080796883;  1.0001774E+04;  0.0000000E+00; -6.8274048E-10;  1.0000000E+04;  0.0000000E+00;  9.9999199E+03;-0.085105456;0.0;0.0043085702;40.089043
  4.1999307E-01;  9.9999998E-03; -1.0000017E-01;1690;-0.0086812796;0.0;-0.0001774984;1000.084;  4.0000001E-01;69.627571;3;-7.4397025;0.0;-0.087745734;0;-0.079525635;  1.0001748E+04;  0.0000000E+00; -4.7438120E-10;  1.0000000E+04;  0.0000000E+00;  9.9999336E+03;-0.083083645;0.0;0.0035580134;34.921741
  4.1999313E-01;  9.9999998E-03; -8.0000140E-02;1691;-0.0085514812;0.0;-0.00013636459;1000.0834;  4.0000001E-01;69.034996;3;-7.2625318;0.0;-0.057906646;0;-0.07844124;  1.0001728E+04;  0.0000000E+00; -5.6117760E-10;  1.0000000E+04;  0.0000000E+00;  9.9999385E+03;-0.081547648;0.0;0.0031064088;31.545439
  4.1999319E-01;  9.9999998E-03; -6.0000103E-02;1692;-0.0084557468;0.0;-0.00010096297;1000.0828;  4.0000001E-01;68.639946;3;-7.1267648;0.0;-0.038772877;0;-0.077596471;  1.0001713E+04;  0.0000000E+00; -1.9861082E-10;  1.0000000E+04;  0.0000000E+00;  9.9999453E+03;-0.080448791;0.0;0.0028523209;29.385798
  4.1999319E-01;  9.9999998E-03; -4.0000066E-02;1693;-0.0083907442;0.0;-6.736652e-05;1000.0825;  4.0000001E-01;68.343658;3;-7.0315943;0.0;-0.024423607;0;-0.077001572;  1.0001702E+04;  0.0000000E+00; -1.6583092E-10;  1.0000000E+04;  0.0000000E+00;  9.9999473E+03;-0.079724386;0.0;0.0027228182;28.084028
  4.1999322E-01;  9.9999998E-03; -2.0000033E-02;1694;-0.0083532538;0.0;-3.38301e-05;1000.0823;  4.0000001E-01;68.146133;3;-6.9753489;0.0;-0.011862099;0;-0.07665024;  1.0001698E+04;  0.0000000E+00; -1.1231318E-11;  1.0000000E+04;  0.0000000E+00;  9.9999492E+03;-0.07931643;0.0;0.0026661921;27.400236
  4.3999076E-01;  9.9999998E-03; -1.8000059E-01;1717;-0.011617911;0.0;-0.00068880979;1000.1064;  4.0000001E-01;88.09613;3;-9.9905605;0.0;-0.5449326;0;-0.10062975;  1.0002345E+04;  0.0000000E+00;  4.5804702E-09;  1.0000000E+04;  0.0000000E+00;  9.9997881E+03;-0.11221422;0.0;0.011584461;97.14547
  4.3999094E-01;  9.9999998E-03; -1.6000047E-01;1718;-0.011291618;0.0;-0.00052970828;1000.1058;  4.0000001E-01;87.602318;3;-9.6280546;0.0;-0.38535312;0;-0.099247687;  1.0002280E+04;  0.0000000E+00;  4.9410178E-09;  1.0000000E+04;  0.0000000E+00;  9.9998369E+03;-0.1079543;0.0;0.0087066144;76.367126
  4.3999109E-01;  9.9999998E-03; -1.4000039E-01;1719;-0.010987549;0.0;-0.00041672282;1000.1046;  4.0000001E-01;86.713455;3;-9.2763958;0.0;-0.27055049;0;-0.097484782;  1.0002224E+04;  0.0000000E+00;  3.8992303E-09;  1.0000000E+04;  0.0000000E+00;  9.9998701E+03;-0.10421988;0.0;0.0067350902;62.346973
  4.3999124E-01;  9.9999998E-03; -1.2000032E-01;1720;-0.010724997;0.0;-0.00033478145;1000.1036;  4.0000001E-01;85.824593;3;-8.9578867;0.0;-0.19734965;0;-0.09560208;  1.0002182E+04;  0.0000000E+00;  2.2116378E-09;  1.0000000E+04;  0.0000000E+00;  9.9998916E+03;-0.10112065;0.0;0.0055185696;53.438263
  4.3999133E-01;  9.9999998E-03; -1.0000025E-01;1721;-0.01051172;0.0;-0.00027144307;1000.1025;  4.0000001E-01;84.93573;3;-8.6866045;0.0;-0.15092407;0;-0.093888409;  1.0002146E+04;  0.0000000E+00;  9.9692654E-10;  1.0000000E+04;  0.0000000E+00;  9.9999063E+03;-0.098676592;0.0;0.0047881845;47.540112
  4.3999141E-01;  9.9999998E-03; -8.0000199E-02;1722;-0.010347719;0.0;-0.00021621122;1000.1019;  4.0000001E-01;84.441917;3;-8.4673262;0.0;-0.11484721;0;-0.092482269;  1.0002121E+04;  0.0000000E+00;  9.8166952E-10;  1.0000000E+04;  0.0000000E+00;  9.9999160E+03;-0.096847177;0.0;0.0043649045;43.511868
  4.3999147E-01;  9.9999998E-03; -6.0000151E-02;1723;-0.010228843;0.0;-0.00016398047;1000.1013;  4.0000001E-01;83.849342;3;-8.3010902;0.0;-0.08608181;0;-0.091419905;  1.0002104E+04;  0.0000000E+00;  4.8459525E-10;  1.0000000E+04;  0.0000000E+00;  9.9999238E+03;-0.095555753;0.0;0.0041358438;40.78854
  4.3999150E-01;  9.9999998E-03; -4.0000100E-02;1724;-0.010149234;0.0;-0.00011096754;1000.1009;  4.0000001E-01;83.553055;3;-8.1854315;0.0;-0.058334731;0;-0.090689488;  1.0002093E+04;  0.0000000E+00;  7.9591819E-11;  1.0000000E+04;  0.0000000E+00;  9.9999248E+03;-0.094714589;0.0;0.0040251007;39.055191
  4.3999153E-01;  9.9999998E-03; -2.0000052E-02;1725;-0.010103764;0.0;-5.6126821e-05;1000.1006;  4.0000001E-01;83.35553;3;-8.1174936;0.0;-0.02957179;0;-0.090265393;  1.0002087E+04;  0.0000000E+00; -2.6430644E-10;  1.0000000E+04;  0.0000000E+00;  9.9999277E+03;-0.094245501;0.0;0.0039801085;38.103748
  4.5998839E-01;  9.9999998E-03; -1.8000081E-01;1748;-0.014131189;0.0;-0.00090763957;1000.1309;  4.0000030E-01;108.44113;3;-11.736353;0.0;-0.67135513;0;-0.11938485;  1.0002864E+04;  0.0000000E+00;  3.6342225E-08;  1.0000000E+04;  0.0000000E+00;  9.9997334E+03;-0.13294886;0.0;0.013564011;122.18731
  4.5998865E-01;  9.9999998E-03; -1.6000068E-01;1749;-0.013686134;0.0;-0.00073534803;1000.1294;  4.0000030E-01;107.15722;3;-11.266788;0.0;-0.50878602;0;-0.11710294;  1.0002782E+04;  0.0000000E+00;  2.9581683E-08;  1.0000000E+04;  0.0000000E+00;  9.9997900E+03;-0.12760851;0.0;0.010505571;98.556938
  4.5998886E-01;  9.9999998E-03; -1.4000057E-01;1750;-0.013282407;0.0;-0.00061071949;1000.1278;  4.0000036E-01;105.87331;3;-10.817588;0.0;-0.39710265;0;-0.11452813;  1.0002713E+04;  0.0000000E+00;  2.1037579E-08;  1.0000000E+04;  0.0000000E+00;  9.9998281E+03;-0.1230461;0.0;0.0085179685;82.934624
  4.5998904E-01;  9.9999998E-03; -1.2000047E-01;1751;-0.012942741;0.0;-0.0005108075;1000.1262;  4.0000033E-01;104.5894;3;-10.419059;0.0;-0.320824;0;-0.11197429;  1.0002660E+04;  0.0000000E+00;  1.2738167E-08;  1.0000000E+04;  0.0000000E+00;  9.9998516E+03;-0.11933044;0.0;0.0073561519;72.913788
  4.5998919E-01;  9.9999998E-03; -1.0000038E-01;1752;-0.012672585;0.0;-0.00042586174;1000.125;  4.0000027E-01;103.60178;3;-10.084501;0.0;-0.26784006;0;-0.10976497;  1.0002618E+04;  0.0000000E+00;  6.7312476E-09;  1.0000000E+04;  0.0000000E+00;  9.9998682E+03;-0.11644195;0.0;0.0066769761;65.900436
  4.5998928E-01;  9.9999998E-03; -8.0000304E-02;1753;-0.0124691;0.0;-0.00034571401;1000.124;  4.0000027E-01;102.71291;3;-9.8179636;0.0;-0.21979524;0;-0.10802552;  1.0002587E+04;  0.0000000E+00;  2.6890548E-09;  1.0000000E+04;  0.0000000E+00;  9.9998799E+03;-0.11430521;0.0;0.0062796916;60.713547
  4.5998937E-01;  9.9999998E-03; -6.0000226E-02;1754;-0.012324305;0.0;-0.00026483028;1000.1234;  4.0000024E-01;102.2191;3;-9.618351;0.0;-0.1715139;0;-0.10675764;  1.0002566E+04;  0.0000000E+00;  1.0964711E-09;  1.0000000E+04;  0.0000000E+00;  9.9998867E+03;-0.11281309;0.0;0.0060554524;56.916771
  4.5998940E-01;  9.9999998E-03; -4.0000152E-02;1755;-0.012228808;0.0;-0.00018013996;1000.1229;  4.0000030E-01;101.82405;3;-9.4807301;0.0;-0.11916695;0;-0.10591123;  1.0002554E+04;  0.0000000E+00;  4.1334874E-10;  1.0000000E+04;  0.0000000E+00;  9.9998926E+03;-0.11185046;0.0;0.0059392313;54.331024
  4.5998943E-01;  9.9999998E-03; -2.0000076E-02;1756;-0.01217485;0.0;-9.1294656e-05;1000.1227;  4.0000033E-01;101.72529;3;-9.4003382;0.0;-0.06105404;0;-0.10543024;  1.0002546E+04;  0.0000000E+00; -1.3800798E-10;  1.0000000E+04;  0.0000000E+00;  9.9998955E+03;-0.11131781;0.0;0.0058875671;52.839478
  4.7998545E-01;  9.9999998E-03; -1.8000115E-01;1779;-0.017110281;0.0;-0.0012598203;1000.1583;  4.0000099E-01;131.15639;3;-13.705698;0.0;-0.87685305;0;-0.13957286;  1.0003464E+04;  0.0000000E+00;  1.4959294E-07;  1.0000000E+04;  0.0000000E+00;  9.9996592E+03;-0.15572031;0.0;0.016147453;157.3909
  4.7998580E-01;  9.9999998E-03; -1.6000099E-01;1780;-0.016518088;0.0;-0.0010741815;1000.1564;  4.0000099E-01;129.57619;3;-13.103261;0.0;-0.72400355;0;-0.13613707;  1.0003359E+04;  0.0000000E+00;  1.1451208E-07;  1.0000000E+04;  0.0000000E+00;  9.9997256E+03;-0.14922018;0.0;0.013083109;130.50256
  4.7998613E-01;  9.9999998E-03; -1.4000084E-01;1781;-0.01599508;0.0;-0.00092606794;1000.1541;  4.0000093E-01;127.69971;3;-12.540436;0.0;-0.61733425;0;-0.132587;  1.0003274E+04;  0.0000000E+00;  8.1188048E-08;  1.0000000E+04;  0.0000000E+00;  9.9997656E+03;-0.14379866;0.0;0.011211663;112.89478
  4.7998637E-01;  9.9999998E-03; -1.2000070E-01;1782;-0.015564065;0.0;-0.00079360273;1000.1521;  4.0000090E-01;126.02074;3;-12.050137;0.0;-0.53797382;0;-0.12928712;  1.0003208E+04;  0.0000000E+00;  4.7791801E-08;  1.0000000E+04;  0.0000000E+00;  9.9997930E+03;-0.13945431;0.0;0.010167181;101.17029
  4.7998655E-01;  9.9999998E-03; -1.0000057E-01;1783;-0.015228265;0.0;-0.00066870981;1000.1506;  4.0000093E-01;124.8356;3;-11.645241;0.0;-0.46755379;0;-0.12657756;  1.0003159E+04;  0.0000000E+00;  2.2254852E-08;  1.0000000E+04;  0.0000000E+00;  9.9998105E+03;-0.13611321;0.0;0.0095356526;92.216995
  4.7998667E-01;  9.9999998E-03; -8.0000453E-02;1784;-0.014980286;0.0;-0.00054455944;1000.1495;  4.0000093E-01;123.84798;3;-11.327643;0.0;-0.39264664;0;-0.12454361;  1.0003122E+04;  0.0000000E+00;  8.1322344E-09;  1.0000000E+04;  0.0000000E+00;  9.9998242E+03;-0.13366134;0.0;0.0091177309;84.944221
  4.7998676E-01;  9.9999998E-03; -6.0000338E-02;1785;-0.014807003;0.0;-0.00041666874;1000.149;  4.0000096E-01;123.45293;3;-11.092601;0.0;-0.308893;0;-0.12312633;  1.0003098E+04;  0.0000000E+00;  2.1367881E-09;  1.0000000E+04;  0.0000000E+00;  9.9998369E+03;-0.13196075;0.0;0.0088344179;79.198227
  4.7998679E-01;  9.9999998E-03; -4.0000223E-02;1786;-0.014694543;0.0;-0.00028261499;1000.1485;  4.0000093E-01;123.05788;3;-10.932055;0.0;-0.21421939;0;-0.12221775;  1.0003080E+04;  0.0000000E+00;  7.1361406E-10;  1.0000000E+04;  0.0000000E+00;  9.9998457E+03;-0.1308706;0.0;0.0086528426;75.059143
  4.7998682E-01;  9.9999998E-03; -2.0000113E-02;1787;-0.014631729;0.0;-0.00014295295;1000.1482;  4.0000090E-01;122.76159;3;-10.838838;0.0;-0.10998509;0;-0.12171707;  1.0003072E+04;  0.0000000E+00; -1.2962650E-10;  1.0000000E+04;  0.0000000E+00;  9.9998516E+03;-0.13027036;0.0;0.0085532935;72.579788
  4.9998185E-01;  9.9999998E-03; -1.8000171E-01;1810;-0.020621596;0.0;-0.0018325928;1000.1883;  4.0000206E-01;156.04434;3;-15.905669;0.0;-1.2321222;0;-0.15967385;  1.0004112E+04;  0.0000000E+00;  4.4645827E-07;  1.0000000E+04;  0.0000000E+00;  9.9995527E+03;-0.17952006;0.0;0.019846205;209.23004
  4.9998233E-01;  9.9999998E-03; -1.6000147E-01;1811;-0.019856954;0.0;-0.0016177646;1000.1855;  4.0000212E-01;153.67406;3;-15.144767;0.0;-1.0907379;0;-0.15488921;  1.0003984E+04;  0.0000000E+00;  3.6149390E-07;  1.0000000E+04;  0.0000000E+00;  9.9996240E+03;-0.17184463;0.0;0.016955426;177.22948
  4.9998271E-01;  9.9999998E-03; -1.4000125E-01;1812;-0.01919681;0.0;-0.0014217815;1000.1827;  4.0000206E-01;151.40253;3;-14.454268;0.0;-0.98916221;0;-0.15026683;  1.0003882E+04;  0.0000000E+00;  2.6539951E-07;  1.0000000E+04;  0.0000000E+00;  9.9996699E+03;-0.16557431;0.0;0.01530748;156.18053
  4.9998301E-01;  9.9999998E-03; -1.2000103E-01;1813;-0.018661883;0.0;-0.0012261994;1000.1804;  4.0000209E-01;149.42728;3;-13.863898;0.0;-0.89364123;0;-0.14622021;  1.0003804E+04;  0.0000000E+00;  1.5290422E-07;  1.0000000E+04;  0.0000000E+00;  9.9997012E+03;-0.16061236;0.0;0.014392146;141.34641
  4.9998325E-01;  9.9999998E-03; -1.0000084E-01;1814;-0.018252274;0.0;-0.001029711;1000.1788;  4.0000209E-01;148.14337;3;-13.383841;0.0;-0.78342247;0;-0.14308184;  1.0003744E+04;  0.0000000E+00;  7.1314410E-08;  1.0000000E+04;  0.0000000E+00;  9.9997275E+03;-0.1568203;0.0;0.013738454;128.9614
  4.9998340E-01;  9.9999998E-03; -8.0000661E-02;1815;-0.017955381;0.0;-0.0008327621;1000.1777;  4.0000200E-01;147.15575;3;-13.013656;0.0;-0.65924823;0;-0.14086357;  1.0003701E+04;  0.0000000E+00;  2.7141944E-08;  1.0000000E+04;  0.0000000E+00;  9.9997520E+03;-0.15404615;0.0;0.013182585;118.10316
  4.9998352E-01;  9.9999998E-03; -6.0000487E-02;1816;-0.017751561;0.0;-0.00063205714;1000.1772;  4.0000203E-01;146.85945;3;-12.742702;0.0;-0.5165866;0;-0.13941385;  1.0003673E+04;  0.0000000E+00;  7.2300130E-09;  1.0000000E+04;  0.0000000E+00;  9.9997705E+03;-0.15212564;0.0;0.012711798;109.05573
  4.9998358E-01;  9.9999998E-03; -4.0000323E-02;1817;-0.017621316;0.0;-0.00042590662;1000.1769;  4.0000212E-01;146.56317;3;-12.559031;0.0;-0.35585979;0;-0.13854237;  1.0003653E+04;  0.0000000E+00;  2.0377777E-09;  1.0000000E+04;  0.0000000E+00;  9.9997861E+03;-0.15089644;0.0;0.012354078;102.30044
  4.9998361E-01;  9.9999998E-03; -2.0000162E-02;1818;-0.017549438;0.0;-0.00021460489;1000.1771;  4.0000215E-01;146.7607;3;-12.452835;0.0;-0.18134983;0;-0.13808757;  1.0003644E+04;  0.0000000E+00; -1.9025739E-10;  1.0000000E+04;  0.0000000E+00;  9.9997939E+03;-0.15022065;0.0;0.012133082;98.160431
  5.1997745E-01;  9.9999998E-03; -1.8000253E-01;1841;-0.024715308;0.0;-0.0027337787;1000.222;  4.0000585E-01;183.89505;3;-18.327198;0.0;-1.7999648;0;-0.17698811;  1.0004765E+04;  0.0000000E+00;  1.0053407E-06;  1.0000000E+04;  0.0000000E+00;  9.9993818E+03;-0.20248687;0.0;0.025498768;288.24167
  5.1997805E-01;  9.9999998E-03; -1.6000217E-01;1842;-0.023761619;0.0;-0.0024558676;1000.2189;  4.0000597E-01;181.42599;3;-17.395508;0.0;-1.6868287;0;-0.17085719;  1.0004610E+04;  0.0000000E+00;  8.9534882E-07;  1.0000000E+04;  0.0000000E+00;  9.9994736E+03;-0.19371277;0.0;0.022855576;245.95657
  5.1997858E-01;  9.9999998E-03; -1.4000183E-01;1843;-0.022950357;0.0;-0.0021640174;1000.2159;  4.0000585E-01;178.85818;3;-16.570309;0.0;-1.5756067;0;-0.16522309;  1.0004489E+04;  0.0000000E+00;  6.9112946E-07;  1.0000000E+04;  0.0000000E+00;  9.9995342E+03;-0.18664926;0.0;0.021426167;217.70721
  5.1997894E-01;  9.9999998E-03; -1.2000151E-01;1844;-0.022300651;0.0;-0.0018553237;1000.2134;  4.0000594E-01;176.78418;3;-15.874735;0.0;-1.431873;0;-0.16055559;  1.0004396E+04;  0.0000000E+00;  4.1492586E-07;  1.0000000E+04;  0.0000000E+00;  9.9995752E+03;-0.18109924;0.0;0.020543654;196.91884
  5.1997924E-01;  9.9999998E-03; -1.0000122E-01;1845;-0.021809792;0.0;-0.0015434693;1000.2119;  4.0000594E-01;175.59903;3;-15.317689;0.0;-1.2515073;0;-0.15716626;  1.0004327E+04;  0.0000000E+00;  2.0255949E-07;  1.0000000E+04;  0.0000000E+00;  9.9996152E+03;-0.17686146;0.0;0.019695209;178.6512
  5.1997942E-01;  9.9999998E-03; -8.0000937E-02;1846;-0.021459199;0.0;-0.0012343526;1000.211;  4.0000591E-01;174.80893;3;-14.893421;0.0;-1.0389227;0;-0.15496466;  1.0004275E+04;  0.0000000E+00;  8.0302364E-08;  1.0000000E+04;  0.0000000E+00;  9.9996514E+03;-0.17375296;0.0;0.018788304;161.98346
  5.1997954E-01;  9.9999998E-03; -6.0000688E-02;1847;-0.021222033;0.0;-0.00092826941;1000.2109;  4.0000597E-01;174.71017;3;-14.583871;0.0;-0.80758226;0;-0.15367422;  1.0004243E+04;  0.0000000E+00;  2.6034009E-08;  1.0000000E+04;  0.0000000E+00;  9.9996826E+03;-0.17159179;0.0;0.017917575;147.70064
  5.1997960E-01;  9.9999998E-03; -4.0000454E-02;1848;-0.021073056;0.0;-0.00062049972;1000.2109;  4.0000591E-01;174.71017;3;-14.376038;0.0;-0.55269492;0;-0.15299504;  1.0004221E+04;  0.0000000E+00;  6.4796537E-09;  1.0000000E+04;  0.0000000E+00;  9.9997070E+03;-0.17020237;0.0;0.017207343;136.82394
  5.1997966E-01;  9.9999998E-03; -2.0000225E-02;1849;-0.020991845;0.0;-0.00031118252;1000.2112;  4.0000591E-01;175.00645;3;-14.256556;0.0;-0.28130984;0;-0.15268609;  1.0004209E+04;  0.0000000E+00;  8.6162932E-10;  1.0000000E+04;  0.0000000E+00;  9.9997197E+03;-0.16943565;0.0;0.016749557;130.07069
  5.3997231E-01;  9.9999998E-03; -1.8000372E-01;1872;-0.029397683;0.0;-0.0040934221;1000.2614;  4.0001553E-01;216.5849;3;-20.952736;0.0;-2.7180958;0;-0.18738969;  1.0005336E+04;  0.0000000E+00;  1.6133282E-06;  1.0000000E+04;  0.0000000E+00;  9.9991133E+03;-0.22177523;0.0;0.034385543;410.94943
  5.3997302E-01;  9.9999998E-03; -1.6000319E-01;1873;-0.028248664;0.0;-0.0036714694;1000.2593;  4.0001556E-01;214.80719;3;-19.847052;0.0;-2.6115394;0;-0.18032113;  1.0005158E+04;  0.0000000E+00;  1.6451239E-06;  1.0000000E+04;  0.0000000E+00;  9.9992490E+03;-0.21211468;0.0;0.031793546;347.28082
  5.3997362E-01;  9.9999998E-03; -1.4000265E-01;1874;-0.027278984;0.0;-0.0031993142;1000.2568;  4.0001550E-01;212.73318;3;-18.885223;0.0;-2.4352562;0;-0.1740559;  1.0005020E+04;  0.0000000E+00;  1.4124034E-06;  1.0000000E+04;  0.0000000E+00;  9.9993389E+03;-0.20438115;0.0;0.030325256;303.83279
  5.3997409E-01;  9.9999998E-03; -1.2000215E-01;1875;-0.026506351;0.0;-0.0027043258;1000.2548;  4.0001553E-01;211.153;3;-18.090033;0.0;-2.1705468;0;-0.16911688;  1.0004912E+04;  0.0000000E+00;  9.0231583E-07;  1.0000000E+04;  0.0000000E+00;  9.9994043E+03;-0.19830148;0.0;0.029184598;271.73083
  5.3997445E-01;  9.9999998E-03; -1.0000170E-01;1876;-0.025926337;0.0;-0.0022191198;1000.2537;  4.0001553E-01;210.16537;3;-17.456734;0.0;-1.8654647;0;-0.16581079;  1.0004831E+04;  0.0000000E+00;  4.6009521E-07;  1.0000000E+04;  0.0000000E+00;  9.9994639E+03;-0.19363351;0.0;0.027822716;243.71545
  5.3997469E-01;  9.9999998E-03; -8.0001302E-02;1877;-0.025516592;0.0;-0.0017517745;1000.2535;  4.0001556E-01;209.96785;3;-16.975672;0.0;-1.5272419;0;-0.16394697;  1.0004771E+04;  0.0000000E+00;  1.9225517E-07;  1.0000000E+04;  0.0000000E+00;  9.9995195E+03;-0.19017956;0.0;0.026232585;218.10323
  5.3997481E-01;  9.9999998E-03; -6.0000949E-02;1878;-0.025243549;0.0;-0.0013018129;1000.2539;  4.0001559E-01;210.3629;3;-16.628391;0.0;-1.1648663;0;-0.16310182;  1.0004729E+04;  0.0000000E+00;  6.5377712E-08;  1.0000000E+04;  0.0000000E+00;  9.9995693E+03;-0.18775168;0.0;0.024649866;195.96643
  5.3997493E-01;  9.9999998E-03; -4.0000618E-02;1879;-0.025073916;0.0;-0.00086312345;1000.2545;  4.0001553E-01;210.8567;3;-16.394962;0.0;-0.78449321;0;-0.1628391;  1.0004705E+04;  0.0000000E+00;  1.8725903E-08;  1.0000000E+04;  0.0000000E+00;  9.9996055E+03;-0.18617256;0.0;0.02333346;178.94536
  5.3997493E-01;  9.9999998E-03; -2.0000305E-02;1880;-0.024981897;0.0;-0.0004304761;1000.2548;  4.0001553E-01;211.153;3;-16.260159;0.0;-0.3931815;0;-0.16281821;  1.0004689E+04;  0.0000000E+00;  3.3369369E-09;  1.0000000E+04;  0.0000000E+00;  9.9996299E+03;-0.18529254;0.0;0.02247433;168.29433
  5.5996639E-01;  9.9999998E-03; -1.8000533E-01;1903;-0.034584623;0.0;-0.0060216547;1000.3254;  4.0004188E-01;269.52063;3;-23.713587;0.0;-4.1318269;0;-0.18526967;  1.0005714E+04;  0.0000000E+00;  1.3622199E-06;  1.0000000E+04;  0.0000000E+00;  9.9986963E+03;-0.23351285;0.0;0.048243184;600.40692
  5.5996722E-01;  9.9999998E-03; -1.6000451E-01;1904;-0.033248305;0.0;-0.0053284043;1000.3264;  4.0004188E-01;270.40948;3;-22.460426;0.0;-3.9240954;0;-0.17828304;  1.0005519E+04;  0.0000000E+00;  2.1035348E-06;  1.0000000E+04;  0.0000000E+00;  9.9989131E+03;-0.2233728;0.0;0.04508977;495.97418
  5.5996799E-01;  9.9999998E-03; -1.4000373E-01;1905;-0.032114051;0.0;-0.004582244;1000.3262;  4.0004188E-01;270.31073;3;-21.385632;0.0;-3.5869689;0;-0.1722852;  1.0005361E+04;  0.0000000E+00;  2.2137947E-06;  1.0000000E+04;  0.0000000E+00;  9.9990664E+03;-0.21520922;0.0;0.042924017;422.97021
  5.5996859E-01;  9.9999998E-03; -1.2000299E-01;1906;-0.031208849;0.0;-0.0038256373;1000.3256;  4.0004191E-01;269.81693;3;-20.488897;0.0;-3.1625066;0;-0.16779736;  1.0005238E+04;  0.0000000E+00;  1.5672638E-06;  1.0000000E+04;  0.0000000E+00;  9.9991768E+03;-0.20872852;0.0;0.040931169;370.27594
  5.5996901E-01;  9.9999998E-03; -1.0000233E-01;1907;-0.030533215;0.0;-0.0030962965;1000.3257;  4.0004194E-01;269.81693;3;-19.777084;0.0;-2.6877561;0;-0.165158;  1.0005147E+04;  0.0000000E+00;  8.4067989E-07;  1.0000000E+04;  0.0000000E+00;  9.9992686E+03;-0.2036912;0.0;0.038533203;326.53345
  5.5996931E-01;  9.9999998E-03; -8.0001764E-02;1908;-0.030060718;0.0;-0.0024105334;1000.3264;  4.0004191E-01;270.40948;3;-19.238951;0.0;-2.1751852;0;-0.16412677;  1.0005077E+04;  0.0000000E+00;  3.6150360E-07;  1.0000000E+04;  0.0000000E+00;  9.9993535E+03;-0.19990997;0.0;0.035783205;287.65335
  5.5996943E-01;  9.9999998E-03; -6.0001262E-02;1909;-0.029749479;0.0;-0.0017673413;1000.3279;  4.0004197E-01;271.69339;3;-18.852013;0.0;-1.6402693;0;-0.16414414;  1.0005030E+04;  0.0000000E+00;  1.2402400E-07;  1.0000000E+04;  0.0000000E+00;  9.9994297E+03;-0.19720857;0.0;0.033064421;254.24413
  5.5996954E-01;  9.9999998E-03; -4.0000815E-02;1910;-0.029558381;0.0;-0.0011576335;1000.3292;  4.0004200E-01;272.681;3;-18.59395;0.0;-1.0907246;0;-0.16461818;  1.0005001E+04;  0.0000000E+00;  3.3773134E-08;  1.0000000E+04;  0.0000000E+00;  9.9994854E+03;-0.19542135;0.0;0.030803179;228.46979
  5.5996960E-01;  9.9999998E-03; -2.0000400E-02;1911;-0.029455325;0.0;-0.00057271461;1000.3303;  4.0004194E-01;273.56985;3;-18.445028;0.0;-0.54293334;0;-0.16508664;  1.0004984E+04;  0.0000000E+00;  5.4925988E-09;  1.0000000E+04;  0.0000000E+00;  9.9995244E+03;-0.19441076;0.0;0.029324118;212.26457
  5.7995999E-01;  9.9999998E-03; -1.8000735E-01;1934;-0.040116485;0.0;-0.0084840301;1000.4703;  4.0011185E-01;389.61353;3;-26.558073;0.0;-5.9973378;0;-0.16344944;  1.0005740E+04;  0.0000000E+00; -1.5190731E-06;  1.0000000E+04;  0.0000000E+00;  9.9980713E+03;-0.23248063;0.0;0.069031186;882.99841
  5.7996106E-01;  9.9999998E-03; -1.6000617E-01;1935;-0.038577225;0.0;-0.007413839;1000.4781;  4.0011185E-01;396.03302;3;-25.195364;0.0;-5.5697579;0;-0.158272;  1.0005535E+04;  0.0000000E+00;  1.0388131E-06;  1.0000000E+04;  0.0000000E+00;  9.9984316E+03;-0.22253577;0.0;0.064263783;709.55756
  5.7996196E-01;  9.9999998E-03; -1.4000505E-01;1936;-0.037257224;0.0;-0.0063091163;1000.4829;  4.0011188E-01;400.08221;3;-24.002832;0.0;-5.0195265;0;-0.15410522;  1.0005372E+04;  0.0000000E+00;  2.5382863E-06;  1.0000000E+04;  0.0000000E+00;  9.9986895E+03;-0.21437618;0.0;0.060270965;585.19647
  5.7996267E-01;  9.9999998E-03; -1.2000401E-01;1937;-0.036203936;0.0;-0.0052031418;1000.4857;  4.0011185E-01;402.35373;3;-23.001236;0.0;-4.3735352;0;-0.15132146;  1.0005239E+04;  0.0000000E+00;  2.1407559E-06;  1.0000000E+04;  0.0000000E+00;  9.9988750E+03;-0.20776929;0.0;0.05644783;497.68335
  5.7996315E-01;  9.9999998E-03; -1.0000309E-01;1938;-0.035423517;0.0;-0.0041551255;1000.488;  4.0011185E-01;404.32898;3;-22.211073;0.0;-3.6639285;0;-0.15030223;  1.0005140E+04;  0.0000000E+00;  1.2192256E-06;  1.0000000E+04;  0.0000000E+00;  9.9990195E+03;-0.20253347;0.0;0.05223123;429.45465
  5.7996351E-01;  9.9999998E-03; -8.0002300E-02;1939;-0.034881756;0.0;-0.0031930308;1000.4907;  4.0011182E-01;406.50171;3;-21.615093;0.0;-2.9344845;0;-0.15085459;  1.0005065E+04;  0.0000000E+00;  5.2418568E-07;  1.0000000E+04;  0.0000000E+00;  9.9991484E+03;-0.19852854;0.0;0.047673959;371.48624
  5.7996368E-01;  9.9999998E-03; -6.0001630E-02;1940;-0.03452719;0.0;-0.0023143229;1000.4936;  4.0011185E-01;408.97076;3;-21.179884;0.0;-2.2037179;0;-0.1523381;  1.0005013E+04;  0.0000000E+00;  1.7250581E-07;  1.0000000E+04;  0.0000000E+00;  9.9992598E+03;-0.19561185;0.0;0.043273743;322.4758
  5.7996380E-01;  9.9999998E-03; -4.0001038E-02;1941;-0.034310546;0.0;-0.001502844;1000.4962;  4.0011188E-01;411.04474;3;-20.891197;0.0;-1.4596412;0;-0.15400359;  1.0004978E+04;  0.0000000E+00;  4.3062087E-08;  1.0000000E+04;  0.0000000E+00;  9.9993477E+03;-0.19364476;0.0;0.039641164;284.71796
  5.7996386E-01;  9.9999998E-03; -2.0000506E-02;1942;-0.034193136;0.0;-0.00074226531;1000.4978;  4.0011185E-01;412.4274;3;-20.720659;0.0;-0.73896253;0;-0.15524554;  1.0004958E+04;  0.0000000E+00;  6.5239449E-09;  1.0000000E+04;  0.0000000E+00;  9.9994014E+03;-0.19251433;0.0;0.037268784;260.9136
  5.9995353E-01;  9.9999998E-03; -1.8000968E-01;1965;-0.045702353;0.0;-0.011429309;1000.8442;  4.0028948E-01;699.42474;3;-29.371166;0.0;-8.2537889;0;-0.11332919;  1.0005226E+04;  0.0000000E+00; -8.8864153E-06;  1.0000000E+04;  0.0000000E+00;  9.9971846E+03;-0.21175405;0.0;0.098424867;1280.3921
  5.9995484E-01;  9.9999998E-03; -1.6000809E-01;1966;-0.043917727;0.0;-0.0099078845;1000.8638;  4.0028954E-01;715.62152;3;-27.900248;0.0;-7.6307645;0;-0.11232806;  1.0005039E+04;  0.0000000E+00; -2.9047146E-06;  1.0000000E+04;  0.0000000E+00;  9.9977617E+03;-0.20299637;0.0;0.090668313;1003.2377
  5.9995592E-01;  9.9999998E-03; -1.4000657E-01;1967;-0.042378593;0.0;-0.008351001;1000.8773;  4.0028954E-01;726.78149;3;-26.597145;0.0;-6.8001556;0;-0.11220833;  1.0004882E+04;  0.0000000E+00;  1.5808869E-06;  1.0000000E+04;  0.0000000E+00;  9.9981875E+03;-0.1955363;0.0;0.083327971;799.61829
  5.9995681E-01;  9.9999998E-03; -1.2000516E-01;1968;-0.041167196;0.0;-0.0067816526;1000.886;  4.0028948E-01;733.99103;3;-25.496336;0.0;-5.8290811;0;-0.11296052;  1.0004753E+04;  0.0000000E+00;  2.2354159E-06;  1.0000000E+04;  0.0000000E+00;  9.9984883E+03;-0.18929878;0.0;0.076338254;658.56812
  5.9995741E-01;  9.9999998E-03; -1.0000393E-01;1969;-0.040272251;0.0;-0.0053204228;1000.8925;  4.0028951E-01;739.3241;3;-24.635164;0.0;-4.7635288;0;-0.11495972;  1.0004652E+04;  0.0000000E+00;  1.4170197E-06;  1.0000000E+04;  0.0000000E+00;  9.9987158E+03;-0.18421942;0.0;0.069259703;554.34125
  5.9995782E-01;  9.9999998E-03; -8.0002889E-02;1970;-0.039649606;0.0;-0.0040256502;1000.8979;  4.0028954E-01;743.96588;3;-23.978621;0.0;-3.7331483;0;-0.11816657;  1.0004577E+04;  0.0000000E+00;  6.0421212E-07;  1.0000000E+04;  0.0000000E+00;  9.9989033E+03;-0.18024558;0.0;0.062079005;469.9426
  5.9995806E-01;  9.9999998E-03; -6.0002018E-02;1971;-0.039234743;0.0;-0.0028887077;1000.9033;  4.0028962E-01;748.31134;3;-23.490463;0.0;-2.7684791;0;-0.12195197;  1.0004521E+04;  0.0000000E+00;  1.7866799E-07;  1.0000000E+04;  0.0000000E+00;  9.9990625E+03;-0.17729166;0.0;0.05533969;400.13153
  5.9995818E-01;  9.9999998E-03; -4.0001273E-02;1972;-0.038976979;0.0;-0.0018661596;1000.9076;  4.0028954E-01;751.86676;3;-23.143011;0.0;-1.8470274;0;-0.12543075;  1.0004484E+04;  0.0000000E+00;  3.1503795E-08;  1.0000000E+04;  0.0000000E+00;  9.9991875E+03;-0.17526242;0.0;0.04983167;346.60867
  5.9995824E-01;  9.9999998E-03; -2.0000618E-02;1973;-0.038841181;0.0;-0.00091472769;1000.9105;  4.0028954E-01;754.33575;3;-22.95112;0.0;-0.92252648;0;-0.1278341;  1.0004465E+04;  0.0000000E+00;  2.9038274E-09;  1.0000000E+04;  0.0000000E+00;  9.9992656E+03;-0.1740789;0.0;0.046244796;312.82916
  6.1994731E-01;  9.9999998E-03; -1.8001243E-01;1996;-0.051000509;0.0;-0.014950883;1001.7411;  4.0069619E-01;1442.4929;3;-32.021809;0.0;-10.928688;0;-0.026628092;  1.0003995E+04;  0.0000000E+00; -2.0283831E-05;  1.0000000E+04;  0.0000000E+00;  9.9960244E+03;-0.1637155;0.0;0.1370874;1798.5389
  6.1994898E-01;  9.9999998E-03; -1.6001035E-01;1997;-0.048931517;0.0;-0.012929926;1001.7775;  4.0069622E-01;1472.6149;3;-30.445435;0.0;-10.058597;0;-0.032512814;  1.0003855E+04;  0.0000000E+00; -9.9527288E-06;  1.0000000E+04;  0.0000000E+00;  9.9968906E+03;-0.15739964;0.0;0.12488683;1381.9935
  6.1995029E-01;  9.9999998E-03; -1.4000833E-01;1998;-0.047183909;0.0;-0.010795315;1001.8043;  4.0069637E-01;1494.8359;3;-29.027374;0.0;-8.9434662;0;-0.039049581;  1.0003729E+04;  0.0000000E+00; -9.9073816E-07;  1.0000000E+04;  0.0000000E+00;  9.9975508E+03;-0.15158552;0.0;0.11253594;1069.536
  6.1995131E-01;  9.9999998E-03; -1.2000643E-01;1999;-0.045808695;0.0;-0.008628238;1001.8221;  4.0069622E-01;1509.5511;3;-27.869261;0.0;-7.572576;0;-0.045583799;  1.0003620E+04;  0.0000000E+00;  1.6024833E-06;  1.0000000E+04;  0.0000000E+00;  9.9980137E+03;-0.14645562;0.0;0.10087182;854.46783
  6.1995208E-01;  9.9999998E-03; -1.0000479E-01;2000;-0.044775303;0.0;-0.0066352724;1001.8345;  4.0069628E-01;1519.8223;3;-26.904663;0.0;-6.1435976;0;-0.05237253;  1.0003529E+04;  0.0000000E+00;  1.2857961E-06;  1.0000000E+04;  0.0000000E+00;  9.9983516E+03;-0.14211316;0.0;0.089740634;701.36877
  6.1995256E-01;  9.9999998E-03; -8.0003440E-02;2001;-0.044053324;0.0;-0.0049037589;1001.8447;  4.0069625E-01;1528.2169;3;-26.164742;0.0;-4.7358489;0;-0.059594393;  1.0003462E+04;  0.0000000E+00;  5.2961497E-07;  1.0000000E+04;  0.0000000E+00;  9.9986201E+03;-0.13861828;0.0;0.079023883;582.36926
  6.1995286E-01;  9.9999998E-03; -6.0002360E-02;2002;-0.043568976;0.0;-0.0034511199;1001.8534;  4.0069628E-01;1535.4264;3;-25.648849;0.0;-3.4451509;0;-0.06673497;  1.0003413E+04;  0.0000000E+00;  1.1722248E-07;  1.0000000E+04;  0.0000000E+00;  9.9988398E+03;-0.13596347;0.0;0.0692285;486.10489
  6.1995304E-01;  9.9999998E-03; -4.0001478E-02;2003;-0.043254055;0.0;-0.0022034389;1001.8601;  4.0069625E-01;1541.0557;3;-25.264948;0.0;-2.2606261;0;-0.072804801;  1.0003380E+04;  0.0000000E+00;  3.4832462E-10;  1.0000000E+04;  0.0000000E+00;  9.9990117E+03;-0.13410781;0.0;0.061303012;412.78305
  6.1995310E-01;  9.9999998E-03; -2.0000711E-02;2004;-0.043081;0.0;-0.0010745419;1001.8645;  4.0069619E-01;1544.7098;3;-25.040621;0.0;-1.1153423;0;-0.07685338;  1.0003358E+04;  0.0000000E+00; -5.7536971E-09;  1.0000000E+04;  0.0000000E+00;  9.9991172E+03;-0.13301142;0.0;0.056158036;366.50867
  6.3994193E-01;  9.9999998E-03; -1.8001576E-01;2027;-0.055610444;0.0;-0.019129708;1003.4311;  4.0144119E-01;2842.4956;3;-34.336552;0.0;-14.07065;0;0.10088228;  1.0001961E+04;  0.0000000E+00; -3.1071329E-05;  1.0000000E+04;  0.0000000E+00;  9.9946318E+03;-0.083035335;0.0;0.18391761;2417.7578
  6.3994378E-01;  9.9999998E-03; -1.6001295E-01;2028;-0.053298011;0.0;-0.016367376;1003.4891;  4.0144128E-01;2890.4927;3;-32.597336;0.0;-12.852243;0;0.085676722;  1.0001896E+04;  0.0000000E+00; -1.7549772E-05;  1.0000000E+04;  0.0000000E+00;  9.9958506E+03;-0.080410607;0.0;0.16608733;1833.1368
  6.3994533E-01;  9.9999998E-03; -1.4001031E-01;2029;-0.051401537;0.0;-0.013492712;1003.5328;  4.0144119E-01;2926.7373;3;-31.155186;0.0;-11.256465;0;0.070012197;  1.0001822E+04;  0.0000000E+00; -4.2688644E-06;  1.0000000E+04;  0.0000000E+00;  9.9967979E+03;-0.077298224;0.0;0.14731042;1387.4304
  6.3994646E-01;  9.9999998E-03; -1.2000785E-01;2030;-0.049874797;0.0;-0.01062894;1003.5626;  4.0144113E-01;2951.4272;3;-29.922899;0.0;-9.3940048;0;0.055456348;  1.0001754E+04;  0.0000000E+00;  4.5495958E-07;  1.0000000E+04;  0.0000000E+00;  9.9974600E+03;-0.074172206;0.0;0.12962855;1080.8076
  6.3994735E-01;  9.9999998E-03; -1.0000572E-01;2031;-0.048690841;0.0;-0.0080428831;1003.5836;  4.0144122E-01;2968.8088;3;-28.879532;0.0;-7.5458946;0;0.042017169;  1.0001693E+04;  0.0000000E+00;  8.7097754E-07;  1.0000000E+04;  0.0000000E+00;  9.9979307E+03;-0.071326688;0.0;0.11334386;867.38745
  6.3994795E-01;  9.9999998E-03; -8.0004007E-02;2032;-0.047827605;0.0;-0.0058556921;1003.5996;  4.0144119E-01;2982.1414;3;-28.029007;0.0;-5.8444014;0;0.029304549;  1.0001646E+04;  0.0000000E+00;  3.2799124E-07;  1.0000000E+04;  0.0000000E+00;  9.9982988E+03;-0.068931714;0.0;0.098236263;706.35052
  6.3994837E-01;  9.9999998E-03; -6.0002681E-02;2033;-0.047235943;0.0;-0.0040530879;1003.6125;  4.0144116E-01;2992.8076;3;-27.431953;0.0;-4.2240047;0;0.017660253;  1.0001610E+04;  0.0000000E+00;  1.0045181E-08;  1.0000000E+04;  0.0000000E+00;  9.9985928E+03;-0.067057058;0.0;0.084717311;578.45868
  6.3994861E-01;  9.9999998E-03; -4.0001646E-02;2034;-0.046855051;0.0;-0.0025543042;1003.6226;  4.0144116E-01;3001.2021;3;-27.013836;0.0;-2.7509513;0;0.0081537366;  1.0001585E+04;  0.0000000E+00; -4.7611742E-08;  1.0000000E+04;  0.0000000E+00;  9.9988203E+03;-0.065718547;0.0;0.073872283;481.64273
  6.3994873E-01;  9.9999998E-03; -2.0000784E-02;2035;-0.046643127;0.0;-0.0012365609;1003.6291;  4.0144119E-01;3006.5352;3;-26.747417;0.0;-1.3616507;0;0.0019341484;  1.0001571E+04;  0.0000000E+00; -1.6448833E-08;  1.0000000E+04;  0.0000000E+00;  9.9989629E+03;-0.064916104;0.0;0.066850252;420.56018
  6.5993786E-01;  9.9999998E-03; -1.8001989E-01;2058;-0.059041865;0.0;-0.024292152;1005.5552;  4.0237698E-01;4602.1411;3;-35.784641;0.0;-17.921215;0;0.26488632;  9.9992070E+03;  0.0000000E+00; -3.4625828E-05;  1.0000000E+04;  0.0000000E+00;  9.9931143E+03;0.029231941;0.0;0.23565437;3090.1123
  6.5993989E-01;  9.9999998E-03; -1.6001612E-01;2059;-0.056669381;0.0;-0.020535478;1005.637;  4.0237701E-01;4669.9883;3;-34.18272;0.0;-16.257921;0;0.23897003;  9.9992354E+03;  0.0000000E+00; -2.1165286E-05;  1.0000000E+04;  0.0000000E+00;  9.9947129E+03;0.027306691;0.0;0.21166334;2324.0002
  6.5994155E-01;  9.9999998E-03; -1.4001273E-01;2060;-0.054700844;0.0;-0.016776199;1005.7002;  4.0237692E-01;4722.3301;3;-32.787964;0.0;-14.112802;0;0.21254703;  9.9992344E+03;  0.0000000E+00; -6.2741155E-06;  1.0000000E+04;  0.0000000E+00;  9.9959688E+03;0.026813354;0.0;0.18573368;1732.9872
  6.5994281E-01;  9.9999998E-03; -1.2000956E-01;2061;-0.053086676;0.0;-0.013073493;1005.7441;  4.0237689E-01;4758.6733;3;-31.543514;0.0;-11.70153;0;0.188326;  9.9992227E+03;  0.0000000E+00; -4.7877558E-07;  1.0000000E+04;  0.0000000E+00;  9.9968564E+03;0.027074199;0.0;0.1612518;1325.3816
  6.5994382E-01;  9.9999998E-03; -1.0000686E-01;2062;-0.051792748;0.0;-0.0097558601;1005.7746;  4.0237686E-01;4783.9551;3;-30.477064;0.0;-9.2841158;0;0.16674428;  9.9992070E+03;  0.0000000E+00;  4.2609776E-07;  1.0000000E+04;  0.0000000E+00;  9.9974795E+03;0.027642932;0.0;0.13910134;1044.9056
  6.5994453E-01;  9.9999998E-03; -8.0004722E-02;2063;-0.050797004;0.0;-0.0069982088;1005.7979;  4.0237686E-01;4803.2134;3;-29.580429;0.0;-7.073843;0;0.14728405;  9.9991943E+03;  0.0000000E+00;  1.1080054E-07;  1.0000000E+04;  0.0000000E+00;  9.9979541E+03;0.02827372;0.0;0.11901033;837.10266
  6.5994501E-01;  9.9999998E-03; -6.0003098E-02;2064;-0.050083611;0.0;-0.004783947;1005.8163;  4.0237680E-01;4818.5205;3;-28.897018;0.0;-5.0963802;0;0.13013244;  9.9991807E+03;  0.0000000E+00; -8.7666450E-08;  1.0000000E+04;  0.0000000E+00;  9.9983320E+03;0.02884195;0.0;0.10129049;674.10559
  6.5994537E-01;  9.9999998E-03; -4.0001869E-02;2065;-0.049613487;0.0;-0.0029858609;1005.8304;  4.0237686E-01;4830.1743;3;-28.415545;0.0;-3.3226063;0;0.11644652;  9.9991729E+03;  0.0000000E+00; -8.3808388E-08;  1.0000000E+04;  0.0000000E+00;  9.9986211E+03;0.0292846;0.0;0.087161928;551.23004
  6.5994555E-01;  9.9999998E-03; -2.0000879E-02;2066;-0.049348481;0.0;-0.0014369332;1005.8394;  4.0237686E-01;4837.5811;3;-28.143591;0.0;-1.6461693;0;0.10759522;  9.9991680E+03;  0.0000000E+00; -2.4452612E-08;  1.0000000E+04;  0.0000000E+00;  9.9988027E+03;0.029565142;0.0;0.07803008;473.70697
  6.7993683E-01;  9.9999998E-03; -1.8002458E-01;2089;-0.060532656;0.0;-0.030610176;1007.1865;  4.0312305E-01;5953.4614;3;-36.914009;0.0;-23.232723;0;0.44939858;  9.9960654E+03;  0.0000000E+00; -2.8248929E-05;  1.0000000E+04;  0.0000000E+00;  9.9916162E+03;0.16212323;0.0;0.28727534;3748.6646
  6.7993897E-01;  9.9999998E-03; -1.6001973E-01;2090;-0.05804757;0.0;-0.025588034;1007.2914;  4.0312299E-01;6040.4663;3;-35.258335;0.0;-20.760153;0;0.41293931;  9.9961865E+03;  0.0000000E+00; -1.8199344E-05;  1.0000000E+04;  0.0000000E+00;  9.9935840E+03;0.15541413;0.0;0.25752518;2808.1497
  6.7994064E-01;  9.9999998E-03; -1.4001545E-01;2091;-0.055995613;0.0;-0.020703578;1007.374;  4.0312287E-01;6108.8062;3;-33.779812;0.0;-17.803511;0;0.37550485;  9.9962695E+03;  0.0000000E+00; -5.5995524E-06;  1.0000000E+04;  0.0000000E+00;  9.9951426E+03;0.15080595;0.0;0.22469889;2076.4412
  6.7994195E-01;  9.9999998E-03; -1.2001149E-01;2092;-0.054333091;0.0;-0.01595388;1007.432;  4.0312281E-01;6156.9009;3;-32.494987;0.0;-14.598624;0;0.341088;  9.9963262E+03;  0.0000000E+00; -5.8622322E-07;  1.0000000E+04;  0.0000000E+00;  9.9962451E+03;0.14761125;0.0;0.19347677;1569.8754
  6.7994297E-01;  9.9999998E-03; -1.0000811E-01;2093;-0.052997544;0.0;-0.011737431;1007.4731;  4.0312275E-01;6190.9717;3;-31.373243;0.0;-11.4393;0;0.31072164;  9.9963652E+03;  0.0000000E+00;  2.2954123E-07;  1.0000000E+04;  0.0000000E+00;  9.9970215E+03;0.14533915;0.0;0.1653825;1222.7002
  6.7994368E-01;  9.9999998E-03; -8.0005474E-02;2094;-0.051976454;0.0;-0.0082932664;1007.504;  4.0312269E-01;6216.5498;3;-30.44018;0.0;-8.6094036;0;0.28388745;  9.9963906E+03;  0.0000000E+00;  5.9662439E-09;  1.0000000E+04;  0.0000000E+00;  9.9976064E+03;0.14371932;0.0;0.14016813;967.68506
  6.7994422E-01;  9.9999998E-03; -6.0003523E-02;2095;-0.051237535;0.0;-0.0055953162;1007.5281;  4.0312272E-01;6236.5977;3;-29.75141;0.0;-6.1528735;0;0.26069501;  9.9964111E+03;  0.0000000E+00; -1.2311685E-07;  1.0000000E+04;  0.0000000E+00;  9.9980693E+03;0.14259645;0.0;0.11809856;768.85895
  6.7994452E-01;  9.9999998E-03; -4.0002089E-02;2096;-0.050737895;0.0;-0.0034511068;1007.5464;  4.0312266E-01;6251.7075;3;-29.230972;0.0;-3.970252;0;0.24242696;  9.9964248E+03;  0.0000000E+00; -8.6945086E-08;  1.0000000E+04;  0.0000000E+00;  9.9984219E+03;0.14186846;0.0;0.1005585;619.21387
  6.7994469E-01;  9.9999998E-03; -2.0000976E-02;2097;-0.050457198;0.0;-0.0016507438;1007.5579;  4.0312272E-01;6261.188;3;-28.927073;0.0;-1.9504538;0;0.2306937;  9.9964307E+03;  0.0000000E+00; -2.5473971E-08;  1.0000000E+04;  0.0000000E+00;  9.9986426E+03;0.14146256;0.0;0.089231133;524.73969
  6.9994187E-01;  9.9999998E-03; -1.8002898E-01;2120;-0.057749771;0.0;-0.036843546;1007.989;  4.0353087E-01;6618.1592;3;-36.862808;0.0;-29.040981;0;0.62740743;  9.9930840E+03;  0.0000000E+00; -1.6506259E-05;  1.0000000E+04;  0.0000000E+00;  9.9902979E+03;0.29405198;0.0;0.33335546;4327.9697
  6.9994378E-01;  9.9999998E-03; -1.6002317E-01;2121;-0.055361178;0.0;-0.030630769;1008.1138;  4.0353066E-01;6721.5557;3;-35.16441;0.0;-25.624153;0;0.58213276;  9.9932900E+03;  0.0000000E+00; -1.0797660E-05;  1.0000000E+04;  0.0000000E+00;  9.9925732E+03;0.282996;0.0;0.29913676;3238.9705
  6.9994539E-01;  9.9999998E-03; -1.4001808E-01;2122;-0.053375743;0.0;-0.024606267;1008.2131;  4.0353060E-01;6803.8184;3;-33.678284;0.0;-21.699593;0;0.5349313;  9.9934492E+03;  0.0000000E+00; -2.8977465E-06;  1.0000000E+04;  0.0000000E+00;  9.9943896E+03;0.27432433;0.0;0.260607;2386.7463
  6.9994658E-01;  9.9999998E-03; -1.2001330E-01;2123;-0.05177477;0.0;-0.018749841;1008.2841;  4.0353054E-01;6862.6763;3;-32.387554;0.0;-17.516418;0;0.49112549;  9.9935713E+03;  0.0000000E+00;  4.0171866E-08;  1.0000000E+04;  0.0000000E+00;  9.9956826E+03;0.26755983;0.0;0.22356567;1794.3931
  6.9994748E-01;  9.9999998E-03; -1.0000924E-01;2124;-0.050527122;0.0;-0.013597938;1008.3347;  4.0353039E-01;6904.5479;3;-31.258944;0.0;-13.549294;0;0.45245767;  9.9936631E+03;  0.0000000E+00;  3.2009729E-07;  1.0000000E+04;  0.0000000E+00;  9.9965918E+03;0.26230475;0.0;0.19015293;1388.2031
  6.9994813E-01;  9.9999998E-03; -8.0006085E-02;2125;-0.049595982;0.0;-0.0094308769;1008.3725;  4.0353045E-01;6935.9521;3;-30.336407;0.0;-10.069869;0;0.41853634;  9.9937334E+03;  0.0000000E+00;  3.7537365E-08;  1.0000000E+04;  0.0000000E+00;  9.9972783E+03;0.25831822;0.0;0.16021812;1090.275
  6.9994855E-01;  9.9999998E-03; -6.0003806E-02;2126;-0.048930824;0.0;-0.0062342449;1008.4023;  4.0353045E-01;6960.542;3;-29.616907;0.0;-7.1159034;0;0.38948783;  9.9937822E+03;  0.0000000E+00; -8.9220556E-08;  1.0000000E+04;  0.0000000E+00;  9.9978213E+03;0.25542516;0.0;0.13406268;858.13214
  6.9994879E-01;  9.9999998E-03; -4.0002197E-02;2127;-0.048498619;0.0;-0.0037823631;1008.4246;  4.0353042E-01;6979.0093;3;-29.121613;0.0;-4.5553246;0;0.36676416;  9.9938135E+03;  0.0000000E+00; -6.8358744E-08;  1.0000000E+04;  0.0000000E+00;  9.9982344E+03;0.25347918;0.0;0.11328497;683.25574
  6.9994891E-01;  9.9999998E-03; -2.0001005E-02;2128;-0.048257884;0.0;-0.0017892395;1008.4387;  4.0353036E-01;6990.7607;3;-28.831894;0.0;-2.2286336;0;0.35222733;  9.9938330E+03;  0.0000000E+00; -1.9491926E-08;  1.0000000E+04;  0.0000000E+00;  9.9984941E+03;0.25236312;0.0;0.099864222;572.69836
  7.1995693E-01;  9.9999998E-03; -1.8003225E-01;2151;-0.044342749;0.0;-0.041386373;1008.2707;  4.0370911E-01;6851.4282;3;-30.339878;0.0;-33.254646;0;0.76783526;  9.9908750E+03;  0.0000000E+00; -6.3153971E-06;  1.0000000E+04;  0.0000000E+00;  9.9892578E+03;0.39796972;0.0;0.36986554;4784.1348
  7.1995860E-01;  9.9999998E-03; -1.6002582E-01;2152;-0.04221233;0.0;-0.034417354;1008.41;  4.0370893E-01;6966.771;3;-28.649477;0.0;-29.270199;0;0.71649176;  9.9911406E+03;  0.0000000E+00; -3.7913019E-06;  1.0000000E+04;  0.0000000E+00;  9.9917656E+03;0.38358203;0.0;0.33290973;3583.6289
  7.1995997E-01;  9.9999998E-03; -1.4002013E-01;2153;-0.040402304;0.0;-0.027610989;1008.522;  4.0370882E-01;7059.5977;3;-27.125139;0.0;-24.67684;0;0.66192091;  9.9913574E+03;  0.0000000E+00; -2.5914073E-07;  1.0000000E+04;  0.0000000E+00;  9.9937744E+03;0.37150326;0.0;0.29041764;2640.6619
  7.1996099E-01;  9.9999998E-03; -1.2001479E-01;2154;-0.038965493;0.0;-0.020988528;1008.6031;  4.0370867E-01;7126.7495;3;-25.831114;0.0;-19.824253;0;0.61068428;  9.9915332E+03;  0.0000000E+00;  6.9683722E-07;  1.0000000E+04;  0.0000000E+00;  9.9952100E+03;0.36161786;0.0;0.2490664;1982.9977
  7.1996176E-01;  9.9999998E-03; -1.0001025E-01;2155;-0.037888527;0.0;-0.015180137;1008.6611;  4.0370858E-01;7174.7432;3;-24.793272;0.0;-15.279594;0;0.5652355;  9.9916699E+03;  0.0000000E+00;  4.5597855E-07;  1.0000000E+04;  0.0000000E+00;  9.9962256E+03;0.35373333;0.0;0.21150218;1530.6755
  7.1996224E-01;  9.9999998E-03; -8.0006726E-02;2156;-0.037120473;0.0;-0.010486339;1008.7048;  4.0370861E-01;7210.9849;3;-23.995142;0.0;-11.311579;0;0.52539063;  9.9917744E+03;  0.0000000E+00;  1.1463180E-07;  1.0000000E+04;  0.0000000E+00;  9.9969951E+03;0.34767964;0.0;0.177711;1197.8804
  7.1996254E-01;  9.9999998E-03; -6.0004182E-02;2157;-0.036597781;0.0;-0.0068978309;1008.7391;  4.0370849E-01;7239.4258;3;-23.408386;0.0;-7.9568076;0;0.49137717;  9.9918457E+03;  0.0000000E+00; -2.8952421E-08;  1.0000000E+04;  0.0000000E+00;  9.9976035E+03;0.34326461;0.0;0.14811255;937.74579
  7.1996278E-01;  9.9999998E-03; -4.0002402E-02;2158;-0.036263309;0.0;-0.0041682138;1008.765;  4.0370849E-01;7260.855;3;-23.006243;0.0;-5.0797324;0;0.46484813;  9.9918945E+03;  0.0000000E+00; -3.3528686E-08;  1.0000000E+04;  0.0000000E+00;  9.9980664E+03;0.3402878;0.0;0.12456033;741.2525
  7.1996284E-01;  9.9999998E-03; -2.0001093E-02;2159;-0.036076799;0.0;-0.0019666238;1008.7812;  4.0370852E-01;7274.2852;3;-22.77043;0.0;-2.4822493;0;0.44791007;  9.9919229E+03;  0.0000000E+00; -1.0919323E-08;  1.0000000E+04;  0.0000000E+00;  9.9983604E+03;0.33857864;0.0;0.10933143;616.78998
  7.3997319E-01;  9.9999998E-03; -1.8003434E-01;2182;-0.027988717;0.0;-0.044061273;1008.3549;  4.0377924E-01;6920.8916;3;-19.527082;0.0;-35.355289;0;0.85001159;  9.9897959E+03;  0.0000000E+00; -9.0450919E-07;  1.0000000E+04;  0.0000000E+00;  9.9885283E+03;0.45472726;0.0;0.39528432;5103.2822
  7.3997432E-01;  9.9999998E-03; -1.6002759E-01;2183;-0.026515042;0.0;-0.036769234;1008.5034;  4.0377909E-01;7043.8335;3;-18.373697;0.0;-31.24638;0;0.79554999;  9.9900908E+03;  0.0000000E+00;  1.3550298E-08;  1.0000000E+04;  0.0000000E+00;  9.9911885E+03;0.43838876;0.0;0.35716122;3829.7014
  7.3997527E-01;  9.9999998E-03; -1.4002156E-01;2184;-0.02523423;0.0;-0.029559962;1008.6235;  4.0377885E-01;7143.3721;3;-17.305471;0.0;-26.417271;0;0.73652494;  9.9903477E+03;  0.0000000E+00;  9.6016618E-07;  1.0000000E+04;  0.0000000E+00;  9.9933223E+03;0.42404169;0.0;0.31248325;2827.6355
  7.3997605E-01;  9.9999998E-03; -1.2001586E-01;2185;-0.024199868;0.0;-0.022507343;1008.7111;  4.0377885E-01;7215.9521;3;-16.382864;0.0;-21.274204;0;0.68045247;  9.9905586E+03;  0.0000000E+00;  8.6456907E-07;  1.0000000E+04;  0.0000000E+00;  9.9948545E+03;0.41196224;0.0;0.26849023;2127.0466
  7.3997658E-01;  9.9999998E-03; -1.0001100E-01;2186;-0.023415253;0.0;-0.01630077;1008.7742;  4.0377876E-01;7268.1899;3;-15.629849;0.0;-16.430925;0;0.63036412;  9.9907236E+03;  0.0000000E+00;  4.4665074E-07;  1.0000000E+04;  0.0000000E+00;  9.9959404E+03;0.40220723;0.0;0.22815691;1643.2781
  7.3997694E-01;  9.9999998E-03; -8.0007225E-02;2187;-0.022850662;0.0;-0.011274583;1008.8219;  4.0377861E-01;7307.6895;3;-15.043052;0.0;-12.186186;0;0.58630228;  9.9908467E+03;  0.0000000E+00;  1.4024000E-07;  1.0000000E+04;  0.0000000E+00;  9.9967656E+03;0.39469671;0.0;0.19160554;1285.3624
  7.3997718E-01;  9.9999998E-03; -6.0004495E-02;2188;-0.022462741;0.0;-0.007425332;1008.8596;  4.0377861E-01;7338.9927;3;-14.606179;0.0;-8.5859127;0;0.5486564;  9.9909375E+03;  0.0000000E+00;  1.3780019E-08;  1.0000000E+04;  0.0000000E+00;  9.9974268E+03;0.38922855;0.0;0.15942787;1004.129
  7.3997736E-01;  9.9999998E-03; -4.0002581E-02;2189;-0.022211716;0.0;-0.0044918284;1008.8878;  4.0377861E-01;7362.2974;3;-14.302939;0.0;-5.4884338;0;0.51930088;  9.9909941E+03;  0.0000000E+00; -8.4696978E-09;  1.0000000E+04;  0.0000000E+00;  9.9979307E+03;0.38555309;0.0;0.13374777;790.92926
  7.3997742E-01;  9.9999998E-03; -2.0001177E-02;2190;-0.022070352;0.0;-0.0021209384;1008.9057;  4.0377864E-01;7377.1099;3;-14.123376;0.0;-2.6842771;0;0.50056446;  9.9910273E+03;  0.0000000E+00; -3.6730565E-09;  1.0000000E+04;  0.0000000E+00;  9.9982510E+03;0.38344765;0.0;0.11711681;655.60022
  7.5998592E-01;  9.9999998E-03; -1.8003567E-01;2213;-0.015040454;0.0;-0.045709893;1008.3981;  4.0380573E-01;6956.3901;3;-10.845539;0.0;-36.581985;0;0.874255;  9.9897822E+03;  0.0000000E+00;  6.5308689E-07;  1.0000000E+04;  0.0000000E+00;  9.9880889E+03;0.46385077;0.0;0.41040424;5296.1357
  7.5998658E-01;  9.9999998E-03; -1.6002876E-01;2214;-0.014181307;0.0;-0.038286068;1008.551;  4.0380555E-01;7082.9795;3;-10.20001;0.0;-32.478489;0;0.81911474;  9.9900830E+03;  0.0000000E+00;  9.1587049E-07;  1.0000000E+04;  0.0000000E+00;  9.9908301E+03;0.44695351;0.0;0.37216124;3982.4365
  7.5998718E-01;  9.9999998E-03; -1.4002250E-01;2215;-0.013407234;0.0;-0.030852251;1008.6752;  4.0380540E-01;7185.8706;3;-9.5704956;0.0;-27.54808;0;0.75833893;  9.9903525E+03;  0.0000000E+00;  9.1550737E-07;  1.0000000E+04;  0.0000000E+00;  9.9930342E+03;0.43162754;0.0;0.32671139;2948.7261
  7.5998765E-01;  9.9999998E-03; -1.2001658E-01;2216;-0.012768285;0.0;-0.023531083;1008.7661;  4.0380529E-01;7261.1128;3;-9.0091543;0.0;-22.239954;0;0.69999385;  9.9905762E+03;  0.0000000E+00;  6.0554299E-07;  1.0000000E+04;  0.0000000E+00;  9.9946143E+03;0.41848078;0.0;0.28151304;2224.9734
  7.5998801E-01;  9.9999998E-03; -1.0001151E-01;2217;-0.012276925;0.0;-0.017064631;1008.8319;  4.0380523E-01;7315.6196;3;-8.5409842;0.0;-17.211605;0;0.64747047;  9.9907539E+03;  0.0000000E+00;  2.9630712E-07;  1.0000000E+04;  0.0000000E+00;  9.9957422E+03;0.40778863;0.0;0.23968187;1723.1973
  7.5998825E-01;  9.9999998E-03; -8.0007561E-02;2218;-0.011919122;0.0;-0.011817714;1008.882;  4.0380517E-01;7357.1904;3;-8.1691904;0.0;-12.788749;0;0.60099769;  9.9908887E+03;  0.0000000E+00;  1.0617799E-07;  1.0000000E+04;  0.0000000E+00;  9.9966064E+03;0.39955118;0.0;0.20144647;1349.6288
  7.5998837E-01;  9.9999998E-03; -6.0004711E-02;2219;-0.01166968;0.0;-0.0077933818;1008.9216;  4.0380514E-01;7389.9736;3;-7.8871207;0.0;-9.026103;0;0.56115174;  9.9909854E+03;  0.0000000E+00;  2.6699229E-08;  1.0000000E+04;  0.0000000E+00;  9.9972998E+03;0.39356756;0.0;0.16758421;1054.4066
  7.5998849E-01;  9.9999998E-03; -4.0002711E-02;2220;-0.011505586;0.0;-0.0047204732;1008.9516;  4.0380511E-01;7414.7583;3;-7.6876469;0.0;-5.7783303;0;0.53002894;  9.9910459E+03;  0.0000000E+00;  2.9928340E-09;  1.0000000E+04;  0.0000000E+00;  9.9978320E+03;0.38955981;0.0;0.14046913;829.77344
  7.5998855E-01;  9.9999998E-03; -2.0001234E-02;2221;-0.011411821;0.0;-0.0022309176;1008.9705;  4.0380514E-01;7430.4585;3;-7.5677533;0.0;-2.8287432;0;0.51015097;  9.9910830E+03;  0.0000000E+00;  6.3581383E-11;  1.0000000E+04;  0.0000000E+00;  9.9981709E+03;0.38727129;0.0;0.12287966;686.90918
  7.7999538E-01;  9.9999998E-03; -1.8003632E-01;2244;-0.005306398;0.0;-0.046510354;1008.446;  4.0381545E-01;6995.6147;3;-4.2152233;0.0;-37.125355;0;0.85710859;  9.9904580E+03;  0.0000000E+00;  4.9336501E-07;  1.0000000E+04;  0.0000000E+00;  9.9878877E+03;0.43992266;0.0;0.41718593;5384.9346
  7.7999562E-01;  9.9999998E-03; -1.6002937E-01;2245;-0.0049703033;0.0;-0.039069686;1008.6001;  4.0381533E-01;7123.1831;3;-3.9860764;0.0;-33.080624;0;0.8028512;  9.9907490E+03;  0.0000000E+00;  5.2638194E-07;  1.0000000E+04;  0.0000000E+00;  9.9906572E+03;0.42349732;0.0;0.37935391;4056.1953
  7.7999592E-01;  9.9999998E-03; -1.4002302E-01;2246;-0.0046447571;0.0;-0.031544201;1008.7252;  4.0381515E-01;7226.7573;3;-3.7356386;0.0;-28.132744;0;0.74229705;  9.9910117E+03;  0.0000000E+00;  4.1573998E-07;  1.0000000E+04;  0.0000000E+00;  9.9928828E+03;0.40826288;0.0;0.33403417;3011.5588
  7.7999610E-01;  9.9999998E-03; -1.2001698E-01;2247;-0.0043657045;0.0;-0.024090314;1008.817;  4.0381503E-01;7302.7852;3;-3.4981768;0.0;-22.756622;0;0.68368757;  9.9912344E+03;  0.0000000E+00;  2.5126675E-07;  1.0000000E+04;  0.0000000E+00;  9.9944834E+03;0.39504167;0.0;0.28864586;2279.7029
  7.7999628E-01;  9.9999998E-03; -1.0001180E-01;2248;-0.0041460325;0.0;-0.017488074;1008.8835;  4.0381494E-01;7357.979;3;-3.2917678;0.0;-17.640263;0;0.63054037;  9.9914150E+03;  0.0000000E+00;  1.2030728E-07;  1.0000000E+04;  0.0000000E+00;  9.9956279E+03;0.38424727;0.0;0.2462931;1770.5945
  7.7999640E-01;  9.9999998E-03; -8.0007754E-02;2249;-0.0039821872;0.0;-0.012123829;1008.9346;  4.0381485E-01;7400.2383;3;-3.1212807;0.0;-13.128112;0;0.58320296;  9.9915479E+03;  0.0000000E+00;  4.6635659E-08;  1.0000000E+04;  0.0000000E+00;  9.9965098E+03;0.37592998;0.0;0.20727299;1389.4415
  7.7999645E-01;  9.9999998E-03; -6.0004834E-02;2250;-0.0038643416;0.0;-0.0080050547;1008.9751;  4.0381479E-01;7433.8091;3;-2.9864361;0.0;-9.2804165;0;0.54242355;  9.9916426E+03;  0.0000000E+00;  1.4423577E-08;  1.0000000E+04;  0.0000000E+00;  9.9972217E+03;0.36989948;0.0;0.17252405;1086.6962
  7.7999651E-01;  9.9999998E-03; -4.0002782E-02;2251;-0.0037840179;0.0;-0.0048546549;1009.0057;  4.0381485E-01;7459.1846;3;-2.8871984;0.0;-5.9494319;0;0.51048458;  9.9917031E+03;  0.0000000E+00;  3.7377594E-09;  1.0000000E+04;  0.0000000E+00;  9.9977705E+03;0.36587015;0.0;0.14461443;855.61511
  7.7999651E-01;  9.9999998E-03; -2.0001270E-02;2252;-0.0037367258;0.0;-0.0022964587;1009.0251;  4.0381479E-01;7475.1797;3;-2.8258193;0.0;-2.9153247;0;0.49005908;  9.9917393E+03;  0.0000000E+00;  8.0883250E-10;  1.0000000E+04;  0.0000000E+00;  9.9981191E+03;0.36357552;0.0;0.12648357;708.4201
  8.0000287E-01;  9.9999998E-03; -1.8003644E-01;2275;0.0025034507;0.0;-0.046620954;1008.4984;  4.0381798E-01;7038.3208;3;1.2047881;0.0;-37.139378;0;0.81912243;  9.9913965E+03;  0.0000000E+00; -3.0260455E-08;  1.0000000E+04;  0.0000000E+00;  9.9878623E+03;0.40145287;0.0;0.41766956;5391.4131
  8.0000281E-01;  9.9999998E-03; -1.6002952E-01;2276;0.0023947377;0.0;-0.039230227;1008.6512;  4.0381777E-01;7164.7915;3;1.0901067;0.0;-33.164948;0;0.76646245;  9.9916670E+03;  0.0000000E+00;  1.3213106E-08;  1.0000000E+04;  0.0000000E+00;  9.9906309E+03;0.38604128;0.0;0.38042113;4065.8579
  8.0000275E-01;  9.9999998E-03; -1.4002316E-01;2277;0.0023288119;0.0;-0.031710997;1008.7753;  4.0381762E-01;7267.5674;3;1.0161703;0.0;-28.250034;0;0.7072643;  9.9919170E+03;  0.0000000E+00;  3.3693080E-08;  1.0000000E+04;  0.0000000E+00;  9.9928496E+03;0.37156206;0.0;0.33570227;3025.0129
  8.0000269E-01;  9.9999998E-03; -1.2001709E-01;2278;0.0022889469;0.0;-0.024236064;1008.8662;  4.0381747E-01;7342.897;3;0.97010213;0.0;-22.878918;0;0.64966357;  9.9921279E+03;  0.0000000E+00;  2.7542674E-08;  1.0000000E+04;  0.0000000E+00;  9.9944443E+03;0.35892412;0.0;0.29073948;2295.7983
  8.0000269E-01;  9.9999998E-03; -1.0001188E-01;2279;0.0022655507;0.0;-0.01760501;1008.9323;  4.0381739E-01;7397.6909;3;0.94405276;0.0;-17.754251;0;0.59712392;  9.9922959E+03;  0.0000000E+00;  1.4688662E-08;  1.0000000E+04;  0.0000000E+00;  9.9955889E+03;0.34858787;0.0;0.24853607;1787.3418
  8.0000269E-01;  9.9999998E-03; -8.0007814E-02;2280;0.002254369;0.0;-0.012214283;1008.9832;  4.0381739E-01;7439.8477;3;0.93347687;0.0;-13.228608;0;0.55003977;  9.9924248E+03;  0.0000000E+00;  6.2620349E-09;  1.0000000E+04;  0.0000000E+00;  9.9964756E+03;0.34062105;0.0;0.20941868;1405.1074
  8.0000269E-01;  9.9999998E-03; -6.0004875E-02;2281;0.0022522088;0.0;-0.0080727469;1009.0237;  4.0381742E-01;7473.415;3;0.93412822;0.0;-9.3635197;0;0.50928366;  9.9925137E+03;  0.0000000E+00;  2.5329403E-09;  1.0000000E+04;  0.0000000E+00;  9.9971934E+03;0.33484682;0.0;0.17443681;1100.3729
  8.0000269E-01;  9.9999998E-03; -4.0002808E-02;2282;0.0022551357;0.0;-0.004900841;1009.0545;  4.0381736E-01;7498.8872;3;0.94068795;0.0;-6.009882;0;0.47726962;  9.9925723E+03;  0.0000000E+00;  9.0373714E-10;  1.0000000E+04;  0.0000000E+00;  9.9977441E+03;0.33099291;0.0;0.14627671;867.24927
  8.0000269E-01;  9.9999998E-03; -2.0001283E-02;2283;0.0022590386;0.0;-0.0023201695;1009.074;  4.0381724E-01;7514.9795;3;0.94748396;0.0;-2.9474182;0;0.45676398;  9.9926064E+03;  0.0000000E+00;  2.9173919E-10;  1.0000000E+04;  0.0000000E+00;  9.9980977E+03;0.32879981;0.0;0.12796415;718.59357
  8.2000977E-01;  9.9999998E-03; -1.8003610E-01;2306;0.0097192209;0.0;-0.046150312;1008.5405;  4.0381387E-01;7072.3042;3;6.2644486;0.0;-36.723721;0;0.77481884;  9.9923105E+03;  0.0000000E+00; -4.7534959E-07;  1.0000000E+04;  0.0000000E+00;  9.9879863E+03;0.36154971;0.0;0.41326913;5329.9302
  8.2000935E-01;  9.9999998E-03; -1.6002925E-01;2307;0.0092159882;0.0;-0.038856801;1008.6906;  4.0381366E-01;7196.5879;3;5.8468227;0.0;-32.817394;0;0.72390831;  9.9925615E+03;  0.0000000E+00; -2.8155503E-07;  1.0000000E+04;  0.0000000E+00;  9.9907227E+03;0.34726807;0.0;0.37664023;4021.8208
  8.2000905E-01;  9.9999998E-03; -1.4002296E-01;2308;0.0088022156;0.0;-0.03142317;1008.8123;  4.0381348E-01;7297.3765;3;5.486433;0.0;-27.970652;0;0.66656113;  9.9927920E+03;  0.0000000E+00; -9.1529657E-08;  1.0000000E+04;  0.0000000E+00;  9.9929141E+03;0.33379644;0.0;0.33276469;2996.0071
  8.2000881E-01;  9.9999998E-03; -1.2001694E-01;2309;0.0084793903;0.0;-0.024021842;1008.9014;  4.0381336E-01;7371.1177;3;5.1902652;0.0;-22.662706;0;0.61062968;  9.9929883E+03;  0.0000000E+00; -1.9625164E-08;  1.0000000E+04;  0.0000000E+00;  9.9944844E+03;0.32202742;0.0;0.28860223;2277.6055
  8.2000864E-01;  9.9999998E-03; -1.0001177E-01;2310;0.0082403803;0.0;-0.017453738;1008.9662;  4.0381324E-01;7424.8188;3;4.9588881;0.0;-17.595495;0;0.55940896;  9.9931455E+03;  0.0000000E+00; -2.3861293E-09;  1.0000000E+04;  0.0000000E+00;  9.9956182E+03;0.31239739;0.0;0.24701157;1776.0663
  8.2000858E-01;  9.9999998E-03; -8.0007747E-02;2311;0.0080733029;0.0;-0.012114708;1009.0163;  4.0381324E-01;7466.2798;3;4.7875199;0.0;-13.119844;0;0.51328933;  9.9932646E+03;  0.0000000E+00; -7.1595679E-10;  1.0000000E+04;  0.0000000E+00;  9.9964932E+03;0.30496925;0.0;0.2083201;1398.1031
  8.2000846E-01;  9.9999998E-03; -6.0004834E-02;2312;0.0079634832;0.0;-0.0080123497;1009.0564;  4.0381324E-01;7499.5469;3;4.6680317;0.0;-9.2949362;0;0.47320825;  9.9933467E+03;  0.0000000E+00; -6.8139777E-10;  1.0000000E+04;  0.0000000E+00;  9.9972051E+03;0.29957861;0.0;0.17362966;1096.0892
  8.2000846E-01;  9.9999998E-03; -4.0002789E-02;2313;0.0078963889;0.0;-0.0048679169;1009.0867;  4.0381321E-01;7524.6206;3;4.5909028;0.0;-5.9711757;0;0.44164133;  9.9934033E+03;  0.0000000E+00; -6.6115358E-10;  1.0000000E+04;  0.0000000E+00;  9.9977549E+03;0.29597497;0.0;0.14566638;864.73657
  8.2000840E-01;  9.9999998E-03; -2.0001274E-02;2314;0.007860681;0.0;-0.002306002;1009.106;  4.0381315E-01;7540.5142;3;4.5479755;0.0;-2.9302666;0;0.42139286;  9.9934336E+03;  0.0000000E+00; -1.6148557E-10;  1.0000000E+04;  0.0000000E+00;  9.9981055E+03;0.29392183;0.0;0.12747104;717.1214
  8.4001672E-01;  9.9999998E-03; -1.8003532E-01;2337;0.017027128;0.0;-0.045148682;1008.4405;  4.0375227E-01;6988.3257;3;11.386477;0.0;-35.920452;0;0.72886288;  9.9931279E+03;  0.0000000E+00; -8.2546848E-07;  1.0000000E+04;  0.0000000E+00;  9.9882412E+03;0.3242389;0.0;0.40462396;5206.9473
  8.4001607E-01;  9.9999998E-03; -1.6002862E-01;2338;0.016157825;0.0;-0.038012881;1008.5871;  4.0375203E-01;7109.7266;3;10.682753;0.0;-32.093697;0;0.67961633;  9.9933604E+03;  0.0000000E+00; -4.1928953E-07;  1.0000000E+04;  0.0000000E+00;  9.9909189E+03;0.3109166;0.0;0.36869976;3929.4326
  8.4001553E-01;  9.9999998E-03; -1.4002247E-01;2339;0.015427232;0.0;-0.030739;1008.7054;  4.0375179E-01;7207.6362;3;10.059645;0.0;-27.349617;0;0.62429029;  9.9935771E+03;  0.0000000E+00; -4.5781377E-08;  1.0000000E+04;  0.0000000E+00;  9.9930576E+03;0.29840466;0.0;0.32588562;2928.897
  8.4001511E-01;  9.9999998E-03; -1.2001657E-01;2340;0.014850289;0.0;-0.023495544;1008.7919;  4.0375173E-01;7279.2925;3;9.5385065;0.0;-22.156368;0;0.57034278;  9.9937598E+03;  0.0000000E+00;  5.0105200E-08;  1.0000000E+04;  0.0000000E+00;  9.9945957E+03;0.28751054;0.0;0.28283224;2228.6877
  8.4001482E-01;  9.9999998E-03; -1.0001152E-01;2341;0.014418876;0.0;-0.017070111;1008.8549;  4.0375164E-01;7331.4058;3;9.1239376;0.0;-17.202723;0;0.52084351;  9.9939063E+03;  0.0000000E+00;  4.0274269E-08;  1.0000000E+04;  0.0000000E+00;  9.9957031E+03;0.27860913;0.0;0.24223436;1739.6692
  8.4001458E-01;  9.9999998E-03; -8.0007575E-02;2342;0.014112859;0.0;-0.01184984;1008.9035;  4.0375164E-01;7371.6753;3;8.8095427;0.0;-12.830503;0;0.47613832;  9.9940166E+03;  0.0000000E+00;  1.6634583E-08;  1.0000000E+04;  0.0000000E+00;  9.9965586E+03;0.27173781;0.0;0.20440051;1370.7069
  8.4001446E-01;  9.9999998E-03; -6.0004734E-02;2343;0.013906782;0.0;-0.0078398436;1008.9425;  4.0375155E-01;7403.9497;3;8.5828667;0.0;-9.0944023;0;0.43717575;  9.9940938E+03;  0.0000000E+00;  2.9041101E-09;  1.0000000E+04;  0.0000000E+00;  9.9972549E+03;0.26673824;0.0;0.17043753;1075.556
  8.4001440E-01;  9.9999998E-03; -4.0002730E-02;2344;0.013776762;0.0;-0.0047652819;1008.9722;  4.0375149E-01;7428.625;3;8.4307442;0.0;-5.8454919;0;0.40642858;  9.9941465E+03;  0.0000000E+00; -2.4771638E-10;  1.0000000E+04;  0.0000000E+00;  9.9977939E+03;0.26338378;0.0;0.14304481;849.32507
  8.4001434E-01;  9.9999998E-03; -2.0001248E-02;2345;0.013705323;0.0;-0.0022582661;1008.991;  4.0375152E-01;7444.1206;3;8.3431911;0.0;-2.8698301;0;0.38668373;  9.9941738E+03;  0.0000000E+00;  3.2054571E-11;  1.0000000E+04;  0.0000000E+00;  9.9981396E+03;0.26146588;0.0;0.12521785;704.9472
  8.6002380E-01;  9.9999998E-03; -1.8003413E-01;2368;0.024377463;0.0;-0.043646123;1008.1969;  4.0363091E-01;6785.1685;3;16.518518;0.0;-34.744041;0;0.67825663;  9.9939307E+03;  0.0000000E+00; -1.2412168E-06;  1.0000000E+04;  0.0000000E+00;  9.9886172E+03;0.28636703;0.0;0.39188963;5024.707
  8.6002284E-01;  9.9999998E-03; -1.6002765E-01;2369;0.023163848;0.0;-0.036739528;1008.3386;  4.0363064E-01;6902.397;3;15.539027;0.0;-31.023857;0;0.6305865;  9.9941563E+03;  0.0000000E+00; -5.7473221E-07;  1.0000000E+04;  0.0000000E+00;  9.9912119E+03;0.27370435;0.0;0.35688213;3791.2478
  8.6002207E-01;  9.9999998E-03; -1.4002171E-01;2370;0.022142502;0.0;-0.029700585;1008.4529;  4.0363047E-01;6997.0288;3;14.671389;0.0;-26.422911;0;0.57740617;  9.9943604E+03;  0.0000000E+00;  2.3275499E-08;  1.0000000E+04;  0.0000000E+00;  9.9932832E+03;0.26197305;0.0;0.31543314;2826.573
  8.6002153E-01;  9.9999998E-03; -1.2001601E-01;2371;0.021336397;0.0;-0.022693509;1008.5364;  4.0363047E-01;7066.2021;3;13.945886;0.0;-21.394354;0;0.52569389;  9.9945322E+03;  0.0000000E+00;  1.4266793E-07;  1.0000000E+04;  0.0000000E+00;  9.9947686E+03;0.25185281;0.0;0.27384105;2152.1084
  8.6002111E-01;  9.9999998E-03; -1.0001113E-01;2372;0.02073307;0.0;-0.016481986;1008.597;  4.0363035E-01;7116.3301;3;13.367304;0.0;-16.604843;0;0.47824034;  9.9946680E+03;  0.0000000E+00;  9.1939334E-08;  1.0000000E+04;  0.0000000E+00;  9.9958359E+03;0.24362424;0.0;0.2346161;1681.1433
  8.6002082E-01;  9.9999998E-03; -8.0007315E-02;2373;0.020303313;0.0;-0.011439393;1008.6439;  4.0363038E-01;7155.1104;3;12.925428;0.0;-12.382809;0;0.43531555;  9.9947734E+03;  0.0000000E+00;  3.5017472E-08;  1.0000000E+04;  0.0000000E+00;  9.9966650E+03;0.23727818;0.0;0.19803737;1325.6511
  8.6002064E-01;  9.9999998E-03; -6.0004570E-02;2374;0.020011595;0.0;-0.0075682439;1008.6814;  4.0363029E-01;7186.1938;3;12.603478;0.0;-8.7777529;0;0.39783755;  9.9948467E+03;  0.0000000E+00;  7.1899184E-09;  1.0000000E+04;  0.0000000E+00;  9.9973379E+03;0.23264851;0.0;0.16518904;1041.1604
  8.6002052E-01;  9.9999998E-03; -4.0002637E-02;2375;0.019825598;0.0;-0.0046007885;1008.7101;  4.0363026E-01;7209.8765;3;12.384809;0.0;-5.6431298;0;0.36822367;  9.9948945E+03;  0.0000000E+00; -9.0054703E-10;  1.0000000E+04;  0.0000000E+00;  9.9978604E+03;0.22952805;0.0;0.13869563;823.08423
  8.6002046E-01;  9.9999998E-03; -2.0001205E-02;2376;0.019722292;0.0;-0.0021806154;1008.7282;  4.0363020E-01;7224.9741;3;12.257561;0.0;-2.7709603;0;0.34919298;  9.9949219E+03;  0.0000000E+00; -9.5116796E-11;  1.0000000E+04;  0.0000000E+00;  9.9981934E+03;0.22773586;0.0;0.12145713;683.92883
  8.8003045E-01;  9.9999998E-03; -1.8003257E-01;2399;0.031307131;0.0;-0.041673657;1007.8333;  4.0345681E-01;6482.2495;3;21.348988;0.0;-33.207863;0;0.6178419;  9.9948486E+03;  0.0000000E+00; -1.8130796E-06;  1.0000000E+04;  0.0000000E+00;  9.9891152E+03;0.24269612;0.0;0.37514579;4785.519
  8.8002926E-01;  9.9999998E-03; -1.6002640E-01;2400;0.029777706;0.0;-0.035074092;1007.9694;  4.0345660E-01;6594.8081;3;20.111378;0.0;-29.632605;0;0.57180703;  9.9950693E+03;  0.0000000E+00; -8.9292547E-07;  1.0000000E+04;  0.0000000E+00;  9.9915986E+03;0.23043019;0.0;0.34137681;3609.8145
  8.8002831E-01;  9.9999998E-03; -1.4002071E-01;2401;0.028495153;0.0;-0.02834492;1008.0786;  4.0345648E-01;6685.1694;3;19.021196;0.0;-25.219879;0;0.52104521;  9.9952666E+03;  0.0000000E+00;  6.5143886E-09;  1.0000000E+04;  0.0000000E+00;  9.9935771E+03;0.21935514;0.0;0.3016901;2691.9004
  8.8002759E-01;  9.9999998E-03; -1.2001527E-01;2402;0.02748617;0.0;-0.021647267;1008.1581;  4.0345642E-01;6750.9673;3;18.113358;0.0;-20.404802;0;0.47194615;  9.9954277E+03;  0.0000000E+00;  1.7474568E-07;  1.0000000E+04;  0.0000000E+00;  9.9949961E+03;0.2099731;0.0;0.26197305;2050.9355
  8.8002706E-01;  9.9999998E-03; -1.0001061E-01;2403;0.026731947;0.0;-0.015713587;1008.2159;  4.0345627E-01;6798.8115;3;17.390059;0.0;-15.825739;0;0.42694804;  9.9955566E+03;  0.0000000E+00;  1.1014396E-07;  1.0000000E+04;  0.0000000E+00;  9.9960156E+03;0.20242646;0.0;0.22452158;1603.5532
  8.8002670E-01;  9.9999998E-03; -8.0006972E-02;2404;0.026194151;0.0;-0.010900718;1008.2604;  4.0345633E-01;6835.7061;3;16.836588;0.0;-11.795534;0;0.38621604;  9.9956514E+03;  0.0000000E+00;  3.7573027E-08;  1.0000000E+04;  0.0000000E+00;  9.9968066E+03;0.19663231;0.0;0.18958373;1265.8152
  8.8002646E-01;  9.9999998E-03; -6.0004354E-02;2405;0.025827823;0.0;-0.0072092908;1008.2963;  4.0345633E-01;6865.3003;3;16.431509;0.0;-8.3588524;0;0.35061359;  9.9957197E+03;  0.0000000E+00;  4.8083177E-09;  1.0000000E+04;  0.0000000E+00;  9.9974512E+03;0.19240332;0.0;0.15821028;995.52582
  8.8002634E-01;  9.9999998E-03; -4.0002510E-02;2406;0.025593122;0.0;-0.0043817284;1008.3235;  4.0345627E-01;6887.792;3;16.154825;0.0;-5.3731833;0;0.32246011;  9.9957676E+03;  0.0000000E+00; -1.3785569E-10;  1.0000000E+04;  0.0000000E+00;  9.9979473E+03;0.18954316;0.0;0.13291696;788.40143
  8.8002628E-01;  9.9999998E-03; -2.0001147E-02;2407;0.025462184;0.0;-0.0020766526;1008.3407;  4.0345624E-01;6902.0962;3;15.993127;0.0;-2.6383815;0;0.30436173;  9.9957920E+03;  0.0000000E+00; -5.0040105E-10;  1.0000000E+04;  0.0000000E+00;  9.9982637E+03;0.18789408;0.0;0.11646766;656.29449
  9.0003622E-01;  9.9999998E-03; -1.8003069E-01;2430;0.037271123;0.0;-0.039280381;1007.3757;  4.0323946E-01;6101.064;3;25.522741;0.0;-31.342243;0;0.5456602;  9.9959404E+03;  0.0000000E+00; -2.6375053E-06;  1.0000000E+04;  0.0000000E+00;  9.9897188E+03;0.19096641;0.0;0.35469377;4494.4824
  9.0003479E-01;  9.9999998E-03; -1.6002487E-01;2431;0.035463385;0.0;-0.03306343;1007.5049;  4.0323928E-01;6207.9551;3;24.05521;0.0;-27.953867;0;0.50155532;  9.9961602E+03;  0.0000000E+00; -1.3550397E-06;  1.0000000E+04;  0.0000000E+00;  9.9920693E+03;0.17902648;0.0;0.32252884;3389.5061
  9.0003365E-01;  9.9999998E-03; -1.4001952E-01;2432;0.033951137;0.0;-0.02671374;1007.6083;  4.0323919E-01;6293.4482;3;22.76775;0.0;-23.774063;0;0.45371401;  9.9963467E+03;  0.0000000E+00; -1.3789189E-07;  1.0000000E+04;  0.0000000E+00;  9.9939375E+03;0.16867985;0.0;0.28503418;2528.7217
  9.0003282E-01;  9.9999998E-03; -1.2001439E-01;2433;0.032762185;0.0;-0.020390969;1007.6829;  4.0323913E-01;6355.1772;3;21.697535;0.0;-19.217493;0;0.40779585;  9.9964971E+03;  0.0000000E+00;  1.2715110E-07;  1.0000000E+04;  0.0000000E+00;  9.9952715E+03;0.16017674;0.0;0.24761912;1928.6293
  9.0003216E-01;  9.9999998E-03; -1.0000999E-01;2434;0.031870257;0.0;-0.014791282;1007.7371;  4.0323901E-01;6400.0435;3;20.842964;0.0;-14.890354;0;0.36581022;  9.9966133E+03;  0.0000000E+00;  7.3922294E-08;  1.0000000E+04;  0.0000000E+00;  9.9962344E+03;0.15347284;0.0;0.21233737;1510.0233
  9.0003175E-01;  9.9999998E-03; -8.0006562E-02;2435;0.031231461;0.0;-0.010253315;1007.7787;  4.0323898E-01;6434.4575;3;20.185146;0.0;-11.088416;0;0.32779002;  9.9967021E+03;  0.0000000E+00;  1.4906885E-08;  1.0000000E+04;  0.0000000E+00;  9.9969785E+03;0.14838383;0.0;0.17940621;1193.9987
  9.0003151E-01;  9.9999998E-03; -6.0004096E-02;2436;0.030794526;0.0;-0.0067771734;1007.8123;  4.0323904E-01;6462.1665;3;19.702957;0.0;-7.8524313;0;0.29452699;  9.9967627E+03;  0.0000000E+00; -3.8467132E-09;  1.0000000E+04;  0.0000000E+00;  9.9975830E+03;0.14468686;0.0;0.14984015;941.1377
  9.0003133E-01;  9.9999998E-03; -4.0002361E-02;2437;0.030513557;0.0;-0.0041177389;1007.838;  4.0323898E-01;6483.4658;3;19.372147;0.0;-5.0457821;0;0.26820934;  9.9968057E+03;  0.0000000E+00; -2.2291675E-09;  1.0000000E+04;  0.0000000E+00;  9.9980488E+03;0.14218836;0.0;0.126021;747.49744
  9.0003121E-01;  9.9999998E-03; -2.0001078E-02;2438;0.030355822;0.0;-0.0019511692;1007.8541;  4.0323904E-01;6496.7778;3;19.178572;0.0;-2.477381;0;0.25128913;  9.9968291E+03;  0.0000000E+00; -8.5588986E-10;  1.0000000E+04;  0.0000000E+00;  9.9983496E+03;0.14074659;0.0;0.11054253;624.08978
  9.2004013E-01;  9.9999998E-03; -1.8002854E-01;2461;0.041271918;0.0;-0.036561582;1006.8483;  4.0298989E-01;5661.6255;3;28.273987;0.0;-29.208658;0;0.46523488;  9.9971504E+03;  0.0000000E+00; -3.4222935E-06;  1.0000000E+04;  0.0000000E+00;  9.9904141E+03;0.13407217;0.0;0.33116272;4160.4229
  9.2003834E-01;  9.9999998E-03; -1.6002317E-01;2462;0.039016206;0.0;-0.030787352;1006.9694;  4.0298977E-01;5761.8555;3;26.433165;0.0;-26.035666;0;0.4235903;  9.9973662E+03;  0.0000000E+00; -1.7774162E-06;  1.0000000E+04;  0.0000000E+00;  9.9926074E+03;0.12265502;0.0;0.3009353;3137.1804
  9.2003697E-01;  9.9999998E-03; -1.4001819E-01;2463;0.037177127;0.0;-0.02487554;1007.0654;  4.0298969E-01;5841.1914;3;24.878483;0.0;-22.126995;0;0.37934625;  9.9975391E+03;  0.0000000E+00; -3.0154249E-07;  1.0000000E+04;  0.0000000E+00;  9.9943477E+03;0.11333226;0.0;0.26601398;2342.2629
  9.2003590E-01;  9.9999998E-03; -1.2001342E-01;2464;0.035722643;0.0;-0.018991958;1007.1343;  4.0298960E-01;5898.1553;3;23.587616;0.0;-17.875011;0;0.33730382;  9.9976729E+03;  0.0000000E+00;  3.5325339E-08;  1.0000000E+04;  0.0000000E+00;  9.9955889E+03;0.10602814;0.0;0.23127568;1789.2349
  9.2003512E-01;  9.9999998E-03; -1.0000934E-01;2465;0.034589492;0.0;-0.013791101;1007.1843;  4.0298957E-01;5939.4502;3;22.533773;0.0;-13.842959;0;0.298985;  9.9977715E+03;  0.0000000E+00;  1.9821970E-08;  1.0000000E+04;  0.0000000E+00;  9.9964795E+03;0.10047338;0.0;0.19851163;1403.7905
  9.2003453E-01;  9.9999998E-03; -8.0006167E-02;2466;0.033735115;0.0;-0.0095871761;1007.2225;  4.0298951E-01;5971.0859;3;21.705946;0.0;-10.311923;0;0.26426959;  9.9978438E+03;  0.0000000E+00; -8.2951495E-09;  1.0000000E+04;  0.0000000E+00;  9.9971680E+03;0.096362084;0.0;0.16790751;1112.839
  9.2003411E-01;  9.9999998E-03; -6.0003877E-02;2467;0.033118013;0.0;-0.0063635209;1007.2534;  4.0298951E-01;5996.6113;3;21.067371;0.0;-7.3150592;0;0.23386195;  9.9978945E+03;  0.0000000E+00; -6.3703802E-09;  1.0000000E+04;  0.0000000E+00;  9.9977314E+03;0.093425505;0.0;0.14043646;880.14337
  9.2003387E-01;  9.9999998E-03; -4.0002253E-02;2468;0.032712396;0.0;-0.0038841064;1007.2767;  4.0298951E-01;6015.9277;3;20.629055;0.0;-4.7082028;0;0.20978764;  9.9979277E+03;  0.0000000E+00;  1.5055607E-09;  1.0000000E+04;  0.0000000E+00;  9.9981641E+03;0.091462046;0.0;0.1183256;702.12848
  9.2003369E-01;  9.9999998E-03; -2.0001037E-02;2469;0.032482952;0.0;-0.0018469229;1007.2916;  4.0298945E-01;6028.1484;3;20.373714;0.0;-2.3139925;0;0.19430861;  9.9979453E+03;  0.0000000E+00;  1.5406828E-09;  1.0000000E+04;  0.0000000E+00;  9.9984404E+03;0.090336204;0.0;0.1039724;588.80994
  9.4004124E-01;  9.9999998E-03; -1.8002631E-01;2492;0.042252332;0.0;-0.033664137;1006.2723;  4.0272021E-01;5181.6914;3;28.795021;0.0;-26.896568;0;0.38412476;  9.9983428E+03;  0.0000000E+00; -3.6010090E-06;  1.0000000E+04;  0.0000000E+00;  9.9911709E+03;0.078648269;0.0;0.30547649;3795.6165
  9.4003922E-01;  9.9999998E-03; -1.6002138E-01;2493;0.039737564;0.0;-0.028358134;1006.3843;  4.0272009E-01;5274.2642;3;26.823133;0.0;-23.951551;0;0.34548342;  9.9985498E+03;  0.0000000E+00; -1.7969902E-06;  1.0000000E+04;  0.0000000E+00;  9.9931943E+03;0.068059579;0.0;0.27742383;2862.0564
  9.4003767E-01;  9.9999998E-03; -1.4001681E-01;2494;0.037729487;0.0;-0.022920467;1006.4724;  4.0272000E-01;5346.9434;3;25.174618;0.0;-20.342894;0;0.30543244;  9.9987031E+03;  0.0000000E+00; -3.5921602E-07;  1.0000000E+04;  0.0000000E+00;  9.9947930E+03;0.060090851;0.0;0.24534158;2139.1313
  9.4003648E-01;  9.9999998E-03; -1.2001243E-01;2495;0.036139835;0.0;-0.017520856;1006.535;  4.0271997E-01;5398.6465;3;23.812572;0.0;-16.427891;0;0.26784128;  9.9988135E+03;  0.0000000E+00; -2.9454421E-08;  1.0000000E+04;  0.0000000E+00;  9.9959277E+03;0.054297194;0.0;0.2135441;1637.4642
  9.4003558E-01;  9.9999998E-03; -1.0000870E-01;2496;0.034908857;0.0;-0.012757589;1006.5798;  4.0271991E-01;5435.7744;3;22.702951;0.0;-12.730144;0;0.23372337;  9.9988887E+03;  0.0000000E+00; -1.8933067E-08;  1.0000000E+04;  0.0000000E+00;  9.9967461E+03;0.050168626;0.0;0.18355475;1288.2919
  9.4003487E-01;  9.9999998E-03; -8.0005795E-02;2497;0.033978473;0.0;-0.0089104613;1006.6143;  4.0271994E-01;5464.1372;3;21.84198;0.0;-9.4854927;0;0.20279689;  9.9989424E+03;  0.0000000E+00; -1.7568016E-08;  1.0000000E+04;  0.0000000E+00;  9.9973750E+03;0.047274787;0.0;0.15552211;1024.8767
  9.4003445E-01;  9.9999998E-03; -6.0003687E-02;2498;0.033305924;0.0;-0.0059546665;1006.6418;  4.0271991E-01;5486.9849;3;21.204824;0.0;-6.7395892;0;0.17566311;  9.9989775E+03;  0.0000000E+00;  4.6141069E-09;  1.0000000E+04;  0.0000000E+00;  9.9978896E+03;0.045297775;0.0;0.13036534;814.38068
  9.4003415E-01;  9.9999998E-03; -4.0002175E-02;2499;0.032851811;0.0;-0.0036575361;1006.6629;  4.0271991E-01;5504.3174;3;20.72821;0.0;-4.3404827;0;0.15416038;  9.9990000E+03;  0.0000000E+00;  1.1882248E-08;  1.0000000E+04;  0.0000000E+00;  9.9982871E+03;0.044021174;0.0;0.11013921;653.57092
  9.4003397E-01;  9.9999998E-03; -2.0001011E-02;2500;0.032598745;0.0;-0.0017473497;1006.6761;  4.0271994E-01;5515.3477;3;20.465601;0.0;-2.1361094;0;0.14033192;  9.9990137E+03;  0.0000000E+00;  5.8080039E-09;  1.0000000E+04;  0.0000000E+00;  9.9985361E+03;0.043306708;0.0;0.097025216;551.3537
  9.6004099E-01;  9.9999998E-03; -1.8002400E-01;2523;0.041958347;0.0;-0.030660309;1005.6686;  4.0244213E-01;4678.2393;3;28.630445;0.0;-24.495138;0;0.3101047;  9.9993740E+03;  0.0000000E+00; -2.7846404E-06;  1.0000000E+04;  0.0000000E+00;  9.9919502E+03;0.031351693;0.0;0.27875301;3414.7939
  9.6003884E-01;  9.9999998E-03; -1.6001955E-01;2524;0.039380014;0.0;-0.025853558;1005.7712;  4.0244195E-01;4763.0469;3;26.634359;0.0;-21.809055;0;0.27466619;  9.9995703E+03;  0.0000000E+00; -1.2344203E-06;  1.0000000E+04;  0.0000000E+00;  9.9937979E+03;0.021691112;0.0;0.25297508;2575.1655
  9.6003723E-01;  9.9999998E-03; -1.4001538E-01;2525;0.03731513;0.0;-0.020901484;1005.8508;  4.0244195E-01;4828.6689;3;24.970179;0.0;-18.51227;0;0.23899467;  9.9997021E+03;  0.0000000E+00; -2.1611794E-07;  1.0000000E+04;  0.0000000E+00;  9.9952490E+03;0.015160575;0.0;0.2238341;1927.0867
  9.6003598E-01;  9.9999998E-03; -1.2001140E-01;2526;0.035689641;0.0;-0.016001251;1005.9067;  4.0244183E-01;4874.811;3;23.599943;0.0;-14.949876;0;0.20602915;  9.9997861E+03;  0.0000000E+00; -3.7942012E-08;  1.0000000E+04;  0.0000000E+00;  9.9962822E+03;0.010939471;0.0;0.19508968;1478.652
  9.6003503E-01;  9.9999998E-03; -1.0000801E-01;2527;0.034436528;0.0;-0.011679929;1005.9465;  4.0244192E-01;4907.6714;3;22.50091;0.0;-11.576338;0;0.17628615;  9.9998379E+03;  0.0000000E+00; -3.3672400E-08;  1.0000000E+04;  0.0000000E+00;  9.9970186E+03;0.0082789483;0.0;0.16800719;1167.2235
  9.6003437E-01;  9.9999998E-03; -8.0005370E-02;2528;0.033488274;0.0;-0.0081855757;1005.9767;  4.0244183E-01;4932.6611;3;21.597046;0.0;-8.6462736;0;0.14932287;  9.9998672E+03;  0.0000000E+00; -1.3429692E-08;  1.0000000E+04;  0.0000000E+00;  9.9975889E+03;0.0066316156;0.0;0.14269125;932.67969
  9.6003389E-01;  9.9999998E-03; -6.0003445E-02;2529;0.032819528;0.0;-0.0054859943;1006.0008;  4.0244186E-01;4952.4365;3;20.928888;0.0;-6.145371;0;0.12562165;  9.9998877E+03;  0.0000000E+00;  1.3258495E-08;  1.0000000E+04;  0.0000000E+00;  9.9980508E+03;0.0056370725;0.0;0.11998457;745.56775
  9.6003360E-01;  9.9999998E-03; -4.0002044E-02;2530;0.032377362;0.0;-0.0033770103;1006.0194;  4.0244189E-01;4967.7842;3;20.47806;0.0;-3.9564316;0;0.10681814;  9.9998984E+03;  0.0000000E+00;  1.9664464E-08;  1.0000000E+04;  0.0000000E+00;  9.9984102E+03;0.0050664912;0.0;0.10175165;602.89038
  9.6003342E-01;  9.9999998E-03; -2.0000955E-02;2531;0.032125864;0.0;-0.0016152898;1006.0311;  4.0244177E-01;4977.4258;3;20.211315;0.0;-1.9423753;0;0.094723083;  9.9999033E+03;  0.0000000E+00;  7.4666335E-09;  1.0000000E+04;  0.0000000E+00;  9.9986357E+03;0.0047771283;0.0;0.089945957;512.35205
  9.8004001E-01;  9.9999998E-03; -1.8002169E-01;2554;0.041082799;0.0;-0.027673678;1005.0574;  4.0216628E-01;4168.3584;3;28.158325;0.0;-22.134666;0;0.24813966;  1.0000154E+04;  0.0000000E+00; -1.2956463E-06;  1.0000000E+04;  0.0000000E+00;  9.9927236E+03;-0.0040759887;0.0;0.25221565;3033.9929
  9.8003787E-01;  9.9999998E-03; -1.6001770E-01;2555;0.038467649;0.0;-0.023345698;1005.151;  4.0216622E-01;4245.4873;3;26.147434;0.0;-19.679329;0;0.21559814;  1.0000350E+04;  0.0000000E+00; -3.5977206E-07;  1.0000000E+04;  0.0000000E+00;  9.9943955E+03;-0.013046211;0.0;0.22864434;2288.6023
  9.8003620E-01;  9.9999998E-03; -1.4001393E-01;2556;0.036395997;0.0;-0.018894384;1005.2227;  4.0216616E-01;4304.5371;3;24.479162;0.0;-16.695181;0;0.18394464;  1.0000464E+04;  0.0000000E+00; -2.6204926E-08;  1.0000000E+04;  0.0000000E+00;  9.9957061E+03;-0.018406063;0.0;0.20235071;1714.6389
  9.8003495E-01;  9.9999998E-03; -1.2001037E-01;2557;0.034771703;0.0;-0.014494244;1005.2723;  4.0216616E-01;4345.4111;3;23.123089;0.0;-13.481563;0;0.15526883;  1.0000525E+04;  0.0000000E+00; -5.4779544E-08;  1.0000000E+04;  0.0000000E+00;  9.9966338E+03;-0.021319544;0.0;0.17658837;1318.5735
  9.8003405E-01;  9.9999998E-03; -1.0000733E-01;2558;0.033522651;0.0;-0.010612899;1005.3069;  4.0216607E-01;4373.9043;3;21.994934;0.0;-10.462153;0;0.1296382;  1.0000557E+04;  0.0000000E+00; -5.6650642E-08;  1.0000000E+04;  0.0000000E+00;  9.9972920E+03;-0.022758637;0.0;0.15239683;1044.474
  9.8003340E-01;  9.9999998E-03; -8.0004945E-02;2559;0.032613002;0.0;-0.0074619553;1005.3334;  4.0216610E-01;4395.8149;3;21.104212;0.0;-7.8123384;0;0.10645391;  1.0000571E+04;  0.0000000E+00; -9.7790718E-09;  1.0000000E+04;  0.0000000E+00;  9.9978027E+03;-0.023375303;0.0;0.12982921;838.8728
  9.8003298E-01;  9.9999998E-03; -6.0003199E-02;2560;0.031995621;0.0;-0.0050145192;1005.3544;  4.0216604E-01;4413.1074;3;20.463131;0.0;-5.5368185;0;0.086060643;  1.0000575E+04;  0.0000000E+00;  2.2637273E-08;  1.0000000E+04;  0.0000000E+00;  9.9982148E+03;-0.023563443;0.0;0.10962409;675.44788
  9.8003274E-01;  9.9999998E-03; -4.0001918E-02;2561;0.03159564;0.0;-0.0030977204;1005.3702;  4.0216601E-01;4426.1753;3;20.046412;0.0;-3.5404186;0;0.069873102;  1.0000576E+04;  0.0000000E+00;  2.4534639E-08;  1.0000000E+04;  0.0000000E+00;  9.9985303E+03;-0.02355705;0.0;0.093430154;551.18884
  9.8003256E-01;  9.9999998E-03; -2.0000903E-02;2562;0.031368814;0.0;-0.001485834;1005.3803;  4.0216610E-01;4434.4282;3;19.791237;0.0;-1.7269731;0;0.059462301;  1.0000577E+04;  0.0000000E+00;  8.5978922E-09;  1.0000000E+04;  0.0000000E+00;  9.9987305E+03;-0.023499386;0.0;0.082961686;472.49945
  1.0000386E+00;  9.9999998E-03; -1.8001948E-01;2585;0.039868467;0.0;-0.02481107;1004.4594;  4.0190184E-01;3668.8425;3;27.527643;0.0;-19.873392;0;0.19985007;  1.0000678E+04;  0.0000000E+00;  3.5421153E-06;  1.0000000E+04;  0.0000000E+00;  9.9934473E+03;-0.027257873;0.0;0.22710794;2669.053
  1.0000366E+00;  9.9999998E-03; -1.6001594E-01;2586;0.037269656;0.0;-0.020977309;1004.5447;  4.0190181E-01;3739.0662;3;25.490587;0.0;-17.684261;0;0.16951245;  1.0000873E+04;  0.0000000E+00;  1.6229711E-07;  1.0000000E+04;  0.0000000E+00;  9.9949531E+03;-0.035964958;0.0;0.20547742;2014.4446
  1.0000349E+00;  9.9999998E-03; -1.4001259E-01;2587;0.035190348;0.0;-0.017007582;1004.6094;  4.0190169E-01;3792.3223;3;23.794666;0.0;-15.012192;0;0.1410334;  1.0000983E+04;  0.0000000E+00; -1.1815544E-07;  1.0000000E+04;  0.0000000E+00;  9.9961348E+03;-0.040695533;0.0;0.18172893;1510.412
  1.0000337E+00;  9.9999998E-03; -1.2000941E-01;2588;0.033597674;0.0;-0.01309038;1004.6538;  4.0190169E-01;3828.8071;3;22.43051;0.0;-12.157022;0;0.11585655;  1.0001035E+04;  0.0000000E+00; -1.9532941E-07;  1.0000000E+04;  0.0000000E+00;  9.9969688E+03;-0.042824917;0.0;0.15868147;1163.1028
  1.0000328E+00;  9.9999998E-03; -1.0000669E-01;2589;0.032413829;0.0;-0.0096125696;1004.6843;  4.0190175E-01;3853.9153;3;21.353897;0.0;-9.4231853;0;0.09369795;  1.0001053E+04;  0.0000000E+00; -1.0853367E-07;  1.0000000E+04;  0.0000000E+00;  9.9975586E+03;-0.043506071;0.0;0.13720402;923.9527
  1.0000322E+00;  9.9999998E-03; -8.0004573E-02;2590;0.031569336;0.0;-0.0067858999;1004.7072;  4.0190169E-01;3872.7458;3;20.54924;0.0;-6.996635;0;0.073821962;  1.0001056E+04;  0.0000000E+00; -1.2590019E-08;  1.0000000E+04;  0.0000000E+00;  9.9980078E+03;-0.043477189;0.0;0.11729915;746.04095
  1.0000318E+00;  9.9999998E-03; -6.0003001E-02;2591;0.030984795;0.0;-0.0045985361;1004.7253;  4.0190169E-01;3887.6538;3;19.953096;0.0;-4.9349055;0;0.05640585;  1.0001053E+04;  0.0000000E+00;  3.1417159E-08;  1.0000000E+04;  0.0000000E+00;  9.9983691E+03;-0.043159537;0.0;0.099565387;605.71295
  1.0000316E+00;  9.9999998E-03; -4.0001821E-02;2592;0.030604517;0.0;-0.0028683832;1004.739;  4.0190169E-01;3898.8345;3;19.53314;0.0;-3.1786344;0;0.042605925;  1.0001050E+04;  0.0000000E+00;  2.8748138E-08;  1.0000000E+04;  0.0000000E+00;  9.9986465E+03;-0.042793322;0.0;0.085399248;499.55035
  1.0000315E+00;  9.9999998E-03; -2.0000860E-02;2593;0.030396115;0.0;-0.0013831975;1004.7476;  4.0190172E-01;3905.9944;3;19.292358;0.0;-1.5736392;0;0.033737946;  1.0001048E+04;  0.0000000E+00;  9.3318100E-09;  1.0000000E+04;  0.0000000E+00;  9.9988223E+03;-0.042521138;0.0;0.076259084;432.50519
  1.0200372E+00;  9.9999998E-03; -1.8001743E-01;2616;0.03855088;0.0;-0.022125447;1003.8923;  4.0165603E-01;3194.6028;3;26.829895;0.0;-17.770041;0;0.16440336;  1.0000974E+04;  0.0000000E+00; -2.2280485E-04;  1.0000000E+04;  0.0000000E+00;  9.9940928E+03;-0.040186848;0.0;0.20459022;2333.396
  1.0200351E+00;  9.9999998E-03; -1.6001430E-01;2617;0.035935361;0.0;-0.018734721;1003.9709;  4.0165597E-01;3259.0808;3;24.763329;0.0;-15.805915;0;0.13551708;  1.0001182E+04;  0.0000000E+00; -7.4962409E-06;  1.0000000E+04;  0.0000000E+00;  9.9954512E+03;-0.048904344;0.0;0.18442142;1763.2905
  1.0200335E+00;  9.9999998E-03; -1.4001133E-01;2618;0.033842769;0.0;-0.015227846;1004.0301;  4.0165597E-01;3307.7083;3;23.047009;0.0;-13.432174;0;0.10907942;  1.0001295E+04;  0.0000000E+00; -8.2271947E-07;  1.0000000E+04;  0.0000000E+00;  9.9965186E+03;-0.053645778;0.0;0.1627252;1322.255
  1.0200323E+00;  9.9999998E-03; -1.2000853E-01;2619;0.032265555;0.0;-0.011774285;1004.0706;  4.0165594E-01;3340.9749;3;21.70046;0.0;-10.878291;0;0.08631067;  1.0001347E+04;  0.0000000E+00; -5.8777624E-07;  1.0000000E+04;  0.0000000E+00;  9.9972705E+03;-0.05563258;0.0;0.14194325;1017.7485
  1.0200313E+00;  9.9999998E-03; -1.0000613E-01;2620;0.031114124;0.0;-0.0087076603;1004.0982;  4.0165594E-01;3363.5764;3;20.660494;0.0;-8.421855;0;0.066739835;  1.0001365E+04;  0.0000000E+00; -2.2701090E-07;  1.0000000E+04;  0.0000000E+00;  9.9978037E+03;-0.056106366;0.0;0.1228462;809.35138
  1.0200309E+00;  9.9999998E-03; -8.0004252E-02;2621;0.030309543;0.0;-0.0062149442;1004.1183;  4.0165600E-01;3380.1118;3;19.87071;0.0;-6.2789378;0;0.049529243;  1.0001370E+04;  0.0000000E+00; -2.0309971E-08;  1.0000000E+04;  0.0000000E+00;  9.9982031E+03;-0.055869337;0.0;0.10539858;656.55627
  1.0200305E+00;  9.9999998E-03; -6.0002830E-02;2622;0.029765662;0.0;-0.0042554955;1004.134;  4.0165594E-01;3393.0269;3;19.291338;0.0;-4.4692283;0;0.034644939;  1.0001365E+04;  0.0000000E+00;  4.4658805E-08;  1.0000000E+04;  0.0000000E+00;  9.9985176E+03;-0.055376619;0.0;0.090021558;537.81812
  1.0200303E+00;  9.9999998E-03; -4.0001728E-02;2623;0.029421894;0.0;-0.0026664441;1004.1457;  4.0165597E-01;3402.6155;3;18.913113;0.0;-2.9014933;0;0.022928823;  1.0001358E+04;  0.0000000E+00;  3.6175376E-08;  1.0000000E+04;  0.0000000E+00;  9.9987568E+03;-0.054884341;0.0;0.077813163;448.83463
  1.0200301E+00;  9.9999998E-03; -2.0000819E-02;2624;0.029224386;0.0;-0.0012856118;1004.1531;  4.0165597E-01;3408.6816;3;18.685907;0.0;-1.4418339;0;0.015418924;  1.0001354E+04;  0.0000000E+00;  1.1272828E-08;  1.0000000E+04;  0.0000000E+00;  9.9989072E+03;-0.054538265;0.0;0.069957189;392.89758
  1.0400356E+00;  9.9999998E-03; -1.8001562E-01;2647;0.037105825;0.0;-0.019710587;1003.3705;  4.0143383E-01;2757.4661;3;26.067598;0.0;-15.827971;0;0.13984099;  1.0001103E+04;  0.0000000E+00; -1.7930820E-03;  1.0000000E+04;  0.0000000E+00;  9.9946387E+03;-0.045681573;0.0;0.18552256;2035.3
  1.0400335E+00;  9.9999998E-03; -1.6001277E-01;2648;0.034420136;0.0;-0.016637025;1003.4428;  4.0143374E-01;2816.5684;3;23.943064;0.0;-14.036229;0;0.11195754;  1.0001314E+04;  0.0000000E+00; -1.5700361E-04;  1.0000000E+04;  0.0000000E+00;  9.9958652E+03;-0.054289743;0.0;0.16624728;1542.4032
  1.0400318E+00;  9.9999998E-03; -1.4001018E-01;2649;0.032344859;0.0;-0.01359332;1003.4983;  4.0143362E-01;2862.0166;3;22.22542;0.0;-11.967216;0;0.086421356;  1.0001448E+04;  0.0000000E+00; -2.4846893E-06;  1.0000000E+04;  0.0000000E+00;  9.9968428E+03;-0.059549898;0.0;0.14597125;1156.2234
  1.0400306E+00;  9.9999998E-03; -1.2000773E-01;2650;0.030769372;0.0;-0.010578626;1003.5366;  4.0143368E-01;2893.3232;3;20.872774;0.0;-9.6930876;0;0.064841114;  1.0001514E+04;  0.0000000E+00; -1.3702276E-06;  1.0000000E+04;  0.0000000E+00;  9.9975361E+03;-0.062025644;0.0;0.12686676;887.13593
  1.0400298E+00;  9.9999998E-03; -1.0000563E-01;2651;0.029649917;0.0;-0.0079126339;1003.5623;  4.0143362E-01;2914.3896;3;19.86202;0.0;-7.5527153;0;0.04685089;  1.0001542E+04;  0.0000000E+00; -4.5096323E-07;  1.0000000E+04;  0.0000000E+00;  9.9980225E+03;-0.062826663;0.0;0.10967755;703.91614
  1.0400292E+00;  9.9999998E-03; -8.0003962E-02;2652;0.02887517;0.0;-0.0057107238;1003.5806;  4.0143362E-01;2929.3115;3;19.097925;0.0;-5.6686449;0;0.03156931;  1.0001551E+04;  0.0000000E+00; -3.6209883E-08;  1.0000000E+04;  0.0000000E+00;  9.9983789E+03;-0.062788412;0.0;0.094357722;572.46436
  1.0400288E+00;  9.9999998E-03; -6.0002666E-02;2653;0.028366804;0.0;-0.0039427569;1003.5944;  4.0143371E-01;2940.6245;3;18.548952;0.0;-4.0534058;0;0.018708598;  1.0001550E+04;  0.0000000E+00;  6.9131382E-08;  1.0000000E+04;  0.0000000E+00;  9.9986553E+03;-0.06241845;0.0;0.081127048;472.9017
  1.0400287E+00;  9.9999998E-03; -4.0001638E-02;2654;0.028043645;0.0;-0.0024757667;1003.6046;  4.0143365E-01;2949.0122;3;18.177794;0.0;-2.6429482;0;0.0087386928;  1.0001547E+04;  0.0000000E+00;  4.9917581E-08;  1.0000000E+04;  0.0000000E+00;  9.9988633E+03;-0.062006209;0.0;0.070744902;399.59409
  1.0400286E+00;  9.9999998E-03; -2.0000778E-02;2655;0.027859619;0.0;-0.0011899688;1003.6109;  4.0143365E-01;2954.0835;3;17.940678;0.0;-1.2996535;0;0.002389472;  1.0001545E+04;  0.0000000E+00;  1.4278368E-08;  1.0000000E+04;  0.0000000E+00;  9.9989893E+03;-0.06170832;0.0;0.064097792;353.92145
  1.0600338E+00;  9.9999998E-03; -1.8001406E-01;2678;0.035566054;0.0;-0.017532887;1002.9039;  4.0123799E-01;2365.4724;3;25.290462;0.0;-14.003733;0;0.12408941;  1.0001113E+04;  0.0000000E+00; -7.1426043E-03;  1.0000000E+04;  0.0000000E+00;  9.9950752E+03;-0.046172611;0.0;0.17026202;1776.2981
  1.0600317E+00;  9.9999998E-03; -1.6001138E-01;2679;0.032842249;0.0;-0.014723508;1002.97;  4.0123802E-01;2419.3691;3;23.10161;0.0;-12.385592;0;0.097347505;  1.0001316E+04;  0.0000000E+00; -1.0318616E-03;  1.0000000E+04;  0.0000000E+00;  9.9961895E+03;-0.054094635;0.0;0.15144214;1354.1068
  1.0600300E+00;  9.9999998E-03; -1.4000912E-01;2680;0.030741865;0.0;-0.012089164;1003.0229;  4.0123799E-01;2462.4863;3;21.342834;0.0;-10.582299;0;0.071894743;  1.0001470E+04;  0.0000000E+00; -2.0088251E-05;  1.0000000E+04;  0.0000000E+00;  9.9970938E+03;-0.060054816;0.0;0.13194956;1015.5994
  1.0600288E+00;  9.9999998E-03; -1.2000701E-01;2681;0.02917875;0.0;-0.0095114568;1003.0605;  4.0123793E-01;2493.0767;3;20.008152;0.0;-8.662776;0;0.050303228;  1.0001563E+04;  0.0000000E+00; -2.7796407E-06;  1.0000000E+04;  0.0000000E+00;  9.9977529E+03;-0.063563593;0.0;0.11386682;774.52301
  1.0600280E+00;  9.9999998E-03; -1.0000519E-01;2682;0.028068459;0.0;-0.0072028032;1003.0861;  4.0123796E-01;2513.9553;3;18.9965;0.0;-6.7991843;0;0.032823324;  1.0001609E+04;  0.0000000E+00; -9.0683722E-07;  1.0000000E+04;  0.0000000E+00;  9.9982109E+03;-0.065183066;0.0;0.09800639;610.33911
  1.0600274E+00;  9.9999998E-03; -8.0003701E-02;2683;0.027318668;0.0;-0.0052569597;1003.1036;  4.0123799E-01;2528.2307;3;18.257635;0.0;-5.126812;0;0.018650614;  1.0001635E+04;  0.0000000E+00; -1.0486887E-07;  1.0000000E+04;  0.0000000E+00;  9.9985391E+03;-0.065711945;0.0;0.084362559;495.57974
  1.0600271E+00;  9.9999998E-03; -6.0002510E-02;2684;0.026835775;0.0;-0.0036580393;1003.1161;  4.0123799E-01;2538.4275;3;17.726431;0.0;-3.7029743;0;0.0072426274;  1.0001643E+04;  0.0000000E+00;  8.7747857E-08;  1.0000000E+04;  0.0000000E+00;  9.9987813E+03;-0.065719046;0.0;0.072961673;411.92874
  1.0600269E+00;  9.9999998E-03; -4.0001549E-02;2685;0.026533244;0.0;-0.0022987253;1003.1251;  4.0123796E-01;2545.7107;3;17.391068;0.0;-2.4060962;0;-0.0013478175;  1.0001647E+04;  0.0000000E+00;  7.0707962E-08;  1.0000000E+04;  0.0000000E+00;  9.9989570E+03;-0.065552346;0.0;0.064204529;352.18289
  1.0600268E+00;  9.9999998E-03; -2.0000739E-02;2686;0.026362868;0.0;-0.0011064651;1003.1306;  4.0123791E-01;2550.1777;3;17.178541;0.0;-1.1790512;0;-0.0067399144;  1.0001646E+04;  0.0000000E+00;  2.0462982E-08;  1.0000000E+04;  0.0000000E+00;  9.9990635E+03;-0.065396681;0.0;0.058656767;315.59277
  1.0800321E+00;  9.9999998E-03; -1.8001270E-01;2709;0.034048568;0.0;-0.015598085;1002.497;  4.0106997E-01;2022.4679;3;24.532427;0.0;-12.33943;0;0.11527713;  1.0001039E+04;  0.0000000E+00; -2.0187829E-02;  1.0000000E+04;  0.0000000E+00;  9.9954092E+03;-0.043331429;0.0;0.15860856;1552.4083
  1.0800298E+00;  9.9999998E-03; -1.6001020E-01;2710;0.0312896;0.0;-0.013074943;1002.556;  4.0106997E-01;2070.2646;3;22.27228;0.0;-10.942647;0;0.090500399;  1.0001211E+04;  0.0000000E+00; -4.4620838E-03;  1.0000000E+04;  0.0000000E+00;  9.9964180E+03;-0.04963249;0.0;0.14013289;1195.3591
  1.0800282E+00;  9.9999998E-03; -1.4000812E-01;2711;0.029133298;0.0;-0.010697154;1002.6069;  4.0107000E-01;2111.4954;3;20.484768;0.0;-9.3451691;0;0.065017164;  1.0001376E+04;  0.0000000E+00; -3.1865982E-04;  1.0000000E+04;  0.0000000E+00;  9.9972676E+03;-0.055952914;0.0;0.12097008;899.88269
  1.0800270E+00;  9.9999998E-03; -1.2000635E-01;2712;0.027580634;0.0;-0.0085477419;1002.6452;  4.0107000E-01;2142.5874;3;19.130219;0.0;-7.7420807;0;0.042479154;  1.0001501E+04;  0.0000000E+00; -5.1400639E-06;  1.0000000E+04;  0.0000000E+00;  9.9979082E+03;-0.060814667;0.0;0.10329382;681.34839
  1.0800261E+00;  9.9999998E-03; -1.0000477E-01;2713;0.02646653;0.0;-0.0065505072;1002.6718;  4.0106991E-01;2164.1201;3;18.124132;0.0;-6.1293669;0;0.024410971;  1.0001583E+04;  0.0000000E+00; -1.8912999E-06;  1.0000000E+04;  0.0000000E+00;  9.9983574E+03;-0.063723698;0.0;0.088134669;530.65424
  1.0800256E+00;  9.9999998E-03; -8.0003448E-02;2714;0.025731744;0.0;-0.0048463908;1002.6898;  4.0106997E-01;2178.604;3;17.376932;0.0;-4.6615982;0;0.010403626;  1.0001627E+04;  0.0000000E+00; -3.8558321E-07;  1.0000000E+04;  0.0000000E+00;  9.9986699E+03;-0.065208763;0.0;0.075612389;427.67392
  1.0800252E+00;  9.9999998E-03; -6.0002368E-02;2715;0.025262162;0.0;-0.0033946303;1002.702;  4.0106988E-01;2188.5496;3;16.911505;0.0;-3.3939362;0;-0.00024989992;  1.0001652E+04;  0.0000000E+00;  4.5091497E-08;  1.0000000E+04;  0.0000000E+00;  9.9988916E+03;-0.065859012;0.0;0.065609112;356.00137
  1.0800251E+00;  9.9999998E-03; -4.0001471E-02;2716;0.024965288;0.0;-0.0021391071;1002.7104;  4.0107000E-01;2195.405;3;16.589798;0.0;-2.1940441;0;-0.0079087391;  1.0001666E+04;  0.0000000E+00;  7.6108158E-08;  1.0000000E+04;  0.0000000E+00;  9.9990449E+03;-0.066095516;0.0;0.058186777;307.05774
  1.0800250E+00;  9.9999998E-03; -2.0000705E-02;2717;0.024802865;0.0;-0.001030357;1002.7154;  4.0106994E-01;2199.3643;3;16.399658;0.0;-1.0677485;0;-0.012583364;  1.0001672E+04;  0.0000000E+00;  2.4286772E-08;  1.0000000E+04;  0.0000000E+00;  9.9991367E+03;-0.06616237;0.0;0.053579006;277.95242
  1.1000307E+00;  9.9999998E-03; -1.8001170E-01;2739;0.032746017;0.0;-0.014011977;1002.1501;  4.0092885E-01;1728.4017;3;23.931425;0.0;-10.884641;0;0.11168917;  1.0000899E+04;  0.0000000E+00; -4.5407187E-02;  1.0000000E+04;  0.0000000E+00;  9.9956689E+03;-0.038186524;0.0;0.14987569;1358.5598
  1.1000282E+00;  9.9999998E-03; -1.6000910E-01;2740;0.029787498;0.0;-0.011512096;1002.2008;  4.0092891E-01;1769.2275;3;21.485683;0.0;-9.5635366;0;0.09019731;  1.0001009E+04;  0.0000000E+00; -1.4135984E-02;  1.0000000E+04;  0.0000000E+00;  9.9965703E+03;-0.041792706;0.0;0.13199002;1059.0699
  1.1000265E+00;  9.9999998E-03; -1.4000723E-01;2741;0.027644092;0.0;-0.0094665084;1002.2487;  4.0092891E-01;1807.6571;3;19.67384;0.0;-8.2664137;0;0.065454394;  1.0001167E+04;  0.0000000E+00; -2.2971062E-03;  1.0000000E+04;  0.0000000E+00;  9.9973662E+03;-0.047637448;0.0;0.11309184;804.3407
  1.1000252E+00;  9.9999998E-03; -1.2000568E-01;2742;0.026040819;0.0;-0.0075960183;1002.2881;  4.0092883E-01;1839.3781;3;18.284721;0.0;-6.8670969;0;0.041782971;  1.0001325E+04;  0.0000000E+00; -1.1333579E-04;  1.0000000E+04;  0.0000000E+00;  9.9979971E+03;-0.053645227;0.0;0.095428199;606.62714
  1.1000243E+00;  9.9999998E-03; -1.0000436E-01;2743;0.02494221;0.0;-0.0059407032;1002.3171;  4.0092880E-01;1862.6656;3;17.27853;0.0;-5.5130153;0;0.022161514;  1.0001446E+04;  0.0000000E+00; -3.8318508E-06;  1.0000000E+04;  0.0000000E+00;  9.9984541E+03;-0.058231145;0.0;0.080392659;465.8371
  1.1000237E+00;  9.9999998E-03; -8.0003209E-02;2744;0.02419587;0.0;-0.0044498234;1002.337;  4.0092885E-01;1878.6698;3;16.561325;0.0;-4.2445679;0;0.0072518028;  1.0001527E+04;  0.0000000E+00; -1.1782034E-06;  1.0000000E+04;  0.0000000E+00;  9.9987695E+03;-0.061131399;0.0;0.068383202;370.37238
  1.1000234E+00;  9.9999998E-03; -6.0002234E-02;2745;0.023719845;0.0;-0.0031478563;1002.3502;  4.0092885E-01;1889.3073;3;16.109694;0.0;-3.0975547;0;-0.0035552494;  1.0001577E+04;  0.0000000E+00; -2.0218984E-07;  1.0000000E+04;  0.0000000E+00;  9.9989824E+03;-0.062793605;0.0;0.059238356;306.5661
  1.1000233E+00;  9.9999998E-03; -4.0001400E-02;2746;0.023418466;0.0;-0.0019936957;1002.3587;  4.0092888E-01;1896.1115;3;15.799877;0.0;-1.9948224;0;-0.010919694;  1.0001606E+04;  0.0000000E+00;  1.4901662E-08;  1.0000000E+04;  0.0000000E+00;  9.9991230E+03;-0.06367173;0.0;0.052752037;265.16107
  1.1000232E+00;  9.9999998E-03; -2.0000674E-02;2747;0.023254517;0.0;-0.00096439349;1002.3633;  4.0092885E-01;1899.8491;3;15.621201;0.0;-0.97604197;0;-0.015233729;  1.0001619E+04;  0.0000000E+00;  1.5129860E-08;  1.0000000E+04;  0.0000000E+00;  9.9992041E+03;-0.064084023;0.0;0.048850294;241.50876
  1.1200296E+00;  9.9999998E-03; -1.8001117E-01;2768;0.031792715;0.0;-0.012827735;1001.8619;  4.0081325E-01;1482.0269;3;23.619705;0.0;-9.596364;0;0.11129265;  1.0000708E+04;  0.0000000E+00; -8.6524665E-02;  1.0000000E+04;  0.0000000E+00;  9.9958721E+03;-0.031766128;0.0;0.14305878;1193.8214
  1.1200268E+00;  9.9999998E-03; -1.6000827E-01;2769;0.028551571;0.0;-0.010206231;1001.9031;  4.0081337E-01;1514.8599;3;20.884041;0.0;-8.3225965;0;0.094527416;  1.0000735E+04;  0.0000000E+00; -3.6009718E-02;  1.0000000E+04;  0.0000000E+00;  9.9966660E+03;-0.031719603;0.0;0.12624702;938.71997
  1.1200249E+00;  9.9999998E-03; -1.4000639E-01;2770;0.026271153;0.0;-0.0082679717;1001.9462;  4.0081337E-01;1549.1155;3;18.93858;0.0;-7.1538267;0;0.072153285;  1.0000857E+04;  0.0000000E+00; -1.0008045E-02;  1.0000000E+04;  0.0000000E+00;  9.9974033E+03;-0.035829734;0.0;0.10798302;721.32269
  1.1200236E+00;  9.9999998E-03; -1.2000506E-01;2771;0.024673097;0.0;-0.0067031705;1001.9856;  4.0081331E-01;1580.4291;3;17.542353;0.0;-6.0372825;0;0.048343286;  1.0001025E+04;  0.0000000E+00; -1.5702705E-03;  1.0000000E+04;  0.0000000E+00;  9.9980234E+03;-0.042015538;0.0;0.090358824;545.90631
  1.1200228E+00;  9.9999998E-03; -1.0000393E-01;2772;0.023529295;0.0;-0.0052991817;1002.0172;  4.0081328E-01;1605.6698;3;16.49477;0.0;-4.8790326;0;0.027031146;  1.0001186E+04;  0.0000000E+00; -9.8096702E-05;  1.0000000E+04;  0.0000000E+00;  9.9984941E+03;-0.048079759;0.0;0.075110905;415.0004
  1.1200222E+00;  9.9999998E-03; -8.0002964E-02;2773;0.022784373;0.0;-0.0040571531;1002.0401;  4.0081331E-01;1623.8884;3;15.814521;0.0;-3.8344855;0;0.010295037;  1.0001312E+04;  0.0000000E+00; -2.8752659E-06;  1.0000000E+04;  0.0000000E+00;  9.9988232E+03;-0.052753333;0.0;0.06304837;324.49185
  1.1200217E+00;  9.9999998E-03; -6.0002092E-02;2774;0.022283053;0.0;-0.0029004265;1002.0554;  4.0081334E-01;1636.0344;3;15.354346;0.0;-2.8038979;0;-0.0016985536;  1.0001396E+04;  0.0000000E+00; -9.1671069E-07;  1.0000000E+04;  0.0000000E+00;  9.9990469E+03;-0.05586328;0.0;0.054164726;265.0567
  1.1200215E+00;  9.9999998E-03; -4.0001333E-02;2775;0.02196949;0.0;-0.0018603572;1002.0649;  4.0081328E-01;1643.6256;3;15.049672;0.0;-1.8237319;0;-0.0096158832;  1.0001448E+04;  0.0000000E+00; -2.1534052E-07;  1.0000000E+04;  0.0000000E+00;  9.9991855E+03;-0.057735574;0.0;0.04811969;227.93385
  1.1200213E+00;  9.9999998E-03; -2.0000646E-02;2776;0.021796521;0.0;-0.00090360263;1002.0702;  4.0081331E-01;1647.8005;3;14.878081;0.0;-0.88997149;0;-0.014101867;  1.0001477E+04;  0.0000000E+00; -2.8936737E-08;  1.0000000E+04;  0.0000000E+00;  9.9992627E+03;-0.058709376;0.0;0.044607509;207.50928
  1.1400290E+00;  9.9999998E-03; -1.8001126E-01;2796;0.031284247;0.0;-0.012148702;1001.6282;  4.0072057E-01;1279.4524;3;23.656021;0.0;-8.5011864;0;0.11204596;  1.0000492E+04;  0.0000000E+00; -1.4297022E-01;  1.0000000E+04;  0.0000000E+00;  9.9960518E+03;-0.025166379;0.0;0.13721234;1060.8813
  1.1400257E+00;  9.9999998E-03; -1.6000785E-01;2797;0.027661771;0.0;-0.0092813559;1001.6592;  4.0072057E-01;1303.7163;3;20.546553;0.0;-7.2768879;0;0.10083705;  1.0000422E+04;  0.0000000E+00; -7.5765349E-02;  1.0000000E+04;  0.0000000E+00;  9.9967422E+03;-0.020992225;0.0;0.12182928;834.81512
  1.1400236E+00;  9.9999998E-03; -1.4000577E-01;2798;0.02517979;0.0;-0.0072852173;1001.6954;  4.0072057E-01;1332.1943;3;18.402496;0.0;-6.1848674;0;0.082855299;  1.0000477E+04;  0.0000000E+00; -3.0681077E-02;  1.0000000E+04;  0.0000000E+00;  9.9974072E+03;-0.021988921;0.0;0.10484422;645.12274
  1.1400223E+00;  9.9999998E-03; -1.2000445E-01;2799;0.023456786;0.0;-0.005825527;1001.7321;  4.0072057E-01;1361.0466;3;16.892109;0.0;-5.1901422;0;0.060965151;  1.0000619E+04;  0.0000000E+00; -9.0539185E-03;  1.0000000E+04;  0.0000000E+00;  9.9980000E+03;-0.026787451;0.0;0.087752603;492.18845
  1.1400213E+00;  9.9999998E-03; -1.0000349E-01;2800;0.022312835;0.0;-0.0046709534;1001.7646;  4.0072045E-01;1386.5261;3;15.849172;0.0;-4.2774129;0;0.039295178;  1.0000790E+04;  0.0000000E+00; -1.8257601E-03;  1.0000000E+04;  0.0000000E+00;  9.9984785E+03;-0.03311431;0.0;0.072409488;374.04846
  1.1400207E+00;  9.9999998E-03; -8.0002651E-02;2801;0.021520691;0.0;-0.0036094585;1001.7902;  4.0072048E-01;1406.6661;3;15.138988;0.0;-3.3818996;0;0.020906422;  1.0000950E+04;  0.0000000E+00; -2.1685025E-04;  1.0000000E+04;  0.0000000E+00;  9.9988291E+03;-0.039093312;0.0;0.059999734;288.94745
  1.1400203E+00;  9.9999998E-03; -6.0001917E-02;2802;0.02100287;0.0;-0.0026342163;1001.8083;  4.0072057E-01;1420.9048;3;14.671818;0.0;-2.5125103;0;0.0070883706;  1.0001074E+04;  0.0000000E+00; -1.0903037E-05;  1.0000000E+04;  0.0000000E+00;  9.9990674E+03;-0.043759193;0.0;0.050847564;231.98508
  1.1400200E+00;  9.9999998E-03; -4.0001236E-02;2803;0.020674121;0.0;-0.0017039295;1001.8201;  4.0072060E-01;1430.1785;3;14.371552;0.0;-1.6441641;0;-0.0021761507;  1.0001160E+04;  0.0000000E+00; -7.7288541E-07;  1.0000000E+04;  0.0000000E+00;  9.9992188E+03;-0.046893001;0.0;0.04471685;196.60298
  1.1400199E+00;  9.9999998E-03; -2.0000607E-02;2804;0.020496482;0.0;-0.00084044231;1001.8265;  4.0072051E-01;1435.2369;3;14.204333;0.0;-0.81528729;0;-0.007414788;  1.0001207E+04;  0.0000000E+00; -1.5455950E-07;  1.0000000E+04;  0.0000000E+00;  9.9993018E+03;-0.048641037;0.0;0.041226249;177.44702
  1.1600293E+00;  9.9999998E-03; -1.8001215E-01;2823;0.03152955;0.0;-0.012102373;1001.4427;  4.0064782E-01;1115.0607;3;24.313602;0.0;-7.6430464;0;0.11334983;  1.0000262E+04;  0.0000000E+00; -2.0684104E-01;  1.0000000E+04;  0.0000000E+00;  9.9962080E+03;-0.018657522;0.0;0.13200735;954.7738
  1.1600254E+00;  9.9999998E-03; -1.6000807E-01;2824;0.027260887;0.0;-0.0089167161;1001.4659;  4.0064782E-01;1132.9382;3;20.569502;0.0;-6.5225406;0;0.10650174;  1.0000115E+04;  0.0000000E+00; -1.3303104E-01;  1.0000000E+04;  0.0000000E+00;  9.9968203E+03;-0.011277296;0.0;0.11777904;752.95807
  1.1600229E+00;  9.9999998E-03; -1.4000554E-01;2825;0.024437703;0.0;-0.0066612391;1001.4933;  4.0064791E-01;1154.1311;3;18.101765;0.0;-5.3948994;0;0.094460145;  1.0000075E+04;  0.0000000E+00; -7.0706300E-02;  1.0000000E+04;  0.0000000E+00;  9.9974063E+03;-0.0081065418;0.0;0.10256669;579.21625
  1.1600212E+00;  9.9999998E-03; -1.2000401E-01;2826;0.022535145;0.0;-0.0051371278;1001.5242;  4.0064782E-01;1177.9949;3;16.447206;0.0;-4.4908032;0;0.07698483;  1.0000147E+04;  0.0000000E+00; -3.0625250E-02;  1.0000000E+04;  0.0000000E+00;  9.9979521E+03;-0.0097807646;0.0;0.086765595;441.8194
  1.1600201E+00;  9.9999998E-03; -1.0000303E-01;2827;0.021267252;0.0;-0.0040292302;1001.5545;  4.0064770E-01;1201.3976;3;15.316777;0.0;-3.6645105;0;0.057385739;  1.0000286E+04;  0.0000000E+00; -1.0733891E-02;  1.0000000E+04;  0.0000000E+00;  9.9984170E+03;-0.014511305;0.0;0.071897045;336.96674
  1.1600194E+00;  9.9999998E-03; -8.0002315E-02;2828;0.020440171;0.0;-0.0031471341;1001.5804;  4.0064776E-01;1221.4832;3;14.567767;0.0;-2.9397569;0;0.039074786;  1.0000444E+04;  0.0000000E+00; -2.9907760E-03;  1.0000000E+04;  0.0000000E+00;  9.9987813E+03;-0.020251827;0.0;0.059326611;259.60034
  1.1600189E+00;  9.9999998E-03; -6.0001671E-02;2829;0.019893007;0.0;-0.0023069163;1001.6006;  4.0064770E-01;1237.0538;3;14.084608;0.0;-2.2013197;0;0.024209807;  1.0000584E+04;  0.0000000E+00; -6.1055319E-04;  1.0000000E+04;  0.0000000E+00;  9.9990420E+03;-0.025512202;0.0;0.049722008;205.76405
  1.1600187E+00;  9.9999998E-03; -4.0001094E-02;2830;0.019547746;0.0;-0.0015140763;1001.6144;  4.0064785E-01;1247.7416;3;13.77611;0.0;-1.4555738;0;0.013604218;  1.0000690E+04;  0.0000000E+00; -8.2318787E-05;  1.0000000E+04;  0.0000000E+00;  9.9992119E+03;-0.029521087;0.0;0.043125305;171.17337
  1.1600186E+00;  9.9999998E-03; -2.0000538E-02;2831;0.019364024;0.0;-0.00074844295;1001.6224;  4.0064779E-01;1253.9146;3;13.613994;0.0;-0.72722191;0;0.0073583499;  1.0000757E+04;  0.0000000E+00; -3.4720690E-06;  1.0000000E+04;  0.0000000E+00;  9.9993047E+03;-0.031963099;0.0;0.039321449;152.09366
  1.1800311E+00;  9.9999998E-03; -1.8001401E-01;2849;0.033138674;0.0;-0.012892035;1001.2917;  4.0059185E-01;977.48602;3;26.117832;0.0;-7.2625623;0;0.12038457;  9.9999424E+03;  0.0000000E+00; -2.6671296E-01;  1.0000000E+04;  0.0000000E+00;  9.9963086E+03;-0.0084020151;0.0;0.12878658;860.26495
  1.1800259E+00;  9.9999998E-03; -1.6000929E-01;2850;0.02778396;0.0;-0.0093761859;1001.3155;  4.0059182E-01;995.5351;3;21.332642;0.0;-6.1360784;0;0.11129504;  9.9998271E+03;  0.0000000E+00; -1.9735242E-01;  1.0000000E+04;  0.0000000E+00;  9.9968965E+03;-0.0029201491;0.0;0.11421519;688.51398
  1.1800226E+00;  9.9999998E-03; -1.4000604E-01;2851;0.024241345;0.0;-0.0066533987;1001.3358;  4.0059185E-01;1010.8759;3;18.222845;0.0;-4.9574533;0;0.10407797;  9.9997061E+03;  0.0000000E+00; -1.2797730E-01;  1.0000000E+04;  0.0000000E+00;  9.9974219E+03;0.0037711479;0.0;0.10030682;530.81879
  1.1800206E+00;  9.9999998E-03; -1.2000403E-01;2852;0.02197532;0.0;-0.0048275571;1001.3586;  4.0059185E-01;1028.1998;3;16.258923;0.0;-3.972234;0;0.092931665;  9.9996738E+03;  0.0000000E+00; -7.1626671E-02;  1.0000000E+04;  0.0000000E+00;  9.9979072E+03;0.0066141193;0.0;0.086317547;400.84418
  1.1800193E+00;  9.9999998E-03; -1.0000281E-01;2853;0.020508114;0.0;-0.0035992973;1001.383;  4.0059176E-01;1046.6056;3;14.984894;0.0;-3.195586;0;0.078143582;  9.9997314E+03;  0.0000000E+00; -3.4361273E-02;  1.0000000E+04;  0.0000000E+00;  9.9983398E+03;0.0054428112;0.0;0.072700769;302.81876
  1.1800184E+00;  9.9999998E-03; -8.0002010E-02;2854;0.019555885;0.0;-0.0026955674;1001.4061;  4.0059182E-01;1064.1089;3;14.138202;0.0;-2.4968557;0;0.062479317;  9.9998389E+03;  0.0000000E+00; -1.3971636E-02;  1.0000000E+04;  0.0000000E+00;  9.9986963E+03;0.0018955806;0.0;0.060583737;232.17204
  1.1800178E+00;  9.9999998E-03; -6.0001418E-02;2855;0.018949546;0.0;-0.001963645;1001.4255;  4.0059179E-01;1078.8148;3;13.598761;0.0;-1.8805258;0;0.048490636;  9.9999561E+03;  0.0000000E+00; -4.6084081E-03;  1.0000000E+04;  0.0000000E+00;  9.9989658E+03;-0.0023306254;0.0;0.05082126;182.70097
  1.1800176E+00;  9.9999998E-03; -4.0000919E-02;2856;0.018599641;0.0;-0.0012949732;1001.4398;  4.0059179E-01;1089.6412;3;13.284336;0.0;-1.2576598;0;0.037723221;  1.0000056E+04;  0.0000000E+00; -1.1264712E-03;  1.0000000E+04;  0.0000000E+00;  9.9991523E+03;-0.0060535218;0.0;0.043776743;149.84657
  1.1800174E+00;  9.9999998E-03; -2.0000445E-02;2857;0.018394675;0.0;-0.00063416956;1001.4486;  4.0059179E-01;1096.3175;3;13.108174;0.0;-0.62584937;0;0.031010799;  1.0000121E+04;  0.0000000E+00; -1.4987236E-04;  1.0000000E+04;  0.0000000E+00;  9.9992607E+03;-0.0085400203;0.0;0.039550819;131.00366
  1.2000345E+00;  9.9999998E-03; -1.8001623E-01;2873;0.035787277;0.0;-0.014175023;1001.1583;  4.0054980E-01;853.92938;3;28.578808;0.0;-7.6443095;0;0.14139539;  9.9993428E+03;  0.0000000E+00; -3.0232820E-01;  1.0000000E+04;  0.0000000E+00;  9.9963428E+03;0.013388606;0.0;0.12800679;743.78113
  1.2000287E+00;  9.9999998E-03; -1.6001157E-01;2874;0.02994428;0.0;-0.010843845;1001.1918;  4.0054971E-01;878.72144;3;23.289848;0.0;-6.4228106;0;0.12307342;  9.9994336E+03;  0.0000000E+00; -2.5613773E-01;  1.0000000E+04;  0.0000000E+00;  9.9969219E+03;0.0098747024;0.0;0.11319872;625.20148
  1.2000239E+00;  9.9999998E-03; -1.4000773E-01;2875;0.025250683;0.0;-0.0077214958;1001.2142;  4.0054977E-01;895.25079;3;19.178894;0.0;-5.0958467;0;0.11294687;  9.9993682E+03;  0.0000000E+00; -1.8897627E-01;  1.0000000E+04;  0.0000000E+00;  9.9974326E+03;0.013965378;0.0;0.098981492;492.52615
  1.2000208E+00;  9.9999998E-03; -1.2000493E-01;2876;0.022084925;0.0;-0.0052693584;1001.2314;  4.0054974E-01;907.91113;3;16.532211;0.0;-3.8467963;0;0.10588855;  9.9992656E+03;  0.0000000E+00; -1.2451984E-01;  1.0000000E+04;  0.0000000E+00;  9.9978789E+03;0.019893927;0.0;0.085994616;372.63046
  1.2000189E+00;  9.9999998E-03; -1.0000316E-01;2877;0.02016904;0.0;-0.0036383281;1001.248;  4.0054977E-01;920.13049;3;14.932079;0.0;-2.9238956;0;0.097485855;  9.9992139E+03;  0.0000000E+00; -7.2512671E-02;  1.0000000E+04;  0.0000000E+00;  9.9982646E+03;0.023502793;0.0;0.073983058;277.03528
  1.2000178E+00;  9.9999998E-03; -8.0002062E-02;2878;0.018999895;0.0;-0.002555473;1001.2651;  4.0054971E-01;932.70038;3;13.939179;0.0;-2.2325377;0;0.087021694;  9.9992275E+03;  0.0000000E+00; -3.6380362E-02;  1.0000000E+04;  0.0000000E+00;  9.9985918E+03;0.023997063;0.0;0.063024633;207.64226
  1.2000171E+00;  9.9999998E-03; -6.0001325E-02;2879;0.018257048;0.0;-0.0017451474;1001.2808;  4.0054980E-01;944.30298;3;13.290984;0.0;-1.6179155;0;0.076228023;  9.9992773E+03;  0.0000000E+00; -1.5116228E-02;  1.0000000E+04;  0.0000000E+00;  9.9988516E+03;0.022509655;0.0;0.053718369;160.61566
  1.2000166E+00;  9.9999998E-03; -4.0000800E-02;2880;0.017821319;0.0;-0.0011021855;1001.2933;  4.0054971E-01;953.5321;3;12.913569;0.0;-1.0613165;0;0.067050353;  9.9993369E+03;  0.0000000E+00; -4.8008617E-03;  1.0000000E+04;  0.0000000E+00;  9.9990449E+03;0.020419996;0.0;0.046630353;130.11754
  1.2000165E+00;  9.9999998E-03; -2.0000376E-02;2881;0.017599586;0.0;-0.00053300476;1001.3014;  4.0054977E-01;959.50897;3;12.724469;0.0;-0.52345407;0;0.06094455;  9.9993828E+03;  0.0000000E+00; -8.9277967E-04;  1.0000000E+04;  0.0000000E+00;  9.9991621E+03;0.018761685;0.0;0.042182866;112.48636
  1.2200379E+00;  9.9999998E-03; -1.8001820E-01;2896;0.038113926;0.0;-0.015446877;1001.0357;  4.0051872E-01;739.71777;3;30.736069;0.0;-8.7731609;0;0.17483237;  9.9984336E+03;  0.0000000E+00; -2.4586506E-01;  1.0000000E+04;  0.0000000E+00;  9.9963555E+03;0.04657907;0.0;0.12825331;551.77606
  1.2200330E+00;  9.9999998E-03; -1.6001396E-01;2897;0.033323899;0.0;-0.012544964;1001.0743;  4.0051880E-01;767.31049;3;25.913101;0.0;-7.4070988;0;0.15271212;  9.9986563E+03;  0.0000000E+00; -2.8330976E-01;  1.0000000E+04;  0.0000000E+00;  9.9969043E+03;0.038194839;0.0;0.11451728;528.14197
  1.2200278E+00;  9.9999998E-03; -1.4001019E-01;2898;0.028274434;0.0;-0.0096761268;1001.1074;  4.0051872E-01;790.90228;3;21.366032;0.0;-6.0918255;0;0.1331578;  9.9988252E+03;  0.0000000E+00; -2.3882110E-01;  1.0000000E+04;  0.0000000E+00;  9.9973926E+03;0.032481279;0.0;0.10067652;442.95557
  1.2200233E+00;  9.9999998E-03; -1.2000711E-01;2899;0.023956418;0.0;-0.0069967126;1001.1304;  4.0051872E-01;807.34131;3;17.891432;0.0;-4.5884457;0;0.12068336;  9.9988594E+03;  0.0000000E+00; -1.7367709E-01;  1.0000000E+04;  0.0000000E+00;  9.9978164E+03;0.032917593;0.0;0.087765768;344.50595
  1.2200201E+00;  9.9999998E-03; -1.0000462E-01;2900;0.020947138;0.0;-0.0047013476;1001.1451;  4.0051875E-01;817.90375;3;15.511545;0.0;-3.2560189;0;0.11358774;  9.9987930E+03;  0.0000000E+00; -1.1234023E-01;  1.0000000E+04;  0.0000000E+00;  9.9981768E+03;0.037394468;0.0;0.076193266;255.79469
  1.2200181E+00;  9.9999998E-03; -8.0002859E-02;2901;0.019099889;0.0;-0.0030501094;1001.1563;  4.0051869E-01;825.91022;3;14.088123;0.0;-2.2808487;0;0.10799085;  9.9987178E+03;  0.0000000E+00; -6.3584834E-02;  1.0000000E+04;  0.0000000E+00;  9.9984775E+03;0.041731231;0.0;0.066259615;187.1721
  1.2200170E+00;  9.9999998E-03; -6.0001690E-02;2902;0.018037744;0.0;-0.0019226938;1001.1664;  4.0051872E-01;833.14935;3;13.25563;0.0;-1.5750617;0;0.10204519;  9.9986758E+03;  0.0000000E+00; -3.0182192E-02;  1.0000000E+04;  0.0000000E+00;  9.9987197E+03;0.044197392;0.0;0.057847794;140.2563
  1.2200164E+00;  9.9999998E-03; -4.0000934E-02;2903;0.017450592;0.0;-0.0011347;1001.175;  4.0051877E-01;839.2807;3;12.778323;0.0;-1.0021328;0;0.096227661;  9.9986680E+03;  0.0000000E+00; -1.1065597E-02;  1.0000000E+04;  0.0000000E+00;  9.9989014E+03;0.045009561;0.0;0.051218104;111.17961
  1.2200161E+00;  9.9999998E-03; -2.0000415E-02;2904;0.017147234;0.0;-0.00052657357;1001.181;  4.0051869E-01;843.53833;3;12.526871;0.0;-0.48744094;0;0.091919139;  9.9986709E+03;  0.0000000E+00; -2.3462058E-03;  1.0000000E+04;  0.0000000E+00;  9.9990166E+03;0.045024291;0.0;0.046894852;95.128326
  1.2400392E+00;  9.9999998E-03; -1.8001966E-01;2917;0.03852582;0.0;-0.016126633;1000.9518;  4.0049633E-01;654.83209;3;32.463409;0.0;-9.5600128;0;0.19363813;  9.9978770E+03;  0.0000000E+00; -1.6845439E-03;  1.0000000E+04;  0.0000000E+00;  9.9963516E+03;0.066691294;0.0;0.12694684;356.17078
  1.2400362E+00;  9.9999998E-03; -1.6001607E-01;2918;0.035470936;0.0;-0.013959613;1000.9727;  4.0049633E-01;669.10535;3;28.114384;0.0;-8.568943;0;0.18605126;  9.9978018E+03;  0.0000000E+00; -1.9124956E-01;  1.0000000E+04;  0.0000000E+00;  9.9968408E+03;0.069209069;0.0;0.1168422;357.73438
  1.2400328E+00;  9.9999998E-03; -1.4001250E-01;2919;0.032065172;0.0;-0.011379593;1001.0001;  4.0049636E-01;687.97217;3;24.171768;0.0;-7.3473077;0;0.17209348;  9.9978740E+03;  0.0000000E+00; -2.3726569E-01;  1.0000000E+04;  0.0000000E+00;  9.9973154E+03;0.068428949;0.0;0.10366452;347.36328
  1.2400287E+00;  9.9999998E-03; -1.2000938E-01;2920;0.028294649;0.0;-0.0088847196;1001.0286;  4.0049636E-01;707.57806;3;20.731516;0.0;-5.9314141;0;0.15518856;  9.9980420E+03;  0.0000000E+00; -2.0338708E-01;  1.0000000E+04;  0.0000000E+00;  9.9977178E+03;0.06360171;0.0;0.091586851;293.20242
  1.2400248E+00;  9.9999998E-03; -1.0000678E-01;2921;0.024558386;0.0;-0.0066435733;1001.0518;  4.0049630E-01;723.57562;3;17.660173;0.0;-4.5567217;0;0.1401871;  9.9981738E+03;  0.0000000E+00; -1.4279257E-01;  1.0000000E+04;  0.0000000E+00;  9.9980547E+03;0.059328791;0.0;0.080858313;224.52931
  1.2400215E+00;  9.9999998E-03; -8.0004632E-02;2922;0.021487804;0.0;-0.0046592336;1001.0681;  4.0049633E-01;734.73389;3;15.325062;0.0;-3.2552352;0;0.12982056;  9.9982148E+03;  0.0000000E+00; -8.5532628E-02;  1.0000000E+04;  0.0000000E+00;  9.9983340E+03;0.058478169;0.0;0.071342394;164.09518
  1.2400193E+00;  9.9999998E-03; -6.0002901E-02;2923;0.019422151;0.0;-0.0029772713;1001.0784;  4.0049627E-01;741.95416;3;13.85753;0.0;-2.1222708;0;0.12352308;  9.9981934E+03;  0.0000000E+00; -4.3036841E-02;  1.0000000E+04;  0.0000000E+00;  9.9985635E+03;0.060239568;0.0;0.063283511;120.55029
  1.2400179E+00;  9.9999998E-03; -4.0001616E-02;2924;0.018257564;0.0;-0.0016951526;1001.085;  4.0049630E-01;746.46674;3;13.089096;0.0;-1.243107;0;0.11955622;  9.9981533E+03;  0.0000000E+00; -1.6834853E-02;  1.0000000E+04;  0.0000000E+00;  9.9987334E+03;0.062521599;0.0;0.057034615;93.593361
  1.2400173E+00;  9.9999998E-03; -2.0000709E-02;2925;0.017699862;0.0;-0.00075795461;1001.0892;  4.0049633E-01;749.33813;3;12.735465;0.0;-0.57372159;0;0.11703657;  9.9981270E+03;  0.0000000E+00; -3.7774735E-03;  1.0000000E+04;  0.0000000E+00;  9.9988447E+03;0.064067923;0.0;0.052968644;79.269577
  1.2600366E+00;  9.9999998E-03; -1.6001765E-01;2936;0.035120595;0.0;-0.01461159;1000.9237;  4.0048060E-01;608.79755;3;29.488764;0.0;-9.0671673;0;0.18881777;  9.9977344E+03;  0.0000000E+00;  8.2084879E-02;  1.0000000E+04;  0.0000000E+00;  9.9967246E+03;0.070604138;0.0;0.11821362;256.9209
  1.2600350E+00;  9.9999998E-03; -1.4001463E-01;2937;0.03331494;0.0;-0.012811752;1000.9257;  4.0048054E-01;610.13519;3;26.116119;0.0;-8.3792448;0;0.19497216;  9.9973379E+03;  0.0000000E+00; -9.4500251E-02;  1.0000000E+04;  0.0000000E+00;  9.9971582E+03;0.085818902;0.0;0.10915325;210.26807
  1.2600330E+00;  9.9999998E-03; -1.2001161E-01;2938;0.031462729;0.0;-0.010519442;1000.9359;  4.0048051E-01;616.73749;3;23.465414;0.0;-7.1052561;0;0.19457111;  9.9971426E+03;  0.0000000E+00; -1.5631434E-01;  1.0000000E+04;  0.0000000E+00;  9.9975566E+03;0.097163551;0.0;0.09740755;199.89577
  1.2600305E+00;  9.9999998E-03; -1.0000879E-01;2939;0.02924384;0.0;-0.0081732506;1000.9529;  4.0048054E-01;628.05444;3;21.19092;0.0;-5.5519781;0;0.18634966;  9.9971445E+03;  0.0000000E+00; -1.3915534E-01;  1.0000000E+04;  0.0000000E+00;  9.9978984E+03;0.099743918;0.0;0.08660575;166.61821
  1.2600280E+00;  9.9999998E-03; -8.0006227E-02;2940;0.026939293;0.0;-0.0059441635;1000.9708;  4.0048048E-01;639.7644;3;19.118189;0.0;-4.0938983;0;0.17527448;  9.9972197E+03;  0.0000000E+00; -9.2149578E-02;  1.0000000E+04;  0.0000000E+00;  9.9981787E+03;0.098172605;0.0;0.077101871;122.68666
  1.2600259E+00;  9.9999998E-03; -6.0004022E-02;2941;0.024988484;0.0;-0.0039349818;1000.9844;  4.0048054E-01;648.80261;3;17.469225;0.0;-2.7671471;0;0.16592912;  9.9972686E+03;  0.0000000E+00; -4.8095580E-02;  1.0000000E+04;  0.0000000E+00;  9.9984004E+03;0.096677892;0.0;0.069251232;86.588707
  1.2600244E+00;  9.9999998E-03; -4.0002301E-02;2942;0.023629148;0.0;-0.002302143;1000.9933;  4.0048060E-01;654.61871;3;16.357542;0.0;-1.6564196;0;0.15975054;  9.9972793E+03;  0.0000000E+00; -1.9108137E-02;  1.0000000E+04;  0.0000000E+00;  9.9985645E+03;0.096421808;0.0;0.063328728;64.145187
  1.2600236E+00;  9.9999998E-03; -2.0001028E-02;2943;0.022858482;0.0;-0.0010428049;1000.998;  4.0048048E-01;657.76263;3;15.739229;0.0;-0.76406771;0;0.15621084;  9.9972773E+03;  0.0000000E+00; -4.3361895E-03;  1.0000000E+04;  0.0000000E+00;  9.9986660E+03;0.096682146;0.0;0.059528701;52.696259
  1.2800336E+00;  9.9999998E-03; -1.2001372E-01;2953;0.031212801;0.0;-0.011868161;1000.9044;  4.0046957E-01;568.47565;3;24.713089;0.0;-8.0296383;0;0.19204761;  9.9973457E+03;  0.0000000E+00;  3.7012096E-02;  1.0000000E+04;  0.0000000E+00;  9.9972715E+03;0.085061766;0.0;0.10698584;144.46671
  1.2800330E+00;  9.9999998E-03; -1.0001090E-01;2954;0.030557171;0.0;-0.0097750891;1000.8964;  4.0046951E-01;563.45563;3;22.866306;0.0;-6.882215;0;0.20390359;  9.9968164E+03;  0.0000000E+00; -3.8457945E-02;  1.0000000E+04;  0.0000000E+00;  9.9976445E+03;0.10793458;0.0;0.095969014;102.12358
  1.2800322E+00;  9.9999998E-03; -8.0007978E-02;2955;0.029769698;0.0;-0.0072862571;1000.8968;  4.0046948E-01;563.75659;3;21.519707;0.0;-5.0967255;0;0.20759249;  9.9964932E+03;  0.0000000E+00; -4.9413901E-02;  1.0000000E+04;  0.0000000E+00;  9.9979756E+03;0.12294934;0.0;0.08464314;72.308792
  1.2800313E+00;  9.9999998E-03; -6.0005199E-02;2956;0.02911514;0.0;-0.0048440471;1000.8984;  4.0046945E-01;564.73193;3;20.673342;0.0;-3.4140654;0;0.20968252;  9.9962725E+03;  0.0000000E+00; -3.1406928E-02;  1.0000000E+04;  0.0000000E+00;  9.9982295E+03;0.13411219;0.0;0.075570323;44.389126
  1.2800307E+00;  9.9999998E-03; -4.0002972E-02;2957;0.028548986;0.0;-0.002817869;1000.8995;  4.0046948E-01;565.40723;3;19.965673;0.0;-2.0111654;0;0.21038432;  9.9961289E+03;  0.0000000E+00; -1.3229946E-02;  1.0000000E+04;  0.0000000E+00;  9.9983984E+03;0.14094459;0.0;0.069439739;24.178272
  1.2800304E+00;  9.9999998E-03; -2.0001320E-02;2958;0.028203221;0.0;-0.0012672382;1000.9001;  4.0046945E-01;565.85742;3;19.557444;0.0;-0.91497672;0;0.21072935;  9.9960371E+03;  0.0000000E+00; -3.0443701E-03;  1.0000000E+04;  0.0000000E+00;  9.9984971E+03;0.14492097;0.0;0.065808371;12.850818
  1.3000318E+00;  9.9999998E-03; -8.0009773E-02;2966;0.028809104;0.0;-0.0086099561;1000.9084;  4.0046203E-01;543.16168;3;22.358587;0.0;-6.2696199;0;0.17939787;  9.9973945E+03;  0.0000000E+00;  7.2736248E-02;  1.0000000E+04;  0.0000000E+00;  9.9976729E+03;0.083650887;0.0;0.095746979;90.5448
  1.3000320E+00;  9.9999998E-03; -6.0006410E-02;2967;0.028904723;0.0;-0.0057615489;1000.8995;  4.0046203E-01;537.81519;3;21.659903;0.0;-4.2405276;0;0.18808429;  9.9968574E+03;  0.0000000E+00;  2.2116790E-02;  1.0000000E+04;  0.0000000E+00;  9.9980352E+03;0.10524839;0.0;0.082835898;45.882092
  1.3000321E+00;  9.9999998E-03; -4.0003650E-02;2968;0.028999383;0.0;-0.0033280998;1000.8899;  4.0046206E-01;532.11249;3;21.308807;0.0;-2.4634581;0;0.19689482;  9.9964590E+03;  0.0000000E+00;  4.9252314E-03;  1.0000000E+04;  0.0000000E+00;  9.9982432E+03;0.12167706;0.0;0.075217754;20.402269
  1.3000323E+00;  9.9999998E-03; -2.0001611E-02;2969;0.029029148;0.0;-0.0014834151;1000.8835;  4.0046203E-01;528.33453;3;21.093042;0.0;-1.1049063;0;0.20266998;  9.9962256E+03;  0.0000000E+00;  6.7345856E-04;  1.0000000E+04;  0.0000000E+00;  9.9983496E+03;0.13128637;0.0;0.07138361;7.1559854
 -1.8275978E-08;  9.9999998E-03; -1.1676729E-16;1045;-4.0567797e-05;0.0;-3.2306318e-14;1000.0005;  4.0000001E-01;0.3950505;3;-0.066894285;0.0;-1.2549108e-09;0;-0.00082588708;  1.0000011E+04;  0.0000000E+00; -7.6965827E-19;  1.0000000E+04;  0.0000000E+00;  1.0000000E+04;-0.00084081735;0.0;1.493026e-05;0.0921712
 -1.8259563E-08;  9.9999998E-03;  2.0000000E-02;1046;-4.0540093e-05;0.0;3.2165374e-07;1000.0005;  4.0000001E-01;0.3950505;3;-0.066863209;0.0;0.00048635772;0;-0.00082511932;  1.0000011E+04;  0.0000000E+00; -4.8676682E-13;  1.0000000E+04;  0.0000000E+00;  1.0000000E+04;-0.0008403149;0.0;1.5195568e-05;0.093156345
 -1.8209095E-08;  9.9999998E-03;  3.9999999E-02;1047;-4.0454157e-05;0.0;6.5978821e-07;1000.0005;  4.0000001E-01;0.3950505;3;-0.066765092;0.0;0.0010045941;0;-0.00082275475;  1.0000011E+04;  0.0000000E+00; -1.5799633E-12;  1.0000000E+04;  0.0000000E+00;  1.0000000E+04;-0.00083873409;0.0;1.5979362e-05;0.096051931
 -1.8119861E-08;  9.9999998E-03;  5.9999999E-02;1048;-4.0298986e-05;0.0;1.0348098e-06;1000.0005;  4.0000001E-01;0.3950505;3;-0.06658107;0.0;0.0015918538;0;-0.00081859971;  1.0000011E+04;  0.0000000E+00; -1.2450070E-13;  1.0000000E+04;  0.0000000E+00;  1.0000000E+04;-0.00083584554;0.0;1.7245824e-05;0.1006856
 -1.7984247E-08;  9.9999998E-03;  7.9999998E-02;1049;-4.0056992e-05;0.0;1.4600473e-06;1000.0005;  4.0000001E-01;0.3950505;3;-0.066280454;0.0;0.0022761838;0;-0.00081230869;  1.0000010E+04;  0.0000000E+00;  2.7526998E-12;  1.0000000E+04;  0.0000000E+00;  1.0000000E+04;-0.00083124335;0.0;1.8934647e-05;0.10678092
 -1.7791722E-08;  9.9999998E-03;  1.0000000E-01;1050;-3.9702973e-05;0.0;1.9439151e-06;1000.0004;  4.0000001E-01;0.3950505;3;-0.065818235;0.0;0.0030796225;0;-0.00080335862;  1.0000009E+04;  0.0000000E+00; -5.6505820E-12;  1.0000000E+04;  0.0000000E+00;  1.0000000E+04;-0.00082431;0.0;2.0951353e-05;0.11393476
 -1.7527514E-08;  9.9999998E-03;  1.2000000E-01;1051;-3.9201168e-05;0.0;2.5000695e-06;1000.0004;  4.0000001E-01;0.3950505;3;-0.06512899;0.0;0.0040267915;0;-0.00079103163;  1.0000009E+04;  0.0000000E+00; -1.2715958E-11;  1.0000000E+04;  0.0000000E+00;  1.0000000E+04;-0.00081416924;0.0;2.3137609e-05;0.12151971
 -1.7172150E-08;  9.9999998E-03;  1.4000000E-01;1052;-3.850316e-05;0.0;3.1311893e-06;1000.0004;  4.0000001E-01;0.3950505;3;-0.064122379;0.0;0.0051075323;0;-0.00077441544;  1.0000009E+04;  0.0000000E+00;  8.7866268E-12;  1.0000000E+04;  0.0000000E+00;  1.0000000E+04;-0.00079964288;0.0;2.5227413e-05;0.12852381
  1.9999973E-02;  9.9999998E-03;  1.1134349E-15;1075;-5.9908045e-05;0.0;-2.0994526e-12;1000.0007;  4.0000001E-01;0.59257573;3;-0.094844967;0.0;-2.0396328e-08;0;-0.0010660816;  1.0000013E+04;  0.0000000E+00;  1.1137129E-18;  1.0000000E+04;  0.0000000E+00;  1.0000000E+04;-0.0010878922;0.0;2.1810605e-05;0.13299754
  1.9999973E-02;  9.9999998E-03;  2.0000000E-02;1076;-5.9873651e-05;0.0;4.7824824e-07;1000.0007;  4.0000001E-01;0.59257573;3;-0.094811179;0.0;0.0007039737;0;-0.0010651764;  1.0000013E+04;  0.0000000E+00; -1.8658577E-12;  1.0000000E+04;  0.0000000E+00;  1.0000000E+04;-0.0010873772;0.0;2.2200784e-05;0.13449208
  1.9999973E-02;  9.9999998E-03;  3.9999999E-02;1077;-5.9766098e-05;0.0;9.7983229e-07;1000.0007;  4.0000001E-01;0.59257573;3;-0.094703645;0.0;0.0014491624;0;-0.0010623867;  1.0000013E+04;  0.0000000E+00; -6.5818249E-13;  1.0000000E+04;  0.0000000E+00;  1.0000000E+04;-0.0010857403;0.0;2.3353618e-05;0.13888901
  1.9999973E-02;  9.9999998E-03;  6.0000002E-02;1078;-5.9569804e-05;0.0;1.5298534e-06;1000.0007;  4.0000001E-01;0.59257573;3;-0.094497822;0.0;0.0022779466;0;-0.0010574802;  1.0000013E+04;  0.0000000E+00; -1.1055114E-12;  1.0000000E+04;  0.0000000E+00;  1.0000000E+04;-0.0010826965;0.0;2.5216275e-05;0.14593564
  1.9999973E-02;  9.9999998E-03;  7.9999998E-02;1079;-5.9258251e-05;0.0;2.149874e-06;1000.0007;  4.0000001E-01;0.59257573;3;-0.094150141;0.0;0.0032317475;0;-0.0010500379;  1.0000013E+04;  0.0000000E+00; -1.1087074E-12;  1.0000000E+04;  0.0000000E+00;  1.0000000E+04;-0.001077736;0.0;2.7698155e-05;0.15521786
  1.9999973E-02;  9.9999998E-03;  1.0000000E-01;1080;-5.8795198e-05;0.0;2.8446379e-06;1000.0007;  4.0000001E-01;0.59257573;3;-0.093600325;0.0;0.0043268637;0;-0.0010394163;  1.0000013E+04;  0.0000000E+00;  1.1121288E-12;  1.0000000E+04;  0.0000000E+00;  1.0000000E+04;-0.0010700724;0.0;3.0656094e-05;0.16612084
  1.9999973E-02;  9.9999998E-03;  1.2000000E-01;1081;-5.8125537e-05;0.0;3.6334188e-06;1000.0006;  4.0000001E-01;0.49381313;3;-0.092754453;0.0;0.0055999737;0;-0.0010247271;  1.0000012E+04;  0.0000000E+00; -7.1339427E-12;  1.0000000E+04;  0.0000000E+00;  1.0000000E+04;-0.0010585805;0.0;3.3853383e-05;0.17768937
  1.9999973E-02;  9.9999998E-03;  1.4000000E-01;1082;-5.7174741e-05;0.0;4.5393722e-06;1000.0005;  4.0000001E-01;0.49381313;3;-0.091476806;0.0;0.0070819939;0;-0.0010048155;  1.0000012E+04;  0.0000000E+00; -2.5086560E-12;  1.0000000E+04;  0.0000000E+00;  1.0000000E+04;-0.0010417191;0.0;3.6903693e-05;0.18841869
  3.9999958E-02;  9.9999998E-03; -5.0749476E-16;1106;-8.6114989e-05;0.0;5.0986949e-12;1000.0009;  4.0000001E-01;0.69133836;3;-0.13145357;0.0;3.1073984e-08;0;-0.0013428627;  1.0000017E+04;  0.0000000E+00;  2.5471693E-18;  1.0000000E+04;  0.0000000E+00;  1.0000000E+04;-0.0013726443;0.0;2.9781613e-05;0.18299636
  3.9999958E-02;  9.9999998E-03;  2.0000000E-02;1107;-8.6074702e-05;0.0;6.4081763e-07;1000.0009;  4.0000001E-01;0.69133836;3;-0.13142416;0.0;0.00090905163;0;-0.001341863;  1.0000017E+04;  0.0000000E+00; -1.1344649E-12;  1.0000000E+04;  0.0000000E+00;  1.0000000E+04;-0.0013721866;0.0;3.0323581e-05;0.1851477
  3.9999962E-02;  9.9999998E-03;  3.9999999E-02;1108;-8.5947737e-05;0.0;1.3120542e-06;1000.0009;  4.0000001E-01;0.69133836;3;-0.13132647;0.0;0.0018673803;0;-0.0013387807;  1.0000017E+04;  0.0000000E+00; -4.0925919E-13;  1.0000000E+04;  0.0000000E+00;  1.0000000E+04;-0.0013707059;0.0;3.1925116e-05;0.19148278
  3.9999962E-02;  9.9999998E-03;  6.0000002E-02;1109;-8.5713255e-05;0.0;2.0437478e-06;1000.0009;  4.0000001E-01;0.69133836;3;-0.13112897;0.0;0.0029222148;0;-0.0013333469;  1.0000017E+04;  0.0000000E+00; -2.3026982E-12;  1.0000000E+04;  0.0000000E+00;  1.0000000E+04;-0.0013678597;0.0;3.4512745e-05;0.20165078
  3.9999962E-02;  9.9999998E-03;  7.9999998E-02;1110;-8.5334417e-05;0.0;2.8639349e-06;1000.0009;  4.0000001E-01;0.69133836;3;-0.13077116;0.0;0.0041245613;0;-0.0013250723;  1.0000017E+04;  0.0000000E+00; -1.1318047E-12;  1.0000000E+04;  0.0000000E+00;  1.0000000E+04;-0.0013630306;0.0;3.795834e-05;0.21506414
  3.9999962E-02;  9.9999998E-03;  1.0000000E-01;1111;-8.4758693e-05;0.0;3.7802613e-06;1000.0009;  4.0000001E-01;0.69133836;3;-0.13016582;0.0;0.0054951129;0;-0.0013131987;  1.0000017E+04;  0.0000000E+00;  5.9173009E-12;  1.0000000E+04;  0.0000000E+00;  1.0000000E+04;-0.0013552564;0.0;4.2057716e-05;0.23083451
  3.9999962E-02;  9.9999998E-03;  1.2000000E-01;1112;-8.3905747e-05;0.0;4.8108091e-06;1000.0007;  4.0000001E-01;0.59257573;3;-0.12918109;0.0;0.0070674932;0;-0.0012966563;  1.0000016E+04;  0.0000000E+00;  5.9585509E-12;  1.0000000E+04;  0.0000000E+00;  1.0000000E+04;-0.0013431353;0.0;4.647889e-05;0.24758779
  3.9999962E-02;  9.9999998E-03;  1.4000000E-01;1113;-8.2664541e-05;0.0;5.9853251e-06;1000.0007;  4.0000001E-01;0.59257573;3;-0.12763013;0.0;0.0088867191;0;-0.0012740217;  1.0000016E+04;  0.0000000E+00; -4.0688572E-12;  1.0000000E+04;  0.0000000E+00;  1.0000000E+04;-0.0013247193;0.0;5.0697628e-05;0.26321414
  5.9999943E-02;  9.9999998E-03;  6.6129461E-16;1137;-0.00011946481;0.0;-8.9734001e-12;1000.001;  4.0000001E-01;0.88886362;3;-0.17657292;0.0;-4.6195659e-08;0;-0.0016850873;  1.0000021E+04;  0.0000000E+00;  2.3856481E-19;  1.0000000E+04;  0.0000000E+00;  1.0000000E+04;-0.0017239354;0.0;3.8848033e-05;0.2445873
  5.9999943E-02;  9.9999998E-03;  2.0000000E-02;1138;-0.00011942122;0.0;8.149272e-07;1000.001;  4.0000001E-01;0.88886362;3;-0.17655781;0.0;0.0011058379;0;-0.0016840369;  1.0000021E+04;  0.0000000E+00; -4.7718979E-13;  1.0000000E+04;  0.0000000E+00;  1.0000000E+04;-0.0017236148;0.0;3.9577793e-05;0.24759811
  5.9999943E-02;  9.9999998E-03;  3.9999999E-02;1139;-0.00011928261;0.0;1.668713e-06;1000.001;  4.0000001E-01;0.88886362;3;-0.17650019;0.0;0.0022709155;0;-0.0016807902;  1.0000021E+04;  0.0000000E+00;  4.0349608E-13;  1.0000000E+04;  0.0000000E+00;  1.0000000E+04;-0.0017225249;0.0;4.1734656e-05;0.25647327
  5.9999943E-02;  9.9999998E-03;  6.0000002E-02;1140;-0.00011902241;0.0;2.5954678e-06;1000.001;  4.0000001E-01;0.88886362;3;-0.1763593;0.0;0.0035448133;0;-0.0016750399;  1.0000021E+04;  0.0000000E+00; -2.5105921E-13;  1.0000000E+04;  0.0000000E+00;  1.0000000E+04;-0.0017202594;0.0;4.5219509e-05;0.27074125
  5.9999943E-02;  9.9999998E-03;  7.9999998E-02;1141;-0.00011859163;0.0;3.6320378e-06;1000.001;  4.0000001E-01;0.88886362;3;-0.1760553;0.0;0.004991719;0;-0.0016662269;  1.0000021E+04;  0.0000000E+00;  7.8805419E-13;  1.0000000E+04;  0.0000000E+00;  1.0000000E+04;-0.0017160837;0.0;4.9856826e-05;0.28959349
  5.9999943E-02;  9.9999998E-03;  1.0000000E-01;1142;-0.00011791853;0.0;4.7913686e-06;1000.001;  4.0000001E-01;0.88886362;3;-0.17546883;0.0;0.0066420953;0;-0.0016534665;  1.0000021E+04;  0.0000000E+00;  4.4049582E-12;  1.0000000E+04;  0.0000000E+00;  1.0000000E+04;-0.0017088319;0.0;5.5365377e-05;0.31178695
  5.9999947E-02;  9.9999998E-03;  1.2000000E-01;1143;-0.00011689233;0.0;6.0916623e-06;1000.001;  4.0000001E-01;0.79010099;3;-0.17442141;0.0;0.0085188104;0;-0.0016354875;  1.0000021E+04;  0.0000000E+00;  9.2468708E-13;  1.0000000E+04;  0.0000000E+00;  1.0000000E+04;-0.0016967852;0.0;6.1297629e-05;0.33541185
  5.9999947E-02;  9.9999998E-03;  1.4000000E-01;1144;-0.00011535409;0.0;7.5704634e-06;1000.001;  4.0000001E-01;0.79010099;3;-0.17265305;0.0;0.010683721;0;-0.0016105461;  1.0000021E+04;  0.0000000E+00;  2.1740889E-11;  1.0000000E+04;  0.0000000E+00;  1.0000000E+04;-0.0016775155;0.0;6.6969362e-05;0.35760403
  7.9999924E-02;  9.9999998E-03; -2.0331859E-15;1168;-0.00016125468;0.0;-2.0913367e-12;1000.0013;  4.0000001E-01;1.0863888;3;-0.23155923;0.0;2.0609058e-08;0;-0.0021239168;  1.0000029E+04;  0.0000000E+00;  2.1276151E-17;  1.0000000E+04;  0.0000000E+00;  1.0000000E+04;-0.002173153;0.0;4.9236121e-05;0.32150882
  7.9999924E-02;  9.9999998E-03;  2.0000001E-02;1169;-0.00016121233;0.0;1.0075415e-06;1000.0013;  4.0000001E-01;1.0863888;3;-0.23157144;0.0;0.0012989645;0;-0.0021228588;  1.0000029E+04;  0.0000000E+00; -1.2172763E-12;  1.0000000E+04;  0.0000000E+00;  1.0000000E+04;-0.0021730675;0.0;5.0208688e-05;0.32567897
  7.9999924E-02;  9.9999998E-03;  4.0000003E-02;1170;-0.00016107515;0.0;2.0650245e-06;1000.0013;  4.0000001E-01;1.0863888;3;-0.23159131;0.0;0.00267175;0;-0.0021195731;  1.0000029E+04;  0.0000000E+00; -2.6262751E-12;  1.0000000E+04;  0.0000000E+00;  1.0000000E+04;-0.0021726568;0.0;5.3083819e-05;0.33798641
  7.9999924E-02;  9.9999998E-03;  6.0000002E-02;1171;-0.00016081001;0.0;3.2095609e-06;1000.0013;  4.0000001E-01;1.0863888;3;-0.23156805;0.0;0.0041664676;0;-0.0021137155;  1.0000029E+04;  0.0000000E+00; -3.1404785E-12;  1.0000000E+04;  0.0000000E+00;  1.0000000E+04;-0.0021714449;0.0;5.7729438e-05;0.35781023
  7.9999924E-02;  9.9999998E-03;  8.0000006E-02;1172;-0.00016035356;0.0;4.4910066e-06;1000.0013;  4.0000001E-01;1.0863888;3;-0.23140024;0.0;0.005866264;0;-0.0021046421;  1.0000029E+04;  0.0000000E+00; -8.8325267E-12;  1.0000000E+04;  0.0000000E+00;  1.0000000E+04;-0.0021685502;0.0;6.3908003e-05;0.38405851
  7.9999924E-02;  9.9999998E-03;  1.0000000E-01;1173;-0.00015961088;0.0;5.9315703e-06;1000.0013;  4.0000001E-01;1.0863888;3;-0.23093343;0.0;0.0078173121;0;-0.0020913281;  1.0000029E+04;  0.0000000E+00;  5.0611746E-12;  1.0000000E+04;  0.0000000E+00;  1.0000000E+04;-0.0021625662;0.0;7.1237948e-05;0.41502085
  7.9999924E-02;  9.9999998E-03;  1.2000000E-01;1174;-0.00015843713;0.0;7.5500352e-06;1000.0013;  4.0000001E-01;1.0863888;3;-0.2299365;0.0;0.010033801;0;-0.0020722658;  1.0000028E+04;  0.0000000E+00; -7.2315322E-12;  1.0000000E+04;  0.0000000E+00;  1.0000000E+04;-0.0021513912;0.0;7.9125333e-05;0.44808486
  7.9999924E-02;  9.9999998E-03;  1.4000000E-01;1175;-0.00015661985;0.0;9.3929266e-06;1000.0013;  4.0000001E-01;1.0863888;3;-0.22806273;0.0;0.012594949;0;-0.0020453217;  1.0000026E+04;  0.0000000E+00; -1.5487988E-12;  1.0000000E+04;  0.0000000E+00;  1.0000000E+04;-0.0021320153;0.0;8.6693493e-05;0.47941965
  9.9999897E-02;  9.9999998E-03; -1.2021316E-15;1199;-0.00021361689;0.0;-1.6422207e-11;1000.0018;  4.0000001E-01;1.4814394;3;-0.29867426;0.0;-6.712056e-08;0;-0.002690759;  1.0000037E+04;  0.0000000E+00; -3.4762977E-18;  1.0000000E+04;  0.0000000E+00;  1.0000000E+04;-0.0027521106;0.0;6.1351602e-05;0.41870332
  9.9999897E-02;  9.9999998E-03;  2.0000001E-02;1200;-0.0002135828;0.0;1.2279218e-06;1000.0018;  4.0000001E-01;1.4814394;3;-0.29872951;0.0;0.00149731;0;-0.0026897406;  1.0000037E+04;  0.0000000E+00; -1.7861912E-12;  1.0000000E+04;  0.0000000E+00;  1.0000000E+04;-0.0027523935;0.0;6.2652776e-05;0.4244805
  9.9999897E-02;  9.9999998E-03;  4.0000003E-02;1201;-0.00021346693;0.0;2.5185639e-06;1000.0018;  4.0000001E-01;1.4814394;3;-0.29887301;0.0;0.0030807499;0;-0.0026865629;  1.0000037E+04;  0.0000000E+00;  3.3617202E-12;  1.0000000E+04;  0.0000000E+00;  1.0000000E+04;-0.0027530636;0.0;6.6500696e-05;0.44155601
  9.9999897E-02;  9.9999998E-03;  6.0000002E-02;1202;-0.00021322854;0.0;3.9173706e-06;1000.0018;  4.0000001E-01;1.4814394;3;-0.29904154;0.0;0.004814513;0;-0.0026808332;  1.0000036E+04;  0.0000000E+00; -5.0053533E-12;  1.0000000E+04;  0.0000000E+00;  1.0000000E+04;-0.0027535534;0.0;7.2720286e-05;0.4691298
  9.9999897E-02;  9.9999998E-03;  8.0000006E-02;1203;-0.00021278854;0.0;5.488193e-06;1000.0018;  4.0000001E-01;1.4814394;3;-0.29911304;0.0;0.0067914831;0;-0.0026718113;  1.0000036E+04;  0.0000000E+00; -5.9369831E-12;  1.0000000E+04;  0.0000000E+00;  1.0000000E+04;-0.0027528026;0.0;8.0991369e-05;0.50574976
  9.9999897E-02;  9.9999998E-03;  1.0000000E-01;1204;-0.00021202571;0.0;7.2693592e-06;1000.0018;  4.0000001E-01;1.4814394;3;-0.29889256;0.0;0.0090892781;0;-0.002658315;  1.0000036E+04;  0.0000000E+00; -1.4437041E-12;  1.0000000E+04;  0.0000000E+00;  1.0000000E+04;-0.0027491115;0.0;9.0796595e-05;0.54908586
  9.9999897E-02;  9.9999998E-03;  1.2000000E-01;1205;-0.00021075748;0.0;9.2784321e-06;1000.0017;  4.0000001E-01;1.3826767;3;-0.29809311;0.0;0.011710917;0;-0.0026385589;  1.0000036E+04;  0.0000000E+00; -2.6087774E-11;  1.0000000E+04;  0.0000000E+00;  9.9999990E+03;-0.0027399054;0.0;0.00010134652;0.59557772
  9.9999897E-02;  9.9999998E-03;  1.4000000E-01;1206;-0.00020870924;0.0;1.1571189e-05;1000.0017;  4.0000001E-01;1.3826767;3;-0.29627034;0.0;0.01474847;0;-0.0026099579;  1.0000036E+04;  0.0000000E+00;  3.3201298E-13;  1.0000000E+04;  0.0000000E+00;  9.9999990E+03;-0.0027214736;0.0;0.00011151563;0.64010608
  1.1999986E-01;  9.9999998E-03;  2.9020458E-15;1230;-0.00027952265;0.0;1.8086876e-11;1000.0023;  4.0000001E-01;1.8764899;3;-0.38078323;0.0;5.9299339e-08;0;-0.003417226;  1.0000048E+04;  0.0000000E+00; -1.9118341E-17;  1.0000000E+04;  0.0000000E+00;  1.0000000E+04;-0.0034929216;0.0;7.5695454e-05;0.54214829
  1.1999986E-01;  9.9999998E-03;  2.0000001E-02;1231;-0.0002795067;0.0;1.4850369e-06;1000.0023;  4.0000001E-01;1.8764899;3;-0.38090113;0.0;0.0017065292;0;-0.003416315;  1.0000048E+04;  0.0000000E+00;  5.6059714E-13;  1.0000000E+04;  0.0000000E+00;  1.0000000E+04;-0.0034937703;0.0;7.7455239e-05;0.55018723
  1.1999986E-01;  9.9999998E-03;  4.0000003E-02;1232;-0.00027944183;0.0;3.0492274e-06;1000.0023;  4.0000001E-01;1.8764899;3;-0.38122714;0.0;0.0035155194;0;-0.0034134362;  1.0000048E+04;  0.0000000E+00;  1.2315885E-12;  1.0000000E+04;  0.0000000E+00;  1.0000000E+04;-0.0034960988;0.0;8.2662584e-05;0.57399243
  1.1999986E-01;  9.9999998E-03;  6.0000002E-02;1233;-0.00027927849;0.0;4.7542158e-06;1000.0023;  4.0000001E-01;1.8764899;3;-0.38168278;0.0;0.0055237291;0;-0.00340814;  1.0000048E+04;  0.0000000E+00; -1.5097072E-12;  1.0000000E+04;  0.0000000E+00;  1.0000000E+04;-0.0034992273;0.0;9.1087371e-05;0.61256325
  1.1999986E-01;  9.9999998E-03;  8.0000006E-02;1234;-0.00027892148;0.0;6.6784119e-06;1000.0023;  4.0000001E-01;1.8764899;3;-0.38212731;0.0;0.0078244358;0;-0.0033995854;  1.0000048E+04;  0.0000000E+00; -8.0843223E-12;  1.0000000E+04;  0.0000000E+00;  9.9999990E+03;-0.0035018858;0.0;0.00010230039;0.66401017
  1.1999986E-01;  9.9999998E-03;  1.0000000E-01;1235;-0.00027821827;0.0;8.8863117e-06;1000.0023;  4.0000001E-01;1.8764899;3;-0.38231978;0.0;0.010545163;0;-0.0033864086;  1.0000047E+04;  0.0000000E+00; -4.5743825E-12;  1.0000000E+04;  0.0000000E+00;  9.9999990E+03;-0.0035020092;0.0;0.00011560055;0.72520131
  1.1999986E-01;  9.9999998E-03;  1.2000000E-01;1236;-0.00027694379;0.0;1.1388834e-05;1000.0023;  4.0000001E-01;1.8764899;3;-0.38191772;0.0;0.013670047;0;-0.0033665211;  1.0000047E+04;  0.0000000E+00; -1.6409965E-11;  1.0000000E+04;  0.0000000E+00;  9.9999990E+03;-0.0034964515;0.0;0.0001299305;0.79130572
  1.1999986E-01;  9.9999998E-03;  1.4000000E-01;1237;-0.00027475072;0.0;1.425523e-05;1000.0023;  4.0000001E-01;1.8764899;3;-0.38036862;0.0;0.017311832;0;-0.0033368214;  1.0000047E+04;  0.0000000E+00;  5.4316891E-11;  1.0000000E+04;  0.0000000E+00;  9.9999980E+03;-0.0034806605;0.0;0.00014383905;0.85552001
  1.3999981E-01;  9.9999998E-03; -1.8376780E-14;1261;-0.0003627449;0.0;-2.2531893e-11;1000.0031;  4.0000001E-01;2.5678282;3;-0.48120236;0.0;3.7736569e-08;0;-0.0043369653;  1.0000063E+04;  0.0000000E+00; -1.9268502E-17;  1.0000000E+04;  0.0000000E+00;  9.9999990E+03;-0.0044297404;0.0;9.2775263e-05;0.69877917
  1.3999981E-01;  9.9999998E-03;  2.0000001E-02;1262;-0.00036276208;0.0;1.7876384e-06;1000.0031;  4.0000001E-01;2.5678282;3;-0.48141012;0.0;0.0019349164;0;-0.0043362491;  1.0000063E+04;  0.0000000E+00;  2.5639566E-12;  1.0000000E+04;  0.0000000E+00;  9.9999990E+03;-0.0044314312;0.0;9.5182011e-05;0.7100063
  1.3999981E-01;  9.9999998E-03;  4.0000003E-02;1263;-0.00036279304;0.0;3.6772651e-06;1000.0031;  4.0000001E-01;2.5678282;3;-0.48199901;0.0;0.00400106;0;-0.0043339366;  1.0000063E+04;  0.0000000E+00; -8.5153580E-13;  1.0000000E+04;  0.0000000E+00;  9.9999990E+03;-0.004436248;0.0;0.00010231134;0.74333024
  1.3999981E-01;  9.9999998E-03;  6.0000002E-02;1264;-0.00036277864;0.0;5.7551379e-06;1000.0031;  4.0000001E-01;2.5678282;3;-0.48287711;0.0;0.006331055;0;-0.0043295119;  1.0000062E+04;  0.0000000E+00; -3.5436949E-12;  1.0000000E+04;  0.0000000E+00;  9.9999990E+03;-0.0044433796;0.0;0.00011386759;0.79756159
  1.3999981E-01;  9.9999998E-03;  8.0000006E-02;1265;-0.00036260541;0.0;8.1198523e-06;1000.0031;  4.0000001E-01;2.5678282;3;-0.48387894;0.0;0.009032215;0;-0.0043220152;  1.0000062E+04;  0.0000000E+00; -9.2474821E-12;  1.0000000E+04;  0.0000000E+00;  9.9999990E+03;-0.0044513;0.0;0.00012928488;0.8703348
  1.3999981E-01;  9.9999998E-03;  1.0000001E-01;1266;-0.0003620873;0.0;1.086612e-05;1000.0031;  4.0000001E-01;2.5678282;3;-0.48472109;0.0;0.012265768;0;-0.0043098805;  1.0000062E+04;  0.0000000E+00; -7.8775163E-12;  1.0000000E+04;  0.0000000E+00;  9.9999980E+03;-0.0044575077;0.0;0.00014762716;0.95756644
  1.3999981E-01;  9.9999998E-03;  1.2000000E-01;1267;-0.00036094541;0.0;1.4012367e-05;1000.003;  4.0000001E-01;2.4690657;3;-0.48498607;0.0;0.016055906;0;-0.0042907032;  1.0000061E+04;  0.0000000E+00; -2.1458365E-11;  1.0000000E+04;  0.0000000E+00;  9.9999980E+03;-0.0044581969;0.0;0.00016749384;1.0528743
  1.3999982E-01;  9.9999998E-03;  1.4000002E-01;1268;-0.00035874621;0.0;1.7631368e-05;1000.0029;  4.0000001E-01;2.4690657;3;-0.48402712;0.0;0.020482514;0;-0.0042607784;  1.0000061E+04;  0.0000000E+00;  1.4984012E-11;  1.0000000E+04;  0.0000000E+00;  9.9999980E+03;-0.0044478313;0.0;0.00018705304;1.147542
  1.5999974E-01;  9.9999998E-03; -4.8708392E-15;1292;-0.00046781366;0.0;-1.3847281e-11;1000.004;  4.0000001E-01;3.3579292;3;-0.60364294;0.0;-2.1321114e-09;0;-0.0054890802;  1.0000080E+04;  0.0000000E+00; -6.5962750E-17;  1.0000000E+04;  0.0000000E+00;  9.9999990E+03;-0.0056021148;0.0;0.00011303445;0.89659756
  1.5999974E-01;  9.9999998E-03;  2.0000001E-02;1293;-0.00046788668;0.0;2.1406099e-06;1000.004;  4.0000001E-01;3.3579292;3;-0.60397881;0.0;0.0021836546;0;-0.0054886919;  1.0000080E+04;  0.0000000E+00;  6.2733743E-13;  1.0000000E+04;  0.0000000E+00;  9.9999990E+03;-0.0056050401;0.0;0.00011634824;0.91227359
  1.5999974E-01;  9.9999998E-03;  4.0000003E-02;1294;-0.00046808104;0.0;4.4162798e-06;1000.004;  4.0000001E-01;3.3579292;3;-0.604949;0.0;0.004542768;0;-0.0054873335;  1.0000080E+04;  0.0000000E+00;  4.3843735E-12;  1.0000000E+04;  0.0000000E+00;  9.9999990E+03;-0.0056135142;0.0;0.00012618081;0.95893633
  1.5999974E-01;  9.9999998E-03;  6.0000002E-02;1295;-0.00046832647;0.0;6.9484854e-06;1000.004;  4.0000001E-01;3.2591665;3;-0.60644728;0.0;0.0072591882;0;-0.0054844087;  1.0000081E+04;  0.0000000E+00; -3.2162211E-12;  1.0000000E+04;  0.0000000E+00;  9.9999980E+03;-0.0056265783;0.0;0.00014216985;1.0353004
  1.5999974E-01;  9.9999998E-03;  8.0000006E-02;1296;-0.00046848741;0.0;9.8672062e-06;1000.004;  4.0000001E-01;3.2591665;3;-0.60827959;0.0;0.010470648;0;-0.005478817;  1.0000081E+04;  0.0000000E+00; -5.9926552E-12;  1.0000000E+04;  0.0000000E+00;  9.9999980E+03;-0.0056424192;0.0;0.0001636024;1.1386192
  1.5999974E-01;  9.9999998E-03;  1.0000001E-01;1297;-0.00046833741;0.0;1.3309095e-05;1000.004;  4.0000001E-01;3.2591665;3;-0.61011392;0.0;0.014384147;0;-0.0054687653;  1.0000080E+04;  0.0000000E+00;  7.0348874E-12;  1.0000000E+04;  0.0000000E+00;  9.9999980E+03;-0.0056580459;0.0;0.00018928037;1.263904
  1.5999976E-01;  9.9999998E-03;  1.2000001E-01;1298;-0.00046753485;0.0;1.7304506e-05;1000.004;  4.0000001E-01;3.2591665;3;-0.61145568;0.0;0.019046253;0;-0.0054514371;  1.0000080E+04;  0.0000000E+00;  2.4561393E-11;  1.0000000E+04;  0.0000000E+00;  9.9999971E+03;-0.0056688758;0.0;0.00021743859;1.4032944
  1.5999976E-01;  9.9999998E-03;  1.4000002E-01;1299;-0.000465541;0.0;2.1938557e-05;1000.0039;  4.0000001E-01;3.2591665;3;-0.61154175;0.0;0.02451597;0;-0.0054223826;  1.0000080E+04;  0.0000000E+00; -4.9528357E-11;  1.0000000E+04;  0.0000000E+00;  9.9999971E+03;-0.0056683132;0.0;0.00024593083;1.5466379
  1.7999966E-01;  9.9999998E-03;  9.1139746E-15;1323;-0.00060010643;0.0;2.165771e-11;1000.0051;  4.0000001E-01;4.1480303;3;-0.75234115;0.0;3.2307383e-08;0;-0.0069217077;  1.0000103E+04;  0.0000000E+00; -4.1005891E-17;  1.0000000E+04;  0.0000000E+00;  9.9999980E+03;-0.0070585259;0.0;0.00013681805;1.145023
  1.7999966E-01;  9.9999998E-03;  2.0000001E-02;1324;-0.0006002679;0.0;2.5429351e-06;1000.0051;  4.0000001E-01;4.1480303;3;-0.75285923;0.0;0.0024421602;0;-0.0069218371;  1.0000103E+04;  0.0000000E+00;  1.3708521E-12;  1.0000000E+04;  0.0000000E+00;  9.9999980E+03;-0.0070632175;0.0;0.00014138051;1.1667904
  1.7999966E-01;  9.9999998E-03;  4.0000003E-02;1325;-0.00060072372;0.0;5.2684172e-06;1000.0051;  4.0000001E-01;4.1480303;3;-0.75437623;0.0;0.005123605;0;-0.0069219996;  1.0000103E+04;  0.0000000E+00; -2.9774809E-12;  1.0000000E+04;  0.0000000E+00;  9.9999980E+03;-0.0070769507;0.0;0.00015495095;1.231812
  1.7999966E-01;  9.9999998E-03;  6.0000006E-02;1326;-0.00060138968;0.0;8.3501473e-06;1000.0051;  4.0000001E-01;4.1480303;3;-0.75676852;0.0;0.008300351;0;-0.0069214921;  1.0000104E+04;  0.0000000E+00; -1.1595109E-11;  1.0000000E+04;  0.0000000E+00;  9.9999980E+03;-0.007098618;0.0;0.000177126;1.3389666
  1.7999966E-01;  9.9999998E-03;  8.0000006E-02;1327;-0.00060210394;0.0;1.1965027e-05;1000.0051;  4.0000001E-01;4.1480303;3;-0.75981671;0.0;0.012156878;0;-0.0069190226;  1.0000104E+04;  0.0000000E+00; -1.2514584E-11;  1.0000000E+04;  0.0000000E+00;  9.9999971E+03;-0.0071261046;0.0;0.000207082;1.4855233
  1.7999966E-01;  9.9999998E-03;  1.0000001E-01;1328;-0.00060258934;0.0;1.6311487e-05;1000.0051;  4.0000001E-01;4.1480303;3;-0.76313186;0.0;0.016971359;0;-0.0069124661;  1.0000104E+04;  0.0000000E+00;  1.4128250E-12;  1.0000000E+04;  0.0000000E+00;  9.9999971E+03;-0.0071558766;0.0;0.00024341047;1.6661249
  1.7999966E-01;  9.9999998E-03;  1.2000001E-01;1329;-0.00060242921;0.0;2.1439739e-05;1000.0051;  4.0000001E-01;4.1480303;3;-0.76612872;0.0;0.022809587;0;-0.0068984348;  1.0000103E+04;  0.0000000E+00; -2.6753747E-11;  1.0000000E+04;  0.0000000E+00;  9.9999961E+03;-0.0071825348;0.0;0.00028409981;1.8723396
  1.7999966E-01;  9.9999998E-03;  1.4000002E-01;1330;-0.00060095836;0.0;2.746208e-05;1000.0051;  4.0000001E-01;4.1480303;3;-0.76789194;0.0;0.029721415;0;-0.0068713166;  1.0000103E+04;  0.0000000E+00;  6.2986634E-12;  1.0000000E+04;  0.0000000E+00;  9.9999961E+03;-0.0071983286;0.0;0.00032701201;2.0944982
  1.9999956E-01;  9.9999998E-03;  1.0706718E-15;1354;-0.00076610257;0.0;-4.2383926e-11;1000.0067;  4.0000001E-01;5.5307069;3;-0.9322198;0.0;-1.8885956e-07;0;-0.008692272;  1.0000134E+04;  0.0000000E+00; -1.9302933E-17;  1.0000000E+04;  0.0000000E+00;  9.9999980E+03;-0.0088566542;0.0;0.00016438223;1.4554576
  1.9999956E-01;  9.9999998E-03;  2.0000001E-02;1355;-0.00076639798;0.0;2.9871314e-06;1000.0067;  4.0000001E-01;5.5307069;3;-0.93299556;0.0;0.0026860659;0;-0.0086932033;  1.0000134E+04;  0.0000000E+00;  1.2719502E-12;  1.0000000E+04;  0.0000000E+00;  9.9999980E+03;-0.0088638226;0.0;0.00017061889;1.4853488
  1.9999956E-01;  9.9999998E-03;  4.0000003E-02;1356;-0.00076725113;0.0;6.22378e-06;1000.0067;  4.0000001E-01;5.5307069;3;-0.93528324;0.0;0.0057030646;0;-0.00869573;  1.0000135E+04;  0.0000000E+00; -1.0715542E-12;  1.0000000E+04;  0.0000000E+00;  9.9999971E+03;-0.0088849589;0.0;0.00018922918;1.5750166
  1.9999956E-01;  9.9999998E-03;  6.0000006E-02;1357;-0.00076856301;0.0;9.9574409e-06;1000.0067;  4.0000001E-01;5.5307069;3;-0.93894064;0.0;0.0093998285;0;-0.0086989952;  1.0000136E+04;  0.0000000E+00; -1.4456114E-11;  1.0000000E+04;  0.0000000E+00;  9.9999971E+03;-0.0089188404;0.0;0.00021984552;1.7240642
  1.9999956E-01;  9.9999998E-03;  8.0000006E-02;1358;-0.00077014067;0.0;1.4436343e-05;1000.0067;  4.0000001E-01;5.5307069;3;-0.94372004;0.0;0.014048233;0;-0.0087013924;  1.0000137E+04;  0.0000000E+00; -1.5585411E-11;  1.0000000E+04;  0.0000000E+00;  9.9999971E+03;-0.0089630531;0.0;0.00026166072;1.9307106
  1.9999956E-01;  9.9999998E-03;  1.0000002E-01;1359;-0.00077164749;0.0;1.9951016e-05;1000.0067;  4.0000001E-01;5.5307069;3;-0.94916946;0.0;0.020038279;0;-0.0087002795;  1.0000137E+04;  0.0000000E+00; -2.6344583E-11;  1.0000000E+04;  0.0000000E+00;  9.9999961E+03;-0.0090135317;0.0;0.00031325236;2.1906259
  1.9999957E-01;  9.9999998E-03;  1.2000002E-01;1360;-0.00077257538;0.0;2.6583262e-05;1000.0067;  4.0000001E-01;5.5307069;3;-0.95458615;0.0;0.027480325;0;-0.0086913044;  1.0000137E+04;  0.0000000E+00; -1.6318506E-11;  1.0000000E+04;  0.0000000E+00;  9.9999951E+03;-0.0090640169;0.0;0.00037271294;2.4970725
  1.9999957E-01;  9.9999998E-03;  1.4000002E-01;1361;-0.00077209511;0.0;3.4505996e-05;1000.0066;  4.0000001E-01;5.4319444;3;-0.9588654;0.0;0.036409881;0;-0.0086669913;  1.0000137E+04;  0.0000000E+00; -1.2649042E-10;  1.0000000E+04;  0.0000000E+00;  9.9999941E+03;-0.0091055688;0.0;0.0004385779;2.844861
  2.1999943E-01;  9.9999998E-03;  6.6641630E-15;1385;-0.00097355933;0.0;9.0316386e-11;1000.0085;  4.0000001E-01;7.0121465;3;-1.148935;0.0;3.0158725e-07;0;-0.010867389;  1.0000173E+04;  0.0000000E+00; -1.2416523E-17;  1.0000000E+04;  0.0000000E+00;  9.9999971E+03;-0.011063363;0.0;0.00019597472;1.8423513
  2.1999943E-01;  9.9999998E-03;  2.0000003E-02;1386;-0.00097405084;0.0;3.4588438e-06;1000.0085;  4.0000001E-01;7.0121465;3;-1.1500659;0.0;0.0028756324;0;-0.010869552;  1.0000173E+04;  0.0000000E+00;  1.4251079E-12;  1.0000000E+04;  0.0000000E+00;  9.9999971E+03;-0.011073935;0.0;0.00020438206;1.8827281
  2.1999943E-01;  9.9999998E-03;  4.0000007E-02;1387;-0.00097548851;0.0;7.2566477e-06;1000.0084;  4.0000001E-01;7.0121465;3;-1.153416;0.0;0.006199745;0;-0.010875703;  1.0000173E+04;  0.0000000E+00;  3.2849556E-12;  1.0000000E+04;  0.0000000E+00;  9.9999971E+03;-0.011105276;0.0;0.00022957333;2.0044627
  2.1999943E-01;  9.9999998E-03;  6.0000010E-02;1388;-0.00097775529;0.0;1.1747076e-05;1000.0084;  4.0000001E-01;7.0121465;3;-1.158829;0.0;0.010465264;0;-0.010884742;  1.0000174E+04;  0.0000000E+00; -8.3954024E-12;  1.0000000E+04;  0.0000000E+00;  9.9999971E+03;-0.011156115;0.0;0.00027137293;2.2089024
  2.1999943E-01;  9.9999998E-03;  8.0000013E-02;1389;-0.00098062668;0.0;1.7276754e-05;1000.0084;  4.0000001E-01;6.9133835;3;-1.1660177;0.0;0.016071118;0;-0.010894581;  1.0000174E+04;  0.0000000E+00; -7.4422413E-12;  1.0000000E+04;  0.0000000E+00;  9.9999951E+03;-0.011223838;0.0;0.00032925705;2.4969523
  2.1999943E-01;  9.9999998E-03;  1.0000002E-01;1390;-0.00098369375;0.0;2.4266696e-05;1000.0084;  4.0000001E-01;6.9133835;3;-1.1744426;0.0;0.023545174;0;-0.01090169;  1.0000175E+04;  0.0000000E+00; -7.8452019E-12;  1.0000000E+04;  0.0000000E+00;  9.9999941E+03;-0.011303886;0.0;0.00040219634;2.8679378
  2.1999943E-01;  9.9999998E-03;  1.2000002E-01;1391;-0.0009863408;0.0;3.2844924e-05;1000.0083;  4.0000001E-01;6.9133835;3;-1.1832665;0.0;0.033060614;0;-0.010900108;  1.0000176E+04;  0.0000000E+00; -4.3437143E-11;  1.0000000E+04;  0.0000000E+00;  9.9999932E+03;-0.011389124;0.0;0.00048901606;3.320833
  2.1999943E-01;  9.9999998E-03;  1.4000003E-01;1392;-0.00098751788;0.0;4.3327265e-05;1000.0083;  4.0000001E-01;6.9133835;3;-1.1911268;0.0;0.04479415;0;-0.01087944;  1.0000176E+04;  0.0000000E+00; -6.2675373E-12;  1.0000000E+04;  0.0000000E+00;  9.9999932E+03;-0.011469337;0.0;0.00058989739;3.8611245
  2.3999925E-01;  9.9999998E-03; -3.9132343E-14;1416;-0.0012315392;0.0;4.0719463e-11;1000.0108;  4.0000001E-01;8.9873991;3;-1.4086914;0.0;3.5230721e-07;0;-0.013523762;  1.0000222E+04;  0.0000000E+00; -2.6325450E-17;  1.0000000E+04;  0.0000000E+00;  9.9999971E+03;-0.01375584;0.0;0.00023207859;2.3252928
  2.3999925E-01;  9.9999998E-03;  2.0000003E-02;1417;-0.0012323095;0.0;3.9380575e-06;1000.0108;  4.0000001E-01;8.9873991;3;-1.4103044;0.0;0.0029530842;0;-0.013527795;  1.0000222E+04;  0.0000000E+00; -2.7772974E-13;  1.0000000E+04;  0.0000000E+00;  9.9999971E+03;-0.013770983;0.0;0.00024318763;2.3786733
  2.3999925E-01;  9.9999998E-03;  4.0000007E-02;1418;-0.0012345803;0.0;8.3292034e-06;1000.0108;  4.0000001E-01;8.9873991;3;-1.4150932;0.0;0.0064973799;0;-0.013539444;  1.0000222E+04;  0.0000000E+00; -1.2525763E-11;  1.0000000E+04;  0.0000000E+00;  9.9999951E+03;-0.013816084;0.0;0.00027664;2.5405693
  2.3999925E-01;  9.9999998E-03;  6.0000010E-02;1419;-0.0012382197;0.0;1.3675533e-05;1000.0108;  4.0000001E-01;8.9873991;3;-1.4228864;0.0;0.011346925;0;-0.013557233;  1.0000221E+04;  0.0000000E+00; -1.1211926E-11;  1.0000000E+04;  0.0000000E+00;  9.9999951E+03;-0.013889952;0.0;0.00033271895;2.8157027
  2.3999925E-01;  9.9999998E-03;  8.0000013E-02;1420;-0.0012429722;0.0;2.0442056e-05;1000.0108;  4.0000001E-01;8.9873991;3;-1.4333487;0.0;0.018048266;0;-0.013578319;  1.0000223E+04;  0.0000000E+00; -4.2223243E-12;  1.0000000E+04;  0.0000000E+00;  9.9999941E+03;-0.013989955;0.0;0.00041163617;3.2104504
  2.3999925E-01;  9.9999998E-03;  1.0000002E-01;1421;-0.0012483477;0.0;2.924362e-05;1000.0107;  4.0000001E-01;8.8886366;3;-1.4458337;0.0;0.027357005;0;-0.013597766;  1.0000224E+04;  0.0000000E+00;  4.0079455E-12;  1.0000000E+04;  0.0000000E+00;  9.9999932E+03;-0.014111177;0.0;0.00051341159;3.7319455
  2.3999925E-01;  9.9999998E-03;  1.2000003E-01;1422;-0.0012535999;0.0;4.0261271e-05;1000.0107;  4.0000001E-01;8.8886366;3;-1.4593433;0.0;0.039475527;0;-0.013607108;  1.0000224E+04;  0.0000000E+00;  7.3967325E-11;  1.0000000E+04;  0.0000000E+00;  9.9999912E+03;-0.014245591;0.0;0.00063848292;4.3907428
  2.3999925E-01;  9.9999998E-03;  1.4000003E-01;1423;-0.0012574054;0.0;5.4092157e-05;1000.0107;  4.0000001E-01;8.8886366;3;-1.4721899;0.0;0.054904677;0;-0.013591652;  1.0000227E+04;  0.0000000E+00; -8.9295051E-11;  1.0000000E+04;  0.0000000E+00;  9.9999893E+03;-0.014381495;0.0;0.00078984309;5.2111311
  2.5999904E-01;  9.9999998E-03; -2.9209331E-14;1447;-0.0015505232;0.0;-1.0288691e-10;1000.0139;  4.0000001E-01;11.555226;3;-1.7180845;0.0;-5.1396228e-08;0;-0.016748555;  1.0000283E+04;  0.0000000E+00;  3.4179467E-17;  1.0000000E+04;  0.0000000E+00;  9.9999961E+03;-0.017022494;0.0;0.00027393852;2.9327383
  2.5999904E-01;  9.9999998E-03;  2.0000003E-02;1448;-0.0015516802;0.0;4.4073008e-06;1000.0139;  4.0000001E-01;11.555226;3;-1.7203403;0.0;0.0028413392;0;-0.016755382;  1.0000284E+04;  0.0000000E+00;  7.7957822E-12;  1.0000000E+04;  0.0000000E+00;  9.9999951E+03;-0.017043626;0.0;0.0002882439;3.0014837
  2.5999904E-01;  9.9999998E-03;  4.0000007E-02;1449;-0.0015551129;0.0;9.402509e-06;1000.0139;  4.0000001E-01;11.555226;3;-1.7270558;0.0;0.0064603044;0;-0.01677526;  1.0000284E+04;  0.0000000E+00; -1.1336144E-12;  1.0000000E+04;  0.0000000E+00;  9.9999951E+03;-0.017106837;0.0;0.00033157735;3.2114136
  2.5999904E-01;  9.9999998E-03;  6.0000014E-02;1450;-0.0015606818;0.0;1.5687199e-05;1000.0139;  4.0000001E-01;11.555226;3;-1.7380366;0.0;0.011849759;0;-0.016806176;  1.0000286E+04;  0.0000000E+00; -9.1311177E-12;  1.0000000E+04;  0.0000000E+00;  9.9999941E+03;-0.01721126;0.0;0.00040508379;3.5729828
  2.5999904E-01;  9.9999998E-03;  8.0000021E-02;1451;-0.0015681125;0.0;2.3861887e-05;1000.0139;  4.0000001E-01;11.456464;3;-1.7528987;0.0;0.019744189;0;-0.016844189;  1.0000286E+04;  0.0000000E+00;  7.1189051E-13;  1.0000000E+04;  0.0000000E+00;  9.9999922E+03;-0.01735457;0.0;0.00051038177;4.1020699
  2.5999904E-01;  9.9999998E-03;  1.0000002E-01;1452;-0.001576819;0.0;3.478293e-05;1000.0139;  4.0000001E-01;11.456464;3;-1.7708358;0.0;0.031115755;0;-0.016882282;  1.0000288E+04;  0.0000000E+00;  3.2343420E-11;  1.0000000E+04;  0.0000000E+00;  9.9999902E+03;-0.017531732;0.0;0.00064945058;4.8194389
  2.5999904E-01;  9.9999998E-03;  1.2000003E-01;1453;-0.0015859245;0.0;4.8788574e-05;1000.0139;  4.0000001E-01;11.456464;3;-1.7907147;0.0;0.046419706;0;-0.016908418;  1.0000289E+04;  0.0000000E+00;  4.5125449E-11;  1.0000000E+04;  0.0000000E+00;  9.9999893E+03;-0.017733857;0.0;0.0008254383;5.7549233
  2.5999904E-01;  9.9999998E-03;  1.4000005E-01;1454;-0.0015937887;0.0;6.685478e-05;1000.0138;  4.0000001E-01;11.456464;3;-1.8104661;0.0;0.066622503;0;-0.016901931;  1.0000292E+04;  0.0000000E+00; -2.2076443E-11;  1.0000000E+04;  0.0000000E+00;  9.9999844E+03;-0.017947339;0.0;0.0010454083;6.9614763
  2.7999875E-01;  9.9999998E-03; -4.2777397E-14;1478;-0.0019427249;0.0;-1.1897412e-10;1000.0175;  4.0000001E-01;14.518105;3;-2.0842166;0.0;-3.6485392e-07;0;-0.020639472;  1.0000358E+04;  0.0000000E+00;  1.1049866E-16;  1.0000000E+04;  0.0000000E+00;  9.9999951E+03;-0.020963997;0.0;0.00032452529;3.7082121
  2.7999875E-01;  9.9999998E-03;  2.0000005E-02;1479;-0.0019444107;0.0;4.856674e-06;1000.0175;  4.0000001E-01;14.518105;3;-2.0873196;0.0;0.0024426531;0;-0.020650402;  1.0000358E+04;  0.0000000E+00;  8.9174996E-12;  1.0000000E+04;  0.0000000E+00;  9.9999941E+03;-0.020992776;0.0;0.00034237464;3.7940636
  2.7999875E-01;  9.9999998E-03;  4.0000010E-02;1480;-0.0019494361;0.0;1.0461482e-05;1000.0175;  4.0000001E-01;14.518105;3;-2.0965638;0.0;0.0059230998;0;-0.020682404;  1.0000359E+04;  0.0000000E+00;  3.4450940E-12;  1.0000000E+04;  0.0000000E+00;  9.9999932E+03;-0.021079227;0.0;0.00039682424;4.0583119
  2.7999875E-01;  9.9999998E-03;  6.0000014E-02;1481;-0.0019576717;0.0;1.7744522e-05;1000.0175;  4.0000001E-01;14.518105;3;-2.1117523;0.0;0.011730002;0;-0.020732785;  1.0000360E+04;  0.0000000E+00; -2.7636311E-12;  1.0000000E+04;  0.0000000E+00;  9.9999922E+03;-0.021223227;0.0;0.00049044169;4.5202961
  2.7999875E-01;  9.9999998E-03;  8.0000021E-02;1482;-0.0019688362;0.0;2.7430995e-05;1000.0175;  4.0000001E-01;14.518105;3;-2.1324165;0.0;0.020704415;0;-0.02079607;  1.0000363E+04;  0.0000000E+00; -8.3969645E-12;  1.0000000E+04;  0.0000000E+00;  9.9999912E+03;-0.021423232;0.0;0.00062716176;5.2107434
  2.7999875E-01;  9.9999998E-03;  1.0000003E-01;1483;-0.001982278;0.0;4.0782186e-05;1000.0176;  4.0000001E-01;14.518105;3;-2.1576772;0.0;0.034539312;0;-0.020862538;  1.0000365E+04;  0.0000000E+00; -3.8858011E-11;  1.0000000E+04;  0.0000000E+00;  9.9999893E+03;-0.02167464;0.0;0.00081210304;6.1716118
  2.7999872E-01;  9.9999998E-03;  1.2000004E-01;1484;-0.0019969754;0.0;5.8338359e-05;1000.0176;  4.0000001E-01;14.518105;3;-2.1861541;0.0;0.053683799;0;-0.020915324;  1.0000367E+04;  0.0000000E+00;  1.3062313E-11;  1.0000000E+04;  0.0000000E+00;  9.9999834E+03;-0.021967791;0.0;0.0010524663;7.46173
  2.7999872E-01;  9.9999998E-03;  1.4000006E-01;1485;-0.0020109478;0.0;8.1561491e-05;1000.0176;  4.0000001E-01;14.518105;3;-2.2153673;0.0;0.079676151;0;-0.020925874;  1.0000371E+04;  0.0000000E+00;  1.2559792E-10;  1.0000000E+04;  0.0000000E+00;  9.9999814E+03;-0.022286613;0.0;0.0013607393;9.174612
  2.9999837E-01;  9.9999998E-03; -2.1245348E-14;1509;-0.0024226455;0.0;-3.6782143e-11;1000.0222;  4.0000001E-01;18.369844;3;-2.514708;0.0;-8.9381729e-08;0;-0.025304249;  1.0000452E+04;  0.0000000E+00; -4.5955280E-17;  1.0000000E+04;  0.0000000E+00;  9.9999932E+03;-0.025694368;0.0;0.00039012026;4.7199454
  2.9999837E-01;  9.9999998E-03;  2.0000005E-02;1510;-0.0024250404;0.0;5.3140752e-06;1000.0222;  4.0000001E-01;18.369844;3;-2.518898;0.0;0.001714438;0;-0.025321122;  1.0000452E+04;  0.0000000E+00;  8.0662655E-12;  1.0000000E+04;  0.0000000E+00;  9.9999932E+03;-0.025732685;0.0;0.00041156236;4.8234744
  2.9999837E-01;  9.9999998E-03;  4.0000010E-02;1511;-0.0024322115;0.0;1.1557543e-05;1000.0222;  4.0000001E-01;18.369844;3;-2.5314202;0.0;0.0047799372;0;-0.02537065;  1.0000452E+04;  0.0000000E+00; -1.9248016E-11;  1.0000000E+04;  0.0000000E+00;  9.9999912E+03;-0.025848178;0.0;0.00047752779;5.1450791
  2.9999837E-01;  9.9999998E-03;  6.0000017E-02;1512;-0.0024440733;0.0;1.9859823e-05;1000.0223;  4.0000001E-01;18.468607;3;-2.5520785;0.0;0.010777636;0;-0.025449349;  1.0000456E+04;  0.0000000E+00;  1.1366852E-11;  1.0000000E+04;  0.0000000E+00;  9.9999912E+03;-0.026042083;0.0;0.00059273478;5.7168756
  2.9999837E-01;  9.9999998E-03;  8.0000028E-02;1513;-0.0024603624;0.0;3.1176773e-05;1000.0223;  4.0000001E-01;18.468607;3;-2.5803375;0.0;0.020806501;0;-0.025549967;  1.0000460E+04;  0.0000000E+00;  1.8299908E-11;  1.0000000E+04;  0.0000000E+00;  9.9999883E+03;-0.026314558;0.0;0.0007645922;6.5909944
  2.9999837E-01;  9.9999998E-03;  1.0000004E-01;1514;-0.0024804242;0.0;4.7191075e-05;1000.0225;  4.0000001E-01;18.567369;3;-2.6152651;0.0;0.037251551;0;-0.025659386;  1.0000464E+04;  0.0000000E+00; -4.1428139E-11;  1.0000000E+04;  0.0000000E+00;  9.9999844E+03;-0.026662247;0.0;0.0010028607;7.839941
  2.9999837E-01;  9.9999998E-03;  1.2000005E-01;1515;-0.002503095;0.0;6.8842957e-05;1000.0223;  4.0000001E-01;18.468607;3;-2.6552489;0.0;0.06084026;0;-0.025754685;  1.0000468E+04;  0.0000000E+00;  2.4395019E-11;  1.0000000E+04;  0.0000000E+00;  9.9999814E+03;-0.027075177;0.0;0.0013204928;9.563673
  2.9999834E-01;  9.9999998E-03;  1.4000008E-01;1516;-0.0025260109;0.0;9.8116885e-05;1000.0223;  4.0000001E-01;18.468607;3;-2.6972518;0.0;0.093549833;0;-0.025797345;  1.0000472E+04;  0.0000000E+00;  1.1074467E-10;  1.0000000E+04;  0.0000000E+00;  9.9999746E+03;-0.027534422;0.0;0.0017370771;11.911356
  3.1999794E-01;  9.9999998E-03; -5.0927358E-14;1540;-0.003007828;0.0;1.6723503e-10;1000.0279;  4.0000001E-01;23.110449;3;-3.0178137;0.0;1.6552888e-06;0;-0.030859934;  1.0000569E+04;  0.0000000E+00; -5.0475235E-18;  1.0000000E+04;  0.0000000E+00;  9.9999902E+03;-0.031342641;0.0;0.00048270705;6.0749235
  3.1999794E-01;  9.9999998E-03;  2.0000007E-02;1541;-0.0030111568;0.0;5.9090653e-06;1000.0279;  4.0000001E-01;23.110449;3;-3.0233991;0.0;0.00069664564;0;-0.030885121;  1.0000570E+04;  0.0000000E+00; -4.5296909E-12;  1.0000000E+04;  0.0000000E+00;  9.9999902E+03;-0.031392436;0.0;0.00050731527;6.1951017
  3.1999794E-01;  9.9999998E-03;  4.0000014E-02;1542;-0.0030211615;0.0;1.2906554e-05;1000.028;  4.0000001E-01;23.110449;3;-3.0401146;0.0;0.0030727084;0;-0.030959403;  1.0000572E+04;  0.0000000E+00; -3.8922900E-11;  1.0000000E+04;  0.0000000E+00;  9.9999893E+03;-0.031543225;0.0;0.00058382167;6.572433
  3.1999791E-01;  9.9999998E-03;  6.0000021E-02;1543;-0.003037842;0.0;2.2271892e-05;1000.028;  4.0000001E-01;23.209211;3;-3.0677655;0.0;0.0088743893;0;-0.031078478;  1.0000575E+04;  0.0000000E+00;  1.6408045E-11;  1.0000000E+04;  0.0000000E+00;  9.9999873E+03;-0.031798456;0.0;0.00071997801;7.2561655
  3.1999791E-01;  9.9999998E-03;  8.0000035E-02;1544;-0.003061044;0.0;3.5344863e-05;1000.0281;  4.0000001E-01;23.307974;3;-3.1058898;0.0;0.019952567;0;-0.031233214;  1.0000578E+04;  0.0000000E+00; -3.6683722E-11;  1.0000000E+04;  0.0000000E+00;  9.9999844E+03;-0.032161288;0.0;0.00092807465;8.3272381
  3.1999791E-01;  9.9999998E-03;  1.0000005E-01;1545;-0.0030901665;0.0;5.4164248e-05;1000.0281;  4.0000001E-01;23.307974;3;-3.1534579;0.0;0.039002165;0;-0.031406589;  1.0000583E+04;  0.0000000E+00; -1.0062800E-11;  1.0000000E+04;  0.0000000E+00;  9.9999814E+03;-0.032630991;0.0;0.0012244008;9.8995771
  3.1999788E-01;  9.9999998E-03;  1.2000006E-01;1546;-0.0031238939;0.0;8.0211204e-05;1000.0282;  4.0000001E-01;23.406736;3;-3.2084739;0.0;0.066918164;0;-0.031568576;  1.0000589E+04;  0.0000000E+00; -1.2165370E-10;  1.0000000E+04;  0.0000000E+00;  9.9999756E+03;-0.033198468;0.0;0.001629894;12.129121
  3.1999788E-01;  9.9999998E-03;  1.4000009E-01;1547;-0.0031595321;0.0;0.00011612896;1000.0282;  4.0000001E-01;23.406736;3;-3.2676315;0.0;0.10701677;0;-0.031668335;  1.0000598E+04;  0.0000000E+00;  2.7503649E-11;  1.0000000E+04;  0.0000000E+00;  9.9999668E+03;-0.033841956;0.0;0.0021736219;15.24068
  3.3999735E-01;  9.9999998E-03;  5.0632709E-14;1571;-0.0037193538;0.0;1.2315363e-11;1000.0351;  4.0000001E-01;29.036203;3;-3.6027293;0.0;3.6960341e-07;0;-0.037431475;  1.0000714E+04;  0.0000000E+00; -4.2093991E-17;  1.0000000E+04;  0.0000000E+00;  9.9999883E+03;-0.038054783;0.0;0.0006233087;7.9379811
  3.3999735E-01;  9.9999998E-03;  2.0000009E-02;1572;-0.0037238828;0.0;6.9288685e-06;1000.0351;  4.0000001E-01;29.036203;3;-3.6100669;0.0;-0.0004141836;0;-0.03746799;  1.0000714E+04;  0.0000000E+00; -5.8707835E-12;  1.0000000E+04;  0.0000000E+00;  9.9999873E+03;-0.038118009;0.0;0.00065002026;8.0722036
  3.3999735E-01;  9.9999998E-03;  4.0000018E-02;1573;-0.0037375407;0.0;1.5044878e-05;1000.0351;  4.0000001E-01;29.036203;3;-3.632066;0.0;0.0011470115;0;-0.03757618;  1.0000715E+04;  0.0000000E+00; -4.1604841E-11;  1.0000000E+04;  0.0000000E+00;  9.9999863E+03;-0.03831039;0.0;0.0007342106;8.498806
  3.3999735E-01;  9.9999998E-03;  6.0000028E-02;1574;-0.0037604847;0.0;2.5715592e-05;1000.0353;  4.0000001E-01;29.233728;3;-3.6685853;0.0;0.0065516704;0;-0.037751179;  1.0000719E+04;  0.0000000E+00;  1.9382806E-11;  1.0000000E+04;  0.0000000E+00;  9.9999844E+03;-0.038638823;0.0;0.00088764203;9.2883711
  3.3999732E-01;  9.9999998E-03;  8.0000043E-02;1575;-0.0037927658;0.0;4.069908e-05;1000.0354;  4.0000001E-01;29.332491;3;-3.7192848;0.0;0.018435361;0;-0.0379823;  1.0000726E+04;  0.0000000E+00; -1.2063453E-10;  1.0000000E+04;  0.0000000E+00;  9.9999814E+03;-0.039111391;0.0;0.0011290911;10.55794
  3.3999732E-01;  9.9999998E-03;  1.0000005E-01;1576;-0.0038339677;0.0;6.2391511e-05;1000.0355;  4.0000001E-01;29.332491;3;-3.7831194;0.0;0.03990148;0;-0.038248606;  1.0000732E+04;  0.0000000E+00; -1.9170286E-10;  1.0000000E+04;  0.0000000E+00;  9.9999756E+03;-0.039732233;0.0;0.0014836265;12.474137
  3.3999729E-01;  9.9999998E-03;  1.2000008E-01;1577;-0.0038826647;0.0;9.3026858e-05;1000.0356;  4.0000001E-01;29.431253;3;-3.8576574;0.0;0.07191693;0;-0.038511999;  1.0000742E+04;  0.0000000E+00; -1.7037285E-10;  1.0000000E+04;  0.0000000E+00;  9.9999688E+03;-0.040495045;0.0;0.0019830468;15.265753
  3.3999726E-01;  9.9999998E-03;  1.4000010E-01;1578;-0.003935914;0.0;0.00013600633;1000.0356;  4.0000001E-01;29.431253;3;-3.9394102;0.0;0.12020698;0;-0.038707044;  1.0000753E+04;  0.0000000E+00;  2.0278529E-10;  1.0000000E+04;  0.0000000E+00;  9.9999580E+03;-0.041376416;0.0;0.0026693712;19.259438
  3.5999665E-01;  9.9999998E-03; -7.7918676E-14;1602;-0.0045814794;0.0;-5.0007898e-10;1000.0437;  4.0000001E-01;36.245865;3;-4.279387;0.0;-1.2636435e-06;0;-0.045149859;  1.0000892E+04;  0.0000000E+00;  2.6573920E-16;  1.0000000E+04;  0.0000000E+00;  9.9999834E+03;-0.045996096;0.0;0.00084623555;10.555822
  3.5999665E-01;  9.9999998E-03;  2.0000011E-02;1603;-0.0045875041;0.0;8.9339746e-06;1000.0438;  4.0000001E-01;36.245865;3;-4.2888732;0.0;-0.0011377438;0;-0.045201298;  1.0000892E+04;  0.0000000E+00;  1.5426941E-11;  1.0000000E+04;  0.0000000E+00;  9.9999824E+03;-0.046074584;0.0;0.00087328802;10.700925
  3.5999662E-01;  9.9999998E-03;  4.0000021E-02;1604;-0.0046057329;0.0;1.9037861e-05;1000.0438;  4.0000001E-01;36.344627;3;-4.3173938;0.0;-0.00013083871;0;-0.045354277;  1.0000895E+04;  0.0000000E+00;  4.6021180E-11;  1.0000000E+04;  0.0000000E+00;  9.9999814E+03;-0.046314456;0.0;0.00096017733;11.168269
  3.5999662E-01;  9.9999998E-03;  6.0000036E-02;1605;-0.0046365862;0.0;3.1664309e-05;1000.0439;  4.0000001E-01;36.44339;3;-4.3649535;0.0;0.0049647922;0;-0.04560411;  1.0000898E+04;  0.0000000E+00;  2.5846351E-11;  1.0000000E+04;  0.0000000E+00;  9.9999785E+03;-0.046727721;0.0;0.0011236096;12.052722
  3.5999659E-01;  9.9999998E-03;  8.0000050E-02;1606;-0.0046804547;0.0;4.8969214e-05;1000.0441;  4.0000001E-01;36.542156;3;-4.431397;0.0;0.01749696;0;-0.045939531;  1.0000905E+04;  0.0000000E+00; -1.1925375E-10;  1.0000000E+04;  0.0000000E+00;  9.9999756E+03;-0.04732997;0.0;0.0013904398;13.512705
  3.5999656E-01;  9.9999998E-03;  1.0000007E-01;1607;-0.0047372989;0.0;7.3582327e-05;1000.0442;  4.0000001E-01;36.640919;3;-4.5157461;0.0;0.040784501;0;-0.046336468;  1.0000916E+04;  0.0000000E+00; -1.7544602E-10;  1.0000000E+04;  0.0000000E+00;  9.9999697E+03;-0.048133351;0.0;0.0017968825;15.77634
  3.5999656E-01;  9.9999998E-03;  1.2000009E-01;1608;-0.0048057069;0.0;0.00010893925;1000.0444;  4.0000001E-01;36.838444;3;-4.6153345;0.0;0.077138729;0;-0.046748679;  1.0000929E+04;  0.0000000E+00; -2.5464197E-10;  1.0000000E+04;  0.0000000E+00;  9.9999609E+03;-0.049137626;0.0;0.0023889453;19.161566
  3.5999650E-01;  9.9999998E-03;  1.4000012E-01;1609;-0.004882684;0.0;0.00015902554;1000.0446;  4.0000001E-01;36.937206;3;-4.7262244;0.0;0.1332584;0;-0.04709376;  1.0000943E+04;  0.0000000E+00; -3.9402684E-10;  1.0000000E+04;  0.0000000E+00;  9.9999473E+03;-0.050320163;0.0;0.0032264043;24.128565
  3.7999573E-01;  9.9999998E-03; -2.7669928E-15;1633;-0.0056204777;0.0;-4.1126244e-10;1000.0541;  4.0000001E-01;44.838203;3;-5.0578036;0.0;-1.0202934e-06;0;-0.054150254;  1.0001107E+04;  0.0000000E+00; -1.0645000E-16;  1.0000000E+04;  0.0000000E+00;  9.9999756E+03;-0.055354178;0.0;0.0012039244;14.284118
  3.7999573E-01;  9.9999998E-03;  2.0000016E-02;1634;-0.0056282966;0.0;1.2916536e-05;1000.0542;  4.0000001E-01;44.936966;3;-5.0698752;0.0;-0.00052542344;0;-0.054220304;  1.0001108E+04;  0.0000000E+00; -7.4124068E-11;  1.0000000E+04;  0.0000000E+00;  9.9999756E+03;-0.055449322;0.0;0.0012290177;14.439195
  3.7999570E-01;  9.9999998E-03;  4.0000033E-02;1635;-0.0056520551;0.0;2.6772695e-05;1000.0544;  4.0000001E-01;45.134491;3;-5.1062737;0.0;0.00097538647;0;-0.054429792;  1.0001112E+04;  0.0000000E+00;  1.4559852E-11;  1.0000000E+04;  0.0000000E+00;  9.9999746E+03;-0.055741679;0.0;0.0013118882;14.944613
  3.7999570E-01;  9.9999998E-03;  6.0000047E-02;1636;-0.0056925672;0.0;4.2832384e-05;1000.0546;  4.0000001E-01;45.233253;3;-5.1672459;0.0;0.0065103373;0;-0.054775644;  1.0001119E+04;  0.0000000E+00; -2.2692946E-11;  1.0000000E+04;  0.0000000E+00;  9.9999717E+03;-0.056250427;0.0;0.0014747845;15.919598
  3.7999567E-01;  9.9999998E-03;  8.0000065E-02;1637;-0.005750793;0.0;6.3423984e-05;1000.0547;  4.0000001E-01;45.332016;3;-5.2529898;0.0;0.019878149;0;-0.05524791;  1.0001128E+04;  0.0000000E+00; -2.7040464E-10;  1.0000000E+04;  0.0000000E+00;  9.9999678E+03;-0.057001665;0.0;0.0017537551;17.563881
  3.7999564E-01;  9.9999998E-03;  1.0000009E-01;1638;-0.0058273328;0.0;9.1410875e-05;1000.0551;  4.0000001E-01;45.628304;3;-5.3627119;0.0;0.044386644;0;-0.055821698;  1.0001140E+04;  0.0000000E+00; -4.5964385E-10;  1.0000000E+04;  0.0000000E+00;  9.9999609E+03;-0.058019698;0.0;0.002198;20.168512
  3.7999561E-01;  9.9999998E-03;  1.2000012E-01;1639;-0.0059211119;0.0;0.00013169124;1000.0554;  4.0000001E-01;45.825829;3;-5.493691;0.0;0.0850159;0;-0.056443874;  1.0001156E+04;  0.0000000E+00; -2.7163410E-10;  1.0000000E+04;  0.0000000E+00;  9.9999512E+03;-0.059314892;0.0;0.0028710163;24.150822
  3.7999555E-01;  9.9999998E-03;  1.4000016E-01;1640;-0.0060292734;0.0;0.00018862887;1000.0557;  4.0000001E-01;46.122116;3;-5.6415677;0.0;0.14759554;0;-0.05701362;  1.0001178E+04;  0.0000000E+00; -5.0136150E-12;  1.0000000E+04;  0.0000000E+00;  9.9999355E+03;-0.060869906;0.0;0.0038562862;30.137121
  3.9999461E-01;  9.9999998E-03;  1.1147584E-13;1664;-0.0068637393;0.0;-9.6950148e-12;1000.067;  4.0000001E-01;55.504547;3;-5.9473677;0.0;-6.363789e-07;0;-0.064569108;  1.0001374E+04;  0.0000000E+00; -4.5325522E-16;  1.0000000E+04;  0.0000000E+00;  9.9999658E+03;-0.066340797;0.0;0.0017716885;19.613815
  3.9999461E-01;  9.9999998E-03;  2.0000022E-02;1665;-0.0068736412;0.0;2.0455949e-05;1000.0671;  4.0000001E-01;55.60331;3;-5.962481;0.0;0.0030071025;0;-0.064661138;  1.0001376E+04;  0.0000000E+00;  4.9788989E-11;  1.0000000E+04;  0.0000000E+00;  9.9999658E+03;-0.066453651;0.0;0.0017925117;19.785603
  3.9999458E-01;  9.9999998E-03;  4.0000044E-02;1666;-0.0069038505;0.0;4.1365929e-05;1000.0671;  4.0000001E-01;55.60331;3;-6.0081415;0.0;0.0075932629;0;-0.064938039;  1.0001380E+04;  0.0000000E+00;  4.8975348E-11;  1.0000000E+04;  0.0000000E+00;  9.9999648E+03;-0.066802412;0.0;0.0018643726;20.347834
  3.9999458E-01;  9.9999998E-03;  6.0000069E-02;1667;-0.0069557694;0.0;6.3699474e-05;1000.0674;  4.0000001E-01;55.899597;3;-6.0850058;0.0;0.015526011;0;-0.065400586;  1.0001387E+04;  0.0000000E+00; -4.3760700E-11;  1.0000000E+04;  0.0000000E+00;  9.9999609E+03;-0.067415491;0.0;0.0020149036;21.438942
  3.9999455E-01;  9.9999998E-03;  8.0000095E-02;1668;-0.0070312792;0.0;8.961057e-05;1000.0677;  4.0000001E-01;56.097122;3;-6.1938553;0.0;0.030478712;0;-0.066044062;  1.0001399E+04;  0.0000000E+00; -2.4728480E-10;  1.0000000E+04;  0.0000000E+00;  9.9999561E+03;-0.068333253;0.0;0.0022891937;23.290377
  3.9999449E-01;  9.9999998E-03;  1.0000012E-01;1669;-0.0071320008;0.0;0.00012256113;1000.0682;  4.0000001E-01;56.492172;3;-6.3343973;0.0;0.056816347;0;-0.066847004;  1.0001413E+04;  0.0000000E+00; -7.9630624E-10;  1.0000000E+04;  0.0000000E+00;  9.9999482E+03;-0.069596693;0.0;0.0027496857;26.243759
  3.9999443E-01;  9.9999998E-03;  1.2000016E-01;1670;-0.0072577917;0.0;0.00016777939;1000.0687;  4.0000001E-01;56.887222;3;-6.5039763;0.0;0.10002108;0;-0.067753062;  1.0001436E+04;  0.0000000E+00; -1.2697249E-10;  1.0000000E+04;  0.0000000E+00;  9.9999385E+03;-0.07123249;0.0;0.00347943;30.810949
  3.9999437E-01;  9.9999998E-03;  1.4000021E-01;1671;-0.0074060438;0.0;0.00023171952;1000.0692;  4.0000001E-01;57.282276;3;-6.6978559;0.0;0.16770172;0;-0.06864316;  1.0001464E+04;  0.0000000E+00; -5.2030108E-10;  1.0000000E+04;  0.0000000E+00;  9.9999209E+03;-0.073234789;0.0;0.004591628;37.807529
  4.1999322E-01;  9.9999998E-03; -3.1325534E-13;1695;-0.0083410256;0.0;-8.1219886e-10;1000.0823;  4.0000001E-01;68.146133;3;-6.9567938;0.0;-1.2046016e-06;0;-0.076534323;  1.0001695E+04;  0.0000000E+00;  9.2074943E-17;  1.0000000E+04;  0.0000000E+00;  9.9999502E+03;-0.07918521;0.0;0.0026508882;27.188917
  4.1999322E-01;  9.9999998E-03;  2.0000033E-02;1696;-0.0083532548;0.0;3.3830718e-05;1000.0823;  4.0000001E-01;68.146133;3;-6.9753494;0.0;0.011863224;0;-0.076650247;  1.0001698E+04;  0.0000000E+00; -8.0690517E-11;  1.0000000E+04;  0.0000000E+00;  9.9999492E+03;-0.079316437;0.0;0.0026661919;27.400234
  4.1999319E-01;  9.9999998E-03;  4.0000066E-02;1697;-0.0083907442;0.0;6.7366156e-05;1000.0825;  4.0000001E-01;68.343658;3;-7.0315909;0.0;0.024421014;0;-0.077001557;  1.0001702E+04;  0.0000000E+00; -1.7481883E-10;  1.0000000E+04;  0.0000000E+00;  9.9999473E+03;-0.079724379;0.0;0.0027228205;28.084023
  4.1999319E-01;  9.9999998E-03;  6.0000103E-02;1698;-0.0084557487;0.0;0.00010096269;1000.0828;  4.0000001E-01;68.639946;3;-7.1267715;0.0;0.03877278;0;-0.077596478;  1.0001713E+04;  0.0000000E+00; -1.0810440E-10;  1.0000000E+04;  0.0000000E+00;  9.9999453E+03;-0.080448799;0.0;0.0028523202;29.385794
  4.1999313E-01;  9.9999998E-03;  8.0000140E-02;1699;-0.008551483;0.0;0.00013636422;1000.0834;  4.0000001E-01;69.034996;3;-7.2625332;0.0;0.057905927;0;-0.078441277;  1.0001728E+04;  0.0000000E+00; -1.8808093E-10;  1.0000000E+04;  0.0000000E+00;  9.9999385E+03;-0.081547685;0.0;0.0031064085;31.545437
  4.1999307E-01;  9.9999998E-03;  1.0000017E-01;1700;-0.0086812805;0.0;0.00017749863;1000.084;  4.0000001E-01;69.627571;3;-7.4397035;0.0;0.087746777;0;-0.079525612;  1.0001748E+04;  0.0000000E+00; -2.2154395E-10;  1.0000000E+04;  0.0000000E+00;  9.9999336E+03;-0.083083622;0.0;0.0035580127;34.921745
  4.1999298E-01;  9.9999998E-03;  1.2000022E-01;1701;-0.008846595;0.0;0.00022927225;1000.0847;  4.0000001E-01;70.220146;3;-7.6558905;0.0;0.13195996;0;-0.080796905;  1.0001774E+04;  0.0000000E+00;  1.0953208E-11;  1.0000000E+04;  0.0000000E+00;  9.9999199E+03;-0.085105479;0.0;0.0043085725;40.089046
  4.1999289E-01;  9.9999998E-03;  1.4000027E-01;1702;-0.0090457378;0.0;0.00030087706;1000.0856;  4.0000001E-01;70.911484;3;-7.9062328;0.0;0.20306909;0;-0.082121737;  1.0001809E+04;  0.0000000E+00; -3.3177566E-10;  1.0000000E+04;  0.0000000E+00;  9.9998994E+03;-0.087626658;0.0;0.005504922;48.049236
  4.3999153E-01;  9.9999998E-03; -2.6006267E-13;1726;-0.010089007;0.0;-1.2261454e-09;1000.1006;  4.0000001E-01;83.35553;3;-8.0951138;0.0;-4.6324503e-06;0;-0.090126552;  1.0002086E+04;  0.0000000E+00; -6.4332351E-17;  1.0000000E+04;  0.0000000E+00;  9.9999277E+03;-0.094095312;0.0;0.0039687618;37.802162
  4.3999153E-01;  9.9999998E-03;  2.0000052E-02;1727;-0.010103764;0.0;5.6126995e-05;1000.1006;  4.0000001E-01;83.35553;3;-8.1174908;0.0;0.029571421;0;-0.090265393;  1.0002087E+04;  0.0000000E+00;  6.1759105E-11;  1.0000000E+04;  0.0000000E+00;  9.9999277E+03;-0.094245501;0.0;0.0039801076;38.103745
  4.3999150E-01;  9.9999998E-03;  4.0000100E-02;1728;-0.010149238;0.0;0.00011096676;1000.1009;  4.0000001E-01;83.553055;3;-8.1854401;0.0;0.058333885;0;-0.090689503;  1.0002093E+04;  0.0000000E+00;  1.8505669E-10;  1.0000000E+04;  0.0000000E+00;  9.9999248E+03;-0.094714604;0.0;0.0040250984;39.055187
  4.3999147E-01;  9.9999998E-03;  6.0000151E-02;1729;-0.010228842;0.0;0.0001639801;1000.1013;  4.0000001E-01;83.849342;3;-8.3010845;0.0;0.086080775;0;-0.09141995;  1.0002104E+04;  0.0000000E+00;  4.9821108E-10;  1.0000000E+04;  0.0000000E+00;  9.9999238E+03;-0.095555797;0.0;0.0041358434;40.788536
  4.3999141E-01;  9.9999998E-03;  8.0000199E-02;1730;-0.010347717;0.0;0.00021621102;1000.1019;  4.0000001E-01;84.441917;3;-8.4673252;0.0;0.11484701;0;-0.092482276;  1.0002121E+04;  0.0000000E+00;  9.4734887E-10;  1.0000000E+04;  0.0000000E+00;  9.9999160E+03;-0.096847177;0.0;0.0043649031;43.511868
  4.3999133E-01;  9.9999998E-03;  1.0000025E-01;1731;-0.010511721;0.0;0.00027144264;1000.1025;  4.0000001E-01;84.93573;3;-8.6866055;0.0;0.15092315;0;-0.093888439;  1.0002146E+04;  0.0000000E+00;  1.5224006E-09;  1.0000000E+04;  0.0000000E+00;  9.9999063E+03;-0.098676622;0.0;0.0047881855;47.540115
  4.3999124E-01;  9.9999998E-03;  1.2000032E-01;1732;-0.010724999;0.0;0.00033478061;1000.1036;  4.0000001E-01;85.824593;3;-8.9579;0.0;0.19734536;0;-0.095602013;  1.0002182E+04;  0.0000000E+00;  2.0061104E-09;  1.0000000E+04;  0.0000000E+00;  9.9998916E+03;-0.10112058;0.0;0.0055185696;53.438282
  4.3999109E-01;  9.9999998E-03;  1.4000039E-01;1733;-0.010987549;0.0;0.00041672291;1000.1046;  4.0000001E-01;86.713455;3;-9.2763882;0.0;0.27055332;0;-0.097484812;  1.0002224E+04;  0.0000000E+00;  2.8760729E-09;  1.0000000E+04;  0.0000000E+00;  9.9998701E+03;-0.10421991;0.0;0.0067350953;62.346985
  4.5998943E-01;  9.9999998E-03;  2.0567089E-13;1757;-0.012157435;0.0;7.0234868e-10;1000.1227;  4.0000033E-01;101.62653;3;-9.3739319;0.0;1.3495394e-06;0;-0.10527466;  1.0002544E+04;  0.0000000E+00; -6.2436133E-16;  1.0000000E+04;  0.0000000E+00;  9.9998955E+03;-0.11114813;0.0;0.005873472;52.353802
  4.5998943E-01;  9.9999998E-03;  2.0000076E-02;1758;-0.012174852;0.0;9.1294649e-05;1000.1227;  4.0000033E-01;101.72529;3;-9.4003391;0.0;0.061056975;0;-0.10543026;  1.0002546E+04;  0.0000000E+00;  7.4213254E-11;  1.0000000E+04;  0.0000000E+00;  9.9998955E+03;-0.11131783;0.0;0.0058875647;52.839462
  4.5998940E-01;  9.9999998E-03;  4.0000152E-02;1759;-0.012228805;0.0;0.00018014037;1000.1229;  4.0000030E-01;101.82405;3;-9.4807234;0.0;0.1191676;0;-0.10591119;  1.0002554E+04;  0.0000000E+00;  1.7460461E-10;  1.0000000E+04;  0.0000000E+00;  9.9998926E+03;-0.11185042;0.0;0.0059392294;54.331013
  4.5998937E-01;  9.9999998E-03;  6.0000226E-02;1760;-0.012324305;0.0;0.00026482999;1000.1234;  4.0000024E-01;102.2191;3;-9.6183615;0.0;0.17151387;0;-0.10675757;  1.0002566E+04;  0.0000000E+00;  1.0030667E-09;  1.0000000E+04;  0.0000000E+00;  9.9998867E+03;-0.11281302;0.0;0.0060554538;56.916752
  4.5998928E-01;  9.9999998E-03;  8.0000304E-02;1761;-0.0124691;0.0;0.00034571378;1000.124;  4.0000027E-01;102.71291;3;-9.8179588;0.0;0.2197955;0;-0.1080255;  1.0002587E+04;  0.0000000E+00;  2.2032085E-09;  1.0000000E+04;  0.0000000E+00;  9.9998799E+03;-0.11430519;0.0;0.006279693;60.713547
  4.5998919E-01;  9.9999998E-03;  1.0000038E-01;1762;-0.012672587;0.0;0.00042586107;1000.125;  4.0000027E-01;103.60178;3;-10.0845;0.0;0.26783949;0;-0.10976498;  1.0002618E+04;  0.0000000E+00;  7.2947772E-09;  1.0000000E+04;  0.0000000E+00;  9.9998682E+03;-0.11644196;0.0;0.0066769808;65.900429
  4.5998904E-01;  9.9999998E-03;  1.2000047E-01;1763;-0.012942739;0.0;0.00051080692;1000.1262;  4.0000033E-01;104.5894;3;-10.419057;0.0;0.32082367;0;-0.11197432;  1.0002660E+04;  0.0000000E+00;  1.2506271E-08;  1.0000000E+04;  0.0000000E+00;  9.9998516E+03;-0.11933048;0.0;0.0073561566;72.913803
  4.5998886E-01;  9.9999998E-03;  1.4000057E-01;1764;-0.013282406;0.0;0.00061071938;1000.1278;  4.0000036E-01;105.87331;3;-10.817584;0.0;0.39710456;0;-0.11452807;  1.0002713E+04;  0.0000000E+00;  2.1745063E-08;  1.0000000E+04;  0.0000000E+00;  9.9998281E+03;-0.12304605;0.0;0.0085179722;82.934608
  4.7998682E-01;  9.9999998E-03;  3.3546665E-13;1788;-0.014611567;0.0;-3.807851e-10;1000.1482;  4.0000093E-01;122.76159;3;-10.808291;0.0;-2.5805284e-06;0;-0.12155789;  1.0003070E+04;  0.0000000E+00;  1.4250465E-16;  1.0000000E+04;  0.0000000E+00;  9.9998545E+03;-0.13007978;0.0;0.0085218884;71.756805
  4.7998682E-01;  9.9999998E-03;  2.0000113E-02;1789;-0.014631727;0.0;0.00014295062;1000.1482;  4.0000090E-01;122.76159;3;-10.838839;0.0;0.10997928;0;-0.12171707;  1.0003072E+04;  0.0000000E+00;  2.1660887E-11;  1.0000000E+04;  0.0000000E+00;  9.9998516E+03;-0.13027036;0.0;0.0085532973;72.579788
  4.7998679E-01;  9.9999998E-03;  4.0000223E-02;1790;-0.014694542;0.0;0.00028261522;1000.1485;  4.0000093E-01;123.05788;3;-10.932051;0.0;0.2142244;0;-0.12221774;  1.0003080E+04;  0.0000000E+00;  7.6438361E-10;  1.0000000E+04;  0.0000000E+00;  9.9998457E+03;-0.13087058;0.0;0.0086528454;75.059151
  4.7998676E-01;  9.9999998E-03;  6.0000338E-02;1791;-0.014807002;0.0;0.00041666854;1000.149;  4.0000096E-01;123.45293;3;-11.092601;0.0;0.3088924;0;-0.12312628;  1.0003098E+04;  0.0000000E+00;  2.0744135E-09;  1.0000000E+04;  0.0000000E+00;  9.9998369E+03;-0.1319607;0.0;0.0088344198;79.198235
  4.7998667E-01;  9.9999998E-03;  8.0000453E-02;1792;-0.014980284;0.0;0.00054455915;1000.1495;  4.0000093E-01;123.84798;3;-11.327637;0.0;0.39264706;0;-0.12454366;  1.0003122E+04;  0.0000000E+00;  8.3283940E-09;  1.0000000E+04;  0.0000000E+00;  9.9998242E+03;-0.13366139;0.0;0.0091177328;84.944214
  4.7998655E-01;  9.9999998E-03;  1.0000057E-01;1793;-0.015228268;0.0;0.00066870992;1000.1506;  4.0000093E-01;124.8356;3;-11.645236;0.0;0.46755466;0;-0.12657762;  1.0003159E+04;  0.0000000E+00;  2.0925587E-08;  1.0000000E+04;  0.0000000E+00;  9.9998105E+03;-0.13611327;0.0;0.0095356544;92.21701
  4.7998637E-01;  9.9999998E-03;  1.2000070E-01;1794;-0.015564067;0.0;0.00079360284;1000.1521;  4.0000090E-01;126.02074;3;-12.050143;0.0;0.53797704;0;-0.12928718;  1.0003208E+04;  0.0000000E+00;  4.6777004E-08;  1.0000000E+04;  0.0000000E+00;  9.9997930E+03;-0.13945436;0.0;0.010167183;101.17027
  4.7998613E-01;  9.9999998E-03;  1.4000084E-01;1795;-0.01599508;0.0;0.00092606794;1000.1541;  4.0000093E-01;127.69971;3;-12.540437;0.0;0.61733389;0;-0.13258696;  1.0003274E+04;  0.0000000E+00;  8.3424389E-08;  1.0000000E+04;  0.0000000E+00;  9.9997656E+03;-0.14379862;0.0;0.011211664;112.89478
  4.9998361E-01;  9.9999998E-03;  3.7457019E-13;1819;-0.017526455;0.0;8.2496487e-10;1000.1771;  4.0000215E-01;146.66193;3;-12.418288;0.0;6.5598588e-06;0;-0.13794756;  1.0003643E+04;  0.0000000E+00; -1.4511299E-15;  1.0000000E+04;  0.0000000E+00;  9.9997949E+03;-0.15000629;0.0;0.012058729;96.770355
  4.9998361E-01;  9.9999998E-03;  2.0000162E-02;1820;-0.017549437;0.0;0.0002146045;1000.1771;  4.0000215E-01;146.7607;3;-12.45282;0.0;0.18134958;0;-0.13808756;  1.0003644E+04;  0.0000000E+00;  3.4401490E-10;  1.0000000E+04;  0.0000000E+00;  9.9997939E+03;-0.15022063;0.0;0.012133081;98.160446
  4.9998358E-01;  9.9999998E-03;  4.0000323E-02;1821;-0.017621314;0.0;0.00042590595;1000.1769;  4.0000212E-01;146.56317;3;-12.559028;0.0;0.35586056;0;-0.13854235;  1.0003653E+04;  0.0000000E+00;  2.0168602E-09;  1.0000000E+04;  0.0000000E+00;  9.9997861E+03;-0.15089643;0.0;0.012354072;102.30042
  4.9998352E-01;  9.9999998E-03;  6.0000487E-02;1822;-0.017751563;0.0;0.00063205633;1000.1772;  4.0000203E-01;146.85945;3;-12.742707;0.0;0.51658368;0;-0.13941379;  1.0003673E+04;  0.0000000E+00;  7.4410851E-09;  1.0000000E+04;  0.0000000E+00;  9.9997705E+03;-0.1521256;0.0;0.012711802;109.05574
  4.9998340E-01;  9.9999998E-03;  8.0000661E-02;1823;-0.017955381;0.0;0.00083276222;1000.1777;  4.0000200E-01;147.15575;3;-13.013656;0.0;0.65925044;0;-0.1408636;  1.0003701E+04;  0.0000000E+00;  2.7115600E-08;  1.0000000E+04;  0.0000000E+00;  9.9997520E+03;-0.15404619;0.0;0.013182594;118.10317
  4.9998325E-01;  9.9999998E-03;  1.0000084E-01;1824;-0.018252276;0.0;0.0010297105;1000.1788;  4.0000209E-01;148.14337;3;-13.383842;0.0;0.78342295;0;-0.14308201;  1.0003744E+04;  0.0000000E+00;  7.0633753E-08;  1.0000000E+04;  0.0000000E+00;  9.9997275E+03;-0.15682046;0.0;0.013738457;128.9614
  4.9998301E-01;  9.9999998E-03;  1.2000103E-01;1825;-0.018661883;0.0;0.0012261987;1000.1804;  4.0000209E-01;149.42728;3;-13.863885;0.0;0.89363706;0;-0.14622027;  1.0003804E+04;  0.0000000E+00;  1.5377562E-07;  1.0000000E+04;  0.0000000E+00;  9.9997012E+03;-0.16061242;0.0;0.014392155;141.34641
  4.9998271E-01;  9.9999998E-03;  1.4000125E-01;1826;-0.019196808;0.0;0.0014217802;1000.1827;  4.0000206E-01;151.40253;3;-14.454269;0.0;0.98915887;0;-0.15026677;  1.0003882E+04;  0.0000000E+00;  2.6497705E-07;  1.0000000E+04;  0.0000000E+00;  9.9996699E+03;-0.16557425;0.0;0.015307479;156.18054
  5.1997966E-01;  9.9999998E-03;  6.4881030E-14;1850;-0.020965984;0.0;-4.9173438e-10;1000.2112;  4.0000591E-01;175.00645;3;-14.217702;0.0;2.8147319e-06;0;-0.15259957;  1.0004205E+04;  0.0000000E+00;  2.6189099E-16;  1.0000000E+04;  0.0000000E+00;  9.9997246E+03;-0.16919187;0.0;0.016592301;127.78813
  5.1997966E-01;  9.9999998E-03;  2.0000225E-02;1851;-0.020991843;0.0;0.00031118176;1000.2112;  4.0000591E-01;175.00645;3;-14.25656;0.0;0.28131557;0;-0.15268609;  1.0004209E+04;  0.0000000E+00;  7.8723467E-10;  1.0000000E+04;  0.0000000E+00;  9.9997197E+03;-0.16943567;0.0;0.01674957;130.07068
  5.1997960E-01;  9.9999998E-03;  4.0000454E-02;1852;-0.021073053;0.0;0.00062049914;1000.2109;  4.0000591E-01;174.71017;3;-14.376035;0.0;0.55269367;0;-0.15299499;  1.0004221E+04;  0.0000000E+00;  5.5785514E-09;  1.0000000E+04;  0.0000000E+00;  9.9997070E+03;-0.17020234;0.0;0.017207351;136.82394
  5.1997954E-01;  9.9999998E-03;  6.0000688E-02;1853;-0.021222038;0.0;0.00092826918;1000.2109;  4.0000597E-01;174.71017;3;-14.583874;0.0;0.80758244;0;-0.15367432;  1.0004243E+04;  0.0000000E+00;  2.5917215E-08;  1.0000000E+04;  0.0000000E+00;  9.9996826E+03;-0.17159191;0.0;0.017917583;147.70067
  5.1997942E-01;  9.9999998E-03;  8.0000937E-02;1854;-0.021459199;0.0;0.0012343522;1000.211;  4.0000591E-01;174.80893;3;-14.893432;0.0;1.0389231;0;-0.15496472;  1.0004275E+04;  0.0000000E+00;  7.9404174E-08;  1.0000000E+04;  0.0000000E+00;  9.9996514E+03;-0.17375302;0.0;0.018788302;161.98347
  5.1997924E-01;  9.9999998E-03;  1.0000122E-01;1855;-0.021809794;0.0;0.0015434691;1000.2119;  4.0000594E-01;175.59903;3;-15.317669;0.0;1.25151;0;-0.15716624;  1.0004327E+04;  0.0000000E+00;  2.0428831E-07;  1.0000000E+04;  0.0000000E+00;  9.9996152E+03;-0.17686146;0.0;0.019695222;178.65125
  5.1997894E-01;  9.9999998E-03;  1.2000151E-01;1856;-0.022300657;0.0;0.0018553236;1000.2134;  4.0000594E-01;176.78418;3;-15.87474;0.0;1.4318771;0;-0.16055557;  1.0004396E+04;  0.0000000E+00;  4.1967755E-07;  1.0000000E+04;  0.0000000E+00;  9.9995752E+03;-0.18109924;0.0;0.020543661;196.91888
  5.1997858E-01;  9.9999998E-03;  1.4000183E-01;1857;-0.022950361;0.0;0.0021640169;1000.2159;  4.0000585E-01;178.85818;3;-16.570309;0.0;1.5756058;0;-0.16522309;  1.0004489E+04;  0.0000000E+00;  6.8771965E-07;  1.0000000E+04;  0.0000000E+00;  9.9995342E+03;-0.18664928;0.0;0.021426184;217.70723
  5.3997499E-01;  9.9999998E-03; -1.1658408E-12;1881;-0.02495308;0.0;-1.8424563e-09;1000.2551;  4.0001565E-01;211.35051;3;-16.215725;0.0;9.7908332e-07;0;-0.16283372;  1.0004684E+04;  0.0000000E+00;  6.0090058E-16;  1.0000000E+04;  0.0000000E+00;  9.9996377E+03;-0.18501101;0.0;0.022177288;164.6794
  5.3997493E-01;  9.9999998E-03;  2.0000305E-02;1882;-0.024981894;0.0;0.00043047458;1000.2548;  4.0001553E-01;211.153;3;-16.260155;0.0;0.39317274;0;-0.16281819;  1.0004689E+04;  0.0000000E+00;  3.4734231E-09;  1.0000000E+04;  0.0000000E+00;  9.9996299E+03;-0.18529251;0.0;0.022474311;168.29433
  5.3997493E-01;  9.9999998E-03;  4.0000618E-02;1883;-0.025073918;0.0;0.00086312182;1000.2545;  4.0001553E-01;210.8567;3;-16.394974;0.0;0.78449422;0;-0.16283919;  1.0004705E+04;  0.0000000E+00;  1.7800703E-08;  1.0000000E+04;  0.0000000E+00;  9.9996055E+03;-0.18617266;0.0;0.023333475;178.94536
  5.3997481E-01;  9.9999998E-03;  6.0000949E-02;1884;-0.025243549;0.0;0.0013018118;1000.2539;  4.0001559E-01;210.3629;3;-16.628389;0.0;1.1648641;0;-0.16310185;  1.0004729E+04;  0.0000000E+00;  6.5808024E-08;  1.0000000E+04;  0.0000000E+00;  9.9995693E+03;-0.18775171;0.0;0.024649864;195.96646
  5.3997469E-01;  9.9999998E-03;  8.0001302E-02;1885;-0.025516594;0.0;0.0017517736;1000.2535;  4.0001556E-01;209.96785;3;-16.975677;0.0;1.5272419;0;-0.16394679;  1.0004771E+04;  0.0000000E+00;  1.9167349E-07;  1.0000000E+04;  0.0000000E+00;  9.9995195E+03;-0.19017939;0.0;0.026232598;218.10324
  5.3997445E-01;  9.9999998E-03;  1.0000170E-01;1886;-0.02592634;0.0;0.0022191193;1000.2537;  4.0001553E-01;210.16537;3;-17.45673;0.0;1.8654652;0;-0.16581067;  1.0004831E+04;  0.0000000E+00;  4.6537281E-07;  1.0000000E+04;  0.0000000E+00;  9.9994639E+03;-0.19363341;0.0;0.027822725;243.71545
  5.3997409E-01;  9.9999998E-03;  1.2000215E-01;1887;-0.026506353;0.0;0.0027043282;1000.2548;  4.0001553E-01;211.153;3;-18.090021;0.0;2.1705561;0;-0.16911688;  1.0004912E+04;  0.0000000E+00;  8.9748625E-07;  1.0000000E+04;  0.0000000E+00;  9.9994043E+03;-0.19830149;0.0;0.029184615;271.7309
  5.3997362E-01;  9.9999998E-03;  1.4000265E-01;1888;-0.027278988;0.0;0.0031993166;1000.2568;  4.0001550E-01;212.73318;3;-18.885229;0.0;2.4352629;0;-0.17405593;  1.0005020E+04;  0.0000000E+00;  1.4107064E-06;  1.0000000E+04;  0.0000000E+00;  9.9993389E+03;-0.20438118;0.0;0.030325245;303.83282
  5.5996960E-01;  9.9999998E-03; -2.3632136E-12;1912;-0.029423013;0.0;-1.5180958e-10;1000.3305;  4.0004191E-01;273.7674;3;-18.395761;0.0;1.0518377e-05;0;-0.16527258;  1.0004978E+04;  0.0000000E+00; -1.7638003E-15;  1.0000000E+04;  0.0000000E+00;  9.9995342E+03;-0.19408448;0.0;0.0288119;206.74872
  5.5996960E-01;  9.9999998E-03;  2.0000400E-02;1913;-0.029455323;0.0;0.000572716;1000.3303;  4.0004194E-01;273.56985;3;-18.445021;0.0;0.54294062;0;-0.16508655;  1.0004984E+04;  0.0000000E+00;  5.3064211E-09;  1.0000000E+04;  0.0000000E+00;  9.9995244E+03;-0.19441068;0.0;0.029324133;212.26456
  5.5996954E-01;  9.9999998E-03;  4.0000815E-02;1914;-0.029558383;0.0;0.0011576344;1000.3292;  4.0004200E-01;272.681;3;-18.593958;0.0;1.0907279;0;-0.16461818;  1.0005001E+04;  0.0000000E+00;  3.4017813E-08;  1.0000000E+04;  0.0000000E+00;  9.9994854E+03;-0.19542135;0.0;0.030803176;228.46983
  5.5996943E-01;  9.9999998E-03;  6.0001262E-02;1915;-0.029749477;0.0;0.0017673408;1000.3279;  4.0004197E-01;271.69339;3;-18.852007;0.0;1.6402673;0;-0.16414404;  1.0005030E+04;  0.0000000E+00;  1.2426385E-07;  1.0000000E+04;  0.0000000E+00;  9.9994297E+03;-0.19720848;0.0;0.03306444;254.24413
  5.5996931E-01;  9.9999998E-03;  8.0001764E-02;1916;-0.030060716;0.0;0.0024105334;1000.3264;  4.0004191E-01;270.40948;3;-19.238945;0.0;2.1751869;0;-0.16412681;  1.0005077E+04;  0.0000000E+00;  3.6097990E-07;  1.0000000E+04;  0.0000000E+00;  9.9993535E+03;-0.19991;0.0;0.035783194;287.65338
  5.5996901E-01;  9.9999998E-03;  1.0000233E-01;1917;-0.030533209;0.0;0.0030962965;1000.3257;  4.0004194E-01;269.81693;3;-19.777073;0.0;2.687758;0;-0.16515799;  1.0005147E+04;  0.0000000E+00;  8.4041756E-07;  1.0000000E+04;  0.0000000E+00;  9.9992686E+03;-0.2036912;0.0;0.038533214;326.53351
  5.5996859E-01;  9.9999998E-03;  1.2000299E-01;1918;-0.03120885;0.0;0.0038256375;1000.3256;  4.0004191E-01;269.81693;3;-20.488884;0.0;3.1625042;0;-0.16779742;  1.0005238E+04;  0.0000000E+00;  1.5620045E-06;  1.0000000E+04;  0.0000000E+00;  9.9991768E+03;-0.2087286;0.0;0.040931188;370.27591
  5.5996799E-01;  9.9999998E-03;  1.4000373E-01;1919;-0.032114051;0.0;0.0045822458;1000.3262;  4.0004188E-01;270.31073;3;-21.385618;0.0;3.5869656;0;-0.17228508;  1.0005361E+04;  0.0000000E+00;  2.2238858E-06;  1.0000000E+04;  0.0000000E+00;  9.9990664E+03;-0.2152091;0.0;0.042924009;422.97031
  5.7996386E-01;  9.9999998E-03;  3.7569347E-14;1943;-0.034156594;0.0;1.7939039e-09;1000.4984;  4.0011188E-01;412.9212;3;-20.664381;0.0;4.6290406e-06;0;-0.1556989;  1.0004952E+04;  0.0000000E+00;  4.9201539E-16;  1.0000000E+04;  0.0000000E+00;  9.9994189E+03;-0.19214609;0.0;0.036447197;252.7941
  5.7996386E-01;  9.9999998E-03;  2.0000506E-02;1944;-0.034193132;0.0;0.00074226403;1000.4978;  4.0011185E-01;412.4274;3;-20.720655;0.0;0.73895818;0;-0.15524565;  1.0004958E+04;  0.0000000E+00;  6.0737300E-09;  1.0000000E+04;  0.0000000E+00;  9.9994014E+03;-0.19251442;0.0;0.037268776;260.91364
  5.7996380E-01;  9.9999998E-03;  4.0001038E-02;1945;-0.034310538;0.0;0.0015028464;1000.4962;  4.0011188E-01;411.04474;3;-20.891188;0.0;1.459648;0;-0.15400359;  1.0004978E+04;  0.0000000E+00;  4.2922952E-08;  1.0000000E+04;  0.0000000E+00;  9.9993477E+03;-0.19364478;0.0;0.039641187;284.71796
  5.7996368E-01;  9.9999998E-03;  6.0001630E-02;1946;-0.03452719;0.0;0.0023143215;1000.4936;  4.0011185E-01;408.97076;3;-21.179918;0.0;2.203716;0;-0.152338;  1.0005013E+04;  0.0000000E+00;  1.7293502E-07;  1.0000000E+04;  0.0000000E+00;  9.9992598E+03;-0.19561176;0.0;0.043273766;322.47577
  5.7996351E-01;  9.9999998E-03;  8.0002300E-02;1947;-0.034881752;0.0;0.0031930311;1000.4907;  4.0011182E-01;406.50171;3;-21.615084;0.0;2.9344847;0;-0.15085462;  1.0005065E+04;  0.0000000E+00;  5.2601200E-07;  1.0000000E+04;  0.0000000E+00;  9.9991484E+03;-0.19852859;0.0;0.047673963;371.4863
  5.7996315E-01;  9.9999998E-03;  1.0000309E-01;1948;-0.035423521;0.0;0.0041551231;1000.488;  4.0011185E-01;404.32898;3;-22.211088;0.0;3.6639259;0;-0.15030217;  1.0005140E+04;  0.0000000E+00;  1.2210224E-06;  1.0000000E+04;  0.0000000E+00;  9.9990195E+03;-0.20253341;0.0;0.052231241;429.45456
  5.7996267E-01;  9.9999998E-03;  1.2000401E-01;1949;-0.036203932;0.0;0.0052031409;1000.4857;  4.0011185E-01;402.35373;3;-23.001236;0.0;4.3735323;0;-0.15132146;  1.0005239E+04;  0.0000000E+00;  2.1479616E-06;  1.0000000E+04;  0.0000000E+00;  9.9988750E+03;-0.20776927;0.0;0.056447815;497.68323
  5.7996196E-01;  9.9999998E-03;  1.4000505E-01;1950;-0.037257224;0.0;0.0063091167;1000.4829;  4.0011188E-01;400.08221;3;-24.002825;0.0;5.0195265;0;-0.15410507;  1.0005372E+04;  0.0000000E+00;  2.5283016E-06;  1.0000000E+04;  0.0000000E+00;  9.9986895E+03;-0.21437603;0.0;0.060270969;585.19659
  5.9995824E-01;  9.9999998E-03;  1.7304304E-12;1974;-0.038797952;0.0;4.0582333e-09;1000.9114;  4.0028954E-01;755.0271;3;-22.894402;0.0;-5.6051067e-07;0;-0.12868676;  1.0004458E+04;  0.0000000E+00;  9.0582127E-16;  1.0000000E+04;  0.0000000E+00;  9.9992920E+03;-0.17369008;0.0;0.045003328;301.28998
  5.9995824E-01;  9.9999998E-03;  2.0000618E-02;1975;-0.038841177;0.0;0.00091472571;1000.9105;  4.0028954E-01;754.33575;3;-22.951124;0.0;0.92253113;0;-0.12783417;  1.0004465E+04;  0.0000000E+00;  1.5480153E-09;  1.0000000E+04;  0.0000000E+00;  9.9992656E+03;-0.17407894;0.0;0.046244774;312.82913
  5.9995818E-01;  9.9999998E-03;  4.0001273E-02;1976;-0.038976979;0.0;0.0018661626;1000.9076;  4.0028954E-01;751.86676;3;-23.142998;0.0;1.8470414;0;-0.12543075;  1.0004484E+04;  0.0000000E+00;  3.2466744E-08;  1.0000000E+04;  0.0000000E+00;  9.9991875E+03;-0.17526241;0.0;0.049831655;346.60867
  5.9995806E-01;  9.9999998E-03;  6.0002018E-02;1977;-0.039234743;0.0;0.0028887074;1000.9033;  4.0028962E-01;748.31134;3;-23.49045;0.0;2.7684808;0;-0.12195189;  1.0004521E+04;  0.0000000E+00;  1.7820246E-07;  1.0000000E+04;  0.0000000E+00;  9.9990625E+03;-0.17729156;0.0;0.055339672;400.13153
  5.9995782E-01;  9.9999998E-03;  8.0002889E-02;1978;-0.039649602;0.0;0.0040256493;1000.8979;  4.0028954E-01;743.96588;3;-23.978619;0.0;3.7331505;0;-0.1181666;  1.0004577E+04;  0.0000000E+00;  6.0227558E-07;  1.0000000E+04;  0.0000000E+00;  9.9989033E+03;-0.18024562;0.0;0.062079031;469.94263
  5.9995741E-01;  9.9999998E-03;  1.0000393E-01;1979;-0.040272247;0.0;0.0053204224;1000.8925;  4.0028951E-01;739.3241;3;-24.635172;0.0;4.7635312;0;-0.1149597;  1.0004652E+04;  0.0000000E+00;  1.4170207E-06;  1.0000000E+04;  0.0000000E+00;  9.9987158E+03;-0.18421941;0.0;0.069259703;554.34125
  5.9995681E-01;  9.9999998E-03;  1.2000516E-01;1980;-0.041167192;0.0;0.0067816516;1000.886;  4.0028948E-01;733.99103;3;-25.496334;0.0;5.8290844;0;-0.11296061;  1.0004753E+04;  0.0000000E+00;  2.2325989E-06;  1.0000000E+04;  0.0000000E+00;  9.9984883E+03;-0.18929888;0.0;0.076338269;658.56793
  5.9995592E-01;  9.9999998E-03;  1.4000657E-01;1981;-0.042378582;0.0;0.0083509991;1000.8773;  4.0028954E-01;726.78149;3;-26.597132;0.0;6.8001409;0;-0.11220834;  1.0004882E+04;  0.0000000E+00;  1.5793001E-06;  1.0000000E+04;  0.0000000E+00;  9.9981875E+03;-0.19553624;0.0;0.083327904;799.61841
  6.1995316E-01;  9.9999998E-03; -6.0987633E-14;2005;-0.043024685;0.0;-2.2170892e-09;1001.866;  4.0069619E-01;1545.895;3;-24.96587;0.0;-3.757712e-06;0;-0.078270182;  1.0003354E+04;  0.0000000E+00; -3.3693120E-16;  1.0000000E+04;  0.0000000E+00;  9.9991543E+03;-0.13264881;0.0;0.054378632;350.6842
  6.1995310E-01;  9.9999998E-03;  2.0000711E-02;2006;-0.043081008;0.0;0.0010745467;1001.8645;  4.0069619E-01;1544.7098;3;-25.04063;0.0;1.1153576;0;-0.076853484;  1.0003358E+04;  0.0000000E+00; -5.7603247E-09;  1.0000000E+04;  0.0000000E+00;  9.9991172E+03;-0.13301152;0.0;0.056158036;366.50854
  6.1995304E-01;  9.9999998E-03;  4.0001478E-02;2007;-0.043254059;0.0;0.0022034321;1001.8601;  4.0069625E-01;1541.0557;3;-25.264959;0.0;2.2606111;0;-0.072804645;  1.0003380E+04;  0.0000000E+00; -9.4979502E-10;  1.0000000E+04;  0.0000000E+00;  9.9990117E+03;-0.13410766;0.0;0.061303016;412.78317
  6.1995286E-01;  9.9999998E-03;  6.0002360E-02;2008;-0.04356898;0.0;0.0034511208;1001.8534;  4.0069628E-01;1535.4264;3;-25.64884;0.0;3.4451571;0;-0.066734955;  1.0003413E+04;  0.0000000E+00;  1.1751126E-07;  1.0000000E+04;  0.0000000E+00;  9.9988398E+03;-0.13596343;0.0;0.06922847;486.10489
  6.1995256E-01;  9.9999998E-03;  8.0003440E-02;2009;-0.044053327;0.0;0.0049037561;1001.8447;  4.0069625E-01;1528.2169;3;-26.164738;0.0;4.7358499;0;-0.059594408;  1.0003462E+04;  0.0000000E+00;  5.2941618E-07;  1.0000000E+04;  0.0000000E+00;  9.9986201E+03;-0.13861829;0.0;0.079023883;582.36914
  6.1995208E-01;  9.9999998E-03;  1.0000479E-01;2010;-0.044775315;0.0;0.0066352752;1001.8345;  4.0069628E-01;1519.8223;3;-26.904703;0.0;6.1436038;0;-0.052372403;  1.0003529E+04;  0.0000000E+00;  1.2845888E-06;  1.0000000E+04;  0.0000000E+00;  9.9983516E+03;-0.1421131;0.0;0.089740701;701.36865
  6.1995131E-01;  9.9999998E-03;  1.2000643E-01;2011;-0.045808699;0.0;0.0086282343;1001.8221;  4.0069622E-01;1509.5511;3;-27.869221;0.0;7.5725751;0;-0.045583814;  1.0003620E+04;  0.0000000E+00;  1.6005640E-06;  1.0000000E+04;  0.0000000E+00;  9.9980137E+03;-0.14645559;0.0;0.10087177;854.4679
  6.1995029E-01;  9.9999998E-03;  1.4000833E-01;2012;-0.047183909;0.0;0.010795315;1001.8043;  4.0069637E-01;1494.8359;3;-29.027386;0.0;8.9434671;0;-0.039049663;  1.0003729E+04;  0.0000000E+00; -1.0026531E-06;  1.0000000E+04;  0.0000000E+00;  9.9975508E+03;-0.15158558;0.0;0.11253592;1069.536
  6.3994879E-01;  9.9999998E-03;  4.2435342E-13;2036;-0.046577714;0.0;1.8620703e-09;1003.6313;  4.0144128E-01;3008.4116;3;-26.667625;0.0;-6.3853804e-06;0;-0.00022575259;  1.0001566E+04;  0.0000000E+00; -2.6876149E-16;  1.0000000E+04;  0.0000000E+00;  9.9990107E+03;-0.064648606;0.0;0.064422853;399.65518
  6.3994873E-01;  9.9999998E-03;  2.0000784E-02;2037;-0.046643116;0.0;0.0012365683;1003.6291;  4.0144119E-01;3006.5352;3;-26.7474;0.0;1.3616891;0;0.0019341856;  1.0001571E+04;  0.0000000E+00; -1.6606531E-08;  1.0000000E+04;  0.0000000E+00;  9.9989629E+03;-0.064916074;0.0;0.06685026;420.56015
  6.3994861E-01;  9.9999998E-03;  4.0001646E-02;2038;-0.046855059;0.0;0.0025543028;1003.6226;  4.0144116E-01;3001.2021;3;-27.01384;0.0;2.7509527;0;0.0081537217;  1.0001585E+04;  0.0000000E+00; -4.5787971E-08;  1.0000000E+04;  0.0000000E+00;  9.9988203E+03;-0.065718532;0.0;0.073872253;481.64273
  6.3994837E-01;  9.9999998E-03;  6.0002681E-02;2039;-0.047235928;0.0;0.0040530805;1003.6125;  4.0144116E-01;2992.8076;3;-27.431931;0.0;4.2240095;0;0.017660275;  1.0001610E+04;  0.0000000E+00;  1.0239695E-08;  1.0000000E+04;  0.0000000E+00;  9.9985928E+03;-0.067057058;0.0;0.084717333;578.45874
  6.3994795E-01;  9.9999998E-03;  8.0004007E-02;2040;-0.047827609;0.0;0.0058556888;1003.5996;  4.0144119E-01;2982.1414;3;-28.029047;0.0;5.8443937;0;0.029304579;  1.0001646E+04;  0.0000000E+00;  3.2913437E-07;  1.0000000E+04;  0.0000000E+00;  9.9982988E+03;-0.068931699;0.0;0.098236278;706.35034
  6.3994735E-01;  9.9999998E-03;  1.0000572E-01;2041;-0.048690844;0.0;0.0080428841;1003.5836;  4.0144122E-01;2968.8088;3;-28.879522;0.0;7.5459032;0;0.042017117;  1.0001693E+04;  0.0000000E+00;  8.7080309E-07;  1.0000000E+04;  0.0000000E+00;  9.9979307E+03;-0.071326695;0.0;0.11334381;867.38751
  6.3994646E-01;  9.9999998E-03;  1.2000785E-01;2042;-0.049874801;0.0;0.010628945;1003.5626;  4.0144113E-01;2951.4272;3;-29.922935;0.0;9.394021;0;0.055456392;  1.0001754E+04;  0.0000000E+00;  4.6485835E-07;  1.0000000E+04;  0.0000000E+00;  9.9974600E+03;-0.074172206;0.0;0.1296286;1080.8079
  6.3994533E-01;  9.9999998E-03;  1.4001031E-01;2043;-0.051401533;0.0;0.01349271;1003.5328;  4.0144119E-01;2926.7373;3;-31.15518;0.0;11.256469;0;0.070012197;  1.0001822E+04;  0.0000000E+00; -4.2710267E-06;  1.0000000E+04;  0.0000000E+00;  9.9967979E+03;-0.077298239;0.0;0.14731044;1387.4302
  6.5994561E-01;  9.9999998E-03;  2.0230144E-12;2067;-0.049262144;0.0;7.6732505e-09;1005.8423;  4.0237689E-01;4840.0498;3;-28.049807;0.0;1.8123304e-05;0;0.10453557;  9.9991660E+03;  0.0000000E+00;  1.0196865E-16;  1.0000000E+04;  0.0000000E+00;  9.9988652E+03;0.029661236;0.0;0.074874334;447.15543
  6.5994555E-01;  9.9999998E-03;  2.0000879E-02;2068;-0.049348481;0.0;0.0014369463;1005.8394;  4.0237686E-01;4837.5811;3;-28.143599;0.0;1.64619;0;0.10759521;  9.9991680E+03;  0.0000000E+00; -2.4068894E-08;  1.0000000E+04;  0.0000000E+00;  9.9988027E+03;0.029565139;0.0;0.078030072;473.70685
  6.5994537E-01;  9.9999998E-03;  4.0001869E-02;2069;-0.049613491;0.0;0.0029858476;1005.8304;  4.0237686E-01;4830.1743;3;-28.415539;0.0;3.3225949;0;0.11644653;  9.9991729E+03;  0.0000000E+00; -8.1842522E-08;  1.0000000E+04;  0.0000000E+00;  9.9986211E+03;0.029284632;0.0;0.087161899;551.23016
  6.5994501E-01;  9.9999998E-03;  6.0003098E-02;2070;-0.050083619;0.0;0.0047839452;1005.8163;  4.0237680E-01;4818.5205;3;-28.897024;0.0;5.0963783;0;0.13013244;  9.9991807E+03;  0.0000000E+00; -8.9625878E-08;  1.0000000E+04;  0.0000000E+00;  9.9983320E+03;0.028841943;0.0;0.10129049;674.10571
  6.5994453E-01;  9.9999998E-03;  8.0004722E-02;2071;-0.050797008;0.0;0.0069982065;1005.7979;  4.0237686E-01;4803.2134;3;-29.580423;0.0;7.0738463;0;0.14728408;  9.9991943E+03;  0.0000000E+00;  1.1271742E-07;  1.0000000E+04;  0.0000000E+00;  9.9979541E+03;0.0282737;0.0;0.11901037;837.10291
  6.5994382E-01;  9.9999998E-03;  1.0000686E-01;2072;-0.051792748;0.0;0.0097558638;1005.7746;  4.0237686E-01;4783.9551;3;-30.477051;0.0;9.284112;0;0.16674441;  9.9992070E+03;  0.0000000E+00;  4.2758379E-07;  1.0000000E+04;  0.0000000E+00;  9.9974795E+03;0.027642984;0.0;0.13910143;1044.906
  6.5994281E-01;  9.9999998E-03;  1.2000956E-01;2073;-0.053086679;0.0;0.013073493;1005.7441;  4.0237689E-01;4758.6733;3;-31.543503;0.0;11.701539;0;0.18832609;  9.9992227E+03;  0.0000000E+00; -4.7586215E-07;  1.0000000E+04;  0.0000000E+00;  9.9968564E+03;0.027074212;0.0;0.16125187;1325.3818
  6.5994155E-01;  9.9999998E-03;  1.4001273E-01;2074;-0.054700859;0.0;0.0167762;1005.7002;  4.0237692E-01;4722.3301;3;-32.788006;0.0;14.112811;0;0.21254696;  9.9992344E+03;  0.0000000E+00; -6.2420681E-06;  1.0000000E+04;  0.0000000E+00;  9.9959688E+03;0.02681336;0.0;0.1857336;1732.9871
  6.7994475E-01;  9.9999998E-03;  3.8666063E-12;2098;-0.050368223;0.0;4.8106403e-09;1007.562;  4.0312278E-01;6264.5459;3;-28.832197;0.0;2.107484e-05;0;0.22664964;  9.9964316E+03;  0.0000000E+00;  1.2787994E-15;  1.0000000E+04;  0.0000000E+00;  9.9987207E+03;0.1413326;0.0;0.085317045;492.35623
  6.7994469E-01;  9.9999998E-03;  2.0000976E-02;2099;-0.050457198;0.0;0.0016507187;1007.5579;  4.0312272E-01;6261.188;3;-28.927069;0.0;1.950425;0;0.23069376;  9.9964307E+03;  0.0000000E+00; -2.5437556E-08;  1.0000000E+04;  0.0000000E+00;  9.9986426E+03;0.14146259;0.0;0.089231156;524.73969
  6.7994452E-01;  9.9999998E-03;  4.0002089E-02;2100;-0.050737895;0.0;0.0034511078;1007.5464;  4.0312266E-01;6251.7075;3;-29.230961;0.0;3.9702358;0;0.24242699;  9.9964248E+03;  0.0000000E+00; -8.6722821E-08;  1.0000000E+04;  0.0000000E+00;  9.9984219E+03;0.14186853;0.0;0.10055845;619.21411
  6.7994422E-01;  9.9999998E-03;  6.0003523E-02;2101;-0.051237542;0.0;0.0055953115;1007.5281;  4.0312272E-01;6236.5977;3;-29.751434;0.0;6.1528778;0;0.2606951;  9.9964111E+03;  0.0000000E+00; -1.2586230E-07;  1.0000000E+04;  0.0000000E+00;  9.9980693E+03;0.14259653;0.0;0.11809859;768.85895
  6.7994368E-01;  9.9999998E-03;  8.0005474E-02;2102;-0.051976446;0.0;0.008293258;1007.504;  4.0312269E-01;6216.5498;3;-30.440159;0.0;8.6094122;0;0.28388762;  9.9963906E+03;  0.0000000E+00;  5.1749929E-09;  1.0000000E+04;  0.0000000E+00;  9.9976064E+03;0.14371935;0.0;0.14016828;967.68518
  6.7994297E-01;  9.9999998E-03;  1.0000811E-01;2103;-0.052997537;0.0;0.011737433;1007.4731;  4.0312275E-01;6190.9717;3;-31.37327;0.0;11.439292;0;0.31072164;  9.9963652E+03;  0.0000000E+00;  2.3046110E-07;  1.0000000E+04;  0.0000000E+00;  9.9970215E+03;0.14533916;0.0;0.16538249;1222.7007
  6.7994195E-01;  9.9999998E-03;  1.2001149E-01;2104;-0.054333109;0.0;0.015953878;1007.432;  4.0312281E-01;6156.9009;3;-32.495022;0.0;14.598614;0;0.34108806;  9.9963262E+03;  0.0000000E+00; -5.9273827E-07;  1.0000000E+04;  0.0000000E+00;  9.9962451E+03;0.14761128;0.0;0.19347678;1569.875
  6.7994064E-01;  9.9999998E-03;  1.4001545E-01;2105;-0.05599561;0.0;0.020703573;1007.374;  4.0312287E-01;6108.8062;3;-33.779778;0.0;17.803473;0;0.37550473;  9.9962695E+03;  0.0000000E+00; -5.5980036E-06;  1.0000000E+04;  0.0000000E+00;  9.9951426E+03;0.15080595;0.0;0.22469877;2076.4407
  6.9994897E-01;  9.9999998E-03;  8.2222605E-12;2129;-0.048181515;0.0;9.3868113e-09;1008.4434;  4.0353033E-01;6994.6123;3;-28.735798;0.0;1.6735867e-05;0;0.34722579;  9.9938389E+03;  0.0000000E+00; -1.1616134E-16;  1.0000000E+04;  0.0000000E+00;  9.9985850E+03;0.25200012;0.0;0.095225655;534.76563
  6.9994891E-01;  9.9999998E-03;  2.0001005E-02;2130;-0.048257891;0.0;0.00178922;1008.4387;  4.0353036E-01;6990.7607;3;-28.831928;0.0;2.2286222;0;0.35222745;  9.9938330E+03;  0.0000000E+00; -1.9575706E-08;  1.0000000E+04;  0.0000000E+00;  9.9984941E+03;0.2523632;0.0;0.099864244;572.69855
  6.9994879E-01;  9.9999998E-03;  4.0002197E-02;2131;-0.048498612;0.0;0.0037823597;1008.4246;  4.0353042E-01;6979.0093;3;-29.12159;0.0;4.5553207;0;0.36676431;  9.9938135E+03;  0.0000000E+00; -6.6188399E-08;  1.0000000E+04;  0.0000000E+00;  9.9982344E+03;0.25347933;0.0;0.11328499;683.25574
  6.9994855E-01;  9.9999998E-03;  6.0003806E-02;2132;-0.04893082;0.0;0.0062342477;1008.4023;  4.0353045E-01;6960.542;3;-29.616867;0.0;7.1158834;0;0.38948798;  9.9937822E+03;  0.0000000E+00; -8.8892072E-08;  1.0000000E+04;  0.0000000E+00;  9.9978213E+03;0.25542524;0.0;0.13406272;858.13232
  6.9994813E-01;  9.9999998E-03;  8.0006085E-02;2133;-0.049595982;0.0;0.0094308835;1008.3725;  4.0353045E-01;6935.9521;3;-30.33642;0.0;10.069875;0;0.41853634;  9.9937334E+03;  0.0000000E+00;  3.7433693E-08;  1.0000000E+04;  0.0000000E+00;  9.9972783E+03;0.25831822;0.0;0.16021812;1090.2753
  6.9994748E-01;  9.9999998E-03;  1.0000924E-01;2134;-0.050527126;0.0;0.013597935;1008.3347;  4.0353039E-01;6904.5479;3;-31.258963;0.0;13.549297;0;0.45245779;  9.9936631E+03;  0.0000000E+00;  3.2242639E-07;  1.0000000E+04;  0.0000000E+00;  9.9965918E+03;0.26230478;0.0;0.19015302;1388.203
  6.9994658E-01;  9.9999998E-03;  1.2001330E-01;2135;-0.05177477;0.0;0.018749859;1008.2841;  4.0353054E-01;6862.6763;3;-32.387524;0.0;17.51643;0;0.49112546;  9.9935713E+03;  0.0000000E+00;  3.7375340E-08;  1.0000000E+04;  0.0000000E+00;  9.9956826E+03;0.26755989;0.0;0.22356558;1794.3931
  6.9994539E-01;  9.9999998E-03;  1.4001808E-01;2136;-0.053375747;0.0;0.024606271;1008.2131;  4.0353060E-01;6803.8184;3;-33.678291;0.0;21.699596;0;0.5349313;  9.9934492E+03;  0.0000000E+00; -2.9049143E-06;  1.0000000E+04;  0.0000000E+00;  9.9943896E+03;0.27432436;0.0;0.26060694;2386.7463
  7.1996289E-01;  9.9999998E-03;  3.3637561E-12;2160;-0.036016803;0.0;2.2614642e-10;1008.7867;  4.0370849E-01;7278.8276;3;-22.692602;0.0;5.5847922e-06;0;0.44208726;  9.9919307E+03;  0.0000000E+00; -2.6495843E-15;  1.0000000E+04;  0.0000000E+00;  9.9984629E+03;0.33802226;0.0;0.10406499;574.04315
  7.1996284E-01;  9.9999998E-03;  2.0001093E-02;2161;-0.036076814;0.0;0.0019666278;1008.7812;  4.0370852E-01;7274.2852;3;-22.770462;0.0;2.482281;0;0.44791013;  9.9919229E+03;  0.0000000E+00; -1.0591846E-08;  1.0000000E+04;  0.0000000E+00;  9.9983604E+03;0.33857873;0.0;0.10933141;616.79022
  7.1996278E-01;  9.9999998E-03;  4.0002402E-02;2162;-0.036263313;0.0;0.0041682059;1008.765;  4.0370849E-01;7260.855;3;-23.006256;0.0;5.0797153;0;0.46484855;  9.9918945E+03;  0.0000000E+00; -3.4012810E-08;  1.0000000E+04;  0.0000000E+00;  9.9980664E+03;0.34028816;0.0;0.12456039;741.25275
  7.1996254E-01;  9.9999998E-03;  6.0004182E-02;2163;-0.036597785;0.0;0.0068978192;1008.7391;  4.0370849E-01;7239.4258;3;-23.408411;0.0;7.95679;0;0.49137712;  9.9918457E+03;  0.0000000E+00; -2.8682505E-08;  1.0000000E+04;  0.0000000E+00;  9.9976035E+03;0.34326455;0.0;0.14811257;937.74609
  7.1996224E-01;  9.9999998E-03;  8.0006726E-02;2164;-0.037120454;0.0;0.010486334;1008.7048;  4.0370861E-01;7210.9849;3;-23.995123;0.0;11.311566;0;0.52539045;  9.9917744E+03;  0.0000000E+00;  1.1599574E-07;  1.0000000E+04;  0.0000000E+00;  9.9969951E+03;0.34767938;0.0;0.17771105;1197.8804
  7.1996176E-01;  9.9999998E-03;  1.0001025E-01;2165;-0.037888523;0.0;0.015180133;1008.6611;  4.0370858E-01;7174.7432;3;-24.793291;0.0;15.279582;0;0.56523561;  9.9916699E+03;  0.0000000E+00;  4.5298319E-07;  1.0000000E+04;  0.0000000E+00;  9.9962256E+03;0.35373345;0.0;0.21150216;1530.6757
  7.1996099E-01;  9.9999998E-03;  1.2001479E-01;2166;-0.038965501;0.0;0.020988557;1008.6031;  4.0370867E-01;7126.7495;3;-25.831131;0.0;19.824284;0;0.61068416;  9.9915332E+03;  0.0000000E+00;  6.9505711E-07;  1.0000000E+04;  0.0000000E+00;  9.9952100E+03;0.36161777;0.0;0.2490664;1982.9976
  7.1995997E-01;  9.9999998E-03;  1.4002013E-01;2167;-0.040402312;0.0;0.027610993;1008.522;  4.0370882E-01;7059.5977;3;-27.125166;0.0;24.676867;0;0.66192091;  9.9913574E+03;  0.0000000E+00; -2.7122988E-07;  1.0000000E+04;  0.0000000E+00;  9.9937744E+03;0.37150326;0.0;0.29041764;2640.6619
  7.3997742E-01;  9.9999998E-03;  3.2138639E-13;2191;-0.022024592;0.0;-4.7134225e-09;1008.9119;  4.0377855E-01;7382.2446;3;-14.063724;0.0;-1.7508457e-05;0;0.49412501;  9.9910381E+03;  0.0000000E+00;  9.9186817E-16;  1.0000000E+04;  0.0000000E+00;  9.9983623E+03;0.3827633;0.0;0.1113617;609.07715
  7.3997742E-01;  9.9999998E-03;  2.0001177E-02;2192;-0.022070343;0.0;0.0021209077;1008.9057;  4.0377864E-01;7377.1099;3;-14.123362;0.0;2.6842635;0;0.50056463;  9.9910273E+03;  0.0000000E+00; -3.9280796E-09;  1.0000000E+04;  0.0000000E+00;  9.9982510E+03;0.38344777;0.0;0.11711687;655.60022
  7.3997736E-01;  9.9999998E-03;  4.0002581E-02;2193;-0.022211714;0.0;0.004491827;1008.8878;  4.0377861E-01;7362.2974;3;-14.302948;0.0;5.488472;0;0.5193007;  9.9909941E+03;  0.0000000E+00; -7.5249327E-09;  1.0000000E+04;  0.0000000E+00;  9.9979307E+03;0.38555297;0.0;0.13374776;790.92926
  7.3997718E-01;  9.9999998E-03;  6.0004495E-02;2194;-0.022462728;0.0;0.0074253385;1008.8596;  4.0377861E-01;7338.9927;3;-14.606175;0.0;8.585927;0;0.5486564;  9.9909375E+03;  0.0000000E+00;  1.5480941E-08;  1.0000000E+04;  0.0000000E+00;  9.9974268E+03;0.38922846;0.0;0.15942794;1004.1293
  7.3997694E-01;  9.9999998E-03;  8.0007225E-02;2195;-0.02285067;0.0;0.011274594;1008.8219;  4.0377861E-01;7307.6895;3;-15.043039;0.0;12.186209;0;0.58630264;  9.9908467E+03;  0.0000000E+00;  1.4311429E-07;  1.0000000E+04;  0.0000000E+00;  9.9967656E+03;0.39469692;0.0;0.19160572;1285.3625
  7.3997658E-01;  9.9999998E-03;  1.0001100E-01;2196;-0.023415249;0.0;0.016300764;1008.7742;  4.0377876E-01;7268.1899;3;-15.629885;0.0;16.430901;0;0.6303643;  9.9907236E+03;  0.0000000E+00;  4.4817415E-07;  1.0000000E+04;  0.0000000E+00;  9.9959404E+03;0.4022074;0.0;0.22815686;1643.2783
  7.3997605E-01;  9.9999998E-03;  1.2001586E-01;2197;-0.024199843;0.0;0.022507371;1008.7111;  4.0377885E-01;7215.9521;3;-16.382832;0.0;21.274248;0;0.68045223;  9.9905586E+03;  0.0000000E+00;  8.6583088E-07;  1.0000000E+04;  0.0000000E+00;  9.9948545E+03;0.41196215;0.0;0.26849011;2127.0464
  7.3997527E-01;  9.9999998E-03;  1.4002156E-01;2198;-0.025234235;0.0;0.029559966;1008.6235;  4.0377885E-01;7143.3721;3;-17.305464;0.0;26.417242;0;0.73652494;  9.9903477E+03;  0.0000000E+00;  9.4669554E-07;  1.0000000E+04;  0.0000000E+00;  9.9933223E+03;0.4240416;0.0;0.31248334;2827.6357
  7.5998855E-01;  9.9999998E-03;  1.3804983E-11;2222;-0.011381218;0.0;1.8053818e-08;1008.9769;  4.0380502E-01;7435.6919;3;-7.5276594;0.0;7.4804411e-06;0;0.50331765;  9.9910928E+03;  0.0000000E+00;  3.6009802E-15;  1.0000000E+04;  0.0000000E+00;  9.9982871E+03;0.38652882;0.0;0.11678882;637.75647
  7.5998855E-01;  9.9999998E-03;  2.0001234E-02;2223;-0.011411813;0.0;0.0022309178;1008.9705;  4.0380514E-01;7430.4585;3;-7.5677304;0.0;2.8287427;0;0.51015109;  9.9910830E+03;  0.0000000E+00; -1.8435382E-10;  1.0000000E+04;  0.0000000E+00;  9.9981709E+03;0.3872714;0.0;0.12287966;686.9093
  7.5998849E-01;  9.9999998E-03;  4.0002711E-02;2224;-0.011505583;0.0;0.004720455;1008.9516;  4.0380511E-01;7414.7583;3;-7.6876264;0.0;5.7782993;0;0.53002906;  9.9910459E+03;  0.0000000E+00;  3.0147207E-09;  1.0000000E+04;  0.0000000E+00;  9.9978320E+03;0.38955984;0.0;0.14046919;829.77362
  7.5998837E-01;  9.9999998E-03;  6.0004711E-02;2225;-0.011669675;0.0;0.0077933874;1008.9216;  4.0380514E-01;7389.9736;3;-7.8871274;0.0;9.0261288;0;0.56115174;  9.9909854E+03;  0.0000000E+00;  2.5746948E-08;  1.0000000E+04;  0.0000000E+00;  9.9972998E+03;0.39356753;0.0;0.16758424;1054.407
  7.5998825E-01;  9.9999998E-03;  8.0007561E-02;2226;-0.01191912;0.0;0.011817709;1008.882;  4.0380517E-01;7357.1904;3;-8.1692295;0.0;12.788731;0;0.60099763;  9.9908887E+03;  0.0000000E+00;  1.0533666E-07;  1.0000000E+04;  0.0000000E+00;  9.9966064E+03;0.39955112;0.0;0.20144652;1349.6284
  7.5998801E-01;  9.9999998E-03;  1.0001151E-01;2227;-0.012276939;0.0;0.01706464;1008.8319;  4.0380523E-01;7315.6196;3;-8.5409698;0.0;17.21163;0;0.64747053;  9.9907539E+03;  0.0000000E+00;  2.9444186E-07;  1.0000000E+04;  0.0000000E+00;  9.9957422E+03;0.40778869;0.0;0.23968183;1723.1969
  7.5998765E-01;  9.9999998E-03;  1.2001658E-01;2228;-0.012768278;0.0;0.023531072;1008.7661;  4.0380529E-01;7261.1128;3;-9.0091524;0.0;22.239939;0;0.69999397;  9.9905762E+03;  0.0000000E+00;  6.0922702E-07;  1.0000000E+04;  0.0000000E+00;  9.9946143E+03;0.41848078;0.0;0.28151315;2224.9731
  7.5998718E-01;  9.9999998E-03;  1.4002250E-01;2229;-0.013407249;0.0;0.030852253;1008.6752;  4.0380540E-01;7185.8706;3;-9.5705214;0.0;27.548077;0;0.75833881;  9.9903525E+03;  0.0000000E+00;  9.1214253E-07;  1.0000000E+04;  0.0000000E+00;  9.9930342E+03;0.43162757;0.0;0.32671124;2948.7258
  7.7999651E-01;  9.9999998E-03; -7.5392019E-12;2253;-0.0037210023;0.0;-2.5694278e-09;1009.0317;  4.0381476E-01;7480.6104;3;-2.8049369;0.0;-1.9011379e-05;0;0.48303366;  9.9917490E+03;  0.0000000E+00; -1.3015600E-15;  1.0000000E+04;  0.0000000E+00;  9.9982383E+03;0.36283186;0.0;0.12020178;657.74634
  7.7999651E-01;  9.9999998E-03;  2.0001270E-02;2254;-0.0037367174;0.0;0.0022964536;1009.0251;  4.0381479E-01;7475.1797;3;-2.8257973;0.0;2.9153285;0;0.49005884;  9.9917393E+03;  0.0000000E+00;  7.2204470E-10;  1.0000000E+04;  0.0000000E+00;  9.9981191E+03;0.36357525;0.0;0.12648357;708.42035
  7.7999651E-01;  9.9999998E-03;  4.0002782E-02;2255;-0.0037840211;0.0;0.0048546488;1009.0057;  4.0381485E-01;7459.1846;3;-2.8872197;0.0;5.9494576;0;0.51048422;  9.9917031E+03;  0.0000000E+00;  3.6592998E-09;  1.0000000E+04;  0.0000000E+00;  9.9977705E+03;0.36586973;0.0;0.14461449;855.61499
  7.7999645E-01;  9.9999998E-03;  6.0004834E-02;2256;-0.0038643493;0.0;0.0080050426;1008.9751;  4.0381479E-01;7433.8091;3;-2.9864523;0.0;9.2803965;0;0.54242307;  9.9916426E+03;  0.0000000E+00;  1.4927044E-08;  1.0000000E+04;  0.0000000E+00;  9.9972217E+03;0.36989903;0.0;0.17252405;1086.696
  7.7999640E-01;  9.9999998E-03;  8.0007754E-02;2257;-0.0039821719;0.0;0.012123819;1008.9346;  4.0381485E-01;7400.2383;3;-3.1212921;0.0;13.128103;0;0.58320302;  9.9915479E+03;  0.0000000E+00;  4.6854566E-08;  1.0000000E+04;  0.0000000E+00;  9.9965098E+03;0.37593001;0.0;0.20727302;1389.4417
  7.7999628E-01;  9.9999998E-03;  1.0001180E-01;2258;-0.0041460372;0.0;0.017488077;1008.8835;  4.0381494E-01;7357.979;3;-3.2917783;0.0;17.640289;0;0.63054067;  9.9914150E+03;  0.0000000E+00;  1.2111981E-07;  1.0000000E+04;  0.0000000E+00;  9.9956279E+03;0.38424754;0.0;0.24629313;1770.5947
  7.7999610E-01;  9.9999998E-03;  1.2001698E-01;2259;-0.0043656961;0.0;0.024090325;1008.817;  4.0381503E-01;7302.7852;3;-3.4981697;0.0;22.756626;0;0.68368751;  9.9912344E+03;  0.0000000E+00;  2.5359881E-07;  1.0000000E+04;  0.0000000E+00;  9.9944834E+03;0.39504164;0.0;0.28864586;2279.7029
  7.7999592E-01;  9.9999998E-03;  1.4002302E-01;2260;-0.0046447767;0.0;0.031544175;1008.7252;  4.0381515E-01;7226.7573;3;-3.7356474;0.0;28.132717;0;0.74229729;  9.9910117E+03;  0.0000000E+00;  4.1422058E-07;  1.0000000E+04;  0.0000000E+00;  9.9928828E+03;0.40826291;0.0;0.33403441;3011.5591
  8.0000269E-01;  9.9999998E-03; -1.4841120E-11;2284;0.0022607229;0.0;-1.4155956e-08;1009.0807;  4.0381727E-01;7520.6074;3;0.95030427;0.0;-1.2239849e-05;0;0.44970661;  9.9926152E+03;  0.0000000E+00;  2.0733240E-15;  1.0000000E+04;  0.0000000E+00;  9.9982188E+03;0.32808962;0.0;0.121617;667.39618
  8.0000269E-01;  9.9999998E-03;  2.0001283E-02;2285;0.0022590477;0.0;0.002320186;1009.074;  4.0381724E-01;7514.9795;3;0.94750237;0.0;2.9474094;0;0.45676389;  9.9926064E+03;  0.0000000E+00;  1.9511658E-10;  1.0000000E+04;  0.0000000E+00;  9.9980977E+03;0.32879966;0.0;0.12796423;718.59363
  8.0000269E-01;  9.9999998E-03;  4.0002808E-02;2286;0.0022551485;0.0;0.0049008327;1009.0545;  4.0381736E-01;7498.8872;3;0.94069725;0.0;6.0099001;0;0.47726959;  9.9925723E+03;  0.0000000E+00;  9.2890989E-10;  1.0000000E+04;  0.0000000E+00;  9.9977441E+03;0.33099279;0.0;0.1462768;867.24915
  8.0000269E-01;  9.9999998E-03;  6.0004875E-02;2287;0.0022521988;0.0;0.008072746;1009.0237;  4.0381742E-01;7473.415;3;0.9341324;0.0;9.3635464;0;0.50928396;  9.9925137E+03;  0.0000000E+00;  2.6256173E-09;  1.0000000E+04;  0.0000000E+00;  9.9971934E+03;0.33484703;0.0;0.17443691;1100.3728
  8.0000269E-01;  9.9999998E-03;  8.0007814E-02;2288;0.0022543629;0.0;0.012214282;1008.9832;  4.0381739E-01;7439.8477;3;0.93345666;0.0;13.228624;0;0.55003983;  9.9924248E+03;  0.0000000E+00;  6.2710992E-09;  1.0000000E+04;  0.0000000E+00;  9.9964756E+03;0.34062114;0.0;0.2094187;1405.1074
  8.0000269E-01;  9.9999998E-03;  1.0001188E-01;2289;0.0022655576;0.0;0.017604999;1008.9323;  4.0381739E-01;7397.6909;3;0.94405109;0.0;17.75423;0;0.59712386;  9.9922969E+03;  0.0000000E+00;  1.4670631E-08;  1.0000000E+04;  0.0000000E+00;  9.9955889E+03;0.34858775;0.0;0.24853611;1787.3409
  8.0000269E-01;  9.9999998E-03;  1.2001709E-01;2290;0.0022889457;0.0;0.024236046;1008.8662;  4.0381747E-01;7342.897;3;0.97010881;0.0;22.878887;0;0.64966351;  9.9921279E+03;  0.0000000E+00;  2.7389003E-08;  1.0000000E+04;  0.0000000E+00;  9.9944443E+03;0.35892412;0.0;0.29073939;2295.7983
  8.0000275E-01;  9.9999998E-03;  1.4002316E-01;2291;0.0023288277;0.0;0.031711005;1008.7753;  4.0381762E-01;7267.5674;3;1.0161675;0.0;28.250072;0;0.70726454;  9.9919170E+03;  0.0000000E+00;  3.3737592E-08;  1.0000000E+04;  0.0000000E+00;  9.9928496E+03;0.37156239;0.0;0.33570212;3025.0132
  8.2000840E-01;  9.9999998E-03;  1.0254729E-12;2315;0.0078495322;0.0;-4.6117621e-09;1009.1126;  4.0381312E-01;7546.042;3;4.534277;0.0;-1.8014689e-06;0;0.41441956;  9.9934434E+03;  0.0000000E+00;  3.3053095E-15;  1.0000000E+04;  0.0000000E+00;  9.9982266E+03;0.2932564;0.0;0.12116317;666.27136
  8.2000840E-01;  9.9999998E-03;  2.0001274E-02;2316;0.0078606922;0.0;0.0023059982;1009.106;  4.0381315E-01;7540.5142;3;4.5479937;0.0;2.9302402;0;0.42139274;  9.9934336E+03;  0.0000000E+00; -2.6653554E-10;  1.0000000E+04;  0.0000000E+00;  9.9981055E+03;0.29392174;0.0;0.12747101;717.12128
  8.2000846E-01;  9.9999998E-03;  4.0002789E-02;2317;0.0078963796;0.0;0.0048679081;1009.0867;  4.0381321E-01;7524.6206;3;4.5908804;0.0;5.9711318;0;0.44164109;  9.9934033E+03;  0.0000000E+00; -5.0863874E-10;  1.0000000E+04;  0.0000000E+00;  9.9977549E+03;0.29597479;0.0;0.1456663;864.737
  8.2000846E-01;  9.9999998E-03;  6.0004838E-02;2318;0.0079634683;0.0;0.0080123628;1009.0564;  4.0381324E-01;7499.5469;3;4.6680398;0.0;9.2949429;0;0.47320828;  9.9933467E+03;  0.0000000E+00; -6.0808741E-10;  1.0000000E+04;  0.0000000E+00;  9.9972051E+03;0.29957861;0.0;0.17362967;1096.0891
  8.2000858E-01;  9.9999998E-03;  8.0007747E-02;2319;0.0080733076;0.0;0.012114702;1009.0163;  4.0381324E-01;7466.2798;3;4.7875595;0.0;13.119861;0;0.51328921;  9.9932646E+03;  0.0000000E+00; -5.2391208E-10;  1.0000000E+04;  0.0000000E+00;  9.9964932E+03;0.3049691;0.0;0.20832014;1398.103
  8.2000864E-01;  9.9999998E-03;  1.0001177E-01;2320;0.0082403822;0.0;0.017453736;1008.9662;  4.0381324E-01;7424.8188;3;4.9588819;0.0;17.59549;0;0.55940896;  9.9931455E+03;  0.0000000E+00; -1.8000422E-09;  1.0000000E+04;  0.0000000E+00;  9.9956182E+03;0.31239742;0.0;0.24701154;1776.0665
  8.2000881E-01;  9.9999998E-03;  1.2001694E-01;2321;0.0084793903;0.0;0.024021847;1008.9014;  4.0381336E-01;7371.1177;3;5.1902828;0.0;22.662714;0;0.61062974;  9.9929883E+03;  0.0000000E+00; -1.8359414E-08;  1.0000000E+04;  0.0000000E+00;  9.9944844E+03;0.32202742;0.0;0.28860232;2277.605
  8.2000905E-01;  9.9999998E-03;  1.4002296E-01;2322;0.008802209;0.0;0.031423166;1008.8123;  4.0381348E-01;7297.3765;3;5.4864187;0.0;27.97068;0;0.66656125;  9.9927920E+03;  0.0000000E+00; -9.1437812E-08;  1.0000000E+04;  0.0000000E+00;  9.9929141E+03;0.33379662;0.0;0.33276463;2996.0066
  8.4001434E-01;  9.9999998E-03; -1.8086173E-13;2346;0.013682555;0.0;5.4661431e-09;1008.9975;  4.0375146E-01;7449.4502;3;8.3146029;0.0;9.1717229e-06;0;0.37988058;  9.9941836E+03;  0.0000000E+00;  3.8012605E-16;  1.0000000E+04;  0.0000000E+00;  9.9982568E+03;0.26084301;0.0;0.11903756;655.21069
  8.4001434E-01;  9.9999998E-03;  2.0001248E-02;2347;0.013705325;0.0;0.0022582349;1008.991;  4.0375152E-01;7444.1206;3;8.343195;0.0;2.8698061;0;0.38668388;  9.9941738E+03;  0.0000000E+00; -3.4938780E-10;  1.0000000E+04;  0.0000000E+00;  9.9981396E+03;0.26146603;0.0;0.12521785;704.94714
  8.4001440E-01;  9.9999998E-03;  4.0002730E-02;2348;0.013776766;0.0;0.0047652577;1008.9722;  4.0375149E-01;7428.625;3;8.4307394;0.0;5.8454814;0;0.40642887;  9.9941465E+03;  0.0000000E+00;  4.4630848E-11;  1.0000000E+04;  0.0000000E+00;  9.9977939E+03;0.26338395;0.0;0.1430449;849.32532
  8.4001446E-01;  9.9999998E-03;  6.0004734E-02;2349;0.013906801;0.0;0.0078398362;1008.9425;  4.0375155E-01;7403.9497;3;8.582859;0.0;9.0943861;0;0.43717569;  9.9940938E+03;  0.0000000E+00;  3.4257903E-09;  1.0000000E+04;  0.0000000E+00;  9.9972549E+03;0.26673815;0.0;0.17043754;1075.5562
  8.4001458E-01;  9.9999998E-03;  8.0007575E-02;2350;0.014112845;0.0;0.011849837;1008.9035;  4.0375164E-01;7371.6753;3;8.8095303;0.0;12.830503;0;0.47613841;  9.9940166E+03;  0.0000000E+00;  1.6695870E-08;  1.0000000E+04;  0.0000000E+00;  9.9965586E+03;0.2717379;0.0;0.20440049;1370.7069
  8.4001482E-01;  9.9999998E-03;  1.0001152E-01;2351;0.014418876;0.0;0.017070102;1008.8549;  4.0375164E-01;7331.4058;3;9.1239586;0.0;17.202703;0;0.52084351;  9.9939063E+03;  0.0000000E+00;  3.9953104E-08;  1.0000000E+04;  0.0000000E+00;  9.9957031E+03;0.2786091;0.0;0.24223441;1739.6688
  8.4001511E-01;  9.9999998E-03;  1.2001657E-01;2352;0.014850284;0.0;0.023495542;1008.7919;  4.0375173E-01;7279.2925;3;9.5385027;0.0;22.156391;0;0.57034296;  9.9937598E+03;  0.0000000E+00;  4.8134584E-08;  1.0000000E+04;  0.0000000E+00;  9.9945957E+03;0.28751054;0.0;0.28283241;2228.6877
  8.4001553E-01;  9.9999998E-03;  1.4002247E-01;2353;0.015427223;0.0;0.030739011;1008.7054;  4.0375179E-01;7207.6362;3;10.059611;0.0;27.34964;0;0.62429011;  9.9935771E+03;  0.0000000E+00; -4.6183573E-08;  1.0000000E+04;  0.0000000E+00;  9.9930576E+03;0.29840451;0.0;0.32588556;2928.8965
  8.6002046E-01;  9.9999998E-03;  1.0259105E-11;2377;0.019689132;0.0;3.3102334e-09;1008.7344;  4.0363029E-01;7230.1055;3;12.215718;0.0;6.4241467e-06;0;0.34263399;  9.9949316E+03;  0.0000000E+00; -2.3709760E-16;  1.0000000E+04;  0.0000000E+00;  9.9983076E+03;0.22715212;0.0;0.11548186;635.9975
  8.6002046E-01;  9.9999998E-03;  2.0001205E-02;2378;0.019722294;0.0;0.0021806059;1008.7282;  4.0363020E-01;7224.9741;3;12.257565;0.0;2.7709558;0;0.34919301;  9.9949219E+03;  0.0000000E+00; -1.5691069E-10;  1.0000000E+04;  0.0000000E+00;  9.9981934E+03;0.22773586;0.0;0.12145715;683.92908
  8.6002052E-01;  9.9999998E-03;  4.0002637E-02;2379;0.019825589;0.0;0.0046007899;1008.7101;  4.0363026E-01;7209.8765;3;12.384805;0.0;5.6431513;0;0.36822367;  9.9948945E+03;  0.0000000E+00; -1.7881319E-10;  1.0000000E+04;  0.0000000E+00;  9.9978604E+03;0.22952799;0.0;0.13869567;823.08429
  8.6002064E-01;  9.9999998E-03;  6.0004570E-02;2380;0.020011608;0.0;0.0075682341;1008.6814;  4.0363029E-01;7186.1938;3;12.603472;0.0;8.7777605;0;0.39783758;  9.9948467E+03;  0.0000000E+00;  7.6394340E-09;  1.0000000E+04;  0.0000000E+00;  9.9973379E+03;0.23264855;0.0;0.16518901;1041.1608
  8.6002082E-01;  9.9999998E-03;  8.0007315E-02;2381;0.020303322;0.0;0.011439394;1008.6439;  4.0363038E-01;7155.1104;3;12.925447;0.0;12.382794;0;0.43531573;  9.9947734E+03;  0.0000000E+00;  3.5215958E-08;  1.0000000E+04;  0.0000000E+00;  9.9966650E+03;0.23727834;0.0;0.19803737;1325.6511
  8.6002111E-01;  9.9999998E-03;  1.0001113E-01;2382;0.020733064;0.0;0.01648199;1008.597;  4.0363035E-01;7116.3301;3;13.367317;0.0;16.604837;0;0.47824043;  9.9946680E+03;  0.0000000E+00;  9.2612375E-08;  1.0000000E+04;  0.0000000E+00;  9.9958359E+03;0.24362437;0.0;0.23461607;1681.1436
  8.6002153E-01;  9.9999998E-03;  1.2001601E-01;2383;0.02133638;0.0;0.0226935;1008.5364;  4.0363047E-01;7066.2021;3;13.945889;0.0;21.394337;0;0.52569389;  9.9945322E+03;  0.0000000E+00;  1.4000778E-07;  1.0000000E+04;  0.0000000E+00;  9.9947686E+03;0.25185278;0.0;0.27384111;2152.1079
  8.6002207E-01;  9.9999998E-03;  1.4002171E-01;2384;0.022142496;0.0;0.029700587;1008.4529;  4.0363047E-01;6997.0288;3;14.671368;0.0;26.422947;0;0.57740599;  9.9943604E+03;  0.0000000E+00;  2.8422342E-08;  1.0000000E+04;  0.0000000E+00;  9.9932832E+03;0.26197299;0.0;0.315433;2826.5728
  8.8002622E-01;  9.9999998E-03; -5.3433013E-12;2408;0.02542004;0.0;-1.6327579e-08;1008.3468;  4.0345621E-01;6907.127;3;15.939834;0.0;-1.7620972e-05;0;0.29812333;  9.9958037E+03;  0.0000000E+00; -5.6965962E-16;  1.0000000E+04;  0.0000000E+00;  9.9983750E+03;0.18735555;0.0;0.11076778;610.8053
  8.8002628E-01;  9.9999998E-03;  2.0001147E-02;2409;0.025462188;0.0;0.0020766256;1008.3407;  4.0345624E-01;6902.0962;3;15.993134;0.0;2.6383383;0;0.30436167;  9.9957920E+03;  0.0000000E+00; -5.9727306E-10;  1.0000000E+04;  0.0000000E+00;  9.9982637E+03;0.18789402;0.0;0.11646765;656.29492
  8.8002634E-01;  9.9999998E-03;  4.0002510E-02;2410;0.025593121;0.0;0.0043817121;1008.3235;  4.0345627E-01;6887.792;3;16.154861;0.0;5.3731532;0;0.32246023;  9.9957676E+03;  0.0000000E+00; -8.1195423E-10;  1.0000000E+04;  0.0000000E+00;  9.9979473E+03;0.18954313;0.0;0.13291709;788.40179
  8.8002646E-01;  9.9999998E-03;  6.0004354E-02;2411;0.025827849;0.0;0.0072092866;1008.2963;  4.0345633E-01;6865.3003;3;16.43152;0.0;8.3588552;0;0.35061353;  9.9957197E+03;  0.0000000E+00;  4.5847957E-09;  1.0000000E+04;  0.0000000E+00;  9.9974512E+03;0.19240336;0.0;0.15821019;995.52612
  8.8002670E-01;  9.9999998E-03;  8.0006972E-02;2412;0.026194157;0.0;0.010900721;1008.2604;  4.0345633E-01;6835.7061;3;16.836578;0.0;11.79554;0;0.38621601;  9.9956514E+03;  0.0000000E+00;  3.6557378E-08;  1.0000000E+04;  0.0000000E+00;  9.9968066E+03;0.19663231;0.0;0.1895837;1265.8148
  8.8002706E-01;  9.9999998E-03;  1.0001061E-01;2413;0.026731953;0.0;0.015713591;1008.2159;  4.0345627E-01;6798.8115;3;17.390072;0.0;15.825756;0;0.42694801;  9.9955566E+03;  0.0000000E+00;  1.1150855E-07;  1.0000000E+04;  0.0000000E+00;  9.9960156E+03;0.20242651;0.0;0.2245215;1603.5527
  8.8002759E-01;  9.9999998E-03;  1.2001527E-01;2414;0.027486175;0.0;0.021647248;1008.1581;  4.0345642E-01;6750.9673;3;18.113365;0.0;20.404766;0;0.47194627;  9.9954277E+03;  0.0000000E+00;  1.7977419E-07;  1.0000000E+04;  0.0000000E+00;  9.9949961E+03;0.20997322;0.0;0.26197305;2050.9353
  8.8002831E-01;  9.9999998E-03;  1.4002071E-01;2415;0.028495176;0.0;0.02834494;1008.0786;  4.0345648E-01;6685.1694;3;19.021238;0.0;25.219908;0;0.52104545;  9.9952666E+03;  0.0000000E+00;  1.1217042E-08;  1.0000000E+04;  0.0000000E+00;  9.9935771E+03;0.21935521;0.0;0.30169022;2691.9006
  9.0003121E-01;  9.9999998E-03; -2.6942473E-11;2439;0.030304901;0.0;-2.1126665e-08;1007.8596;  4.0323901E-01;6501.314;3;19.114496;0.0;-2.2166467e-05;0;0.24545738;  9.9968340E+03;  0.0000000E+00;  6.0572855E-17;  1.0000000E+04;  0.0000000E+00;  9.9984531E+03;0.14027566;0.0;0.10518173;581.61792
  9.0003121E-01;  9.9999998E-03;  2.0001078E-02;2440;0.030355826;0.0;0.0019511873;1007.8541;  4.0323904E-01;6496.7778;3;19.178587;0.0;2.4773872;0;0.25128919;  9.9968291E+03;  0.0000000E+00; -2.6412161E-10;  1.0000000E+04;  0.0000000E+00;  9.9983496E+03;0.14074661;0.0;0.11054257;624.0899
  9.0003133E-01;  9.9999998E-03;  4.0002361E-02;2441;0.030513547;0.0;0.0041177524;1007.838;  4.0323898E-01;6483.4658;3;19.372128;0.0;5.045785;0;0.2682094;  9.9968057E+03;  0.0000000E+00; -2.3074849E-09;  1.0000000E+04;  0.0000000E+00;  9.9980488E+03;0.14218841;0.0;0.126021;747.49725
  9.0003151E-01;  9.9999998E-03;  6.0004096E-02;2442;0.03079455;0.0;0.0067771664;1007.8123;  4.0323904E-01;6462.1665;3;19.702991;0.0;7.8524423;0;0.29452717;  9.9967627E+03;  0.0000000E+00; -4.2974513E-09;  1.0000000E+04;  0.0000000E+00;  9.9975830E+03;0.14468694;0.0;0.14984022;941.13757
  9.0003175E-01;  9.9999998E-03;  8.0006562E-02;2443;0.031231446;0.0;0.010253311;1007.7787;  4.0323898E-01;6434.4575;3;20.185131;0.0;11.088403;0;0.32779005;  9.9967021E+03;  0.0000000E+00;  1.4004342E-08;  1.0000000E+04;  0.0000000E+00;  9.9969785E+03;0.14838377;0.0;0.17940629;1193.9984
  9.0003216E-01;  9.9999998E-03;  1.0000999E-01;2444;0.031870261;0.0;0.014791281;1007.7371;  4.0323901E-01;6400.0435;3;20.842979;0.0;14.890353;0;0.36581025;  9.9966133E+03;  0.0000000E+00;  7.5659251E-08;  1.0000000E+04;  0.0000000E+00;  9.9962344E+03;0.15347283;0.0;0.21233742;1510.0231
  9.0003282E-01;  9.9999998E-03;  1.2001439E-01;2445;0.032762174;0.0;0.020390967;1007.6829;  4.0323913E-01;6355.1772;3;21.697502;0.0;19.217495;0;0.40779576;  9.9964971E+03;  0.0000000E+00;  1.2806363E-07;  1.0000000E+04;  0.0000000E+00;  9.9952715E+03;0.16017665;0.0;0.24761911;1928.6287
  9.0003365E-01;  9.9999998E-03;  1.4001952E-01;2446;0.033951126;0.0;0.02671374;1007.6083;  4.0323919E-01;6293.4482;3;22.767723;0.0;23.774078;0;0.45371383;  9.9963467E+03;  0.0000000E+00; -1.3158645E-07;  1.0000000E+04;  0.0000000E+00;  9.9939375E+03;0.16867967;0.0;0.28503418;2528.7219
  9.2003369E-01;  9.9999998E-03; -4.4708399E-12;2470;0.032408677;0.0;3.5045742e-09;1007.2968;  4.0298957E-01;6032.4849;3;20.287724;0.0;-2.6360503e-06;0;0.18897414;  9.9979521E+03;  0.0000000E+00;  1.0615373E-15;  1.0000000E+04;  0.0000000E+00;  9.9985371E+03;0.089969561;0.0;0.099004574;549.83984
  9.2003369E-01;  9.9999998E-03;  2.0001037E-02;2471;0.032482941;0.0;0.0018469159;1007.2916;  4.0298945E-01;6028.1484;3;20.373741;0.0;2.3139877;0;0.19430852;  9.9979453E+03;  0.0000000E+00;  1.1960782E-09;  1.0000000E+04;  0.0000000E+00;  9.9984404E+03;0.090336181;0.0;0.10397234;588.8103
  9.2003387E-01;  9.9999998E-03;  4.0002253E-02;2472;0.032712396;0.0;0.0038840906;1007.2767;  4.0298951E-01;6015.9277;3;20.62907;0.0;4.7081857;0;0.20978767;  9.9979277E+03;  0.0000000E+00;  1.8177618E-09;  1.0000000E+04;  0.0000000E+00;  9.9981641E+03;0.091462046;0.0;0.11832563;702.12848
  9.2003411E-01;  9.9999998E-03;  6.0003877E-02;2473;0.03311801;0.0;0.0063635199;1007.2534;  4.0298951E-01;5996.6113;3;21.067362;0.0;7.3150592;0;0.23386189;  9.9978945E+03;  0.0000000E+00; -6.8760357E-09;  1.0000000E+04;  0.0000000E+00;  9.9977314E+03;0.093425468;0.0;0.14043643;880.14368
  9.2003453E-01;  9.9999998E-03;  8.0006167E-02;2474;0.033735126;0.0;0.0095871715;1007.2225;  4.0298951E-01;5971.0859;3;21.705961;0.0;10.311922;0;0.26426947;  9.9978438E+03;  0.0000000E+00; -7.8534041E-09;  1.0000000E+04;  0.0000000E+00;  9.9971680E+03;0.096362084;0.0;0.16790739;1112.8387
  9.2003512E-01;  9.9999998E-03;  1.0000934E-01;2475;0.034589503;0.0;0.013791096;1007.1843;  4.0298957E-01;5939.4502;3;22.533781;0.0;13.842939;0;0.29898503;  9.9977715E+03;  0.0000000E+00;  1.8526405E-08;  1.0000000E+04;  0.0000000E+00;  9.9964795E+03;0.10047338;0.0;0.19851166;1403.7899
  9.2003590E-01;  9.9999998E-03;  1.2001342E-01;2476;0.035722658;0.0;0.018991966;1007.1343;  4.0298960E-01;5898.1553;3;23.587646;0.0;17.875042;0;0.33730385;  9.9976729E+03;  0.0000000E+00;  3.3568679E-08;  1.0000000E+04;  0.0000000E+00;  9.9955889E+03;0.10602821;0.0;0.23127565;1789.2343
  9.2003697E-01;  9.9999998E-03;  1.4001819E-01;2477;0.037177142;0.0;0.024875544;1007.0654;  4.0298969E-01;5841.1914;3;24.878525;0.0;22.12702;0;0.37934643;  9.9975391E+03;  0.0000000E+00; -3.1632459E-07;  1.0000000E+04;  0.0000000E+00;  9.9943477E+03;0.11333229;0.0;0.26601413;2342.2627
  9.4003391E-01;  9.9999998E-03;  6.5103877E-12;2501;0.032517079;0.0;9.2834513e-09;1006.6808;  4.0271989E-01;5519.0898;3;20.384024;0.0;-1.7230224e-05;0;0.13556677;  9.9990166E+03;  0.0000000E+00;  8.7875444E-16;  1.0000000E+04;  0.0000000E+00;  9.9986250E+03;0.043076918;0.0;0.092489846;516.23376
  9.4003397E-01;  9.9999998E-03;  2.0001011E-02;2502;0.032598749;0.0;0.0017473744;1006.6761;  4.0271994E-01;5515.3477;3;20.465586;0.0;2.1361318;0;0.14033186;  9.9990137E+03;  0.0000000E+00;  4.8770228E-09;  1.0000000E+04;  0.0000000E+00;  9.9985361E+03;0.043306679;0.0;0.097025193;551.35382
  9.4003415E-01;  9.9999998E-03;  4.0002175E-02;2503;0.032851808;0.0;0.0036575345;1006.6629;  4.0271991E-01;5504.3174;3;20.728224;0.0;4.3404756;0;0.15416031;  9.9990000E+03;  0.0000000E+00;  1.2596214E-08;  1.0000000E+04;  0.0000000E+00;  9.9982871E+03;0.044021167;0.0;0.11013914;653.57104
  9.4003445E-01;  9.9999998E-03;  6.0003687E-02;2504;0.033305928;0.0;0.0059546693;1006.6418;  4.0271991E-01;5486.9849;3;21.204824;0.0;6.7395678;0;0.17566311;  9.9989775E+03;  0.0000000E+00;  3.2585428E-09;  1.0000000E+04;  0.0000000E+00;  9.9978896E+03;0.045297757;0.0;0.13036536;814.38007
  9.4003487E-01;  9.9999998E-03;  8.0005795E-02;2505;0.033978466;0.0;0.0089104557;1006.6143;  4.0271994E-01;5464.1372;3;21.841946;0.0;9.4854927;0;0.20279682;  9.9989424E+03;  0.0000000E+00; -1.6163893E-08;  1.0000000E+04;  0.0000000E+00;  9.9973750E+03;0.047274768;0.0;0.15552205;1024.8763
  9.4003558E-01;  9.9999998E-03;  1.0000870E-01;2506;0.034908853;0.0;0.012757577;1006.5798;  4.0271991E-01;5435.7744;3;22.702938;0.0;12.730119;0;0.2337233;  9.9988887E+03;  0.0000000E+00; -1.9594264E-08;  1.0000000E+04;  0.0000000E+00;  9.9967461E+03;0.050168622;0.0;0.18355468;1288.2917
  9.4003648E-01;  9.9999998E-03;  1.2001243E-01;2507;0.036139835;0.0;0.017520834;1006.535;  4.0271997E-01;5398.6465;3;23.812586;0.0;16.427872;0;0.26784128;  9.9988135E+03;  0.0000000E+00; -2.9219379E-08;  1.0000000E+04;  0.0000000E+00;  9.9959277E+03;0.054297149;0.0;0.21354415;1637.4642
  9.4003767E-01;  9.9999998E-03;  1.4001681E-01;2508;0.037729502;0.0;0.022920474;1006.4724;  4.0272000E-01;5346.9434;3;25.17466;0.0;20.342937;0;0.30543235;  9.9987031E+03;  0.0000000E+00; -3.5095096E-07;  1.0000000E+04;  0.0000000E+00;  9.9947930E+03;0.060090818;0.0;0.24534152;2139.1316
  9.6003342E-01;  9.9999998E-03; -6.6968978E-12;2532;0.032044318;0.0;5.3554974e-09;1006.035;  4.0244183E-01;4980.6729;3;20.120428;0.0;1.4980033e-05;0;0.090555824;  9.9999072E+03;  0.0000000E+00;  1.9548752E-15;  1.0000000E+04;  0.0000000E+00;  9.9987139E+03;0.0046893149;0.0;0.085866511;481.27643
  9.6003342E-01;  9.9999998E-03;  2.0000955E-02;2533;0.032125864;0.0;0.0016152889;1006.0311;  4.0244177E-01;4977.4258;3;20.2113;0.0;1.9423887;0;0.094723068;  9.9999033E+03;  0.0000000E+00;  7.4422379E-09;  1.0000000E+04;  0.0000000E+00;  9.9986357E+03;0.0047771288;0.0;0.089945942;512.35205
  9.6003360E-01;  9.9999998E-03;  4.0002044E-02;2534;0.032377366;0.0;0.0033770225;1006.0194;  4.0244189E-01;4967.7842;3;20.478081;0.0;3.9564126;0;0.10681811;  9.9998984E+03;  0.0000000E+00;  2.0593333E-08;  1.0000000E+04;  0.0000000E+00;  9.9984102E+03;0.0050664884;0.0;0.10175162;602.89026
  9.6003389E-01;  9.9999998E-03;  6.0003445E-02;2535;0.032819532;0.0;0.0054859906;1006.0008;  4.0244186E-01;4952.4365;3;20.928858;0.0;6.1453533;0;0.12562165;  9.9998877E+03;  0.0000000E+00;  1.4882431E-08;  1.0000000E+04;  0.0000000E+00;  9.9980508E+03;0.0056370664;0.0;0.11998458;745.5675
  9.6003437E-01;  9.9999998E-03;  8.0005370E-02;2536;0.033488281;0.0;0.0081855739;1005.9767;  4.0244183E-01;4932.6611;3;21.597065;0.0;8.6462669;0;0.14932284;  9.9998672E+03;  0.0000000E+00; -1.1356533E-08;  1.0000000E+04;  0.0000000E+00;  9.9975889E+03;0.006631624;0.0;0.14269121;932.67932
  9.6003503E-01;  9.9999998E-03;  1.0000801E-01;2537;0.034436516;0.0;0.011679942;1005.9465;  4.0244192E-01;4907.6714;3;22.500908;0.0;11.576345;0;0.17628618;  9.9998379E+03;  0.0000000E+00; -3.3792805E-08;  1.0000000E+04;  0.0000000E+00;  9.9970186E+03;0.0082789399;0.0;0.16800724;1167.2235
  9.6003598E-01;  9.9999998E-03;  1.2001140E-01;2538;0.035689633;0.0;0.016001256;1005.9067;  4.0244183E-01;4874.811;3;23.59992;0.0;14.949884;0;0.20602915;  9.9997861E+03;  0.0000000E+00; -3.3825955E-08;  1.0000000E+04;  0.0000000E+00;  9.9962822E+03;0.010939457;0.0;0.19508968;1478.6517
  9.6003723E-01;  9.9999998E-03;  1.4001538E-01;2539;0.037315141;0.0;0.020901484;1005.8508;  4.0244195E-01;4828.6689;3;24.970148;0.0;18.512262;0;0.23899476;  9.9997021E+03;  0.0000000E+00; -2.1308719E-07;  1.0000000E+04;  0.0000000E+00;  9.9952490E+03;0.015160565;0.0;0.2238342;1927.0872
  9.8003256E-01;  9.9999998E-03;  2.2503663E-12;2563;0.03129518;0.0;9.3955617e-09;1005.3839;  4.0216610E-01;4437.4741;3;19.698704;0.0;1.7601065e-05;0;0.055875838;  1.0000577E+04;  0.0000000E+00;  1.1516437E-15;  1.0000000E+04;  0.0000000E+00;  9.9988018E+03;-0.023471443;0.0;0.079347283;445.51807
  9.8003256E-01;  9.9999998E-03;  2.0000903E-02;2564;0.031368814;0.0;0.0014858381;1005.3803;  4.0216610E-01;4434.4282;3;19.791285;0.0;1.7269704;0;0.059462231;  1.0000577E+04;  0.0000000E+00;  9.5900337E-09;  1.0000000E+04;  0.0000000E+00;  9.9987305E+03;-0.023499381;0.0;0.082961611;472.49936
  9.8003274E-01;  9.9999998E-03;  4.0001918E-02;2565;0.031595647;0.0;0.0030977293;1005.3702;  4.0216601E-01;4426.1753;3;20.04648;0.0;3.5404372;0;0.069873065;  1.0000576E+04;  0.0000000E+00;  2.5016877E-08;  1.0000000E+04;  0.0000000E+00;  9.9985303E+03;-0.023557048;0.0;0.093430109;551.18872
  9.8003298E-01;  9.9999998E-03;  6.0003199E-02;2566;0.031995628;0.0;0.0050145192;1005.3544;  4.0216604E-01;4413.1074;3;20.463192;0.0;5.536818;0;0.086060584;  1.0000575E+04;  0.0000000E+00;  2.2856014E-08;  1.0000000E+04;  0.0000000E+00;  9.9982148E+03;-0.023563448;0.0;0.10962404;675.44727
  9.8003340E-01;  9.9999998E-03;  8.0004945E-02;2567;0.032613005;0.0;0.0074619586;1005.3334;  4.0216610E-01;4395.8149;3;21.104242;0.0;7.8123469;0;0.10645382;  1.0000571E+04;  0.0000000E+00; -9.8006074E-09;  1.0000000E+04;  0.0000000E+00;  9.9978027E+03;-0.023375306;0.0;0.12982912;838.87256
  9.8003405E-01;  9.9999998E-03;  1.0000733E-01;2568;0.033522654;0.0;0.010612894;1005.3069;  4.0216607E-01;4373.9043;3;21.994928;0.0;10.462152;0;0.12963815;  1.0000557E+04;  0.0000000E+00; -5.6431990E-08;  1.0000000E+04;  0.0000000E+00;  9.9972920E+03;-0.022758646;0.0;0.1523968;1044.4735
  9.8003495E-01;  9.9999998E-03;  1.2001037E-01;2569;0.034771699;0.0;0.014494238;1005.2723;  4.0216616E-01;4345.4111;3;23.123104;0.0;13.481554;0;0.15526858;  1.0000525E+04;  0.0000000E+00; -5.3093515E-08;  1.0000000E+04;  0.0000000E+00;  9.9966338E+03;-0.021319561;0.0;0.17658815;1318.5732
  9.8003620E-01;  9.9999998E-03;  1.4001393E-01;2570;0.036396001;0.0;0.018894373;1005.2227;  4.0216616E-01;4304.5371;3;24.479176;0.0;16.695169;0;0.1839447;  1.0000464E+04;  0.0000000E+00; -1.6823570E-08;  1.0000000E+04;  0.0000000E+00;  9.9957061E+03;-0.018406071;0.0;0.20235077;1714.6388
  1.0000315E+00;  9.9999998E-03; -2.2549636E-12;2594;0.03033133;0.0;-2.613203e-09;1004.7505;  4.0190178E-01;3908.3481;3;19.2481;0.0;9.0198882e-06;0;0.030684084;  1.0001046E+04;  0.0000000E+00;  1.5465853E-16;  1.0000000E+04;  0.0000000E+00;  9.9988838E+03;-0.042421877;0.0;0.073105961;409.54367
  1.0000315E+00;  9.9999998E-03;  2.0000860E-02;2595;0.030396111;0.0;0.0013832025;1004.7476;  4.0190172E-01;3905.9944;3;19.292372;0.0;1.5736388;0;0.033737943;  1.0001048E+04;  0.0000000E+00;  9.1890318E-09;  1.0000000E+04;  0.0000000E+00;  9.9988223E+03;-0.042521141;0.0;0.076259084;432.50507
  1.0000316E+00;  9.9999998E-03;  4.0001821E-02;2596;0.030604519;0.0;0.0028683909;1004.739;  4.0190169E-01;3898.8345;3;19.533115;0.0;3.1786366;0;0.042605877;  1.0001050E+04;  0.0000000E+00;  2.7552710E-08;  1.0000000E+04;  0.0000000E+00;  9.9986465E+03;-0.042793326;0.0;0.085399203;499.54987
  1.0000318E+00;  9.9999998E-03;  6.0003001E-02;2597;0.030984797;0.0;0.0045985337;1004.7253;  4.0190169E-01;3887.6538;3;19.953098;0.0;4.9349031;0;0.056405813;  1.0001053E+04;  0.0000000E+00;  3.1228655E-08;  1.0000000E+04;  0.0000000E+00;  9.9983691E+03;-0.043159522;0.0;0.099565335;605.71259
  1.0000322E+00;  9.9999998E-03;  8.0004573E-02;2598;0.031569343;0.0;0.0067858952;1004.7072;  4.0190169E-01;3872.7458;3;20.549246;0.0;6.9966254;0;0.073821947;  1.0001056E+04;  0.0000000E+00; -1.2252888E-08;  1.0000000E+04;  0.0000000E+00;  9.9980078E+03;-0.043477181;0.0;0.11729912;746.04065
  1.0000328E+00;  9.9999998E-03;  1.0000669E-01;2599;0.03241384;0.0;0.0096125696;1004.6843;  4.0190175E-01;3853.9153;3;21.353909;0.0;9.4231825;0;0.093697943;  1.0001053E+04;  0.0000000E+00; -1.0887981E-07;  1.0000000E+04;  0.0000000E+00;  9.9975586E+03;-0.043506093;0.0;0.13720404;923.95239
  1.0000337E+00;  9.9999998E-03;  1.2000941E-01;2600;0.033597678;0.0;0.013090377;1004.6538;  4.0190169E-01;3828.8071;3;22.430506;0.0;12.157007;0;0.11585642;  1.0001035E+04;  0.0000000E+00; -1.9750625E-07;  1.0000000E+04;  0.0000000E+00;  9.9969688E+03;-0.042824928;0.0;0.15868135;1163.1025
  1.0000349E+00;  9.9999998E-03;  1.4001259E-01;2601;0.035190344;0.0;0.017007574;1004.6094;  4.0190169E-01;3792.3223;3;23.794628;0.0;15.012202;0;0.14103326;  1.0000983E+04;  0.0000000E+00; -1.2343646E-07;  1.0000000E+04;  0.0000000E+00;  9.9961348E+03;-0.040695529;0.0;0.1817288;1510.4122
  1.0200301E+00;  9.9999998E-03;  3.0697641E-12;2625;0.029154861;0.0;1.5271642e-09;1004.1556;  4.0165594E-01;3410.7363;3;18.583445;0.0;-7.3170813e-06;0;0.012834594;  1.0001354E+04;  0.0000000E+00; -5.1660995E-16;  1.0000000E+04;  0.0000000E+00;  9.9989609E+03;-0.054414831;0.0;0.067249425;373.77505
  1.0200301E+00;  9.9999998E-03;  2.0000819E-02;2626;0.029224394;0.0;0.0012856157;1004.1531;  4.0165597E-01;3408.6816;3;18.685926;0.0;1.4418333;0;0.015418965;  1.0001354E+04;  0.0000000E+00;  1.1045397E-08;  1.0000000E+04;  0.0000000E+00;  9.9989072E+03;-0.054538246;0.0;0.069957212;392.89758
  1.0200303E+00;  9.9999998E-03;  4.0001728E-02;2627;0.029421886;0.0;0.002666448;1004.1457;  4.0165597E-01;3402.6155;3;18.91309;0.0;2.9014821;0;0.022928789;  1.0001358E+04;  0.0000000E+00;  3.4219664E-08;  1.0000000E+04;  0.0000000E+00;  9.9987568E+03;-0.054884344;0.0;0.077813134;448.83438
  1.0200305E+00;  9.9999998E-03;  6.0002830E-02;2628;0.029765679;0.0;0.004255502;1004.134;  4.0165594E-01;3393.0269;3;19.291376;0.0;4.469243;0;0.034644905;  1.0001365E+04;  0.0000000E+00;  4.4808932E-08;  1.0000000E+04;  0.0000000E+00;  9.9985176E+03;-0.055376623;0.0;0.090021528;537.81787
  1.0200309E+00;  9.9999998E-03;  8.0004252E-02;2629;0.030309543;0.0;0.006214946;1004.1183;  4.0165600E-01;3380.1118;3;19.870686;0.0;6.2789383;0;0.049529195;  1.0001370E+04;  0.0000000E+00; -1.9275390E-08;  1.0000000E+04;  0.0000000E+00;  9.9982031E+03;-0.055869341;0.0;0.10539854;656.55603
  1.0200313E+00;  9.9999998E-03;  1.0000613E-01;2630;0.031114113;0.0;0.0087076621;1004.0982;  4.0165594E-01;3363.5764;3;20.660482;0.0;8.4218645;0;0.066739753;  1.0001365E+04;  0.0000000E+00; -2.2871454E-07;  1.0000000E+04;  0.0000000E+00;  9.9978037E+03;-0.056106355;0.0;0.12284611;809.35089
  1.0200323E+00;  9.9999998E-03;  1.2000853E-01;2631;0.032265559;0.0;0.011774288;1004.0706;  4.0165594E-01;3340.9749;3;21.700464;0.0;10.878292;0;0.086310543;  1.0001347E+04;  0.0000000E+00; -5.9296929E-07;  1.0000000E+04;  0.0000000E+00;  9.9972705E+03;-0.055632584;0.0;0.14194313;1017.7482
  1.0200335E+00;  9.9999998E-03;  1.4001133E-01;2632;0.033842787;0.0;0.015227847;1004.0301;  4.0165597E-01;3307.7083;3;23.047031;0.0;13.432163;0;0.10907941;  1.0001295E+04;  0.0000000E+00; -8.3045586E-07;  1.0000000E+04;  0.0000000E+00;  9.9965186E+03;-0.053645771;0.0;0.16272518;1322.2552
  1.0400286E+00;  9.9999998E-03;  3.2702142E-12;2656;0.027802305;0.0;4.9695665e-09;1003.613;  4.0143359E-01;2955.8389;3;17.871681;0.0;1.0706106e-05;0;0.00020913407;  1.0001546E+04;  0.0000000E+00;  7.5816438E-18;  1.0000000E+04;  0.0000000E+00;  9.9990342E+03;-0.061601266;0.0;0.0618104;338.3624
  1.0400286E+00;  9.9999998E-03;  2.0000778E-02;2657;0.027859624;0.0;0.0011899781;1003.6109;  4.0143365E-01;2954.0835;3;17.940683;0.0;1.2996885;0;0.0023894943;  1.0001545E+04;  0.0000000E+00;  1.4751248E-08;  1.0000000E+04;  0.0000000E+00;  9.9989893E+03;-0.061708268;0.0;0.064097762;353.9213
  1.0400287E+00;  9.9999998E-03;  4.0001638E-02;2658;0.028043643;0.0;0.0024757653;1003.6046;  4.0143365E-01;2949.0122;3;18.17779;0.0;2.6429319;0;0.0087386295;  1.0001547E+04;  0.0000000E+00;  4.9800615E-08;  1.0000000E+04;  0.0000000E+00;  9.9988633E+03;-0.062006228;0.0;0.070744857;399.59384
  1.0400288E+00;  9.9999998E-03;  6.0002666E-02;2659;0.028366802;0.0;0.0039427583;1003.5944;  4.0143371E-01;2940.6245;3;18.548948;0.0;4.0534143;0;0.018708572;  1.0001550E+04;  0.0000000E+00;  6.8993337E-08;  1.0000000E+04;  0.0000000E+00;  9.9986553E+03;-0.062418461;0.0;0.081127033;472.90143
  1.0400292E+00;  9.9999998E-03;  8.0003962E-02;2660;0.028875167;0.0;0.0057107247;1003.5806;  4.0143362E-01;2929.3115;3;19.097946;0.0;5.6686525;0;0.031569287;  1.0001551E+04;  0.0000000E+00; -3.4304428E-08;  1.0000000E+04;  0.0000000E+00;  9.9983789E+03;-0.062788405;0.0;0.094357692;572.46411
  1.0400298E+00;  9.9999998E-03;  1.0000563E-01;2661;0.029649917;0.0;0.0079126311;1003.5623;  4.0143362E-01;2914.3896;3;19.862007;0.0;7.5527101;0;0.04685086;  1.0001542E+04;  0.0000000E+00; -4.4865226E-07;  1.0000000E+04;  0.0000000E+00;  9.9980225E+03;-0.062826678;0.0;0.10967754;703.91595
  1.0400306E+00;  9.9999998E-03;  1.2000773E-01;2662;0.030769372;0.0;0.010578625;1003.5366;  4.0143368E-01;2893.3232;3;20.872749;0.0;9.6930895;0;0.064841099;  1.0001514E+04;  0.0000000E+00; -1.3774202E-06;  1.0000000E+04;  0.0000000E+00;  9.9975361E+03;-0.062025644;0.0;0.12686674;887.13593
  1.0400318E+00;  9.9999998E-03;  1.4001018E-01;2663;0.032344863;0.0;0.013593317;1003.4983;  4.0143362E-01;2862.0166;3;22.225441;0.0;11.967225;0;0.086421385;  1.0001448E+04;  0.0000000E+00; -2.4798444E-06;  1.0000000E+04;  0.0000000E+00;  9.9968428E+03;-0.059549898;0.0;0.14597128;1156.2235
  1.0600268E+00;  9.9999998E-03;  2.3425428E-12;2687;0.026309304;0.0;4.1222656e-09;1003.1324;  4.0123788E-01;2551.7314;3;17.113722;0.0;2.0407679e-05;0;-0.0085813105;  1.0001646E+04;  0.0000000E+00;  5.7383973E-16;  1.0000000E+04;  0.0000000E+00;  9.9991016E+03;-0.065336712;0.0;0.056755401;303.21707
  1.0600268E+00;  9.9999998E-03;  2.0000739E-02;2688;0.026362872;0.0;0.0011064711;1003.1306;  4.0123791E-01;2550.1777;3;17.178555;0.0;1.179067;0;-0.006739933;  1.0001646E+04;  0.0000000E+00;  2.1191866E-08;  1.0000000E+04;  0.0000000E+00;  9.9990635E+03;-0.065396726;0.0;0.058656793;315.59268
  1.0600269E+00;  9.9999998E-03;  4.0001549E-02;2689;0.026533246;0.0;0.0022987281;1003.1251;  4.0123796E-01;2545.7107;3;17.391087;0.0;2.4060788;0;-0.0013478547;  1.0001647E+04;  0.0000000E+00;  6.9913732E-08;  1.0000000E+04;  0.0000000E+00;  9.9989570E+03;-0.065552346;0.0;0.064204492;352.18283
  1.0600271E+00;  9.9999998E-03;  6.0002510E-02;2690;0.026835771;0.0;0.0036580402;1003.1161;  4.0123799E-01;2538.4275;3;17.726423;0.0;3.70298;0;0.0072425529;  1.0001643E+04;  0.0000000E+00;  8.6491184E-08;  1.0000000E+04;  0.0000000E+00;  9.9987813E+03;-0.065719061;0.0;0.072961614;411.92856
  1.0600274E+00;  9.9999998E-03;  8.0003701E-02;2691;0.027318671;0.0;0.0052569625;1003.1036;  4.0123799E-01;2528.2307;3;18.257624;0.0;5.1268144;0;0.018650651;  1.0001635E+04;  0.0000000E+00; -1.0628586E-07;  1.0000000E+04;  0.0000000E+00;  9.9985391E+03;-0.065711945;0.0;0.084362596;495.57962
  1.0600280E+00;  9.9999998E-03;  1.0000519E-01;2692;0.028068457;0.0;0.0072028004;1003.0861;  4.0123796E-01;2513.9553;3;18.996506;0.0;6.7991796;0;0.03282328;  1.0001609E+04;  0.0000000E+00; -9.1034065E-07;  1.0000000E+04;  0.0000000E+00;  9.9982109E+03;-0.065183096;0.0;0.098006375;610.33893
  1.0600288E+00;  9.9999998E-03;  1.2000701E-01;2693;0.029178757;0.0;0.0095114596;1003.0605;  4.0123793E-01;2493.0767;3;20.00816;0.0;8.6627684;0;0.050303198;  1.0001563E+04;  0.0000000E+00; -2.7754966E-06;  1.0000000E+04;  0.0000000E+00;  9.9977529E+03;-0.063563578;0.0;0.11386678;774.52301
  1.0600300E+00;  9.9999998E-03;  1.4000912E-01;2694;0.030741863;0.0;0.012089162;1003.0229;  4.0123799E-01;2462.4863;3;21.342854;0.0;10.582299;0;0.071894765;  1.0001470E+04;  0.0000000E+00; -2.0085936E-05;  1.0000000E+04;  0.0000000E+00;  9.9970938E+03;-0.060054783;0.0;0.13194954;1015.5994
  1.0800250E+00;  9.9999998E-03; -1.8652833E-12;2718;0.024750836;0.0;-2.9114151e-09;1002.7169;  4.0106997E-01;2200.6196;3;16.336088;0.0;-5.8902078e-06;0;-0.014160413;  1.0001675E+04;  0.0000000E+00;  1.2698426E-15;  1.0000000E+04;  0.0000000E+00;  9.9991660E+03;-0.066173911;0.0;0.052013498;268.23999
  1.0800250E+00;  9.9999998E-03;  2.0000705E-02;2719;0.024802864;0.0;0.0010303648;1002.7154;  4.0106994E-01;2199.3643;3;16.399652;0.0;1.0677584;0;-0.012583338;  1.0001672E+04;  0.0000000E+00;  2.4698865E-08;  1.0000000E+04;  0.0000000E+00;  9.9991367E+03;-0.066162385;0.0;0.053579047;277.95224
  1.0800251E+00;  9.9999998E-03;  4.0001471E-02;2720;0.024965288;0.0;0.0021391043;1002.7104;  4.0107000E-01;2195.405;3;16.589785;0.0;2.1940224;0;-0.007908728;  1.0001666E+04;  0.0000000E+00;  7.6273345E-08;  1.0000000E+04;  0.0000000E+00;  9.9990449E+03;-0.066095486;0.0;0.058186758;307.05765
  1.0800252E+00;  9.9999998E-03;  6.0002368E-02;2721;0.025262155;0.0;0.0033946317;1002.702;  4.0106988E-01;2188.5496;3;16.911488;0.0;3.3939338;0;-0.00024998188;  1.0001652E+04;  0.0000000E+00;  4.6409465E-08;  1.0000000E+04;  0.0000000E+00;  9.9988916E+03;-0.065859079;0.0;0.065609097;356.00128
  1.0800256E+00;  9.9999998E-03;  8.0003448E-02;2722;0.025731748;0.0;0.0048463903;1002.6898;  4.0106997E-01;2178.604;3;17.376961;0.0;4.6615949;0;0.010403603;  1.0001627E+04;  0.0000000E+00; -3.8386787E-07;  1.0000000E+04;  0.0000000E+00;  9.9986699E+03;-0.065208748;0.0;0.075612351;427.67374
  1.0800261E+00;  9.9999998E-03;  1.0000477E-01;2723;0.026466534;0.0;0.0065505067;1002.6718;  4.0106991E-01;2164.1201;3;18.124123;0.0;6.1293616;0;0.024410985;  1.0001583E+04;  0.0000000E+00; -1.8917220E-06;  1.0000000E+04;  0.0000000E+00;  9.9983574E+03;-0.063723698;0.0;0.088134684;530.65405
  1.0800270E+00;  9.9999998E-03;  1.2000635E-01;2724;0.027580641;0.0;0.0085477438;1002.6452;  4.0107000E-01;2142.5874;3;19.130232;0.0;7.7420802;0;0.042479072;  1.0001501E+04;  0.0000000E+00; -5.1390575E-06;  1.0000000E+04;  0.0000000E+00;  9.9979082E+03;-0.060814712;0.0;0.10329378;681.34845
  1.0800282E+00;  9.9999998E-03;  1.4000812E-01;2725;0.029133303;0.0;0.010697154;1002.6069;  4.0107000E-01;2111.4954;3;20.484768;0.0;9.3451719;0;0.065017194;  1.0001376E+04;  0.0000000E+00; -3.1865880E-04;  1.0000000E+04;  0.0000000E+00;  9.9972676E+03;-0.055952899;0.0;0.12097009;899.88257
  1.1000230E+00;  9.9999998E-03; -1.8175911E-13;2748;0.023201471;0.0;-2.4564425e-10;1002.3649;  4.0092883E-01;1901.095;3;15.562884;0.0;6.7405927e-07;0;-0.01665882;  1.0001624E+04;  0.0000000E+00; -1.1792814E-15;  1.0000000E+04;  0.0000000E+00;  9.9992314E+03;-0.064203687;0.0;0.047544867;233.77689
  1.1000232E+00;  9.9999998E-03;  2.0000674E-02;2749;0.023254521;0.0;0.0009643939;1002.3633;  4.0092885E-01;1899.8491;3;15.621203;0.0;0.97604167;0;-0.01523371;  1.0001619E+04;  0.0000000E+00;  1.4865948E-08;  1.0000000E+04;  0.0000000E+00;  9.9992041E+03;-0.064084031;0.0;0.04885032;241.50873
  1.1000233E+00;  9.9999998E-03;  4.0001400E-02;2750;0.023418469;0.0;0.001993696;1002.3587;  4.0092888E-01;1896.1115;3;15.79987;0.0;1.9948239;0;-0.010919705;  1.0001606E+04;  0.0000000E+00;  1.4931297E-08;  1.0000000E+04;  0.0000000E+00;  9.9991230E+03;-0.06367173;0.0;0.052752025;265.16101
  1.1000234E+00;  9.9999998E-03;  6.0002234E-02;2751;0.023719853;0.0;0.0031478563;1002.3502;  4.0092885E-01;1889.3073;3;16.109715;0.0;3.0975595;0;-0.0035552643;  1.0001577E+04;  0.0000000E+00; -2.0150726E-07;  1.0000000E+04;  0.0000000E+00;  9.9989824E+03;-0.062793612;0.0;0.059238348;306.56598
  1.1000237E+00;  9.9999998E-03;  8.0003209E-02;2752;0.024195878;0.0;0.0044498248;1002.337;  4.0092885E-01;1878.6698;3;16.561359;0.0;4.2445683;0;0.0072518215;  1.0001527E+04;  0.0000000E+00; -1.1787057E-06;  1.0000000E+04;  0.0000000E+00;  9.9987695E+03;-0.06113138;0.0;0.068383202;370.37228
  1.1000243E+00;  9.9999998E-03;  1.0000436E-01;2753;0.024942212;0.0;0.0059407079;1002.3171;  4.0092880E-01;1862.6656;3;17.278526;0.0;5.5130172;0;0.022161517;  1.0001446E+04;  0.0000000E+00; -3.8341777E-06;  1.0000000E+04;  0.0000000E+00;  9.9984541E+03;-0.058231127;0.0;0.080392644;465.8371
  1.1000252E+00;  9.9999998E-03;  1.2000568E-01;2754;0.02604082;0.0;0.007596015;1002.2881;  4.0092883E-01;1839.3781;3;18.284718;0.0;6.867095;0;0.041782912;  1.0001325E+04;  0.0000000E+00; -1.1332377E-04;  1.0000000E+04;  0.0000000E+00;  9.9979971E+03;-0.053645235;0.0;0.095428146;606.62701
  1.1000265E+00;  9.9999998E-03;  1.4000723E-01;2755;0.027644088;0.0;0.0094665131;1002.2487;  4.0092891E-01;1807.6571;3;19.67382;0.0;8.266407;0;0.065454364;  1.0001167E+04;  0.0000000E+00; -2.2971195E-03;  1.0000000E+04;  0.0000000E+00;  9.9973662E+03;-0.047637451;0.0;0.11309181;804.34082
  1.1200213E+00;  9.9999998E-03; -2.0836087E-12;2777;0.021743072;0.0;-2.3962008e-09;1002.0718;  4.0081328E-01;1649.129;3;14.827398;0.0;-2.8684444e-06;0;-0.015553981;  1.0001485E+04;  0.0000000E+00;  1.1086025E-16;  1.0000000E+04;  0.0000000E+00;  9.9992871E+03;-0.059008468;0.0;0.043454487;200.97583
  1.1200213E+00;  9.9999998E-03;  2.0000646E-02;2778;0.021796523;0.0;0.00090360432;1002.0702;  4.0081331E-01;1647.8005;3;14.878093;0.0;0.88996679;0;-0.014101844;  1.0001477E+04;  0.0000000E+00; -2.9051286E-08;  1.0000000E+04;  0.0000000E+00;  9.9992627E+03;-0.058709353;0.0;0.044607509;207.50929
  1.1200215E+00;  9.9999998E-03;  4.0001333E-02;2779;0.021969486;0.0;0.0018603571;1002.0649;  4.0081328E-01;1643.6256;3;15.049657;0.0;1.8237312;0;-0.0096158534;  1.0001448E+04;  0.0000000E+00; -2.1422815E-07;  1.0000000E+04;  0.0000000E+00;  9.9991855E+03;-0.057735547;0.0;0.048119694;227.93381
  1.1200217E+00;  9.9999998E-03;  6.0002092E-02;2780;0.022283047;0.0;0.0029004263;1002.0554;  4.0081334E-01;1636.0344;3;15.354335;0.0;2.8039081;0;-0.0016985498;  1.0001396E+04;  0.0000000E+00; -9.1761427E-07;  1.0000000E+04;  0.0000000E+00;  9.9990469E+03;-0.055863276;0.0;0.054164726;265.05661
  1.1200222E+00;  9.9999998E-03;  8.0002964E-02;2781;0.022784367;0.0;0.0040571559;1002.0401;  4.0081331E-01;1623.8884;3;15.814519;0.0;3.8344898;0;0.010294981;  1.0001312E+04;  0.0000000E+00; -2.8771210E-06;  1.0000000E+04;  0.0000000E+00;  9.9988232E+03;-0.052753374;0.0;0.063048355;324.49173
  1.1200228E+00;  9.9999998E-03;  1.0000393E-01;2782;0.023529295;0.0;0.005299184;1002.0172;  4.0081328E-01;1605.6698;3;16.494783;0.0;4.8790383;0;0.027031165;  1.0001186E+04;  0.0000000E+00; -9.8091987E-05;  1.0000000E+04;  0.0000000E+00;  9.9984941E+03;-0.048079755;0.0;0.07511092;415.00052
  1.1200236E+00;  9.9999998E-03;  1.2000506E-01;2783;0.024673099;0.0;0.0067031686;1001.9856;  4.0081331E-01;1580.4291;3;17.542385;0.0;6.037282;0;0.048343293;  1.0001025E+04;  0.0000000E+00; -1.5702719E-03;  1.0000000E+04;  0.0000000E+00;  9.9980234E+03;-0.042015553;0.0;0.090358846;545.90625
  1.1200249E+00;  9.9999998E-03;  1.4000639E-01;2784;0.02627115;0.0;0.0082679698;1001.9462;  4.0081337E-01;1549.1155;3;18.938568;0.0;7.1538301;0;0.0721533;  1.0000857E+04;  0.0000000E+00; -1.0008053E-02;  1.0000000E+04;  0.0000000E+00;  9.9974033E+03;-0.035829734;0.0;0.10798303;721.32257
  1.1400198E+00;  9.9999998E-03; -2.3067544E-12;2805;0.020435903;0.0;-1.4435712e-09;1001.8287;  4.0072051E-01;1436.9231;3;14.153522;0.0;-2.2962922e-06;0;-0.0091028363;  1.0001222E+04;  0.0000000E+00; -1.2465328E-15;  1.0000000E+04;  0.0000000E+00;  9.9993252E+03;-0.04919802;0.0;0.040095184;171.39015
  1.1400199E+00;  9.9999998E-03;  2.0000607E-02;2806;0.020496488;0.0;0.00084044004;1001.8265;  4.0072051E-01;1435.2369;3;14.204335;0.0;0.81527466;0;-0.0074147955;  1.0001207E+04;  0.0000000E+00; -1.5403340E-07;  1.0000000E+04;  0.0000000E+00;  9.9993018E+03;-0.048641037;0.0;0.041226242;177.44699
  1.1400200E+00;  9.9999998E-03;  4.0001236E-02;2807;0.020674115;0.0;0.001703932;1001.8201;  4.0072060E-01;1430.1785;3;14.371548;0.0;1.6441753;0;-0.002176173;  1.0001160E+04;  0.0000000E+00; -7.7075924E-07;  1.0000000E+04;  0.0000000E+00;  9.9992188E+03;-0.046892993;0.0;0.04471682;196.60301
  1.1400203E+00;  9.9999998E-03;  6.0001917E-02;2808;0.021002863;0.0;0.0026342159;1001.8083;  4.0072057E-01;1420.9048;3;14.671803;0.0;2.5125127;0;0.0070883669;  1.0001074E+04;  0.0000000E+00; -1.0900762E-05;  1.0000000E+04;  0.0000000E+00;  9.9990674E+03;-0.04375919;0.0;0.050847556;231.98505
  1.1400207E+00;  9.9999998E-03;  8.0002651E-02;2809;0.021520691;0.0;0.0036094585;1001.7902;  4.0072048E-01;1406.6661;3;15.138993;0.0;3.3818967;0;0.020906441;  1.0000950E+04;  0.0000000E+00; -2.1685405E-04;  1.0000000E+04;  0.0000000E+00;  9.9988291E+03;-0.039093297;0.0;0.059999738;288.94742
  1.1400213E+00;  9.9999998E-03;  1.0000349E-01;2810;0.022312837;0.0;0.0046709538;1001.7646;  4.0072045E-01;1386.5261;3;15.849159;0.0;4.2774119;0;0.039295159;  1.0000790E+04;  0.0000000E+00; -1.8257634E-03;  1.0000000E+04;  0.0000000E+00;  9.9984785E+03;-0.033114299;0.0;0.072409458;374.04843
  1.1400223E+00;  9.9999998E-03;  1.2000445E-01;2811;0.02345679;0.0;0.0058255279;1001.7321;  4.0072057E-01;1361.0466;3;16.892099;0.0;5.1901464;0;0.060965143;  1.0000619E+04;  0.0000000E+00; -9.0539167E-03;  1.0000000E+04;  0.0000000E+00;  9.9980000E+03;-0.026787452;0.0;0.087752596;492.18839
  1.1400236E+00;  9.9999998E-03;  1.4000577E-01;2812;0.02517979;0.0;0.0072852168;1001.6954;  4.0072057E-01;1332.1943;3;18.402487;0.0;6.1848593;0;0.082855262;  1.0000477E+04;  0.0000000E+00; -3.0681107E-02;  1.0000000E+04;  0.0000000E+00;  9.9974072E+03;-0.021988923;0.0;0.10484418;645.12268
  1.1600184E+00;  9.9999998E-03; -7.5994880E-13;2832;0.019303909;0.0;2.5622029e-09;1001.625;  4.0064779E-01;1255.8494;3;13.562481;0.0;9.5840514e-06;0;0.0053020269;  1.0000776E+04;  0.0000000E+00; -6.8918052E-16;  1.0000000E+04;  0.0000000E+00;  9.9993359E+03;-0.03277963;0.0;0.038081657;146.00887
  1.1600186E+00;  9.9999998E-03;  2.0000538E-02;2833;0.019364022;0.0;0.00074844441;1001.6224;  4.0064779E-01;1253.9146;3;13.613974;0.0;0.7272259;0;0.0073583014;  1.0000757E+04;  0.0000000E+00; -3.4724230E-06;  1.0000000E+04;  0.0000000E+00;  9.9993047E+03;-0.031963132;0.0;0.039321434;152.09372
  1.1600187E+00;  9.9999998E-03;  4.0001094E-02;2834;0.019547749;0.0;0.001514075;1001.6144;  4.0064785E-01;1247.7416;3;13.776117;0.0;1.4555727;0;0.013604222;  1.0000690E+04;  0.0000000E+00; -8.2317863E-05;  1.0000000E+04;  0.0000000E+00;  9.9992119E+03;-0.029521087;0.0;0.043125309;171.17334
  1.1600189E+00;  9.9999998E-03;  6.0001671E-02;2835;0.019893011;0.0;0.0023069161;1001.6006;  4.0064770E-01;1237.0538;3;14.08462;0.0;2.2013164;0;0.024209773;  1.0000584E+04;  0.0000000E+00; -6.1055238E-04;  1.0000000E+04;  0.0000000E+00;  9.9990420E+03;-0.025512213;0.0;0.049721986;205.76405
  1.1600194E+00;  9.9999998E-03;  8.0002315E-02;2836;0.020440172;0.0;0.0031471334;1001.5804;  4.0064776E-01;1221.4832;3;14.567778;0.0;2.9397531;0;0.039074775;  1.0000444E+04;  0.0000000E+00; -2.9907813E-03;  1.0000000E+04;  0.0000000E+00;  9.9987813E+03;-0.020251829;0.0;0.059326604;259.60037
  1.1600201E+00;  9.9999998E-03;  1.0000303E-01;2837;0.021267248;0.0;0.0040292302;1001.5545;  4.0064770E-01;1201.3976;3;15.316759;0.0;3.6645119;0;0.057385728;  1.0000286E+04;  0.0000000E+00; -1.0733899E-02;  1.0000000E+04;  0.0000000E+00;  9.9984170E+03;-0.014511304;0.0;0.07189703;336.96677
  1.1600212E+00;  9.9999998E-03;  1.2000401E-01;2838;0.022535147;0.0;0.0051371297;1001.5242;  4.0064782E-01;1177.9949;3;16.447201;0.0;4.4908085;0;0.07698483;  1.0000147E+04;  0.0000000E+00; -3.0625258E-02;  1.0000000E+04;  0.0000000E+00;  9.9979521E+03;-0.0097807553;0.0;0.086765587;441.8194
  1.1600229E+00;  9.9999998E-03;  1.4000554E-01;2839;0.024437696;0.0;0.0066612414;1001.4933;  4.0064791E-01;1154.1311;3;18.101736;0.0;5.394908;0;0.094460219;  1.0000075E+04;  0.0000000E+00; -7.0706323E-02;  1.0000000E+04;  0.0000000E+00;  9.9974063E+03;-0.0081065288;0.0;0.10256675;579.21625
  1.1800174E+00;  9.9999998E-03; -6.5495049E-13;2858;0.018335985;0.0;1.0871946e-09;1001.4515;  4.0059176E-01;1098.4828;3;13.045816;0.0;6.9119706e-06;0;0.028736766;  1.0000145E+04;  0.0000000E+00;  9.1218895E-16;  1.0000000E+04;  0.0000000E+00;  9.9992959E+03;-0.0094081676;0.0;0.038144935;124.86216
  1.1800174E+00;  9.9999998E-03;  2.0000445E-02;2859;0.018394681;0.0;0.00063417072;1001.4486;  4.0059179E-01;1096.3175;3;13.108186;0.0;0.62585086;0;0.031010807;  1.0000121E+04;  0.0000000E+00; -1.4987112E-04;  1.0000000E+04;  0.0000000E+00;  9.9992607E+03;-0.0085400166;0.0;0.039550822;131.00366
  1.1800176E+00;  9.9999998E-03;  4.0000919E-02;2860;0.018599637;0.0;0.0012949706;1001.4398;  4.0059179E-01;1089.6412;3;13.284312;0.0;1.2576544;0;0.037723247;  1.0000056E+04;  0.0000000E+00; -1.1264746E-03;  1.0000000E+04;  0.0000000E+00;  9.9991523E+03;-0.0060535106;0.0;0.043776758;149.84656
  1.1800178E+00;  9.9999998E-03;  6.0001418E-02;2861;0.01894955;0.0;0.0019636441;1001.4255;  4.0059179E-01;1078.8148;3;13.598773;0.0;1.8805279;0;0.048490636;  9.9999561E+03;  0.0000000E+00; -4.6084169E-03;  1.0000000E+04;  0.0000000E+00;  9.9989658E+03;-0.0023306224;0.0;0.05082126;182.70097
  1.1800184E+00;  9.9999998E-03;  8.0002010E-02;2862;0.019555883;0.0;0.002695567;1001.4061;  4.0059182E-01;1064.1089;3;14.138202;0.0;2.4968553;0;0.062479336;  9.9998389E+03;  0.0000000E+00; -1.3971643E-02;  1.0000000E+04;  0.0000000E+00;  9.9986963E+03;0.0018955942;0.0;0.06058374;232.17207
  1.1800193E+00;  9.9999998E-03;  1.0000281E-01;2863;0.020508114;0.0;0.0035992956;1001.383;  4.0059176E-01;1046.6056;3;14.984902;0.0;3.1955838;0;0.078143589;  9.9997314E+03;  0.0000000E+00; -3.4361258E-02;  1.0000000E+04;  0.0000000E+00;  9.9983398E+03;0.0054428237;0.0;0.072700769;302.81879
  1.1800206E+00;  9.9999998E-03;  1.2000403E-01;2864;0.021975324;0.0;0.0048275567;1001.3586;  4.0059185E-01;1028.1998;3;16.25893;0.0;3.9722316;0;0.092931688;  9.9996738E+03;  0.0000000E+00; -7.1626723E-02;  1.0000000E+04;  0.0000000E+00;  9.9979072E+03;0.0066141216;0.0;0.086317569;400.84427
  1.1800226E+00;  9.9999998E-03;  1.4000604E-01;2865;0.024241345;0.0;0.0066533983;1001.3358;  4.0059185E-01;1010.8759;3;18.222857;0.0;4.9574523;0;0.10407797;  9.9997061E+03;  0.0000000E+00; -1.2797733E-01;  1.0000000E+04;  0.0000000E+00;  9.9974219E+03;0.0037711586;0.0;0.10030682;530.81879
  1.2000164E+00;  9.9999998E-03; -1.1451985E-12;2882;0.017531099;0.0;-2.5566249e-09;1001.3042;  4.0054965E-01;961.53064;3;12.66109;0.0;4.3014006e-07;0;0.058822624;  9.9993994E+03;  0.0000000E+00;  1.1208561E-15;  1.0000000E+04;  0.0000000E+00;  9.9991982E+03;0.018147962;0.0;0.04067466;106.68944
  1.2000165E+00;  9.9999998E-03;  2.0000376E-02;2883;0.017599594;0.0;0.00053300807;1001.3014;  4.0054977E-01;959.50897;3;12.724482;0.0;0.52345252;0;0.060944557;  9.9993828E+03;  0.0000000E+00; -8.9277979E-04;  1.0000000E+04;  0.0000000E+00;  9.9991621E+03;0.018761693;0.0;0.042182863;112.48637
  1.2000166E+00;  9.9999998E-03;  4.0000800E-02;2884;0.017821321;0.0;0.0011021839;1001.2933;  4.0054971E-01;953.5321;3;12.913575;0.0;1.0613215;0;0.067050368;  9.9993369E+03;  0.0000000E+00; -4.8008622E-03;  1.0000000E+04;  0.0000000E+00;  9.9990449E+03;0.020420011;0.0;0.046630356;130.11751
  1.2000171E+00;  9.9999998E-03;  6.0001325E-02;2885;0.01825705;0.0;0.0017451468;1001.2808;  4.0054980E-01;944.30298;3;13.290988;0.0;1.6179186;0;0.07622806;  9.9992773E+03;  0.0000000E+00; -1.5116238E-02;  1.0000000E+04;  0.0000000E+00;  9.9988516E+03;0.022509677;0.0;0.053718381;160.61565
  1.2000178E+00;  9.9999998E-03;  8.0002062E-02;2886;0.018999895;0.0;0.0025554728;1001.2651;  4.0054971E-01;932.70038;3;13.939174;0.0;2.2325394;0;0.087021716;  9.9992275E+03;  0.0000000E+00; -3.6380380E-02;  1.0000000E+04;  0.0000000E+00;  9.9985918E+03;0.023997083;0.0;0.063024633;207.64227
  1.2000189E+00;  9.9999998E-03;  1.0000316E-01;2887;0.02016904;0.0;0.0036383267;1001.248;  4.0054977E-01;920.13049;3;14.93208;0.0;2.9238942;0;0.09748584;  9.9992139E+03;  0.0000000E+00; -7.2512664E-02;  1.0000000E+04;  0.0000000E+00;  9.9982646E+03;0.023502802;0.0;0.073983036;277.03534
  1.2000208E+00;  9.9999998E-03;  1.2000493E-01;2888;0.022084923;0.0;0.0052693579;1001.2314;  4.0054974E-01;907.91113;3;16.532211;0.0;3.8467898;0;0.1058885;  9.9992656E+03;  0.0000000E+00; -1.2451982E-01;  1.0000000E+04;  0.0000000E+00;  9.9978789E+03;0.019893927;0.0;0.085994571;372.63052
  1.2000239E+00;  9.9999998E-03;  1.4000773E-01;2889;0.025250683;0.0;0.0077214986;1001.2142;  4.0054977E-01;895.25079;3;19.178888;0.0;5.0958452;0;0.11294691;  9.9993682E+03;  0.0000000E+00; -1.8897632E-01;  1.0000000E+04;  0.0000000E+00;  9.9974326E+03;0.013965385;0.0;0.098981529;492.52631
  1.2200160E+00;  9.9999998E-03;  1.1532760E-13;2905;0.017052976;0.0;7.2415418e-10;1001.1831;  4.0051872E-01;845.07111;3;12.445892;0.0;2.7337082e-06;0;0.09035027;  9.9986738E+03;  0.0000000E+00;  1.2349692E-15;  1.0000000E+04;  0.0000000E+00;  9.9990547E+03;0.044951685;0.0;0.045398582;89.954422
  1.2200161E+00;  9.9999998E-03;  2.0000415E-02;2906;0.017147236;0.0;0.00052657066;1001.181;  4.0051869E-01;843.53833;3;12.526869;0.0;0.48743978;0;0.091919146;  9.9986709E+03;  0.0000000E+00; -2.3462041E-03;  1.0000000E+04;  0.0000000E+00;  9.9990166E+03;0.045024298;0.0;0.046894848;95.128288
  1.2200164E+00;  9.9999998E-03;  4.0000934E-02;2907;0.017450592;0.0;0.0011347012;1001.175;  4.0051877E-01;839.2807;3;12.77831;0.0;1.0021361;0;0.096227653;  9.9986680E+03;  0.0000000E+00; -1.1065606E-02;  1.0000000E+04;  0.0000000E+00;  9.9989014E+03;0.045009561;0.0;0.051218092;111.17961
  1.2200170E+00;  9.9999998E-03;  6.0001690E-02;2908;0.018037744;0.0;0.0019226932;1001.1664;  4.0051872E-01;833.14935;3;13.255636;0.0;1.5750626;0;0.10204518;  9.9986758E+03;  0.0000000E+00; -3.0182207E-02;  1.0000000E+04;  0.0000000E+00;  9.9987197E+03;0.044197399;0.0;0.057847779;140.25632
  1.2200181E+00;  9.9999998E-03;  8.0002859E-02;2909;0.019099893;0.0;0.0030501103;1001.1563;  4.0051869E-01;825.91022;3;14.088119;0.0;2.2808499;0;0.10799088;  9.9987178E+03;  0.0000000E+00; -6.3584864E-02;  1.0000000E+04;  0.0000000E+00;  9.9984775E+03;0.04173125;0.0;0.066259623;187.1721
  1.2200201E+00;  9.9999998E-03;  1.0000462E-01;2910;0.02094714;0.0;0.0047013485;1001.1451;  4.0051875E-01;817.90375;3;15.511544;0.0;3.2560194;0;0.11358778;  9.9987930E+03;  0.0000000E+00; -1.1234025E-01;  1.0000000E+04;  0.0000000E+00;  9.9981768E+03;0.037394486;0.0;0.076193295;255.79471
  1.2200233E+00;  9.9999998E-03;  1.2000711E-01;2911;0.02395642;0.0;0.0069967117;1001.1304;  4.0051872E-01;807.34131;3;17.891436;0.0;4.5884442;0;0.12068333;  9.9988594E+03;  0.0000000E+00; -1.7367713E-01;  1.0000000E+04;  0.0000000E+00;  9.9978164E+03;0.032917604;0.0;0.087765731;344.50589
  1.2200278E+00;  9.9999998E-03;  1.4001019E-01;2912;0.028274443;0.0;0.0096761296;1001.1074;  4.0051872E-01;790.90228;3;21.366035;0.0;6.0918283;0;0.13315783;  9.9988252E+03;  0.0000000E+00; -2.3882121E-01;  1.0000000E+04;  0.0000000E+00;  9.9973926E+03;0.032481331;0.0;0.10067651;442.95563
  1.2400171E+00;  9.9999998E-03; -1.2603315E-12;2926;0.017535374;0.0;-1.1218838e-09;1001.0906;  4.0049636E-01;750.32257;3;12.628716;0.0;-6.3545303e-07;0;0.11613369;  9.9981172E+03;  0.0000000E+00;  1.1695347E-15;  1.0000000E+04;  0.0000000E+00;  9.9988799E+03;0.064581938;0.0;0.051551752;74.789337
  1.2400173E+00;  9.9999998E-03;  2.0000709E-02;2927;0.017699864;0.0;0.00075795513;1001.0892;  4.0049633E-01;749.33813;3;12.735472;0.0;0.57372278;0;0.11703658;  9.9981270E+03;  0.0000000E+00; -3.7774763E-03;  1.0000000E+04;  0.0000000E+00;  9.9988447E+03;0.064067945;0.0;0.052968636;79.269516
  1.2400179E+00;  9.9999998E-03;  4.0001616E-02;2928;0.018257566;0.0;0.001695153;1001.085;  4.0049630E-01;746.46674;3;13.089103;0.0;1.243109;0;0.11955622;  9.9981533E+03;  0.0000000E+00; -1.6834870E-02;  1.0000000E+04;  0.0000000E+00;  9.9987334E+03;0.062521607;0.0;0.057034608;93.593346
  1.2400193E+00;  9.9999998E-03;  6.0002901E-02;2929;0.019422147;0.0;0.0029772704;1001.0784;  4.0049627E-01;741.95416;3;13.857529;0.0;2.1222706;0;0.12352312;  9.9981934E+03;  0.0000000E+00; -4.3036852E-02;  1.0000000E+04;  0.0000000E+00;  9.9985635E+03;0.060239572;0.0;0.06328354;120.55029
  1.2400215E+00;  9.9999998E-03;  8.0004632E-02;2930;0.021487806;0.0;0.0046592336;1001.0681;  4.0049633E-01;734.73389;3;15.325064;0.0;3.2552357;0;0.12982059;  9.9982148E+03;  0.0000000E+00; -8.5532665E-02;  1.0000000E+04;  0.0000000E+00;  9.9983340E+03;0.058478188;0.0;0.071342401;164.0952
  1.2400248E+00;  9.9999998E-03;  1.0000678E-01;2931;0.024558388;0.0;0.0066435714;1001.0518;  4.0049630E-01;723.57562;3;17.660179;0.0;4.5567203;0;0.14018711;  9.9981738E+03;  0.0000000E+00; -1.4279260E-01;  1.0000000E+04;  0.0000000E+00;  9.9980547E+03;0.059328821;0.0;0.08085829;224.52931
  1.2400287E+00;  9.9999998E-03;  1.2000938E-01;2932;0.028294658;0.0;0.0088847186;1001.0286;  4.0049636E-01;707.57806;3;20.731527;0.0;5.9314151;0;0.15518862;  9.9980420E+03;  0.0000000E+00; -2.0338713E-01;  1.0000000E+04;  0.0000000E+00;  9.9977178E+03;0.06360177;0.0;0.091586843;293.20245
  1.2400328E+00;  9.9999998E-03;  1.4001250E-01;2933;0.032065175;0.0;0.011379593;1001.0001;  4.0049636E-01;687.97217;3;24.171778;0.0;7.3473091;0;0.17209339;  9.9978740E+03;  0.0000000E+00; -2.3726565E-01;  1.0000000E+04;  0.0000000E+00;  9.9973154E+03;0.068428911;0.0;0.10366449;347.36325
  1.2600234E+00;  9.9999998E-03; -7.7119967E-13;2944;0.022613194;0.0;-1.1190258e-10;1000.9998;  4.0048054E-01;658.94153;3;15.544264;0.0;-3.6752317e-07;0;0.15504818;  9.9972734E+03;  0.0000000E+00; -3.1479418E-15;  1.0000000E+04;  0.0000000E+00;  9.9987012E+03;0.096842468;0.0;0.058205713;49.221481
  1.2600236E+00;  9.9999998E-03;  2.0001028E-02;2945;0.022858487;0.0;0.0010428044;1000.998;  4.0048048E-01;657.76263;3;15.739237;0.0;0.76406705;0;0.15621082;  9.9972773E+03;  0.0000000E+00; -4.3362030E-03;  1.0000000E+04;  0.0000000E+00;  9.9986660E+03;0.096682161;0.0;0.059528667;52.696243
  1.2600244E+00;  9.9999998E-03;  4.0002301E-02;2946;0.023629148;0.0;0.002302143;1000.9933;  4.0048060E-01;654.61871;3;16.357536;0.0;1.6564218;0;0.15975052;  9.9972793E+03;  0.0000000E+00; -1.9108154E-02;  1.0000000E+04;  0.0000000E+00;  9.9985645E+03;0.096421786;0.0;0.063328736;64.145149
  1.2600259E+00;  9.9999998E-03;  6.0004022E-02;2947;0.024988491;0.0;0.0039349822;1000.9844;  4.0048054E-01;648.80261;3;17.469231;0.0;2.7671466;0;0.16592918;  9.9972686E+03;  0.0000000E+00; -4.8095632E-02;  1.0000000E+04;  0.0000000E+00;  9.9984004E+03;0.096677959;0.0;0.069251224;86.588692
  1.2600280E+00;  9.9999998E-03;  8.0006227E-02;2948;0.026939297;0.0;0.0059441631;1000.9708;  4.0048048E-01;639.7644;3;19.118191;0.0;4.0938988;0;0.17527452;  9.9972197E+03;  0.0000000E+00; -9.2149638E-02;  1.0000000E+04;  0.0000000E+00;  9.9981787E+03;0.09817265;0.0;0.077101879;122.6867
  1.2600305E+00;  9.9999998E-03;  1.0000879E-01;2949;0.029243845;0.0;0.0081732515;1000.9529;  4.0048054E-01;628.05444;3;21.190928;0.0;5.5519762;0;0.18634969;  9.9971445E+03;  0.0000000E+00; -1.3915545E-01;  1.0000000E+04;  0.0000000E+00;  9.9978984E+03;0.099743925;0.0;0.086605757;166.61827
  1.2600330E+00;  9.9999998E-03;  1.2001161E-01;2950;0.031462729;0.0;0.010519443;1000.9359;  4.0048051E-01;616.73749;3;23.465416;0.0;7.1052547;0;0.19457114;  9.9971426E+03;  0.0000000E+00; -1.5631440E-01;  1.0000000E+04;  0.0000000E+00;  9.9975566E+03;0.097163588;0.0;0.097407557;199.89581
  1.2600350E+00;  9.9999998E-03;  1.4001463E-01;2951;0.033314943;0.0;0.012811752;1000.9257;  4.0048054E-01;610.13519;3;26.116125;0.0;8.3792486;0;0.19497213;  9.9973379E+03;  0.0000000E+00; -9.4500236E-02;  1.0000000E+04;  0.0000000E+00;  9.9971582E+03;0.085818879;0.0;0.10915324;210.26802
  1.2800303E+00;  9.9999998E-03;  1.1235639E-12;2959;0.028086632;0.0;1.3271108e-09;1000.9003;  4.0046951E-01;565.9325;3;19.423868;0.0;2.3788307e-06;0;0.21078765;  9.9960107E+03;  0.0000000E+00; -5.8180834E-15;  1.0000000E+04;  0.0000000E+00;  9.9985293E+03;0.14620858;0.0;0.064579062;9.3860884
  1.2800304E+00;  9.9999998E-03;  2.0001320E-02;2960;0.028203217;0.0;0.0012672404;1000.9001;  4.0046945E-01;565.85742;3;19.557442;0.0;0.91497761;0;0.21072927;  9.9960371E+03;  0.0000000E+00; -3.0443645E-03;  1.0000000E+04;  0.0000000E+00;  9.9984971E+03;0.14492092;0.0;0.065808356;12.850821
  1.2800307E+00;  9.9999998E-03;  4.0002972E-02;2961;0.028548984;0.0;0.002817871;1000.8995;  4.0046948E-01;565.40723;3;19.965675;0.0;2.0111675;0;0.21038426;  9.9961289E+03;  0.0000000E+00; -1.3229953E-02;  1.0000000E+04;  0.0000000E+00;  9.9983984E+03;0.14094453;0.0;0.069439739;24.178261
  1.2800313E+00;  9.9999998E-03;  6.0005199E-02;2962;0.029115142;0.0;0.0048440462;1000.8984;  4.0046945E-01;564.73193;3;20.673355;0.0;3.4140644;0;0.20968249;  9.9962725E+03;  0.0000000E+00; -3.1406958E-02;  1.0000000E+04;  0.0000000E+00;  9.9982295E+03;0.13411218;0.0;0.075570315;44.389111
  1.2800322E+00;  9.9999998E-03;  8.0007978E-02;2963;0.029769698;0.0;0.0072862562;1000.8968;  4.0046948E-01;563.75659;3;21.519707;0.0;5.0967236;0;0.20759243;  9.9964932E+03;  0.0000000E+00; -4.9413901E-02;  1.0000000E+04;  0.0000000E+00;  9.9979756E+03;0.12294932;0.0;0.084643111;72.308769
  1.2800330E+00;  9.9999998E-03;  1.0001090E-01;2964;0.030557174;0.0;0.00977509;1000.8964;  4.0046951E-01;563.45563;3;22.866314;0.0;6.8822198;0;0.20390365;  9.9968164E+03;  0.0000000E+00; -3.8457960E-02;  1.0000000E+04;  0.0000000E+00;  9.9976445E+03;0.10793462;0.0;0.095969029;102.12354
  1.2800336E+00;  9.9999998E-03;  1.2001372E-01;2965;0.031212801;0.0;0.011868158;1000.9044;  4.0046957E-01;568.47565;3;24.713081;0.0;8.0296345;0;0.19204758;  9.9973457E+03;  0.0000000E+00;  3.7012041E-02;  1.0000000E+04;  0.0000000E+00;  9.9972715E+03;0.085061766;0.0;0.10698581;144.46672
  1.3000323E+00;  9.9999998E-03;  7.6856945E-13;2970;0.029032324;0.0;8.864125e-10;1000.8813;  4.0046206E-01;526.98022;3;21.018513;0.0;-9.6095027e-07;0;0.20459077;  9.9961494E+03;  0.0000000E+00; -1.1679685E-14;  1.0000000E+04;  0.0000000E+00;  9.9983809E+03;0.13440087;0.0;0.070189901;2.9818664
  1.3000323E+00;  9.9999998E-03;  2.0001611E-02;2971;0.029029148;0.0;0.0014834137;1000.8835;  4.0046203E-01;528.33453;3;21.093042;0.0;1.1049069;0;0.20266998;  9.9962256E+03;  0.0000000E+00;  6.7345332E-04;  1.0000000E+04;  0.0000000E+00;  9.9983496E+03;0.1312864;0.0;0.071383588;7.1560006
  1.3000321E+00;  9.9999998E-03;  4.0003650E-02;2972;0.028999384;0.0;0.0033281005;1000.8899;  4.0046206E-01;532.11249;3;21.308815;0.0;2.4634569;0;0.19689487;  9.9964590E+03;  0.0000000E+00;  4.9252454E-03;  1.0000000E+04;  0.0000000E+00;  9.9982432E+03;0.12167709;0.0;0.075217776;20.402273
  1.3000320E+00;  9.9999998E-03;  6.0006410E-02;2973;0.028904725;0.0;0.0057615493;1000.8995;  4.0046203E-01;537.81519;3;21.659897;0.0;4.2405262;0;0.18808433;  9.9968574E+03;  0.0000000E+00;  2.2116825E-02;  1.0000000E+04;  0.0000000E+00;  9.9980352E+03;0.10524842;0.0;0.082835913;45.882095
  1.3000318E+00;  9.9999998E-03;  8.0009773E-02;2974;0.028809108;0.0;0.0086099561;1000.9084;  4.0046203E-01;543.16168;3;22.358593;0.0;6.2696199;0;0.1793979;  9.9973945E+03;  0.0000000E+00;  7.2736263E-02;  1.0000000E+04;  0.0000000E+00;  9.9976729E+03;0.083650909;0.0;0.095746987;90.544807
 -1.6700017E-08;  9.9999998E-03;  1.6000000E-01;1053;-3.754285e-05;0.0;3.8319049e-06;1000.0004;  4.0000001E-01;0.3950505;3;-0.062676504;0.0;0.0063125198;0;-0.0007524729;  1.0000009E+04;  0.0000000E+00;  1.3276165E-11;  1.0000000E+04;  0.0000000E+00;  1.0000000E+04;-0.00077921315;0.0;2.6740254e-05;0.13313457
 -1.6072331E-08;  9.9999998E-03;  1.8000001E-01;1054;-3.6224323e-05;0.0;4.6304071e-06;1000.0004;  4.0000001E-01;0.3950505;3;-0.060627304;0.0;0.007689815;0;-0.00072419643;  1.0000008E+04;  0.0000000E+00; -1.2028442E-11;  1.0000000E+04;  0.0000000E+00;  1.0000000E+04;-0.00075093191;0.0;2.6735472e-05;0.13173296
 -1.5254001E-08;  9.9999998E-03;  2.0000000E-01;1055;-3.4463079e-05;0.0;5.4726247e-06;1000.0004;  4.0000001E-01;0.29628786;3;-0.057849854;0.0;0.009150045;0;-0.00068854669;  1.0000008E+04;  0.0000000E+00; -3.0589264E-12;  1.0000000E+04;  0.0000000E+00;  1.0000000E+04;-0.00071210845;0.0;2.3561754e-05;0.11774351
 -1.4200318E-08;  9.9999998E-03;  2.2000000E-01;1056;-3.2149561e-05;0.0;6.3227712e-06;1000.0004;  4.0000001E-01;0.29628786;3;-0.054186985;0.0;0.010654029;0;-0.00064396107;  1.0000008E+04;  0.0000000E+00;  1.1481790E-11;  1.0000000E+04;  0.0000000E+00;  1.0000000E+04;-0.00065940351;0.0;1.5442409e-05;0.083826795
 -1.2876431E-08;  9.9999998E-03;  2.4000001E-01;1057;-2.9197945e-05;0.0;7.0886335e-06;1000.0004;  4.0000001E-01;0.29628786;3;-0.04952158;0.0;0.012058659;0;-0.00058822165;  1.0000007E+04;  0.0000000E+00; -1.7936755E-12;  1.0000000E+04;  0.0000000E+00;  1.0000000E+04;-0.00058983936;0.0;1.6177055e-06;0.026550239
 -1.1231980E-08;  9.9999998E-03;  2.5999999E-01;1058;-2.5494168e-05;0.0;7.7143568e-06;1000.0002;  4.0000001E-01;0.19752525;3;-0.043656044;0.0;0.013280459;0;-0.00051908725;  1.0000006E+04;  0.0000000E+00;  1.6092270E-11;  1.0000000E+04;  0.0000000E+00;  1.0000000E+04;-0.00050256861;0.0;-1.6518619e-05;0.048793416
 -9.2878105E-09;  9.9999998E-03;  2.8000000E-01;1059;-2.1105581e-05;0.0;7.9898291e-06;1000.0002;  4.0000001E-01;0.19752525;3;-0.03664289;0.0;0.013948422;0;-0.0004358048;  1.0000004E+04;  0.0000000E+00; -6.8647871E-13;  1.0000000E+04;  0.0000000E+00;  1.0000000E+04;-0.00040105029;0.0;-3.4754514e-05;0.12541918
  1.9999975E-02;  9.9999998E-03;  1.6000000E-01;1083;-5.5853499e-05;0.0;5.53256e-06;1000.0005;  4.0000001E-01;0.49381313;3;-0.089608341;0.0;0.0087118996;0;-0.0009783319;  1.0000012E+04;  0.0000000E+00; -1.0691039E-11;  1.0000000E+04;  0.0000000E+00;  1.0000000E+04;-0.0010174962;0.0;3.916429e-05;0.19582295
  1.9999975E-02;  9.9999998E-03;  1.8000001E-01;1084;-5.4010554e-05;0.0;6.658815e-06;1000.0005;  4.0000001E-01;0.3950505;3;-0.086894557;0.0;0.010574393;0;-0.00094402401;  1.0000011E+04;  0.0000000E+00; -3.0009464E-11;  1.0000000E+04;  0.0000000E+00;  1.0000000E+04;-0.00098333252;0.0;3.9308532e-05;0.19466299
  1.9999977E-02;  9.9999998E-03;  2.0000000E-01;1085;-5.1491697e-05;0.0;7.8493758e-06;1000.0005;  4.0000001E-01;0.3950505;3;-0.083109297;0.0;0.012565787;0;-0.00090063404;  1.0000011E+04;  0.0000000E+00; -1.0219247E-11;  1.0000000E+04;  0.0000000E+00;  1.0000000E+04;-0.00093557645;0.0;3.4942386e-05;0.17514428
  1.9999979E-02;  9.9999998E-03;  2.2000000E-01;1086;-4.8100428e-05;0.0;9.036462e-06;1000.0005;  4.0000001E-01;0.3950505;3;-0.077995971;0.0;0.014581003;0;-0.00084611331;  1.0000011E+04;  0.0000000E+00; -3.7080001E-12;  1.0000000E+04;  0.0000000E+00;  1.0000000E+04;-0.00086958538;0.0;2.3472086e-05;0.12626207
  1.9999981E-02;  9.9999998E-03;  2.4000001E-01;1087;-4.3678665e-05;0.0;1.0007996e-05;1000.0004;  4.0000001E-01;0.3950505;3;-0.07134328;0.0;0.016306859;0;-0.00077738042;  1.0000009E+04;  0.0000000E+00; -2.2409175E-11;  1.0000000E+04;  0.0000000E+00;  1.0000000E+04;-0.00078109303;0.0;3.7125956e-06;0.042567942
  1.9999983E-02;  9.9999998E-03;  2.5999999E-01;1088;-3.7980146e-05;0.0;1.070548e-05;1000.0004;  4.0000001E-01;0.3950505;3;-0.062738039;0.0;0.017659904;0;-0.00069114973;  1.0000008E+04;  0.0000000E+00; -1.8695481E-11;  1.0000000E+04;  0.0000000E+00;  1.0000000E+04;-0.00066863681;0.0;-2.251293e-05;0.068848312
  1.9999987E-02;  9.9999998E-03;  2.8000000E-01;1089;-3.0945455e-05;0.0;1.0888374e-05;1000.0004;  4.0000001E-01;0.29628786;3;-0.051931705;0.0;0.018240333;0;-0.00058595551;  1.0000006E+04;  0.0000000E+00;  2.1142352E-12;  1.0000000E+04;  0.0000000E+00;  1.0000000E+04;-0.0005365283;0.0;-4.9427221e-05;0.18429534
  1.9999990E-02;  9.9999998E-03;  3.0000001E-01;1090;-2.2696822e-05;0.0;1.1287502e-05;1000.0002;  4.0000001E-01;0.19752525;3;-0.038787752;0.0;0.019436002;0;-0.00046501678;  1.0000004E+04;  0.0000000E+00; -4.8441823E-11;  1.0000000E+04;  0.0000000E+00;  1.0000000E+04;-0.00039656088;0.0;-6.8455898e-05;0.26866099
  3.9999962E-02;  9.9999998E-03;  1.6000000E-01;1114;-8.0900892e-05;0.0;7.2775279e-06;1000.0007;  4.0000001E-01;0.59257573;3;-0.12527718;0.0;0.010906281;0;-0.0012435383;  1.0000015E+04;  0.0000000E+00; -2.3657474E-11;  1.0000000E+04;  0.0000000E+00;  1.0000000E+04;-0.0012974476;0.0;5.3909229e-05;0.27448779
  3.9999966E-02;  9.9999998E-03;  1.8000001E-01;1115;-7.8397767e-05;0.0;8.7362532e-06;1000.0007;  4.0000001E-01;0.59257573;3;-0.12176895;0.0;0.013206106;0;-0.0012035944;  1.0000015E+04;  0.0000000E+00; -3.7962258E-11;  1.0000000E+04;  0.0000000E+00;  1.0000000E+04;-0.0012579638;0.0;5.436943e-05;0.27427819
  3.9999966E-02;  9.9999998E-03;  2.0000000E-01;1116;-7.4912794e-05;0.0;1.0264309e-05;1000.0007;  4.0000001E-01;0.59257573;3;-0.11676189;0.0;0.015640639;0;-0.0011525967;  1.0000015E+04;  0.0000000E+00; -7.0755125E-12;  1.0000000E+04;  0.0000000E+00;  1.0000000E+04;-0.0012013919;0.0;4.87953e-05;0.24871105
  3.9999969E-02;  9.9999998E-03;  2.2000000E-01;1117;-7.0125439e-05;0.0;1.1791379e-05;1000.0007;  4.0000001E-01;0.59257573;3;-0.10985214;0.0;0.018118717;0;-0.0010877805;  1.0000014E+04;  0.0000000E+00;  1.3987794E-11;  1.0000000E+04;  0.0000000E+00;  1.0000000E+04;-0.0011213402;0.0;3.3559794e-05;0.18191724
  3.9999969E-02;  9.9999998E-03;  2.4000001E-01;1118;-6.3773281e-05;0.0;1.3024037e-05;1000.0006;  4.0000001E-01;0.49381313;3;-0.10072216;0.0;0.020216644;0;-0.0010047855;  1.0000011E+04;  0.0000000E+00;  1.0200375E-11;  1.0000000E+04;  0.0000000E+00;  1.0000000E+04;-0.0010116678;0.0;6.882261e-06;0.065549031
  3.9999973E-02;  9.9999998E-03;  2.6000002E-01;1119;-5.5493096e-05;0.0;1.3940797e-05;1000.0005;  4.0000001E-01;0.3950505;3;-0.088778131;0.0;0.021950172;0;-0.00089873112;  1.0000011E+04;  0.0000000E+00; -6.7409675E-11;  1.0000000E+04;  0.0000000E+00;  1.0000000E+04;-0.00086974812;0.0;-2.8983002e-05;0.091357663
  3.9999980E-02;  9.9999998E-03;  2.8000000E-01;1120;-4.5298671e-05;0.0;1.4291573e-05;1000.0004;  4.0000001E-01;0.3950505;3;-0.073806025;0.0;0.022925932;0;-0.00076699414;  1.0000008E+04;  0.0000000E+00; -6.0835434E-11;  1.0000000E+04;  0.0000000E+00;  1.0000000E+04;-0.00070054212;0.0;-6.6451998e-05;0.25660279
  3.9999984E-02;  9.9999998E-03;  3.0000001E-01;1121;-3.3328874e-05;0.0;1.4369984e-05;1000.0004;  4.0000001E-01;0.29628786;3;-0.055481177;0.0;0.023745701;0;-0.00061364035;  1.0000007E+04;  0.0000000E+00; -5.3693217E-11;  1.0000000E+04;  0.0000000E+00;  1.0000001E+04;-0.00051937823;0.0;-9.4262148e-05;0.38230246
  5.9999947E-02;  9.9999998E-03;  1.6000001E-01;1145;-0.00011310843;0.0;9.2082382e-06;1000.001;  4.0000001E-01;0.79010099;3;-0.169829;0.0;0.013119988;0;-0.0015763512;  1.0000021E+04;  0.0000000E+00;  1.9381930E-11;  1.0000000E+04;  0.0000000E+00;  1.0000000E+04;-0.0016477579;0.0;7.140667e-05;0.37427214
  5.9999950E-02;  9.9999998E-03;  1.8000001E-01;1146;-0.00010986041;0.0;1.1048548e-05;1000.0009;  4.0000001E-01;0.79010099;3;-0.1654821;0.0;0.015882136;0;-0.0015307294;  1.0000020E+04;  0.0000000E+00;  2.7794325E-12;  1.0000000E+04;  0.0000000E+00;  1.0000000E+04;-0.0016031587;0.0;7.2429255e-05;0.37610766
  5.9999950E-02;  9.9999998E-03;  2.0000000E-01;1147;-0.00010525319;0.0;1.2990388e-05;1000.0009;  4.0000001E-01;0.69133836;3;-0.15912785;0.0;0.018833937;0;-0.0014715631;  1.0000019E+04;  0.0000000E+00; -3.0841277E-11;  1.0000000E+04;  0.0000000E+00;  1.0000000E+04;-0.0015372514;0.0;6.568824e-05;0.34403485
  5.9999954E-02;  9.9999998E-03;  2.2000001E-01;1148;-9.8817378e-05;0.0;1.4937069e-05;1000.0009;  4.0000001E-01;0.69133836;3;-0.15020666;0.0;0.021849021;0;-0.0013950429;  1.0000019E+04;  0.0000000E+00;  1.3970710E-11;  1.0000000E+04;  0.0000000E+00;  1.0000000E+04;-0.0014412774;0.0;4.6234622e-05;0.25567147
  5.9999958E-02;  9.9999998E-03;  2.4000001E-01;1149;-9.0146073e-05;0.0;1.6524838e-05;1000.0008;  4.0000001E-01;0.69133836;3;-0.13824552;0.0;0.02444155;0;-0.0012949759;  1.0000016E+04;  0.0000000E+00; -5.6309967E-11;  1.0000000E+04;  0.0000000E+00;  1.0000000E+04;-0.0013064233;0.0;1.1447471e-05;0.098482519
  5.9999965E-02;  9.9999998E-03;  2.6000002E-01;1150;-7.8712321e-05;0.0;1.7745457e-05;1000.0007;  4.0000001E-01;0.59257573;3;-0.12242745;0.0;0.026681762;0;-0.00116422;  1.0000014E+04;  0.0000000E+00; -5.8284884E-11;  1.0000000E+04;  0.0000000E+00;  1.0000000E+04;-0.0011282093;0.0;-3.6010744e-05;0.11644672
  5.9999969E-02;  9.9999998E-03;  2.8000000E-01;1151;-6.4540523e-05;0.0;1.8170145e-05;1000.0006;  4.0000001E-01;0.49381313;3;-0.10246011;0.0;0.027906526;0;-0.00099860795;  1.0000011E+04;  0.0000000E+00; -1.6418392E-08;  1.0000000E+04;  0.0000000E+00;  1.0000000E+04;-0.00091224734;0.0;-8.6360582e-05;0.34595194
  5.9999976E-02;  9.9999998E-03;  3.0000001E-01;1152;-4.7614707e-05;0.0;1.8258026e-05;1000.0004;  4.0000001E-01;0.3950505;3;-0.077447906;0.0;0.028992299;0;-0.00080318097;  1.0000008E+04;  0.0000000E+00; -6.1392377E-08;  1.0000000E+04;  0.0000000E+00;  1.0000001E+04;-0.0006784639;0.0;-0.00012471706;0.52431625
  7.9999924E-02;  9.9999998E-03;  1.6000001E-01;1176;-0.00015388784;0.0;1.1452924e-05;1000.0013;  4.0000001E-01;1.0863888;3;-0.22485892;0.0;0.015523359;0;-0.0020075543;  1.0000025E+04;  0.0000000E+00; -1.2604066E-11;  1.0000000E+04;  0.0000000E+00;  9.9999990E+03;-0.0021003184;0.0;9.2764036e-05;0.5038057
  7.9999931E-02;  9.9999998E-03;  1.8000001E-01;1177;-0.00014985472;0.0;1.3749382e-05;1000.0012;  4.0000001E-01;0.98762625;3;-0.21972704;0.0;0.018810142;0;-0.0019559872;  1.0000024E+04;  0.0000000E+00; -5.7100475E-12;  1.0000000E+04;  0.0000000E+00;  9.9999990E+03;-0.0020506687;0.0;9.4681607e-05;0.50931025
  7.9999931E-02;  9.9999998E-03;  2.0000000E-01;1178;-0.00014401345;0.0;1.6191218e-05;1000.0012;  4.0000001E-01;0.98762625;3;-0.21199468;0.0;0.022351874;0;-0.0018877235;  1.0000024E+04;  0.0000000E+00; -7.1175087E-11;  1.0000000E+04;  0.0000000E+00;  1.0000000E+04;-0.0019745268;0.0;8.6803288e-05;0.47015679
  7.9999939E-02;  9.9999998E-03;  2.2000001E-01;1179;-0.00013569844;0.0;1.8656978e-05;1000.0012;  4.0000001E-01;0.98762625;3;-0.20090169;0.0;0.026009588;0;-0.0017974582;  1.0000022E+04;  0.0000000E+00; -2.1705580E-11;  1.0000000E+04;  0.0000000E+00;  1.0000000E+04;-0.0018599514;0.0;6.2493273e-05;0.35525587
  7.9999939E-02;  9.9999998E-03;  2.4000001E-01;1180;-0.00012430565;0.0;2.0685382e-05;1000.001;  4.0000001E-01;0.88886362;3;-0.18577561;0.0;0.029204806;0;-0.0016765083;  1.0000021E+04;  0.0000000E+00; -1.6790081E-07;  1.0000000E+04;  0.0000000E+00;  1.0000000E+04;-0.0016944995;0.0;1.7991162e-05;0.14619514
  7.9999946E-02;  9.9999998E-03;  2.6000002E-01;1181;-0.00010904052;0.0;2.2314192e-05;1000.0009;  4.0000001E-01;0.79010099;3;-0.16544679;0.0;0.032103654;0;-0.0015152369;  1.0000019E+04;  0.0000000E+00; -1.4838132E-06;  1.0000000E+04;  0.0000000E+00;  1.0000000E+04;-0.0014715719;0.0;-4.3665059e-05;0.14395164
  7.9999961E-02;  9.9999998E-03;  2.8000000E-01;1182;-8.9847126e-05;0.0;2.2962538e-05;1000.0009;  4.0000001E-01;0.69133836;3;-0.13938446;0.0;0.033822469;0;-0.0013074032;  1.0000015E+04;  0.0000000E+00; -4.1429789E-06;  1.0000000E+04;  0.0000000E+00;  1.0000001E+04;-0.001197388;0.0;-0.0001100151;0.45779493
  7.9999968E-02;  9.9999998E-03;  3.0000001E-01;1183;-6.6529967e-05;0.0;2.3327029e-05;1000.0007;  4.0000001E-01;0.59257573;3;-0.10597707;0.0;0.035742179;0;-0.0010582173;  1.0000011E+04;  0.0000000E+00; -7.2400899E-06;  1.0000000E+04;  0.0000000E+00;  1.0000002E+04;-0.00089673244;0.0;-0.00016148482;0.70563996
  9.9999897E-02;  9.9999998E-03;  1.6000001E-01;1207;-0.00020551895;0.0;1.4158171e-05;1000.0016;  4.0000001E-01;1.3826767;3;-0.29283604;0.0;0.018271575;0;-0.0025688095;  1.0000035E+04;  0.0000000E+00; -6.0906440E-11;  1.0000000E+04;  0.0000000E+00;  9.9999990E+03;-0.0026886761;0.0;0.00011986646;0.67595792
  9.9999905E-02;  9.9999998E-03;  1.8000001E-01;1208;-0.00020069249;0.0;1.7005606e-05;1000.0016;  4.0000001E-01;1.2839141;3;-0.28705329;0.0;0.022162857;0;-0.0025111511;  1.0000034E+04;  0.0000000E+00; -3.6530272E-11;  1.0000000E+04;  0.0000000E+00;  9.9999990E+03;-0.0026343162;0.0;0.00012316497;0.68781275
  9.9999905E-02;  9.9999998E-03;  2.0000000E-01;1209;-0.00019352783;0.0;2.00494e-05;1000.0016;  4.0000001E-01;1.2839141;3;-0.27798912;0.0;0.026386127;0;-0.0024329473;  1.0000033E+04;  0.0000000E+00;  3.0602554E-12;  1.0000000E+04;  0.0000000E+00;  9.9999990E+03;-0.002547157;0.0;0.00011420967;0.64131957
  9.9999912E-02;  9.9999998E-03;  2.2000001E-01;1210;-0.00018310308;0.0;2.3139375e-05;1000.0015;  4.0000001E-01;1.1851515;3;-0.2646192;0.0;0.030787311;0;-0.0023272764;  1.0000030E+04;  0.0000000E+00; -7.7403769E-07;  1.0000000E+04;  0.0000000E+00;  1.0000000E+04;-0.0024115425;0.0;8.4266023e-05;0.49397597
  9.9999920E-02;  9.9999998E-03;  2.4000001E-01;1211;-0.0001685546;0.0;2.5697991e-05;1000.0013;  4.0000001E-01;1.0863888;3;-0.24604255;0.0;0.034665421;0;-0.0021841719;  1.0000029E+04;  0.0000000E+00; -6.4514134E-06;  1.0000000E+04;  0.0000000E+00;  1.0000000E+04;-0.0022121693;0.0;2.7997514e-05;0.22061478
  9.9999927E-02;  9.9999998E-03;  2.6000002E-01;1212;-0.00014868457;0.0;2.7886857e-05;1000.0013;  4.0000001E-01;1.0863888;3;-0.22056553;0.0;0.038422219;0;-0.0019914666;  1.0000025E+04;  0.0000000E+00; -2.2218572E-05;  1.0000000E+04;  0.0000000E+00;  1.0000000E+04;-0.0019400204;0.0;-5.1446325e-05;0.19407205
  9.9999942E-02;  9.9999998E-03;  2.8000000E-01;1213;-0.00012324617;0.0;2.9003222e-05;1000.0012;  4.0000001E-01;0.98762625;3;-0.18721762;0.0;0.041038908;0;-0.0017382044;  1.0000021E+04;  0.0000000E+00; -4.6482990E-05;  1.0000000E+04;  0.0000000E+00;  1.0000001E+04;-0.0015997884;0.0;-0.00013841591;0.62797093
  9.9999957E-02;  9.9999998E-03;  3.0000001E-01;1214;-9.1752881e-05;0.0;3.003663e-05;1000.0009;  4.0000001E-01;0.69133836;3;-0.14335681;0.0;0.044501998;0;-0.0014257147;  1.0000016E+04;  0.0000000E+00; -7.1703798E-05;  1.0000000E+04;  0.0000000E+00;  1.0000002E+04;-0.0012186373;0.0;-0.00020707739;0.98612577
  1.1999986E-01;  9.9999998E-03;  1.6000001E-01;1238;-0.00027116633;0.0;1.7511855e-05;1000.0021;  4.0000001E-01;1.7777272;3;-0.37692755;0.0;0.021561783;0;-0.0032927194;  1.0000045E+04;  0.0000000E+00;  4.0844494E-11;  1.0000000E+04;  0.0000000E+00;  9.9999980E+03;-0.0034483087;0.0;0.00015558921;0.90934348
  1.1999987E-01;  9.9999998E-03;  1.8000001E-01;1239;-0.00026556468;0.0;2.1040034e-05;1000.0021;  4.0000001E-01;1.7777272;3;-0.37069279;0.0;0.026158851;0;-0.0032291315;  1.0000044E+04;  0.0000000E+00; -1.1103303E-10;  1.0000000E+04;  0.0000000E+00;  9.9999980E+03;-0.0033903904;0.0;0.000161259;0.93325973
  1.1999987E-01;  9.9999998E-03;  2.0000002E-01;1240;-0.00025699678;0.0;2.4822226e-05;1000.0021;  4.0000001E-01;1.7777272;3;-0.36042306;0.0;0.031180095;0;-0.0031409585;  1.0000043E+04;  0.0000000E+00; -7.7258539E-07;  1.0000000E+04;  0.0000000E+00;  9.9999980E+03;-0.0032928076;0.0;0.00015184902;0.88235426
  1.1999988E-01;  9.9999998E-03;  2.2000001E-01;1241;-0.00024423425;0.0;2.86581e-05;1000.002;  4.0000001E-01;1.6789646;3;-0.34478992;0.0;0.036424488;0;-0.0030223015;  1.0000041E+04;  0.0000000E+00; -9.8482406E-06;  1.0000000E+04;  0.0000000E+00;  9.9999990E+03;-0.0031382702;0.0;0.0001159688;0.70019609
  1.1999989E-01;  9.9999998E-03;  2.4000002E-01;1242;-0.00022604398;0.0;3.1898453e-05;1000.0018;  4.0000001E-01;1.4814394;3;-0.32256684;0.0;0.041120991;0;-0.0028646311;  1.0000038E+04;  0.0000000E+00; -4.5563400E-05;  1.0000000E+04;  0.0000000E+00;  1.0000000E+04;-0.0029102087;0.0;4.557761e-05;0.39374149
  1.1999990E-01;  9.9999998E-03;  2.6000002E-01;1243;-0.00020071203;0.0;3.4852957e-05;1000.0018;  4.0000001E-01;1.4814394;3;-0.2913866;0.0;0.046000026;0;-0.002652789;  1.0000034E+04;  0.0000000E+00; -1.2425482E-04;  1.0000000E+04;  0.0000000E+00;  1.0000000E+04;-0.0025958915;0.0;-5.6897603e-05;0.56144381
  1.1999992E-01;  9.9999998E-03;  2.8000003E-01;1244;-0.00016760771;0.0;3.6810841e-05;1000.0015;  4.0000001E-01;1.2839141;3;-0.24953654;0.0;0.050101437;0;-0.0023657777;  1.0000029E+04;  0.0000000E+00; -2.3826469E-04;  1.0000000E+04;  0.0000000E+00;  1.0000002E+04;-0.0021938672;0.0;-0.00017191039;1.2714013
  1.1999994E-01;  9.9999998E-03;  3.0000001E-01;1245;-0.00012578594;0.0;3.8985891e-05;1000.0013;  4.0000001E-01;1.0863888;3;-0.19291238;0.0;0.055970401;0;-0.0019880182;  1.0000021E+04;  0.0000000E+00; -3.3954525E-04;  1.0000000E+04;  0.0000000E+00;  1.0000003E+04;-0.0017232838;0.0;-0.00026473447;1.9053875
  1.3999982E-01;  9.9999998E-03;  1.6000001E-01;1269;-0.00035488358;0.0;2.1759861e-05;1000.0029;  4.0000001E-01;2.3703029;3;-0.48091978;0.0;0.025646187;0;-0.0042144195;  1.0000061E+04;  0.0000000E+00;  1.0668109E-11;  1.0000000E+04;  0.0000000E+00;  9.9999980E+03;-0.0044187433;0.0;0.00020432365;1.2315048
  1.3999982E-01;  9.9999998E-03;  1.8000002E-01;1270;-0.00034856543;0.0;2.6186553e-05;1000.0028;  4.0000001E-01;2.3703029;3;-0.47454777;0.0;0.031143177;0;-0.0041452148;  1.0000061E+04;  0.0000000E+00; -1.7022623E-07;  1.0000000E+04;  0.0000000E+00;  9.9999980E+03;-0.0043600234;0.0;0.00021480845;1.2812186
  1.3999982E-01;  9.9999998E-03;  2.0000002E-01;1271;-0.0003385295;0.0;3.0960458e-05;1000.0027;  4.0000001E-01;2.2715404;3;-0.46330103;0.0;0.037200667;0;-0.0040494213;  1.0000058E+04;  0.0000000E+00; -6.6118755E-06;  1.0000000E+04;  0.0000000E+00;  9.9999980E+03;-0.0042569176;0.0;0.00020749633;1.2395128
  1.3999984E-01;  9.9999998E-03;  2.2000001E-01;1272;-0.00032319588;0.0;3.5743094e-05;1000.0026;  4.0000001E-01;2.1727777;3;-0.44555673;0.0;0.043430261;0;-0.0039269971;  1.0000055E+04;  0.0000000E+00; -4.6795176E-05;  1.0000000E+04;  0.0000000E+00;  9.9999980E+03;-0.0040939436;0.0;0.00016694653;1.0445029
  1.3999985E-01;  9.9999998E-03;  2.4000002E-01;1273;-0.00030083279;0.0;3.9909974e-05;1000.0025;  4.0000001E-01;2.0740151;3;-0.4195846;0.0;0.049230386;0;-0.0037757368;  1.0000052E+04;  0.0000000E+00; -1.7474171E-04;  1.0000000E+04;  0.0000000E+00;  1.0000000E+04;-0.0038557267;0.0;7.9989957e-05;0.94747758
  1.3999987E-01;  9.9999998E-03;  2.6000002E-01;1274;-0.00026914236;0.0;4.3869579e-05;1000.0024;  4.0000001E-01;1.9752525;3;-0.38234788;0.0;0.055529356;0;-0.0035791232;  1.0000047E+04;  0.0000000E+00; -4.3787633E-04;  1.0000000E+04;  0.0000000E+00;  1.0000000E+04;-0.0035256904;0.0;-5.3432792e-05;1.8964522
  1.3999988E-01;  9.9999998E-03;  2.8000003E-01;1275;-0.0002267856;0.0;4.7185666e-05;1000.0021;  4.0000001E-01;1.7777272;3;-0.33084476;0.0;0.061966091;0;-0.0032975483;  1.0000041E+04;  0.0000000E+00; -8.0948183E-04;  1.0000000E+04;  0.0000000E+00;  1.0000002E+04;-0.0030886033;0.0;-0.00020894512;3.6097982
  1.3999991E-01;  9.9999998E-03;  3.0000004E-01;1276;-0.00017215798;0.0;5.1161202e-05;1000.0019;  4.0000001E-01;1.580202;3;-0.259242;0.0;0.071305498;0;-0.0028736372;  1.0000034E+04;  0.0000000E+00; -1.1222470E-03;  1.0000000E+04;  0.0000000E+00;  1.0000004E+04;-0.0025355744;0.0;-0.00033806276;5.0839157
  1.5999976E-01;  9.9999998E-03;  1.6000001E-01;1300;-0.00046158777;0.0;2.7258504e-05;1000.0038;  4.0000001E-01;3.160404;3;-0.60923505;0.0;0.030915344;0;-0.0053743995;  1.0000080E+04;  0.0000000E+00; -9.1699141E-11;  1.0000000E+04;  0.0000000E+00;  9.9999971E+03;-0.0056472514;0.0;0.00027285199;1.6839368
  1.5999976E-01;  9.9999998E-03;  1.8000002E-01;1301;-0.00045468737;0.0;3.2930544e-05;1000.0037;  4.0000001E-01;3.0616415;3;-0.60318357;0.0;0.037668254;0;-0.0052999789;  1.0000077E+04;  0.0000000E+00; -1.6220824E-06;  1.0000000E+04;  0.0000000E+00;  9.9999961E+03;-0.0055936272;0.0;0.00029364842;1.7898116
  1.5999977E-01;  9.9999998E-03;  2.0000002E-01;1302;-0.00044318277;0.0;3.9107759e-05;1000.0037;  4.0000001E-01;3.0616415;3;-0.59134758;0.0;0.045168638;0;-0.0052004415;  1.0000076E+04;  0.0000000E+00; -2.4592910E-05;  1.0000000E+04;  0.0000000E+00;  9.9999961E+03;-0.005495199;0.0;0.0002947576;1.7938484
  1.5999977E-01;  9.9999998E-03;  2.2000003E-01;1303;-0.0004249973;0.0;4.5340144e-05;1000.0036;  4.0000001E-01;2.9628787;3;-0.57166451;0.0;0.052939136;0;-0.0050880769;  1.0000075E+04;  0.0000000E+00; -1.3722983E-04;  1.0000000E+04;  0.0000000E+00;  9.9999971E+03;-0.0053421026;0.0;0.0002540256;1.6795692
  1.5999979E-01;  9.9999998E-03;  2.4000002E-01;1304;-0.0003978608;0.0;5.0796956e-05;1000.0035;  4.0000001E-01;2.8641162;3;-0.54194021;0.0;0.060245033;0;-0.0049756039;  1.0000071E+04;  0.0000000E+00; -4.6758648E-04;  1.0000000E+04;  0.0000000E+00;  9.9999980E+03;-0.0051245;0.0;0.0001488961;2.2787137
  1.5999982E-01;  9.9999998E-03;  2.6000002E-01;1305;-0.00035890518;0.0;5.5893852e-05;1000.0033;  4.0000001E-01;2.7653534;3;-0.49859595;0.0;0.068065256;0;-0.0048528006;  1.0000067E+04;  0.0000000E+00; -1.1396343E-03;  1.0000000E+04;  0.0000000E+00;  1.0000000E+04;-0.0048258384;0.0;-2.6962167e-05;4.9671617
  1.5999985E-01;  9.9999998E-03;  2.8000003E-01;1306;-0.00030573562;0.0;6.1035847e-05;1000.0032;  4.0000001E-01;2.6665909;3;-0.43685287;0.0;0.077501133;0;-0.0046552946;  1.0000061E+04;  0.0000000E+00; -2.1001031E-03;  1.0000000E+04;  0.0000000E+00;  1.0000003E+04;-0.0044117374;0.0;-0.00024355709;9.1827917
  1.5999988E-01;  9.9999998E-03;  3.0000004E-01;1307;-0.00023585468;0.0;6.7282468e-05;1000.0028;  4.0000001E-01;2.3703029;3;-0.34871304;0.0;0.091064841;0;-0.0042480896;  1.0000053E+04;  0.0000000E+00; -2.9295485E-03;  1.0000000E+04;  0.0000000E+00;  1.0000006E+04;-0.0038176789;0.0;-0.00043041067;12.850597
  1.7999968E-01;  9.9999998E-03;  1.6000003E-01;1331;-0.00059721555;0.0;3.4436704e-05;1000.0049;  4.0000001E-01;4.0492678;3;-0.76703477;0.0;0.037868567;0;-0.0068216799;  1.0000103E+04;  0.0000000E+00; -2.0122670E-08;  1.0000000E+04;  0.0000000E+00;  9.9999951E+03;-0.0071927384;0.0;0.0003710587;2.3266308
  1.7999968E-01;  9.9999998E-03;  1.8000002E-01;1332;-0.0005899574;0.0;4.195264e-05;1000.0048;  4.0000001E-01;3.950505;3;-0.76192605;0.0;0.046532229;0;-0.0067412672;  1.0000103E+04;  0.0000000E+00; -5.2117794E-06;  1.0000000E+04;  0.0000000E+00;  9.9999941E+03;-0.0071537215;0.0;0.00041245457;2.5457451
  1.7999969E-01;  9.9999998E-03;  2.0000003E-01;1333;-0.00057711144;0.0;5.0082752e-05;1000.0048;  4.0000001E-01;3.950505;3;-0.75011188;0.0;0.056040019;0;-0.0066394573;  1.0000100E+04;  0.0000000E+00; -5.7569829E-05;  1.0000000E+04;  0.0000000E+00;  9.9999941E+03;-0.0070734797;0.0;0.00043402216;2.668128
  1.7999971E-01;  9.9999998E-03;  2.2000003E-01;1334;-0.00055596163;0.0;5.8267513e-05;1000.0046;  4.0000001E-01;3.8517423;3;-0.72903752;0.0;0.065767787;0;-0.0065469304;  1.0000099E+04;  0.0000000E+00; -2.8971527E-04;  1.0000000E+04;  0.0000000E+00;  9.9999951E+03;-0.0069502904;0.0;0.00040335994;2.7937672
  1.7999972E-01;  9.9999998E-03;  2.4000004E-01;1335;-0.00052344776;0.0;6.5537053e-05;1000.0046;  4.0000001E-01;3.7529798;3;-0.69572449;0.0;0.075209044;0;-0.0065027354;  1.0000096E+04;  0.0000000E+00; -9.5491851E-04;  1.0000000E+04;  0.0000000E+00;  9.9999961E+03;-0.0067848023;0.0;0.00028206708;4.5912571
  1.7999974E-01;  9.9999998E-03;  2.6000005E-01;1336;-0.0004761274;0.0;7.2166447e-05;1000.0045;  4.0000001E-01;3.7529798;3;-0.64628869;0.0;0.084940672;0;-0.0065189479;  1.0000092E+04;  0.0000000E+00; -2.3298105E-03;  1.0000000E+04;  0.0000000E+00;  1.0000000E+04;-0.0065685282;0.0;4.9580529e-05;10.25966
  1.7999978E-01;  9.9999998E-03;  2.8000006E-01;1337;-0.00041104059;0.0;7.880076e-05;1000.0045;  4.0000001E-01;3.654217;3;-0.57489634;0.0;0.096772283;0;-0.0065142894;  1.0000087E+04;  0.0000000E+00; -4.3652994E-03;  1.0000000E+04;  0.0000000E+00;  1.0000003E+04;-0.0062530213;0.0;-0.00026126823;19.154467
  1.7999983E-01;  9.9999998E-03;  3.0000004E-01;1338;-0.00032406932;0.0;8.7279957e-05;1000.0043;  4.0000001E-01;3.5554545;3;-0.47053191;0.0;0.11406016;0;-0.00623779;  1.0000078E+04;  0.0000000E+00; -6.2266239E-03;  1.0000000E+04;  0.0000000E+00;  1.0000007E+04;-0.0056941099;0.0;-0.00054367993;27.312616
  1.9999957E-01;  9.9999998E-03;  1.6000003E-01;1362;-0.00076902803;0.0;4.3736603e-05;1000.0064;  4.0000001E-01;5.3331819;3;-0.9603433;0.0;0.046974652;0;-0.0086145895;  1.0000137E+04;  0.0000000E+00; -9.2598043E-08;  1.0000000E+04;  0.0000000E+00;  9.9999932E+03;-0.0091263233;0.0;0.0005117337;3.238651
  1.9999957E-01;  9.9999998E-03;  1.8000004E-01;1363;-0.00076176983;0.0;5.3941887e-05;1000.0063;  4.0000001E-01;5.2344189;3;-0.95699531;0.0;0.058507707;0;-0.008524416;  1.0000136E+04;  0.0000000E+00; -9.7250841E-06;  1.0000000E+04;  0.0000000E+00;  9.9999932E+03;-0.0091144359;0.0;0.00059001957;3.6631095
  1.9999959E-01;  9.9999998E-03;  2.0000003E-01;1364;-0.00074789539;0.0;6.4750107e-05;1000.0062;  4.0000001E-01;5.1356564;3;-0.94613945;0.0;0.070742019;0;-0.0084142694;  1.0000132E+04;  0.0000000E+00; -9.6019612E-05;  1.0000000E+04;  0.0000000E+00;  9.9999902E+03;-0.0090658208;0.0;0.00065155129;4.0167217
  1.9999960E-01;  9.9999998E-03;  2.2000004E-01;1365;-0.00072372402;0.0;7.5834949e-05;1000.006;  4.0000001E-01;4.9381313;3;-0.9243449;0.0;0.083578706;0;-0.0083352653;  1.0000132E+04;  0.0000000E+00; -4.6716351E-04;  1.0000000E+04;  0.0000000E+00;  9.9999902E+03;-0.0089855753;0.0;0.00065030996;4.4918647
  1.9999963E-01;  9.9999998E-03;  2.4000005E-01;1366;-0.00068568141;0.0;8.4893654e-05;1000.006;  4.0000001E-01;4.9381313;3;-0.8886289;0.0;0.094644934;0;-0.0083622374;  1.0000129E+04;  0.0000000E+00; -1.5378975E-03;  1.0000000E+04;  0.0000000E+00;  9.9999932E+03;-0.0088851983;0.0;0.00052296103;7.592237
  1.9999966E-01;  9.9999998E-03;  2.6000005E-01;1367;-0.0006290325;0.0;9.34493e-05;1000.0061;  4.0000001E-01;5.0368938;3;-0.83384585;0.0;0.10638049;0;-0.0085485242;  1.0000127E+04;  0.0000000E+00; -3.8128064E-03;  1.0000000E+04;  0.0000000E+00;  9.9999971E+03;-0.0087688584;0.0;0.00022033395;16.999634
  1.9999970E-01;  9.9999998E-03;  2.8000006E-01;1368;-0.00055126887;0.0;0.00010142496;1000.0062;  4.0000001E-01;5.1356564;3;-0.75460815;0.0;0.11990157;0;-0.0088172276;  1.0000123E+04;  0.0000000E+00; -7.3082503E-03;  1.0000000E+04;  0.0000000E+00;  1.0000003E+04;-0.0085840272;0.0;-0.00023320036;32.331879
  1.9999976E-01;  9.9999998E-03;  3.0000007E-01;1369;-0.00044566346;0.0;0.00011229768;1000.0062;  4.0000001E-01;5.1356564;3;-0.63555175;0.0;0.14072192;0;-0.0087748254;  1.0000112E+04;  0.0000000E+00; -1.0642530E-02;  1.0000000E+04;  0.0000000E+00;  1.0000011E+04;-0.0081025753;0.0;-0.00067225011;47.023567
  2.1999943E-01;  9.9999998E-03;  1.6000004E-01;1393;-0.00098580727;0.0;5.5590619e-05;1000.0083;  4.0000001E-01;6.9133835;3;-1.1960813;0.0;0.058660358;0;-0.010822116;  1.0000177E+04;  0.0000000E+00; -1.1094404E-07;  1.0000000E+04;  0.0000000E+00;  9.9999893E+03;-0.011531179;0.0;0.00070906227;4.5127125
  2.1999943E-01;  9.9999998E-03;  1.8000004E-01;1394;-0.0009791503;0.0;6.9507914e-05;1000.0082;  4.0000001E-01;6.814621;3;-1.1956179;0.0;0.074197814;0;-0.010715059;  1.0000176E+04;  0.0000000E+00; -1.1863154E-05;  1.0000000E+04;  0.0000000E+00;  9.9999883E+03;-0.011561736;0.0;0.00084667781;5.2732558
  2.1999945E-01;  9.9999998E-03;  2.0000005E-01;1395;-0.00096474477;0.0;8.4270061e-05;1000.008;  4.0000001E-01;6.6170959;3;-1.1869034;0.0;0.090555459;0;-0.010581217;  1.0000173E+04;  0.0000000E+00; -1.1877025E-04;  1.0000000E+04;  0.0000000E+00;  9.9999873E+03;-0.01155689;0.0;0.00097567326;6.0107145
  2.1999946E-01;  9.9999998E-03;  2.2000006E-01;1396;-0.00093808147;0.0;9.944693e-05;1000.0079;  4.0000001E-01;6.518333;3;-1.1660644;0.0;0.10746959;0;-0.010487763;  1.0000173E+04;  0.0000000E+00; -5.8664032E-04;  1.0000000E+04;  0.0000000E+00;  9.9999844E+03;-0.011522233;0.0;0.001034469;6.8390741
  2.1999949E-01;  9.9999998E-03;  2.4000007E-01;1397;-0.00089437293;0.0;0.00011311629;1000.0079;  4.0000001E-01;6.518333;3;-1.1293156;0.0;0.12342346;0;-0.010543416;  1.0000171E+04;  0.0000000E+00; -1.9723589E-03;  1.0000000E+04;  0.0000000E+00;  9.9999883E+03;-0.011471396;0.0;0.00092798012;10.546725
  2.1999954E-01;  9.9999998E-03;  2.6000008E-01;1398;-0.00082758494;0.0;0.00012816607;1000.008;  4.0000001E-01;6.6170959;3;-1.0705311;0.0;0.14269629;0;-0.010847018;  1.0000166E+04;  0.0000000E+00; -5.0151139E-03;  1.0000000E+04;  0.0000000E+00;  9.9999932E+03;-0.011411811;0.0;0.00056479347;22.780493
  2.1999960E-01;  9.9999998E-03;  2.8000009E-01;1399;-0.00073488121;0.0;0.00014656913;1000.0082;  4.0000001E-01;6.814621;3;-0.98355514;0.0;0.17036387;0;-0.011318479;  1.0000162E+04;  0.0000000E+00; -9.8396242E-03;  1.0000000E+04;  0.0000000E+00;  1.0000000E+04;-0.011280189;0.0;-3.8289261e-05;43.959839
  2.1999967E-01;  9.9999998E-03;  3.0000010E-01;1400;-0.00060247834;0.0;0.00017844074;1000.0082;  4.0000001E-01;6.814621;3;-0.84198147;0.0;0.22190505;0;-0.011323029;  1.0000153E+04;  0.0000000E+00; -1.4606261E-02;  1.0000000E+04;  0.0000000E+00;  1.0000009E+04;-0.010752768;0.0;-0.00057026057;65.068733
  2.3999925E-01;  9.9999998E-03;  1.6000004E-01;1424;-0.0012580794;0.0;7.0416529e-05;1000.0107;  4.0000001E-01;8.8886366;3;-1.4821601;0.0;0.073243596;0;-0.013527181;  1.0000228E+04;  0.0000000E+00; -3.4522351E-08;  1.0000000E+04;  0.0000000E+00;  9.9999873E+03;-0.014503512;0.0;0.00097633066;6.2458911
  2.3999926E-01;  9.9999998E-03;  1.8000005E-01;1425;-0.0012530355;0.0;8.949e-05;1000.0104;  4.0000001E-01;8.6911106;3;-1.486186;0.0;0.094440095;0;-0.013394899;  1.0000228E+04;  0.0000000E+00; -9.4236721E-06;  1.0000000E+04;  0.0000000E+00;  9.9999814E+03;-0.014595591;0.0;0.0012006925;7.5097694
  2.3999928E-01;  9.9999998E-03;  2.0000006E-01;1426;-0.0012390256;0.0;0.00011058974;1000.0102;  4.0000001E-01;8.4935856;3;-1.4813572;0.0;0.11772825;0;-0.013217546;  1.0000228E+04;  0.0000000E+00; -1.0866942E-04;  1.0000000E+04;  0.0000000E+00;  9.9999795E+03;-0.01464843;0.0;0.0014308839;8.829833
  2.3999929E-01;  9.9999998E-03;  2.2000009E-01;1427;-0.0012109814;0.0;0.00013332261;1000.0101;  4.0000001E-01;8.2960606;3;-1.4639204;0.0;0.14284639;0;-0.013068466;  1.0000225E+04;  0.0000000E+00; -5.7260902E-04;  1.0000000E+04;  0.0000000E+00;  9.9999775E+03;-0.01465969;0.0;0.0015912246;10.066864
  2.3999932E-01;  9.9999998E-03;  2.4000010E-01;1428;-0.0011629803;0.0;0.0001576877;1000.0101;  4.0000001E-01;8.2960606;3;-1.4297743;0.0;0.17105091;0;-0.013074691;  1.0000223E+04;  0.0000000E+00; -2.0111429E-03;  1.0000000E+04;  0.0000000E+00;  9.9999785E+03;-0.014632065;0.0;0.0015573737;13.188272
  2.3999937E-01;  9.9999998E-03;  2.6000011E-01;1429;-0.0010869441;0.0;0.00019219796;1000.0101;  4.0000001E-01;8.3948231;3;-1.3709396;0.0;0.21471141;0;-0.013347086;  1.0000219E+04;  0.0000000E+00; -5.2996888E-03;  1.0000000E+04;  0.0000000E+00;  9.9999824E+03;-0.014559976;0.0;0.0012128893;25.148054
  2.3999944E-01;  9.9999998E-03;  2.8000015E-01;1430;-0.00098179688;0.0;0.00024390494;1000.0103;  4.0000001E-01;8.5923481;3;-1.2837294;0.0;0.28771928;0;-0.013733062;  1.0000213E+04;  0.0000000E+00; -1.0671359E-02;  1.0000000E+04;  0.0000000E+00;  9.9999932E+03;-0.01436699;0.0;0.00063392828;48.345985
  2.3999953E-01;  9.9999998E-03;  3.0000019E-01;1431;-0.00083154574;0.0;0.00032933889;1000.0098;  4.0000001E-01;8.0985355;3;-1.1361387;0.0;0.42011279;0;-0.013338962;  1.0000203E+04;  0.0000000E+00; -1.6077502E-02;  1.0000000E+04;  0.0000000E+00;  9.9999971E+03;-0.013715546;0.0;0.00037658412;72.273582
  2.5999904E-01;  9.9999998E-03;  1.6000006E-01;1455;-0.0015984023;0.0;8.8568457e-05;1000.0137;  4.0000001E-01;11.357701;3;-1.8275551;0.0;0.090938509;0;-0.016829895;  1.0000292E+04;  0.0000000E+00; -3.2800698E-10;  1.0000000E+04;  0.0000000E+00;  9.9999814E+03;-0.018153753;0.0;0.0013238575;8.5311441
  2.5999904E-01;  9.9999998E-03;  1.8000007E-01;1456;-0.0015965676;0.0;0.00011490672;1000.0135;  4.0000001E-01;11.160175;3;-1.8383507;0.0;0.12025172;0;-0.01666639;  1.0000293E+04;  0.0000000E+00; -4.3011105E-06;  1.0000000E+04;  0.0000000E+00;  9.9999766E+03;-0.018331857;0.0;0.0016654672;10.496488
  2.5999904E-01;  9.9999998E-03;  2.0000009E-01;1457;-0.0015846323;0.0;0.00014568417;1000.0132;  4.0000001E-01;10.96265;3;-1.8400068;0.0;0.15432328;0;-0.016430207;  1.0000293E+04;  0.0000000E+00; -7.0313567E-05;  1.0000000E+04;  0.0000000E+00;  9.9999707E+03;-0.018463276;0.0;0.0020330702;12.641922
  2.5999907E-01;  9.9999998E-03;  2.2000012E-01;1458;-0.0015571428;0.0;0.00018159219;1000.0128;  4.0000001E-01;10.666363;3;-1.8294824;0.0;0.19433345;0;-0.016191019;  1.0000294E+04;  0.0000000E+00; -4.2450975E-04;  1.0000000E+04;  0.0000000E+00;  9.9999658E+03;-0.01853233;0.0;0.0023413117;14.565019
  2.5999910E-01;  9.9999998E-03;  2.4000014E-01;1459;-0.0015080404;0.0;0.00022376799;1000.0126;  4.0000001E-01;10.468838;3;-1.8040901;0.0;0.24318263;0;-0.01607544;  1.0000290E+04;  0.0000000E+00; -1.6081500E-03;  1.0000000E+04;  0.0000000E+00;  9.9999658E+03;-0.01852322;0.0;0.0024477793;16.725628
  2.5999916E-01;  9.9999998E-03;  2.6000017E-01;1460;-0.0014280207;0.0;0.00028767483;1000.0126;  4.0000001E-01;10.468838;3;-1.7555419;0.0;0.3231473;0;-0.016169807;  1.0000285E+04;  0.0000000E+00; -4.4629555E-03;  1.0000000E+04;  0.0000000E+00;  9.9999678E+03;-0.018410547;0.0;0.0022407395;24.552135
  2.5999922E-01;  9.9999998E-03;  2.8000024E-01;1461;-0.0013162807;0.0;0.00038622462;1000.0126;  4.0000001E-01;10.468838;3;-1.6805358;0.0;0.45775178;0;-0.016199719;  1.0000277E+04;  0.0000000E+00; -9.2729721E-03;  1.0000000E+04;  0.0000000E+00;  9.9999736E+03;-0.018115336;0.0;0.0019156168;43.785873
  2.5999933E-01;  9.9999998E-03;  3.0000031E-01;1462;-0.0011580557;0.0;0.00052283809;1000.0118;  4.0000001E-01;9.7774992;3;-1.5484116;0.0;0.66240102;0;-0.015264918;  1.0000261E+04;  0.0000000E+00; -1.4131010E-02;  1.0000000E+04;  0.0000000E+00;  9.9999756E+03;-0.017362764;0.0;0.0020978462;65.130028
  2.7999872E-01;  9.9999998E-03;  1.6000007E-01;1486;-0.0020217807;0.0;0.00011017983;1000.0175;  4.0000001E-01;14.518105;3;-2.2424312;0.0;0.11169297;0;-0.020850042;  1.0000375E+04;  0.0000000E+00; -3.7876821E-10;  1.0000000E+04;  0.0000000E+00;  9.9999736E+03;-0.022608077;0.0;0.001758036;11.454017
  2.7999875E-01;  9.9999998E-03;  1.8000010E-01;1487;-0.0020255905;0.0;0.00014617464;1000.0172;  4.0000001E-01;14.221817;3;-2.26316;0.0;0.15195625;0;-0.020654382;  1.0000377E+04;  0.0000000E+00; -6.5224276E-07;  1.0000000E+04;  0.0000000E+00;  9.9999668E+03;-0.022903718;0.0;0.0022493359;14.347169
  2.7999875E-01;  9.9999998E-03;  2.0000012E-01;1488;-0.002018112;0.0;0.000189874;1000.0168;  4.0000001E-01;13.925529;3;-2.2745183;0.0;0.19995612;0;-0.020354558;  1.0000377E+04;  0.0000000E+00; -2.8318167E-05;  1.0000000E+04;  0.0000000E+00;  9.9999580E+03;-0.023144346;0.0;0.0027897879;17.586563
  2.7999878E-01;  9.9999998E-03;  2.2000016E-01;1489;-0.0019935332;0.0;0.00024402756;1000.0165;  4.0000001E-01;13.629241;3;-2.2748327;0.0;0.26036239;0;-0.020014556;  1.0000377E+04;  0.0000000E+00; -2.2468431E-04;  1.0000000E+04;  0.0000000E+00;  9.9999502E+03;-0.023300821;0.0;0.0032862644;20.598427
  2.7999881E-01;  9.9999998E-03;  2.4000020E-01;1490;-0.0019468408;0.0;0.00031097449;1000.0161;  4.0000001E-01;13.332953;3;-2.2648084;0.0;0.33787823;0;-0.019751396;  1.0000375E+04;  0.0000000E+00; -9.7207300E-04;  1.0000000E+04;  0.0000000E+00;  9.9999463E+03;-0.023341525;0.0;0.0035901293;22.760714
  2.7999887E-01;  9.9999998E-03;  2.6000026E-01;1491;-0.0018672324;0.0;0.00040935079;1000.0159;  4.0000001E-01;13.234191;3;-2.2360787;0.0;0.45649001;0;-0.01961728;  1.0000370E+04;  0.0000000E+00; -2.9248623E-03;  1.0000000E+04;  0.0000000E+00;  9.9999463E+03;-0.023225853;0.0;0.003608573;25.875013
  2.7999893E-01;  9.9999998E-03;  2.8000036E-01;1492;-0.0017530231;0.0;0.00055368693;1000.0155;  4.0000001E-01;12.83914;3;-2.18431;0.0;0.64550138;0;-0.019255823;  1.0000362E+04;  0.0000000E+00; -6.3729226E-03;  1.0000000E+04;  0.0000000E+00;  9.9999482E+03;-0.022881616;0.0;0.0036257929;36.247688
  2.7999905E-01;  9.9999998E-03;  3.0000046E-01;1493;-0.0015915075;0.0;0.00073289283;1000.0145;  4.0000001E-01;11.950276;3;-2.08359;0.0;0.90521723;0;-0.017955376;  1.0000347E+04;  0.0000000E+00; -9.9223647E-03;  1.0000000E+04;  0.0000000E+00;  9.9999443E+03;-0.02211499;0.0;0.0041596144;50.909264
  2.9999834E-01;  9.9999998E-03;  1.6000009E-01;1517;-0.002546252;0.0;0.00013525893;1000.022;  4.0000001E-01;18.271082;3;-2.737992;0.0;0.13485527;0;-0.025728881;  1.0000478E+04;  0.0000000E+00; -7.0254230E-10;  1.0000000E+04;  0.0000000E+00;  9.9999658E+03;-0.028010443;0.0;0.0022815613;15.095352
  2.9999834E-01;  9.9999998E-03;  1.8000013E-01;1518;-0.0025589794;0.0;0.00018308248;1000.0218;  4.0000001E-01;18.073557;3;-2.7725;0.0;0.18820088;0;-0.025506763;  1.0000481E+04;  0.0000000E+00; -2.1128495E-09;  1.0000000E+04;  0.0000000E+00;  9.9999551E+03;-0.028464461;0.0;0.0029576973;19.177301
  2.9999837E-01;  9.9999998E-03;  2.0000015E-01;1519;-0.0025592851;0.0;0.00024300147;1000.0213;  4.0000001E-01;17.678505;3;-2.7980525;0.0;0.25463754;0;-0.025147822;  1.0000483E+04;  0.0000000E+00; -4.8947381E-06;  1.0000000E+04;  0.0000000E+00;  9.9999443E+03;-0.028854696;0.0;0.0037068741;23.805492
  2.9999840E-01;  9.9999998E-03;  2.2000021E-01;1520;-0.0025402831;0.0;0.00032031012;1000.0209;  4.0000001E-01;17.283455;3;-2.8131533;0.0;0.3403056;0;-0.024716273;  1.0000485E+04;  0.0000000E+00; -7.2702758E-05;  1.0000000E+04;  0.0000000E+00;  9.9999346E+03;-0.029140847;0.0;0.0044245748;28.272581
  2.9999843E-01;  9.9999998E-03;  2.4000026E-01;1521;-0.0024976907;0.0;0.00041538753;1000.0204;  4.0000001E-01;16.987167;3;-2.8218586;0.0;0.44571528;0;-0.024329351;  1.0000484E+04;  0.0000000E+00; -4.0558210E-04;  1.0000000E+04;  0.0000000E+00;  9.9999258E+03;-0.029283877;0.0;0.0049545257;31.499945
  2.9999849E-01;  9.9999998E-03;  2.6000035E-01;1522;-0.0024196764;0.0;0.00055070239;1000.0201;  4.0000001E-01;16.69088;3;-2.8189428;0.0;0.60400677;0;-0.024028704;  1.0000481E+04;  0.0000000E+00; -1.3973424E-03;  1.0000000E+04;  0.0000000E+00;  9.9999219E+03;-0.029241797;0.0;0.0052130935;33.174076
  2.9999858E-01;  9.9999998E-03;  2.8000048E-01;1523;-0.0023041214;0.0;0.00074022257;1000.0196;  4.0000001E-01;16.197067;3;-2.7997608;0.0;0.84148103;0;-0.023425829;  1.0000473E+04;  0.0000000E+00; -3.3126790E-03;  1.0000000E+04;  0.0000000E+00;  9.9999199E+03;-0.028959151;0.0;0.0055333227;36.620605
  2.9999870E-01;  9.9999998E-03;  3.0000061E-01;1524;-0.0021372556;0.0;0.00096105103;1000.0185;  4.0000001E-01;15.308204;3;-2.7355804;0.0;1.1472919;0;-0.022002503;  1.0000459E+04;  0.0000000E+00; -5.3946101E-03;  1.0000000E+04;  0.0000000E+00;  9.9999121E+03;-0.028317802;0.0;0.0063152988;43.630032
  3.1999788E-01;  9.9999998E-03;  1.6000012E-01;1548;-0.0031934709;0.0;0.00016333039;1000.0279;  4.0000001E-01;23.110449;3;-3.3269625;0.0;0.15987433;0;-0.031629346;  1.0000605E+04;  0.0000000E+00; -4.9368443E-10;  1.0000000E+04;  0.0000000E+00;  9.9999551E+03;-0.034523852;0.0;0.002894504;19.540428
  3.1999788E-01;  9.9999998E-03;  1.8000016E-01;1549;-0.0032197533;0.0;0.0002255803;1000.0276;  4.0000001E-01;22.912924;3;-3.3803484;0.0;0.2292472;0;-0.0313964;  1.0000613E+04;  0.0000000E+00; -2.4944722E-09;  1.0000000E+04;  0.0000000E+00;  9.9999424E+03;-0.035191264;0.0;0.0037948631;25.115509
  3.1999788E-01;  9.9999998E-03;  2.0000020E-01;1550;-0.0032320637;0.0;0.00030511306;1000.0272;  4.0000001E-01;22.517874;3;-3.4247875;0.0;0.3172096;0;-0.030989416;  1.0000618E+04;  0.0000000E+00; -1.3457032E-09;  1.0000000E+04;  0.0000000E+00;  9.9999268E+03;-0.035784513;0.0;0.0047950959;31.486864
  3.1999791E-01;  9.9999998E-03;  2.2000027E-01;1551;-0.0032212106;0.0;0.0004083277;1000.0266;  4.0000001E-01;22.024059;3;-3.4582486;0.0;0.42705923;0;-0.030481622;  1.0000623E+04;  0.0000000E+00; -8.6949240E-06;  1.0000000E+04;  0.0000000E+00;  9.9999102E+03;-0.036250275;0.0;0.0057686539;37.763195
  3.1999794E-01;  9.9999998E-03;  2.4000035E-01;1552;-0.0031834859;0.0;0.00053492613;1000.0261;  4.0000001E-01;21.629009;3;-3.4893703;0.0;0.56454378;0;-0.030012812;  1.0000624E+04;  0.0000000E+00; -9.0982168E-05;  1.0000000E+04;  0.0000000E+00;  9.9998975E+03;-0.036547005;0.0;0.0065341932;42.583019
  3.1999800E-01;  9.9999998E-03;  2.6000047E-01;1553;-0.0031052274;0.0;0.00071160553;1000.0256;  4.0000001E-01;21.233959;3;-3.5145025;0.0;0.76389623;0;-0.029635195;  1.0000621E+04;  0.0000000E+00; -4.1321022E-04;  1.0000000E+04;  0.0000000E+00;  9.9998916E+03;-0.036643859;0.0;0.0070086634;45.052673
  3.1999809E-01;  9.9999998E-03;  2.8000063E-01;1554;-0.0029835531;0.0;0.00094994274;1000.0251;  4.0000001E-01;20.740147;3;-3.5284004;0.0;1.0472283;0;-0.028949142;  1.0000615E+04;  0.0000000E+00; -1.1354408E-03;  1.0000000E+04;  0.0000000E+00;  9.9998848E+03;-0.036516741;0.0;0.0075675994;47.433933
  3.1999823E-01;  9.9999998E-03;  3.0000082E-01;1555;-0.0028026733;0.0;0.0012195081;1000.024;  4.0000001E-01;19.851282;3;-3.4996696;0.0;1.4056612;0;-0.027597751;  1.0000605E+04;  0.0000000E+00; -2.0340497E-03;  1.0000000E+04;  0.0000000E+00;  9.9998750E+03;-0.036119699;0.0;0.008521948;51.762043
  3.3999726E-01;  9.9999998E-03;  1.6000015E-01;1579;-0.0039891405;0.0;0.0001946105;1000.0354;  4.0000001E-01;29.332491;3;-4.0232654;0.0;0.1858241;0;-0.038734633;  1.0000765E+04;  0.0000000E+00; -5.3315363E-10;  1.0000000E+04;  0.0000000E+00;  9.9999443E+03;-0.042329989;0.0;0.0035953557;24.893263
  3.3999723E-01;  9.9999998E-03;  1.8000019E-01;1580;-0.0040350808;0.0;0.00027296523;1000.035;  4.0000001E-01;29.036203;3;-4.1016855;0.0;0.27276924;0;-0.038522251;  1.0000775E+04;  0.0000000E+00; -3.3775467E-09;  1.0000000E+04;  0.0000000E+00;  9.9999258E+03;-0.043285526;0.0;0.0047632735;32.304829
  3.3999723E-01;  9.9999998E-03;  2.0000026E-01;1581;-0.0040648864;0.0;0.00037520187;1000.0345;  4.0000001E-01;28.641151;3;-4.1701212;0.0;0.38360271;0;-0.038091104;  1.0000783E+04;  0.0000000E+00; -2.5876297E-09;  1.0000000E+04;  0.0000000E+00;  9.9999033E+03;-0.044158664;0.0;0.0060675596;40.859035
  3.3999726E-01;  9.9999998E-03;  2.2000034E-01;1582;-0.0040664915;0.0;0.00050793379;1000.0338;  4.0000001E-01;28.048576;3;-4.2282553;0.0;0.52207446;0;-0.037526816;  1.0000793E+04;  0.0000000E+00;  2.6999015E-08;  1.0000000E+04;  0.0000000E+00;  9.9998848E+03;-0.044871666;0.0;0.0073448513;49.385731
  3.3999729E-01;  9.9999998E-03;  2.4000046E-01;1583;-0.0040343804;0.0;0.00067211787;1000.0332;  4.0000001E-01;27.554764;3;-4.2841916;0.0;0.69569331;0;-0.03699794;  1.0000798E+04;  0.0000000E+00; -3.6002555E-06;  1.0000000E+04;  0.0000000E+00;  9.9998682E+03;-0.045373797;0.0;0.008375857;56.162331
  3.3999738E-01;  9.9999998E-03;  2.6000062E-01;1584;-0.0039527356;0.0;0.00089822558;1000.0328;  4.0000001E-01;27.159714;3;-4.3391705;0.0;0.93949181;0;-0.036573116;  1.0000798E+04;  0.0000000E+00; -4.4724395E-05;  1.0000000E+04;  0.0000000E+00;  9.9998574E+03;-0.04564435;0.0;0.0090712346;60.116261
  3.3999750E-01;  9.9999998E-03;  2.8000084E-01;1585;-0.0038165562;0.0;0.0011940593;1000.0322;  4.0000001E-01;26.665901;3;-4.3855329;0.0;1.2732884;0;-0.035860367;  1.0000795E+04;  0.0000000E+00; -1.7531351E-04;  1.0000000E+04;  0.0000000E+00;  9.9998486E+03;-0.045693316;0.0;0.0098329475;63.773106
  3.3999765E-01;  9.9999998E-03;  3.0000106E-01;1586;-0.0036080712;0.0;0.0015262538;1000.0311;  4.0000001E-01;25.777037;3;-4.3877258;0.0;1.6948617;0;-0.03454598;  1.0000790E+04;  0.0000000E+00; -3.7203258E-04;  1.0000000E+04;  0.0000000E+00;  9.9998311E+03;-0.045545891;0.0;0.010999912;69.222824
  3.5999647E-01;  9.9999998E-03;  1.6000018E-01;1610;-0.0049622944;0.0;0.00022984156;1000.0444;  4.0000001E-01;36.739681;3;-4.8416858;0.0;0.21181859;0;-0.047244702;  1.0000961E+04;  0.0000000E+00;  1.0282224E-10;  1.0000000E+04;  0.0000000E+00;  9.9999297E+03;-0.051627021;0.0;0.0043823207;31.301765
  3.5999644E-01;  9.9999998E-03;  1.8000023E-01;1611;-0.0050359173;0.0;0.00032556205;1000.0442;  4.0000001E-01;36.640919;3;-4.952898;0.0;0.31803834;0;-0.04710586;  1.0000979E+04;  0.0000000E+00; -3.4965624E-09;  1.0000000E+04;  0.0000000E+00;  9.9999063E+03;-0.05296867;0.0;0.0058628111;40.914146
  3.5999644E-01;  9.9999998E-03;  2.0000032E-01;1612;-0.0050907913;0.0;0.00045264259;1000.0436;  4.0000001E-01;36.147102;3;-5.0524373;0.0;0.45334733;0;-0.0466979;  1.0000993E+04;  0.0000000E+00; -2.8733562E-09;  1.0000000E+04;  0.0000000E+00;  9.9998789E+03;-0.054230142;0.0;0.0075322427;52.157211
  3.5999644E-01;  9.9999998E-03;  2.2000043E-01;1613;-0.0051112687;0.0;0.00062075641;1000.0428;  4.0000001E-01;35.455765;3;-5.1411886;0.0;0.62602419;0;-0.046116475;  1.0001006E+04;  0.0000000E+00;  3.8146386E-08;  1.0000000E+04;  0.0000000E+00;  9.9998525E+03;-0.055297907;0.0;0.0091814334;63.507046
  3.5999650E-01;  9.9999998E-03;  2.4000058E-01;1614;-0.0050882688;0.0;0.00083123875;1000.0422;  4.0000001E-01;34.961952;3;-5.2291288;0.0;0.84388465;0;-0.045552354;  1.0001016E+04;  0.0000000E+00;  1.9568007E-07;  1.0000000E+04;  0.0000000E+00;  9.9998291E+03;-0.056091953;0.0;0.010539598;72.761551
  3.5999659E-01;  9.9999998E-03;  2.6000080E-01;1615;-0.0050013093;0.0;0.001116548;1000.0417;  4.0000001E-01;34.566902;3;-5.3172798;0.0;1.1365629;0;-0.045085192;  1.0001019E+04;  0.0000000E+00;  5.4277280E-07;  1.0000000E+04;  0.0000000E+00;  9.9998145E+03;-0.05658403;0.0;0.01149884;78.600517
  3.5999671E-01;  9.9999998E-03;  2.8000107E-01;1616;-0.0048426646;0.0;0.0014846079;1000.0409;  4.0000001E-01;33.875565;3;-5.3981085;0.0;1.530028;0;-0.044278599;  1.0001021E+04;  0.0000000E+00; -2.0249875E-07;  1.0000000E+04;  0.0000000E+00;  9.9997988E+03;-0.056801654;0.0;0.012523054;84.321083
  3.5999691E-01;  9.9999998E-03;  3.0000135E-01;1617;-0.0045914324;0.0;0.0018957843;1000.0398;  4.0000001E-01;32.986702;3;-5.4287395;0.0;2.0285816;0;-0.042827092;  1.0001018E+04;  0.0000000E+00; -5.2897230E-06;  1.0000000E+04;  0.0000000E+00;  9.9997783E+03;-0.056812976;0.0;0.013985885;92.239479
  3.7999550E-01;  9.9999998E-03;  1.6000022E-01;1641;-0.0061443066;0.0;0.00027192946;1000.0557;  4.0000001E-01;46.122116;3;-5.7972283;0.0;0.24018036;0;-0.057369575;  1.0001200E+04;  0.0000000E+00;  1.0132850E-10;  1.0000000E+04;  0.0000000E+00;  9.9999141E+03;-0.062626265;0.0;0.0052566892;39.008938
  3.7999547E-01;  9.9999998E-03;  1.8000029E-01;1642;-0.0062559494;0.0;0.00038438916;1000.0555;  4.0000001E-01;45.924591;3;-5.9498315;0.0;0.36094964;0;-0.057386037;  1.0001225E+04;  0.0000000E+00; -4.2539114E-09;  1.0000000E+04;  0.0000000E+00;  9.9998838E+03;-0.064475924;0.0;0.0070898882;51.166473
  3.7999541E-01;  9.9999998E-03;  2.0000039E-01;1643;-0.0063471012;0.0;0.00053914764;1000.0549;  4.0000001E-01;45.430779;3;-6.0911016;0.0;0.52669275;0;-0.057081208;  1.0001250E+04;  0.0000000E+00; -3.1874492E-09;  1.0000000E+04;  0.0000000E+00;  9.9998477E+03;-0.066268899;0.0;0.0091876928;65.625107
  3.7999541E-01;  9.9999998E-03;  2.2000054E-01;1644;-0.0063961591;0.0;0.00074761931;1000.0543;  4.0000001E-01;44.936966;3;-6.2189269;0.0;0.73771381;0;-0.056559559;  1.0001271E+04;  0.0000000E+00;  5.1157045E-08;  1.0000000E+04;  0.0000000E+00;  9.9998135E+03;-0.067845307;0.0;0.011285749;80.434303
  3.7999547E-01;  9.9999998E-03;  2.4000072E-01;1645;-0.0063889613;0.0;0.0010134329;1000.0536;  4.0000001E-01;44.443153;3;-6.3466425;0.0;1.0060713;0;-0.056027301;  1.0001288E+04;  0.0000000E+00;  2.7613314E-07;  1.0000000E+04;  0.0000000E+00;  9.9997832E+03;-0.069081463;0.0;0.013054163;92.804245
  3.7999555E-01;  9.9999998E-03;  2.6000100E-01;1646;-0.0062983846;0.0;0.0013732347;1000.053;  4.0000001E-01;43.850578;3;-6.4766068;0.0;1.3596559;0;-0.055545509;  1.0001300E+04;  0.0000000E+00;  7.8467286E-07;  1.0000000E+04;  0.0000000E+00;  9.9997627E+03;-0.069920205;0.0;0.014374697;101.20568
  3.7999570E-01;  9.9999998E-03;  2.8000134E-01;1647;-0.0061123692;0.0;0.001835108;1000.0521;  4.0000001E-01;43.159241;3;-6.6002388;0.0;1.8279523;0;-0.054561108;  1.0001304E+04;  0.0000000E+00;  1.4104122E-06;  1.0000000E+04;  0.0000000E+00;  9.9997393E+03;-0.070382468;0.0;0.015821358;110.24477
  3.7999597E-01;  9.9999998E-03;  3.0000174E-01;1648;-0.0058069248;0.0;0.0023462104;1000.0506;  4.0000001E-01;41.875328;3;-6.6664982;0.0;2.4179366;0;-0.052798856;  1.0001304E+04;  0.0000000E+00;  1.4317494E-06;  1.0000000E+04;  0.0000000E+00;  9.9997090E+03;-0.070552096;0.0;0.01775324;122.5555
  3.9999428E-01;  9.9999998E-03;  1.6000026E-01;1672;-0.0075683934;0.0;0.00032612702;1000.0695;  4.0000001E-01;57.578564;3;-6.9050012;0.0;0.27142289;0;-0.06931565;  1.0001493E+04;  0.0000000E+00;  9.9041042E-10;  1.0000000E+04;  0.0000000E+00;  9.9998945E+03;-0.075546913;0.0;0.0062312633;48.452438
  3.9999419E-01;  9.9999998E-03;  1.8000036E-01;1673;-0.0077318647;0.0;0.0004554615;1000.0695;  4.0000001E-01;57.578564;3;-7.1111784;0.0;0.40811658;0;-0.069606937;  1.0001529E+04;  0.0000000E+00; -2.9478782E-09;  1.0000000E+04;  0.0000000E+00;  9.9998574E+03;-0.078047208;0.0;0.0084402692;63.416573
  3.9999413E-01;  9.9999998E-03;  2.0000048E-01;1674;-0.0078746481;0.0;0.00063830387;1000.0689;  4.0000001E-01;57.084751;3;-7.3061094;0.0;0.60365528;0;-0.069530278;  1.0001566E+04;  0.0000000E+00; -3.0383267E-09;  1.0000000E+04;  0.0000000E+00;  9.9998145E+03;-0.080549352;0.0;0.011019074;81.564178
  3.9999411E-01;  9.9999998E-03;  2.2000065E-01;1675;-0.0079671284;0.0;0.00089102658;1000.0684;  4.0000001E-01;56.590935;3;-7.4856048;0.0;0.85654122;0;-0.069198638;  1.0001601E+04;  0.0000000E+00;  7.4171091E-08;  1.0000000E+04;  0.0000000E+00;  9.9997686E+03;-0.082837418;0.0;0.013638781;100.44316
  3.9999413E-01;  9.9999998E-03;  2.4000089E-01;1676;-0.0079873493;0.0;0.0012210887;1000.0678;  4.0000001E-01;56.195885;3;-7.6633935;0.0;1.1835514;0;-0.06882818;  1.0001629E+04;  0.0000000E+00;  3.9044548E-07;  1.0000000E+04;  0.0000000E+00;  9.9997285E+03;-0.084727228;0.0;0.015899047;116.53052
  3.9999422E-01;  9.9999998E-03;  2.6000124E-01;1677;-0.0078990292;0.0;0.0016733266;1000.0674;  4.0000001E-01;55.899597;3;-7.8464952;0.0;1.6130557;0;-0.068420701;  1.0001650E+04;  0.0000000E+00;  1.1237458E-06;  1.0000000E+04;  0.0000000E+00;  9.9997012E+03;-0.086114652;0.0;0.01769395;128.15318
  3.9999443E-01;  9.9999998E-03;  2.8000173E-01;1678;-0.0076836231;0.0;0.0022569795;1000.0664;  4.0000001E-01;55.010735;3;-8.0256929;0.0;2.1761217;0;-0.067194283;  1.0001662E+04;  0.0000000E+00;  2.0173245E-06;  1.0000000E+04;  0.0000000E+00;  9.9996650E+03;-0.086999692;0.0;0.019805411;142.24684
  3.9999476E-01;  9.9999998E-03;  3.0000225E-01;1679;-0.0073142103;0.0;0.0028966204;1000.0642;  4.0000001E-01;53.233009;3;-8.1399612;0.0;2.8772519;0;-0.064968437;  1.0001668E+04;  0.0000000E+00;  1.9640688E-06;  1.0000000E+04;  0.0000000E+00;  9.9996172E+03;-0.087472118;0.0;0.022503678;161.73712
  4.1999277E-01;  9.9999998E-03;  1.6000035E-01;1703;-0.0092699463;0.0;0.00040488792;1000.0861;  4.0000001E-01;71.306534;3;-8.1775274;0.0;0.31417564;0;-0.083254188;  1.0001851E+04;  0.0000000E+00;  1.9706119E-09;  1.0000000E+04;  0.0000000E+00;  9.9998701E+03;-0.090602055;0.0;0.0073478636;60.434807
  4.1999266E-01;  9.9999998E-03;  1.8000045E-01;1704;-0.0095035946;0.0;0.00055000692;1000.0863;  4.0000001E-01;71.504059;3;-8.4530582;0.0;0.46561345;0;-0.083984949;  1.0001899E+04;  0.0000000E+00; -1.3903363E-09;  1.0000000E+04;  0.0000000E+00;  9.9998262E+03;-0.093907058;0.0;0.0099221105;78.322685
  4.1999254E-01;  9.9999998E-03;  2.0000060E-01;1705;-0.0097188465;0.0;0.00075848238;1000.0861;  4.0000001E-01;71.306534;3;-8.717;0.0;0.68597347;0;-0.084320754;  1.0001953E+04;  0.0000000E+00;  3.0823928E-09;  1.0000000E+04;  0.0000000E+00;  9.9997725E+03;-0.097324662;0.0;0.013003906;100.49001
  4.1999248E-01;  9.9999998E-03;  2.2000080E-01;1706;-0.0098763071;0.0;0.0010566383;1000.086;  4.0000001E-01;71.207771;3;-8.9638424;0.0;0.98396063;0;-0.084383816;  1.0002001E+04;  0.0000000E+00;  1.1204673E-07;  1.0000000E+04;  0.0000000E+00;  9.9997168E+03;-0.10057578;0.0;0.016191971;123.89571
  4.1999248E-01;  9.9999998E-03;  2.4000110E-01;1707;-0.0099432226;0.0;0.0014564135;1000.0858;  4.0000001E-01;71.109009;3;-9.2085476;0.0;1.3768953;0;-0.084402286;  1.0002049E+04;  0.0000000E+00;  5.5874619E-07;  1.0000000E+04;  0.0000000E+00;  9.9996660E+03;-0.10339741;0.0;0.018995121;144.06099
  4.1999257E-01;  9.9999998E-03;  2.6000154E-01;1708;-0.0098695736;0.0;0.0020195758;1000.0858;  4.0000001E-01;71.109009;3;-9.4599543;0.0;1.8992934;0;-0.08426372;  1.0002087E+04;  0.0000000E+00;  1.5889173E-06;  1.0000000E+04;  0.0000000E+00;  9.9996299E+03;-0.10561435;0.0;0.021350628;159.16795
  4.1999277E-01;  9.9999998E-03;  2.8000215E-01;1709;-0.0096262321;0.0;0.0027593758;1000.0846;  4.0000001E-01;70.121384;3;-9.7117004;0.0;2.5814869;0;-0.082775265;  1.0002115E+04;  0.0000000E+00;  2.8123670E-06;  1.0000000E+04;  0.0000000E+00;  9.9995811E+03;-0.10718411;0.0;0.024408851;180.08479
  4.1999316E-01;  9.9999998E-03;  3.0000287E-01;1710;-0.0091830939;0.0;0.0035680626;1000.0818;  4.0000001E-01;67.849846;3;-9.8911915;0.0;3.4178667;0;-0.079808749;  1.0002132E+04;  0.0000000E+00;  2.5480524E-06;  1.0000000E+04;  0.0000000E+00;  9.9995049E+03;-0.10818882;0.0;0.028380075;211.33029
  4.3999094E-01;  9.9999998E-03;  1.6000047E-01;1734;-0.01129162;0.0;0.00052970881;1000.1058;  4.0000001E-01;87.602318;3;-9.6280613;0.0;0.38535523;0;-0.099247716;  1.0002280E+04;  0.0000000E+00;  6.9516513E-09;  1.0000000E+04;  0.0000000E+00;  9.9998369E+03;-0.10795433;0.0;0.0087066162;76.367126
  4.3999076E-01;  9.9999998E-03;  1.8000059E-01;1735;-0.011617913;0.0;0.00068880897;1000.1064;  4.0000001E-01;88.09613;3;-9.9905567;0.0;0.54493165;0;-0.10062972;  1.0002345E+04;  0.0000000E+00;  4.7362212E-09;  1.0000000E+04;  0.0000000E+00;  9.9997881E+03;-0.11221417;0.0;0.011584455;97.145531
  4.3999058E-01;  9.9999998E-03;  2.0000076E-01;1736;-0.011932801;0.0;0.00091743114;1000.1068;  4.0000001E-01;88.49118;3;-10.344909;0.0;0.7841602;0;-0.10163052;  1.0002415E+04;  0.0000000E+00;  2.4699307E-08;  1.0000000E+04;  0.0000000E+00;  9.9997246E+03;-0.11676635;0.0;0.015135826;123.48125
  4.3999043E-01;  9.9999998E-03;  2.2000100E-01;1737;-0.012185541;0.0;0.0012553498;1000.1072;  4.0000001E-01;88.88623;3;-10.680228;0.0;1.126708;0;-0.10238967;  1.0002488E+04;  0.0000000E+00;  1.9603880E-07;  1.0000000E+04;  0.0000000E+00;  9.9996563E+03;-0.12126872;0.0;0.01887905;151.6017
  4.3999037E-01;  9.9999998E-03;  2.4000134E-01;1738;-0.012327352;0.0;0.0017241138;1000.1078;  4.0000001E-01;89.380043;3;-11.014283;0.0;1.5833913;0;-0.10315771;  1.0002560E+04;  0.0000000E+00;  8.5295005E-07;  1.0000000E+04;  0.0000000E+00;  9.9995977E+03;-0.12536179;0.0;0.022204075;175.72989
  4.3999040E-01;  9.9999998E-03;  2.6000190E-01;1739;-0.012291027;0.0;0.0024131087;1000.1088;  4.0000001E-01;90.071381;3;-11.355674;0.0;2.2171888;0;-0.10366178;  1.0002622E+04;  0.0000000E+00;  2.3045902E-06;  1.0000000E+04;  0.0000000E+00;  9.9995537E+03;-0.12877227;0.0;0.025110492;193.49165
  4.3999064E-01;  9.9999998E-03;  2.8000271E-01;1740;-0.012027512;0.0;0.0033534979;1000.1077;  4.0000001E-01;89.281281;3;-11.701529;0.0;3.0543206;0;-0.10194787;  1.0002673E+04;  0.0000000E+00;  3.8827570E-06;  1.0000000E+04;  0.0000000E+00;  9.9994834E+03;-0.13138616;0.0;0.029438289;222.30345
  4.3999112E-01;  9.9999998E-03;  3.0000365E-01;1741;-0.011503644;0.0;0.0043829395;1000.1039;  4.0000001E-01;86.022118;3;-11.969514;0.0;4.0575008;0;-0.097903624;  1.0002712E+04;  0.0000000E+00;  2.9684513E-06;  1.0000000E+04;  0.0000000E+00;  9.9993672E+03;-0.13325498;0.0;0.035351351;270.89047
  4.5998865E-01;  9.9999998E-03;  1.6000068E-01;1765;-0.013686134;0.0;0.00073534762;1000.1294;  4.0000030E-01;107.15722;3;-11.266785;0.0;0.50878841;0;-0.11710291;  1.0002782E+04;  0.0000000E+00;  2.9021400E-08;  1.0000000E+04;  0.0000000E+00;  9.9997900E+03;-0.12760848;0.0;0.010505566;98.556938
  4.5998839E-01;  9.9999998E-03;  1.8000081E-01;1766;-0.014131189;0.0;0.00090763991;1000.1309;  4.0000030E-01;108.44113;3;-11.736353;0.0;0.67135179;0;-0.11938486;  1.0002864E+04;  0.0000000E+00;  3.4677068E-08;  1.0000000E+04;  0.0000000E+00;  9.9997334E+03;-0.13294888;0.0;0.01356401;122.18736
  4.5998812E-01;  9.9999998E-03;  2.0000100E-01;1767;-0.014578518;0.0;0.0011492301;1000.1317;  4.0000033E-01;109.13247;3;-12.207976;0.0;0.91532481;0;-0.12136525;  1.0002961E+04;  0.0000000E+00;  9.1519752E-08;  1.0000000E+04;  0.0000000E+00;  9.9996631E+03;-0.13884197;0.0;0.017476724;152.79764
  4.5998788E-01;  9.9999998E-03;  2.2000125E-01;1768;-0.014966711;0.0;0.001508;1000.1331;  4.0000033E-01;110.31762;3;-12.661299;0.0;1.2883557;0;-0.12322584;  1.0003065E+04;  0.0000000E+00;  4.0005236E-07;  1.0000000E+04;  0.0000000E+00;  9.9995840E+03;-0.14489134;0.0;0.021665502;185.65321
  4.5998770E-01;  9.9999998E-03;  2.4000165E-01;1769;-0.015221803;0.0;0.0020400174;1000.1351;  4.0000027E-01;111.89782;3;-13.114734;0.0;1.8028908;0;-0.12525499;  1.0003170E+04;  0.0000000E+00;  1.4254368E-06;  1.0000000E+04;  0.0000000E+00;  9.9995166E+03;-0.15063012;0.0;0.02537513;213.00954
  4.5998770E-01;  9.9999998E-03;  2.6000232E-01;1770;-0.015259854;0.0;0.0028592641;1000.1375;  4.0000033E-01;113.97182;3;-13.578741;0.0;2.5607207;0;-0.1270317;  1.0003267E+04;  0.0000000E+00;  3.5203893E-06;  1.0000000E+04;  0.0000000E+00;  9.9994717E+03;-0.15566157;0.0;0.028629871;230.89362
  4.5998794E-01;  9.9999998E-03;  2.8000334E-01;1771;-0.014995943;0.0;0.0040486208;1000.1373;  4.0000033E-01;113.67554;3;-14.047642;0.0;3.6037588;0;-0.12534152;  1.0003348E+04;  0.0000000E+00;  5.4455886E-06;  1.0000000E+04;  0.0000000E+00;  9.9993838E+03;-0.15976739;0.0;0.03442587;266.4024
  4.5998847E-01;  9.9999998E-03;  3.0000460E-01;1772;-0.014392784;0.0;0.0053695845;1000.1321;  4.0000030E-01;109.42876;3;-14.436042;0.0;4.819756;0;-0.11971735;  1.0003415E+04;  0.0000000E+00;  3.0589381E-06;  1.0000000E+04;  0.0000000E+00;  9.9992129E+03;-0.16293584;0.0;0.043218486;339.30667
  4.7998580E-01;  9.9999998E-03;  1.6000099E-01;1796;-0.016518088;0.0;0.0010741818;1000.1564;  4.0000099E-01;129.57619;3;-13.103268;0.0;0.72401148;0;-0.1361371;  1.0003359E+04;  0.0000000E+00;  1.1833384E-07;  1.0000000E+04;  0.0000000E+00;  9.9997256E+03;-0.1492202;0.0;0.013083108;130.50255
  4.7998545E-01;  9.9999998E-03;  1.8000115E-01;1797;-0.017110286;0.0;0.001259819;1000.1583;  4.0000099E-01;131.15639;3;-13.705708;0.0;0.87684762;0;-0.13957284;  1.0003464E+04;  0.0000000E+00;  1.4456461E-07;  1.0000000E+04;  0.0000000E+00;  9.9996592E+03;-0.15572031;0.0;0.016147461;157.39093
  4.7998509E-01;  9.9999998E-03;  2.0000137E-01;1798;-0.01772609;0.0;0.001506071;1000.1605;  4.0000084E-01;132.93411;3;-14.320851;0.0;1.1129578;0;-0.14287737;  1.0003586E+04;  0.0000000E+00;  2.8108767E-07;  1.0000000E+04;  0.0000000E+00;  9.9995791E+03;-0.16311358;0.0;0.020236209;192.86185
  4.7998470E-01;  9.9999998E-03;  2.2000164E-01;1799;-0.018295189;0.0;0.001865724;1000.163;  4.0000090E-01;135.00812;3;-14.932201;0.0;1.486349;0;-0.14630285;  1.0003726E+04;  0.0000000E+00;  8.7052518E-07;  1.0000000E+04;  0.0000000E+00;  9.9994883E+03;-0.170966;0.0;0.024663156;230.85526
  4.7998440E-01;  9.9999998E-03;  2.4000208E-01;1800;-0.018713795;0.0;0.0024401976;1000.1667;  4.0000087E-01;138.16852;3;-15.542748;0.0;2.0396585;0;-0.15024363;  1.0003871E+04;  0.0000000E+00;  2.6138098E-06;  1.0000000E+04;  0.0000000E+00;  9.9994170E+03;-0.1787031;0.0;0.02845948;260.25909
  4.7998425E-01;  9.9999998E-03;  2.6000282E-01;1801;-0.018882221;0.0;0.0033764483;1000.172;  4.0000096E-01;142.51405;3;-16.177063;0.0;2.9375119;0;-0.15425384;  1.0004013E+04;  0.0000000E+00;  5.8509254E-06;  1.0000000E+04;  0.0000000E+00;  9.9993857E+03;-0.18578935;0.0;0.031535503;272.83908
  4.7998443E-01;  9.9999998E-03;  2.8000414E-01;1802;-0.018662326;0.0;0.0048540882;1000.1739;  4.0000087E-01;144.09425;3;-16.813181;0.0;4.2350931;0;-0.15325217;  1.0004141E+04;  0.0000000E+00;  8.1890093E-06;  1.0000000E+04;  0.0000000E+00;  9.9992910E+03;-0.19187115;0.0;0.038618986;308.80865
  4.7998500E-01;  9.9999998E-03;  3.0000582E-01;1803;-0.018010367;0.0;0.0065702205;1000.167;  4.0000090E-01;138.36604;3;-17.37557;0.0;5.7438145;0;-0.14532778;  1.0004250E+04;  0.0000000E+00;  2.8095910E-06;  1.0000000E+04;  0.0000000E+00;  9.9990469E+03;-0.19683118;0.0;0.051503398;412.10956
  4.9998233E-01;  9.9999998E-03;  1.6000147E-01;1827;-0.019856954;0.0;0.0016177635;1000.1855;  4.0000212E-01;153.67406;3;-15.14477;0.0;1.0907317;0;-0.15488932;  1.0003984E+04;  0.0000000E+00;  3.6847987E-07;  1.0000000E+04;  0.0000000E+00;  9.9996240E+03;-0.17184474;0.0;0.016955424;177.22948
  4.9998185E-01;  9.9999998E-03;  1.8000171E-01;1828;-0.020621598;0.0;0.0018325922;1000.1883;  4.0000206E-01;156.04434;3;-15.90567;0.0;1.2321222;0;-0.15967384;  1.0004112E+04;  0.0000000E+00;  4.4421827E-07;  1.0000000E+04;  0.0000000E+00;  9.9995527E+03;-0.17952006;0.0;0.019846212;209.23009
  4.9998134E-01;  9.9999998E-03;  2.0000196E-01;1829;-0.021441283;0.0;0.0020808789;1000.1913;  4.0000212E-01;158.5134;3;-16.695766;0.0;1.4254411;0;-0.16458823;  1.0004267E+04;  0.0000000E+00;  7.3222520E-07;  1.0000000E+04;  0.0000000E+00;  9.9994541E+03;-0.18848184;0.0;0.023893615;251.90979
  4.9998081E-01;  9.9999998E-03;  2.2000225E-01;1830;-0.022239311;0.0;0.0024192431;1000.1952;  4.0000209E-01;161.6738;3;-17.507315;0.0;1.768204;0;-0.17000277;  1.0004448E+04;  0.0000000E+00;  1.9187935E-06;  1.0000000E+04;  0.0000000E+00;  9.9993506E+03;-0.19828133;0.0;0.028278554;297.10538
  4.9998033E-01;  9.9999998E-03;  2.4000271E-01;1831;-0.022885712;0.0;0.003003218;1000.2012;  4.0000212E-01;166.71066;3;-18.326162;0.0;2.3546154;0;-0.17658001;  1.0004643E+04;  0.0000000E+00;  5.2303731E-06;  1.0000000E+04;  0.0000000E+00;  9.9992793E+03;-0.20825286;0.0;0.031672843;327.62216
  4.9997997E-01;  9.9999998E-03;  2.6000351E-01;1832;-0.023258125;0.0;0.0039876867;1000.2108;  4.0000212E-01;174.61165;3;-19.186537;0.0;3.3283582;0;-0.18421534;  1.0004833E+04;  0.0000000E+00;  1.0898818E-05;  1.0000000E+04;  0.0000000E+00;  9.9992793E+03;-0.21772783;0.0;0.033512492;325.78253
  4.9997994E-01;  9.9999998E-03;  2.8000510E-01;1833;-0.023174981;0.0;0.0057841907;1000.2165;  4.0000215E-01;179.35223;3;-20.067671;0.0;4.9510546;0;-0.18517846;  1.0005015E+04;  0.0000000E+00;  1.3978091E-05;  1.0000000E+04;  0.0000000E+00;  9.9992119E+03;-0.2261997;0.0;0.041021246;346.81409
  4.9998042E-01;  9.9999998E-03;  3.0000737E-01;1834;-0.022549463;0.0;0.0080093471;1000.2085;  4.0000206E-01;172.73517;3;-20.87851;0.0;6.83215;0;-0.17423131;  1.0005176E+04;  0.0000000E+00;  2.7629933E-06;  1.0000000E+04;  0.0000000E+00;  9.9988896E+03;-0.23339574;0.0;0.059164435;482.35062
  5.1997805E-01;  9.9999998E-03;  1.6000217E-01;1858;-0.023761619;0.0;0.0024558674;1000.2189;  4.0000597E-01;181.42599;3;-17.3955;0.0;1.6868324;0;-0.17085715;  1.0004610E+04;  0.0000000E+00;  9.0739320E-07;  1.0000000E+04;  0.0000000E+00;  9.9994736E+03;-0.19371273;0.0;0.022855585;245.95662
  5.1997745E-01;  9.9999998E-03;  1.8000253E-01;1859;-0.024715308;0.0;0.0027337782;1000.222;  4.0000585E-01;183.89505;3;-18.327194;0.0;1.7999668;0;-0.17698805;  1.0004765E+04;  0.0000000E+00;  9.9706654E-07;  1.0000000E+04;  0.0000000E+00;  9.9993818E+03;-0.20248681;0.0;0.025498765;288.2417
  5.1997679E-01;  9.9999998E-03;  2.0000288E-01;1860;-0.025767116;0.0;0.0030091179;1000.2253;  4.0000594E-01;186.66039;3;-19.32865;0.0;1.9447728;0;-0.18356726;  1.0004953E+04;  0.0000000E+00;  1.5671757E-06;  1.0000000E+04;  0.0000000E+00;  9.9992568E+03;-0.21293068;0.0;0.029363427;344.43585
  5.1997608E-01;  9.9999998E-03;  2.2000322E-01;1861;-0.02683861;0.0;0.0033112851;1000.2299;  4.0000591E-01;190.51212;3;-20.389883;0.0;2.202764;0;-0.19116589;  1.0005175E+04;  0.0000000E+00;  4.1582202E-06;  1.0000000E+04;  0.0000000E+00;  9.9991289E+03;-0.22460473;0.0;0.033438828;402.73895
  5.1997536E-01;  9.9999998E-03;  2.4000369E-01;1862;-0.027793303;0.0;0.0038412581;1000.2384;  4.0000588E-01;197.52422;3;-21.494999;0.0;2.7564993;0;-0.20102051;  1.0005418E+04;  0.0000000E+00;  1.1256262E-05;  1.0000000E+04;  0.0000000E+00;  9.9990586E+03;-0.23679176;0.0;0.035771247;435.33786
  5.1997471E-01;  9.9999998E-03;  2.6000449E-01;1863;-0.028481353;0.0;0.004809713;1000.2538;  4.0000591E-01;210.26453;3;-22.657812;0.0;3.7815533;0;-0.21381913;  1.0005663E+04;  0.0000000E+00;  2.2778546E-05;  1.0000000E+04;  0.0000000E+00;  9.9991182E+03;-0.24873067;0.0;0.034911547;406.80786
  5.1997435E-01;  9.9999998E-03;  2.8000638E-01;1864;-0.028679047;0.0;0.0069013773;1000.2669;  4.0000591E-01;221.12836;3;-23.881207;0.0;5.7509623;0;-0.21879497;  1.0005903E+04;  0.0000000E+00;  2.7759215E-05;  1.0000000E+04;  0.0000000E+00;  9.9991387E+03;-0.25977007;0.0;0.040975094;386.55618
  5.1997441E-01;  9.9999998E-03;  3.0000934E-01;1865;-0.02825029;0.0;0.0097369775;1000.2584;  4.0000585E-01;214.11626;3;-25.062923;0.0;8.0980806;0;-0.20469573;  1.0006122E+04;  0.0000000E+00;  5.4508755E-06;  1.0000000E+04;  0.0000000E+00;  9.9987529E+03;-0.26943892;0.0;0.064743191;543.96533
  5.3997302E-01;  9.9999998E-03;  1.6000319E-01;1889;-0.028248664;0.0;0.0036714699;1000.2593;  4.0001556E-01;214.80719;3;-19.847042;0.0;2.6115367;0;-0.1803211;  1.0005158E+04;  0.0000000E+00;  1.6559922E-06;  1.0000000E+04;  0.0000000E+00;  9.9992490E+03;-0.21211463;0.0;0.031793538;347.28082
  5.3997231E-01;  9.9999998E-03;  1.8000372E-01;1890;-0.029397685;0.0;0.0040934212;1000.2614;  4.0001553E-01;216.5849;3;-20.952751;0.0;2.7180974;0;-0.18738978;  1.0005336E+04;  0.0000000E+00;  1.6009394E-06;  1.0000000E+04;  0.0000000E+00;  9.9991133E+03;-0.22177531;0.0;0.034385536;410.94949
  5.3997147E-01;  9.9999998E-03;  2.0000425E-01;1891;-0.030691909;0.0;0.0044512032;1000.2636;  4.0001559E-01;218.36261;3;-22.194136;0.0;2.7769463;0;-0.19523434;  1.0005556E+04;  0.0000000E+00;  2.7319422E-06;  1.0000000E+04;  0.0000000E+00;  9.9989375E+03;-0.23338282;0.0;0.038148481;493.58368
  5.3997058E-01;  9.9999998E-03;  2.2000475E-01;1892;-0.032067969;0.0;0.0047503095;1000.2676;  4.0001562E-01;221.72052;3;-23.550125;0.0;2.9030447;0;-0.20473535;  1.0005814E+04;  0.0000000E+00;  8.8765846E-06;  1.0000000E+04;  0.0000000E+00;  9.9987617E+03;-0.24652326;0.0;0.041787904;576.82147
  5.3996962E-01;  9.9999998E-03;  2.4000525E-01;1893;-0.033407249;0.0;0.0051740399;1000.2778;  4.0001562E-01;230.11528;3;-25.016865;0.0;3.3564365;0;-0.21813604;  1.0006098E+04;  0.0000000E+00;  2.5642441E-05;  1.0000000E+04;  0.0000000E+00;  9.9986807E+03;-0.26048669;0.0;0.042350646;616.52032
  5.3996849E-01;  9.9999998E-03;  2.6000607E-01;1894;-0.034559041;0.0;0.006018356;1000.3003;  4.0001556E-01;248.78128;3;-26.600254;0.0;4.3523974;0;-0.23769906;  1.0006391E+04;  0.0000000E+00;  5.1682542E-05;  1.0000000E+04;  0.0000000E+00;  9.9988350E+03;-0.27449816;0.0;0.036799103;548.06958
  5.3996742E-01;  9.9999998E-03;  2.8000820E-01;1895;-0.035261109;0.0;0.0083205765;1000.3246;  4.0001556E-01;268.92871;3;-28.290003;0.0;6.6468654;0;-0.24966283;  1.0006679E+04;  0.0000000E+00;  6.1074446E-05;  1.0000000E+04;  0.0000000E+00;  9.9990342E+03;-0.28781718;0.0;0.038154345;446.26282
  5.3996676E-01;  9.9999998E-03;  3.0001202E-01;1896;-0.035328865;0.0;0.011840515;1000.3188;  4.0001556E-01;264.08939;3;-30.029232;0.0;9.5186338;0;-0.23300913;  1.0006946E+04;  0.0000000E+00;  1.6617774E-05;  1.0000000E+04;  0.0000000E+00;  9.9986465E+03;-0.29976571;0.0;0.066756584;597.15741
  5.5996722E-01;  9.9999998E-03;  1.6000451E-01;1920;-0.033248309;0.0;0.0053284038;1000.3264;  4.0004188E-01;270.40948;3;-22.460449;0.0;3.9240878;0;-0.17828326;  1.0005519E+04;  0.0000000E+00;  2.0996347E-06;  1.0000000E+04;  0.0000000E+00;  9.9989131E+03;-0.22337303;0.0;0.04508977;495.9743
  5.5996639E-01;  9.9999998E-03;  1.8000533E-01;1921;-0.034584627;0.0;0.0060216561;1000.3254;  4.0004188E-01;269.52063;3;-23.713596;0.0;4.1318297;0;-0.18526965;  1.0005714E+04;  0.0000000E+00;  1.3489924E-06;  1.0000000E+04;  0.0000000E+00;  9.9986963E+03;-0.23351283;0.0;0.048243187;600.40698
  5.5996543E-01;  9.9999998E-03;  2.0000616E-01;1922;-0.036102835;0.0;0.0065975678;1000.3239;  4.0004188E-01;268.33551;3;-25.184429;0.0;4.1553035;0;-0.19333898;  1.0005954E+04;  0.0000000E+00;  3.7344885E-06;  1.0000000E+04;  0.0000000E+00;  9.9984258E+03;-0.24566005;0.0;0.05232108;730.81915
  5.5996436E-01;  9.9999998E-03;  2.2000693E-01;1923;-0.037789851;0.0;0.0069894572;1000.3246;  4.0004200E-01;268.92807;3;-26.902199;0.0;4.0503912;0;-0.20378694;  1.0006231E+04;  0.0000000E+00;  1.8678506E-05;  1.0000000E+04;  0.0000000E+00;  9.9981650E+03;-0.25941667;0.0;0.055629738;857.18225
  5.5996305E-01;  9.9999998E-03;  2.4000765E-01;1924;-0.039568722;0.0;0.0072999233;1000.3345;  4.0004194E-01;277.12527;3;-28.825775;0.0;4.2428827;0;-0.22026962;  1.0006535E+04;  0.0000000E+00;  5.8772021E-05;  1.0000000E+04;  0.0000000E+00;  9.9980566E+03;-0.27413487;0.0;0.053865261;913.20056
  5.5996144E-01;  9.9999998E-03;  2.6000860E-01;1925;-0.041344676;0.0;0.0079197083;1000.3637;  4.0004188E-01;301.3219;3;-30.941847;0.0;5.1209826;0;-0.24768806;  1.0006849E+04;  0.0000000E+00;  1.1868725E-04;  1.0000000E+04;  0.0000000E+00;  9.9983271E+03;-0.28914133;0.0;0.041453268;797.0119
  5.5995935E-01;  9.9999998E-03;  2.8001103E-01;1926;-0.042841904;0.0;0.010293517;1000.4031;  4.0004191E-01;333.91327;3;-33.252865;0.0;7.6280651;0;-0.26980764;  1.0007162E+04;  0.0000000E+00;  1.3740790E-04;  1.0000000E+04;  0.0000000E+00;  9.9987988E+03;-0.30373025;0.0;0.033922613;571.82678
  5.5995721E-01;  9.9999998E-03;  3.0001581E-01;1927;-0.043827988;0.0;0.014484677;1000.404;  4.0004191E-01;334.70334;3;-35.751644;0.0;11.073298;0;-0.25274959;  1.0007460E+04;  0.0000000E+00;  4.6522051E-05;  1.0000000E+04;  0.0000000E+00;  9.9985176E+03;-0.31708568;0.0;0.064336099;666.91187
  5.7996106E-01;  9.9999998E-03;  1.6000617E-01;1951;-0.038577229;0.0;0.0074138381;1000.4781;  4.0011185E-01;396.03302;3;-25.195377;0.0;5.569756;0;-0.15827215;  1.0005535E+04;  0.0000000E+00;  1.0377890E-06;  1.0000000E+04;  0.0000000E+00;  9.9984316E+03;-0.22253594;0.0;0.064263791;709.5575
  5.7995999E-01;  9.9999998E-03;  1.8000735E-01;1952;-0.040116489;0.0;0.0084840311;1000.4703;  4.0011185E-01;389.61353;3;-26.558077;0.0;5.9973311;0;-0.16344945;  1.0005740E+04;  0.0000000E+00; -1.5276045E-06;  1.0000000E+04;  0.0000000E+00;  9.9980713E+03;-0.23248067;0.0;0.069031224;882.9986
  5.7995880E-01;  9.9999998E-03;  2.0000853E-01;1953;-0.041837603;0.0;0.0094392877;1000.4608;  4.0011185E-01;381.71262;3;-28.044867;0.0;6.3248119;0;-0.17007589;  1.0005979E+04;  0.0000000E+00;  3.6658193E-06;  1.0000000E+04;  0.0000000E+00;  9.9976416E+03;-0.24417163;0.0;0.074095748;1090.4243
  5.7995749E-01;  9.9999998E-03;  2.2000979E-01;1954;-0.04373347;0.0;0.010228383;1000.4544;  4.0011182E-01;376.47827;3;-29.994246;0.0;6.300931;0;-0.17988718;  1.0006248E+04;  0.0000000E+00;  3.7887803E-05;  1.0000000E+04;  0.0000000E+00;  9.9972451E+03;-0.25718844;0.0;0.077301256;1283.5988
  5.7995594E-01;  9.9999998E-03;  2.4001098E-01;1955;-0.045953371;0.0;0.010551848;1000.4611;  4.0011185E-01;382.00891;3;-32.602394;0.0;5.8732514;0;-0.19807096;  1.0006533E+04;  0.0000000E+00;  1.2730203E-04;  1.0000000E+04;  0.0000000E+00;  9.9970938E+03;-0.27099791;0.0;0.072926953;1366.3621
  5.7995373E-01;  9.9999998E-03;  2.6001257E-01;1956;-0.048466448;0.0;0.010983325;1000.4952;  4.0011185E-01;410.25464;3;-35.458374;0.0;6.2226758;0;-0.2325889;  1.0006829E+04;  0.0000000E+00;  2.5728476E-04;  1.0000000E+04;  0.0000000E+00;  9.9974766E+03;-0.28517041;0.0;0.052581504;1205.147
  5.7995045E-01;  9.9999998E-03;  2.8001574E-01;1957;-0.051060952;0.0;0.01325669;1000.5484;  4.0011182E-01;454.30222;3;-38.564968;0.0;8.7573948;0;-0.26751986;  1.0007128E+04;  0.0000000E+00;  2.9357965E-04;  1.0000000E+04;  0.0000000E+00;  9.9982402E+03;-0.29920736;0.0;0.031687487;852.79041
  5.7994622E-01;  9.9999998E-03;  3.0002147E-01;1958;-0.05343556;0.0;0.017950747;1000.5609;  4.0011185E-01;464.67215;3;-41.994225;0.0;12.650269;0;-0.25351453;  1.0007410E+04;  0.0000000E+00;  1.0915162E-04;  1.0000000E+04;  0.0000000E+00;  9.9982041E+03;-0.3122974;0.0;0.058782879;828.02142
  5.9995484E-01;  9.9999998E-03;  1.6000809E-01;1982;-0.043917719;0.0;0.0099078882;1000.8638;  4.0028954E-01;715.62152;3;-27.900219;0.0;7.630765;0;-0.11232813;  1.0005039E+04;  0.0000000E+00; -2.8880804E-06;  1.0000000E+04;  0.0000000E+00;  9.9977617E+03;-0.20299637;0.0;0.090668246;1003.2375
  5.9995353E-01;  9.9999998E-03;  1.8000968E-01;1983;-0.045702357;0.0;0.011429309;1000.8442;  4.0028948E-01;699.42474;3;-29.371181;0.0;8.2537937;0;-0.11332939;  1.0005226E+04;  0.0000000E+00; -8.8905208E-06;  1.0000000E+04;  0.0000000E+00;  9.9971846E+03;-0.21175423;0.0;0.098424844;1280.3921
  5.9995204E-01;  9.9999998E-03;  2.0001137E-01;1984;-0.047686853;0.0;0.012852311;1000.8217;  4.0028954E-01;680.75891;3;-30.980913;0.0;8.734314;0;-0.11627849;  1.0005435E+04;  0.0000000E+00;  2.0110031E-06;  1.0000000E+04;  0.0000000E+00;  9.9965254E+03;-0.22159812;0.0;0.10531963;1599.9352
  5.9995037E-01;  9.9999998E-03;  2.2001323E-01;1985;-0.049878076;0.0;0.014043608;1000.8035;  4.0028957E-01;665.6485;3;-32.9702;0.0;8.882906;0;-0.12393848;  1.0005656E+04;  0.0000000E+00;  7.1356400E-05;  1.0000000E+04;  0.0000000E+00;  9.9959434E+03;-0.23208371;0.0;0.10814523;1886.2733
  5.9994847E-01;  9.9999998E-03;  2.4001551E-01;1986;-0.052266967;0.0;0.015023627;1000.8032;  4.0028951E-01;665.35217;3;-35.593346;0.0;8.6902409;0;-0.14207739;  1.0005878E+04;  0.0000000E+00;  2.4694792E-04;  1.0000000E+04;  0.0000000E+00;  9.9957129E+03;-0.24288316;0.0;0.10080578;2012.946
  5.9994560E-01;  9.9999998E-03;  2.6001850E-01;1987;-0.055422321;0.0;0.015771614;1000.8374;  4.0028951E-01;693.79535;3;-39.622528;0.0;8.2465038;0;-0.17982906;  1.0006104E+04;  0.0000000E+00;  4.9537735E-04;  1.0000000E+04;  0.0000000E+00;  9.9961709E+03;-0.25391555;0.0;0.07408648;1824.1693
  5.9994125E-01;  9.9999998E-03;  2.8002349E-01;1988;-0.059249826;0.0;0.017966181;1000.8936;  4.0028948E-01;740.31171;3;-43.768032;0.0;10.033588;0;-0.22489905;  1.0006330E+04;  0.0000000E+00;  5.5950531E-04;  1.0000000E+04;  0.0000000E+00;  9.9970625E+03;-0.26502606;0.0;0.040127002;1425.1373
  5.9993482E-01;  9.9999998E-03;  3.0003035E-01;1989;-0.06332539;0.0;0.022682481;1000.9192;  4.0028945E-01;761.54535;3;-48.271965;0.0;14.171726;0;-0.22081272;  1.0006546E+04;  0.0000000E+00;  2.1504269E-04;  1.0000000E+04;  0.0000000E+00;  9.9973574E+03;-0.27557799;0.0;0.054765273;1251.8992
  6.1994898E-01;  9.9999998E-03;  1.6001035E-01;2013;-0.048931513;0.0;0.01292993;1001.7775;  4.0069622E-01;1472.6149;3;-30.445406;0.0;10.058608;0;-0.032512709;  1.0003855E+04;  0.0000000E+00; -9.9587105E-06;  1.0000000E+04;  0.0000000E+00;  9.9968906E+03;-0.15739955;0.0;0.12488684;1381.9939
  6.1994731E-01;  9.9999998E-03;  1.8001243E-01;2014;-0.051000517;0.0;0.01495088;1001.7411;  4.0069619E-01;1442.4929;3;-32.021793;0.0;10.92868;0;-0.026628122;  1.0003995E+04;  0.0000000E+00; -2.0301009E-05;  1.0000000E+04;  0.0000000E+00;  9.9960244E+03;-0.16371547;0.0;0.13708735;1798.5392
  6.1994553E-01;  9.9999998E-03;  2.0001481E-01;2015;-0.053282633;0.0;0.016917299;1001.7;  4.0069631E-01;1408.3219;3;-33.764618;0.0;11.513648;0;-0.023431197;  1.0004137E+04;  0.0000000E+00;  6.4958108E-08;  1.0000000E+04;  0.0000000E+00;  9.9950625E+03;-0.17010504;0.0;0.14667384;2265.7969
  6.1994338E-01;  9.9999998E-03;  2.2001775E-01;2016;-0.055802733;0.0;0.018816065;1001.6649;  4.0069628E-01;1379.2864;3;-35.826088;0.0;11.775531;0;-0.026879147;  1.0004269E+04;  0.0000000E+00;  1.1993197E-04;  1.0000000E+04;  0.0000000E+00;  9.9942324E+03;-0.17615201;0.0;0.14927286;2677.114
  6.1994070E-01;  9.9999998E-03;  2.4002182E-01;2017;-0.05872022;0.0;0.020560671;1001.6517;  4.0069628E-01;1368.324;3;-38.586788;0.0;11.534472;0;-0.044034362;  1.0004383E+04;  0.0000000E+00;  4.1078671E-04;  1.0000000E+04;  0.0000000E+00;  9.9938574E+03;-0.181817;0.0;0.13778263;2880.8669
  6.1993754E-01;  9.9999998E-03;  2.6002824E-01;2018;-0.062063653;0.0;0.022631109;1001.6702;  4.0069625E-01;1383.6318;3;-42.383991;0.0;11.213148;0;-0.079987682;  1.0004489E+04;  0.0000000E+00;  8.0882217E-04;  1.0000000E+04;  0.0000000E+00;  9.9941182E+03;-0.1874375;0.0;0.10744982;2794.3264
  6.1993253E-01;  9.9999998E-03;  2.8003642E-01;2019;-0.066723444;0.0;0.025251823;1001.7058;  4.0069613E-01;1413.1611;3;-48.166023;0.0;11.708569;0;-0.12445441;  1.0004591E+04;  0.0000000E+00;  9.0323959E-04;  1.0000000E+04;  0.0000000E+00;  9.9947217E+03;-0.19325987;0.0;0.068805456;2545.3516
  6.1992455E-01;  9.9999998E-03;  3.0004439E-01;2020;-0.072318159;0.0;0.029205404;1001.7393;  4.0069616E-01;1440.9127;3;-53.919304;0.0;15.233934;0;-0.13672698;  1.0004692E+04;  0.0000000E+00;  3.5080119E-04;  1.0000000E+04;  0.0000000E+00;  9.9952881E+03;-0.19891211;0.0;0.062185142;2263.498
  6.3994378E-01;  9.9999998E-03;  1.6001295E-01;2044;-0.053298011;0.0;0.016367383;1003.4891;  4.0144128E-01;2890.4927;3;-32.597336;0.0;12.852267;0;0.085676767;  1.0001896E+04;  0.0000000E+00; -1.7575972E-05;  1.0000000E+04;  0.0000000E+00;  9.9958506E+03;-0.080410592;0.0;0.16608736;1833.1366
  6.3994193E-01;  9.9999998E-03;  1.8001576E-01;2045;-0.055610456;0.0;0.019129708;1003.4311;  4.0144119E-01;2842.4956;3;-34.33659;0.0;14.070635;0;0.10088225;  1.0001961E+04;  0.0000000E+00; -3.1105264E-05;  1.0000000E+04;  0.0000000E+00;  9.9946318E+03;-0.08303535;0.0;0.1839176;2417.7571
  6.3993961E-01;  9.9999998E-03;  2.0001915E-01;2046;-0.058245324;0.0;0.021909744;1003.3666;  4.0144116E-01;2789.0667;3;-36.19891;0.0;14.82407;0;0.11235563;  1.0002005E+04;  0.0000000E+00;  1.0728568E-06;  1.0000000E+04;  0.0000000E+00;  9.9933057E+03;-0.084582478;0.0;0.19693811;3062.0417
  6.3993704E-01;  9.9999998E-03;  2.2002429E-01;2047;-0.061070476;0.0;0.0251747;1003.3089;  4.0144128E-01;2741.2671;3;-38.401752;0.0;15.116847;0;0.11539923;  1.0002013E+04;  0.0000000E+00;  1.7228870E-04;  1.0000000E+04;  0.0000000E+00;  9.9921504E+03;-0.084736392;0.0;0.20013562;3635.6704
  6.3993436E-01;  9.9999998E-03;  2.4003291E-01;2048;-0.064063668;0.0;0.029381149;1003.2692;  4.0144131E-01;2708.3801;3;-41.339134;0.0;14.627888;0;0.10705959;  1.0001990E+04;  0.0000000E+00;  5.7100877E-04;  1.0000000E+04;  0.0000000E+00;  9.9913809E+03;-0.083744533;0.0;0.19080412;4032.9065
  6.3993120E-01;  9.9999998E-03;  2.6004541E-01;2049;-0.067616679;0.0;0.033957668;1003.2381;  4.0144125E-01;2682.604;3;-45.708698;0.0;13.305847;0;0.09167324;  1.0001944E+04;  0.0000000E+00;  1.0972985E-03;  1.0000000E+04;  0.0000000E+00;  9.9908018E+03;-0.08231926;0.0;0.1739925;4346.3467
  6.3992602E-01;  9.9999998E-03;  2.8005731E-01;2050;-0.072847493;0.0;0.035892744;1003.2174;  4.0144128E-01;2665.5186;3;-51.974751;0.0;11.822413;0;0.051887527;  1.0001895E+04;  0.0000000E+00;  1.1975566E-03;  1.0000000E+04;  0.0000000E+00;  9.9904375E+03;-0.08109799;0.0;0.13298552;4583.6357
  6.3991719E-01;  9.9999998E-03;  3.0006543E-01;2051;-0.079269871;0.0;0.038012482;1003.2556;  4.0144116E-01;2697.1216;3;-58.765015;0.0;14.950336;0;0.014181294;  1.0001846E+04;  0.0000000E+00;  4.5898466E-04;  1.0000000E+04;  0.0000000E+00;  9.9912471E+03;-0.080056235;0.0;0.094237529;4221.4492
  6.5993989E-01;  9.9999998E-03;  1.6001612E-01;2075;-0.056669373;0.0;0.020535467;1005.637;  4.0237701E-01;4669.9883;3;-34.182686;0.0;16.257875;0;0.23896988;  9.9992354E+03;  0.0000000E+00; -2.1143038E-05;  1.0000000E+04;  0.0000000E+00;  9.9947129E+03;0.027306689;0.0;0.21166319;2324.0002
  6.5993786E-01;  9.9999998E-03;  1.8001989E-01;2076;-0.059041861;0.0;0.024292143;1005.5552;  4.0237698E-01;4602.1411;3;-35.784611;0.0;17.921217;0;0.26488641;  9.9992070E+03;  0.0000000E+00; -3.4606950E-05;  1.0000000E+04;  0.0000000E+00;  9.9931143E+03;0.029231954;0.0;0.23565446;3090.1121
  6.5993536E-01;  9.9999998E-03;  2.0002519E-01;2077;-0.061729997;0.0;0.028686466;1005.465;  4.0237713E-01;4527.4795;3;-37.544533;0.0;19.187782;0;0.28587741;  9.9991377E+03;  0.0000000E+00;  6.4210781E-06;  1.0000000E+04;  0.0000000E+00;  9.9913867E+03;0.033201735;0.0;0.25267568;3927.6399
  6.5993273E-01;  9.9999998E-03;  2.2003406E-01;2078;-0.064517505;0.0;0.03467932;1005.3806;  4.0237719E-01;4457.5586;3;-39.56221;0.0;19.994062;0;0.29830331;  9.9990186E+03;  0.0000000E+00;  2.0350597E-04;  1.0000000E+04;  0.0000000E+00;  9.9898271E+03;0.0393668;0.0;0.25893649;4699.9692
  6.5993029E-01;  9.9999998E-03;  2.4004897E-01;2079;-0.067232095;0.0;0.042880919;1005.3023;  4.0237719E-01;4392.6743;3;-42.451805;0.0;19.842169;0;0.30834767;  9.9988555E+03;  0.0000000E+00;  6.4169866E-04;  1.0000000E+04;  0.0000000E+00;  9.9884268E+03;0.047294933;0.0;0.26105273;5395.0757
  6.5992796E-01;  9.9999998E-03;  2.6006925E-01;2080;-0.070295684;0.0;0.050499432;1005.1926;  4.0237731E-01;4301.8169;3;-47.325691;0.0;16.958187;0;0.33253631;  9.9986631E+03;  0.0000000E+00;  1.2005899E-03;  1.0000000E+04;  0.0000000E+00;  9.9864336E+03;0.056129593;0.0;0.27640671;6369.6001
  6.5992302E-01;  9.9999998E-03;  2.8008437E-01;2081;-0.076231867;0.0;0.04944177;1005.0934;  4.0237740E-01;4219.5513;3;-55.07737;0.0;10.138445;0;0.29643577;  9.9984580E+03;  0.0000000E+00;  1.2674106E-03;  1.0000000E+04;  0.0000000E+00;  9.9846563E+03;0.064976364;0.0;0.23145942;7321.9707
  6.5991414E-01;  9.9999998E-03;  3.0009091E-01;2082;-0.083152682;0.0;0.048029598;1005.1471;  4.0237731E-01;4264.0913;3;-62.070362;0.0;13.350129;0;0.21279204;  9.9982598E+03;  0.0000000E+00;  4.5520224E-04;  1.0000000E+04;  0.0000000E+00;  9.9859287E+03;0.073332407;0.0;0.13945962;6799.748
  6.7993897E-01;  9.9999998E-03;  1.6001973E-01;2106;-0.058047563;0.0;0.025588024;1007.2914;  4.0312299E-01;6040.4663;3;-35.258339;0.0;20.760126;0;0.41293892;  9.9961865E+03;  0.0000000E+00; -1.8199051E-05;  1.0000000E+04;  0.0000000E+00;  9.9935840E+03;0.15541404;0.0;0.25752488;2808.1497
  6.7993683E-01;  9.9999998E-03;  1.8002458E-01;2107;-0.060532663;0.0;0.03061017;1007.1865;  4.0312305E-01;5953.4614;3;-36.913994;0.0;23.232698;0;0.44939852;  9.9960654E+03;  0.0000000E+00; -2.8224489E-05;  1.0000000E+04;  0.0000000E+00;  9.9916162E+03;0.16212314;0.0;0.28727537;3748.6646
  6.7993426E-01;  9.9999998E-03;  2.0003177E-01;2108;-0.063289292;0.0;0.036864705;1007.0718;  4.0312323E-01;5858.4575;3;-38.594654;0.0;25.526396;0;0.479397;  9.9958896E+03;  0.0000000E+00;  1.2569723E-05;  1.0000000E+04;  0.0000000E+00;  9.9895137E+03;0.17136894;0.0;0.30802804;4770.896
  6.7993182E-01;  9.9999998E-03;  2.2004442E-01;2109;-0.065890104;0.0;0.045978501;1006.9623;  4.0312332E-01;5767.7983;3;-40.377907;0.0;27.518543;0;0.50110257;  9.9956631E+03;  0.0000000E+00;  1.9114565E-04;  1.0000000E+04;  0.0000000E+00;  9.9875596E+03;0.18307166;0.0;0.31803092;5733.4976
  6.7992997E-01;  9.9999998E-03;  2.4006543E-01;2110;-0.067870647;0.0;0.058307137;1006.8474;  4.0312341E-01;5672.5967;3;-42.43866;0.0;27.921362;0;0.53107476;  9.9953916E+03;  0.0000000E+00;  5.6892831E-04;  1.0000000E+04;  0.0000000E+00;  9.9855449E+03;0.19673815;0.0;0.33433664;6715.0488
  6.7992884E-01;  9.9999998E-03;  2.6009223E-01;2111;-0.069787286;0.0;0.06725838;1006.6696;  4.0312368E-01;5525.3501;3;-46.66893;0.0;19.886492;0;0.59017766;  9.9950889E+03;  0.0000000E+00;  1.0298790E-03;  1.0000000E+04;  0.0000000E+00;  9.9823057E+03;0.21164507;0.0;0.37853256;8272.7979
  6.7992485E-01;  9.9999998E-03;  2.8010914E-01;2112;-0.075471468;0.0;0.062275194;1006.5156;  4.0312400E-01;5397.7563;3;-55.739021;0.0;9.1318884;0;0.54299021;  9.9947646E+03;  0.0000000E+00;  1.0457092E-03;  1.0000000E+04;  0.0000000E+00;  9.9795566E+03;0.22688574;0.0;0.3161045;9740.0723
  6.7991853E-01;  9.9999998E-03;  3.0011371E-01;2113;-0.080924898;0.0;0.057513643;1006.6008;  4.0312389E-01;5468.3677;3;-62.748184;0.0;12.689336;0;0.41355449;  9.9944531E+03;  0.0000000E+00;  3.7463897E-04;  1.0000000E+04;  0.0000000E+00;  9.9815576E+03;0.2412844;0.0;0.1722701;8921.417
  6.9994378E-01;  9.9999998E-03;  1.6002317E-01;2137;-0.055361189;0.0;0.030630745;1008.1138;  4.0353066E-01;6721.5557;3;-35.164433;0.0;25.624138;0;0.58213294;  9.9932900E+03;  0.0000000E+00; -1.0813247E-05;  1.0000000E+04;  0.0000000E+00;  9.9925732E+03;0.282996;0.0;0.29913694;3238.97
  6.9994187E-01;  9.9999998E-03;  1.8002898E-01;2138;-0.057749767;0.0;0.036843546;1007.989;  4.0353087E-01;6618.1592;3;-36.862778;0.0;29.040985;0;0.62740755;  9.9930840E+03;  0.0000000E+00; -1.6525530E-05;  1.0000000E+04;  0.0000000E+00;  9.9902979E+03;0.29405212;0.0;0.33335546;4327.9697
  6.9993967E-01;  9.9999998E-03;  2.0003779E-01;2139;-0.060332842;0.0;0.044727288;1007.8544;  4.0353104E-01;6506.7637;3;-38.660175;0.0;32.26527;0;0.66419315;  9.9928311E+03;  0.0000000E+00;  1.4093850E-05;  1.0000000E+04;  0.0000000E+00;  9.9878750E+03;0.30756405;0.0;0.35662907;5505.7188
  6.9993764E-01;  9.9999998E-03;  2.2005309E-01;2140;-0.062570438;0.0;0.056123205;1007.7258;  4.0353125E-01;6400.1084;3;-40.211067;0.0;35.260403;0;0.69160432;  9.9925322E+03;  0.0000000E+00;  1.4021179E-04;  1.0000000E+04;  0.0000000E+00;  9.9856152E+03;0.32312998;0.0;0.36847433;6617.8379
  6.9993651E-01;  9.9999998E-03;  2.4007805E-01;2141;-0.063699275;0.0;0.071212038;1007.5889;  4.0353155E-01;6286.7378;3;-41.276649;0.0;36.217419;0;0.73273724;  9.9922031E+03;  0.0000000E+00;  3.9782282E-04;  1.0000000E+04;  0.0000000E+00;  9.9832197E+03;0.34020901;0.0;0.39252824;7779.1309
  6.9993615E-01;  9.9999998E-03;  2.6010862E-01;2142;-0.064217493;0.0;0.080197819;1007.3779;  4.0353170E-01;6112.0405;3;-43.712601;0.0;23.581194;0;0.80646193;  9.9918486E+03;  0.0000000E+00;  7.0157839E-04;  1.0000000E+04;  0.0000000E+00;  9.9793779E+03;0.35832322;0.0;0.44813871;9624.0811
  6.9993430E-01;  9.9999998E-03;  2.8012598E-01;2143;-0.067498423;0.0;0.071804933;1007.2153;  4.0353203E-01;5977.2397;3;-51.101059;0.0;9.7798119;0;0.73581827;  9.9914775E+03;  0.0000000E+00;  7.1563059E-04;  1.0000000E+04;  0.0000000E+00;  9.9765000E+03;0.37671363;0.0;0.3591046;11192.585
  6.9993365E-01;  9.9999998E-03;  3.0012935E-01;2144;-0.067240879;0.0;0.065056272;1007.3412;  4.0353212E-01;6081.5249;3;-54.102264;0.0;13.688777;0;0.57213283;  9.9911299E+03;  0.0000000E+00;  3.3810915E-04;  1.0000000E+04;  0.0000000E+00;  9.9793408E+03;0.39371625;0.0;0.17841657;10003.121
  7.1995860E-01;  9.9999998E-03;  1.6002582E-01;2168;-0.042212326;0.0;0.034417354;1008.41;  4.0370893E-01;6966.771;3;-28.649487;0.0;29.270231;0;0.71649158;  9.9911406E+03;  0.0000000E+00; -3.7862394E-06;  1.0000000E+04;  0.0000000E+00;  9.9917656E+03;0.38358197;0.0;0.33290964;3583.6279
  7.1995693E-01;  9.9999998E-03;  1.8003225E-01;2169;-0.044342767;0.0;0.041386351;1008.2707;  4.0370911E-01;6851.4282;3;-30.339882;0.0;33.254623;0;0.76783508;  9.9908750E+03;  0.0000000E+00; -6.3528501E-06;  1.0000000E+04;  0.0000000E+00;  9.9892578E+03;0.39796972;0.0;0.36986536;4784.1333
  7.1995515E-01;  9.9999998E-03;  2.0004189E-01;2170;-0.046607818;0.0;0.050103836;1008.1219;  4.0370935E-01;6728.1855;3;-32.089436;0.0;36.976894;0;0.80814707;  9.9905723E+03;  0.0000000E+00;  1.0510574E-05;  1.0000000E+04;  0.0000000E+00;  9.9866035E+03;0.41428545;0.0;0.39386162;6075.7671
  7.1995342E-01;  9.9999998E-03;  2.2005840E-01;2171;-0.048622839;0.0;0.062493108;1007.9828;  4.0370953E-01;6612.9414;3;-33.702427;0.0;40.505226;0;0.83590108;  9.9902432E+03;  0.0000000E+00;  8.0954582E-05;  1.0000000E+04;  0.0000000E+00;  9.9841631E+03;0.43175799;0.0;0.4041431;7280.6782
  7.1995223E-01;  9.9999998E-03;  2.4008502E-01;2172;-0.049893618;0.0;0.078607135;1007.84;  4.0370971E-01;6494.5376;3;-35.039776;0.0;41.93977;0;0.87506938;  9.9899053E+03;  0.0000000E+00;  2.2793085E-04;  1.0000000E+04;  0.0000000E+00;  9.9816631E+03;0.44970772;0.0;0.42536169;8497.4756
  7.1995187E-01;  9.9999998E-03;  2.6011723E-01;2173;-0.04990999;0.0;0.087132484;1007.629;  4.0371010E-01;6319.8452;3;-35.633488;0.0;26.536537;0;0.9415096;  9.9895576E+03;  0.0000000E+00;  4.0700953E-04;  1.0000000E+04;  0.0000000E+00;  9.9778174E+03;0.46775916;0.0;0.47375047;10354.743
  7.1995217E-01;  9.9999998E-03;  2.8013477E-01;2174;-0.049246494;0.0;0.076637566;1007.4896;  4.0371048E-01;6204.3052;3;-37.110268;0.0;10.496676;0;0.83736134;  9.9892139E+03;  0.0000000E+00;  4.5676326E-04;  1.0000000E+04;  0.0000000E+00;  9.9753740E+03;0.48534721;0.0;0.35201415;11754.473
  7.1995324E-01;  9.9999998E-03;  3.0013865E-01;2175;-0.047420308;0.0;0.069871373;1007.6432;  4.0371037E-01;6331.5967;3;-38.143147;0.0;15.20675;0;0.65788233;  9.9888965E+03;  0.0000000E+00;  2.3224049E-04;  1.0000000E+04;  0.0000000E+00;  9.9787354E+03;0.50112653;0.0;0.15675578;10323.695
  7.3997432E-01;  9.9999998E-03;  1.6002759E-01;2199;-0.026515061;0.0;0.036769241;1008.5034;  4.0377909E-01;7043.8335;3;-18.37369;0.0;31.246408;0;0.79555011;  9.9900908E+03;  0.0000000E+00;  9.6983674E-09;  1.0000000E+04;  0.0000000E+00;  9.9911885E+03;0.43838894;0.0;0.35716119;3829.7014
  7.3997319E-01;  9.9999998E-03;  1.8003434E-01;2200;-0.027988706;0.0;0.04406127;1008.3549;  4.0377924E-01;6920.8916;3;-19.527061;0.0;35.355282;0;0.85001147;  9.9897959E+03;  0.0000000E+00; -9.2165760E-07;  1.0000000E+04;  0.0000000E+00;  9.9885283E+03;0.45472732;0.0;0.39528415;5103.2803
  7.3997194E-01;  9.9999998E-03;  2.0004430E-01;2201;-0.029519469;0.0;0.0529957;1008.1979;  4.0377951E-01;6790.8394;3;-20.672037;0.0;39.025517;0;0.89099789;  9.9894766E+03;  0.0000000E+00;  5.4687594E-06;  1.0000000E+04;  0.0000000E+00;  9.9857295E+03;0.47226706;0.0;0.41873083;6468.624
  7.3997080E-01;  9.9999998E-03;  2.2006117E-01;2202;-0.030853311;0.0;0.06542924;1008.054;  4.0377972E-01;6671.6499;3;-21.688015;0.0;42.224373;0;0.91554368;  9.9891484E+03;  0.0000000E+00;  3.4521916E-05;  1.0000000E+04;  0.0000000E+00;  9.9831973E+03;0.48990905;0.0;0.42563465;7724.501
  7.3996997E-01;  9.9999998E-03;  2.4008819E-01;2203;-0.031657916;0.0;0.081320308;1007.9143;  4.0377998E-01;6555.9165;3;-22.459631;0.0;42.989407;0;0.9451803;  9.9888320E+03;  0.0000000E+00;  9.9965764E-05;  1.0000000E+04;  0.0000000E+00;  9.9807344E+03;0.50678355;0.0;0.43839672;8935.1025
  7.3996979E-01;  9.9999998E-03;  2.6012096E-01;2204;-0.031522997;0.0;0.089472681;1007.718;  4.0378037E-01;6393.2778;3;-22.569563;0.0;26.577909;0;0.99328876;  9.9885313E+03;  0.0000000E+00;  1.8632326E-04;  1.0000000E+04;  0.0000000E+00;  9.9771318E+03;0.52248734;0.0;0.47080138;10694.033
  7.3997015E-01;  9.9999998E-03;  2.8013921E-01;2205;-0.030764503;0.0;0.078990333;1007.6024;  4.0378061E-01;6297.5903;3;-23.093273;0.0;10.887298;0;0.866763;  9.9882568E+03;  0.0000000E+00;  2.1267154E-04;  1.0000000E+04;  0.0000000E+00;  9.9751074E+03;0.5367527;0.0;0.33001027;11911.323
  7.3997104E-01;  9.9999998E-03;  3.0014396E-01;2206;-0.029391894;0.0;0.07282678;1007.7763;  4.0378052E-01;6441.5659;3;-23.580444;0.0;16.511;0;0.67998475;  9.9880098E+03;  0.0000000E+00;  7.3621261E-05;  1.0000000E+04;  0.0000000E+00;  9.9787939E+03;0.54914957;0.0;0.13083519;10322.252
  7.5998658E-01;  9.9999998E-03;  1.6002876E-01;2230;-0.014181297;0.0;0.038286056;1008.551;  4.0380555E-01;7082.9795;3;-10.199978;0.0;32.478458;0;0.81911433;  9.9900830E+03;  0.0000000E+00;  9.0539777E-07;  1.0000000E+04;  0.0000000E+00;  9.9908301E+03;0.44695348;0.0;0.37216085;3982.4355
  7.5998592E-01;  9.9999998E-03;  1.8003567E-01;2231;-0.015040466;0.0;0.045709893;1008.3981;  4.0380573E-01;6956.3901;3;-10.845528;0.0;36.581993;0;0.874255;  9.9897822E+03;  0.0000000E+00;  6.5979532E-07;  1.0000000E+04;  0.0000000E+00;  9.9880889E+03;0.4638508;0.0;0.41040421;5296.1353
  7.5998521E-01;  9.9999998E-03;  2.0004573E-01;2232;-0.015890868;0.0;0.054653432;1008.2374;  4.0380609E-01;6823.1851;3;-11.439174;0.0;40.100304;0;0.91420007;  9.9894668E+03;  0.0000000E+00;  1.9309939E-06;  1.0000000E+04;  0.0000000E+00;  9.9852090E+03;0.4812457;0.0;0.43295434;6702.8086
  7.5998455E-01;  9.9999998E-03;  2.2006264E-01;2233;-0.01658448;0.0;0.06691926;1008.0923;  4.0380636E-01;6703.1128;3;-11.908588;0.0;42.934761;0;0.93490469;  9.9891621E+03;  0.0000000E+00;  9.2030632E-06;  1.0000000E+04;  0.0000000E+00;  9.9826309E+03;0.49782535;0.0;0.43707937;7985.0098
  7.5998414E-01;  9.9999998E-03;  2.4008968E-01;2234;-0.016938692;0.0;0.082448073;1007.957;  4.0380654E-01;6590.9399;3;-12.193596;0.0;43.205307;0;0.95567977;  9.9888818E+03;  0.0000000E+00;  2.7287919E-05;  1.0000000E+04;  0.0000000E+00;  9.9802217E+03;0.5125798;0.0;0.44309995;9178.2383
  7.5998414E-01;  9.9999998E-03;  2.6012257E-01;2235;-0.016736163;0.0;0.090333275;1007.7747;  4.0380684E-01;6439.9609;3;-12.090086;0.0;26.346506;0;0.98837942;  9.9886436E+03;  0.0000000E+00;  5.1628380E-05;  1.0000000E+04;  0.0000000E+00;  9.9768418E+03;0.52510607;0.0;0.46327335;10843.972
  7.5998443E-01;  9.9999998E-03;  2.8014135E-01;2236;-0.016169164;0.0;0.08019948;1007.6784;  4.0380710E-01;6360.1763;3;-12.163365;0.0;11.302554;0;0.84698904;  9.9884385E+03;  0.0000000E+00;  5.1204246E-05;  1.0000000E+04;  0.0000000E+00;  9.9751221E+03;0.5354678;0.0;0.31152126;11923.337
  7.5998503E-01;  9.9999998E-03;  3.0014688E-01;2237;-0.015276073;0.0;0.074737199;1007.8646;  4.0380701E-01;6514.4136;3;-12.250475;0.0;17.842224;0;0.65797579;  9.9882656E+03;  0.0000000E+00; -2.0756603E-05;  1.0000000E+04;  0.0000000E+00;  9.9789834E+03;0.54401398;0.0;0.11396181;10244.166
  7.7999562E-01;  9.9999998E-03;  1.6002937E-01;2261;-0.0049703135;0.0;0.039069671;1008.6001;  4.0381533E-01;7123.1831;3;-3.9861128;0.0;33.080559;0;0.8028512;  9.9907490E+03;  0.0000000E+00;  5.2915925E-07;  1.0000000E+04;  0.0000000E+00;  9.9906572E+03;0.42349741;0.0;0.37935379;4056.1948
  7.7999538E-01;  9.9999998E-03;  1.8003632E-01;2262;-0.0053063924;0.0;0.04651035;1008.446;  4.0381545E-01;6995.6147;3;-4.2152038;0.0;37.12532;0;0.85710847;  9.9904580E+03;  0.0000000E+00;  4.9415314E-07;  1.0000000E+04;  0.0000000E+00;  9.9878877E+03;0.4399229;0.0;0.41718554;5384.9336
  7.7999508E-01;  9.9999998E-03;  2.0004639E-01;2263;-0.005599516;0.0;0.055380147;1008.2847;  4.0381578E-01;6861.9248;3;-4.3826919;0.0;40.495411;0;0.89526904;  9.9901631E+03;  0.0000000E+00;  3.9224608E-07;  1.0000000E+04;  0.0000000E+00;  9.9849727E+03;0.45630676;0.0;0.43896231;6808.4165
  7.7999490E-01;  9.9999998E-03;  2.2006324E-01;2264;-0.0057881442;0.0;0.067463942;1008.1401;  4.0381598E-01;6742.1567;3;-4.4575882;0.0;43.077763;0;0.9127121;  9.9898857E+03;  0.0000000E+00;  5.5518802E-07;  1.0000000E+04;  0.0000000E+00;  9.9823760E+03;0.47125578;0.0;0.44145635;8100.8154
  7.7999485E-01;  9.9999998E-03;  2.4009018E-01;2265;-0.0058124224;0.0;0.082717359;1008.0087;  4.0381622E-01;6633.3486;3;-4.4257207;0.0;43.033127;0;0.92741591;  9.9896494E+03;  0.0000000E+00;  1.2860583E-06;  1.0000000E+04;  0.0000000E+00;  9.9800020E+03;0.48372129;0.0;0.44369462;9280.2998
  7.7999490E-01;  9.9999998E-03;  2.6012310E-01;2266;-0.0055925604;0.0;0.090569824;1007.8356;  4.0381655E-01;6489.9824;3;-4.2037134;0.0;26.247204;0;0.95089328;  9.9894580E+03;  0.0000000E+00;  1.1992124E-06;  1.0000000E+04;  0.0000000E+00;  9.9767520E+03;0.49333405;0.0;0.45755926;10889.684
  7.7999508E-01;  9.9999998E-03;  2.8014228E-01;2267;-0.0052676923;0.0;0.080834769;1007.7496;  4.0381688E-01;6418.6943;3;-4.0860233;0.0;11.731505;0;0.8024978;  9.9893154E+03;  0.0000000E+00; -6.2768972E-06;  1.0000000E+04;  0.0000000E+00;  9.9751807E+03;0.50037283;0.0;0.30212498;11899.337
  7.7999538E-01;  9.9999998E-03;  3.0014831E-01;2268;-0.0048280838;0.0;0.075898215;1007.9415;  4.0381667E-01;6577.6611;3;-3.9790783;0.0;18.922998;0;0.61329436;  9.9892061E+03;  0.0000000E+00; -3.0504758E-05;  1.0000000E+04;  0.0000000E+00;  9.9790918E+03;0.50559753;0.0;0.10769682;10190.894
  8.0000281E-01;  9.9999998E-03;  1.6002952E-01;2292;0.0023947665;0.0;0.039230205;1008.6512;  4.0381777E-01;7164.7915;3;1.0901488;0.0;33.164925;0;0.76646256;  9.9916670E+03;  0.0000000E+00;  1.3123231E-08;  1.0000000E+04;  0.0000000E+00;  9.9906309E+03;0.38604146;0.0;0.38042107;4065.8567
  8.0000287E-01;  9.9999998E-03;  1.8003644E-01;2293;0.0025034547;0.0;0.046620928;1008.4984;  4.0381798E-01;7038.3208;3;1.2048028;0.0;37.139385;0;0.81912267;  9.9913965E+03;  0.0000000E+00; -3.0396453E-08;  1.0000000E+04;  0.0000000E+00;  9.9878623E+03;0.4014529;0.0;0.4176698;5391.4131
  8.0000299E-01;  9.9999998E-03;  2.0004643E-01;2294;0.0026670441;0.0;0.055396624;1008.3383;  4.0381828E-01;6905.6304;3;1.3707571;0.0;40.409527;0;0.85549927;  9.9911230E+03;  0.0000000E+00; -1.4405544E-08;  1.0000000E+04;  0.0000000E+00;  9.9849502E+03;0.41650665;0.0;0.43899259;6813.4541
  8.0000311E-01;  9.9999998E-03;  2.2006319E-01;2295;0.0028749846;0.0;0.067356758;1008.1952;  4.0381855E-01;6787.1567;3;1.5847168;0.0;42.887356;0;0.87083691;  9.9908760E+03;  0.0000000E+00;  1.1279425E-07;  1.0000000E+04;  0.0000000E+00;  9.9823545E+03;0.429822;0.0;0.44101492;8104.5425
  8.0000329E-01;  9.9999998E-03;  2.4009004E-01;2296;0.0030916783;0.0;0.082511149;1008.0662;  4.0381873E-01;6680.333;3;1.8282967;0.0;42.803734;0;0.88271248;  9.9906719E+03;  0.0000000E+00; -2.1315194E-09;  1.0000000E+04;  0.0000000E+00;  9.9799951E+03;0.44039348;0.0;0.44231901;9276.9902
  8.0000341E-01;  9.9999998E-03;  2.6012298E-01;2297;0.0032799391;0.0;0.090527043;1007.8966;  4.0381905E-01;6539.9419;3;2.0982575;0.0;26.413277;0;0.90332997;  9.9905186E+03;  0.0000000E+00; -1.3637485E-06;  1.0000000E+04;  0.0000000E+00;  9.9767764E+03;0.44790179;0.0;0.45542821;10868.988
  8.0000353E-01;  9.9999998E-03;  2.8014243E-01;2298;0.0033783405;0.0;0.081153117;1007.8126;  4.0381935E-01;6470.3384;3;2.307003;0.0;12.146561;0;0.75506508;  9.9904160E+03;  0.0000000E+00; -4.6341243E-06;  1.0000000E+04;  0.0000000E+00;  9.9752080E+03;0.45270944;0.0;0.30235565;11873.783
  8.0000359E-01;  9.9999998E-03;  3.0014870E-01;2299;0.0034127287;0.0;0.076454744;1008.0046;  4.0381914E-01;6629.3892;3;2.5076263;0.0;19.575609;0;0.56653368;  9.9903486E+03;  0.0000000E+00; -7.9985357E-06;  1.0000000E+04;  0.0000000E+00;  9.9790791E+03;0.45566025;0.0;0.1108734;10182.745
  8.2000935E-01;  9.9999998E-03;  1.6002925E-01;2323;0.0092159919;0.0;0.038856797;1008.6906;  4.0381366E-01;7196.5879;3;5.8468099;0.0;32.817417;0;0.72390819;  9.9925615E+03;  0.0000000E+00; -2.7949048E-07;  1.0000000E+04;  0.0000000E+00;  9.9907227E+03;0.34726822;0.0;0.37663996;4021.8215
  8.2000977E-01;  9.9999998E-03;  1.8003610E-01;2324;0.0097192479;0.0;0.046150308;1008.5405;  4.0381387E-01;7072.3042;3;6.2644591;0.0;36.723705;0;0.77481854;  9.9923105E+03;  0.0000000E+00; -4.7384265E-07;  1.0000000E+04;  0.0000000E+00;  9.9879863E+03;0.36154962;0.0;0.41326892;5329.9302
  8.2001019E-01;  9.9999998E-03;  2.0004600E-01;2325;0.010283003;0.0;0.054829303;1008.3828;  4.0381414E-01;6941.7031;3;6.7212758;0.0;39.947155;0;0.80979544;  9.9920605E+03;  0.0000000E+00;  1.1266111E-07;  1.0000000E+04;  0.0000000E+00;  9.9851006E+03;0.37537032;0.0;0.43442512;6735.6899
  8.2001066E-01;  9.9999998E-03;  2.2006266E-01;2326;0.010831817;0.0;0.06673336;1008.2419;  4.0381435E-01;6825.021;3;7.1841655;0.0;42.450043;0;0.82427943;  9.9918340E+03;  0.0000000E+00;  3.0798806E-06;  1.0000000E+04;  0.0000000E+00;  9.9825205E+03;0.38740498;0.0;0.43687442;8015.6216
  8.2001102E-01;  9.9999998E-03;  2.4008943E-01;2327;0.011251914;0.0;0.081950031;1008.1136;  4.0381464E-01;6718.8027;3;7.6122184;0.0;42.543591;0;0.83624816;  9.9916523E+03;  0.0000000E+00;  9.4385787E-06;  1.0000000E+04;  0.0000000E+00;  9.9801592E+03;0.39672476;0.0;0.4395234;9186.8398
  8.2001120E-01;  9.9999998E-03;  2.6012242E-01;2328;0.011378706;0.0;0.090244189;1007.9422;  4.0381488E-01;6576.8491;3;7.8750763;0.0;26.618172;0;0.85931492;  9.9915205E+03;  0.0000000E+00;  1.6809407E-05;  1.0000000E+04;  0.0000000E+00;  9.9768867E+03;0.40306431;0.0;0.45625058;10796.576
  8.2001120E-01;  9.9999998E-03;  2.8014195E-01;2329;0.011313259;0.0;0.081111759;1007.8533;  4.0381521E-01;6503.3057;3;8.2406263;0.0;12.42962;0;0.71604073;  9.9914365E+03;  0.0000000E+00;  1.8057262E-05;  1.0000000E+04;  0.0000000E+00;  9.9751973E+03;0.40679038;0.0;0.30925035;11850.24
  8.2001102E-01;  9.9999998E-03;  3.0014822E-01;2330;0.011000332;0.0;0.076394744;1008.0412;  4.0381506E-01;6658.7832;3;8.5880013;0.0;19.633169;0;0.52887923;  9.9913887E+03;  0.0000000E+00;  8.9637624E-06;  1.0000000E+04;  0.0000000E+00;  9.9789648E+03;0.40865421;0.0;0.12022499;10211.104
  8.4001607E-01;  9.9999998E-03;  1.6002862E-01;2354;0.016157832;0.0;0.038012877;1008.5871;  4.0375203E-01;7109.7266;3;10.682754;0.0;32.093674;0;0.67961645;  9.9933604E+03;  0.0000000E+00; -4.1879969E-07;  1.0000000E+04;  0.0000000E+00;  9.9909189E+03;0.31091672;0.0;0.36869976;3929.4331
  8.4001672E-01;  9.9999998E-03;  1.8003532E-01;2355;0.017027128;0.0;0.045148674;1008.4405;  4.0375227E-01;6988.3257;3;11.386457;0.0;35.920448;0;0.72886264;  9.9931279E+03;  0.0000000E+00; -8.3171614E-07;  1.0000000E+04;  0.0000000E+00;  9.9882412E+03;0.3242389;0.0;0.40462378;5206.9468
  8.4001750E-01;  9.9999998E-03;  2.0004502E-01;2356;0.017968221;0.0;0.053658333;1008.2864;  4.0375248E-01;6860.7075;3;12.127151;0.0;39.097836;0;0.76288104;  9.9928906E+03;  0.0000000E+00;  7.1627443E-07;  1.0000000E+04;  0.0000000E+00;  9.9854092E+03;0.33716983;0.0;0.42571124;6582.1221
  8.4001821E-01;  9.9999998E-03;  2.2006138E-01;2357;0.018844338;0.0;0.06538222;1008.1481;  4.0375268E-01;6746.2158;3;12.845301;0.0;41.621872;0;0.77731347;  9.9926807E+03;  0.0000000E+00;  8.6894352E-06;  1.0000000E+04;  0.0000000E+00;  9.9828721E+03;0.34844971;0.0;0.42886379;7837.5967
  8.4001875E-01;  9.9999998E-03;  2.4008775E-01;2358;0.019470721;0.0;0.080459096;1008.0215;  4.0375286E-01;6641.4956;3;13.482076;0.0;41.879143;0;0.79012036;  9.9925088E+03;  0.0000000E+00;  2.6721767E-05;  1.0000000E+04;  0.0000000E+00;  9.9805273E+03;0.35721171;0.0;0.43290868;8993.0342
  8.4001905E-01;  9.9999998E-03;  2.6012027E-01;2359;0.019534715;0.0;0.088867262;1007.8507;  4.0375325E-01;6500.0591;3;13.637944;0.0;26.605484;0;0.81553161;  9.9923848E+03;  0.0000000E+00;  4.9424059E-05;  1.0000000E+04;  0.0000000E+00;  9.9772598E+03;0.36322343;0.0;0.45230818;10592.162
  8.4001899E-01;  9.9999998E-03;  2.8013965E-01;2360;0.019377502;0.0;0.08007361;1007.759;  4.0375349E-01;6424.0605;3;14.366528;0.0;12.589814;0;0.67871273;  9.9923047E+03;  0.0000000E+00;  5.4792799E-05;  1.0000000E+04;  0.0000000E+00;  9.9755117E+03;0.36682016;0.0;0.3118926;11664.662
  8.4001863E-01;  9.9999998E-03;  3.0014586E-01;2361;0.01878109;0.0;0.075408638;1007.9408;  4.0375340E-01;6574.5771;3;14.963132;0.0;19.437252;0;0.49577117;  9.9922578E+03;  0.0000000E+00;  2.2966871E-05;  1.0000000E+04;  0.0000000E+00;  9.9791572E+03;0.368613;0.0;0.12715816;10084.463
  8.6002284E-01;  9.9999998E-03;  1.6002765E-01;2385;0.023163876;0.0;0.036739539;1008.3386;  4.0363064E-01;6902.397;3;15.539007;0.0;31.023832;0;0.63058656;  9.9941563E+03;  0.0000000E+00; -5.7086402E-07;  1.0000000E+04;  0.0000000E+00;  9.9912119E+03;0.27370444;0.0;0.35688213;3791.249
  8.6002380E-01;  9.9999998E-03;  1.8003413E-01;2386;0.02437746;0.0;0.043646108;1008.1969;  4.0363091E-01;6785.1685;3;16.51849;0.0;34.744034;0;0.67825639;  9.9939307E+03;  0.0000000E+00; -1.2310555E-06;  1.0000000E+04;  0.0000000E+00;  9.9886172E+03;0.28636706;0.0;0.3918893;5024.707
  8.6002481E-01;  9.9999998E-03;  2.0004351E-01;2387;0.025683329;0.0;0.051890038;1008.0472;  4.0363115E-01;6661.229;3;17.545742;0.0;37.849327;0;0.71169251;  9.9937012E+03;  0.0000000E+00;  1.8999364E-06;  1.0000000E+04;  0.0000000E+00;  9.9858672E+03;0.2988621;0.0;0.41283041;6354.6382
  8.6002582E-01;  9.9999998E-03;  2.2005937E-01;2388;0.026886677;0.0;0.063270085;1007.9126;  4.0363133E-01;6549.8218;3;18.536652;0.0;40.351727;0;0.72666454;  9.9934951E+03;  0.0000000E+00;  1.7486225E-05;  1.0000000E+04;  0.0000000E+00;  9.9834004E+03;0.30998108;0.0;0.4166835;7571.2827
  8.6002660E-01;  9.9999998E-03;  2.4008492E-01;2389;0.027733911;0.0;0.077951871;1007.789;  4.0363157E-01;6447.4932;3;19.414902;0.0;40.711491;0;0.74052238;  9.9933232E+03;  0.0000000E+00;  5.2979885E-05;  1.0000000E+04;  0.0000000E+00;  9.9811143E+03;0.31886289;0.0;0.4216595;8693.167
  8.6002690E-01;  9.9999998E-03;  2.6011652E-01;2390;0.027701862;0.0;0.0862296;1007.6221;  4.0363181E-01;6309.3447;3;19.262035;0.0;26.019119;0;0.76717579;  9.9931924E+03;  0.0000000E+00;  9.8532961E-05;  1.0000000E+04;  0.0000000E+00;  9.9779258E+03;0.32525057;0.0;0.44192526;10245.997
  8.6002684E-01;  9.9999998E-03;  2.8013548E-01;2391;0.027530754;0.0;0.0779365;1007.5306;  4.0363210E-01;6233.5601;3;20.686165;0.0;12.636445;0;0.63745505;  9.9931055E+03;  0.0000000E+00;  1.1086980E-04;  1.0000000E+04;  0.0000000E+00;  9.9761865E+03;0.32941926;0.0;0.30803579;11299.178
  8.6002630E-01;  9.9999998E-03;  3.0014160E-01;2392;0.026714951;0.0;0.073439322;1007.7048;  4.0363196E-01;6377.728;3;21.540421;0.0;18.988518;0;0.46179098;  9.9930508E+03;  0.0000000E+00;  4.8551559E-05;  1.0000000E+04;  0.0000000E+00;  9.9796953E+03;0.33184767;0.0;0.12994333;9785.1709
  8.8002926E-01;  9.9999998E-03;  1.6002640E-01;2416;0.029777691;0.0;0.035074059;1007.9694;  4.0345660E-01;6594.8081;3;20.111345;0.0;29.632565;0;0.57180727;  9.9950693E+03;  0.0000000E+00; -8.9027964E-07;  1.0000000E+04;  0.0000000E+00;  9.9915986E+03;0.23043016;0.0;0.34137708;3609.8149
  8.8003045E-01;  9.9999998E-03;  1.8003257E-01;2417;0.031307131;0.0;0.041673645;1007.8333;  4.0345681E-01;6482.2495;3;21.348982;0.0;33.207867;0;0.61784202;  9.9948486E+03;  0.0000000E+00; -1.8239147E-06;  1.0000000E+04;  0.0000000E+00;  9.9891152E+03;0.24269621;0.0;0.37514579;4785.5195
  8.8003176E-01;  9.9999998E-03;  2.0004152E-01;2418;0.032956082;0.0;0.049546178;1007.6892;  4.0345696E-01;6362.9844;3;22.654079;0.0;36.200199;0;0.65094328;  9.9946191E+03;  0.0000000E+00;  3.4055909E-06;  1.0000000E+04;  0.0000000E+00;  9.9864775E+03;0.25519684;0.0;0.39574647;6055.4727
  8.8003302E-01;  9.9999998E-03;  2.2005662E-01;2419;0.034476504;0.0;0.060414754;1007.559;  4.0345719E-01;6255.1621;3;23.920364;0.0;38.626118;0;0.66693223;  9.9944014E+03;  0.0000000E+00;  2.8761660E-05;  1.0000000E+04;  0.0000000E+00;  9.9840996E+03;0.26675543;0.0;0.40017679;7218.9258
  8.8003397E-01;  9.9999998E-03;  2.4008103E-01;2420;0.03554881;0.0;0.07445731;1007.4393;  4.0345740E-01;6156.2188;3;25.05262;0.0;39.029797;0;0.68196952;  9.9942158E+03;  0.0000000E+00;  8.6488413E-05;  1.0000000E+04;  0.0000000E+00;  9.9819092E+03;0.27643111;0.0;0.40553838;8289.7793
  8.8003439E-01;  9.9999998E-03;  2.6011124E-01;2421;0.035406113;0.0;0.082419276;1007.2791;  4.0345764E-01;6023.5371;3;24.593187;0.0;25.069233;0;0.70864135;  9.9940703E+03;  0.0000000E+00;  1.6151577E-04;  1.0000000E+04;  0.0000000E+00;  9.9788721E+03;0.28383958;0.0;0.42480177;9763.0449
  8.8003427E-01;  9.9999998E-03;  2.8012952E-01;2422;0.035247948;0.0;0.074774779;1007.1903;  4.0345791E-01;5950.1431;3;26.714432;0.0;12.519453;0;0.58749151;  9.9939600E+03;  0.0000000E+00;  1.8457246E-04;  1.0000000E+04;  0.0000000E+00;  9.9772070E+03;0.28914028;0.0;0.29835126;10764.119
  8.8003361E-01;  9.9999998E-03;  3.0013558E-01;2423;0.034338154;0.0;0.07061673;1007.355;  4.0345776E-01;6086.376;3;27.921814;0.0;18.366961;0;0.42253518;  9.9938887E+03;  0.0000000E+00;  8.8702131E-05;  1.0000000E+04;  0.0000000E+00;  9.9805420E+03;0.29268825;0.0;0.12984695;9330.0361
  9.0003479E-01;  9.9999998E-03;  1.6002487E-01;2447;0.035463393;0.0;0.033063415;1007.5049;  4.0323928E-01;6207.9551;3;24.055208;0.0;27.953863;0;0.50155514;  9.9961602E+03;  0.0000000E+00; -1.3527273E-06;  1.0000000E+04;  0.0000000E+00;  9.9920693E+03;0.1790265;0.0;0.32252863;3389.5059
  9.0003622E-01;  9.9999998E-03;  1.8003069E-01;2448;0.037271131;0.0;0.039280362;1007.3757;  4.0323946E-01;6101.064;3;25.522758;0.0;31.342249;0;0.54566014;  9.9959404E+03;  0.0000000E+00; -2.6420046E-06;  1.0000000E+04;  0.0000000E+00;  9.9897188E+03;0.19096646;0.0;0.35469371;4494.4819
  9.0003777E-01;  9.9999998E-03;  2.0003907E-01;2449;0.039225243;0.0;0.046680491;1007.2381;  4.0323964E-01;5987.27;3;27.077452;0.0;34.176876;0;0.57847524;  9.9957021E+03;  0.0000000E+00;  4.5812540E-06;  1.0000000E+04;  0.0000000E+00;  9.9872207E+03;0.20376018;0.0;0.37471509;5690.6377
  9.0003926E-01;  9.9999998E-03;  2.2005326E-01;2450;0.041031763;0.0;0.056885481;1007.1127;  4.0323976E-01;5883.4355;3;28.596151;0.0;36.473476;0;0.59584481;  9.9954648E+03;  0.0000000E+00;  3.9889885E-05;  1.0000000E+04;  0.0000000E+00;  9.9849639E+03;0.21627496;0.0;0.37956986;6787.6343
  9.0004039E-01;  9.9999998E-03;  2.4007617E-01;2451;0.042314306;0.0;0.070081763;1006.9979;  4.0323988E-01;5788.4766;3;29.965813;0.0;36.877735;0;0.6122579;  9.9952490E+03;  0.0000000E+00;  1.2082635E-04;  1.0000000E+04;  0.0000000E+00;  9.9828945E+03;0.22740535;0.0;0.38485253;7792.0576
  9.0004075E-01;  9.9999998E-03;  2.6010460E-01;2452;0.041935928;0.0;0.077542089;1006.8467;  4.0324020E-01;5663.5405;3;28.955511;0.0;23.690207;0;0.63803923;  9.9950732E+03;  0.0000000E+00;  2.2778851E-04;  1.0000000E+04;  0.0000000E+00;  9.9800664E+03;0.23650053;0.0;0.40153873;9157.7246
  9.0004069E-01;  9.9999998E-03;  2.8012207E-01;2453;0.041935872;0.0;0.070765235;1006.7621;  4.0324038E-01;5593.4302;3;32.012058;0.0;12.304195;0;0.52765357;  9.9949346E+03;  0.0000000E+00;  2.6364418E-04;  1.0000000E+04;  0.0000000E+00;  9.9785127E+03;0.24349716;0.0;0.28415644;10083.795
  9.0004003E-01;  9.9999998E-03;  3.0012807E-01;2454;0.041069523;0.0;0.067169413;1006.9144;  4.0324029E-01;5719.4512;3;33.725094;0.0;17.984709;0;0.37655932;  9.9948311E+03;  0.0000000E+00;  1.3456348E-04;  1.0000000E+04;  0.0000000E+00;  9.9816367E+03;0.24862066;0.0;0.12793866;8746.1572
  9.2003834E-01;  9.9999998E-03;  1.6002317E-01;2478;0.039016221;0.0;0.030787345;1006.9694;  4.0298977E-01;5761.8555;3;26.433163;0.0;26.035648;0;0.42359033;  9.9973662E+03;  0.0000000E+00; -1.7671870E-06;  1.0000000E+04;  0.0000000E+00;  9.9926074E+03;0.12265501;0.0;0.30093533;3137.1809
  9.2004013E-01;  9.9999998E-03;  1.8002854E-01;2479;0.041271936;0.0;0.036561586;1006.8483;  4.0298989E-01;5661.6255;3;28.274;0.0;29.208662;0;0.46523499;  9.9971504E+03;  0.0000000E+00; -3.4437357E-06;  1.0000000E+04;  0.0000000E+00;  9.9904141E+03;0.13407226;0.0;0.33116272;4160.4238
  9.2004210E-01;  9.9999998E-03;  2.0003629E-01;2480;0.043743357;0.0;0.04339489;1006.718;  4.0299007E-01;5553.9058;3;30.249208;0.0;31.844517;0;0.49754745;  9.9969014E+03;  0.0000000E+00;  4.9641922E-06;  1.0000000E+04;  0.0000000E+00;  9.9880713E+03;0.14716889;0.0;0.35037854;5270.9858
  9.2004395E-01;  9.9999998E-03;  2.2004937E-01;2481;0.0460351;0.0;0.052805092;1006.5984;  4.0299019E-01;5455.1548;3;32.200378;0.0;33.963402;0;0.51645541;  9.9966338E+03;  0.0000000E+00;  4.7591624E-05;  1.0000000E+04;  0.0000000E+00;  9.9859551E+03;0.16093725;0.0;0.35551813;6290.2627
  9.2004526E-01;  9.9999998E-03;  2.4007055E-01;2482;0.047501504;0.0;0.064947464;1006.4888;  4.0299040E-01;5364.4844;3;33.63409;0.0;34.136696;0;0.53442198;  9.9963789E+03;  0.0000000E+00;  1.4711573E-04;  1.0000000E+04;  0.0000000E+00;  9.9840332E+03;0.17408232;0.0;0.36033967;7216.0581
  9.2004561E-01;  9.9999998E-03;  2.6009691E-01;2483;0.04684731;0.0;0.071826756;1006.3479;  4.0299055E-01;5247.9937;3;32.284962;0.0;22.028549;0;0.55892992;  9.9961514E+03;  0.0000000E+00;  2.8230771E-04;  1.0000000E+04;  0.0000000E+00;  9.9814590E+03;0.18554454;0.0;0.37338537;8453.4189
  9.2004538E-01;  9.9999998E-03;  2.8011343E-01;2484;0.04691083;0.0;0.066101305;1006.2686;  4.0299073E-01;5182.4556;3;36.245869;0.0;12.160145;0;0.46094561;  9.9959668E+03;  0.0000000E+00;  3.3491178E-04;  1.0000000E+04;  0.0000000E+00;  9.9800576E+03;0.1948747;0.0;0.2660709;9282.8594
  9.2004502E-01;  9.9999998E-03;  3.0011943E-01;2485;0.046390343;0.0;0.063159361;1006.4053;  4.0299067E-01;5295.4966;3;38.364628;0.0;17.404497;0;0.32682905;  9.9958223E+03;  0.0000000E+00;  1.7333039E-04;  1.0000000E+04;  0.0000000E+00;  9.9829141E+03;0.2021004;0.0;0.12472864;8066.8818
  9.4003922E-01;  9.9999998E-03;  1.6002138E-01;2509;0.03973756;0.0;0.028358132;1006.3843;  4.0272009E-01;5274.2642;3;26.823112;0.0;23.951565;0;0.34548336;  9.9985498E+03;  0.0000000E+00; -1.7899803E-06;  1.0000000E+04;  0.0000000E+00;  9.9931943E+03;0.068059549;0.0;0.27742383;2862.0571
  9.4004124E-01;  9.9999998E-03;  1.8002631E-01;2510;0.042252321;0.0;0.03366413;1006.2723;  4.0272021E-01;5181.6914;3;28.795;0.0;26.896568;0;0.38412502;  9.9983428E+03;  0.0000000E+00; -3.5986709E-06;  1.0000000E+04;  0.0000000E+00;  9.9911709E+03;0.078648262;0.0;0.30547675;3795.6172
  9.4004369E-01;  9.9999998E-03;  2.0003331E-01;2511;0.045243923;0.0;0.039858602;1006.1503;  4.0272036E-01;5080.9443;3;31.100281;0.0;29.318352;0;0.41557574;  9.9980830E+03;  0.0000000E+00;  4.7134808E-06;  1.0000000E+04;  0.0000000E+00;  9.9890020E+03;0.091846853;0.0;0.32372889;4811.8374
  9.4004637E-01;  9.9999998E-03;  2.2004515E-01;2512;0.048430748;0.0;0.048358627;1006.0369;  4.0272051E-01;4987.1895;3;33.74044;0.0;31.220247;0;0.43592572;  9.9977842E+03;  0.0000000E+00;  4.9854465E-05;  1.0000000E+04;  0.0000000E+00;  9.9870420E+03;0.10687406;0.0;0.32905167;5744.6572
  9.4004840E-01;  9.9999998E-03;  2.4006441E-01;2513;0.050847977;0.0;0.059344802;1005.9331;  4.0272057E-01;4901.4121;3;36.050121;0.0;31.228432;0;0.45550093;  9.9974736E+03;  0.0000000E+00;  1.5779570E-04;  1.0000000E+04;  0.0000000E+00;  9.9852832E+03;0.12232614;0.0;0.33317479;6582.272
  9.4004881E-01;  9.9999998E-03;  2.6008856E-01;2514;0.050189752;0.0;0.065774031;1005.8026;  4.0272078E-01;4793.6733;3;34.85598;0.0;20.577616;0;0.48009166;  9.9971826E+03;  0.0000000E+00;  3.2260641E-04;  1.0000000E+04;  0.0000000E+00;  9.9829775E+03;0.13670295;0.0;0.34338871;7680.0649
  9.4004846E-01;  9.9999998E-03;  2.8010404E-01;2515;0.050269105;0.0;0.06106516;1005.7279;  4.0272096E-01;4731.9258;3;38.998791;0.0;11.798161;0;0.39612782;  9.9969336E+03;  0.0000000E+00;  4.2359662E-04;  1.0000000E+04;  0.0000000E+00;  9.9817344E+03;0.14899898;0.0;0.24712886;8410.3262
  9.4004828E-01;  9.9999998E-03;  3.0011007E-01;2516;0.049982734;0.0;0.058750734;1005.8473;  4.0272084E-01;4830.604;3;41.541634;0.0;16.588024;0;0.27970904;  9.9967295E+03;  0.0000000E+00;  1.9604649E-04;  1.0000000E+04;  0.0000000E+00;  9.9843066E+03;0.15890737;0.0;0.12080167;7324.5581
  9.6003884E-01;  9.9999998E-03;  1.6001955E-01;2540;0.039380018;0.0;0.025853563;1005.7712;  4.0244195E-01;4763.0469;3;26.63438;0.0;21.809057;0;0.27466619;  9.9995703E+03;  0.0000000E+00; -1.2358820E-06;  1.0000000E+04;  0.0000000E+00;  9.9937979E+03;0.021691129;0.0;0.25297508;2575.1655
  9.6004099E-01;  9.9999998E-03;  1.8002400E-01;2541;0.041958343;0.0;0.030660303;1005.6686;  4.0244213E-01;4678.2393;3;28.630421;0.0;24.495138;0;0.31010467;  9.9993740E+03;  0.0000000E+00; -2.7800297E-06;  1.0000000E+04;  0.0000000E+00;  9.9919502E+03;0.031351723;0.0;0.27875295;3414.7942
  9.6004361E-01;  9.9999998E-03;  2.0003022E-01;2542;0.045066334;0.0;0.03619238;1005.5552;  4.0244225E-01;4584.7744;3;30.95105;0.0;26.681744;0;0.34050122;  9.9991016E+03;  0.0000000E+00;  4.1685689E-06;  1.0000000E+04;  0.0000000E+00;  9.9899678E+03;0.044542972;0.0;0.29595825;4331.3164
  9.6004665E-01;  9.9999998E-03;  2.2004075E-01;2543;0.048610922;0.0;0.04373252;1005.4484;  4.0244225E-01;4496.6216;3;33.746193;0.0;28.36488;0;0.36212742;  9.9987676E+03;  0.0000000E+00;  8.9444104E-05;  1.0000000E+04;  0.0000000E+00;  9.9881738E+03;0.06073438;0.0;0.30139303;5171.7524
  9.6004945E-01;  9.9999998E-03;  2.4005803E-01;2544;0.051946815;0.0;0.053579647;1005.3505;  4.0244243E-01;4415.7495;3;36.958908;0.0;28.531336;0;0.38323379;  9.9984004E+03;  0.0000000E+00;  6.2457507E-04;  1.0000000E+04;  0.0000000E+00;  9.9865898E+03;0.078478321;0.0;0.30475545;5915.0366
  9.6005052E-01;  9.9999998E-03;  2.6007998E-01;2545;0.052343618;0.0;0.059724122;1005.2296;  4.0244254E-01;4315.9888;3;36.909332;0.0;19.387842;0;0.40969941;  9.9980352E+03;  0.0000000E+00;  1.6234764E-03;  1.0000000E+04;  0.0000000E+00;  9.9845488E+03;0.095950596;0.0;0.31374881;6872.6499
  9.6005052E-01;  9.9999998E-03;  2.8009444E-01;2546;0.052618552;0.0;0.055921882;1005.1579;  4.0244260E-01;4256.8604;3;41.051353;0.0;11.415174;0;0.34015775;  9.9977041E+03;  0.0000000E+00;  1.9120899E-03;  1.0000000E+04;  0.0000000E+00;  9.9834414E+03;0.11160079;0.0;0.22855696;7511.4043
  9.6005040E-01;  9.9999998E-03;  3.0010036E-01;2547;0.05246048;0.0;0.054193348;1005.2596;  4.0244260E-01;4340.7813;3;43.788483;0.0;15.670753;0;0.24191248;  9.9974268E+03;  0.0000000E+00;  1.9215904E-04;  1.0000000E+04;  0.0000000E+00;  9.9857432E+03;0.12469088;0.0;0.11722162;6551.397
  9.8003787E-01;  9.9999998E-03;  1.6001770E-01;2571;0.038467646;0.0;0.023345701;1005.151;  4.0216622E-01;4245.4873;3;26.147398;0.0;19.679356;0;0.21559823;  1.0000350E+04;  0.0000000E+00; -3.6854217E-07;  1.0000000E+04;  0.0000000E+00;  9.9943955E+03;-0.013046214;0.0;0.22864445;2288.6023
  9.8004001E-01;  9.9999998E-03;  1.8002169E-01;2572;0.041082796;0.0;0.027673677;1005.0574;  4.0216628E-01;4168.3584;3;28.158325;0.0;22.134663;0;0.24813958;  1.0000154E+04;  0.0000000E+00; -1.2883839E-06;  1.0000000E+04;  0.0000000E+00;  9.9927236E+03;-0.0040759849;0.0;0.25221556;3033.9919
  9.8004276E-01;  9.9999998E-03;  2.0002717E-01;2573;0.04426498;0.0;0.032540135;1004.9527;  4.0216643E-01;4081.9937;3;30.518538;0.0;24.071962;0;0.27761286;  9.9998711E+03;  0.0000000E+00;  7.9903504E-05;  1.0000000E+04;  0.0000000E+00;  9.9909199E+03;0.0092125311;0.0;0.26840034;3849.1091
  9.8004597E-01;  9.9999998E-03;  2.2003640E-01;2574;0.047997437;0.0;0.039122988;1004.8526;  4.0216646E-01;3999.5586;3;33.431126;0.0;25.515968;0;0.30039558;  9.9995000E+03;  0.0000000E+00;  9.0807420E-04;  1.0000000E+04;  0.0000000E+00;  9.9892979E+03;0.02639395;0.0;0.27400163;4595.1416
  9.8004931E-01;  9.9999998E-03;  2.4005170E-01;2575;0.051803853;0.0;0.047759794;1004.7607;  4.0216652E-01;3923.707;3;36.844845;0.0;25.555395;0;0.32268596;  9.9990771E+03;  0.0000000E+00;  3.5705601E-03;  1.0000000E+04;  0.0000000E+00;  9.9878896E+03;0.046089731;0.0;0.27659622;5243.4746
  9.8005128E-01;  9.9999998E-03;  2.6007152E-01;2576;0.05361658;0.0;0.053816728;1004.6489;  4.0216660E-01;3831.644;3;38.622208;0.0;18.432947;0;0.3517153;  9.9986367E+03;  0.0000000E+00;  7.3398785E-03;  1.0000000E+04;  0.0000000E+00;  9.9861016E+03;0.066363752;0.0;0.28535154;6063.4707
  9.8005193E-01;  9.9999998E-03;  2.8008494E-01;2577;0.054401234;0.0;0.050796598;1004.5801;  4.0216669E-01;3774.8538;3;42.591084;0.0;10.885746;0;0.29573232;  9.9982246E+03;  0.0000000E+00;  7.5631076E-03;  1.0000000E+04;  0.0000000E+00;  9.9851377E+03;0.085294545;0.0;0.21043777;6611.8145
  9.8005229E-01;  9.9999998E-03;  3.0009067E-01;2578;0.054544087;0.0;0.049534295;1004.6658;  4.0216675E-01;3845.4973;3;45.665749;0.0;14.63406;0;0.21337342;  9.9978643E+03;  0.0000000E+00;  1.0675019E-04;  1.0000000E+04;  0.0000000E+00;  9.9872002E+03;0.10170256;0.0;0.11167087;5765.0918
  1.0000366E+00;  9.9999998E-03;  1.6001594E-01;2602;0.037269656;0.0;0.020977303;1004.5447;  4.0190181E-01;3739.0662;3;25.490612;0.0;17.684252;0;0.1695125;  1.0000873E+04;  0.0000000E+00;  1.5662785E-07;  1.0000000E+04;  0.0000000E+00;  9.9949531E+03;-0.035964951;0.0;0.20547745;2014.4451
  1.0000386E+00;  9.9999998E-03;  1.8001948E-01;2603;0.039868467;0.0;0.02481107;1004.4594;  4.0190184E-01;3668.8425;3;27.527615;0.0;19.873381;0;0.19985011;  1.0000678E+04;  0.0000000E+00;  3.5368523E-06;  1.0000000E+04;  0.0000000E+00;  9.9934473E+03;-0.027257886;0.0;0.227108;2669.054
  1.0000414E+00;  9.9999998E-03;  2.0002426E-01;2604;0.043096911;0.0;0.029083801;1004.3625;  4.0190187E-01;3589.2031;3;29.926767;0.0;21.60858;0;0.22862972;  1.0000375E+04;  0.0000000E+00;  3.3636793E-04;  1.0000000E+04;  0.0000000E+00;  9.9918223E+03;-0.013883528;0.0;0.24251325;3384.9668
  1.0000449E+00;  9.9999998E-03;  2.2003229E-01;2605;0.046975709;0.0;0.034724988;1004.2693;  4.0190202E-01;3512.5066;3;32.852436;0.0;22.76211;0;0.25219667;  9.9999785E+03;  0.0000000E+00;  2.8141614E-03;  1.0000000E+04;  0.0000000E+00;  9.9903613E+03;0.0037683216;0.0;0.24842836;4038.114
  1.0000489E+00;  9.9999998E-03;  2.4004577E-01;2606;0.051315464;0.0;0.042245865;1004.1835;  4.0190202E-01;3441.8899;3;36.509216;0.0;22.689571;0;0.27525488;  9.9995117E+03;  0.0000000E+00;  9.7869430E-03;  1.0000000E+04;  0.0000000E+00;  9.9891182E+03;0.02462923;0.0;0.25062564;4596.4497
  1.0000516E+00;  9.9999998E-03;  2.6006344E-01;2607;0.054414049;0.0;0.048044376;1004.0813;  4.0190211E-01;3357.7397;3;40.045589;0.0;17.540037;0;0.304934;  9.9990117E+03;  0.0000000E+00;  1.8629599E-02;  1.0000000E+04;  0.0000000E+00;  9.9875811E+03;0.046984952;0.0;0.25794905;5282.8003
  1.0000535E+00;  9.9999998E-03;  2.8007573E-01;2608;0.056171812;0.0;0.045700293;1004.0177;  4.0190223E-01;3305.4644;3;44.16291;0.0;10.287917;0;0.25987679;  9.9985254E+03;  0.0000000E+00;  1.7672826E-02;  1.0000000E+04;  0.0000000E+00;  9.9867988E+03;0.068756528;0.0;0.19112027;5725.4341
  1.0000547E+00;  9.9999998E-03;  3.0008122E-01;2609;0.05691329;0.0;0.044802815;1004.0901;  4.0190217E-01;3364.9963;3;47.545849;0.0;13.336291;0;0.19049013;  9.9980801E+03;  0.0000000E+00; -1.3475863E-03;  1.0000000E+04;  0.0000000E+00;  9.9886777E+03;0.088292614;0.0;0.10219752;4971.5132
  1.0200351E+00;  9.9999998E-03;  1.6001430E-01;2633;0.035935353;0.0;0.018734705;1003.9709;  4.0165597E-01;3259.0808;3;24.76333;0.0;15.805923;0;0.13551708;  1.0001182E+04;  0.0000000E+00; -7.4834561E-06;  1.0000000E+04;  0.0000000E+00;  9.9954512E+03;-0.04890433;0.0;0.18442141;1763.2903
  1.0200372E+00;  9.9999998E-03;  1.8001743E-01;2634;0.03855088;0.0;0.022125451;1003.8923;  4.0165603E-01;3194.6028;3;26.829878;0.0;17.770044;0;0.16440347;  1.0000974E+04;  0.0000000E+00; -2.2280983E-04;  1.0000000E+04;  0.0000000E+00;  9.9940928E+03;-0.040186845;0.0;0.20459032;2333.3958
  1.0200399E+00;  9.9999998E-03;  2.0002171E-01;2635;0.041784033;0.0;0.025970813;1003.8036;  4.0165609E-01;3121.8076;3;29.32155;0.0;19.379475;0;0.19244584;  1.0000669E+04;  0.0000000E+00; -3.3079355E-04;  1.0000000E+04;  0.0000000E+00;  9.9926318E+03;-0.027163798;0.0;0.21960965;2955.1248
  1.0200436E+00;  9.9999998E-03;  2.2002876E-01;2636;0.045801781;0.0;0.030864816;1003.7178;  4.0165612E-01;3051.3608;3;32.272774;0.0;20.343384;0;0.21607386;  1.0000268E+04;  0.0000000E+00;  3.2898113E-03;  1.0000000E+04;  0.0000000E+00;  9.9913213E+03;-0.010129022;0.0;0.22620288;3520.0361
  1.0200483E+00;  9.9999998E-03;  2.4004063E-01;2637;0.050757751;0.0;0.037340377;1003.6386;  4.0165618E-01;2986.3926;3;36.19585;0.0;20.079067;0;0.23906259;  9.9997891E+03;  0.0000000E+00;  1.5144113E-02;  1.0000000E+04;  0.0000000E+00;  9.9902227E+03;0.010543244;0.0;0.22851935;3997.6382
  1.0200523E+00;  9.9999998E-03;  2.6005614E-01;2638;0.055226516;0.0;0.042504426;1003.5468;  4.0165630E-01;2911.0535;3;40.977501;0.0;16.229439;0;0.26623738;  9.9992529E+03;  0.0000000E+00;  2.9534582E-02;  1.0000000E+04;  0.0000000E+00;  9.9889258E+03;0.03390824;0.0;0.23232915;4560.6504
  1.0200558E+00;  9.9999998E-03;  2.8006709E-01;2639;0.058421731;0.0;0.040620238;1003.4918;  4.0165627E-01;2865.8499;3;45.706524;0.0;9.2998962;0;0.22773482;  9.9986982E+03;  0.0000000E+00;  2.5548754E-02;  1.0000000E+04;  0.0000000E+00;  9.9883838E+03;0.058125;0.0;0.16960981;4877.5566
  1.0200584E+00;  9.9999998E-03;  3.0007231E-01;2640;0.060256753;0.0;0.040197033;1003.5535;  4.0165621E-01;2916.5303;3;49.996597;0.0;11.784881;0;0.17081484;  9.9981641E+03;  0.0000000E+00; -4.6965652E-03;  1.0000000E+04;  0.0000000E+00;  9.9901455E+03;0.080931462;0.0;0.089883372;4189.4165
  1.0400335E+00;  9.9999998E-03;  1.6001277E-01;2664;0.03442014;0.0;0.016637029;1003.4428;  4.0143374E-01;2816.5684;3;23.943079;0.0;14.036222;0;0.11195752;  1.0001314E+04;  0.0000000E+00; -1.5700165E-04;  1.0000000E+04;  0.0000000E+00;  9.9958652E+03;-0.054289702;0.0;0.16624722;1542.403
  1.0400356E+00;  9.9999998E-03;  1.8001562E-01;2665;0.037105832;0.0;0.019710589;1003.3705;  4.0143383E-01;2757.4661;3;26.067606;0.0;15.827967;0;0.13984105;  1.0001103E+04;  0.0000000E+00; -1.7930984E-03;  1.0000000E+04;  0.0000000E+00;  9.9946387E+03;-0.045681588;0.0;0.18552263;2035.3008
  1.0400383E+00;  9.9999998E-03;  2.0001948E-01;2666;0.040393688;0.0;0.023110569;1003.2904;  4.0143380E-01;2691.9268;3;28.652328;0.0;17.207783;0;0.16651848;  1.0000813E+04;  0.0000000E+00; -5.2737198E-03;  1.0000000E+04;  0.0000000E+00;  9.9933271E+03;-0.033921085;0.0;0.20043956;2568.2537
  1.0400423E+00;  9.9999998E-03;  2.2002600E-01;2667;0.044649579;0.0;0.027656274;1003.2134;  4.0143386E-01;2628.9229;3;31.799149;0.0;18.17452;0;0.18902597;  1.0000453E+04;  0.0000000E+00; -4.1402420E-03;  1.0000000E+04;  0.0000000E+00;  9.9921523E+03;-0.019120093;0.0;0.20814607;3051.6023
  1.0400478E+00;  9.9999998E-03;  2.4003656E-01;2668;0.050217532;0.0;0.033335753;1003.1415;  4.0143394E-01;2570.1118;3;35.985535;0.0;17.955738;0;0.21104388;  1.0000008E+04;  0.0000000E+00;  9.4686188E-03;  1.0000000E+04;  0.0000000E+00;  9.9911641E+03;-0.00050345814;0.0;0.21154734;3460.25
  1.0400536E+00;  9.9999998E-03;  2.6004997E-01;2669;0.056209158;0.0;0.037612308;1003.0598;  4.0143391E-01;2503.2061;3;41.394554;0.0;14.605448;0;0.23431186;  9.9994639E+03;  0.0000000E+00;  2.4917275E-02;  1.0000000E+04;  0.0000000E+00;  9.9900801E+03;0.022786295;0.0;0.21152557;3916.1436
  1.0400593E+00;  9.9999998E-03;  2.8005949E-01;2670;0.061665975;0.0;0.0364003;1003.0144;  4.0143391E-01;2466.1436;3;47.480347;0.0;9.3111963;0;0.2024131;  9.9988252E+03;  0.0000000E+00;  1.5858833E-02;  1.0000000E+04;  0.0000000E+00;  9.9898164E+03;0.050459966;0.0;0.15195313;4096.5
  1.0400642E+00;  9.9999998E-03;  3.0006447E-01;2671;0.065713167;0.0;0.036614232;1003.0623;  4.0143389E-01;2505.3467;3;53.783375;0.0;11.274437;0;0.16476557;  9.9981240E+03;  0.0000000E+00; -1.2024171E-03;  1.0000000E+04;  0.0000000E+00;  9.9914668E+03;0.079871155;0.0;0.084894419;3469.3479
  1.0600317E+00;  9.9999998E-03;  1.6001138E-01;2695;0.032842245;0.0;0.014723505;1002.97;  4.0123802E-01;2419.3691;3;23.101585;0.0;12.385597;0;0.097347543;  1.0001316E+04;  0.0000000E+00; -1.0318718E-03;  1.0000000E+04;  0.0000000E+00;  9.9961895E+03;-0.054094639;0.0;0.15144219;1354.1071
  1.0600338E+00;  9.9999998E-03;  1.8001406E-01;2696;0.035566054;0.0;0.017532881;1002.9039;  4.0123799E-01;2365.4724;3;25.290474;0.0;14.003736;0;0.12408938;  1.0001113E+04;  0.0000000E+00; -7.1426309E-03;  1.0000000E+04;  0.0000000E+00;  9.9950752E+03;-0.046172619;0.0;0.17026199;1776.2986
  1.0600368E+00;  9.9999998E-03;  2.0001769E-01;2697;0.039022584;0.0;0.020669658;1002.8334;  4.0123808E-01;2308.1765;3;27.986105;0.0;15.275709;0;0.14822969;  1.0000879E+04;  0.0000000E+00; -1.9520398E-02;  1.0000000E+04;  0.0000000E+00;  9.9939053E+03;-0.036973502;0.0;0.18520319;2226.3452
  1.0600412E+00;  9.9999998E-03;  2.2002402E-01;2698;0.043709405;0.0;0.025047278;1002.7667;  4.0123811E-01;2253.6963;3;31.593769;0.0;16.193907;0;0.16803369;  1.0000602E+04;  0.0000000E+00; -2.7208300E-02;  1.0000000E+04;  0.0000000E+00;  9.9928516E+03;-0.026157239;0.0;0.19419093;2635.3462
  1.0600474E+00;  9.9999998E-03;  2.4003373E-01;2699;0.049817063;0.0;0.030270979;1002.7024;  4.0123808E-01;2201.3513;3;36.042427;0.0;16.11034;0;0.18849565;  1.0000237E+04;  0.0000000E+00; -1.8727692E-02;  1.0000000E+04;  0.0000000E+00;  9.9919336E+03;-0.011444847;0.0;0.1999405;2990.6917
  1.0600551E+00;  9.9999998E-03;  2.6004526E-01;2700;0.057277918;0.0;0.03383261;1002.629;  4.0123811E-01;2141.5286;3;42.133186;0.0;13.468856;0;0.20895241;  9.9996973E+03;  0.0000000E+00; -1.2414762E-02;  1.0000000E+04;  0.0000000E+00;  9.9910078E+03;0.011268737;0.0;0.19768368;3359.0222
  1.0600632E+00;  9.9999998E-03;  2.8005329E-01;2701;0.064558104;0.0;0.033556622;1002.5908;  4.0123817E-01;2110.4497;3;48.814224;0.0;10.797069;0;0.18933395;  9.9989160E+03;  0.0000000E+00; -2.2361465E-02;  1.0000000E+04;  0.0000000E+00;  9.9910303E+03;0.044187509;0.0;0.14514644;3405.0706
  1.0600708E+00;  9.9999998E-03;  3.0005786E-01;2702;0.071128123;0.0;0.034670807;1002.6188;  4.0123814E-01;2133.2661;3;57.227009;0.0;13.700685;0;0.18167636;  9.9978809E+03;  0.0000000E+00;  3.9162036E-02;  1.0000000E+04;  0.0000000E+00;  9.9926270E+03;0.087534986;0.0;0.094141372;2812.3943
  1.0800298E+00;  9.9999998E-03;  1.6001020E-01;2726;0.031289604;0.0;0.01307495;1002.556;  4.0106997E-01;2070.2646;3;22.272291;0.0;10.942659;0;0.090500474;  1.0001211E+04;  0.0000000E+00; -4.4621127E-03;  1.0000000E+04;  0.0000000E+00;  9.9964180E+03;-0.049632508;0.0;0.14013298;1195.3591
  1.0800321E+00;  9.9999998E-03;  1.8001270E-01;2727;0.034048576;0.0;0.015598081;1002.497;  4.0106997E-01;2022.4679;3;24.532425;0.0;12.339425;0;0.11527713;  1.0001039E+04;  0.0000000E+00; -2.0187818E-02;  1.0000000E+04;  0.0000000E+00;  9.9954092E+03;-0.043331444;0.0;0.15860857;1552.4081
  1.0800354E+00;  9.9999998E-03;  2.0001647E-01;2728;0.03779535;0.0;0.018772917;1002.4374;  4.0107000E-01;1974.2841;3;27.469778;0.0;13.654044;0;0.13554539;  1.0000889E+04;  0.0000000E+00; -4.7823824E-02;  1.0000000E+04;  0.0000000E+00;  9.9943750E+03;-0.037980046;0.0;0.17352544;1928.5623
  1.0800403E+00;  9.9999998E-03;  2.2002287E-01;2729;0.042982463;0.0;0.023124941;1002.3821;  4.0106988E-01;1929.3824;3;31.425133;0.0;14.60659;0;0.15153328;  1.0000736E+04;  0.0000000E+00; -7.0389718E-02;  1.0000000E+04;  0.0000000E+00;  9.9934258E+03;-0.032397263;0.0;0.18393055;2276.0547
  1.0800472E+00;  9.9999998E-03;  2.4003208E-01;2730;0.049704179;0.0;0.02797457;1002.3245;  4.0107000E-01;1882.7416;3;36.74482;0.0;14.310164;0;0.17032881;  1.0000479E+04;  0.0000000E+00; -7.4715495E-02;  1.0000000E+04;  0.0000000E+00;  9.9925352E+03;-0.022488717;0.0;0.19281752;2595.9624
  1.0800565E+00;  9.9999998E-03;  2.6004189E-01;2731;0.058299735;0.0;0.030836562;1002.2569;  4.0106994E-01;1827.989;3;43.61784;0.0;12.080999;0;0.18875332;  9.9999258E+03;  0.0000000E+00; -8.4965222E-02;  1.0000000E+04;  0.0000000E+00;  9.9917432E+03;0.00044899713;0.0;0.18830432;2894.3386
  1.0800661E+00;  9.9999998E-03;  2.8004852E-01;2732;0.066567726;0.0;0.031474728;1002.2226;  4.0107006E-01;1800.1752;3;51.101658;0.0;11.778003;0;0.1840086;  9.9989561E+03;  0.0000000E+00; -6.8097755E-02;  1.0000000E+04;  0.0000000E+00;  9.9920244E+03;0.039958693;0.0;0.1440499;2820.718
  1.0800755E+00;  9.9999998E-03;  3.0005243E-01;2733;0.074583739;0.0;0.033291362;1002.2264;  4.0106994E-01;1803.2595;3;60.816994;0.0;15.213335;0;0.20964068;  9.9974492E+03;  0.0000000E+00;  1.6413468E-01;  1.0000000E+04;  0.0000000E+00;  9.9936113E+03;0.10130008;0.0;0.10834059;2310.6494
  1.1000282E+00;  9.9999998E-03;  1.6000910E-01;2756;0.029787501;0.0;0.01151209;1002.2008;  4.0092891E-01;1769.2275;3;21.48571;0.0;9.5635204;0;0.09019731;  1.0001009E+04;  0.0000000E+00; -1.4136002E-02;  1.0000000E+04;  0.0000000E+00;  9.9965703E+03;-0.041792709;0.0;0.13199002;1059.0698
  1.1000307E+00;  9.9999998E-03;  1.8001170E-01;2757;0.032746017;0.0;0.014011978;1002.1501;  4.0092885E-01;1728.4017;3;23.931414;0.0;10.884649;0;0.11168909;  1.0000899E+04;  0.0000000E+00; -4.5407176E-02;  1.0000000E+04;  0.0000000E+00;  9.9956689E+03;-0.038186532;0.0;0.14987563;1358.5599
  1.1000344E+00;  9.9999998E-03;  2.0001586E-01;2758;0.03688091;0.0;0.01736781;1002.1027;  4.0092894E-01;1690.2583;3;27.249363;0.0;12.195596;0;0.12702887;  1.0000859E+04;  0.0000000E+00; -9.2079431E-02;  1.0000000E+04;  0.0000000E+00;  9.9947588E+03;-0.037536353;0.0;0.16456522;1676.1786
  1.1000400E+00;  9.9999998E-03;  2.2002251E-01;2759;0.042606212;0.0;0.021754969;1002.0579;  4.0092903E-01;1654.3181;3;31.93692;0.0;12.929913;0;0.13936441;  1.0000832E+04;  0.0000000E+00; -1.3137680E-01;  1.0000000E+04;  0.0000000E+00;  9.9938936E+03;-0.037388712;0.0;0.17675312;1981.4384
  1.1000476E+00;  9.9999998E-03;  2.4003123E-01;2760;0.050214164;0.0;0.025895728;1002.0051;  4.0092891E-01;1611.8599;3;38.422451;0.0;11.860119;0;0.15610862;  1.0000661E+04;  0.0000000E+00; -1.5292192E-01;  1.0000000E+04;  0.0000000E+00;  9.9930127E+03;-0.030329527;0.0;0.18643814;2280.5444
  1.1000574E+00;  9.9999998E-03;  2.6003933E-01;2761;0.059028998;0.0;0.028208191;1001.9455;  4.0092897E-01;1563.9384;3;45.403137;0.0;10.854643;0;0.17030013;  1.0000069E+04;  0.0000000E+00; -1.6484734E-01;  1.0000000E+04;  0.0000000E+00;  9.9924150E+03;-0.005709942;0.0;0.17601007;2493.4958
  1.1000670E+00;  9.9999998E-03;  2.8004459E-01;2762;0.067179754;0.0;0.029486071;1001.9177;  4.0092894E-01;1541.6035;3;53.37941;0.0;12.251704;0;0.17658189;  9.9989521E+03;  0.0000000E+00; -5.9443723E-02;  1.0000000E+04;  0.0000000E+00;  9.9929824E+03;0.038926952;0.0;0.13765495;2271.0056
  1.1200268E+00;  9.9999998E-03;  1.6000827E-01;2785;0.028551571;0.0;0.010206235;1001.9031;  4.0081337E-01;1514.8599;3;20.884062;0.0;8.322587;0;0.094527423;  1.0000735E+04;  0.0000000E+00; -3.6009733E-02;  1.0000000E+04;  0.0000000E+00;  9.9966660E+03;-0.03171961;0.0;0.12624703;938.71997
  1.1200296E+00;  9.9999998E-03;  1.8001117E-01;2786;0.031792726;0.0;0.01282773;1001.8619;  4.0081325E-01;1482.0269;3;23.619711;0.0;9.5963631;0;0.11129267;  1.0000708E+04;  0.0000000E+00; -8.6524688E-02;  1.0000000E+04;  0.0000000E+00;  9.9958721E+03;-0.031766124;0.0;0.14305879;1193.821
  1.1200339E+00;  9.9999998E-03;  2.0001586E-01;2787;0.036394782;0.0;0.016405072;1001.8257;  4.0081328E-01;1453.178;3;27.504242;0.0;10.731765;0;0.12155845;  1.0000781E+04;  0.0000000E+00; -1.4994477E-01;  1.0000000E+04;  0.0000000E+00;  9.9950801E+03;-0.035860084;0.0;0.15741853;1471.1439
  1.1200401E+00;  9.9999998E-03;  2.2002277E-01;2788;0.042902045;0.0;0.020605268;1001.7883;  4.0081325E-01;1423.3788;3;33.129894;0.0;10.885665;0;0.13163613;  1.0000847E+04;  0.0000000E+00; -2.0220409E-01;  1.0000000E+04;  0.0000000E+00;  9.9942637E+03;-0.038911805;0.0;0.17054793;1750.9009
  1.1200484E+00;  9.9999998E-03;  2.4003071E-01;2789;0.051098201;0.0;0.024089575;1001.7377;  4.0081328E-01;1383.1407;3;39.970669;0.0;10.266656;0;0.14693928;  1.0000668E+04;  0.0000000E+00; -2.3411532E-01;  1.0000000E+04;  0.0000000E+00;  9.9934375E+03;-0.030413799;0.0;0.17735307;2017.0405
  1.1200577E+00;  9.9999998E-03;  2.6003712E-01;2790;0.059308458;0.0;0.026154203;1001.6907;  4.0081325E-01;1345.749;3;47.01886;0.0;10.727845;0;0.15744993;  1.0000019E+04;  0.0000000E+00; -1.9866960E-01;  1.0000000E+04;  0.0000000E+00;  9.9931523E+03;-0.0034194076;0.0;0.16086935;2074.7664
  1.1200665E+00;  9.9999998E-03;  2.8004113E-01;2791;0.066626959;0.0;0.027935566;1001.6727;  4.0081325E-01;1331.3199;3;55.158588;0.0;13.220138;0;0.17311427;  9.9988379E+03;  0.0000000E+00;  5.8379322E-02;  1.0000000E+04;  0.0000000E+00;  9.9939717E+03;0.043416928;0.0;0.12969734;1750.3004
  1.1400257E+00;  9.9999998E-03;  1.6000785E-01;2813;0.027661774;0.0;0.0092813587;1001.6592;  4.0072057E-01;1303.7163;3;20.546574;0.0;7.2768836;0;0.10083708;  1.0000422E+04;  0.0000000E+00; -7.5765409E-02;  1.0000000E+04;  0.0000000E+00;  9.9967422E+03;-0.020992231;0.0;0.12182932;834.815
  1.1400290E+00;  9.9999998E-03;  1.8001126E-01;2814;0.031284254;0.0;0.012148703;1001.6282;  4.0072057E-01;1279.4524;3;23.656034;0.0;8.5011835;0;0.11204578;  1.0000492E+04;  0.0000000E+00; -1.4297019E-01;  1.0000000E+04;  0.0000000E+00;  9.9960518E+03;-0.025166389;0.0;0.13721217;1060.8815
  1.1400340E+00;  9.9999998E-03;  2.0001654E-01;2815;0.036597647;0.0;0.015881162;1001.6003;  4.0072051E-01;1257.4352;3;28.319132;0.0;9.3093939;0;0.11896266;  1.0000645E+04;  0.0000000E+00; -2.1462661E-01;  1.0000000E+04;  0.0000000E+00;  9.9953398E+03;-0.032332554;0.0;0.15129521;1308.8853
  1.1400410E+00;  9.9999998E-03;  2.2002350E-01;2816;0.043915145;0.0;0.019851124;1001.5634;  4.0072051E-01;1228.4846;3;34.642342;0.0;9.5719385;0;0.13072118;  1.0000699E+04;  0.0000000E+00; -2.7148852E-01;  1.0000000E+04;  0.0000000E+00;  9.9945498E+03;-0.033666279;0.0;0.16438746;1562.1841
  1.1400495E+00;  9.9999998E-03;  2.4003029E-01;2817;0.051873326;0.0;0.022835298;1001.5154;  4.0072054E-01;1190.7281;3;41.440575;0.0;9.8336582;0;0.14622426;  1.0000415E+04;  0.0000000E+00; -2.7804279E-01;  1.0000000E+04;  0.0000000E+00;  9.9938789E+03;-0.020145077;0.0;0.16636933;1732.4312
  1.1400577E+00;  9.9999998E-03;  2.6003519E-01;2818;0.05902341;0.0;0.024812309;1001.4834;  4.0072060E-01;1165.6178;3;48.603146;0.0;11.384042;0;0.15587971;  9.9997139E+03;  0.0000000E+00; -1.2237004E-01;  1.0000000E+04;  0.0000000E+00;  9.9939414E+03;0.0089643234;0.0;0.14691538;1588.4722
  1.1600254E+00;  9.9999998E-03;  1.6000807E-01;2840;0.027260887;0.0;0.008916718;1001.4659;  4.0064782E-01;1132.9382;3;20.56949;0.0;6.5225391;0;0.10650179;  1.0000115E+04;  0.0000000E+00; -1.3303106E-01;  1.0000000E+04;  0.0000000E+00;  9.9968203E+03;-0.011277286;0.0;0.11777908;752.95831
  1.1600293E+00;  9.9999998E-03;  1.8001215E-01;2841;0.03152955;0.0;0.012102372;1001.4427;  4.0064782E-01;1115.0607;3;24.313622;0.0;7.6430421;0;0.11334983;  1.0000262E+04;  0.0000000E+00; -2.0684107E-01;  1.0000000E+04;  0.0000000E+00;  9.9962080E+03;-0.018657558;0.0;0.13200739;954.7738
  1.1600353E+00;  9.9999998E-03;  2.0001796E-01;2842;0.037811801;0.0;0.015972579;1001.4148;  4.0064785E-01;1093.4038;3;29.859871;0.0;8.4571981;0;0.12260681;  1.0000394E+04;  0.0000000E+00; -2.7610207E-01;  1.0000000E+04;  0.0000000E+00;  9.9955225E+03;-0.023924798;0.0;0.14653161;1171.8091
  1.1600428E+00;  9.9999998E-03;  2.2002444E-01;2843;0.045300387;0.0;0.019564653;1001.3727;  4.0064776E-01;1060.8744;3;36.380543;0.0;9.130085;0;0.1400962;  1.0000298E+04;  0.0000000E+00; -3.1325233E-01;  1.0000000E+04;  0.0000000E+00;  9.9947803E+03;-0.018055169;0.0;0.15815137;1360.8661
  1.1600504E+00;  9.9999998E-03;  2.4002987E-01;2844;0.052354012;0.0;0.022151824;1001.3305;  4.0064779E-01;1028.2531;3;43.120682;0.0;10.34444;0;0.15638427;  9.9998691E+03;  0.0000000E+00; -2.2347303E-01;  1.0000000E+04;  0.0000000E+00;  9.9943652E+03;0.0011375088;0.0;0.15524676;1352.8296
  1.1600571E+00;  9.9999998E-03;  2.6003340E-01;2845;0.058113363;0.0;0.023923865;1001.3142;  4.0064776E-01;1015.625;3;50.001026;0.0;12.421984;0;0.16429766;  9.9991729E+03;  0.0000000E+00;  1.0719296E-01;  1.0000000E+04;  0.0000000E+00;  9.9947373E+03;0.029589262;0.0;0.13470839;1188.9574
  1.1800259E+00;  9.9999998E-03;  1.6000929E-01;2866;0.027783955;0.0;0.0093761832;1001.3155;  4.0059182E-01;995.5351;3;21.332621;0.0;6.1360822;0;0.11129506;  9.9998271E+03;  0.0000000E+00; -1.9735247E-01;  1.0000000E+04;  0.0000000E+00;  9.9968965E+03;-0.002920138;0.0;0.1142152;688.51392
  1.1800311E+00;  9.9999998E-03;  1.8001401E-01;2867;0.033138677;0.0;0.01289203;1001.2917;  4.0059185E-01;977.48602;3;26.11784;0.0;7.262558;0;0.12038453;  9.9999424E+03;  0.0000000E+00; -2.6671293E-01;  1.0000000E+04;  0.0000000E+00;  9.9963086E+03;-0.0084020384;0.0;0.12878656;860.26495
  1.1800376E+00;  9.9999998E-03;  2.0001973E-01;2868;0.039793018;0.0;0.01655749;1001.2557;  4.0059188E-01;950.23364;3;31.990162;0.0;8.3671236;0;0.13801771;  9.9999023E+03;  0.0000000E+00; -3.1246465E-01;  1.0000000E+04;  0.0000000E+00;  9.9956279E+03;-0.0053418679;0.0;0.14335959;1018.6263
  1.1800445E+00;  9.9999998E-03;  2.2002529E-01;2869;0.046511505;0.0;0.019628158;1001.2101;  4.0059185E-01;915.76404;3;38.37962;0.0;9.5594893;0;0.16048877;  9.9996133E+03;  0.0000000E+00; -2.6402631E-01;  1.0000000E+04;  0.0000000E+00;  9.9950078E+03;0.0086945007;0.0;0.15179427;1069.7441
  1.1800507E+00;  9.9999998E-03;  2.4002936E-01;2870;0.052066755;0.0;0.021722181;1001.1802;  4.0059185E-01;893.11389;3;44.579147;0.0;11.236654;0;0.17273152;  9.9991436E+03;  0.0000000E+00; -1.9699496E-03;  1.0000000E+04;  0.0000000E+00;  9.9948799E+03;0.028527454;0.0;0.14420407;961.49237
  1.2000287E+00;  9.9999998E-03;  1.6001157E-01;2890;0.02994428;0.0;0.010843844;1001.1918;  4.0054971E-01;878.72144;3;23.289829;0.0;6.4228148;0;0.12307339;  9.9994336E+03;  0.0000000E+00; -2.5613770E-01;  1.0000000E+04;  0.0000000E+00;  9.9969219E+03;0.009874722;0.0;0.11319867;625.20142
  1.2000345E+00;  9.9999998E-03;  1.8001623E-01;2891;0.035787269;0.0;0.01417502;1001.1583;  4.0054980E-01;853.92938;3;28.578802;0.0;7.6443043;0;0.14139529;  9.9993428E+03;  0.0000000E+00; -3.0232808E-01;  1.0000000E+04;  0.0000000E+00;  9.9963428E+03;0.013388561;0.0;0.12800673;743.78082
  1.2000403E+00;  9.9999998E-03;  2.0002128E-01;2892;0.041638412;0.0;0.017321276;1001.1152;  4.0054974E-01;822.1944;3;34.177807;0.0;9.0009336;0;0.16562808;  9.9991006E+03;  0.0000000E+00; -2.6203480E-01;  1.0000000E+04;  0.0000000E+00;  9.9957246E+03;0.02468445;0.0;0.14094363;785.09027
  1.2000457E+00;  9.9999998E-03;  2.2002570E-01;2893;0.046881847;0.0;0.019650504;1001.0772;  4.0054974E-01;794.15198;3;40.06591;0.0;10.349723;0;0.18423907;  9.9987832E+03;  0.0000000E+00; -3.7766926E-02;  1.0000000E+04;  0.0000000E+00;  9.9952822E+03;0.040423293;0.0;0.14381579;735.9505
  1.2200330E+00;  9.9999998E-03;  1.6001396E-01;2913;0.033323895;0.0;0.012544964;1001.0743;  4.0051880E-01;767.31049;3;25.913092;0.0;7.4071012;0;0.15271211;  9.9986563E+03;  0.0000000E+00; -2.8330973E-01;  1.0000000E+04;  0.0000000E+00;  9.9969043E+03;0.03819482;0.0;0.11451729;528.14197
  1.2200379E+00;  9.9999998E-03;  1.8001820E-01;2914;0.038113929;0.0;0.015446876;1001.0357;  4.0051872E-01;739.71777;3;30.736053;0.0;8.7731543;0;0.17483246;  9.9984336E+03;  0.0000000E+00; -2.4586527E-01;  1.0000000E+04;  0.0000000E+00;  9.9963555E+03;0.046579108;0.0;0.12825336;551.77631
  1.2200422E+00;  9.9999998E-03;  2.0002227E-01;2915;0.042497337;0.0;0.017818555;1001.0012;  4.0051877E-01;715.02118;3;36.096684;0.0;10.00882;0;0.19335696;  9.9982373E+03;  0.0000000E+00; -3.6290307E-02;  1.0000000E+04;  0.0000000E+00;  9.9958604E+03;0.056616828;0.0;0.13674013;517.85364
  1.2200456E+00;  9.9999998E-03;  2.2002552E-01;2916;0.045682367;0.0;0.019272067;1000.9831;  4.0051872E-01;702.16071;3;40.632572;0.0;10.898819;0;0.19327734;  9.9981494E+03;  0.0000000E+00;  3.6937323E-01;  1.0000000E+04;  0.0000000E+00;  9.9955840E+03;0.059754819;0.0;0.13352253;737.37524
  1.2400362E+00;  9.9999998E-03;  1.6001607E-01;2934;0.03547094;0.0;0.013959615;1000.9727;  4.0049633E-01;669.10535;3;28.114378;0.0;8.5689487;0;0.18605138;  9.9978018E+03;  0.0000000E+00; -1.9124967E-01;  1.0000000E+04;  0.0000000E+00;  9.9968408E+03;0.069209144;0.0;0.11684224;357.73431
  1.2400392E+00;  9.9999998E-03;  1.8001966E-01;2935;0.038525816;0.0;0.016126631;1000.9518;  4.0049633E-01;654.83209;3;32.463406;0.0;9.56001;0;0.19363803;  9.9978770E+03;  0.0000000E+00; -1.6845239E-03;  1.0000000E+04;  0.0000000E+00;  9.9963516E+03;0.06669125;0.0;0.12694678;356.17078
  1.2600366E+00;  9.9999998E-03;  1.6001765E-01;2952;0.035120599;0.0;0.014611591;1000.9237;  4.0048060E-01;608.79755;3;29.488762;0.0;9.0671692;0;0.18881771;  9.9977344E+03;  0.0000000E+00;  8.2084857E-02;  1.0000000E+04;  0.0000000E+00;  9.9967246E+03;0.070604086;0.0;0.11821363;256.92081
