Pos.x;Pos.y;Pos.z;Idp;Vel.x;Vel.y;Vel.z;Rhop;Mass;Press;Type;Acec.x;Acec.y;Acec.z;CellOffSpring;GradVel;Qfxx;Qfxy;Qfxz;Qfyy;Qfyz;Qfzz;StrainDot.x;StrainDot.y;StrainDot.z;VonMises3D
 -2.2000000E-01;  9.9999998E-03; -3.8000000E-01;0;0.0;0.0;0.0;1000.0;  4.0000001E-01;0.0;0;0.0;0.0;0.0;0;0.0;  1.0000000E+04;  0.0000000E+00;  0.0000000E+00;  1.0000000E+04;  0.0000000E+00;  1.0000000E+04;0.0;0.0;0.0;0.0
 -2.2000000E-01;  9.9999998E-03; -3.6000001E-01;1;0.0;0.0;0.0;1000.0;  4.0000001E-01;0.0;0;0.0;0.0;0.0;0;0.0;  1.0000000E+04;  0.0000000E+00;  0.0000000E+00;  1.0000000E+04;  0.0000000E+00;  1.0000000E+04;0.0;0.0;0.0;0.0
 -2.0000000E-01;  9.9999998E-03; -4.0000001E-01;39;0.0;0.0;0.0;1000.0;  4.0000001E-01;0.0;0;0.0;0.0;0.0;0;0.0;  1.0000000E+04;  0.0000000E+00;  0.0000000E+00;  1.0000000E+04;  0.0000000E+00;  1.0000000E+04;0.0;0.0;0.0;0.0
 -2.0000000E-01;  9.9999998E-03; -3.8000000E-01;40;0.0;0.0;0.0;1000.0;  4.0000001E-01;0.0;0;0.0;0.0;0.0;0;0.0;  1.0000000E+04;  0.0000000E+00;  0.0000000E+00;  1.0000000E+04;  0.0000000E+00;  1.0000000E+04;0.0;0.0;0.0;0.0
 -2.0000000E-01;  9.9999998E-03; -3.6000001E-01;41;0.0;0.0;0.0;1000.0;  4.0000001E-01;0.0;0;0.0;0.0;0.0;0;0.0;  1.0000000E+04;  0.0000000E+00;  0.0000000E+00;  1.0000000E+04;  0.0000000E+00;  1.0000000E+04;0.0;0.0;0.0;0.0
 -1.8000001E-01;  9.9999998E-03; -4.0000001E-01;80;0.0;0.0;0.0;1000.0;  4.0000001E-01;0.0;0;0.0;0.0;0.0;0;0.0;  1.0000000E+04;  0.0000000E+00;  0.0000000E+00;  1.0000000E+04;  0.0000000E+00;  1.0000000E+04;0.0;0.0;0.0;0.0
 -1.8000001E-01;  9.9999998E-03; -3.8000000E-01;81;0.0;0.0;0.0;1000.0;  4.0000001E-01;0.0;0;0.0;0.0;0.0;0;0.0;  1.0000000E+04;  0.0000000E+00;  0.0000000E+00;  1.0000000E+04;  0.0000000E+00;  1.0000000E+04;0.0;0.0;0.0;0.0
 -1.8000001E-01;  9.9999998E-03; -3.6000001E-01;82;0.0;0.0;0.0;1000.0;  4.0000001E-01;0.0;0;0.0;0.0;0.0;0;0.0;  1.0000000E+04;  0.0000000E+00;  0.0000000E+00;  1.0000000E+04;  0.0000000E+00;  1.0000000E+04;0.0;0.0;0.0;0.0
 -1.6000000E-01;  9.9999998E-03; -4.0000001E-01;121;0.0;0.0;0.0;1000.0;  4.0000001E-01;0.0;0;0.0;0.0;0.0;0;0.0;  1.0000000E+04;  0.0000000E+00;  0.0000000E+00;  1.0000000E+04;  0.0000000E+00;  1.0000000E+04;0.0;0.0;0.0;0.0
 -1.6000000E-01;  9.9999998E-03; -3.8000000E-01;122;0.0;0.0;0.0;1000.0;  4.0000001E-01;0.0;0;0.0;0.0;0.0;0;0.0;  1.0000000E+04;  0.0000000E+00;  0.0000000E+00;  1.0000000E+04;  0.0000000E+00;  1.0000000E+04;0.0;0.0;0.0;0.0
 -1.6000000E-01;  9.9999998E-03; -3.6000001E-01;123;0.0;0.0;0.0;1000.0;  4.0000001E-01;0.0;0;0.0;0.0;0.0;0;0.0;  1.0000000E+04;  0.0000000E+00;  0.0000000E+00;  1.0000000E+04;  0.0000000E+00;  1.0000000E+04;0.0;0.0;0.0;0.0
 -1.4000000E-01;  9.9999998E-03; -4.0000001E-01;162;0.0;0.0;0.0;1000.0;  4.0000001E-01;0.0;0;0.0;0.0;0.0;0;0.0;  1.0000000E+04;  0.0000000E+00;  0.0000000E+00;  1.0000000E+04;  0.0000000E+00;  1.0000000E+04;0.0;0.0;0.0;0.0
 -1.4000000E-01;  9.9999998E-03; -3.8000000E-01;163;0.0;0.0;0.0;1000.0;  4.0000001E-01;0.0;0;0.0;0.0;0.0;0;0.0;  1.0000000E+04;  0.0000000E+00;  0.0000000E+00;  1.0000000E+04;  0.0000000E+00;  1.0000000E+04;0.0;0.0;0.0;0.0
 -1.4000000E-01;  9.9999998E-03; -3.6000001E-01;164;0.0;0.0;0.0;1000.0;  4.0000001E-01;0.0;0;0.0;0.0;0.0;0;-2.1017986e-06;  1.0000000E+04;  0.0000000E+00;  0.0000000E+00;  1.0000000E+04;  0.0000000E+00;  1.0000000E+04;-1.6461604e-06;0.0;-4.5563823e-07;0.0079021025
 -1.2000000E-01;  9.9999998E-03; -4.0000001E-01;203;0.0;0.0;0.0;1000.0;  4.0000001E-01;0.0;0;0.0;0.0;0.0;0;-7.6177643e-16;  1.0000000E+04;  0.0000000E+00;  0.0000000E+00;  1.0000000E+04;  0.0000000E+00;  1.0000000E+04;-5.3090082e-16;0.0;-2.3087561e-16;1.001346e-12
 -1.2000000E-01;  9.9999998E-03; -3.8000000E-01;204;0.0;0.0;0.0;1000.0;  4.0000001E-01;0.0;0;0.0;0.0;0.0;0;-1.1018408e-05;  1.0000000E+04;  0.0000000E+00;  0.0000000E+00;  1.0000000E+04;  0.0000000E+00;  1.0000000E+04;-7.7073846e-06;0.0;-3.3110236e-06;0.058052473
 -1.2000000E-01;  9.9999998E-03; -3.6000001E-01;205;0.0;0.0;0.0;1000.0;  4.0000001E-01;0.0;0;0.0;0.0;0.0;0;-7.4177296e-05;  1.0000000E+04;  0.0000000E+00;  0.0000000E+00;  1.0000000E+04;  0.0000000E+00;  1.0000000E+04;-5.5503679e-05;0.0;-1.8673622e-05;0.32552591
 -1.0000000E-01;  9.9999998E-03; -4.0000001E-01;244;0.0;0.0;0.0;1000.0;  4.0000001E-01;0.0;0;0.0;0.0;0.0;0;-2.0028294e-05;  1.0000000E+04;  0.0000000E+00;  0.0000000E+00;  1.0000000E+04;  0.0000000E+00;  1.0000000E+04;-1.3080982e-05;0.0;-6.9473117e-06;0.1225905
 -1.0000000E-01;  9.9999998E-03; -3.8000000E-01;245;0.0;0.0;0.0;1000.0002;  4.0000001E-01;0.19752525;0;0.0;0.0;0.0;0;-0.00014584765;  1.0000000E+04;  0.0000000E+00;  0.0000000E+00;  1.0000000E+04;  0.0000000E+00;  1.0000000E+04;-9.6564116e-05;0.0;-4.9283524e-05;0.86866313
 -1.0000000E-01;  9.9999998E-03; -3.6000001E-01;246;0.0;0.0;0.0;1000.0009;  4.0000001E-01;0.69133836;0;0.0;0.0;0.0;0;-0.00045880771;  1.0000000E+04;  0.0000000E+00;  0.0000000E+00;  1.0000000E+04;  0.0000000E+00;  1.0000000E+04;-0.00032999442;0.0;-0.00012881329;2.259388
 -7.9999998E-02;  9.9999998E-03; -4.0000001E-01;285;0.0;0.0;0.0;1000.0002;  4.0000001E-01;0.19752525;0;0.0;0.0;0.0;0;-0.00016780655;  1.0000000E+04;  0.0000000E+00;  0.0000000E+00;  1.0000000E+04;  0.0000000E+00;  1.0000000E+04;-0.00010346842;0.0;-6.4338128e-05;1.1411256
 -7.9999998E-02;  9.9999998E-03; -3.8000000E-01;286;0.0;0.0;0.0;1000.0012;  4.0000001E-01;0.98762625;0;0.0;0.0;0.0;0;-0.00063698087;  1.0000000E+04;  0.0000000E+00;  0.0000000E+00;  1.0000000E+04;  0.0000000E+00;  1.0000000E+04;-0.00040302073;0.0;-0.00023396011;4.1474476
 -7.9999998E-02;  9.9999998E-03; -3.6000001E-01;287;0.0;0.0;0.0;1000.0029;  4.0000001E-01;2.4690657;0;0.0;0.0;0.0;0;-0.0015288901;  1.0000000E+04;  0.0000000E+00;  0.0000000E+00;  1.0000000E+04;  0.0000000E+00;  1.0000000E+04;-0.0010623587;0.0;-0.00046653143;8.2280893
 -5.9999999E-02;  9.9999998E-03; -4.0000001E-01;326;0.0;0.0;0.0;1000.0011;  4.0000001E-01;0.88886362;0;0.0;0.0;0.0;0;-0.00059393572;  1.0000000E+04;  0.0000000E+00;  0.0000000E+00;  1.0000000E+04;  0.0000000E+00;  1.0000000E+04;-0.00034766269;0.0;-0.000246273;4.3946009
 -5.9999999E-02;  9.9999998E-03; -3.8000000E-01;327;0.0;0.0;0.0;1000.0034;  4.0000001E-01;2.8641162;0;0.0;0.0;0.0;0;-0.0017332253;  1.0000000E+04;  0.0000000E+00;  0.0000000E+00;  1.0000000E+04;  0.0000000E+00;  1.0000000E+04;-0.0010494059;0.0;-0.00068381935;12.200791
 -5.9999999E-02;  9.9999998E-03; -3.6000001E-01;328;0.0;0.0;0.0;1000.0073;  4.0000001E-01;6.0245199;0;0.0;0.0;0.0;0;-0.0036371644;  1.0000000E+04;  0.0000000E+00;  0.0000000E+00;  1.0000000E+04;  0.0000000E+00;  1.0000000E+04;-0.0024421192;0.0;-0.0011950451;21.223537
 -3.9999999E-02;  9.9999998E-03; -4.0000001E-01;367;0.0;0.0;0.0;1000.0027;  4.0000001E-01;2.2715404;0;0.0;0.0;0.0;0;-0.001391327;  1.0000000E+04;  0.0000000E+00;  0.0000000E+00;  1.0000000E+04;  0.0000000E+00;  1.0000000E+04;-0.0007708015;0.0;-0.00062052556;11.15526
 -3.9999999E-02;  9.9999998E-03; -3.8000000E-01;368;0.0;0.0;0.0;1000.007;  4.0000001E-01;5.8269949;0;0.0;0.0;0.0;0;-0.0035518035;  1.0000000E+04;  0.0000000E+00;  0.0000000E+00;  1.0000000E+04;  0.0000000E+00;  1.0000000E+04;-0.0020511909;0.0;-0.0015006126;26.984234
 -3.9999999E-02;  9.9999998E-03; -3.6000001E-01;369;0.0;0.0;0.0;1000.0139;  4.0000001E-01;11.456465;0;0.0;0.0;0.0;0;-0.0069057727;  1.0000000E+04;  0.0000000E+00;  0.0000000E+00;  1.0000000E+04;  0.0000000E+00;  1.0000000E+04;-0.0044659227;0.0;-0.00243985;43.691254
 -2.0000000E-02;  9.9999998E-03; -4.0000001E-01;408;0.0;0.0;0.0;1000.0049;  4.0000001E-01;4.0492678;0;0.0;0.0;0.0;0;-0.0025231515;  1.0000000E+04;  0.0000000E+00;  0.0000000E+00;  1.0000000E+04;  0.0000000E+00;  1.0000000E+04;-0.0013165658;0.0;-0.0012065857;21.892609
 -2.0000000E-02;  9.9999998E-03; -3.8000000E-01;409;0.0;0.0;0.0;1000.0121;  4.0000001E-01;9.9750252;0;0.0;0.0;0.0;0;-0.0059816092;  1.0000000E+04;  0.0000000E+00;  0.0000000E+00;  1.0000000E+04;  0.0000000E+00;  1.0000000E+04;-0.0032827226;0.0;-0.0026988869;49.001804
 -2.0000000E-02;  9.9999998E-03; -3.6000001E-01;410;0.0;0.0;0.0;1000.0223;  4.0000001E-01;18.468611;0;0.0;0.0;0.0;0;-0.011107227;  1.0000000E+04;  0.0000000E+00;  0.0000000E+00;  1.0000000E+04;  0.0000000E+00;  1.0000000E+04;-0.0068964581;0.0;-0.0042107687;76.163918
  0.0000000E+00;  9.9999998E-03; -4.0000001E-01;449;0.0;0.0;0.0;1000.0077;  4.0000001E-01;6.4195704;0;0.0;0.0;0.0;0;-0.0038248801;  1.0000000E+04;  0.0000000E+00;  0.0000000E+00;  1.0000000E+04;  0.0000000E+00;  1.0000000E+04;-0.001875049;0.0;-0.0019498311;35.795895
  0.0000000E+00;  9.9999998E-03; -3.8000000E-01;450;0.0;0.0;0.0;1000.0175;  4.0000001E-01;14.518106;0;0.0;0.0;0.0;0;-0.0086993258;  1.0000000E+04;  0.0000000E+00;  0.0000000E+00;  1.0000000E+04;  0.0000000E+00;  1.0000000E+04;-0.0045329607;0.0;-0.0041663656;76.564644
  0.0000000E+00;  9.9999998E-03; -3.6000001E-01;451;0.0;0.0;0.0;1000.0319;  4.0000001E-01;26.468384;0;0.0;0.0;0.0;0;-0.015697464;  1.0000000E+04;  0.0000000E+00;  0.0000000E+00;  1.0000000E+04;  0.0000000E+00;  1.0000000E+04;-0.0093529634;0.0;-0.0063445009;116.18681
  2.0000000E-02;  9.9999998E-03; -4.0000001E-01;461;0.0;0.0;0.0;1000.0103;  4.0000001E-01;8.5923481;0;0.0;0.0;0.0;0;-0.0050837453;  1.0000000E+04;  0.0000000E+00;  0.0000000E+00;  1.0000000E+04;  0.0000000E+00;  1.0000000E+04;-0.0023503634;0.0;-0.0027333817;50.940502
  2.0000000E-02;  9.9999998E-03; -3.8000000E-01;462;0.0;0.0;0.0;1000.0233;  4.0000001E-01;19.258711;0;0.0;0.0;0.0;0;-0.011310048;  1.0000000E+04;  0.0000000E+00;  0.0000000E+00;  1.0000000E+04;  0.0000000E+00;  1.0000000E+04;-0.0056257765;0.0;-0.0056842719;106.07072
  2.0000000E-02;  9.9999998E-03; -3.6000001E-01;463;0.0;0.0;0.0;1000.0413;  4.0000001E-01;34.171867;0;0.0;0.0;0.0;0;-0.02004341;  1.0000000E+04;  0.0000000E+00;  0.0000000E+00;  1.0000000E+04;  0.0000000E+00;  1.0000000E+04;-0.011521341;0.0;-0.0085220682;158.50732
  3.9999999E-02;  9.9999998E-03; -4.0000001E-01;471;0.0;0.0;0.0;1000.0128;  4.0000001E-01;10.666364;0;0.0;0.0;0.0;0;-0.0061503379;  1.0000000E+04;  0.0000000E+00;  0.0000000E+00;  1.0000000E+04;  0.0000000E+00;  1.0000000E+04;-0.0027206948;0.0;-0.0034296431;65.154961
  3.9999999E-02;  9.9999998E-03; -3.8000000E-01;472;0.0;0.0;0.0;1000.0283;  4.0000001E-01;23.406742;0;0.0;0.0;0.0;0;-0.013546441;  1.0000000E+04;  0.0000000E+00;  0.0000000E+00;  1.0000000E+04;  0.0000000E+00;  1.0000000E+04;-0.0065282728;0.0;-0.007018168;133.53445
  3.9999999E-02;  9.9999998E-03; -3.6000001E-01;473;0.0;0.0;0.0;1000.0498;  4.0000001E-01;41.282776;0;0.0;0.0;0.0;0;-0.023754343;  1.0000000E+04;  0.0000000E+00;  0.0000000E+00;  1.0000000E+04;  0.0000000E+00;  1.0000000E+04;-0.01335533;0.0;-0.010399013;197.26295
  5.9999999E-02;  9.9999998E-03; -4.0000001E-01;481;0.0;0.0;0.0;1000.015;  4.0000001E-01;12.444091;0;0.0;0.0;0.0;0;-0.0070168558;  1.0000000E+04;  0.0000000E+00;  0.0000000E+00;  1.0000000E+04;  0.0000000E+00;  1.0000000E+04;-0.0030558947;0.0;-0.003960961;77.077751
  5.9999999E-02;  9.9999998E-03; -3.8000000E-01;482;0.0;0.0;0.0;1000.0329;  4.0000001E-01;27.258484;0;0.0;0.0;0.0;0;-0.015406416;  1.0000000E+04;  0.0000000E+00;  0.0000000E+00;  1.0000000E+04;  0.0000000E+00;  1.0000000E+04;-0.007380601;0.0;-0.0080258148;156.48322
  5.9999999E-02;  9.9999998E-03; -3.6000001E-01;483;0.0;0.0;0.0;1000.0575;  4.0000001E-01;47.603584;0;0.0;0.0;0.0;0;-0.026886508;  1.0000000E+04;  0.0000000E+00;  0.0000000E+00;  1.0000000E+04;  0.0000000E+00;  1.0000000E+04;-0.015111642;0.0;-0.011774867;228.9736
  7.9999998E-02;  9.9999998E-03; -4.0000001E-01;491;0.0;0.0;0.0;1000.017;  4.0000001E-01;14.123055;0;0.0;0.0;0.0;0;-0.0078283455;  1.0000000E+04;  0.0000000E+00;  0.0000000E+00;  1.0000000E+04;  0.0000000E+00;  1.0000000E+04;-0.0035014285;0.0;-0.0043269168;86.755554
  7.9999998E-02;  9.9999998E-03; -3.8000000E-01;492;0.0;0.0;0.0;1000.0377;  4.0000001E-01;31.20899;0;0.0;0.0;0.0;0;-0.01719268;  1.0000000E+04;  0.0000000E+00;  0.0000000E+00;  1.0000000E+04;  0.0000000E+00;  1.0000000E+04;-0.0084874714;0.0;-0.0087052081;174.89586
  7.9999998E-02;  9.9999998E-03; -3.6000001E-01;493;0.0;0.0;0.0;1000.0661;  4.0000001E-01;54.714493;0;0.0;0.0;0.0;0;-0.030008622;  1.0000000E+04;  0.0000000E+00;  0.0000000E+00;  1.0000000E+04;  0.0000000E+00;  1.0000000E+04;-0.017344126;0.0;-0.012664495;254.45219
  1.0000000E-01;  9.9999998E-03; -4.0000001E-01;501;0.0;0.0;0.0;1000.0201;  4.0000001E-01;16.592121;0;0.0;0.0;0.0;0;-0.0088580139;  1.0000000E+04;  0.0000000E+00;  0.0000000E+00;  1.0000000E+04;  0.0000000E+00;  1.0000000E+04;-0.0042646714;0.0;-0.004593343;101.00106
  1.0000000E-01;  9.9999998E-03; -3.8000000E-01;502;0.0;0.0;0.0;1000.0439;  4.0000001E-01;36.443409;0;0.0;0.0;0.0;0;-0.019470446;  1.0000000E+04;  0.0000000E+00;  0.0000000E+00;  1.0000000E+04;  0.0000000E+00;  1.0000000E+04;-0.01028696;0.0;-0.0091834869;191.21568
  1.0000000E-01;  9.9999998E-03; -3.6000001E-01;503;0.0;0.0;0.0;1000.0772;  4.0000001E-01;63.99818;0;0.0;0.0;0.0;0;-0.034110032;  1.0000000E+04;  0.0000000E+00;  0.0000000E+00;  1.0000000E+04;  0.0000000E+00;  1.0000000E+04;-0.020833172;0.0;-0.013276861;281.85834
  1.2000000E-01;  9.9999998E-03; -4.0000001E-01;511;0.0;0.0;0.0;1000.0245;  4.0000001E-01;20.246338;0;0.0;0.0;0.0;0;-0.010496849;  1.0000000E+04;  0.0000000E+00;  0.0000000E+00;  1.0000000E+04;  0.0000000E+00;  1.0000000E+04;-0.0056140674;0.0;-0.0048827822;189.35973
  1.2000000E-01;  9.9999998E-03; -3.8000000E-01;512;0.0;0.0;0.0;1000.0536;  4.0000001E-01;44.44318;0;0.0;0.0;0.0;0;-0.023036487;  1.0000000E+04;  0.0000000E+00;  0.0000000E+00;  1.0000000E+04;  0.0000000E+00;  1.0000000E+04;-0.013316507;0.0;-0.0097199799;233.14626
  1.2000000E-01;  9.9999998E-03; -3.6000001E-01;513;0.0;0.0;0.0;1000.0943;  4.0000001E-01;78.121239;0;0.0;0.0;0.0;0;-0.040511481;  1.0000000E+04;  0.0000000E+00;  0.0000000E+00;  1.0000000E+04;  0.0000000E+00;  1.0000000E+04;-0.026495742;0.0;-0.014015738;333.44998
  1.4000000E-01;  9.9999998E-03; -4.0000001E-01;521;0.0;0.0;0.0;1000.0318;  4.0000001E-01;26.369621;0;0.0;0.0;0.0;0;-0.013356723;  1.0000000E+04;  0.0000000E+00;  0.0000000E+00;  1.0000000E+04;  0.0000000E+00;  1.0000000E+04;-0.0079093082;0.0;-0.0054474152;551.76654
  1.4000000E-01;  9.9999998E-03; -3.8000000E-01;522;0.0;0.0;0.0;1000.0695;  4.0000001E-01;57.578609;0;0.0;0.0;0.0;0;-0.029002279;  1.0000000E+04;  0.0000000E+00;  0.0000000E+00;  1.0000000E+04;  0.0000000E+00;  1.0000000E+04;-0.018218633;0.0;-0.010783646;478.75397
  1.4000000E-01;  9.9999998E-03; -3.6000001E-01;523;0.0;0.0;0.0;1000.122;  4.0000001E-01;101.03416;0;0.0;0.0;0.0;0;-0.050867721;  1.0000000E+04;  0.0000000E+00;  0.0000000E+00;  1.0000000E+04;  0.0000000E+00;  1.0000000E+04;-0.035333198;0.0;-0.015534522;442.02304
  1.6000000E-01;  9.9999998E-03; -4.0000001E-01;531;0.0;0.0;0.0;1000.045;  4.0000001E-01;37.332272;0;0.0;0.0;0.0;0;-0.018386601;  1.0000000E+04;  0.0000000E+00;  0.0000000E+00;  1.0000000E+04;  0.0000000E+00;  1.0000000E+04;-0.011546903;0.0;-0.0068396972;1536.0406
  1.6000000E-01;  9.9999998E-03; -3.8000000E-01;532;0.0;0.0;0.0;1000.0951;  4.0000001E-01;78.812576;0;0.0;0.0;0.0;0;-0.038641803;  1.0000000E+04;  0.0000000E+00;  0.0000000E+00;  1.0000000E+04;  0.0000000E+00;  1.0000000E+04;-0.02544581;0.0;-0.013195994;1270.2428
  1.6000000E-01;  9.9999998E-03; -3.6000001E-01;533;0.0;0.0;0.0;1000.1642;  4.0000001E-01;135.99614;0;0.0;0.0;0.0;0;-0.066687301;  1.0000000E+04;  0.0000000E+00;  0.0000000E+00;  1.0000000E+04;  0.0000000E+00;  1.0000000E+04;-0.047843646;0.0;-0.018843658;604.46649
  1.8000001E-01;  9.9999998E-03; -4.0000001E-01;541;0.0;0.0;0.0;1000.0674;  4.0000001E-01;55.800884;0;0.0;0.0;0.0;0;-0.026804479;  1.0000000E+04;  0.0000000E+00;  0.0000000E+00;  1.0000000E+04;  0.0000000E+00;  1.0000000E+04;-0.016578646;0.0;-0.010225832;3682.2698
  1.8000001E-01;  9.9999998E-03; -3.8000000E-01;542;0.0;0.0;0.0;1000.1329;  4.0000001E-01;110.12032;0;0.0;0.0;0.0;0;-0.052646704;  1.0000000E+04;  0.0000000E+00;  0.0000000E+00;  1.0000000E+04;  0.0000000E+00;  1.0000000E+04;-0.034299351;0.0;-0.018347353;2961.6768
  1.8000001E-01;  9.9999998E-03; -3.6000001E-01;543;0.0;0.0;0.0;1000.2219;  4.0000001E-01;183.89601;0;0.0;0.0;0.0;0;-0.087943077;  1.0000000E+04;  0.0000000E+00;  0.0000000E+00;  1.0000000E+04;  0.0000000E+00;  1.0000000E+04;-0.062478904;0.0;-0.02546417;732.48956
  2.0000000E-01;  9.9999998E-03; -3.8000000E-01;551;0.0;0.0;0.0;1000.1843;  4.0000001E-01;152.68701;0;0.0;0.0;0.0;0;-0.071158268;  1.0000000E+04;  0.0000000E+00;  0.0000000E+00;  1.0000000E+04;  0.0000000E+00;  1.0000000E+04;-0.042806674;0.0;-0.028351594;5590.8721
  2.0000000E-01;  9.9999998E-03; -3.6000001E-01;552;0.0;0.0;0.0;1000.293;  4.0000001E-01;242.75853;0;0.0;0.0;0.0;0;-0.11330153;  1.0000000E+04;  0.0000000E+00;  0.0000000E+00;  1.0000000E+04;  0.0000000E+00;  1.0000000E+04;-0.075825311;0.0;-0.037476223;908.53094
 -2.2000000E-01;  9.9999998E-03; -3.4000000E-01;2;0.0;0.0;0.0;1000.0;  4.0000001E-01;0.0;0;0.0;0.0;0.0;0;0.0;  1.0000000E+04;  0.0000000E+00;  0.0000000E+00;  1.0000000E+04;  0.0000000E+00;  1.0000000E+04;0.0;0.0;0.0;0.0
 -2.2000000E-01;  9.9999998E-03; -3.1999999E-01;3;0.0;0.0;0.0;1000.0;  4.0000001E-01;0.0;0;0.0;0.0;0.0;0;0.0;  1.0000000E+04;  0.0000000E+00;  0.0000000E+00;  1.0000000E+04;  0.0000000E+00;  1.0000000E+04;0.0;0.0;0.0;0.0
 -2.2000000E-01;  9.9999998E-03; -3.0000001E-01;4;0.0;0.0;0.0;1000.0;  4.0000001E-01;0.0;0;0.0;0.0;0.0;0;0.0;  1.0000000E+04;  0.0000000E+00;  0.0000000E+00;  1.0000000E+04;  0.0000000E+00;  1.0000000E+04;0.0;0.0;0.0;0.0
 -2.2000000E-01;  9.9999998E-03; -2.8000000E-01;5;0.0;0.0;0.0;1000.0;  4.0000001E-01;0.0;0;0.0;0.0;0.0;0;0.0;  1.0000000E+04;  0.0000000E+00;  0.0000000E+00;  1.0000000E+04;  0.0000000E+00;  1.0000000E+04;0.0;0.0;0.0;0.0
 -2.2000000E-01;  9.9999998E-03; -2.5999999E-01;6;0.0;0.0;0.0;1000.0;  4.0000001E-01;0.0;0;0.0;0.0;0.0;0;0.0;  1.0000000E+04;  0.0000000E+00;  0.0000000E+00;  1.0000000E+04;  0.0000000E+00;  1.0000000E+04;0.0;0.0;0.0;0.0
 -2.2000000E-01;  9.9999998E-03; -2.3999999E-01;7;0.0;0.0;0.0;1000.0;  4.0000001E-01;0.0;0;0.0;0.0;0.0;0;0.0;  1.0000000E+04;  0.0000000E+00;  0.0000000E+00;  1.0000000E+04;  0.0000000E+00;  1.0000000E+04;0.0;0.0;0.0;0.0
 -2.2000000E-01;  9.9999998E-03; -2.2000000E-01;8;0.0;0.0;0.0;1000.0;  4.0000001E-01;0.0;0;0.0;0.0;0.0;0;0.0;  1.0000000E+04;  0.0000000E+00;  0.0000000E+00;  1.0000000E+04;  0.0000000E+00;  1.0000000E+04;0.0;0.0;0.0;0.0
 -2.2000000E-01;  9.9999998E-03; -2.0000000E-01;9;0.0;0.0;0.0;1000.0;  4.0000001E-01;0.0;0;0.0;0.0;0.0;0;0.0;  1.0000000E+04;  0.0000000E+00;  0.0000000E+00;  1.0000000E+04;  0.0000000E+00;  1.0000000E+04;0.0;0.0;0.0;0.0
 -2.0000000E-01;  9.9999998E-03; -3.4000000E-01;42;0.0;0.0;0.0;1000.0;  4.0000001E-01;0.0;0;0.0;0.0;0.0;0;0.0;  1.0000000E+04;  0.0000000E+00;  0.0000000E+00;  1.0000000E+04;  0.0000000E+00;  1.0000000E+04;0.0;0.0;0.0;0.0
 -2.0000000E-01;  9.9999998E-03; -3.1999999E-01;43;0.0;0.0;0.0;1000.0;  4.0000001E-01;0.0;0;0.0;0.0;0.0;0;0.0;  1.0000000E+04;  0.0000000E+00;  0.0000000E+00;  1.0000000E+04;  0.0000000E+00;  1.0000000E+04;0.0;0.0;0.0;0.0
 -2.0000000E-01;  9.9999998E-03; -3.0000001E-01;44;0.0;0.0;0.0;1000.0;  4.0000001E-01;0.0;0;0.0;0.0;0.0;0;0.0;  1.0000000E+04;  0.0000000E+00;  0.0000000E+00;  1.0000000E+04;  0.0000000E+00;  1.0000000E+04;0.0;0.0;0.0;0.0
 -2.0000000E-01;  9.9999998E-03; -2.8000000E-01;45;0.0;0.0;0.0;1000.0;  4.0000001E-01;0.0;0;0.0;0.0;0.0;0;0.0;  1.0000000E+04;  0.0000000E+00;  0.0000000E+00;  1.0000000E+04;  0.0000000E+00;  1.0000000E+04;0.0;0.0;0.0;0.0
 -2.0000000E-01;  9.9999998E-03; -2.5999999E-01;46;0.0;0.0;0.0;1000.0;  4.0000001E-01;0.0;0;0.0;0.0;0.0;0;0.0;  1.0000000E+04;  0.0000000E+00;  0.0000000E+00;  1.0000000E+04;  0.0000000E+00;  1.0000000E+04;0.0;0.0;0.0;0.0
 -2.0000000E-01;  9.9999998E-03; -2.3999999E-01;47;0.0;0.0;0.0;1000.0;  4.0000001E-01;0.0;0;0.0;0.0;0.0;0;0.0;  1.0000000E+04;  0.0000000E+00;  0.0000000E+00;  1.0000000E+04;  0.0000000E+00;  1.0000000E+04;0.0;0.0;0.0;0.0
 -2.0000000E-01;  9.9999998E-03; -2.2000000E-01;48;0.0;0.0;0.0;1000.0;  4.0000001E-01;0.0;0;0.0;0.0;0.0;0;0.0;  1.0000000E+04;  0.0000000E+00;  0.0000000E+00;  1.0000000E+04;  0.0000000E+00;  1.0000000E+04;0.0;0.0;0.0;0.0
 -2.0000000E-01;  9.9999998E-03; -2.0000000E-01;49;0.0;0.0;0.0;1000.0;  4.0000001E-01;0.0;0;0.0;0.0;0.0;0;0.0;  1.0000000E+04;  0.0000000E+00;  0.0000000E+00;  1.0000000E+04;  0.0000000E+00;  1.0000000E+04;0.0;0.0;0.0;0.0
 -1.8000001E-01;  9.9999998E-03; -3.4000000E-01;83;0.0;0.0;0.0;1000.0;  4.0000001E-01;0.0;0;0.0;0.0;0.0;0;0.0;  1.0000000E+04;  0.0000000E+00;  0.0000000E+00;  1.0000000E+04;  0.0000000E+00;  1.0000000E+04;0.0;0.0;0.0;0.0
 -1.8000001E-01;  9.9999998E-03; -3.1999999E-01;84;0.0;0.0;0.0;1000.0;  4.0000001E-01;0.0;0;0.0;0.0;0.0;0;0.0;  1.0000000E+04;  0.0000000E+00;  0.0000000E+00;  1.0000000E+04;  0.0000000E+00;  1.0000000E+04;0.0;0.0;0.0;0.0
 -1.8000001E-01;  9.9999998E-03; -3.0000001E-01;85;0.0;0.0;0.0;1000.0;  4.0000001E-01;0.0;0;0.0;0.0;0.0;0;0.0;  1.0000000E+04;  0.0000000E+00;  0.0000000E+00;  1.0000000E+04;  0.0000000E+00;  1.0000000E+04;0.0;0.0;0.0;0.0
 -1.8000001E-01;  9.9999998E-03; -2.8000000E-01;86;0.0;0.0;0.0;1000.0;  4.0000001E-01;0.0;0;0.0;0.0;0.0;0;0.0;  1.0000000E+04;  0.0000000E+00;  0.0000000E+00;  1.0000000E+04;  0.0000000E+00;  1.0000000E+04;0.0;0.0;0.0;0.0
 -1.8000001E-01;  9.9999998E-03; -2.5999999E-01;87;0.0;0.0;0.0;1000.0;  4.0000001E-01;0.0;0;0.0;0.0;0.0;0;0.0;  1.0000000E+04;  0.0000000E+00;  0.0000000E+00;  1.0000000E+04;  0.0000000E+00;  1.0000000E+04;0.0;0.0;0.0;0.0
 -1.8000001E-01;  9.9999998E-03; -2.3999999E-01;88;0.0;0.0;0.0;1000.0;  4.0000001E-01;0.0;0;0.0;0.0;0.0;0;0.0;  1.0000000E+04;  0.0000000E+00;  0.0000000E+00;  1.0000000E+04;  0.0000000E+00;  1.0000000E+04;0.0;0.0;0.0;0.0
 -1.8000001E-01;  9.9999998E-03; -2.2000000E-01;89;0.0;0.0;0.0;1000.0;  4.0000001E-01;0.0;0;0.0;0.0;0.0;0;0.0;  1.0000000E+04;  0.0000000E+00;  0.0000000E+00;  1.0000000E+04;  0.0000000E+00;  1.0000000E+04;0.0;0.0;0.0;0.0
 -1.8000001E-01;  9.9999998E-03; -2.0000000E-01;90;0.0;0.0;0.0;1000.0;  4.0000001E-01;0.0;0;0.0;0.0;0.0;0;0.0;  1.0000000E+04;  0.0000000E+00;  0.0000000E+00;  1.0000000E+04;  0.0000000E+00;  1.0000000E+04;0.0;0.0;0.0;0.0
 -1.6000000E-01;  9.9999998E-03; -3.4000000E-01;124;0.0;0.0;0.0;1000.0;  4.0000001E-01;0.0;0;0.0;0.0;0.0;0;0.0;  1.0000000E+04;  0.0000000E+00;  0.0000000E+00;  1.0000000E+04;  0.0000000E+00;  1.0000000E+04;0.0;0.0;0.0;0.0
 -1.6000000E-01;  9.9999998E-03; -3.1999999E-01;125;0.0;0.0;0.0;1000.0;  4.0000001E-01;0.0;0;0.0;0.0;0.0;0;-3.7529915e-07;  1.0000000E+04;  0.0000000E+00;  0.0000000E+00;  1.0000000E+04;  0.0000000E+00;  1.0000000E+04;-3.4436468e-07;0.0;-3.0934476e-08;0.00050319202
 -1.6000000E-01;  9.9999998E-03; -3.0000001E-01;126;0.0;0.0;0.0;1000.0;  4.0000001E-01;0.0;0;0.0;0.0;0.0;0;-2.3832063e-06;  1.0000000E+04;  0.0000000E+00;  0.0000000E+00;  1.0000000E+04;  0.0000000E+00;  1.0000000E+04;-2.2786735e-06;0.0;-1.0453279e-07;0.0015687372
 -1.6000000E-01;  9.9999998E-03; -2.8000000E-01;127;0.0;0.0;0.0;1000.0;  4.0000001E-01;0.0;0;0.0;0.0;0.0;0;-5.6374206e-06;  1.0000000E+04;  0.0000000E+00;  0.0000000E+00;  1.0000000E+04;  0.0000000E+00;  1.0000000E+04;-5.5424839e-06;0.0;-9.4936851e-08;0.00090017734
 -1.6000000E-01;  9.9999998E-03; -2.5999999E-01;128;0.0;0.0;0.0;1000.0;  4.0000001E-01;0.0;0;0.0;0.0;0.0;0;-8.4390231e-06;  1.0000000E+04;  0.0000000E+00;  0.0000000E+00;  1.0000000E+04;  0.0000000E+00;  1.0000000E+04;-8.4272542e-06;0.0;-1.176929e-08;0.0011119947
 -1.6000000E-01;  9.9999998E-03; -2.3999999E-01;129;0.0;0.0;0.0;1000.0;  4.0000001E-01;0.0;0;0.0;0.0;0.0;0;-1.0024958e-05;  1.0000000E+04;  0.0000000E+00;  0.0000000E+00;  1.0000000E+04;  0.0000000E+00;  1.0000000E+04;-1.0048003e-05;0.0;2.3044995e-08;0.0019820451
 -1.6000000E-01;  9.9999998E-03; -2.2000000E-01;130;0.0;0.0;0.0;1000.0;  4.0000001E-01;0.0;0;0.0;0.0;0.0;0;-1.1132469e-05;  1.0000000E+04;  0.0000000E+00;  0.0000000E+00;  1.0000000E+04;  0.0000000E+00;  1.0000000E+04;-1.1159847e-05;0.0;2.7378899e-08;0.0022268451
 -1.6000000E-01;  9.9999998E-03; -2.0000000E-01;131;0.0;0.0;0.0;1000.0;  4.0000001E-01;0.0;0;0.0;0.0;0.0;0;-1.1981213e-05;  1.0000000E+04;  0.0000000E+00;  0.0000000E+00;  1.0000000E+04;  0.0000000E+00;  1.0000000E+04;-1.2009251e-05;0.0;2.8037924e-08;0.0023624168
 -1.4000000E-01;  9.9999998E-03; -3.4000000E-01;165;0.0;0.0;0.0;1000.0;  4.0000001E-01;0.0;0;0.0;0.0;0.0;0;-1.804368e-05;  1.0000000E+04;  0.0000000E+00;  0.0000000E+00;  1.0000000E+04;  0.0000000E+00;  1.0000000E+04;-1.5160644e-05;0.0;-2.8830364e-06;0.04926122
 -1.4000000E-01;  9.9999998E-03; -3.1999999E-01;166;0.0;0.0;0.0;1000.0;  4.0000001E-01;0.0;0;0.0;0.0;0.0;0;-5.8516605e-05;  1.0000000E+04;  0.0000000E+00;  0.0000000E+00;  1.0000000E+04;  0.0000000E+00;  1.0000000E+04;-5.22722e-05;0.0;-6.2444069e-06;0.10450992
 -1.4000000E-01;  9.9999998E-03; -3.0000001E-01;167;0.0;0.0;0.0;1000.0001;  4.0000001E-01;0.098762624;0;0.0;0.0;0.0;0;-0.00012457266;  1.0000000E+04;  0.0000000E+00;  0.0000000E+00;  1.0000000E+04;  0.0000000E+00;  1.0000000E+04;-0.00011646442;0.0;-8.1082362e-06;0.12720454
 -1.4000000E-01;  9.9999998E-03; -2.8000000E-01;168;0.0;0.0;0.0;1000.0003;  4.0000001E-01;0.29628786;0;0.0;0.0;0.0;0;-0.0002061019;  1.0000000E+04;  0.0000000E+00;  0.0000000E+00;  1.0000000E+04;  0.0000000E+00;  1.0000000E+04;-0.00019903999;0.0;-7.0619085e-06;0.093938477
 -1.4000000E-01;  9.9999998E-03; -2.5999999E-01;169;0.0;0.0;0.0;1000.0005;  4.0000001E-01;0.3950505;0;0.0;0.0;0.0;0;-0.00028665087;  1.0000000E+04;  0.0000000E+00;  0.0000000E+00;  1.0000000E+04;  0.0000000E+00;  1.0000000E+04;-0.00028312553;0.0;-3.5253495e-06;0.016699376
 -1.4000000E-01;  9.9999998E-03; -2.3999999E-01;170;0.0;0.0;0.0;1000.0006;  4.0000001E-01;0.49381313;0;0.0;0.0;0.0;0;-0.00035269238;  1.0000000E+04;  0.0000000E+00;  0.0000000E+00;  1.0000000E+04;  0.0000000E+00;  1.0000000E+04;-0.00035320749;0.0;5.1511182e-07;0.066904299
 -1.4000000E-01;  9.9999998E-03; -2.2000000E-01;171;0.0;0.0;0.0;1000.0007;  4.0000001E-01;0.59257573;0;0.0;0.0;0.0;0;-0.00039978363;  1.0000000E+04;  0.0000000E+00;  0.0000000E+00;  1.0000000E+04;  0.0000000E+00;  1.0000000E+04;-0.00040266916;0.0;2.8855377e-06;0.11703774
 -1.4000000E-01;  9.9999998E-03; -2.0000000E-01;172;0.0;0.0;0.0;1000.0008;  4.0000001E-01;0.69133836;0;0.0;0.0;0.0;0;-0.00043220649;  1.0000000E+04;  0.0000000E+00;  0.0000000E+00;  1.0000000E+04;  0.0000000E+00;  1.0000000E+04;-0.00043556371;0.0;3.3572164e-06;0.13014488
 -1.2000000E-01;  9.9999998E-03; -3.4000000E-01;206;0.0;0.0;0.0;1000.0004;  4.0000001E-01;0.29628786;0;0.0;0.0;0.0;0;-0.00022168069;  1.0000000E+04;  0.0000000E+00;  0.0000000E+00;  1.0000000E+04;  0.0000000E+00;  1.0000000E+04;-0.00018062982;0.0;-4.1050866e-05;0.7084294
 -1.2000000E-01;  9.9999998E-03; -3.1999999E-01;207;0.0;0.0;0.0;1000.0009;  4.0000001E-01;0.69133836;0;0.0;0.0;0.0;0;-0.00046889856;  1.0000000E+04;  0.0000000E+00;  0.0000000E+00;  1.0000000E+04;  0.0000000E+00;  1.0000000E+04;-0.00041033639;0.0;-5.8562175e-05;0.98389339
 -1.2000000E-01;  9.9999998E-03; -3.0000001E-01;208;0.0;0.0;0.0;1000.0016;  4.0000001E-01;1.2839141;0;0.0;0.0;0.0;0;-0.0008076058;  1.0000000E+04;  0.0000000E+00;  0.0000000E+00;  1.0000000E+04;  0.0000000E+00;  1.0000000E+04;-0.00074461912;0.0;-6.298667e-05;1.0030614
 -1.2000000E-01;  9.9999998E-03; -2.8000000E-01;209;0.0;0.0;0.0;1000.0023;  4.0000001E-01;1.8764899;0;0.0;0.0;0.0;0;-0.0011987854;  1.0000000E+04;  0.0000000E+00;  0.0000000E+00;  1.0000000E+04;  0.0000000E+00;  1.0000000E+04;-0.0011471059;0.0;-5.1679461e-05;0.72965497
 -1.2000000E-01;  9.9999998E-03; -2.5999999E-01;210;0.0;0.0;0.0;1000.003;  4.0000001E-01;2.4690657;0;0.0;0.0;0.0;0;-0.0015844663;  1.0000000E+04;  0.0000000E+00;  0.0000000E+00;  1.0000000E+04;  0.0000000E+00;  1.0000000E+04;-0.0015564503;0.0;-2.801606e-05;0.23478997
 -1.2000000E-01;  9.9999998E-03; -2.3999999E-01;211;0.0;0.0;0.0;1000.0037;  4.0000001E-01;3.0616415;0;0.0;0.0;0.0;0;-0.001916389;  1.0000000E+04;  0.0000000E+00;  0.0000000E+00;  1.0000000E+04;  0.0000000E+00;  1.0000000E+04;-0.0019153804;0.0;-1.0086228e-06;0.3099288
 -1.2000000E-01;  9.9999998E-03; -2.2000000E-01;212;0.0;0.0;0.0;1000.0042;  4.0000001E-01;3.4566917;0;0.0;0.0;0.0;0;-0.0021750557;  1.0000000E+04;  0.0000000E+00;  0.0000000E+00;  1.0000000E+04;  0.0000000E+00;  1.0000000E+04;-0.0021945317;0.0;1.9476092e-05;0.72131979
 -1.2000000E-01;  9.9999998E-03; -2.0000000E-01;213;0.0;0.0;0.0;1000.0045;  4.0000001E-01;3.7529798;0;0.0;0.0;0.0;0;-0.0023647922;  1.0000000E+04;  0.0000000E+00;  0.0000000E+00;  1.0000000E+04;  0.0000000E+00;  1.0000000E+04;-0.0023941072;0.0;2.9314991e-05;0.92503506
 -1.0000000E-01;  9.9999998E-03; -3.4000000E-01;247;0.0;0.0;0.0;1000.002;  4.0000001E-01;1.580202;0;0.0;0.0;0.0;0;-0.001002332;  1.0000000E+04;  0.0000000E+00;  0.0000000E+00;  1.0000000E+04;  0.0000000E+00;  1.0000000E+04;-0.00079475302;0.0;-0.00020757894;3.5954466
 -1.0000000E-01;  9.9999998E-03; -3.1999999E-01;248;0.0;0.0;0.0;1000.0035;  4.0000001E-01;2.8641162;0;0.0;0.0;0.0;0;-0.0017999031;  1.0000000E+04;  0.0000000E+00;  0.0000000E+00;  1.0000000E+04;  0.0000000E+00;  1.0000000E+04;-0.0015465899;0.0;-0.00025331319;4.2826905
 -1.0000000E-01;  9.9999998E-03; -3.0000001E-01;249;0.0;0.0;0.0;1000.0055;  4.0000001E-01;4.5430808;0;0.0;0.0;0.0;0;-0.0028259156;  1.0000000E+04;  0.0000000E+00;  0.0000000E+00;  1.0000000E+04;  0.0000000E+00;  1.0000000E+04;-0.0025745817;0.0;-0.00025133402;4.06073
 -1.0000000E-01;  9.9999998E-03; -2.8000000E-01;250;0.0;0.0;0.0;1000.0078;  4.0000001E-01;6.518333;0;0.0;0.0;0.0;0;-0.003976922;  1.0000000E+04;  0.0000000E+00;  0.0000000E+00;  1.0000000E+04;  0.0000000E+00;  1.0000000E+04;-0.003777751;0.0;-0.00019917118;2.9031413
 -1.0000000E-01;  9.9999998E-03; -2.5999999E-01;251;0.0;0.0;0.0;1000.0101;  4.0000001E-01;8.2960606;0;0.0;0.0;0.0;0;-0.0051027043;  1.0000000E+04;  0.0000000E+00;  0.0000000E+00;  1.0000000E+04;  0.0000000E+00;  1.0000000E+04;-0.0049941964;0.0;-0.00010850815;1.0509456
 -1.0000000E-01;  9.9999998E-03; -2.3999999E-01;252;0.0;0.0;0.0;1000.012;  4.0000001E-01;9.9750252;0;0.0;0.0;0.0;0;-0.0060833166;  1.0000000E+04;  0.0000000E+00;  0.0000000E+00;  1.0000000E+04;  0.0000000E+00;  1.0000000E+04;-0.0060760812;0.0;-7.2353646e-06;0.96084273
 -1.0000000E-01;  9.9999998E-03; -2.2000000E-01;253;0.0;0.0;0.0;1000.0134;  4.0000001E-01;11.160176;0;0.0;0.0;0.0;0;-0.0068704137;  1.0000000E+04;  0.0000000E+00;  0.0000000E+00;  1.0000000E+04;  0.0000000E+00;  1.0000000E+04;-0.0069438326;0.0;7.341912e-05;2.5501761
 -1.0000000E-01;  9.9999998E-03; -2.0000000E-01;254;0.0;0.0;0.0;1000.0146;  4.0000001E-01;12.147802;0;0.0;0.0;0.0;0;-0.0074695596;  1.0000000E+04;  0.0000000E+00;  0.0000000E+00;  1.0000000E+04;  0.0000000E+00;  1.0000000E+04;-0.0075883423;0.0;0.00011878255;3.4496722
 -7.9999998E-02;  9.9999998E-03; -3.4000000E-01;288;0.0;0.0;0.0;1000.0057;  4.0000001E-01;4.7406058;0;0.0;0.0;0.0;0;-0.0028975033;  1.0000000E+04;  0.0000000E+00;  0.0000000E+00;  1.0000000E+04;  0.0000000E+00;  1.0000000E+04;-0.0022422583;0.0;-0.00065524509;11.421639
 -7.9999998E-02;  9.9999998E-03; -3.1999999E-01;289;0.0;0.0;0.0;1000.0095;  4.0000001E-01;7.90101;0;0.0;0.0;0.0;0;-0.0047914702;  1.0000000E+04;  0.0000000E+00;  0.0000000E+00;  1.0000000E+04;  0.0000000E+00;  1.0000000E+04;-0.0040500863;0.0;-0.00074138382;12.642091
 -7.9999998E-02;  9.9999998E-03; -3.0000001E-01;290;0.0;0.0;0.0;1000.0142;  4.0000001E-01;11.752752;0;0.0;0.0;0.0;0;-0.0071553267;  1.0000000E+04;  0.0000000E+00;  0.0000000E+00;  1.0000000E+04;  0.0000000E+00;  1.0000000E+04;-0.0064498587;0.0;-0.00070546789;11.53915
 -7.9999998E-02;  9.9999998E-03; -2.8000000E-01;291;0.0;0.0;0.0;1000.0192;  4.0000001E-01;15.900783;0;0.0;0.0;0.0;0;-0.0097603183;  1.0000000E+04;  0.0000000E+00;  0.0000000E+00;  1.0000000E+04;  0.0000000E+00;  1.0000000E+04;-0.0092131263;0.0;-0.00054719206;8.1490784
 -7.9999998E-02;  9.9999998E-03; -2.5999999E-01;292;0.0;0.0;0.0;1000.0244;  4.0000001E-01;20.147575;0;0.0;0.0;0.0;0;-0.012286499;  1.0000000E+04;  0.0000000E+00;  0.0000000E+00;  1.0000000E+04;  0.0000000E+00;  1.0000000E+04;-0.011990413;0.0;-0.00029608596;3.0807135
 -7.9999998E-02;  9.9999998E-03; -2.3999999E-01;293;0.0;0.0;0.0;1000.0286;  4.0000001E-01;23.70303;0;0.0;0.0;0.0;0;-0.014488525;  1.0000000E+04;  0.0000000E+00;  0.0000000E+00;  1.0000000E+04;  0.0000000E+00;  1.0000000E+04;-0.014468402;0.0;-2.0123389e-05;2.3575525
 -7.9999998E-02;  9.9999998E-03; -2.2000000E-01;294;0.0;0.0;0.0;1000.032;  4.0000001E-01;26.468384;0;0.0;0.0;0.0;0;-0.016274935;  1.0000000E+04;  0.0000000E+00;  0.0000000E+00;  1.0000000E+04;  0.0000000E+00;  1.0000000E+04;-0.01647866;0.0;0.00020372507;6.7247372
 -7.9999998E-02;  9.9999998E-03; -2.0000000E-01;295;0.0;0.0;0.0;1000.0347;  4.0000001E-01;28.739923;0;0.0;0.0;0.0;0;-0.017659171;  1.0000000E+04;  0.0000000E+00;  0.0000000E+00;  1.0000000E+04;  0.0000000E+00;  1.0000000E+04;-0.017996101;0.0;0.00033692949;9.3146677
 -5.9999999E-02;  9.9999998E-03; -3.4000000E-01;329;0.0;0.0;0.0;1000.0128;  4.0000001E-01;10.567601;0;0.0;0.0;0.0;0;-0.0063741454;  1.0000000E+04;  0.0000000E+00;  0.0000000E+00;  1.0000000E+04;  0.0000000E+00;  1.0000000E+04;-0.0048119398;0.0;-0.0015622057;27.442932
 -5.9999999E-02;  9.9999998E-03; -3.1999999E-01;330;0.0;0.0;0.0;1000.02;  4.0000001E-01;16.493359;0;0.0;0.0;0.0;0;-0.010043561;  1.0000000E+04;  0.0000000E+00;  0.0000000E+00;  1.0000000E+04;  0.0000000E+00;  1.0000000E+04;-0.0083463313;0.0;-0.0016972298;29.207405
 -5.9999999E-02;  9.9999998E-03; -3.0000001E-01;331;0.0;0.0;0.0;1000.029;  4.0000001E-01;23.999317;0;0.0;0.0;0.0;0;-0.014542749;  1.0000000E+04;  0.0000000E+00;  0.0000000E+00;  1.0000000E+04;  0.0000000E+00;  1.0000000E+04;-0.012965714;0.0;-0.0015770353;26.103004
 -5.9999999E-02;  9.9999998E-03; -2.8000000E-01;332;0.0;0.0;0.0;1000.0386;  4.0000001E-01;31.99909;0;0.0;0.0;0.0;0;-0.019436877;  1.0000000E+04;  0.0000000E+00;  0.0000000E+00;  1.0000000E+04;  0.0000000E+00;  1.0000000E+04;-0.018232306;0.0;-0.0012045709;18.270161
 -5.9999999E-02;  9.9999998E-03; -2.5999999E-01;333;0.0;0.0;0.0;1000.0479;  4.0000001E-01;39.603813;0;0.0;0.0;0.0;0;-0.024131738;  1.0000000E+04;  0.0000000E+00;  0.0000000E+00;  1.0000000E+04;  0.0000000E+00;  1.0000000E+04;-0.023488188;0.0;-0.00064354873;7.0197539
 -5.9999999E-02;  9.9999998E-03; -2.3999999E-01;334;0.0;0.0;0.0;1000.0559;  4.0000001E-01;46.319672;0;0.0;0.0;0.0;0;-0.028200226;  1.0000000E+04;  0.0000000E+00;  0.0000000E+00;  1.0000000E+04;  0.0000000E+00;  1.0000000E+04;-0.028163064;0.0;-3.7161946e-05;4.883667
 -5.9999999E-02;  9.9999998E-03; -2.2000000E-01;335;0.0;0.0;0.0;1000.0624;  4.0000001E-01;51.751614;0;0.0;0.0;0.0;0;-0.031507153;  1.0000000E+04;  0.0000000E+00;  0.0000000E+00;  1.0000000E+04;  0.0000000E+00;  1.0000000E+04;-0.031963807;0.0;0.00045665292;14.467893
 -5.9999999E-02;  9.9999998E-03; -2.0000000E-01;336;0.0;0.0;0.0;1000.0672;  4.0000001E-01;55.702122;0;0.0;0.0;0.0;0;-0.034091357;  1.0000000E+04;  0.0000000E+00;  0.0000000E+00;  1.0000000E+04;  0.0000000E+00;  1.0000000E+04;-0.034849908;0.0;0.00075855287;20.270376
 -3.9999999E-02;  9.9999998E-03; -3.4000000E-01;370;0.0;0.0;0.0;1000.0231;  4.0000001E-01;19.159948;0;0.0;0.0;0.0;0;-0.011537806;  1.0000000E+04;  0.0000000E+00;  0.0000000E+00;  1.0000000E+04;  0.0000000E+00;  1.0000000E+04;-0.0084717954;0.0;-0.0030660105;54.34663
 -3.9999999E-02;  9.9999998E-03; -3.1999999E-01;371;0.0;0.0;0.0;1000.0352;  4.0000001E-01;29.134974;0;0.0;0.0;0.0;0;-0.017626232;  1.0000000E+04;  0.0000000E+00;  0.0000000E+00;  1.0000000E+04;  0.0000000E+00;  1.0000000E+04;-0.014367679;0.0;-0.0032585519;56.652992
 -3.9999999E-02;  9.9999998E-03; -3.0000001E-01;372;0.0;0.0;0.0;1000.05;  4.0000001E-01;41.381538;0;0.0;0.0;0.0;0;-0.024998045;  1.0000000E+04;  0.0000000E+00;  0.0000000E+00;  1.0000000E+04;  0.0000000E+00;  1.0000000E+04;-0.022012392;0.0;-0.0029856532;50.044025
 -3.9999999E-02;  9.9999998E-03; -2.8000000E-01;373;0.0;0.0;0.0;1000.0656;  4.0000001E-01;54.319443;0;0.0;0.0;0.0;0;-0.032909028;  1.0000000E+04;  0.0000000E+00;  0.0000000E+00;  1.0000000E+04;  0.0000000E+00;  1.0000000E+04;-0.030659985;0.0;-0.0022490444;34.715244
 -3.9999999E-02;  9.9999998E-03; -2.5999999E-01;374;0.0;0.0;0.0;1000.0805;  4.0000001E-01;66.664772;0;0.0;0.0;0.0;0;-0.04038256;  1.0000000E+04;  0.0000000E+00;  0.0000000E+00;  1.0000000E+04;  0.0000000E+00;  1.0000000E+04;-0.039205484;0.0;-0.001177076;13.289531
 -3.9999999E-02;  9.9999998E-03; -2.3999999E-01;375;0.0;0.0;0.0;1000.093;  4.0000001E-01;77.034843;0;0.0;0.0;0.0;0;-0.046792291;  1.0000000E+04;  0.0000000E+00;  0.0000000E+00;  1.0000000E+04;  0.0000000E+00;  1.0000000E+04;-0.046748202;0.0;-4.4087486e-05;8.9302464
 -3.9999999E-02;  9.9999998E-03; -2.2000000E-01;376;0.0;0.0;0.0;1000.1031;  4.0000001E-01;85.429672;0;0.0;0.0;0.0;0;-0.05199023;  1.0000000E+04;  0.0000000E+00;  0.0000000E+00;  1.0000000E+04;  0.0000000E+00;  1.0000000E+04;-0.052862015;0.0;0.00087178563;26.674528
 -3.9999999E-02;  9.9999998E-03; -2.0000000E-01;377;0.0;0.0;0.0;1000.1111;  4.0000001E-01;92.046768;0;0.0;0.0;0.0;0;-0.056066584;  1.0000000E+04;  0.0000000E+00;  0.0000000E+00;  1.0000000E+04;  0.0000000E+00;  1.0000000E+04;-0.057504628;0.0;0.0014380445;37.48127
 -2.0000000E-02;  9.9999998E-03; -3.4000000E-01;411;0.0;0.0;0.0;1000.0362;  4.0000001E-01;30.023838;0;0.0;0.0;0.0;0;-0.017992372;  1.0000000E+04;  0.0000000E+00;  0.0000000E+00;  1.0000000E+04;  0.0000000E+00;  1.0000000E+04;-0.012814088;0.0;-0.0051782834;92.766998
 -2.0000000E-02;  9.9999998E-03; -3.1999999E-01;412;0.0;0.0;0.0;1000.0543;  4.0000001E-01;45.035755;0;0.0;0.0;0.0;0;-0.026897274;  1.0000000E+04;  0.0000000E+00;  0.0000000E+00;  1.0000000E+04;  0.0000000E+00;  1.0000000E+04;-0.021457953;0.0;-0.0054393201;95.675797
 -2.0000000E-02;  9.9999998E-03; -3.0000001E-01;413;0.0;0.0;0.0;1000.0757;  4.0000001E-01;62.714268;0;0.0;0.0;0.0;0;-0.037522942;  1.0000000E+04;  0.0000000E+00;  0.0000000E+00;  1.0000000E+04;  0.0000000E+00;  1.0000000E+04;-0.032586429;0.0;-0.004936514;83.874077
 -2.0000000E-02;  9.9999998E-03; -2.8000000E-01;414;0.0;0.0;0.0;1000.098;  4.0000001E-01;81.182877;0;0.0;0.0;0.0;0;-0.048716374;  1.0000000E+04;  0.0000000E+00;  0.0000000E+00;  1.0000000E+04;  0.0000000E+00;  1.0000000E+04;-0.045057669;0.0;-0.0036587047;57.442833
 -2.0000000E-02;  9.9999998E-03; -2.5999999E-01;415;0.0;0.0;0.0;1000.1186;  4.0000001E-01;98.268814;0;0.0;0.0;0.0;0;-0.059071742;  1.0000000E+04;  0.0000000E+00;  0.0000000E+00;  1.0000000E+04;  0.0000000E+00;  1.0000000E+04;-0.057214458;0.0;-0.0018572857;21.451862
 -2.0000000E-02;  9.9999998E-03; -2.3999999E-01;416;0.0;0.0;0.0;1000.1359;  4.0000001E-01;112.58939;0;0.0;0.0;0.0;0;-0.067854926;  1.0000000E+04;  0.0000000E+00;  0.0000000E+00;  1.0000000E+04;  0.0000000E+00;  1.0000000E+04;-0.067841418;0.0;-1.3506708e-05;14.793705
 -2.0000000E-02;  9.9999998E-03; -2.2000000E-01;417;0.0;0.0;0.0;1000.1499;  4.0000001E-01;124.14462;0;0.0;0.0;0.0;0;-0.074952021;  1.0000000E+04;  0.0000000E+00;  0.0000000E+00;  1.0000000E+04;  0.0000000E+00;  1.0000000E+04;-0.07640747;0.0;0.0014554452;43.300369
 -2.0000000E-02;  9.9999998E-03; -2.0000000E-01;418;0.0;0.0;0.0;1000.1607;  4.0000001E-01;133.13202;0;0.0;0.0;0.0;0;-0.080519423;  1.0000000E+04;  0.0000000E+00;  0.0000000E+00;  1.0000000E+04;  0.0000000E+00;  1.0000000E+04;-0.082885519;0.0;0.0023660946;60.614456
  0.0000000E+00;  9.9999998E-03; -3.4000000E-01;452;0.0;0.0;0.0;1000.0507;  4.0000001E-01;41.974113;0;0.0;0.0;0.0;0;-0.024890017;  1.0000000E+04;  0.0000000E+00;  0.0000000E+00;  1.0000000E+04;  0.0000000E+00;  1.0000000E+04;-0.017181473;0.0;-0.0077085434;139.87175
  0.0000000E+00;  9.9999998E-03; -3.1999999E-01;453;0.0;0.0;0.0;1000.0745;  4.0000001E-01;61.726639;0;0.0;0.0;0.0;0;-0.03657598;  1.0000000E+04;  0.0000000E+00;  0.0000000E+00;  1.0000000E+04;  0.0000000E+00;  1.0000000E+04;-0.02853756;0.0;-0.0080384193;143.31981
  0.0000000E+00;  9.9999998E-03; -3.0000001E-01;454;0.0;0.0;0.0;1000.102;  4.0000001E-01;84.54081;0;0.0;0.0;0.0;0;-0.050168369;  1.0000000E+04;  0.0000000E+00;  0.0000000E+00;  1.0000000E+04;  0.0000000E+00;  1.0000000E+04;-0.042967118;0.0;-0.0072012511;124.17008
  2.0000000E-02;  9.9999998E-03; -3.4000000E-01;464;0.0;0.0;0.0;1000.0645;  4.0000001E-01;53.43058;0;0.0;0.0;0.0;0;-0.031284817;  1.0000000E+04;  0.0000000E+00;  0.0000000E+00;  1.0000000E+04;  0.0000000E+00;  1.0000000E+04;-0.021023545;0.0;-0.010261272;189.15173
  2.0000000E-02;  9.9999998E-03; -3.1999999E-01;465;0.0;0.0;0.0;1000.0934;  4.0000001E-01;77.429893;0;0.0;0.0;0.0;0;-0.045296453;  1.0000000E+04;  0.0000000E+00;  0.0000000E+00;  1.0000000E+04;  0.0000000E+00;  1.0000000E+04;-0.034675039;0.0;-0.010621415;192.46016
  3.9999999E-02;  9.9999998E-03; -3.4000000E-01;474;0.0;0.0;0.0;1000.077;  4.0000001E-01;63.800655;0;0.0;0.0;0.0;0;-0.036683738;  1.0000000E+04;  0.0000000E+00;  0.0000000E+00;  1.0000000E+04;  0.0000000E+00;  1.0000000E+04;-0.024286753;0.0;-0.012396984;233.10172
  3.9999999E-02;  9.9999998E-03; -3.1999999E-01;475;0.0;0.0;0.0;1000.1104;  4.0000001E-01;91.454193;0;0.0;0.0;0.0;0;-0.052534305;  1.0000000E+04;  0.0000000E+00;  0.0000000E+00;  1.0000000E+04;  0.0000000E+00;  1.0000000E+04;-0.039849468;0.0;-0.012684839;234.45619
  5.9999999E-02;  9.9999998E-03; -3.4000000E-01;484;0.0;0.0;0.0;1000.0886;  4.0000001E-01;73.38063;0;0.0;0.0;0.0;0;-0.041306909;  1.0000000E+04;  0.0000000E+00;  0.0000000E+00;  1.0000000E+04;  0.0000000E+00;  1.0000000E+04;-0.027421705;0.0;-0.013885203;267.68021
  5.9999999E-02;  9.9999998E-03; -3.1999999E-01;485;0.0;0.0;0.0;1000.1263;  4.0000001E-01;104.68839;0;0.0;0.0;0.0;0;-0.058859743;  1.0000000E+04;  0.0000000E+00;  0.0000000E+00;  1.0000000E+04;  0.0000000E+00;  1.0000000E+04;-0.04483626;0.0;-0.014023484;265.64746
  7.9999998E-02;  9.9999998E-03; -3.4000000E-01;494;0.0;0.0;0.0;1000.1015;  4.0000001E-01;84.046989;0;0.0;0.0;0.0;0;-0.046083424;  1.0000000E+04;  0.0000000E+00;  0.0000000E+00;  1.0000000E+04;  0.0000000E+00;  1.0000000E+04;-0.031304833;0.0;-0.014778593;294.77441
  7.9999998E-02;  9.9999998E-03; -3.1999999E-01;495;0.0;0.0;0.0;1000.1443;  4.0000001E-01;119.50278;0;0.0;0.0;0.0;0;-0.065552562;  1.0000000E+04;  0.0000000E+00;  0.0000000E+00;  1.0000000E+04;  0.0000000E+00;  1.0000000E+04;-0.050823003;0.0;-0.014729558;288.32761
  1.0000000E-01;  9.9999998E-03; -3.4000000E-01;504;0.0;0.0;0.0;1000.1189;  4.0000001E-01;98.466339;0;0.0;0.0;0.0;0;-0.052502405;  1.0000000E+04;  0.0000000E+00;  0.0000000E+00;  1.0000000E+04;  0.0000000E+00;  1.0000000E+04;-0.037138142;0.0;-0.015364263;340.84677
  1.0000000E-01;  9.9999998E-03; -3.1999999E-01;505;0.0;0.0;0.0;1000.1689;  4.0000001E-01;139.94664;0;0.0;0.0;0.0;0;-0.074530587;  1.0000000E+04;  0.0000000E+00;  0.0000000E+00;  1.0000000E+04;  0.0000000E+00;  1.0000000E+04;-0.059405681;0.0;-0.015124904;341.51224
  1.2000000E-01;  9.9999998E-03; -3.4000000E-01;514;0.0;0.0;0.0;1000.1455;  4.0000001E-01;120.58916;0;0.0;0.0;0.0;0;-0.062424608;  1.0000000E+04;  0.0000000E+00;  0.0000000E+00;  1.0000000E+04;  0.0000000E+00;  1.0000000E+04;-0.046275999;0.0;-0.01614861;548.54755
  1.2000000E-01;  9.9999998E-03; -3.1999999E-01;515;0.0;0.0;0.0;1000.2049;  4.0000001E-01;169.77295;0;0.0;0.0;0.0;0;-0.088040866;  1.0000000E+04;  0.0000000E+00;  0.0000000E+00;  1.0000000E+04;  0.0000000E+00;  1.0000000E+04;-0.072296806;0.0;-0.015744058;670.92743
  1.4000000E-01;  9.9999998E-03; -3.4000000E-01;524;0.0;0.0;0.0;1000.1868;  4.0000001E-01;154.76103;0;0.0;0.0;0.0;0;-0.078001082;  1.0000000E+04;  0.0000000E+00;  0.0000000E+00;  1.0000000E+04;  0.0000000E+00;  1.0000000E+04;-0.060101539;0.0;-0.017899539;1202.1609
  1.4000000E-01;  9.9999998E-03; -3.1999999E-01;525;0.0;0.0;0.0;1000.2593;  4.0000001E-01;214.8087;0;0.0;0.0;0.0;0;-0.10844938;  1.0000000E+04;  0.0000000E+00;  0.0000000E+00;  1.0000000E+04;  0.0000000E+00;  1.0000000E+04;-0.09108264;0.0;-0.017366745;1704.661
  1.6000000E-01;  9.9999998E-03; -3.4000000E-01;534;0.0;0.0;0.0;1000.2482;  4.0000001E-01;205.62378;0;0.0;0.0;0.0;0;-0.10100259;  1.0000000E+04;  0.0000000E+00;  0.0000000E+00;  1.0000000E+04;  0.0000000E+00;  1.0000000E+04;-0.079239383;0.0;-0.021763206;2581.5322
  1.6000000E-01;  9.9999998E-03; -3.1999999E-01;535;0.0;0.0;0.0;1000.3375;  4.0000001E-01;279.59698;0;0.0;0.0;0.0;0;-0.1375327;  1.0000000E+04;  0.0000000E+00;  0.0000000E+00;  1.0000000E+04;  0.0000000E+00;  1.0000000E+04;-0.11639046;0.0;-0.021142235;3903.353
  1.8000001E-01;  9.9999998E-03; -3.4000000E-01;544;0.0;0.0;0.0;1000.3306;  4.0000001E-01;273.86874;0;0.0;0.0;0.0;0;-0.13105953;  1.0000000E+04;  0.0000000E+00;  0.0000000E+00;  1.0000000E+04;  0.0000000E+00;  1.0000000E+04;-0.10161064;0.0;-0.029448889;4754.3252
  1.8000001E-01;  9.9999998E-03; -3.1999999E-01;545;0.0;0.0;0.0;1000.4401;  4.0000001E-01;364.63162;0;0.0;0.0;0.0;0;-0.17487806;  1.0000000E+04;  0.0000000E+00;  0.0000000E+00;  1.0000000E+04;  0.0000000E+00;  1.0000000E+04;-0.14603794;0.0;-0.028840121;7562.9653
  2.0000000E-01;  9.9999998E-03; -3.4000000E-01;553;0.0;0.0;0.0;1000.4279;  4.0000001E-01;354.55783;0;0.0;0.0;0.0;0;-0.16556156;  1.0000000E+04;  0.0000000E+00;  0.0000000E+00;  1.0000000E+04;  0.0000000E+00;  1.0000000E+04;-0.12231509;0.0;-0.043246478;7129.2163
  2.0000000E-01;  9.9999998E-03; -3.1999999E-01;554;0.0;0.0;0.0;1000.5615;  4.0000001E-01;465.17197;0;0.0;0.0;0.0;0;-0.21758726;  1.0000000E+04;  0.0000000E+00;  0.0000000E+00;  1.0000000E+04;  0.0000000E+00;  1.0000000E+04;-0.17460629;0.0;-0.042980973;12043.308
 -2.2000000E-01;  9.9999998E-03; -1.8000001E-01;10;0.0;0.0;0.0;1000.0;  4.0000001E-01;0.0;0;0.0;0.0;0.0;0;0.0;  1.0000000E+04;  0.0000000E+00;  0.0000000E+00;  1.0000000E+04;  0.0000000E+00;  1.0000000E+04;0.0;0.0;0.0;0.0
 -2.2000000E-01;  9.9999998E-03; -1.6000000E-01;11;0.0;0.0;0.0;1000.0;  4.0000001E-01;0.0;0;0.0;0.0;0.0;0;0.0;  1.0000000E+04;  0.0000000E+00;  0.0000000E+00;  1.0000000E+04;  0.0000000E+00;  1.0000000E+04;0.0;0.0;0.0;0.0
 -2.2000000E-01;  9.9999998E-03; -1.4000000E-01;12;0.0;0.0;0.0;1000.0;  4.0000001E-01;0.0;0;0.0;0.0;0.0;0;0.0;  1.0000000E+04;  0.0000000E+00;  0.0000000E+00;  1.0000000E+04;  0.0000000E+00;  1.0000000E+04;0.0;0.0;0.0;0.0
 -2.2000000E-01;  9.9999998E-03; -1.2000000E-01;13;0.0;0.0;0.0;1000.0;  4.0000001E-01;0.0;0;0.0;0.0;0.0;0;0.0;  1.0000000E+04;  0.0000000E+00;  0.0000000E+00;  1.0000000E+04;  0.0000000E+00;  1.0000000E+04;0.0;0.0;0.0;0.0
 -2.2000000E-01;  9.9999998E-03; -1.0000000E-01;14;0.0;0.0;0.0;1000.0;  4.0000001E-01;0.0;0;0.0;0.0;0.0;0;0.0;  1.0000000E+04;  0.0000000E+00;  0.0000000E+00;  1.0000000E+04;  0.0000000E+00;  1.0000000E+04;0.0;0.0;0.0;0.0
 -2.2000000E-01;  9.9999998E-03; -7.9999998E-02;15;0.0;0.0;0.0;1000.0;  4.0000001E-01;0.0;0;0.0;0.0;0.0;0;0.0;  1.0000000E+04;  0.0000000E+00;  0.0000000E+00;  1.0000000E+04;  0.0000000E+00;  1.0000000E+04;0.0;0.0;0.0;0.0
 -2.2000000E-01;  9.9999998E-03; -5.9999999E-02;16;0.0;0.0;0.0;1000.0;  4.0000001E-01;0.0;0;0.0;0.0;0.0;0;0.0;  1.0000000E+04;  0.0000000E+00;  0.0000000E+00;  1.0000000E+04;  0.0000000E+00;  1.0000000E+04;0.0;0.0;0.0;0.0
 -2.2000000E-01;  9.9999998E-03; -3.9999999E-02;17;0.0;0.0;0.0;1000.0;  4.0000001E-01;0.0;0;0.0;0.0;0.0;0;0.0;  1.0000000E+04;  0.0000000E+00;  0.0000000E+00;  1.0000000E+04;  0.0000000E+00;  1.0000000E+04;0.0;0.0;0.0;0.0
 -2.2000000E-01;  9.9999998E-03; -2.0000000E-02;18;0.0;0.0;0.0;1000.0;  4.0000001E-01;0.0;0;0.0;0.0;0.0;0;0.0;  1.0000000E+04;  0.0000000E+00;  0.0000000E+00;  1.0000000E+04;  0.0000000E+00;  1.0000000E+04;0.0;0.0;0.0;0.0
 -2.0000000E-01;  9.9999998E-03; -1.8000001E-01;50;0.0;0.0;0.0;1000.0;  4.0000001E-01;0.0;0;0.0;0.0;0.0;0;0.0;  1.0000000E+04;  0.0000000E+00;  0.0000000E+00;  1.0000000E+04;  0.0000000E+00;  1.0000000E+04;0.0;0.0;0.0;0.0
 -2.0000000E-01;  9.9999998E-03; -1.6000000E-01;51;0.0;0.0;0.0;1000.0;  4.0000001E-01;0.0;0;0.0;0.0;0.0;0;0.0;  1.0000000E+04;  0.0000000E+00;  0.0000000E+00;  1.0000000E+04;  0.0000000E+00;  1.0000000E+04;0.0;0.0;0.0;0.0
 -2.0000000E-01;  9.9999998E-03; -1.4000000E-01;52;0.0;0.0;0.0;1000.0;  4.0000001E-01;0.0;0;0.0;0.0;0.0;0;0.0;  1.0000000E+04;  0.0000000E+00;  0.0000000E+00;  1.0000000E+04;  0.0000000E+00;  1.0000000E+04;0.0;0.0;0.0;0.0
 -2.0000000E-01;  9.9999998E-03; -1.2000000E-01;53;0.0;0.0;0.0;1000.0;  4.0000001E-01;0.0;0;0.0;0.0;0.0;0;0.0;  1.0000000E+04;  0.0000000E+00;  0.0000000E+00;  1.0000000E+04;  0.0000000E+00;  1.0000000E+04;0.0;0.0;0.0;0.0
 -2.0000000E-01;  9.9999998E-03; -1.0000000E-01;54;0.0;0.0;0.0;1000.0;  4.0000001E-01;0.0;0;0.0;0.0;0.0;0;0.0;  1.0000000E+04;  0.0000000E+00;  0.0000000E+00;  1.0000000E+04;  0.0000000E+00;  1.0000000E+04;0.0;0.0;0.0;0.0
 -2.0000000E-01;  9.9999998E-03; -7.9999998E-02;55;0.0;0.0;0.0;1000.0;  4.0000001E-01;0.0;0;0.0;0.0;0.0;0;0.0;  1.0000000E+04;  0.0000000E+00;  0.0000000E+00;  1.0000000E+04;  0.0000000E+00;  1.0000000E+04;0.0;0.0;0.0;0.0
 -2.0000000E-01;  9.9999998E-03; -5.9999999E-02;56;0.0;0.0;0.0;1000.0;  4.0000001E-01;0.0;0;0.0;0.0;0.0;0;0.0;  1.0000000E+04;  0.0000000E+00;  0.0000000E+00;  1.0000000E+04;  0.0000000E+00;  1.0000000E+04;0.0;0.0;0.0;0.0
 -2.0000000E-01;  9.9999998E-03; -3.9999999E-02;57;0.0;0.0;0.0;1000.0;  4.0000001E-01;0.0;0;0.0;0.0;0.0;0;0.0;  1.0000000E+04;  0.0000000E+00;  0.0000000E+00;  1.0000000E+04;  0.0000000E+00;  1.0000000E+04;0.0;0.0;0.0;0.0
 -2.0000000E-01;  9.9999998E-03; -2.0000000E-02;58;0.0;0.0;0.0;1000.0;  4.0000001E-01;0.0;0;0.0;0.0;0.0;0;0.0;  1.0000000E+04;  0.0000000E+00;  0.0000000E+00;  1.0000000E+04;  0.0000000E+00;  1.0000000E+04;0.0;0.0;0.0;0.0
 -1.8000001E-01;  9.9999998E-03; -1.8000001E-01;91;0.0;0.0;0.0;1000.0;  4.0000001E-01;0.0;0;0.0;0.0;0.0;0;0.0;  1.0000000E+04;  0.0000000E+00;  0.0000000E+00;  1.0000000E+04;  0.0000000E+00;  1.0000000E+04;0.0;0.0;0.0;0.0
 -1.8000001E-01;  9.9999998E-03; -1.6000000E-01;92;0.0;0.0;0.0;1000.0;  4.0000001E-01;0.0;0;0.0;0.0;0.0;0;0.0;  1.0000000E+04;  0.0000000E+00;  0.0000000E+00;  1.0000000E+04;  0.0000000E+00;  1.0000000E+04;0.0;0.0;0.0;0.0
 -1.8000001E-01;  9.9999998E-03; -1.4000000E-01;93;0.0;0.0;0.0;1000.0;  4.0000001E-01;0.0;0;0.0;0.0;0.0;0;0.0;  1.0000000E+04;  0.0000000E+00;  0.0000000E+00;  1.0000000E+04;  0.0000000E+00;  1.0000000E+04;0.0;0.0;0.0;0.0
 -1.8000001E-01;  9.9999998E-03; -1.2000000E-01;94;0.0;0.0;0.0;1000.0;  4.0000001E-01;0.0;0;0.0;0.0;0.0;0;0.0;  1.0000000E+04;  0.0000000E+00;  0.0000000E+00;  1.0000000E+04;  0.0000000E+00;  1.0000000E+04;0.0;0.0;0.0;0.0
 -1.8000001E-01;  9.9999998E-03; -1.0000000E-01;95;0.0;0.0;0.0;1000.0;  4.0000001E-01;0.0;0;0.0;0.0;0.0;0;0.0;  1.0000000E+04;  0.0000000E+00;  0.0000000E+00;  1.0000000E+04;  0.0000000E+00;  1.0000000E+04;0.0;0.0;0.0;0.0
 -1.8000001E-01;  9.9999998E-03; -7.9999998E-02;96;0.0;0.0;0.0;1000.0;  4.0000001E-01;0.0;0;0.0;0.0;0.0;0;0.0;  1.0000000E+04;  0.0000000E+00;  0.0000000E+00;  1.0000000E+04;  0.0000000E+00;  1.0000000E+04;0.0;0.0;0.0;0.0
 -1.8000001E-01;  9.9999998E-03; -5.9999999E-02;97;0.0;0.0;0.0;1000.0;  4.0000001E-01;0.0;0;0.0;0.0;0.0;0;0.0;  1.0000000E+04;  0.0000000E+00;  0.0000000E+00;  1.0000000E+04;  0.0000000E+00;  1.0000000E+04;0.0;0.0;0.0;0.0
 -1.8000001E-01;  9.9999998E-03; -3.9999999E-02;98;0.0;0.0;0.0;1000.0;  4.0000001E-01;0.0;0;0.0;0.0;0.0;0;0.0;  1.0000000E+04;  0.0000000E+00;  0.0000000E+00;  1.0000000E+04;  0.0000000E+00;  1.0000000E+04;0.0;0.0;0.0;0.0
 -1.8000001E-01;  9.9999998E-03; -2.0000000E-02;99;0.0;0.0;0.0;1000.0;  4.0000001E-01;0.0;0;0.0;0.0;0.0;0;0.0;  1.0000000E+04;  0.0000000E+00;  0.0000000E+00;  1.0000000E+04;  0.0000000E+00;  1.0000000E+04;0.0;0.0;0.0;0.0
 -1.6000000E-01;  9.9999998E-03; -1.8000001E-01;132;0.0;0.0;0.0;1000.0;  4.0000001E-01;0.0;0;0.0;0.0;0.0;0;-1.2596263e-05;  1.0000000E+04;  0.0000000E+00;  0.0000000E+00;  1.0000000E+04;  0.0000000E+00;  1.0000000E+04;-1.2622916e-05;0.0;2.6652721e-08;0.0024194578
 -1.6000000E-01;  9.9999998E-03; -1.6000000E-01;133;0.0;0.0;0.0;1000.0;  4.0000001E-01;0.0;0;0.0;0.0;0.0;0;-1.3016923e-05;  1.0000000E+04;  0.0000000E+00;  0.0000000E+00;  1.0000000E+04;  0.0000000E+00;  1.0000000E+04;-1.3041053e-05;0.0;2.4129546e-08;0.0024221723
 -1.6000000E-01;  9.9999998E-03; -1.4000000E-01;134;0.0;0.0;0.0;1000.0;  4.0000001E-01;0.0;0;0.0;0.0;0.0;0;-1.328542e-05;  1.0000000E+04;  0.0000000E+00;  0.0000000E+00;  1.0000000E+04;  0.0000000E+00;  1.0000000E+04;-1.3306485e-05;0.0;2.1064713e-08;0.0023918618
 -1.6000000E-01;  9.9999998E-03; -1.2000000E-01;135;0.0;0.0;0.0;1000.0;  4.0000001E-01;0.0;0;0.0;0.0;0.0;0;-1.3441633e-05;  1.0000000E+04;  0.0000000E+00;  0.0000000E+00;  1.0000000E+04;  0.0000000E+00;  1.0000000E+04;-1.3459803e-05;0.0;1.8169835e-08;0.0023476279
 -1.6000000E-01;  9.9999998E-03; -1.0000000E-01;136;0.0;0.0;0.0;1000.0;  4.0000001E-01;0.0;0;0.0;0.0;0.0;0;-1.3520822e-05;  1.0000000E+04;  0.0000000E+00;  0.0000000E+00;  1.0000000E+04;  0.0000000E+00;  1.0000000E+04;-1.3536312e-05;0.0;1.5489995e-08;0.0022965081
 -1.6000000E-01;  9.9999998E-03; -7.9999998E-02;137;0.0;0.0;0.0;1000.0;  4.0000001E-01;0.0;0;0.0;0.0;0.0;0;-1.3551287e-05;  1.0000000E+04;  0.0000000E+00;  0.0000000E+00;  1.0000000E+04;  0.0000000E+00;  1.0000000E+04;-1.3564328e-05;0.0;1.3040078e-08;0.0022453163
 -1.6000000E-01;  9.9999998E-03; -5.9999999E-02;138;0.0;0.0;0.0;1000.0;  4.0000001E-01;0.0;0;0.0;0.0;0.0;0;-1.3554481e-05;  1.0000000E+04;  0.0000000E+00;  0.0000000E+00;  1.0000000E+04;  0.0000000E+00;  1.0000000E+04;-1.3565497e-05;0.0;1.1016446e-08;0.0022001665
 -1.6000000E-01;  9.9999998E-03; -3.9999999E-02;139;0.0;0.0;0.0;1000.0;  4.0000001E-01;0.0;0;0.0;0.0;0.0;0;-1.3546207e-05;  1.0000000E+04;  0.0000000E+00;  0.0000000E+00;  1.0000000E+04;  0.0000000E+00;  1.0000000E+04;-1.3555697e-05;0.0;9.4896482e-09;0.002164739
 -1.6000000E-01;  9.9999998E-03; -2.0000000E-02;140;0.0;0.0;0.0;1000.0;  4.0000001E-01;0.0;0;0.0;0.0;0.0;0;-1.3537171e-05;  1.0000000E+04;  0.0000000E+00;  0.0000000E+00;  1.0000000E+04;  0.0000000E+00;  1.0000000E+04;-1.3545714e-05;0.0;8.5429761e-09;0.0021424002
 -1.4000000E-01;  9.9999998E-03; -1.8000001E-01;173;0.0;0.0;0.0;1000.0009;  4.0000001E-01;0.69133836;0;0.0;0.0;0.0;0;-0.00045587428;  1.0000000E+04;  0.0000000E+00;  0.0000000E+00;  1.0000000E+04;  0.0000000E+00;  1.0000000E+04;-0.00045913347;0.0;3.259182e-06;0.13110977
 -1.4000000E-01;  9.9999998E-03; -1.6000000E-01;174;0.0;0.0;0.0;1000.0009;  4.0000001E-01;0.69133836;0;0.0;0.0;0.0;0;-0.00047262132;  1.0000000E+04;  0.0000000E+00;  0.0000000E+00;  1.0000000E+04;  0.0000000E+00;  1.0000000E+04;-0.00047561491;0.0;2.9935936e-06;0.12757841
 -1.4000000E-01;  9.9999998E-03; -1.4000000E-01;175;0.0;0.0;0.0;1000.0009;  4.0000001E-01;0.69133836;0;0.0;0.0;0.0;0;-0.00048378081;  1.0000000E+04;  0.0000000E+00;  0.0000000E+00;  1.0000000E+04;  0.0000000E+00;  1.0000000E+04;-0.00048643589;0.0;2.6550833e-06;0.12164676
 -1.4000000E-01;  9.9999998E-03; -1.2000000E-01;176;0.0;0.0;0.0;1000.0009;  4.0000001E-01;0.79010099;0;0.0;0.0;0.0;0;-0.00049070385;  1.0000000E+04;  0.0000000E+00;  0.0000000E+00;  1.0000000E+04;  0.0000000E+00;  1.0000000E+04;-0.00049300614;0.0;2.3022994e-06;0.11479317
 -1.4000000E-01;  9.9999998E-03; -1.0000000E-01;177;0.0;0.0;0.0;1000.0009;  4.0000001E-01;0.79010099;0;0.0;0.0;0.0;0;-0.00049461046;  1.0000000E+04;  0.0000000E+00;  0.0000000E+00;  1.0000000E+04;  0.0000000E+00;  1.0000000E+04;-0.00049657898;0.0;1.9685453e-06;0.10795103
 -1.4000000E-01;  9.9999998E-03; -7.9999998E-02;178;0.0;0.0;0.0;1000.0009;  4.0000001E-01;0.79010099;0;0.0;0.0;0.0;0;-0.00049652182;  1.0000000E+04;  0.0000000E+00;  0.0000000E+00;  1.0000000E+04;  0.0000000E+00;  1.0000000E+04;-0.00049819448;0.0;1.6726583e-06;0.10170138
 -1.4000000E-01;  9.9999998E-03; -5.9999999E-02;179;0.0;0.0;0.0;1000.0009;  4.0000001E-01;0.79010099;0;0.0;0.0;0.0;0;-0.00049724343;  1.0000000E+04;  0.0000000E+00;  0.0000000E+00;  1.0000000E+04;  0.0000000E+00;  1.0000000E+04;-0.00049866916;0.0;1.4257522e-06;0.096416742
 -1.4000000E-01;  9.9999998E-03; -3.9999999E-02;180;0.0;0.0;0.0;1000.0009;  4.0000001E-01;0.79010099;0;0.0;0.0;0.0;0;-0.00049736281;  1.0000000E+04;  0.0000000E+00;  0.0000000E+00;  1.0000000E+04;  0.0000000E+00;  1.0000000E+04;-0.00049860275;0.0;1.2399529e-06;0.092416942
 -1.4000000E-01;  9.9999998E-03; -2.0000000E-02;181;0.0;0.0;0.0;1000.0009;  4.0000001E-01;0.79010099;0;0.0;0.0;0.0;0;-0.00049728033;  1.0000000E+04;  0.0000000E+00;  0.0000000E+00;  1.0000000E+04;  0.0000000E+00;  1.0000000E+04;-0.00049840525;0.0;1.1249329e-06;0.089928359
 -1.2000000E-01;  9.9999998E-03; -1.8000001E-01;214;0.0;0.0;0.0;1000.0049;  4.0000001E-01;4.0492678;0;0.0;0.0;0.0;0;-0.002500342;  1.0000000E+04;  0.0000000E+00;  0.0000000E+00;  1.0000000E+04;  0.0000000E+00;  1.0000000E+04;-0.0025308034;0.0;3.0461451e-05;0.95893735
 -1.2000000E-01;  9.9999998E-03; -1.6000000E-01;215;0.0;0.0;0.0;1000.0049;  4.0000001E-01;4.0492678;0;0.0;0.0;0.0;0;-0.0025968414;  1.0000000E+04;  0.0000000E+00;  0.0000000E+00;  1.0000000E+04;  0.0000000E+00;  1.0000000E+04;-0.0026252607;0.0;2.8419219e-05;0.92562819
 -1.2000000E-01;  9.9999998E-03; -1.4000000E-01;216;0.0;0.0;0.0;1000.0051;  4.0000001E-01;4.1480303;0;0.0;0.0;0.0;0;-0.0026627854;  1.0000000E+04;  0.0000000E+00;  0.0000000E+00;  1.0000000E+04;  0.0000000E+00;  1.0000000E+04;-0.0026882626;0.0;2.5477315e-05;0.8692373
 -1.2000000E-01;  9.9999998E-03; -1.2000000E-01;217;0.0;0.0;0.0;1000.0052;  4.0000001E-01;4.3455553;0;0.0;0.0;0.0;0;-0.0027051007;  1.0000000E+04;  0.0000000E+00;  0.0000000E+00;  1.0000000E+04;  0.0000000E+00;  1.0000000E+04;-0.0027273681;0.0;2.2267399e-05;0.8039012
 -1.2000000E-01;  9.9999998E-03; -1.0000000E-01;218;0.0;0.0;0.0;1000.0052;  4.0000001E-01;4.3455553;0;0.0;0.0;0.0;0;-0.0027302518;  1.0000000E+04;  0.0000000E+00;  0.0000000E+00;  1.0000000E+04;  0.0000000E+00;  1.0000000E+04;-0.0027494167;0.0;1.9164978e-05;0.73880392
 -1.2000000E-01;  9.9999998E-03; -7.9999998E-02;219;0.0;0.0;0.0;1000.0052;  4.0000001E-01;4.3455553;0;0.0;0.0;0.0;0;-0.0027437559;  1.0000000E+04;  0.0000000E+00;  0.0000000E+00;  1.0000000E+04;  0.0000000E+00;  1.0000000E+04;-0.0027601453;0.0;1.6389438e-05;0.67965585
 -1.2000000E-01;  9.9999998E-03; -5.9999999E-02;220;0.0;0.0;0.0;1000.0052;  4.0000001E-01;4.3455553;0;0.0;0.0;0.0;0;-0.0027500044;  1.0000000E+04;  0.0000000E+00;  0.0000000E+00;  1.0000000E+04;  0.0000000E+00;  1.0000000E+04;-0.0027640895;0.0;1.4085129e-05;0.63019162
 -1.2000000E-01;  9.9999998E-03; -3.9999999E-02;221;0.0;0.0;0.0;1000.0052;  4.0000001E-01;4.3455553;0;0.0;0.0;0.0;0;-0.0027522661;  1.0000000E+04;  0.0000000E+00;  0.0000000E+00;  1.0000000E+04;  0.0000000E+00;  1.0000000E+04;-0.0027646215;0.0;1.2355428e-05;0.59298772
 -1.2000000E-01;  9.9999998E-03; -2.0000000E-02;222;0.0;0.0;0.0;1000.0052;  4.0000001E-01;4.3455553;0;0.0;0.0;0.0;0;-0.0027527674;  1.0000000E+04;  0.0000000E+00;  0.0000000E+00;  1.0000000E+04;  0.0000000E+00;  1.0000000E+04;-0.0027640495;0.0;1.1282024e-05;0.56990767
 -1.0000000E-01;  9.9999998E-03; -1.8000001E-01;255;0.0;0.0;0.0;1000.0153;  4.0000001E-01;12.740378;0;0.0;0.0;0.0;0;-0.0079096686;  1.0000000E+04;  0.0000000E+00;  0.0000000E+00;  1.0000000E+04;  0.0000000E+00;  1.0000000E+04;-0.0080422275;0.0;0.00013255909;3.7328825
 -1.0000000E-01;  9.9999998E-03; -1.6000000E-01;256;0.0;0.0;0.0;1000.016;  4.0000001E-01;13.234192;0;0.0;0.0;0.0;0;-0.0082243551;  1.0000000E+04;  0.0000000E+00;  0.0000000E+00;  1.0000000E+04;  0.0000000E+00;  1.0000000E+04;-0.0083514331;0.0;0.00012707798;3.6329122
 -1.0000000E-01;  9.9999998E-03; -1.4000000E-01;257;0.0;0.0;0.0;1000.0164;  4.0000001E-01;13.530479;0;0.0;0.0;0.0;0;-0.0084423721;  1.0000000E+04;  0.0000000E+00;  0.0000000E+00;  1.0000000E+04;  0.0000000E+00;  1.0000000E+04;-0.0085575264;0.0;0.00011515399;3.3921359
 -1.0000000E-01;  9.9999998E-03; -1.2000000E-01;258;0.0;0.0;0.0;1000.0164;  4.0000001E-01;13.629242;0;0.0;0.0;0.0;0;-0.00858544;  1.0000000E+04;  0.0000000E+00;  0.0000000E+00;  1.0000000E+04;  0.0000000E+00;  1.0000000E+04;-0.0086868862;0.0;0.00010144604;3.104979
 -1.0000000E-01;  9.9999998E-03; -1.0000000E-01;259;0.0;0.0;0.0;1000.0168;  4.0000001E-01;13.92553;0;0.0;0.0;0.0;0;-0.0086732376;  1.0000000E+04;  0.0000000E+00;  0.0000000E+00;  1.0000000E+04;  0.0000000E+00;  1.0000000E+04;-0.0087611359;0.0;8.7897963e-05;2.8156211
 -1.0000000E-01;  9.9999998E-03; -7.9999998E-02;260;0.0;0.0;0.0;1000.017;  4.0000001E-01;14.024293;0;0.0;0.0;0.0;0;-0.0087228371;  1.0000000E+04;  0.0000000E+00;  0.0000000E+00;  1.0000000E+04;  0.0000000E+00;  1.0000000E+04;-0.0087985098;0.0;7.5672346e-05;2.5519559
 -1.0000000E-01;  9.9999998E-03; -5.9999999E-02;261;0.0;0.0;0.0;1000.017;  4.0000001E-01;14.024293;0;0.0;0.0;0.0;0;-0.00874798;  1.0000000E+04;  0.0000000E+00;  0.0000000E+00;  1.0000000E+04;  0.0000000E+00;  1.0000000E+04;-0.0088134715;0.0;6.5491986e-05;2.3315837
 -1.0000000E-01;  9.9999998E-03; -3.9999999E-02;262;0.0;0.0;0.0;1000.017;  4.0000001E-01;14.024293;0;0.0;0.0;0.0;0;-0.0087589622;  1.0000000E+04;  0.0000000E+00;  0.0000000E+00;  1.0000000E+04;  0.0000000E+00;  1.0000000E+04;-0.0088168215;0.0;5.7859092e-05;2.1662533
 -1.0000000E-01;  9.9999998E-03; -2.0000000E-02;263;0.0;0.0;0.0;1000.017;  4.0000001E-01;14.024293;0;0.0;0.0;0.0;0;-0.0087628365;  1.0000000E+04;  0.0000000E+00;  0.0000000E+00;  1.0000000E+04;  0.0000000E+00;  1.0000000E+04;-0.0088159647;0.0;5.3128118e-05;2.0638759
 -7.9999998E-02;  9.9999998E-03; -1.8000001E-01;296;0.0;0.0;0.0;1000.0366;  4.0000001E-01;30.320126;0;0.0;0.0;0.0;0;-0.018696317;  1.0000000E+04;  0.0000000E+00;  0.0000000E+00;  1.0000000E+04;  0.0000000E+00;  1.0000000E+04;-0.019082654;0.0;0.00038633758;10.267422
 -7.9999998E-02;  9.9999998E-03; -1.6000000E-01;297;0.0;0.0;0.0;1000.0381;  4.0000001E-01;31.60404;0;0.0;0.0;0.0;0;-0.01944883;  1.0000000E+04;  0.0000000E+00;  0.0000000E+00;  1.0000000E+04;  0.0000000E+00;  1.0000000E+04;-0.019829616;0.0;0.0003807857;10.132167
 -7.9999998E-02;  9.9999998E-03; -1.4000000E-01;298;0.0;0.0;0.0;1000.0389;  4.0000001E-01;32.29538;0;0.0;0.0;0.0;0;-0.019975029;  1.0000000E+04;  0.0000000E+00;  0.0000000E+00;  1.0000000E+04;  0.0000000E+00;  1.0000000E+04;-0.020324033;0.0;0.00034900324;9.4585276
 -7.9999998E-02;  9.9999998E-03; -1.2000000E-01;299;0.0;0.0;0.0;1000.0396;  4.0000001E-01;32.789192;0;0.0;0.0;0.0;0;-0.020325331;  1.0000000E+04;  0.0000000E+00;  0.0000000E+00;  1.0000000E+04;  0.0000000E+00;  1.0000000E+04;-0.020635216;0.0;0.00030988458;8.6165495
 -7.9999998E-02;  9.9999998E-03; -1.0000000E-01;300;0.0;0.0;0.0;1000.0402;  4.0000001E-01;33.283005;0;0.0;0.0;0.0;0;-0.020544685;  1.0000000E+04;  0.0000000E+00;  0.0000000E+00;  1.0000000E+04;  0.0000000E+00;  1.0000000E+04;-0.020814966;0.0;0.00027028113;7.7549834
 -7.9999998E-02;  9.9999998E-03; -7.9999998E-02;301;0.0;0.0;0.0;1000.0403;  4.0000001E-01;33.381767;0;0.0;0.0;0.0;0;-0.020672385;  1.0000000E+04;  0.0000000E+00;  0.0000000E+00;  1.0000000E+04;  0.0000000E+00;  1.0000000E+04;-0.020906541;0.0;0.00023415709;6.9647827
 -7.9999998E-02;  9.9999998E-03; -5.9999999E-02;302;0.0;0.0;0.0;1000.0404;  4.0000001E-01;33.48053;0;0.0;0.0;0.0;0;-0.02074033;  1.0000000E+04;  0.0000000E+00;  0.0000000E+00;  1.0000000E+04;  0.0000000E+00;  1.0000000E+04;-0.020944286;0.0;0.00020395505;6.3030639
 -7.9999998E-02;  9.9999998E-03; -3.9999999E-02;303;0.0;0.0;0.0;1000.0405;  4.0000001E-01;33.48053;0;0.0;0.0;0.0;0;-0.020772543;  1.0000000E+04;  0.0000000E+00;  0.0000000E+00;  1.0000000E+04;  0.0000000E+00;  1.0000000E+04;-0.020953823;0.0;0.00018128054;5.8065963
 -7.9999998E-02;  9.9999998E-03; -2.0000000E-02;304;0.0;0.0;0.0;1000.0405;  4.0000001E-01;33.48053;0;0.0;0.0;0.0;0;-0.020785492;  1.0000000E+04;  0.0000000E+00;  0.0000000E+00;  1.0000000E+04;  0.0000000E+00;  1.0000000E+04;-0.020952722;0.0;0.00016722985;5.4993591
 -5.9999999E-02;  9.9999998E-03; -1.8000001E-01;337;0.0;0.0;0.0;1000.071;  4.0000001E-01;58.862522;0;0.0;0.0;0.0;0;-0.036051199;  1.0000000E+04;  0.0000000E+00;  0.0000000E+00;  1.0000000E+04;  0.0000000E+00;  1.0000000E+04;-0.036931127;0.0;0.00087992894;22.532976
 -5.9999999E-02;  9.9999998E-03; -1.6000000E-01;338;0.0;0.0;0.0;1000.0737;  4.0000001E-01;61.035301;0;0.0;0.0;0.0;0;-0.037490565;  1.0000000E+04;  0.0000000E+00;  0.0000000E+00;  1.0000000E+04;  0.0000000E+00;  1.0000000E+04;-0.038370386;0.0;0.00087981875;22.389328
 -5.9999999E-02;  9.9999998E-03; -1.4000000E-01;339;0.0;0.0;0.0;1000.0755;  4.0000001E-01;62.516743;0;0.0;0.0;0.0;0;-0.038506266;  1.0000000E+04;  0.0000000E+00;  0.0000000E+00;  1.0000000E+04;  0.0000000E+00;  1.0000000E+04;-0.039322574;0.0;0.00081630732;20.960831
 -5.9999999E-02;  9.9999998E-03; -1.2000000E-01;340;0.0;0.0;0.0;1000.077;  4.0000001E-01;63.800655;0;0.0;0.0;0.0;0;-0.039188754;  1.0000000E+04;  0.0000000E+00;  0.0000000E+00;  1.0000000E+04;  0.0000000E+00;  1.0000000E+04;-0.039918993;0.0;0.00073023874;19.05162
 -5.9999999E-02;  9.9999998E-03; -1.0000000E-01;341;0.0;0.0;0.0;1000.0775;  4.0000001E-01;64.195709;0;0.0;0.0;0.0;0;-0.039621495;  1.0000000E+04;  0.0000000E+00;  0.0000000E+00;  1.0000000E+04;  0.0000000E+00;  1.0000000E+04;-0.040262513;0.0;0.00064101687;17.068403
 -5.9999999E-02;  9.9999998E-03; -7.9999998E-02;342;0.0;0.0;0.0;1000.0778;  4.0000001E-01;64.491997;0;0.0;0.0;0.0;0;-0.039878163;  1.0000000E+04;  0.0000000E+00;  0.0000000E+00;  1.0000000E+04;  0.0000000E+00;  1.0000000E+04;-0.040436849;0.0;0.00055868458;15.23595
 -5.9999999E-02;  9.9999998E-03; -5.9999999E-02;343;0.0;0.0;0.0;1000.0782;  4.0000001E-01;64.788284;0;0.0;0.0;0.0;0;-0.040018588;  1.0000000E+04;  0.0000000E+00;  0.0000000E+00;  1.0000000E+04;  0.0000000E+00;  1.0000000E+04;-0.040508073;0.0;0.00048948557;13.696616
 -5.9999999E-02;  9.9999998E-03; -3.9999999E-02;344;0.0;0.0;0.0;1000.0782;  4.0000001E-01;64.788284;0;0.0;0.0;0.0;0;-0.040088065;  1.0000000E+04;  0.0000000E+00;  0.0000000E+00;  1.0000000E+04;  0.0000000E+00;  1.0000000E+04;-0.040525492;0.0;0.00043742705;12.540567
 -5.9999999E-02;  9.9999998E-03; -2.0000000E-02;345;0.0;0.0;0.0;1000.0782;  4.0000001E-01;64.788284;0;0.0;0.0;0.0;0;-0.040117718;  1.0000000E+04;  0.0000000E+00;  0.0000000E+00;  1.0000000E+04;  0.0000000E+00;  1.0000000E+04;-0.040522862;0.0;0.00040514569;11.825079
 -3.9999999E-02;  9.9999998E-03; -1.8000001E-01;378;0.0;0.0;0.0;1000.1169;  4.0000001E-01;96.886131;0;0.0;0.0;0.0;0;-0.059180051;  1.0000000E+04;  0.0000000E+00;  0.0000000E+00;  1.0000000E+04;  0.0000000E+00;  1.0000000E+04;-0.060855497;0.0;0.0016754461;41.796062
 -3.9999999E-02;  9.9999998E-03; -1.6000000E-01;379;0.0;0.0;0.0;1000.1213;  4.0000001E-01;100.54035;0;0.0;0.0;0.0;0;-0.061486121;  1.0000000E+04;  0.0000000E+00;  0.0000000E+00;  1.0000000E+04;  0.0000000E+00;  1.0000000E+04;-0.063173592;0.0;0.0016874708;41.629814
 -3.9999999E-02;  9.9999998E-03; -1.4000000E-01;380;0.0;0.0;0.0;1000.1243;  4.0000001E-01;103.00941;0;0.0;0.0;0.0;0;-0.063124552;  1.0000000E+04;  0.0000000E+00;  0.0000000E+00;  1.0000000E+04;  0.0000000E+00;  1.0000000E+04;-0.064704448;0.0;0.0015798931;39.043079
 -3.9999999E-02;  9.9999998E-03; -1.2000000E-01;381;0.0;0.0;0.0;1000.1264;  4.0000001E-01;104.68839;0;0.0;0.0;0.0;0;-0.064232342;  1.0000000E+04;  0.0000000E+00;  0.0000000E+00;  1.0000000E+04;  0.0000000E+00;  1.0000000E+04;-0.065655433;0.0;0.0014230887;35.439819
 -3.9999999E-02;  9.9999998E-03; -1.0000000E-01;382;0.0;0.0;0.0;1000.1278;  4.0000001E-01;105.87354;0;0.0;0.0;0.0;0;-0.064939968;  1.0000000E+04;  0.0000000E+00;  0.0000000E+00;  1.0000000E+04;  0.0000000E+00;  1.0000000E+04;-0.066196874;0.0;0.0012569043;31.648729
 -3.9999999E-02;  9.9999998E-03; -7.9999998E-02;383;0.0;0.0;0.0;1000.1284;  4.0000001E-01;106.36735;0;0.0;0.0;0.0;0;-0.065364376;  1.0000000E+04;  0.0000000E+00;  0.0000000E+00;  1.0000000E+04;  0.0000000E+00;  1.0000000E+04;-0.066466168;0.0;0.0011017913;28.122009
 -3.9999999E-02;  9.9999998E-03; -5.9999999E-02;384;0.0;0.0;0.0;1000.1287;  4.0000001E-01;106.66364;0;0.0;0.0;0.0;0;-0.065600492;  1.0000000E+04;  0.0000000E+00;  0.0000000E+00;  1.0000000E+04;  0.0000000E+00;  1.0000000E+04;-0.066571176;0.0;0.00097068102;25.149691
 -3.9999999E-02;  9.9999998E-03; -3.9999999E-02;385;0.0;0.0;0.0;1000.1288;  4.0000001E-01;106.7624;0;0.0;0.0;0.0;0;-0.06572023;  1.0000000E+04;  0.0000000E+00;  0.0000000E+00;  1.0000000E+04;  0.0000000E+00;  1.0000000E+04;-0.066592015;0.0;0.00087178487;22.914341
 -3.9999999E-02;  9.9999998E-03; -2.0000000E-02;386;0.0;0.0;0.0;1000.129;  4.0000001E-01;106.86116;0;0.0;0.0;0.0;0;-0.06577301;  1.0000000E+04;  0.0000000E+00;  0.0000000E+00;  1.0000000E+04;  0.0000000E+00;  1.0000000E+04;-0.066583402;0.0;0.00081039418;21.530281
 -2.0000000E-02;  9.9999998E-03; -1.8000001E-01;419;0.0;0.0;0.0;1000.1689;  4.0000001E-01;139.94664;0;0.0;0.0;0.0;0;-0.084784381;  1.0000000E+04;  0.0000000E+00;  0.0000000E+00;  1.0000000E+04;  0.0000000E+00;  1.0000000E+04;-0.087541498;0.0;0.0027571176;67.561546
 -2.0000000E-02;  9.9999998E-03; -1.6000000E-01;420;0.0;0.0;0.0;1000.1747;  4.0000001E-01;144.78601;0;0.0;0.0;0.0;0;-0.087958612;  1.0000000E+04;  0.0000000E+00;  0.0000000E+00;  1.0000000E+04;  0.0000000E+00;  1.0000000E+04;-0.09074676;0.0;0.0027881509;67.29422
 -2.0000000E-02;  9.9999998E-03; -1.4000000E-01;421;0.0;0.0;0.0;1000.1788;  4.0000001E-01;148.14394;0;0.0;0.0;0.0;0;-0.090223163;  1.0000000E+04;  0.0000000E+00;  0.0000000E+00;  1.0000000E+04;  0.0000000E+00;  1.0000000E+04;-0.092849985;0.0;0.0026268186;63.122059
 -2.0000000E-02;  9.9999998E-03; -1.2000000E-01;422;0.0;0.0;0.0;1000.1816;  4.0000001E-01;150.41548;0;0.0;0.0;0.0;0;-0.091758564;  1.0000000E+04;  0.0000000E+00;  0.0000000E+00;  1.0000000E+04;  0.0000000E+00;  1.0000000E+04;-0.094140366;0.0;0.0023818042;57.244682
 -2.0000000E-02;  9.9999998E-03; -1.0000000E-01;423;0.0;0.0;0.0;1000.1834;  4.0000001E-01;151.99568;0;0.0;0.0;0.0;0;-0.092743047;  1.0000000E+04;  0.0000000E+00;  0.0000000E+00;  1.0000000E+04;  0.0000000E+00;  1.0000000E+04;-0.094859548;0.0;0.0021165018;50.994701
 -2.0000000E-02;  9.9999998E-03; -7.9999998E-02;424;0.0;0.0;0.0;1000.1844;  4.0000001E-01;152.78578;0;0.0;0.0;0.0;0;-0.093337163;  1.0000000E+04;  0.0000000E+00;  0.0000000E+00;  1.0000000E+04;  0.0000000E+00;  1.0000000E+04;-0.095203273;0.0;0.0018661085;45.147079
 -2.0000000E-02;  9.9999998E-03; -5.9999999E-02;425;0.0;0.0;0.0;1000.1849;  4.0000001E-01;153.18083;0;0.0;0.0;0.0;0;-0.093670994;  1.0000000E+04;  0.0000000E+00;  0.0000000E+00;  1.0000000E+04;  0.0000000E+00;  1.0000000E+04;-0.095324226;0.0;0.0016532318;40.203655
 -2.0000000E-02;  9.9999998E-03; -3.9999999E-02;426;0.0;0.0;0.0;1000.1851;  4.0000001E-01;153.37836;0;0.0;0.0;0.0;0;-0.093842767;  1.0000000E+04;  0.0000000E+00;  0.0000000E+00;  1.0000000E+04;  0.0000000E+00;  1.0000000E+04;-0.095334955;0.0;0.0014921875;36.480549
 -2.0000000E-02;  9.9999998E-03; -2.0000000E-02;427;0.0;0.0;0.0;1000.1852;  4.0000001E-01;153.47711;0;0.0;0.0;0.0;0;-0.093919776;  1.0000000E+04;  0.0000000E+00;  0.0000000E+00;  1.0000000E+04;  0.0000000E+00;  1.0000000E+04;-0.095311858;0.0;0.0013920848;34.17403
 -2.2000000E-01;  9.9999998E-03;  0.0000000E+00;19;0.0;0.0;0.0;1000.0;  4.0000001E-01;0.0;0;0.0;0.0;0.0;0;0.0;  1.0000000E+04;  0.0000000E+00;  0.0000000E+00;  1.0000000E+04;  0.0000000E+00;  1.0000000E+04;0.0;0.0;0.0;0.0
 -2.2000000E-01;  9.9999998E-03;  2.0000000E-02;20;0.0;0.0;0.0;1000.0;  4.0000001E-01;0.0;0;0.0;0.0;0.0;0;0.0;  1.0000000E+04;  0.0000000E+00;  0.0000000E+00;  1.0000000E+04;  0.0000000E+00;  1.0000000E+04;0.0;0.0;0.0;0.0
 -2.2000000E-01;  9.9999998E-03;  3.9999999E-02;21;0.0;0.0;0.0;1000.0;  4.0000001E-01;0.0;0;0.0;0.0;0.0;0;0.0;  1.0000000E+04;  0.0000000E+00;  0.0000000E+00;  1.0000000E+04;  0.0000000E+00;  1.0000000E+04;0.0;0.0;0.0;0.0
 -2.2000000E-01;  9.9999998E-03;  5.9999999E-02;22;0.0;0.0;0.0;1000.0;  4.0000001E-01;0.0;0;0.0;0.0;0.0;0;0.0;  1.0000000E+04;  0.0000000E+00;  0.0000000E+00;  1.0000000E+04;  0.0000000E+00;  1.0000000E+04;0.0;0.0;0.0;0.0
 -2.2000000E-01;  9.9999998E-03;  7.9999998E-02;23;0.0;0.0;0.0;1000.0;  4.0000001E-01;0.0;0;0.0;0.0;0.0;0;0.0;  1.0000000E+04;  0.0000000E+00;  0.0000000E+00;  1.0000000E+04;  0.0000000E+00;  1.0000000E+04;0.0;0.0;0.0;0.0
 -2.2000000E-01;  9.9999998E-03;  1.0000000E-01;24;0.0;0.0;0.0;1000.0;  4.0000001E-01;0.0;0;0.0;0.0;0.0;0;0.0;  1.0000000E+04;  0.0000000E+00;  0.0000000E+00;  1.0000000E+04;  0.0000000E+00;  1.0000000E+04;0.0;0.0;0.0;0.0
 -2.2000000E-01;  9.9999998E-03;  1.2000000E-01;25;0.0;0.0;0.0;1000.0;  4.0000001E-01;0.0;0;0.0;0.0;0.0;0;0.0;  1.0000000E+04;  0.0000000E+00;  0.0000000E+00;  1.0000000E+04;  0.0000000E+00;  1.0000000E+04;0.0;0.0;0.0;0.0
 -2.2000000E-01;  9.9999998E-03;  1.4000000E-01;26;0.0;0.0;0.0;1000.0;  4.0000001E-01;0.0;0;0.0;0.0;0.0;0;0.0;  1.0000000E+04;  0.0000000E+00;  0.0000000E+00;  1.0000000E+04;  0.0000000E+00;  1.0000000E+04;0.0;0.0;0.0;0.0
 -2.0000000E-01;  9.9999998E-03;  0.0000000E+00;59;0.0;0.0;0.0;1000.0;  4.0000001E-01;0.0;0;0.0;0.0;0.0;0;0.0;  1.0000000E+04;  0.0000000E+00;  0.0000000E+00;  1.0000000E+04;  0.0000000E+00;  1.0000000E+04;0.0;0.0;0.0;0.0
 -2.0000000E-01;  9.9999998E-03;  2.0000000E-02;60;0.0;0.0;0.0;1000.0;  4.0000001E-01;0.0;0;0.0;0.0;0.0;0;0.0;  1.0000000E+04;  0.0000000E+00;  0.0000000E+00;  1.0000000E+04;  0.0000000E+00;  1.0000000E+04;0.0;0.0;0.0;0.0
 -2.0000000E-01;  9.9999998E-03;  3.9999999E-02;61;0.0;0.0;0.0;1000.0;  4.0000001E-01;0.0;0;0.0;0.0;0.0;0;0.0;  1.0000000E+04;  0.0000000E+00;  0.0000000E+00;  1.0000000E+04;  0.0000000E+00;  1.0000000E+04;0.0;0.0;0.0;0.0
 -2.0000000E-01;  9.9999998E-03;  5.9999999E-02;62;0.0;0.0;0.0;1000.0;  4.0000001E-01;0.0;0;0.0;0.0;0.0;0;0.0;  1.0000000E+04;  0.0000000E+00;  0.0000000E+00;  1.0000000E+04;  0.0000000E+00;  1.0000000E+04;0.0;0.0;0.0;0.0
 -2.0000000E-01;  9.9999998E-03;  7.9999998E-02;63;0.0;0.0;0.0;1000.0;  4.0000001E-01;0.0;0;0.0;0.0;0.0;0;0.0;  1.0000000E+04;  0.0000000E+00;  0.0000000E+00;  1.0000000E+04;  0.0000000E+00;  1.0000000E+04;0.0;0.0;0.0;0.0
 -2.0000000E-01;  9.9999998E-03;  1.0000000E-01;64;0.0;0.0;0.0;1000.0;  4.0000001E-01;0.0;0;0.0;0.0;0.0;0;0.0;  1.0000000E+04;  0.0000000E+00;  0.0000000E+00;  1.0000000E+04;  0.0000000E+00;  1.0000000E+04;0.0;0.0;0.0;0.0
 -2.0000000E-01;  9.9999998E-03;  1.2000000E-01;65;0.0;0.0;0.0;1000.0;  4.0000001E-01;0.0;0;0.0;0.0;0.0;0;0.0;  1.0000000E+04;  0.0000000E+00;  0.0000000E+00;  1.0000000E+04;  0.0000000E+00;  1.0000000E+04;0.0;0.0;0.0;0.0
 -2.0000000E-01;  9.9999998E-03;  1.4000000E-01;66;0.0;0.0;0.0;1000.0;  4.0000001E-01;0.0;0;0.0;0.0;0.0;0;0.0;  1.0000000E+04;  0.0000000E+00;  0.0000000E+00;  1.0000000E+04;  0.0000000E+00;  1.0000000E+04;0.0;0.0;0.0;0.0
 -1.8000001E-01;  9.9999998E-03;  0.0000000E+00;100;0.0;0.0;0.0;1000.0;  4.0000001E-01;0.0;0;0.0;0.0;0.0;0;0.0;  1.0000000E+04;  0.0000000E+00;  0.0000000E+00;  1.0000000E+04;  0.0000000E+00;  1.0000000E+04;0.0;0.0;0.0;0.0
 -1.8000001E-01;  9.9999998E-03;  2.0000000E-02;101;0.0;0.0;0.0;1000.0;  4.0000001E-01;0.0;0;0.0;0.0;0.0;0;0.0;  1.0000000E+04;  0.0000000E+00;  0.0000000E+00;  1.0000000E+04;  0.0000000E+00;  1.0000000E+04;0.0;0.0;0.0;0.0
 -1.8000001E-01;  9.9999998E-03;  3.9999999E-02;102;0.0;0.0;0.0;1000.0;  4.0000001E-01;0.0;0;0.0;0.0;0.0;0;0.0;  1.0000000E+04;  0.0000000E+00;  0.0000000E+00;  1.0000000E+04;  0.0000000E+00;  1.0000000E+04;0.0;0.0;0.0;0.0
 -1.8000001E-01;  9.9999998E-03;  5.9999999E-02;103;0.0;0.0;0.0;1000.0;  4.0000001E-01;0.0;0;0.0;0.0;0.0;0;0.0;  1.0000000E+04;  0.0000000E+00;  0.0000000E+00;  1.0000000E+04;  0.0000000E+00;  1.0000000E+04;0.0;0.0;0.0;0.0
 -1.8000001E-01;  9.9999998E-03;  7.9999998E-02;104;0.0;0.0;0.0;1000.0;  4.0000001E-01;0.0;0;0.0;0.0;0.0;0;0.0;  1.0000000E+04;  0.0000000E+00;  0.0000000E+00;  1.0000000E+04;  0.0000000E+00;  1.0000000E+04;0.0;0.0;0.0;0.0
 -1.8000001E-01;  9.9999998E-03;  1.0000000E-01;105;0.0;0.0;0.0;1000.0;  4.0000001E-01;0.0;0;0.0;0.0;0.0;0;0.0;  1.0000000E+04;  0.0000000E+00;  0.0000000E+00;  1.0000000E+04;  0.0000000E+00;  1.0000000E+04;0.0;0.0;0.0;0.0
 -1.8000001E-01;  9.9999998E-03;  1.2000000E-01;106;0.0;0.0;0.0;1000.0;  4.0000001E-01;0.0;0;0.0;0.0;0.0;0;0.0;  1.0000000E+04;  0.0000000E+00;  0.0000000E+00;  1.0000000E+04;  0.0000000E+00;  1.0000000E+04;0.0;0.0;0.0;0.0
 -1.8000001E-01;  9.9999998E-03;  1.4000000E-01;107;0.0;0.0;0.0;1000.0;  4.0000001E-01;0.0;0;0.0;0.0;0.0;0;0.0;  1.0000000E+04;  0.0000000E+00;  0.0000000E+00;  1.0000000E+04;  0.0000000E+00;  1.0000000E+04;0.0;0.0;0.0;0.0
 -1.6000000E-01;  9.9999998E-03;  0.0000000E+00;141;0.0;0.0;0.0;1000.0;  4.0000001E-01;0.0;0;0.0;0.0;0.0;0;-1.3533471e-05;  1.0000000E+04;  0.0000000E+00;  0.0000000E+00;  1.0000000E+04;  0.0000000E+00;  1.0000000E+04;-1.35417e-05;0.0;8.2294846e-09;0.0021347753
 -1.6000000E-01;  9.9999998E-03;  2.0000000E-02;142;0.0;0.0;0.0;1000.0;  4.0000001E-01;0.0;0;0.0;0.0;0.0;0;-1.3537173e-05;  1.0000000E+04;  0.0000000E+00;  0.0000000E+00;  1.0000000E+04;  0.0000000E+00;  1.0000000E+04;-1.3545716e-05;0.0;8.5429583e-09;0.0021424002
 -1.6000000E-01;  9.9999998E-03;  3.9999999E-02;143;0.0;0.0;0.0;1000.0;  4.0000001E-01;0.0;0;0.0;0.0;0.0;0;-1.3546203e-05;  1.0000000E+04;  0.0000000E+00;  0.0000000E+00;  1.0000000E+04;  0.0000000E+00;  1.0000000E+04;-1.3555693e-05;0.0;9.4896304e-09;0.0021647387
 -1.6000000E-01;  9.9999998E-03;  5.9999999E-02;144;0.0;0.0;0.0;1000.0;  4.0000001E-01;0.0;0;0.0;0.0;0.0;0;-1.3554479e-05;  1.0000000E+04;  0.0000000E+00;  0.0000000E+00;  1.0000000E+04;  0.0000000E+00;  1.0000000E+04;-1.3565495e-05;0.0;1.1016457e-08;0.0022001662
 -1.6000000E-01;  9.9999998E-03;  7.9999998E-02;145;0.0;0.0;0.0;1000.0;  4.0000001E-01;0.0;0;0.0;0.0;0.0;0;-1.3551289e-05;  1.0000000E+04;  0.0000000E+00;  0.0000000E+00;  1.0000000E+04;  0.0000000E+00;  1.0000000E+04;-1.3564329e-05;0.0;1.3040102e-08;0.0022453163
 -1.6000000E-01;  9.9999998E-03;  1.0000000E-01;146;0.0;0.0;0.0;1000.0;  4.0000001E-01;0.0;0;0.0;0.0;0.0;0;-1.3520826e-05;  1.0000000E+04;  0.0000000E+00;  0.0000000E+00;  1.0000000E+04;  0.0000000E+00;  1.0000000E+04;-1.3536315e-05;0.0;1.5490031e-08;0.0022965085
 -1.6000000E-01;  9.9999998E-03;  1.2000000E-01;147;0.0;0.0;0.0;1000.0;  4.0000001E-01;0.0;0;0.0;0.0;0.0;0;-1.3441639e-05;  1.0000000E+04;  0.0000000E+00;  0.0000000E+00;  1.0000000E+04;  0.0000000E+00;  1.0000000E+04;-1.3459809e-05;0.0;1.8169841e-08;0.0023476284
 -1.6000000E-01;  9.9999998E-03;  1.4000000E-01;148;0.0;0.0;0.0;1000.0;  4.0000001E-01;0.0;0;0.0;0.0;0.0;0;-1.3285421e-05;  1.0000000E+04;  0.0000000E+00;  0.0000000E+00;  1.0000000E+04;  0.0000000E+00;  1.0000000E+04;-1.3306486e-05;0.0;2.1064709e-08;0.0023918613
 -1.4000000E-01;  9.9999998E-03;  0.0000000E+00;182;0.0;0.0;0.0;1000.0009;  4.0000001E-01;0.79010099;0;0.0;0.0;0.0;0;-0.00049722771;  1.0000000E+04;  0.0000000E+00;  0.0000000E+00;  1.0000000E+04;  0.0000000E+00;  1.0000000E+04;-0.00049831363;0.0;1.0859097e-06;0.089081593
 -1.4000000E-01;  9.9999998E-03;  2.0000000E-02;183;0.0;0.0;0.0;1000.0009;  4.0000001E-01;0.79010099;0;0.0;0.0;0.0;0;-0.0004972805;  1.0000000E+04;  0.0000000E+00;  0.0000000E+00;  1.0000000E+04;  0.0000000E+00;  1.0000000E+04;-0.00049840542;0.0;1.1249319e-06;0.089928359
 -1.4000000E-01;  9.9999998E-03;  3.9999999E-02;184;0.0;0.0;0.0;1000.0009;  4.0000001E-01;0.79010099;0;0.0;0.0;0.0;0;-0.00049736275;  1.0000000E+04;  0.0000000E+00;  0.0000000E+00;  1.0000000E+04;  0.0000000E+00;  1.0000000E+04;-0.00049860269;0.0;1.2399523e-06;0.092416935
 -1.4000000E-01;  9.9999998E-03;  5.9999999E-02;185;0.0;0.0;0.0;1000.0009;  4.0000001E-01;0.79010099;0;0.0;0.0;0.0;0;-0.00049724343;  1.0000000E+04;  0.0000000E+00;  0.0000000E+00;  1.0000000E+04;  0.0000000E+00;  1.0000000E+04;-0.00049866916;0.0;1.4257525e-06;0.096416764
 -1.4000000E-01;  9.9999998E-03;  7.9999998E-02;186;0.0;0.0;0.0;1000.0009;  4.0000001E-01;0.79010099;0;0.0;0.0;0.0;0;-0.00049652177;  1.0000000E+04;  0.0000000E+00;  0.0000000E+00;  1.0000000E+04;  0.0000000E+00;  1.0000000E+04;-0.00049819442;0.0;1.67266e-06;0.10170142
 -1.4000000E-01;  9.9999998E-03;  1.0000000E-01;187;0.0;0.0;0.0;1000.0009;  4.0000001E-01;0.79010099;0;0.0;0.0;0.0;0;-0.00049461034;  1.0000000E+04;  0.0000000E+00;  0.0000000E+00;  1.0000000E+04;  0.0000000E+00;  1.0000000E+04;-0.00049657887;0.0;1.9685467e-06;0.10795106
 -1.4000000E-01;  9.9999998E-03;  1.2000000E-01;188;0.0;0.0;0.0;1000.0009;  4.0000001E-01;0.79010099;0;0.0;0.0;0.0;0;-0.00049070385;  1.0000000E+04;  0.0000000E+00;  0.0000000E+00;  1.0000000E+04;  0.0000000E+00;  1.0000000E+04;-0.00049300614;0.0;2.3023013e-06;0.11479317
 -1.4000000E-01;  9.9999998E-03;  1.4000000E-01;189;0.0;0.0;0.0;1000.0009;  4.0000001E-01;0.69133836;0;0.0;0.0;0.0;0;-0.00048378095;  1.0000000E+04;  0.0000000E+00;  0.0000000E+00;  1.0000000E+04;  0.0000000E+00;  1.0000000E+04;-0.00048643604;0.0;2.6550856e-06;0.12164676
 -1.2000000E-01;  9.9999998E-03;  0.0000000E+00;223;0.0;0.0;0.0;1000.0052;  4.0000001E-01;4.3455553;0;0.0;0.0;0.0;0;-0.0027527923;  1.0000000E+04;  0.0000000E+00;  0.0000000E+00;  1.0000000E+04;  0.0000000E+00;  1.0000000E+04;-0.0027637109;0.0;1.0918564e-05;0.56209421
 -1.2000000E-01;  9.9999998E-03;  2.0000000E-02;224;0.0;0.0;0.0;1000.0052;  4.0000001E-01;4.3455553;0;0.0;0.0;0.0;0;-0.0027527669;  1.0000000E+04;  0.0000000E+00;  0.0000000E+00;  1.0000000E+04;  0.0000000E+00;  1.0000000E+04;-0.002764049;0.0;1.1282023e-05;0.56990767
 -1.2000000E-01;  9.9999998E-03;  3.9999999E-02;225;0.0;0.0;0.0;1000.0052;  4.0000001E-01;4.3455553;0;0.0;0.0;0.0;0;-0.0027522666;  1.0000000E+04;  0.0000000E+00;  0.0000000E+00;  1.0000000E+04;  0.0000000E+00;  1.0000000E+04;-0.002764622;0.0;1.2355432e-05;0.59298784
 -1.2000000E-01;  9.9999998E-03;  5.9999999E-02;226;0.0;0.0;0.0;1000.0052;  4.0000001E-01;4.3455553;0;0.0;0.0;0.0;0;-0.0027500049;  1.0000000E+04;  0.0000000E+00;  0.0000000E+00;  1.0000000E+04;  0.0000000E+00;  1.0000000E+04;-0.00276409;0.0;1.408514e-05;0.6301918
 -1.2000000E-01;  9.9999998E-03;  7.9999998E-02;227;0.0;0.0;0.0;1000.0052;  4.0000001E-01;4.3455553;0;0.0;0.0;0.0;0;-0.0027437557;  1.0000000E+04;  0.0000000E+00;  0.0000000E+00;  1.0000000E+04;  0.0000000E+00;  1.0000000E+04;-0.0027601451;0.0;1.6389449e-05;0.67965591
 -1.2000000E-01;  9.9999998E-03;  1.0000000E-01;228;0.0;0.0;0.0;1000.0052;  4.0000001E-01;4.3455553;0;0.0;0.0;0.0;0;-0.002730252;  1.0000000E+04;  0.0000000E+00;  0.0000000E+00;  1.0000000E+04;  0.0000000E+00;  1.0000000E+04;-0.002749417;0.0;1.9164989e-05;0.73880404
 -1.2000000E-01;  9.9999998E-03;  1.2000000E-01;229;0.0;0.0;0.0;1000.0052;  4.0000001E-01;4.3455553;0;0.0;0.0;0.0;0;-0.0027051002;  1.0000000E+04;  0.0000000E+00;  0.0000000E+00;  1.0000000E+04;  0.0000000E+00;  1.0000000E+04;-0.0027273677;0.0;2.2267415e-05;0.80390137
 -1.2000000E-01;  9.9999998E-03;  1.4000000E-01;230;0.0;0.0;0.0;1000.0051;  4.0000001E-01;4.1480303;0;0.0;0.0;0.0;0;-0.0026627863;  1.0000000E+04;  0.0000000E+00;  0.0000000E+00;  1.0000000E+04;  0.0000000E+00;  1.0000000E+04;-0.0026882635;0.0;2.5477324e-05;0.86923748
 -1.0000000E-01;  9.9999998E-03;  0.0000000E+00;264;0.0;0.0;0.0;1000.017;  4.0000001E-01;14.024293;0;0.0;0.0;0.0;0;-0.0087636821;  1.0000000E+04;  0.0000000E+00;  0.0000000E+00;  1.0000000E+04;  0.0000000E+00;  1.0000000E+04;-0.0088152066;0.0;5.1524661e-05;2.0292199
 -1.0000000E-01;  9.9999998E-03;  2.0000000E-02;265;0.0;0.0;0.0;1000.017;  4.0000001E-01;14.024293;0;0.0;0.0;0.0;0;-0.0087628355;  1.0000000E+04;  0.0000000E+00;  0.0000000E+00;  1.0000000E+04;  0.0000000E+00;  1.0000000E+04;-0.0088159638;0.0;5.312814e-05;2.0638759
 -1.0000000E-01;  9.9999998E-03;  3.9999999E-02;266;0.0;0.0;0.0;1000.017;  4.0000001E-01;14.024293;0;0.0;0.0;0.0;0;-0.0087589622;  1.0000000E+04;  0.0000000E+00;  0.0000000E+00;  1.0000000E+04;  0.0000000E+00;  1.0000000E+04;-0.0088168215;0.0;5.7859121e-05;2.1662538
 -1.0000000E-01;  9.9999998E-03;  5.9999999E-02;267;0.0;0.0;0.0;1000.017;  4.0000001E-01;14.024293;0;0.0;0.0;0.0;0;-0.0087479791;  1.0000000E+04;  0.0000000E+00;  0.0000000E+00;  1.0000000E+04;  0.0000000E+00;  1.0000000E+04;-0.0088134715;0.0;6.5492051e-05;2.3315842
 -1.0000000E-01;  9.9999998E-03;  7.9999998E-02;268;0.0;0.0;0.0;1000.017;  4.0000001E-01;14.024293;0;0.0;0.0;0.0;0;-0.0087228371;  1.0000000E+04;  0.0000000E+00;  0.0000000E+00;  1.0000000E+04;  0.0000000E+00;  1.0000000E+04;-0.0087985098;0.0;7.5672389e-05;2.5519569
 -1.0000000E-01;  9.9999998E-03;  1.0000000E-01;269;0.0;0.0;0.0;1000.0168;  4.0000001E-01;13.92553;0;0.0;0.0;0.0;0;-0.0086732386;  1.0000000E+04;  0.0000000E+00;  0.0000000E+00;  1.0000000E+04;  0.0000000E+00;  1.0000000E+04;-0.0087611368;0.0;8.7898043e-05;2.8156219
 -1.0000000E-01;  9.9999998E-03;  1.2000000E-01;270;0.0;0.0;0.0;1000.0164;  4.0000001E-01;13.629242;0;0.0;0.0;0.0;0;-0.0085854409;  1.0000000E+04;  0.0000000E+00;  0.0000000E+00;  1.0000000E+04;  0.0000000E+00;  1.0000000E+04;-0.0086868871;0.0;0.00010144609;3.1049798
 -1.0000000E-01;  9.9999998E-03;  1.4000000E-01;271;0.0;0.0;0.0;1000.0164;  4.0000001E-01;13.530479;0;0.0;0.0;0.0;0;-0.0084423721;  1.0000000E+04;  0.0000000E+00;  0.0000000E+00;  1.0000000E+04;  0.0000000E+00;  1.0000000E+04;-0.0085575264;0.0;0.00011515406;3.3921363
 -7.9999998E-02;  9.9999998E-03;  0.0000000E+00;305;0.0;0.0;0.0;1000.0405;  4.0000001E-01;33.48053;0;0.0;0.0;0.0;0;-0.020788766;  1.0000000E+04;  0.0000000E+00;  0.0000000E+00;  1.0000000E+04;  0.0000000E+00;  1.0000000E+04;-0.020951238;0.0;0.0001624702;5.39538
 -7.9999998E-02;  9.9999998E-03;  2.0000000E-02;306;0.0;0.0;0.0;1000.0405;  4.0000001E-01;33.48053;0;0.0;0.0;0.0;0;-0.020785488;  1.0000000E+04;  0.0000000E+00;  0.0000000E+00;  1.0000000E+04;  0.0000000E+00;  1.0000000E+04;-0.020952718;0.0;0.00016722991;5.4993591
 -7.9999998E-02;  9.9999998E-03;  3.9999999E-02;307;0.0;0.0;0.0;1000.0405;  4.0000001E-01;33.48053;0;0.0;0.0;0.0;0;-0.020772547;  1.0000000E+04;  0.0000000E+00;  0.0000000E+00;  1.0000000E+04;  0.0000000E+00;  1.0000000E+04;-0.020953827;0.0;0.0001812806;5.8065968
 -7.9999998E-02;  9.9999998E-03;  5.9999999E-02;308;0.0;0.0;0.0;1000.0404;  4.0000001E-01;33.48053;0;0.0;0.0;0.0;0;-0.020740326;  1.0000000E+04;  0.0000000E+00;  0.0000000E+00;  1.0000000E+04;  0.0000000E+00;  1.0000000E+04;-0.020944282;0.0;0.00020395519;6.3030653
 -7.9999998E-02;  9.9999998E-03;  7.9999998E-02;309;0.0;0.0;0.0;1000.0403;  4.0000001E-01;33.381767;0;0.0;0.0;0.0;0;-0.020672383;  1.0000000E+04;  0.0000000E+00;  0.0000000E+00;  1.0000000E+04;  0.0000000E+00;  1.0000000E+04;-0.02090654;0.0;0.00023415728;6.9647841
 -7.9999998E-02;  9.9999998E-03;  1.0000000E-01;310;0.0;0.0;0.0;1000.0402;  4.0000001E-01;33.283005;0;0.0;0.0;0.0;0;-0.020544684;  1.0000000E+04;  0.0000000E+00;  0.0000000E+00;  1.0000000E+04;  0.0000000E+00;  1.0000000E+04;-0.020814965;0.0;0.00027028137;7.7549877
 -7.9999998E-02;  9.9999998E-03;  1.2000000E-01;311;0.0;0.0;0.0;1000.0396;  4.0000001E-01;32.789192;0;0.0;0.0;0.0;0;-0.020325327;  1.0000000E+04;  0.0000000E+00;  0.0000000E+00;  1.0000000E+04;  0.0000000E+00;  1.0000000E+04;-0.020635212;0.0;0.00030988487;8.6165524
 -7.9999998E-02;  9.9999998E-03;  1.4000000E-01;312;0.0;0.0;0.0;1000.0389;  4.0000001E-01;32.29538;0;0.0;0.0;0.0;0;-0.019975021;  1.0000000E+04;  0.0000000E+00;  0.0000000E+00;  1.0000000E+04;  0.0000000E+00;  1.0000000E+04;-0.020324025;0.0;0.00034900327;9.4585285
 -5.9999999E-02;  9.9999998E-03;  0.0000000E+00;346;0.0;0.0;0.0;1000.0782;  4.0000001E-01;64.788284;0;0.0;0.0;0.0;0;-0.040125672;  1.0000000E+04;  0.0000000E+00;  0.0000000E+00;  1.0000000E+04;  0.0000000E+00;  1.0000000E+04;-0.040519878;0.0;0.00039420731;11.582925
 -5.9999999E-02;  9.9999998E-03;  2.0000000E-02;347;0.0;0.0;0.0;1000.0782;  4.0000001E-01;64.788284;0;0.0;0.0;0.0;0;-0.040117729;  1.0000000E+04;  0.0000000E+00;  0.0000000E+00;  1.0000000E+04;  0.0000000E+00;  1.0000000E+04;-0.040522877;0.0;0.00040514598;11.82508
 -5.9999999E-02;  9.9999998E-03;  3.9999999E-02;348;0.0;0.0;0.0;1000.0782;  4.0000001E-01;64.788284;0;0.0;0.0;0.0;0;-0.040088091;  1.0000000E+04;  0.0000000E+00;  0.0000000E+00;  1.0000000E+04;  0.0000000E+00;  1.0000000E+04;-0.040525518;0.0;0.00043742752;12.540569
 -5.9999999E-02;  9.9999998E-03;  5.9999999E-02;349;0.0;0.0;0.0;1000.0782;  4.0000001E-01;64.788284;0;0.0;0.0;0.0;0;-0.040018607;  1.0000000E+04;  0.0000000E+00;  0.0000000E+00;  1.0000000E+04;  0.0000000E+00;  1.0000000E+04;-0.040508091;0.0;0.00048948615;13.696618
 -5.9999999E-02;  9.9999998E-03;  7.9999998E-02;350;0.0;0.0;0.0;1000.0778;  4.0000001E-01;64.491997;0;0.0;0.0;0.0;0;-0.039878171;  1.0000000E+04;  0.0000000E+00;  0.0000000E+00;  1.0000000E+04;  0.0000000E+00;  1.0000000E+04;-0.040436856;0.0;0.00055868516;15.235955
 -5.9999999E-02;  9.9999998E-03;  1.0000000E-01;351;0.0;0.0;0.0;1000.0775;  4.0000001E-01;64.195709;0;0.0;0.0;0.0;0;-0.039621517;  1.0000000E+04;  0.0000000E+00;  0.0000000E+00;  1.0000000E+04;  0.0000000E+00;  1.0000000E+04;-0.040262535;0.0;0.00064101745;17.068407
 -5.9999999E-02;  9.9999998E-03;  1.2000000E-01;352;0.0;0.0;0.0;1000.077;  4.0000001E-01;63.800655;0;0.0;0.0;0.0;0;-0.039188746;  1.0000000E+04;  0.0000000E+00;  0.0000000E+00;  1.0000000E+04;  0.0000000E+00;  1.0000000E+04;-0.039918985;0.0;0.00073023885;19.051624
 -5.9999999E-02;  9.9999998E-03;  1.4000000E-01;353;0.0;0.0;0.0;1000.0755;  4.0000001E-01;62.516743;0;0.0;0.0;0.0;0;-0.038506277;  1.0000000E+04;  0.0000000E+00;  0.0000000E+00;  1.0000000E+04;  0.0000000E+00;  1.0000000E+04;-0.039322585;0.0;0.00081630744;20.960833
 -3.9999999E-02;  9.9999998E-03;  0.0000000E+00;387;0.0;0.0;0.0;1000.129;  4.0000001E-01;106.86116;0;0.0;0.0;0.0;0;-0.065787457;  1.0000000E+04;  0.0000000E+00;  0.0000000E+00;  1.0000000E+04;  0.0000000E+00;  1.0000000E+04;-0.06657704;0.0;0.00078958599;21.061852
 -3.9999999E-02;  9.9999998E-03;  2.0000000E-02;388;0.0;0.0;0.0;1000.129;  4.0000001E-01;106.86116;0;0.0;0.0;0.0;0;-0.06577301;  1.0000000E+04;  0.0000000E+00;  0.0000000E+00;  1.0000000E+04;  0.0000000E+00;  1.0000000E+04;-0.066583402;0.0;0.00081039476;21.530289
 -3.9999999E-02;  9.9999998E-03;  3.9999999E-02;389;0.0;0.0;0.0;1000.1288;  4.0000001E-01;106.7624;0;0.0;0.0;0.0;0;-0.06572023;  1.0000000E+04;  0.0000000E+00;  0.0000000E+00;  1.0000000E+04;  0.0000000E+00;  1.0000000E+04;-0.066592015;0.0;0.00087178539;22.914347
 -3.9999999E-02;  9.9999998E-03;  5.9999999E-02;390;0.0;0.0;0.0;1000.1287;  4.0000001E-01;106.66364;0;0.0;0.0;0.0;0;-0.065600485;  1.0000000E+04;  0.0000000E+00;  0.0000000E+00;  1.0000000E+04;  0.0000000E+00;  1.0000000E+04;-0.066571169;0.0;0.00097068172;25.149696
 -3.9999999E-02;  9.9999998E-03;  7.9999998E-02;391;0.0;0.0;0.0;1000.1284;  4.0000001E-01;106.36735;0;0.0;0.0;0.0;0;-0.065364376;  1.0000000E+04;  0.0000000E+00;  0.0000000E+00;  1.0000000E+04;  0.0000000E+00;  1.0000000E+04;-0.066466168;0.0;0.0011017923;28.122021
 -3.9999999E-02;  9.9999998E-03;  1.0000000E-01;392;0.0;0.0;0.0;1000.1278;  4.0000001E-01;105.87354;0;0.0;0.0;0.0;0;-0.064939961;  1.0000000E+04;  0.0000000E+00;  0.0000000E+00;  1.0000000E+04;  0.0000000E+00;  1.0000000E+04;-0.066196866;0.0;0.0012569055;31.648731
 -3.9999999E-02;  9.9999998E-03;  1.2000000E-01;393;0.0;0.0;0.0;1000.1264;  4.0000001E-01;104.68839;0;0.0;0.0;0.0;0;-0.064232334;  1.0000000E+04;  0.0000000E+00;  0.0000000E+00;  1.0000000E+04;  0.0000000E+00;  1.0000000E+04;-0.065655425;0.0;0.0014230894;35.439827
 -3.9999999E-02;  9.9999998E-03;  1.4000000E-01;394;0.0;0.0;0.0;1000.1243;  4.0000001E-01;103.00941;0;0.0;0.0;0.0;0;-0.063124567;  1.0000000E+04;  0.0000000E+00;  0.0000000E+00;  1.0000000E+04;  0.0000000E+00;  1.0000000E+04;-0.064704463;0.0;0.0015798932;39.043091
 -2.0000000E-02;  9.9999998E-03;  0.0000000E+00;428;0.0;0.0;0.0;1000.1852;  4.0000001E-01;153.47711;0;0.0;0.0;0.0;0;-0.093941249;  1.0000000E+04;  0.0000000E+00;  0.0000000E+00;  1.0000000E+04;  0.0000000E+00;  1.0000000E+04;-0.095299393;0.0;0.0013581438;33.393341
 -2.0000000E-02;  9.9999998E-03;  2.0000000E-02;429;0.0;0.0;0.0;1000.1852;  4.0000001E-01;153.47711;0;0.0;0.0;0.0;0;-0.093919791;  1.0000000E+04;  0.0000000E+00;  0.0000000E+00;  1.0000000E+04;  0.0000000E+00;  1.0000000E+04;-0.09531188;0.0;0.0013920852;34.174038
 -2.0000000E-02;  9.9999998E-03;  3.9999999E-02;430;0.0;0.0;0.0;1000.1851;  4.0000001E-01;153.37836;0;0.0;0.0;0.0;0;-0.09384276;  1.0000000E+04;  0.0000000E+00;  0.0000000E+00;  1.0000000E+04;  0.0000000E+00;  1.0000000E+04;-0.095334947;0.0;0.0014921888;36.480553
 -2.0000000E-02;  9.9999998E-03;  5.9999999E-02;431;0.0;0.0;0.0;1000.1849;  4.0000001E-01;153.18083;0;0.0;0.0;0.0;0;-0.093671016;  1.0000000E+04;  0.0000000E+00;  0.0000000E+00;  1.0000000E+04;  0.0000000E+00;  1.0000000E+04;-0.095324248;0.0;0.0016532332;40.203663
 -2.0000000E-02;  9.9999998E-03;  7.9999998E-02;432;0.0;0.0;0.0;1000.1844;  4.0000001E-01;152.78578;0;0.0;0.0;0.0;0;-0.093337148;  1.0000000E+04;  0.0000000E+00;  0.0000000E+00;  1.0000000E+04;  0.0000000E+00;  1.0000000E+04;-0.095203258;0.0;0.0018661094;45.147083
 -2.0000000E-02;  9.9999998E-03;  1.0000000E-01;433;0.0;0.0;0.0;1000.1834;  4.0000001E-01;151.99568;0;0.0;0.0;0.0;0;-0.092743054;  1.0000000E+04;  0.0000000E+00;  0.0000000E+00;  1.0000000E+04;  0.0000000E+00;  1.0000000E+04;-0.094859555;0.0;0.0021165032;50.994717
 -2.0000000E-02;  9.9999998E-03;  1.2000000E-01;434;0.0;0.0;0.0;1000.1816;  4.0000001E-01;150.41548;0;0.0;0.0;0.0;0;-0.091758557;  1.0000000E+04;  0.0000000E+00;  0.0000000E+00;  1.0000000E+04;  0.0000000E+00;  1.0000000E+04;-0.094140366;0.0;0.0023818056;57.24469
 -2.0000000E-02;  9.9999998E-03;  1.4000000E-01;435;0.0;0.0;0.0;1000.1788;  4.0000001E-01;148.14394;0;0.0;0.0;0.0;0;-0.090223201;  1.0000000E+04;  0.0000000E+00;  0.0000000E+00;  1.0000000E+04;  0.0000000E+00;  1.0000000E+04;-0.092850022;0.0;0.0026268193;63.122074
 -2.2000000E-01;  9.9999998E-03;  1.6000000E-01;27;0.0;0.0;0.0;1000.0;  4.0000001E-01;0.0;0;0.0;0.0;0.0;0;0.0;  1.0000000E+04;  0.0000000E+00;  0.0000000E+00;  1.0000000E+04;  0.0000000E+00;  1.0000000E+04;0.0;0.0;0.0;0.0
 -2.2000000E-01;  9.9999998E-03;  1.8000001E-01;28;0.0;0.0;0.0;1000.0;  4.0000001E-01;0.0;0;0.0;0.0;0.0;0;0.0;  1.0000000E+04;  0.0000000E+00;  0.0000000E+00;  1.0000000E+04;  0.0000000E+00;  1.0000000E+04;0.0;0.0;0.0;0.0
 -2.2000000E-01;  9.9999998E-03;  2.0000000E-01;29;0.0;0.0;0.0;1000.0;  4.0000001E-01;0.0;0;0.0;0.0;0.0;0;0.0;  1.0000000E+04;  0.0000000E+00;  0.0000000E+00;  1.0000000E+04;  0.0000000E+00;  1.0000000E+04;0.0;0.0;0.0;0.0
 -2.2000000E-01;  9.9999998E-03;  2.2000000E-01;30;0.0;0.0;0.0;1000.0;  4.0000001E-01;0.0;0;0.0;0.0;0.0;0;0.0;  1.0000000E+04;  0.0000000E+00;  0.0000000E+00;  1.0000000E+04;  0.0000000E+00;  1.0000000E+04;0.0;0.0;0.0;0.0
 -2.2000000E-01;  9.9999998E-03;  2.3999999E-01;31;0.0;0.0;0.0;1000.0;  4.0000001E-01;0.0;0;0.0;0.0;0.0;0;0.0;  1.0000000E+04;  0.0000000E+00;  0.0000000E+00;  1.0000000E+04;  0.0000000E+00;  1.0000000E+04;0.0;0.0;0.0;0.0
 -2.2000000E-01;  9.9999998E-03;  2.5999999E-01;32;0.0;0.0;0.0;1000.0;  4.0000001E-01;0.0;0;0.0;0.0;0.0;0;0.0;  1.0000000E+04;  0.0000000E+00;  0.0000000E+00;  1.0000000E+04;  0.0000000E+00;  1.0000000E+04;0.0;0.0;0.0;0.0
 -2.2000000E-01;  9.9999998E-03;  2.8000000E-01;33;0.0;0.0;0.0;1000.0;  4.0000001E-01;0.0;0;0.0;0.0;0.0;0;0.0;  1.0000000E+04;  0.0000000E+00;  0.0000000E+00;  1.0000000E+04;  0.0000000E+00;  1.0000000E+04;0.0;0.0;0.0;0.0
 -2.2000000E-01;  9.9999998E-03;  3.0000001E-01;34;0.0;0.0;0.0;1000.0;  4.0000001E-01;0.0;0;0.0;0.0;0.0;0;0.0;  1.0000000E+04;  0.0000000E+00;  0.0000000E+00;  1.0000000E+04;  0.0000000E+00;  1.0000000E+04;0.0;0.0;0.0;0.0
 -2.2000000E-01;  9.9999998E-03;  3.1999999E-01;35;0.0;0.0;0.0;1000.0;  4.0000001E-01;0.0;0;0.0;0.0;0.0;0;0.0;  1.0000000E+04;  0.0000000E+00;  0.0000000E+00;  1.0000000E+04;  0.0000000E+00;  1.0000000E+04;0.0;0.0;0.0;0.0
 -2.0000000E-01;  9.9999998E-03;  1.6000000E-01;67;0.0;0.0;0.0;1000.0;  4.0000001E-01;0.0;0;0.0;0.0;0.0;0;0.0;  1.0000000E+04;  0.0000000E+00;  0.0000000E+00;  1.0000000E+04;  0.0000000E+00;  1.0000000E+04;0.0;0.0;0.0;0.0
 -2.0000000E-01;  9.9999998E-03;  1.8000001E-01;68;0.0;0.0;0.0;1000.0;  4.0000001E-01;0.0;0;0.0;0.0;0.0;0;0.0;  1.0000000E+04;  0.0000000E+00;  0.0000000E+00;  1.0000000E+04;  0.0000000E+00;  1.0000000E+04;0.0;0.0;0.0;0.0
 -2.0000000E-01;  9.9999998E-03;  2.0000000E-01;69;0.0;0.0;0.0;1000.0;  4.0000001E-01;0.0;0;0.0;0.0;0.0;0;0.0;  1.0000000E+04;  0.0000000E+00;  0.0000000E+00;  1.0000000E+04;  0.0000000E+00;  1.0000000E+04;0.0;0.0;0.0;0.0
 -2.0000000E-01;  9.9999998E-03;  2.2000000E-01;70;0.0;0.0;0.0;1000.0;  4.0000001E-01;0.0;0;0.0;0.0;0.0;0;0.0;  1.0000000E+04;  0.0000000E+00;  0.0000000E+00;  1.0000000E+04;  0.0000000E+00;  1.0000000E+04;0.0;0.0;0.0;0.0
 -2.0000000E-01;  9.9999998E-03;  2.3999999E-01;71;0.0;0.0;0.0;1000.0;  4.0000001E-01;0.0;0;0.0;0.0;0.0;0;0.0;  1.0000000E+04;  0.0000000E+00;  0.0000000E+00;  1.0000000E+04;  0.0000000E+00;  1.0000000E+04;0.0;0.0;0.0;0.0
 -2.0000000E-01;  9.9999998E-03;  2.5999999E-01;72;0.0;0.0;0.0;1000.0;  4.0000001E-01;0.0;0;0.0;0.0;0.0;0;0.0;  1.0000000E+04;  0.0000000E+00;  0.0000000E+00;  1.0000000E+04;  0.0000000E+00;  1.0000000E+04;0.0;0.0;0.0;0.0
 -2.0000000E-01;  9.9999998E-03;  2.8000000E-01;73;0.0;0.0;0.0;1000.0;  4.0000001E-01;0.0;0;0.0;0.0;0.0;0;0.0;  1.0000000E+04;  0.0000000E+00;  0.0000000E+00;  1.0000000E+04;  0.0000000E+00;  1.0000000E+04;0.0;0.0;0.0;0.0
 -2.0000000E-01;  9.9999998E-03;  3.0000001E-01;74;0.0;0.0;0.0;1000.0;  4.0000001E-01;0.0;0;0.0;0.0;0.0;0;0.0;  1.0000000E+04;  0.0000000E+00;  0.0000000E+00;  1.0000000E+04;  0.0000000E+00;  1.0000000E+04;0.0;0.0;0.0;0.0
 -2.0000000E-01;  9.9999998E-03;  3.1999999E-01;75;0.0;0.0;0.0;1000.0;  4.0000001E-01;0.0;0;0.0;0.0;0.0;0;0.0;  1.0000000E+04;  0.0000000E+00;  0.0000000E+00;  1.0000000E+04;  0.0000000E+00;  1.0000000E+04;0.0;0.0;0.0;0.0
 -1.8000001E-01;  9.9999998E-03;  1.6000000E-01;108;0.0;0.0;0.0;1000.0;  4.0000001E-01;0.0;0;0.0;0.0;0.0;0;0.0;  1.0000000E+04;  0.0000000E+00;  0.0000000E+00;  1.0000000E+04;  0.0000000E+00;  1.0000000E+04;0.0;0.0;0.0;0.0
 -1.8000001E-01;  9.9999998E-03;  1.8000001E-01;109;0.0;0.0;0.0;1000.0;  4.0000001E-01;0.0;0;0.0;0.0;0.0;0;0.0;  1.0000000E+04;  0.0000000E+00;  0.0000000E+00;  1.0000000E+04;  0.0000000E+00;  1.0000000E+04;0.0;0.0;0.0;0.0
 -1.8000001E-01;  9.9999998E-03;  2.0000000E-01;110;0.0;0.0;0.0;1000.0;  4.0000001E-01;0.0;0;0.0;0.0;0.0;0;0.0;  1.0000000E+04;  0.0000000E+00;  0.0000000E+00;  1.0000000E+04;  0.0000000E+00;  1.0000000E+04;0.0;0.0;0.0;0.0
 -1.8000001E-01;  9.9999998E-03;  2.2000000E-01;111;0.0;0.0;0.0;1000.0;  4.0000001E-01;0.0;0;0.0;0.0;0.0;0;0.0;  1.0000000E+04;  0.0000000E+00;  0.0000000E+00;  1.0000000E+04;  0.0000000E+00;  1.0000000E+04;0.0;0.0;0.0;0.0
 -1.8000001E-01;  9.9999998E-03;  2.3999999E-01;112;0.0;0.0;0.0;1000.0;  4.0000001E-01;0.0;0;0.0;0.0;0.0;0;0.0;  1.0000000E+04;  0.0000000E+00;  0.0000000E+00;  1.0000000E+04;  0.0000000E+00;  1.0000000E+04;0.0;0.0;0.0;0.0
 -1.8000001E-01;  9.9999998E-03;  2.5999999E-01;113;0.0;0.0;0.0;1000.0;  4.0000001E-01;0.0;0;0.0;0.0;0.0;0;0.0;  1.0000000E+04;  0.0000000E+00;  0.0000000E+00;  1.0000000E+04;  0.0000000E+00;  1.0000000E+04;0.0;0.0;0.0;0.0
 -1.8000001E-01;  9.9999998E-03;  2.8000000E-01;114;0.0;0.0;0.0;1000.0;  4.0000001E-01;0.0;0;0.0;0.0;0.0;0;0.0;  1.0000000E+04;  0.0000000E+00;  0.0000000E+00;  1.0000000E+04;  0.0000000E+00;  1.0000000E+04;0.0;0.0;0.0;0.0
 -1.8000001E-01;  9.9999998E-03;  3.0000001E-01;115;0.0;0.0;0.0;1000.0;  4.0000001E-01;0.0;0;0.0;0.0;0.0;0;0.0;  1.0000000E+04;  0.0000000E+00;  0.0000000E+00;  1.0000000E+04;  0.0000000E+00;  1.0000000E+04;0.0;0.0;0.0;0.0
 -1.8000001E-01;  9.9999998E-03;  3.1999999E-01;116;0.0;0.0;0.0;1000.0;  4.0000001E-01;0.0;0;0.0;0.0;0.0;0;0.0;  1.0000000E+04;  0.0000000E+00;  0.0000000E+00;  1.0000000E+04;  0.0000000E+00;  1.0000000E+04;0.0;0.0;0.0;0.0
 -1.6000000E-01;  9.9999998E-03;  1.6000000E-01;149;0.0;0.0;0.0;1000.0;  4.0000001E-01;0.0;0;0.0;0.0;0.0;0;-1.3016923e-05;  1.0000000E+04;  0.0000000E+00;  0.0000000E+00;  1.0000000E+04;  0.0000000E+00;  1.0000000E+04;-1.3041053e-05;0.0;2.412958e-08;0.0024221723
 -1.6000000E-01;  9.9999998E-03;  1.8000001E-01;150;0.0;0.0;0.0;1000.0;  4.0000001E-01;0.0;0;0.0;0.0;0.0;0;-1.2596261e-05;  1.0000000E+04;  0.0000000E+00;  0.0000000E+00;  1.0000000E+04;  0.0000000E+00;  1.0000000E+04;-1.2622913e-05;0.0;2.6652756e-08;0.0024194582
 -1.6000000E-01;  9.9999998E-03;  2.0000000E-01;151;0.0;0.0;0.0;1000.0;  4.0000001E-01;0.0;0;0.0;0.0;0.0;0;-1.1981218e-05;  1.0000000E+04;  0.0000000E+00;  0.0000000E+00;  1.0000000E+04;  0.0000000E+00;  1.0000000E+04;-1.2009255e-05;0.0;2.8037908e-08;0.0023624173
 -1.6000000E-01;  9.9999998E-03;  2.2000000E-01;152;0.0;0.0;0.0;1000.0;  4.0000001E-01;0.0;0;0.0;0.0;0.0;0;-1.1132463e-05;  1.0000000E+04;  0.0000000E+00;  0.0000000E+00;  1.0000000E+04;  0.0000000E+00;  1.0000000E+04;-1.1159841e-05;0.0;2.7378862e-08;0.0022268449
 -1.6000000E-01;  9.9999998E-03;  2.3999999E-01;153;0.0;0.0;0.0;1000.0;  4.0000001E-01;0.0;0;0.0;0.0;0.0;0;-1.0024958e-05;  1.0000000E+04;  0.0000000E+00;  0.0000000E+00;  1.0000000E+04;  0.0000000E+00;  1.0000000E+04;-1.0048003e-05;0.0;2.3044997e-08;0.0019820449
 -1.6000000E-01;  9.9999998E-03;  2.5999999E-01;154;0.0;0.0;0.0;1000.0;  4.0000001E-01;0.0;0;0.0;0.0;0.0;0;-8.4390222e-06;  1.0000000E+04;  0.0000000E+00;  0.0000000E+00;  1.0000000E+04;  0.0000000E+00;  1.0000000E+04;-8.4272533e-06;0.0;-1.1769281e-08;0.0011119947
 -1.6000000E-01;  9.9999998E-03;  2.8000000E-01;155;0.0;0.0;0.0;1000.0;  4.0000001E-01;0.0;0;0.0;0.0;0.0;0;-5.6374247e-06;  1.0000000E+04;  0.0000000E+00;  0.0000000E+00;  1.0000000E+04;  0.0000000E+00;  1.0000000E+04;-5.542488e-06;0.0;-9.4936865e-08;0.00090017647
 -1.6000000E-01;  9.9999998E-03;  3.0000001E-01;156;0.0;0.0;0.0;1000.0;  4.0000001E-01;0.0;0;0.0;0.0;0.0;0;-2.3832074e-06;  1.0000000E+04;  0.0000000E+00;  0.0000000E+00;  1.0000000E+04;  0.0000000E+00;  1.0000000E+04;-2.2786746e-06;0.0;-1.0453277e-07;0.0015687369
 -1.6000000E-01;  9.9999998E-03;  3.1999999E-01;157;0.0;0.0;0.0;1000.0;  4.0000001E-01;0.0;0;0.0;0.0;0.0;0;-3.7529921e-07;  1.0000000E+04;  0.0000000E+00;  0.0000000E+00;  1.0000000E+04;  0.0000000E+00;  1.0000000E+04;-3.4436474e-07;0.0;-3.093448e-08;0.00050319196
 -1.4000000E-01;  9.9999998E-03;  1.6000000E-01;190;0.0;0.0;0.0;1000.0009;  4.0000001E-01;0.69133836;0;0.0;0.0;0.0;0;-0.00047262132;  1.0000000E+04;  0.0000000E+00;  0.0000000E+00;  1.0000000E+04;  0.0000000E+00;  1.0000000E+04;-0.00047561491;0.0;2.993595e-06;0.12757838
 -1.4000000E-01;  9.9999998E-03;  1.8000001E-01;191;0.0;0.0;0.0;1000.0009;  4.0000001E-01;0.69133836;0;0.0;0.0;0.0;0;-0.0004558744;  1.0000000E+04;  0.0000000E+00;  0.0000000E+00;  1.0000000E+04;  0.0000000E+00;  1.0000000E+04;-0.00045913359;0.0;3.2591827e-06;0.13110977
 -1.4000000E-01;  9.9999998E-03;  2.0000000E-01;192;0.0;0.0;0.0;1000.0008;  4.0000001E-01;0.69133836;0;0.0;0.0;0.0;0;-0.00043220638;  1.0000000E+04;  0.0000000E+00;  0.0000000E+00;  1.0000000E+04;  0.0000000E+00;  1.0000000E+04;-0.00043556359;0.0;3.3572148e-06;0.13014489
 -1.4000000E-01;  9.9999998E-03;  2.2000000E-01;193;0.0;0.0;0.0;1000.0007;  4.0000001E-01;0.59257573;0;0.0;0.0;0.0;0;-0.00039978357;  1.0000000E+04;  0.0000000E+00;  0.0000000E+00;  1.0000000E+04;  0.0000000E+00;  1.0000000E+04;-0.0004026691;0.0;2.8855359e-06;0.11703774
 -1.4000000E-01;  9.9999998E-03;  2.3999999E-01;194;0.0;0.0;0.0;1000.0006;  4.0000001E-01;0.49381313;0;0.0;0.0;0.0;0;-0.0003526923;  1.0000000E+04;  0.0000000E+00;  0.0000000E+00;  1.0000000E+04;  0.0000000E+00;  1.0000000E+04;-0.0003532074;0.0;5.1511068e-07;0.066904292
 -1.4000000E-01;  9.9999998E-03;  2.5999999E-01;195;0.0;0.0;0.0;1000.0005;  4.0000001E-01;0.3950505;0;0.0;0.0;0.0;0;-0.00028665081;  1.0000000E+04;  0.0000000E+00;  0.0000000E+00;  1.0000000E+04;  0.0000000E+00;  1.0000000E+04;-0.00028312547;0.0;-3.5253493e-06;0.016699385
 -1.4000000E-01;  9.9999998E-03;  2.8000000E-01;196;0.0;0.0;0.0;1000.0003;  4.0000001E-01;0.29628786;0;0.0;0.0;0.0;0;-0.00020610195;  1.0000000E+04;  0.0000000E+00;  0.0000000E+00;  1.0000000E+04;  0.0000000E+00;  1.0000000E+04;-0.00019904003;0.0;-7.0619089e-06;0.093938492
 -1.4000000E-01;  9.9999998E-03;  3.0000001E-01;197;0.0;0.0;0.0;1000.0001;  4.0000001E-01;0.098762624;0;0.0;0.0;0.0;0;-0.00012457269;  1.0000000E+04;  0.0000000E+00;  0.0000000E+00;  1.0000000E+04;  0.0000000E+00;  1.0000000E+04;-0.00011646446;0.0;-8.1082362e-06;0.12720452
 -1.4000000E-01;  9.9999998E-03;  3.1999999E-01;198;0.0;0.0;0.0;1000.0;  4.0000001E-01;0.0;0;0.0;0.0;0.0;0;-5.8516605e-05;  1.0000000E+04;  0.0000000E+00;  0.0000000E+00;  1.0000000E+04;  0.0000000E+00;  1.0000000E+04;-5.22722e-05;0.0;-6.2444055e-06;0.1045099
 -1.2000000E-01;  9.9999998E-03;  1.6000000E-01;231;0.0;0.0;0.0;1000.0049;  4.0000001E-01;4.0492678;0;0.0;0.0;0.0;0;-0.0025968419;  1.0000000E+04;  0.0000000E+00;  0.0000000E+00;  1.0000000E+04;  0.0000000E+00;  1.0000000E+04;-0.0026252612;0.0;2.8419228e-05;0.92562819
 -1.2000000E-01;  9.9999998E-03;  1.8000001E-01;232;0.0;0.0;0.0;1000.0049;  4.0000001E-01;4.0492678;0;0.0;0.0;0.0;0;-0.0025003427;  1.0000000E+04;  0.0000000E+00;  0.0000000E+00;  1.0000000E+04;  0.0000000E+00;  1.0000000E+04;-0.0025308041;0.0;3.046145e-05;0.95893753
 -1.2000000E-01;  9.9999998E-03;  2.0000000E-01;233;0.0;0.0;0.0;1000.0045;  4.0000001E-01;3.7529798;0;0.0;0.0;0.0;0;-0.0023647931;  1.0000000E+04;  0.0000000E+00;  0.0000000E+00;  1.0000000E+04;  0.0000000E+00;  1.0000000E+04;-0.0023941081;0.0;2.9314971e-05;0.92503506
 -1.2000000E-01;  9.9999998E-03;  2.2000000E-01;234;0.0;0.0;0.0;1000.0042;  4.0000001E-01;3.4566917;0;0.0;0.0;0.0;0;-0.0021750554;  1.0000000E+04;  0.0000000E+00;  0.0000000E+00;  1.0000000E+04;  0.0000000E+00;  1.0000000E+04;-0.0021945315;0.0;1.9476076e-05;0.72131985
 -1.2000000E-01;  9.9999998E-03;  2.3999999E-01;235;0.0;0.0;0.0;1000.0037;  4.0000001E-01;3.0616415;0;0.0;0.0;0.0;0;-0.0019163887;  1.0000000E+04;  0.0000000E+00;  0.0000000E+00;  1.0000000E+04;  0.0000000E+00;  1.0000000E+04;-0.0019153801;0.0;-1.008631e-06;0.30992875
 -1.2000000E-01;  9.9999998E-03;  2.5999999E-01;236;0.0;0.0;0.0;1000.003;  4.0000001E-01;2.4690657;0;0.0;0.0;0.0;0;-0.0015844662;  1.0000000E+04;  0.0000000E+00;  0.0000000E+00;  1.0000000E+04;  0.0000000E+00;  1.0000000E+04;-0.0015564502;0.0;-2.8016069e-05;0.23479018
 -1.2000000E-01;  9.9999998E-03;  2.8000000E-01;237;0.0;0.0;0.0;1000.0023;  4.0000001E-01;1.8764899;0;0.0;0.0;0.0;0;-0.0011987851;  1.0000000E+04;  0.0000000E+00;  0.0000000E+00;  1.0000000E+04;  0.0000000E+00;  1.0000000E+04;-0.0011471057;0.0;-5.1679461e-05;0.72965509
 -1.2000000E-01;  9.9999998E-03;  3.0000001E-01;238;0.0;0.0;0.0;1000.0016;  4.0000001E-01;1.2839141;0;0.0;0.0;0.0;0;-0.00080760592;  1.0000000E+04;  0.0000000E+00;  0.0000000E+00;  1.0000000E+04;  0.0000000E+00;  1.0000000E+04;-0.00074461923;0.0;-6.2986677e-05;1.0030614
 -1.2000000E-01;  9.9999998E-03;  3.1999999E-01;239;0.0;0.0;0.0;1000.0009;  4.0000001E-01;0.69133836;0;0.0;0.0;0.0;0;-0.00046889877;  1.0000000E+04;  0.0000000E+00;  0.0000000E+00;  1.0000000E+04;  0.0000000E+00;  1.0000000E+04;-0.00041033656;0.0;-5.8562197e-05;0.98389333
 -1.0000000E-01;  9.9999998E-03;  1.6000000E-01;272;0.0;0.0;0.0;1000.016;  4.0000001E-01;13.234192;0;0.0;0.0;0.0;0;-0.0082243579;  1.0000000E+04;  0.0000000E+00;  0.0000000E+00;  1.0000000E+04;  0.0000000E+00;  1.0000000E+04;-0.0083514359;0.0;0.00012707796;3.6329129
 -1.0000000E-01;  9.9999998E-03;  1.8000001E-01;273;0.0;0.0;0.0;1000.0153;  4.0000001E-01;12.740378;0;0.0;0.0;0.0;0;-0.0079096677;  1.0000000E+04;  0.0000000E+00;  0.0000000E+00;  1.0000000E+04;  0.0000000E+00;  1.0000000E+04;-0.0080422265;0.0;0.00013255906;3.7328825
 -1.0000000E-01;  9.9999998E-03;  2.0000000E-01;274;0.0;0.0;0.0;1000.0146;  4.0000001E-01;12.147802;0;0.0;0.0;0.0;0;-0.0074695582;  1.0000000E+04;  0.0000000E+00;  0.0000000E+00;  1.0000000E+04;  0.0000000E+00;  1.0000000E+04;-0.0075883409;0.0;0.00011878255;3.449672
 -1.0000000E-01;  9.9999998E-03;  2.2000000E-01;275;0.0;0.0;0.0;1000.0134;  4.0000001E-01;11.160176;0;0.0;0.0;0.0;0;-0.0068704127;  1.0000000E+04;  0.0000000E+00;  0.0000000E+00;  1.0000000E+04;  0.0000000E+00;  1.0000000E+04;-0.0069438317;0.0;7.3419083e-05;2.5501766
 -1.0000000E-01;  9.9999998E-03;  2.3999999E-01;276;0.0;0.0;0.0;1000.012;  4.0000001E-01;9.9750252;0;0.0;0.0;0.0;0;-0.0060833171;  1.0000000E+04;  0.0000000E+00;  0.0000000E+00;  1.0000000E+04;  0.0000000E+00;  1.0000000E+04;-0.0060760817;0.0;-7.2353891e-06;0.96084243
 -1.0000000E-01;  9.9999998E-03;  2.5999999E-01;277;0.0;0.0;0.0;1000.0101;  4.0000001E-01;8.2960606;0;0.0;0.0;0.0;0;-0.0051027038;  1.0000000E+04;  0.0000000E+00;  0.0000000E+00;  1.0000000E+04;  0.0000000E+00;  1.0000000E+04;-0.0049941959;0.0;-0.0001085081;1.0509458
 -1.0000000E-01;  9.9999998E-03;  2.8000000E-01;278;0.0;0.0;0.0;1000.0078;  4.0000001E-01;6.518333;0;0.0;0.0;0.0;0;-0.0039769234;  1.0000000E+04;  0.0000000E+00;  0.0000000E+00;  1.0000000E+04;  0.0000000E+00;  1.0000000E+04;-0.0037777522;0.0;-0.00019917115;2.903142
 -1.0000000E-01;  9.9999998E-03;  3.0000001E-01;279;0.0;0.0;0.0;1000.0055;  4.0000001E-01;4.5430808;0;0.0;0.0;0.0;0;-0.0028259153;  1.0000000E+04;  0.0000000E+00;  0.0000000E+00;  1.0000000E+04;  0.0000000E+00;  1.0000000E+04;-0.0025745814;0.0;-0.00025133396;4.0607305
 -1.0000000E-01;  9.9999998E-03;  3.1999999E-01;280;0.0;0.0;0.0;1000.0035;  4.0000001E-01;2.8641162;0;0.0;0.0;0.0;0;-0.0017999037;  1.0000000E+04;  0.0000000E+00;  0.0000000E+00;  1.0000000E+04;  0.0000000E+00;  1.0000000E+04;-0.0015465905;0.0;-0.00025331319;4.282691
 -7.9999998E-02;  9.9999998E-03;  1.6000000E-01;313;0.0;0.0;0.0;1000.0381;  4.0000001E-01;31.60404;0;0.0;0.0;0.0;0;-0.019448822;  1.0000000E+04;  0.0000000E+00;  0.0000000E+00;  1.0000000E+04;  0.0000000E+00;  1.0000000E+04;-0.019829609;0.0;0.0003807859;10.132167
 -7.9999998E-02;  9.9999998E-03;  1.8000001E-01;314;0.0;0.0;0.0;1000.0366;  4.0000001E-01;30.320126;0;0.0;0.0;0.0;0;-0.018696317;  1.0000000E+04;  0.0000000E+00;  0.0000000E+00;  1.0000000E+04;  0.0000000E+00;  1.0000000E+04;-0.019082654;0.0;0.00038633769;10.267422
 -7.9999998E-02;  9.9999998E-03;  2.0000000E-01;315;0.0;0.0;0.0;1000.0347;  4.0000001E-01;28.739923;0;0.0;0.0;0.0;0;-0.017659167;  1.0000000E+04;  0.0000000E+00;  0.0000000E+00;  1.0000000E+04;  0.0000000E+00;  1.0000000E+04;-0.017996097;0.0;0.00033692952;9.3146677
 -7.9999998E-02;  9.9999998E-03;  2.2000000E-01;316;0.0;0.0;0.0;1000.032;  4.0000001E-01;26.468384;0;0.0;0.0;0.0;0;-0.016274927;  1.0000000E+04;  0.0000000E+00;  0.0000000E+00;  1.0000000E+04;  0.0000000E+00;  1.0000000E+04;-0.016478652;0.0;0.00020372485;6.7247362
 -7.9999998E-02;  9.9999998E-03;  2.3999999E-01;317;0.0;0.0;0.0;1000.0286;  4.0000001E-01;23.70303;0;0.0;0.0;0.0;0;-0.014488525;  1.0000000E+04;  0.0000000E+00;  0.0000000E+00;  1.0000000E+04;  0.0000000E+00;  1.0000000E+04;-0.014468402;0.0;-2.0123407e-05;2.3575521
 -7.9999998E-02;  9.9999998E-03;  2.5999999E-01;318;0.0;0.0;0.0;1000.0244;  4.0000001E-01;20.147575;0;0.0;0.0;0.0;0;-0.012286498;  1.0000000E+04;  0.0000000E+00;  0.0000000E+00;  1.0000000E+04;  0.0000000E+00;  1.0000000E+04;-0.011990412;0.0;-0.00029608599;3.0807145
 -7.9999998E-02;  9.9999998E-03;  2.8000000E-01;319;0.0;0.0;0.0;1000.0192;  4.0000001E-01;15.900783;0;0.0;0.0;0.0;0;-0.0097603193;  1.0000000E+04;  0.0000000E+00;  0.0000000E+00;  1.0000000E+04;  0.0000000E+00;  1.0000000E+04;-0.0092131272;0.0;-0.00054719229;8.1490784
 -7.9999998E-02;  9.9999998E-03;  3.0000001E-01;320;0.0;0.0;0.0;1000.0142;  4.0000001E-01;11.752752;0;0.0;0.0;0.0;0;-0.0071553253;  1.0000000E+04;  0.0000000E+00;  0.0000000E+00;  1.0000000E+04;  0.0000000E+00;  1.0000000E+04;-0.0064498573;0.0;-0.00070546812;11.53915
 -7.9999998E-02;  9.9999998E-03;  3.1999999E-01;321;0.0;0.0;0.0;1000.0095;  4.0000001E-01;7.90101;0;0.0;0.0;0.0;0;-0.0047914707;  1.0000000E+04;  0.0000000E+00;  0.0000000E+00;  1.0000000E+04;  0.0000000E+00;  1.0000000E+04;-0.0040500867;0.0;-0.00074138382;12.642092
 -5.9999999E-02;  9.9999998E-03;  1.6000000E-01;354;0.0;0.0;0.0;1000.0737;  4.0000001E-01;61.035301;0;0.0;0.0;0.0;0;-0.03749058;  1.0000000E+04;  0.0000000E+00;  0.0000000E+00;  1.0000000E+04;  0.0000000E+00;  1.0000000E+04;-0.038370401;0.0;0.00087981886;22.389328
 -5.9999999E-02;  9.9999998E-03;  1.8000001E-01;355;0.0;0.0;0.0;1000.071;  4.0000001E-01;58.862522;0;0.0;0.0;0.0;0;-0.036051195;  1.0000000E+04;  0.0000000E+00;  0.0000000E+00;  1.0000000E+04;  0.0000000E+00;  1.0000000E+04;-0.036931124;0.0;0.00087992888;22.532976
 -5.9999999E-02;  9.9999998E-03;  2.0000000E-01;356;0.0;0.0;0.0;1000.0672;  4.0000001E-01;55.702122;0;0.0;0.0;0.0;0;-0.034091342;  1.0000000E+04;  0.0000000E+00;  0.0000000E+00;  1.0000000E+04;  0.0000000E+00;  1.0000000E+04;-0.034849897;0.0;0.00075855321;20.270374
 -5.9999999E-02;  9.9999998E-03;  2.2000000E-01;357;0.0;0.0;0.0;1000.0624;  4.0000001E-01;51.751614;0;0.0;0.0;0.0;0;-0.031507146;  1.0000000E+04;  0.0000000E+00;  0.0000000E+00;  1.0000000E+04;  0.0000000E+00;  1.0000000E+04;-0.031963799;0.0;0.0004566529;14.467893
 -5.9999999E-02;  9.9999998E-03;  2.3999999E-01;358;0.0;0.0;0.0;1000.0559;  4.0000001E-01;46.319672;0;0.0;0.0;0.0;0;-0.028200215;  1.0000000E+04;  0.0000000E+00;  0.0000000E+00;  1.0000000E+04;  0.0000000E+00;  1.0000000E+04;-0.028163053;0.0;-3.7161859e-05;4.8836675
 -5.9999999E-02;  9.9999998E-03;  2.5999999E-01;359;0.0;0.0;0.0;1000.0479;  4.0000001E-01;39.603813;0;0.0;0.0;0.0;0;-0.02413174;  1.0000000E+04;  0.0000000E+00;  0.0000000E+00;  1.0000000E+04;  0.0000000E+00;  1.0000000E+04;-0.02348819;0.0;-0.00064354867;7.0197563
 -5.9999999E-02;  9.9999998E-03;  2.8000000E-01;360;0.0;0.0;0.0;1000.0386;  4.0000001E-01;31.99909;0;0.0;0.0;0.0;0;-0.019436877;  1.0000000E+04;  0.0000000E+00;  0.0000000E+00;  1.0000000E+04;  0.0000000E+00;  1.0000000E+04;-0.018232306;0.0;-0.0012045706;18.270168
 -5.9999999E-02;  9.9999998E-03;  3.0000001E-01;361;0.0;0.0;0.0;1000.029;  4.0000001E-01;23.999317;0;0.0;0.0;0.0;0;-0.014542755;  1.0000000E+04;  0.0000000E+00;  0.0000000E+00;  1.0000000E+04;  0.0000000E+00;  1.0000000E+04;-0.012965719;0.0;-0.0015770355;26.10301
 -5.9999999E-02;  9.9999998E-03;  3.1999999E-01;362;0.0;0.0;0.0;1000.02;  4.0000001E-01;16.493359;0;0.0;0.0;0.0;0;-0.010043563;  1.0000000E+04;  0.0000000E+00;  0.0000000E+00;  1.0000000E+04;  0.0000000E+00;  1.0000000E+04;-0.0083463332;0.0;-0.0016972298;29.207409
 -3.9999999E-02;  9.9999998E-03;  1.6000000E-01;395;0.0;0.0;0.0;1000.1213;  4.0000001E-01;100.54035;0;0.0;0.0;0.0;0;-0.061486114;  1.0000000E+04;  0.0000000E+00;  0.0000000E+00;  1.0000000E+04;  0.0000000E+00;  1.0000000E+04;-0.063173585;0.0;0.0016874722;41.629818
 -3.9999999E-02;  9.9999998E-03;  1.8000001E-01;396;0.0;0.0;0.0;1000.1169;  4.0000001E-01;96.886131;0;0.0;0.0;0.0;0;-0.059180047;  1.0000000E+04;  0.0000000E+00;  0.0000000E+00;  1.0000000E+04;  0.0000000E+00;  1.0000000E+04;-0.060855493;0.0;0.0016754464;41.79607
 -3.9999999E-02;  9.9999998E-03;  2.0000000E-01;397;0.0;0.0;0.0;1000.1111;  4.0000001E-01;92.046768;0;0.0;0.0;0.0;0;-0.056066588;  1.0000000E+04;  0.0000000E+00;  0.0000000E+00;  1.0000000E+04;  0.0000000E+00;  1.0000000E+04;-0.057504632;0.0;0.0014380447;37.481277
 -3.9999999E-02;  9.9999998E-03;  2.2000000E-01;398;0.0;0.0;0.0;1000.1031;  4.0000001E-01;85.429672;0;0.0;0.0;0.0;0;-0.051990226;  1.0000000E+04;  0.0000000E+00;  0.0000000E+00;  1.0000000E+04;  0.0000000E+00;  1.0000000E+04;-0.052862011;0.0;0.00087178499;26.674526
 -3.9999999E-02;  9.9999998E-03;  2.3999999E-01;399;0.0;0.0;0.0;1000.093;  4.0000001E-01;77.034843;0;0.0;0.0;0.0;0;-0.04679228;  1.0000000E+04;  0.0000000E+00;  0.0000000E+00;  1.0000000E+04;  0.0000000E+00;  1.0000000E+04;-0.046748191;0.0;-4.4087523e-05;8.9302483
 -3.9999999E-02;  9.9999998E-03;  2.5999999E-01;400;0.0;0.0;0.0;1000.0805;  4.0000001E-01;66.664772;0;0.0;0.0;0.0;0;-0.040382545;  1.0000000E+04;  0.0000000E+00;  0.0000000E+00;  1.0000000E+04;  0.0000000E+00;  1.0000000E+04;-0.039205469;0.0;-0.0011770761;13.289532
 -3.9999999E-02;  9.9999998E-03;  2.8000000E-01;401;0.0;0.0;0.0;1000.0656;  4.0000001E-01;54.319443;0;0.0;0.0;0.0;0;-0.032909028;  1.0000000E+04;  0.0000000E+00;  0.0000000E+00;  1.0000000E+04;  0.0000000E+00;  1.0000000E+04;-0.030659983;0.0;-0.0022490444;34.715244
 -3.9999999E-02;  9.9999998E-03;  3.0000001E-01;402;0.0;0.0;0.0;1000.05;  4.0000001E-01;41.381538;0;0.0;0.0;0.0;0;-0.024998046;  1.0000000E+04;  0.0000000E+00;  0.0000000E+00;  1.0000000E+04;  0.0000000E+00;  1.0000000E+04;-0.022012394;0.0;-0.0029856535;50.044037
 -3.9999999E-02;  9.9999998E-03;  3.1999999E-01;403;0.0;0.0;0.0;1000.0352;  4.0000001E-01;29.134974;0;0.0;0.0;0.0;0;-0.017626233;  1.0000000E+04;  0.0000000E+00;  0.0000000E+00;  1.0000000E+04;  0.0000000E+00;  1.0000000E+04;-0.014367682;0.0;-0.0032585515;56.652981
 -2.0000000E-02;  9.9999998E-03;  1.6000000E-01;436;0.0;0.0;0.0;1000.1747;  4.0000001E-01;144.78601;0;0.0;0.0;0.0;0;-0.087958612;  1.0000000E+04;  0.0000000E+00;  0.0000000E+00;  1.0000000E+04;  0.0000000E+00;  1.0000000E+04;-0.09074676;0.0;0.0027881505;67.294235
 -2.0000000E-02;  9.9999998E-03;  1.8000001E-01;437;0.0;0.0;0.0;1000.1689;  4.0000001E-01;139.94664;0;0.0;0.0;0.0;0;-0.084784411;  1.0000000E+04;  0.0000000E+00;  0.0000000E+00;  1.0000000E+04;  0.0000000E+00;  1.0000000E+04;-0.087541528;0.0;0.0027571179;67.561562
 -2.0000000E-02;  9.9999998E-03;  2.0000000E-01;438;0.0;0.0;0.0;1000.1607;  4.0000001E-01;133.13202;0;0.0;0.0;0.0;0;-0.080519423;  1.0000000E+04;  0.0000000E+00;  0.0000000E+00;  1.0000000E+04;  0.0000000E+00;  1.0000000E+04;-0.082885519;0.0;0.0023660944;60.614464
 -2.0000000E-02;  9.9999998E-03;  2.2000000E-01;439;0.0;0.0;0.0;1000.1499;  4.0000001E-01;124.14462;0;0.0;0.0;0.0;0;-0.074952006;  1.0000000E+04;  0.0000000E+00;  0.0000000E+00;  1.0000000E+04;  0.0000000E+00;  1.0000000E+04;-0.076407455;0.0;0.0014554448;43.300377
 -2.0000000E-02;  9.9999998E-03;  2.3999999E-01;440;0.0;0.0;0.0;1000.1359;  4.0000001E-01;112.58939;0;0.0;0.0;0.0;0;-0.067854911;  1.0000000E+04;  0.0000000E+00;  0.0000000E+00;  1.0000000E+04;  0.0000000E+00;  1.0000000E+04;-0.067841403;0.0;-1.3506591e-05;14.793708
 -2.0000000E-02;  9.9999998E-03;  2.5999999E-01;441;0.0;0.0;0.0;1000.1186;  4.0000001E-01;98.268814;0;0.0;0.0;0.0;0;-0.059071746;  1.0000000E+04;  0.0000000E+00;  0.0000000E+00;  1.0000000E+04;  0.0000000E+00;  1.0000000E+04;-0.057214461;0.0;-0.0018572855;21.451866
 -2.0000000E-02;  9.9999998E-03;  2.8000000E-01;442;0.0;0.0;0.0;1000.098;  4.0000001E-01;81.182877;0;0.0;0.0;0.0;0;-0.048716374;  1.0000000E+04;  0.0000000E+00;  0.0000000E+00;  1.0000000E+04;  0.0000000E+00;  1.0000000E+04;-0.045057669;0.0;-0.0036587059;57.442852
 -2.0000000E-02;  9.9999998E-03;  3.0000001E-01;443;0.0;0.0;0.0;1000.0757;  4.0000001E-01;62.714268;0;0.0;0.0;0.0;0;-0.037522942;  1.0000000E+04;  0.0000000E+00;  0.0000000E+00;  1.0000000E+04;  0.0000000E+00;  1.0000000E+04;-0.032586429;0.0;-0.004936514;83.874092
 -2.0000000E-02;  9.9999998E-03;  3.1999999E-01;444;0.0;0.0;0.0;1000.0543;  4.0000001E-01;45.035755;0;0.0;0.0;0.0;0;-0.026897281;  1.0000000E+04;  0.0000000E+00;  0.0000000E+00;  1.0000000E+04;  0.0000000E+00;  1.0000000E+04;-0.021457963;0.0;-0.0054393192;95.675812
  0.0000000E+00;  9.9999998E-03;  3.0000001E-01;455;0.0;0.0;0.0;1000.102;  4.0000001E-01;84.54081;0;0.0;0.0;0.0;0;-0.050168354;  1.0000000E+04;  0.0000000E+00;  0.0000000E+00;  1.0000000E+04;  0.0000000E+00;  1.0000000E+04;-0.042967103;0.0;-0.0072012516;124.17008
  0.0000000E+00;  9.9999998E-03;  3.1999999E-01;456;0.0;0.0;0.0;1000.0745;  4.0000001E-01;61.726639;0;0.0;0.0;0.0;0;-0.036575973;  1.0000000E+04;  0.0000000E+00;  0.0000000E+00;  1.0000000E+04;  0.0000000E+00;  1.0000000E+04;-0.028537557;0.0;-0.0080384156;143.31981
  2.0000000E-02;  9.9999998E-03;  3.1999999E-01;466;0.0;0.0;0.0;1000.0934;  4.0000001E-01;77.429893;0;0.0;0.0;0.0;0;-0.04529646;  1.0000000E+04;  0.0000000E+00;  0.0000000E+00;  1.0000000E+04;  0.0000000E+00;  1.0000000E+04;-0.034675047;0.0;-0.010621415;192.46016
  3.9999999E-02;  9.9999998E-03;  3.1999999E-01;476;0.0;0.0;0.0;1000.1104;  4.0000001E-01;91.454193;0;0.0;0.0;0.0;0;-0.052534312;  1.0000000E+04;  0.0000000E+00;  0.0000000E+00;  1.0000000E+04;  0.0000000E+00;  1.0000000E+04;-0.039849471;0.0;-0.012684841;234.45616
  5.9999999E-02;  9.9999998E-03;  3.1999999E-01;486;0.0;0.0;0.0;1000.1263;  4.0000001E-01;104.68839;0;0.0;0.0;0.0;0;-0.058859754;  1.0000000E+04;  0.0000000E+00;  0.0000000E+00;  1.0000000E+04;  0.0000000E+00;  1.0000000E+04;-0.044836272;0.0;-0.014023484;265.64743
  7.9999998E-02;  9.9999998E-03;  3.1999999E-01;496;0.0;0.0;0.0;1000.1443;  4.0000001E-01;119.50278;0;0.0;0.0;0.0;0;-0.06555257;  1.0000000E+04;  0.0000000E+00;  0.0000000E+00;  1.0000000E+04;  0.0000000E+00;  1.0000000E+04;-0.050823014;0.0;-0.014729558;288.32758
  1.0000000E-01;  9.9999998E-03;  3.1999999E-01;506;0.0;0.0;0.0;1000.1689;  4.0000001E-01;139.94664;0;0.0;0.0;0.0;0;-0.074530616;  1.0000000E+04;  0.0000000E+00;  0.0000000E+00;  1.0000000E+04;  0.0000000E+00;  1.0000000E+04;-0.059405707;0.0;-0.015124906;341.51227
  1.2000000E-01;  9.9999998E-03;  3.1999999E-01;516;0.0;0.0;0.0;1000.2049;  4.0000001E-01;169.77295;0;0.0;0.0;0.0;0;-0.088040881;  1.0000000E+04;  0.0000000E+00;  0.0000000E+00;  1.0000000E+04;  0.0000000E+00;  1.0000000E+04;-0.072296821;0.0;-0.01574406;670.92743
  1.4000000E-01;  9.9999998E-03;  3.1999999E-01;526;0.0;0.0;0.0;1000.2593;  4.0000001E-01;214.8087;0;0.0;0.0;0.0;0;-0.10844937;  1.0000000E+04;  0.0000000E+00;  0.0000000E+00;  1.0000000E+04;  0.0000000E+00;  1.0000000E+04;-0.091082633;0.0;-0.017366741;1704.6609
  1.6000000E-01;  9.9999998E-03;  3.1999999E-01;536;0.0;0.0;0.0;1000.3375;  4.0000001E-01;279.59698;0;0.0;0.0;0.0;0;-0.13753273;  1.0000000E+04;  0.0000000E+00;  0.0000000E+00;  1.0000000E+04;  0.0000000E+00;  1.0000000E+04;-0.11639049;0.0;-0.021142237;3903.3535
  1.8000001E-01;  9.9999998E-03;  3.1999999E-01;546;0.0;0.0;0.0;1000.4401;  4.0000001E-01;364.63162;0;0.0;0.0;0.0;0;-0.17487806;  1.0000000E+04;  0.0000000E+00;  0.0000000E+00;  1.0000000E+04;  0.0000000E+00;  1.0000000E+04;-0.14603794;0.0;-0.028840117;7562.9668
  2.0000000E-01;  9.9999998E-03;  3.1999999E-01;555;0.0;0.0;0.0;1000.5615;  4.0000001E-01;465.17197;0;0.0;0.0;0.0;0;-0.21758734;  1.0000000E+04;  0.0000000E+00;  0.0000000E+00;  1.0000000E+04;  0.0000000E+00;  1.0000000E+04;-0.17460637;0.0;-0.042980973;12043.308
 -2.2000000E-01;  9.9999998E-03;  3.4000000E-01;36;0.0;0.0;0.0;1000.0;  4.0000001E-01;0.0;0;0.0;0.0;0.0;0;0.0;  1.0000000E+04;  0.0000000E+00;  0.0000000E+00;  1.0000000E+04;  0.0000000E+00;  1.0000000E+04;0.0;0.0;0.0;0.0
 -2.2000000E-01;  9.9999998E-03;  3.6000001E-01;37;0.0;0.0;0.0;1000.0;  4.0000001E-01;0.0;0;0.0;0.0;0.0;0;0.0;  1.0000000E+04;  0.0000000E+00;  0.0000000E+00;  1.0000000E+04;  0.0000000E+00;  1.0000000E+04;0.0;0.0;0.0;0.0
 -2.2000000E-01;  9.9999998E-03;  3.8000000E-01;38;0.0;0.0;0.0;1000.0;  4.0000001E-01;0.0;0;0.0;0.0;0.0;0;0.0;  1.0000000E+04;  0.0000000E+00;  0.0000000E+00;  1.0000000E+04;  0.0000000E+00;  1.0000000E+04;0.0;0.0;0.0;0.0
 -2.0000000E-01;  9.9999998E-03;  3.4000000E-01;76;0.0;0.0;0.0;1000.0;  4.0000001E-01;0.0;0;0.0;0.0;0.0;0;0.0;  1.0000000E+04;  0.0000000E+00;  0.0000000E+00;  1.0000000E+04;  0.0000000E+00;  1.0000000E+04;0.0;0.0;0.0;0.0
 -2.0000000E-01;  9.9999998E-03;  3.6000001E-01;77;0.0;0.0;0.0;1000.0;  4.0000001E-01;0.0;0;0.0;0.0;0.0;0;0.0;  1.0000000E+04;  0.0000000E+00;  0.0000000E+00;  1.0000000E+04;  0.0000000E+00;  1.0000000E+04;0.0;0.0;0.0;0.0
 -2.0000000E-01;  9.9999998E-03;  3.8000000E-01;78;0.0;0.0;0.0;1000.0;  4.0000001E-01;0.0;0;0.0;0.0;0.0;0;0.0;  1.0000000E+04;  0.0000000E+00;  0.0000000E+00;  1.0000000E+04;  0.0000000E+00;  1.0000000E+04;0.0;0.0;0.0;0.0
 -2.0000000E-01;  9.9999998E-03;  4.0000001E-01;79;0.0;0.0;0.0;1000.0;  4.0000001E-01;0.0;0;0.0;0.0;0.0;0;0.0;  1.0000000E+04;  0.0000000E+00;  0.0000000E+00;  1.0000000E+04;  0.0000000E+00;  1.0000000E+04;0.0;0.0;0.0;0.0
 -1.8000001E-01;  9.9999998E-03;  3.4000000E-01;117;0.0;0.0;0.0;1000.0;  4.0000001E-01;0.0;0;0.0;0.0;0.0;0;0.0;  1.0000000E+04;  0.0000000E+00;  0.0000000E+00;  1.0000000E+04;  0.0000000E+00;  1.0000000E+04;0.0;0.0;0.0;0.0
 -1.8000001E-01;  9.9999998E-03;  3.6000001E-01;118;0.0;0.0;0.0;1000.0;  4.0000001E-01;0.0;0;0.0;0.0;0.0;0;0.0;  1.0000000E+04;  0.0000000E+00;  0.0000000E+00;  1.0000000E+04;  0.0000000E+00;  1.0000000E+04;0.0;0.0;0.0;0.0
 -1.8000001E-01;  9.9999998E-03;  3.8000000E-01;119;0.0;0.0;0.0;1000.0;  4.0000001E-01;0.0;0;0.0;0.0;0.0;0;0.0;  1.0000000E+04;  0.0000000E+00;  0.0000000E+00;  1.0000000E+04;  0.0000000E+00;  1.0000000E+04;0.0;0.0;0.0;0.0
 -1.8000001E-01;  9.9999998E-03;  4.0000001E-01;120;0.0;0.0;0.0;1000.0;  4.0000001E-01;0.0;0;0.0;0.0;0.0;0;0.0;  1.0000000E+04;  0.0000000E+00;  0.0000000E+00;  1.0000000E+04;  0.0000000E+00;  1.0000000E+04;0.0;0.0;0.0;0.0
 -1.6000000E-01;  9.9999998E-03;  3.4000000E-01;158;0.0;0.0;0.0;1000.0;  4.0000001E-01;0.0;0;0.0;0.0;0.0;0;0.0;  1.0000000E+04;  0.0000000E+00;  0.0000000E+00;  1.0000000E+04;  0.0000000E+00;  1.0000000E+04;0.0;0.0;0.0;0.0
 -1.6000000E-01;  9.9999998E-03;  3.6000001E-01;159;0.0;0.0;0.0;1000.0;  4.0000001E-01;0.0;0;0.0;0.0;0.0;0;0.0;  1.0000000E+04;  0.0000000E+00;  0.0000000E+00;  1.0000000E+04;  0.0000000E+00;  1.0000000E+04;0.0;0.0;0.0;0.0
 -1.6000000E-01;  9.9999998E-03;  3.8000000E-01;160;0.0;0.0;0.0;1000.0;  4.0000001E-01;0.0;0;0.0;0.0;0.0;0;0.0;  1.0000000E+04;  0.0000000E+00;  0.0000000E+00;  1.0000000E+04;  0.0000000E+00;  1.0000000E+04;0.0;0.0;0.0;0.0
 -1.6000000E-01;  9.9999998E-03;  4.0000001E-01;161;0.0;0.0;0.0;1000.0;  4.0000001E-01;0.0;0;0.0;0.0;0.0;0;0.0;  1.0000000E+04;  0.0000000E+00;  0.0000000E+00;  1.0000000E+04;  0.0000000E+00;  1.0000000E+04;0.0;0.0;0.0;0.0
 -1.4000000E-01;  9.9999998E-03;  3.4000000E-01;199;0.0;0.0;0.0;1000.0;  4.0000001E-01;0.0;0;0.0;0.0;0.0;0;-1.804368e-05;  1.0000000E+04;  0.0000000E+00;  0.0000000E+00;  1.0000000E+04;  0.0000000E+00;  1.0000000E+04;-1.5160645e-05;0.0;-2.883035e-06;0.049261197
 -1.4000000E-01;  9.9999998E-03;  3.6000001E-01;200;0.0;0.0;0.0;1000.0;  4.0000001E-01;0.0;0;0.0;0.0;0.0;0;-2.1017986e-06;  1.0000000E+04;  0.0000000E+00;  0.0000000E+00;  1.0000000E+04;  0.0000000E+00;  1.0000000E+04;-1.6461606e-06;0.0;-4.5563806e-07;0.0079021007
 -1.4000000E-01;  9.9999998E-03;  3.8000000E-01;201;0.0;0.0;0.0;1000.0;  4.0000001E-01;0.0;0;0.0;0.0;0.0;0;0.0;  1.0000000E+04;  0.0000000E+00;  0.0000000E+00;  1.0000000E+04;  0.0000000E+00;  1.0000000E+04;0.0;0.0;0.0;0.0
 -1.4000000E-01;  9.9999998E-03;  4.0000001E-01;202;0.0;0.0;0.0;1000.0;  4.0000001E-01;0.0;0;0.0;0.0;0.0;0;0.0;  1.0000000E+04;  0.0000000E+00;  0.0000000E+00;  1.0000000E+04;  0.0000000E+00;  1.0000000E+04;0.0;0.0;0.0;0.0
 -1.2000000E-01;  9.9999998E-03;  3.4000000E-01;240;0.0;0.0;0.0;1000.0004;  4.0000001E-01;0.29628786;0;0.0;0.0;0.0;0;-0.00022168073;  1.0000000E+04;  0.0000000E+00;  0.0000000E+00;  1.0000000E+04;  0.0000000E+00;  1.0000000E+04;-0.00018062987;0.0;-4.1050866e-05;0.70842928
 -1.2000000E-01;  9.9999998E-03;  3.6000001E-01;241;0.0;0.0;0.0;1000.0;  4.0000001E-01;0.0;0;0.0;0.0;0.0;0;-7.4177311e-05;  1.0000000E+04;  0.0000000E+00;  0.0000000E+00;  1.0000000E+04;  0.0000000E+00;  1.0000000E+04;-5.5503693e-05;0.0;-1.8673616e-05;0.32552576
 -1.2000000E-01;  9.9999998E-03;  3.8000000E-01;242;0.0;0.0;0.0;1000.0;  4.0000001E-01;0.0;0;0.0;0.0;0.0;0;-1.1018409e-05;  1.0000000E+04;  0.0000000E+00;  0.0000000E+00;  1.0000000E+04;  0.0000000E+00;  1.0000000E+04;-7.7073864e-06;0.0;-3.3110227e-06;0.058052454
 -1.2000000E-01;  9.9999998E-03;  4.0000001E-01;243;0.0;0.0;0.0;1000.0;  4.0000001E-01;0.0;0;0.0;0.0;0.0;0;-7.6177665e-16;  1.0000000E+04;  0.0000000E+00;  0.0000000E+00;  1.0000000E+04;  0.0000000E+00;  1.0000000E+04;-5.3090109e-16;0.0;-2.3087556e-16;1.0013459e-12
 -1.0000000E-01;  9.9999998E-03;  3.4000000E-01;281;0.0;0.0;0.0;1000.002;  4.0000001E-01;1.580202;0;0.0;0.0;0.0;0;-0.0010023323;  1.0000000E+04;  0.0000000E+00;  0.0000000E+00;  1.0000000E+04;  0.0000000E+00;  1.0000000E+04;-0.00079475343;0.0;-0.00020757885;3.5954456
 -1.0000000E-01;  9.9999998E-03;  3.6000001E-01;282;0.0;0.0;0.0;1000.0009;  4.0000001E-01;0.69133836;0;0.0;0.0;0.0;0;-0.00045880786;  1.0000000E+04;  0.0000000E+00;  0.0000000E+00;  1.0000000E+04;  0.0000000E+00;  1.0000000E+04;-0.00032999457;0.0;-0.00012881328;2.2593877
 -1.0000000E-01;  9.9999998E-03;  3.8000000E-01;283;0.0;0.0;0.0;1000.0002;  4.0000001E-01;0.19752525;0;0.0;0.0;0.0;0;-0.00014584762;  1.0000000E+04;  0.0000000E+00;  0.0000000E+00;  1.0000000E+04;  0.0000000E+00;  1.0000000E+04;-9.656413e-05;0.0;-4.9283484e-05;0.86866289
 -1.0000000E-01;  9.9999998E-03;  4.0000001E-01;284;0.0;0.0;0.0;1000.0;  4.0000001E-01;0.0;0;0.0;0.0;0.0;0;-2.0028299e-05;  1.0000000E+04;  0.0000000E+00;  0.0000000E+00;  1.0000000E+04;  0.0000000E+00;  1.0000000E+04;-1.3080989e-05;0.0;-6.9473103e-06;0.1225905
 -7.9999998E-02;  9.9999998E-03;  3.4000000E-01;322;0.0;0.0;0.0;1000.0057;  4.0000001E-01;4.7406058;0;0.0;0.0;0.0;0;-0.0028975036;  1.0000000E+04;  0.0000000E+00;  0.0000000E+00;  1.0000000E+04;  0.0000000E+00;  1.0000000E+04;-0.0022422587;0.0;-0.00065524486;11.421638
 -7.9999998E-02;  9.9999998E-03;  3.6000001E-01;323;0.0;0.0;0.0;1000.0029;  4.0000001E-01;2.4690657;0;0.0;0.0;0.0;0;-0.00152889;  1.0000000E+04;  0.0000000E+00;  0.0000000E+00;  1.0000000E+04;  0.0000000E+00;  1.0000000E+04;-0.0010623587;0.0;-0.00046653126;8.2280893
 -7.9999998E-02;  9.9999998E-03;  3.8000000E-01;324;0.0;0.0;0.0;1000.0012;  4.0000001E-01;0.98762625;0;0.0;0.0;0.0;0;-0.00063698081;  1.0000000E+04;  0.0000000E+00;  0.0000000E+00;  1.0000000E+04;  0.0000000E+00;  1.0000000E+04;-0.00040302079;0.0;-0.00023396;4.1474471
 -7.9999998E-02;  9.9999998E-03;  4.0000001E-01;325;0.0;0.0;0.0;1000.0002;  4.0000001E-01;0.19752525;0;0.0;0.0;0.0;0;-0.00016780655;  1.0000000E+04;  0.0000000E+00;  0.0000000E+00;  1.0000000E+04;  0.0000000E+00;  1.0000000E+04;-0.00010346844;0.0;-6.4338114e-05;1.1411254
 -5.9999999E-02;  9.9999998E-03;  3.4000000E-01;363;0.0;0.0;0.0;1000.0128;  4.0000001E-01;10.567601;0;0.0;0.0;0.0;0;-0.0063741459;  1.0000000E+04;  0.0000000E+00;  0.0000000E+00;  1.0000000E+04;  0.0000000E+00;  1.0000000E+04;-0.0048119407;0.0;-0.0015622053;27.442936
 -5.9999999E-02;  9.9999998E-03;  3.6000001E-01;364;0.0;0.0;0.0;1000.0073;  4.0000001E-01;6.0245199;0;0.0;0.0;0.0;0;-0.0036371651;  1.0000000E+04;  0.0000000E+00;  0.0000000E+00;  1.0000000E+04;  0.0000000E+00;  1.0000000E+04;-0.0024421201;0.0;-0.001195045;21.223534
 -5.9999999E-02;  9.9999998E-03;  3.8000000E-01;365;0.0;0.0;0.0;1000.0034;  4.0000001E-01;2.8641162;0;0.0;0.0;0.0;0;-0.001733225;  1.0000000E+04;  0.0000000E+00;  0.0000000E+00;  1.0000000E+04;  0.0000000E+00;  1.0000000E+04;-0.0010494058;0.0;-0.00068381918;12.200785
 -5.9999999E-02;  9.9999998E-03;  4.0000001E-01;366;0.0;0.0;0.0;1000.0011;  4.0000001E-01;0.88886362;0;0.0;0.0;0.0;0;-0.00059393561;  1.0000000E+04;  0.0000000E+00;  0.0000000E+00;  1.0000000E+04;  0.0000000E+00;  1.0000000E+04;-0.00034766275;0.0;-0.00024627289;4.3945999
 -3.9999999E-02;  9.9999998E-03;  3.4000000E-01;404;0.0;0.0;0.0;1000.0231;  4.0000001E-01;19.159948;0;0.0;0.0;0.0;0;-0.011537807;  1.0000000E+04;  0.0000000E+00;  0.0000000E+00;  1.0000000E+04;  0.0000000E+00;  1.0000000E+04;-0.0084717972;0.0;-0.0030660101;54.34663
 -3.9999999E-02;  9.9999998E-03;  3.6000001E-01;405;0.0;0.0;0.0;1000.0139;  4.0000001E-01;11.456465;0;0.0;0.0;0.0;0;-0.0069057737;  1.0000000E+04;  0.0000000E+00;  0.0000000E+00;  1.0000000E+04;  0.0000000E+00;  1.0000000E+04;-0.0044659241;0.0;-0.0024398498;43.691246
 -3.9999999E-02;  9.9999998E-03;  3.8000000E-01;406;0.0;0.0;0.0;1000.007;  4.0000001E-01;5.8269949;0;0.0;0.0;0.0;0;-0.0035518035;  1.0000000E+04;  0.0000000E+00;  0.0000000E+00;  1.0000000E+04;  0.0000000E+00;  1.0000000E+04;-0.0020511912;0.0;-0.0015006125;26.98423
 -3.9999999E-02;  9.9999998E-03;  4.0000001E-01;407;0.0;0.0;0.0;1000.0027;  4.0000001E-01;2.2715404;0;0.0;0.0;0.0;0;-0.0013913271;  1.0000000E+04;  0.0000000E+00;  0.0000000E+00;  1.0000000E+04;  0.0000000E+00;  1.0000000E+04;-0.00077080162;0.0;-0.0006205255;11.155258
 -2.0000000E-02;  9.9999998E-03;  3.4000000E-01;445;0.0;0.0;0.0;1000.0362;  4.0000001E-01;30.023838;0;0.0;0.0;0.0;0;-0.017992374;  1.0000000E+04;  0.0000000E+00;  0.0000000E+00;  1.0000000E+04;  0.0000000E+00;  1.0000000E+04;-0.012814089;0.0;-0.0051782839;92.767006
 -2.0000000E-02;  9.9999998E-03;  3.6000001E-01;446;0.0;0.0;0.0;1000.0223;  4.0000001E-01;18.468611;0;0.0;0.0;0.0;0;-0.011107229;  1.0000000E+04;  0.0000000E+00;  0.0000000E+00;  1.0000000E+04;  0.0000000E+00;  1.0000000E+04;-0.00689646;0.0;-0.0042107692;76.16391
 -2.0000000E-02;  9.9999998E-03;  3.8000000E-01;447;0.0;0.0;0.0;1000.0121;  4.0000001E-01;9.9750252;0;0.0;0.0;0.0;0;-0.0059816111;  1.0000000E+04;  0.0000000E+00;  0.0000000E+00;  1.0000000E+04;  0.0000000E+00;  1.0000000E+04;-0.0032827232;0.0;-0.0026988876;49.001804
 -2.0000000E-02;  9.9999998E-03;  4.0000001E-01;448;0.0;0.0;0.0;1000.0049;  4.0000001E-01;4.0492678;0;0.0;0.0;0.0;0;-0.0025231512;  1.0000000E+04;  0.0000000E+00;  0.0000000E+00;  1.0000000E+04;  0.0000000E+00;  1.0000000E+04;-0.0013165659;0.0;-0.0012065853;21.892607
  0.0000000E+00;  9.9999998E-03;  3.4000000E-01;457;0.0;0.0;0.0;1000.0507;  4.0000001E-01;41.974113;0;0.0;0.0;0.0;0;-0.024890015;  1.0000000E+04;  0.0000000E+00;  0.0000000E+00;  1.0000000E+04;  0.0000000E+00;  1.0000000E+04;-0.017181471;0.0;-0.0077085439;139.87177
  0.0000000E+00;  9.9999998E-03;  3.6000001E-01;458;0.0;0.0;0.0;1000.0319;  4.0000001E-01;26.468384;0;0.0;0.0;0.0;0;-0.015697461;  1.0000000E+04;  0.0000000E+00;  0.0000000E+00;  1.0000000E+04;  0.0000000E+00;  1.0000000E+04;-0.0093529616;0.0;-0.0063445;116.18679
  0.0000000E+00;  9.9999998E-03;  3.8000000E-01;459;0.0;0.0;0.0;1000.0175;  4.0000001E-01;14.518106;0;0.0;0.0;0.0;0;-0.0086993258;  1.0000000E+04;  0.0000000E+00;  0.0000000E+00;  1.0000000E+04;  0.0000000E+00;  1.0000000E+04;-0.0045329612;0.0;-0.0041663647;76.564629
  0.0000000E+00;  9.9999998E-03;  4.0000001E-01;460;0.0;0.0;0.0;1000.0077;  4.0000001E-01;6.4195704;0;0.0;0.0;0.0;0;-0.0038248801;  1.0000000E+04;  0.0000000E+00;  0.0000000E+00;  1.0000000E+04;  0.0000000E+00;  1.0000000E+04;-0.001875049;0.0;-0.0019498311;35.795895
  2.0000000E-02;  9.9999998E-03;  3.4000000E-01;467;0.0;0.0;0.0;1000.0645;  4.0000001E-01;53.43058;0;0.0;0.0;0.0;0;-0.031284824;  1.0000000E+04;  0.0000000E+00;  0.0000000E+00;  1.0000000E+04;  0.0000000E+00;  1.0000000E+04;-0.021023549;0.0;-0.010261273;189.15175
  2.0000000E-02;  9.9999998E-03;  3.6000001E-01;468;0.0;0.0;0.0;1000.0413;  4.0000001E-01;34.171867;0;0.0;0.0;0.0;0;-0.020043405;  1.0000000E+04;  0.0000000E+00;  0.0000000E+00;  1.0000000E+04;  0.0000000E+00;  1.0000000E+04;-0.011521337;0.0;-0.0085220682;158.50734
  2.0000000E-02;  9.9999998E-03;  3.8000000E-01;469;0.0;0.0;0.0;1000.0233;  4.0000001E-01;19.258711;0;0.0;0.0;0.0;0;-0.011310047;  1.0000000E+04;  0.0000000E+00;  0.0000000E+00;  1.0000000E+04;  0.0000000E+00;  1.0000000E+04;-0.0056257774;0.0;-0.0056842701;106.07072
  2.0000000E-02;  9.9999998E-03;  4.0000001E-01;470;0.0;0.0;0.0;1000.0103;  4.0000001E-01;8.5923481;0;0.0;0.0;0.0;0;-0.0050837453;  1.0000000E+04;  0.0000000E+00;  0.0000000E+00;  1.0000000E+04;  0.0000000E+00;  1.0000000E+04;-0.0023503632;0.0;-0.0027333822;50.940506
  3.9999999E-02;  9.9999998E-03;  3.4000000E-01;477;0.0;0.0;0.0;1000.077;  4.0000001E-01;63.800655;0;0.0;0.0;0.0;0;-0.036683731;  1.0000000E+04;  0.0000000E+00;  0.0000000E+00;  1.0000000E+04;  0.0000000E+00;  1.0000000E+04;-0.024286749;0.0;-0.012396984;233.10176
  3.9999999E-02;  9.9999998E-03;  3.6000001E-01;478;0.0;0.0;0.0;1000.0498;  4.0000001E-01;41.282776;0;0.0;0.0;0.0;0;-0.023754342;  1.0000000E+04;  0.0000000E+00;  0.0000000E+00;  1.0000000E+04;  0.0000000E+00;  1.0000000E+04;-0.013355331;0.0;-0.01039901;197.26295
  3.9999999E-02;  9.9999998E-03;  3.8000000E-01;479;0.0;0.0;0.0;1000.0283;  4.0000001E-01;23.406742;0;0.0;0.0;0.0;0;-0.013546439;  1.0000000E+04;  0.0000000E+00;  0.0000000E+00;  1.0000000E+04;  0.0000000E+00;  1.0000000E+04;-0.0065282704;0.0;-0.0070181685;133.53447
  3.9999999E-02;  9.9999998E-03;  4.0000001E-01;480;0.0;0.0;0.0;1000.0128;  4.0000001E-01;10.666364;0;0.0;0.0;0.0;0;-0.0061503379;  1.0000000E+04;  0.0000000E+00;  0.0000000E+00;  1.0000000E+04;  0.0000000E+00;  1.0000000E+04;-0.0027206952;0.0;-0.0034296426;65.154968
  5.9999999E-02;  9.9999998E-03;  3.4000000E-01;487;0.0;0.0;0.0;1000.0886;  4.0000001E-01;73.38063;0;0.0;0.0;0.0;0;-0.041306905;  1.0000000E+04;  0.0000000E+00;  0.0000000E+00;  1.0000000E+04;  0.0000000E+00;  1.0000000E+04;-0.027421702;0.0;-0.013885204;267.68021
  5.9999999E-02;  9.9999998E-03;  3.6000001E-01;488;0.0;0.0;0.0;1000.0575;  4.0000001E-01;47.603584;0;0.0;0.0;0.0;0;-0.026886508;  1.0000000E+04;  0.0000000E+00;  0.0000000E+00;  1.0000000E+04;  0.0000000E+00;  1.0000000E+04;-0.015111643;0.0;-0.011774865;228.9736
  5.9999999E-02;  9.9999998E-03;  3.8000000E-01;489;0.0;0.0;0.0;1000.0329;  4.0000001E-01;27.258484;0;0.0;0.0;0.0;0;-0.015406415;  1.0000000E+04;  0.0000000E+00;  0.0000000E+00;  1.0000000E+04;  0.0000000E+00;  1.0000000E+04;-0.0073805996;0.0;-0.0080258148;156.48323
  5.9999999E-02;  9.9999998E-03;  4.0000001E-01;490;0.0;0.0;0.0;1000.015;  4.0000001E-01;12.444091;0;0.0;0.0;0.0;0;-0.0070168553;  1.0000000E+04;  0.0000000E+00;  0.0000000E+00;  1.0000000E+04;  0.0000000E+00;  1.0000000E+04;-0.0030558943;0.0;-0.003960961;77.077751
  7.9999998E-02;  9.9999998E-03;  3.4000000E-01;497;0.0;0.0;0.0;1000.1015;  4.0000001E-01;84.046989;0;0.0;0.0;0.0;0;-0.046083435;  1.0000000E+04;  0.0000000E+00;  0.0000000E+00;  1.0000000E+04;  0.0000000E+00;  1.0000000E+04;-0.031304844;0.0;-0.014778594;294.77444
  7.9999998E-02;  9.9999998E-03;  3.6000001E-01;498;0.0;0.0;0.0;1000.0661;  4.0000001E-01;54.714493;0;0.0;0.0;0.0;0;-0.03000862;  1.0000000E+04;  0.0000000E+00;  0.0000000E+00;  1.0000000E+04;  0.0000000E+00;  1.0000000E+04;-0.017344125;0.0;-0.012664495;254.45219
  7.9999998E-02;  9.9999998E-03;  3.8000000E-01;499;0.0;0.0;0.0;1000.0377;  4.0000001E-01;31.20899;0;0.0;0.0;0.0;0;-0.017192684;  1.0000000E+04;  0.0000000E+00;  0.0000000E+00;  1.0000000E+04;  0.0000000E+00;  1.0000000E+04;-0.0084874742;0.0;-0.0087052099;174.89589
  7.9999998E-02;  9.9999998E-03;  4.0000001E-01;500;0.0;0.0;0.0;1000.017;  4.0000001E-01;14.123055;0;0.0;0.0;0.0;0;-0.0078283455;  1.0000000E+04;  0.0000000E+00;  0.0000000E+00;  1.0000000E+04;  0.0000000E+00;  1.0000000E+04;-0.0035014285;0.0;-0.0043269168;86.755547
  1.0000000E-01;  9.9999998E-03;  3.4000000E-01;507;0.0;0.0;0.0;1000.1189;  4.0000001E-01;98.466339;0;0.0;0.0;0.0;0;-0.052502416;  1.0000000E+04;  0.0000000E+00;  0.0000000E+00;  1.0000000E+04;  0.0000000E+00;  1.0000000E+04;-0.037138149;0.0;-0.015364265;340.8468
  1.0000000E-01;  9.9999998E-03;  3.6000001E-01;508;0.0;0.0;0.0;1000.0772;  4.0000001E-01;63.99818;0;0.0;0.0;0.0;0;-0.034110032;  1.0000000E+04;  0.0000000E+00;  0.0000000E+00;  1.0000000E+04;  0.0000000E+00;  1.0000000E+04;-0.020833174;0.0;-0.01327686;281.85834
  1.0000000E-01;  9.9999998E-03;  3.8000000E-01;509;0.0;0.0;0.0;1000.0439;  4.0000001E-01;36.443409;0;0.0;0.0;0.0;0;-0.019470453;  1.0000000E+04;  0.0000000E+00;  0.0000000E+00;  1.0000000E+04;  0.0000000E+00;  1.0000000E+04;-0.010286966;0.0;-0.0091834869;191.21565
  1.0000000E-01;  9.9999998E-03;  4.0000001E-01;510;0.0;0.0;0.0;1000.0201;  4.0000001E-01;16.592121;0;0.0;0.0;0.0;0;-0.0088580158;  1.0000000E+04;  0.0000000E+00;  0.0000000E+00;  1.0000000E+04;  0.0000000E+00;  1.0000000E+04;-0.0042646718;0.0;-0.0045933435;101.00106
  1.2000000E-01;  9.9999998E-03;  3.4000000E-01;517;0.0;0.0;0.0;1000.1455;  4.0000001E-01;120.58916;0;0.0;0.0;0.0;0;-0.0624246;  1.0000000E+04;  0.0000000E+00;  0.0000000E+00;  1.0000000E+04;  0.0000000E+00;  1.0000000E+04;-0.046275992;0.0;-0.01614861;548.54773
  1.2000000E-01;  9.9999998E-03;  3.6000001E-01;518;0.0;0.0;0.0;1000.0943;  4.0000001E-01;78.121239;0;0.0;0.0;0.0;0;-0.040511485;  1.0000000E+04;  0.0000000E+00;  0.0000000E+00;  1.0000000E+04;  0.0000000E+00;  1.0000000E+04;-0.026495744;0.0;-0.014015743;333.44992
  1.2000000E-01;  9.9999998E-03;  3.8000000E-01;519;0.0;0.0;0.0;1000.0536;  4.0000001E-01;44.44318;0;0.0;0.0;0.0;0;-0.023036487;  1.0000000E+04;  0.0000000E+00;  0.0000000E+00;  1.0000000E+04;  0.0000000E+00;  1.0000000E+04;-0.013316508;0.0;-0.0097199799;233.14624
  1.2000000E-01;  9.9999998E-03;  4.0000001E-01;520;0.0;0.0;0.0;1000.0245;  4.0000001E-01;20.246338;0;0.0;0.0;0.0;0;-0.010496852;  1.0000000E+04;  0.0000000E+00;  0.0000000E+00;  1.0000000E+04;  0.0000000E+00;  1.0000000E+04;-0.0056140688;0.0;-0.0048827832;189.35971
  1.4000000E-01;  9.9999998E-03;  3.4000000E-01;527;0.0;0.0;0.0;1000.1868;  4.0000001E-01;154.76103;0;0.0;0.0;0.0;0;-0.078001082;  1.0000000E+04;  0.0000000E+00;  0.0000000E+00;  1.0000000E+04;  0.0000000E+00;  1.0000000E+04;-0.060101546;0.0;-0.017899539;1202.1611
  1.4000000E-01;  9.9999998E-03;  3.6000001E-01;528;0.0;0.0;0.0;1000.122;  4.0000001E-01;101.03416;0;0.0;0.0;0.0;0;-0.050867725;  1.0000000E+04;  0.0000000E+00;  0.0000000E+00;  1.0000000E+04;  0.0000000E+00;  1.0000000E+04;-0.035333201;0.0;-0.015534524;442.02313
  1.4000000E-01;  9.9999998E-03;  3.8000000E-01;529;0.0;0.0;0.0;1000.0695;  4.0000001E-01;57.578609;0;0.0;0.0;0.0;0;-0.029002279;  1.0000000E+04;  0.0000000E+00;  0.0000000E+00;  1.0000000E+04;  0.0000000E+00;  1.0000000E+04;-0.018218635;0.0;-0.010783643;478.75394
  1.4000000E-01;  9.9999998E-03;  4.0000001E-01;530;0.0;0.0;0.0;1000.0318;  4.0000001E-01;26.369621;0;0.0;0.0;0.0;0;-0.013356725;  1.0000000E+04;  0.0000000E+00;  0.0000000E+00;  1.0000000E+04;  0.0000000E+00;  1.0000000E+04;-0.0079093082;0.0;-0.005447417;551.7666
  1.6000000E-01;  9.9999998E-03;  3.4000000E-01;537;0.0;0.0;0.0;1000.2482;  4.0000001E-01;205.62378;0;0.0;0.0;0.0;0;-0.10100259;  1.0000000E+04;  0.0000000E+00;  0.0000000E+00;  1.0000000E+04;  0.0000000E+00;  1.0000000E+04;-0.079239383;0.0;-0.021763207;2581.5322
  1.6000000E-01;  9.9999998E-03;  3.6000001E-01;538;0.0;0.0;0.0;1000.1642;  4.0000001E-01;135.99614;0;0.0;0.0;0.0;0;-0.066687301;  1.0000000E+04;  0.0000000E+00;  0.0000000E+00;  1.0000000E+04;  0.0000000E+00;  1.0000000E+04;-0.047843643;0.0;-0.018843662;604.46649
  1.6000000E-01;  9.9999998E-03;  3.8000000E-01;539;0.0;0.0;0.0;1000.0951;  4.0000001E-01;78.812576;0;0.0;0.0;0.0;0;-0.038641803;  1.0000000E+04;  0.0000000E+00;  0.0000000E+00;  1.0000000E+04;  0.0000000E+00;  1.0000000E+04;-0.025445808;0.0;-0.013195997;1270.2432
  1.6000000E-01;  9.9999998E-03;  4.0000001E-01;540;0.0;0.0;0.0;1000.045;  4.0000001E-01;37.332272;0;0.0;0.0;0.0;0;-0.018386602;  1.0000000E+04;  0.0000000E+00;  0.0000000E+00;  1.0000000E+04;  0.0000000E+00;  1.0000000E+04;-0.011546903;0.0;-0.0068396982;1536.0405
  1.8000001E-01;  9.9999998E-03;  3.4000000E-01;547;0.0;0.0;0.0;1000.3306;  4.0000001E-01;273.86874;0;0.0;0.0;0.0;0;-0.13105951;  1.0000000E+04;  0.0000000E+00;  0.0000000E+00;  1.0000000E+04;  0.0000000E+00;  1.0000000E+04;-0.10161063;0.0;-0.029448887;4754.3252
  1.8000001E-01;  9.9999998E-03;  3.6000001E-01;548;0.0;0.0;0.0;1000.2219;  4.0000001E-01;183.89601;0;0.0;0.0;0.0;0;-0.087943077;  1.0000000E+04;  0.0000000E+00;  0.0000000E+00;  1.0000000E+04;  0.0000000E+00;  1.0000000E+04;-0.062478907;0.0;-0.025464172;732.48962
  1.8000001E-01;  9.9999998E-03;  3.8000000E-01;549;0.0;0.0;0.0;1000.1329;  4.0000001E-01;110.12032;0;0.0;0.0;0.0;0;-0.052646704;  1.0000000E+04;  0.0000000E+00;  0.0000000E+00;  1.0000000E+04;  0.0000000E+00;  1.0000000E+04;-0.034299355;0.0;-0.018347351;2961.6768
  1.8000001E-01;  9.9999998E-03;  4.0000001E-01;550;0.0;0.0;0.0;1000.0674;  4.0000001E-01;55.800884;0;0.0;0.0;0.0;0;-0.026804481;  1.0000000E+04;  0.0000000E+00;  0.0000000E+00;  1.0000000E+04;  0.0000000E+00;  1.0000000E+04;-0.016578648;0.0;-0.010225832;3682.2698
  2.0000000E-01;  9.9999998E-03;  3.4000000E-01;556;0.0;0.0;0.0;1000.4279;  4.0000001E-01;354.55783;0;0.0;0.0;0.0;0;-0.16556156;  1.0000000E+04;  0.0000000E+00;  0.0000000E+00;  1.0000000E+04;  0.0000000E+00;  1.0000000E+04;-0.12231506;0.0;-0.043246485;7129.2163
  2.0000000E-01;  9.9999998E-03;  3.6000001E-01;557;0.0;0.0;0.0;1000.293;  4.0000001E-01;242.75853;0;0.0;0.0;0.0;0;-0.11330155;  1.0000000E+04;  0.0000000E+00;  0.0000000E+00;  1.0000000E+04;  0.0000000E+00;  1.0000000E+04;-0.075825319;0.0;-0.037476223;908.53082
  2.0000000E-01;  9.9999998E-03;  3.8000000E-01;558;0.0;0.0;0.0;1000.1843;  4.0000001E-01;152.68701;0;0.0;0.0;0.0;0;-0.07115826;  1.0000000E+04;  0.0000000E+00;  0.0000000E+00;  1.0000000E+04;  0.0000000E+00;  1.0000000E+04;-0.042806666;0.0;-0.02835159;5590.8716
  1.9200000E+00;  9.9999998E-03; -3.6000001E-01;559;0.0;0.0;0.0;1000.0;  4.0000001E-01;0.0;0;0.0;0.0;0.0;0;0.0;  1.0000000E+04;  0.0000000E+00;  0.0000000E+00;  1.0000000E+04;  0.0000000E+00;  1.0000000E+04;0.0;0.0;0.0;0.0
  1.9200000E+00;  9.9999998E-03; -3.4000000E-01;560;0.0;0.0;0.0;1000.0;  4.0000001E-01;0.0;0;0.0;0.0;0.0;0;0.0;  1.0000000E+04;  0.0000000E+00;  0.0000000E+00;  1.0000000E+04;  0.0000000E+00;  1.0000000E+04;0.0;0.0;0.0;0.0
  1.9200000E+00;  9.9999998E-03; -3.1999999E-01;561;0.0;0.0;0.0;1000.0;  4.0000001E-01;0.0;0;0.0;0.0;0.0;0;0.0;  1.0000000E+04;  0.0000000E+00;  0.0000000E+00;  1.0000000E+04;  0.0000000E+00;  1.0000000E+04;0.0;0.0;0.0;0.0
  1.9400001E+00;  9.9999998E-03; -3.8000000E-01;562;0.0;0.0;0.0;1000.0;  4.0000001E-01;0.0;0;0.0;0.0;0.0;0;0.0;  1.0000000E+04;  0.0000000E+00;  0.0000000E+00;  1.0000000E+04;  0.0000000E+00;  1.0000000E+04;0.0;0.0;0.0;0.0
  1.9400001E+00;  9.9999998E-03; -3.6000001E-01;563;0.0;0.0;0.0;1000.0;  4.0000001E-01;0.0;0;0.0;0.0;0.0;0;0.0;  1.0000000E+04;  0.0000000E+00;  0.0000000E+00;  1.0000000E+04;  0.0000000E+00;  1.0000000E+04;0.0;0.0;0.0;0.0
  1.9400001E+00;  9.9999998E-03; -3.4000000E-01;564;0.0;0.0;0.0;1000.0;  4.0000001E-01;0.0;0;0.0;0.0;0.0;0;0.0;  1.0000000E+04;  0.0000000E+00;  0.0000000E+00;  1.0000000E+04;  0.0000000E+00;  1.0000000E+04;0.0;0.0;0.0;0.0
  1.9400001E+00;  9.9999998E-03; -3.1999999E-01;565;0.0;0.0;0.0;1000.0;  4.0000001E-01;0.0;0;0.0;0.0;0.0;0;0.0;  1.0000000E+04;  0.0000000E+00;  0.0000000E+00;  1.0000000E+04;  0.0000000E+00;  1.0000000E+04;0.0;0.0;0.0;0.0
  1.9400001E+00;  9.9999998E-03; -3.0000001E-01;566;0.0;0.0;0.0;1000.0;  4.0000001E-01;0.0;0;0.0;0.0;0.0;0;0.0;  1.0000000E+04;  0.0000000E+00;  0.0000000E+00;  1.0000000E+04;  0.0000000E+00;  1.0000000E+04;0.0;0.0;0.0;0.0
  1.9400001E+00;  9.9999998E-03; -2.8000000E-01;567;0.0;0.0;0.0;1000.0;  4.0000001E-01;0.0;0;0.0;0.0;0.0;0;0.0;  1.0000000E+04;  0.0000000E+00;  0.0000000E+00;  1.0000000E+04;  0.0000000E+00;  1.0000000E+04;0.0;0.0;0.0;0.0
  1.9400001E+00;  9.9999998E-03; -2.5999999E-01;568;0.0;0.0;0.0;1000.0;  4.0000001E-01;0.0;0;0.0;0.0;0.0;0;0.0;  1.0000000E+04;  0.0000000E+00;  0.0000000E+00;  1.0000000E+04;  0.0000000E+00;  1.0000000E+04;0.0;0.0;0.0;0.0
  1.9400001E+00;  9.9999998E-03; -2.3999999E-01;569;0.0;0.0;0.0;1000.0;  4.0000001E-01;0.0;0;0.0;0.0;0.0;0;0.0;  1.0000000E+04;  0.0000000E+00;  0.0000000E+00;  1.0000000E+04;  0.0000000E+00;  1.0000000E+04;0.0;0.0;0.0;0.0
  1.9400001E+00;  9.9999998E-03; -2.2000000E-01;570;0.0;0.0;0.0;1000.0;  4.0000001E-01;0.0;0;0.0;0.0;0.0;0;0.0;  1.0000000E+04;  0.0000000E+00;  0.0000000E+00;  1.0000000E+04;  0.0000000E+00;  1.0000000E+04;0.0;0.0;0.0;0.0
  1.9600000E+00;  9.9999998E-03; -3.8000000E-01;571;0.0;0.0;0.0;1000.0;  4.0000001E-01;0.0;0;0.0;0.0;0.0;0;0.0;  1.0000000E+04;  0.0000000E+00;  0.0000000E+00;  1.0000000E+04;  0.0000000E+00;  1.0000000E+04;0.0;0.0;0.0;0.0
  1.9600000E+00;  9.9999998E-03; -3.6000001E-01;572;0.0;0.0;0.0;1000.0;  4.0000001E-01;0.0;0;0.0;0.0;0.0;0;0.0;  1.0000000E+04;  0.0000000E+00;  0.0000000E+00;  1.0000000E+04;  0.0000000E+00;  1.0000000E+04;0.0;0.0;0.0;0.0
  1.9600000E+00;  9.9999998E-03; -3.4000000E-01;573;0.0;0.0;0.0;1000.0;  4.0000001E-01;0.0;0;0.0;0.0;0.0;0;0.0;  1.0000000E+04;  0.0000000E+00;  0.0000000E+00;  1.0000000E+04;  0.0000000E+00;  1.0000000E+04;0.0;0.0;0.0;0.0
  1.9600000E+00;  9.9999998E-03; -3.1999999E-01;574;0.0;0.0;0.0;1000.0;  4.0000001E-01;0.0;0;0.0;0.0;0.0;0;0.0;  1.0000000E+04;  0.0000000E+00;  0.0000000E+00;  1.0000000E+04;  0.0000000E+00;  1.0000000E+04;0.0;0.0;0.0;0.0
  1.9600000E+00;  9.9999998E-03; -3.0000001E-01;575;0.0;0.0;0.0;1000.0;  4.0000001E-01;0.0;0;0.0;0.0;0.0;0;0.0;  1.0000000E+04;  0.0000000E+00;  0.0000000E+00;  1.0000000E+04;  0.0000000E+00;  1.0000000E+04;0.0;0.0;0.0;0.0
  1.9600000E+00;  9.9999998E-03; -2.8000000E-01;576;0.0;0.0;0.0;1000.0;  4.0000001E-01;0.0;0;0.0;0.0;0.0;0;0.0;  1.0000000E+04;  0.0000000E+00;  0.0000000E+00;  1.0000000E+04;  0.0000000E+00;  1.0000000E+04;0.0;0.0;0.0;0.0
  1.9600000E+00;  9.9999998E-03; -2.5999999E-01;577;0.0;0.0;0.0;1000.0;  4.0000001E-01;0.0;0;0.0;0.0;0.0;0;0.0;  1.0000000E+04;  0.0000000E+00;  0.0000000E+00;  1.0000000E+04;  0.0000000E+00;  1.0000000E+04;0.0;0.0;0.0;0.0
  1.9600000E+00;  9.9999998E-03; -2.3999999E-01;578;0.0;0.0;0.0;1000.0;  4.0000001E-01;0.0;0;0.0;0.0;0.0;0;0.0;  1.0000000E+04;  0.0000000E+00;  0.0000000E+00;  1.0000000E+04;  0.0000000E+00;  1.0000000E+04;0.0;0.0;0.0;0.0
  1.9600000E+00;  9.9999998E-03; -2.2000000E-01;579;0.0;0.0;0.0;1000.0;  4.0000001E-01;0.0;0;0.0;0.0;0.0;0;0.0;  1.0000000E+04;  0.0000000E+00;  0.0000000E+00;  1.0000000E+04;  0.0000000E+00;  1.0000000E+04;0.0;0.0;0.0;0.0
  1.9600000E+00;  9.9999998E-03; -2.0000000E-01;580;0.0;0.0;0.0;1000.0;  4.0000001E-01;0.0;0;0.0;0.0;0.0;0;0.0;  1.0000000E+04;  0.0000000E+00;  0.0000000E+00;  1.0000000E+04;  0.0000000E+00;  1.0000000E+04;0.0;0.0;0.0;0.0
  1.9600000E+00;  9.9999998E-03; -1.8000001E-01;581;0.0;0.0;0.0;1000.0;  4.0000001E-01;0.0;0;0.0;0.0;0.0;0;0.0;  1.0000000E+04;  0.0000000E+00;  0.0000000E+00;  1.0000000E+04;  0.0000000E+00;  1.0000000E+04;0.0;0.0;0.0;0.0
  1.9600000E+00;  9.9999998E-03; -1.6000000E-01;582;0.0;0.0;0.0;1000.0;  4.0000001E-01;0.0;0;0.0;0.0;0.0;0;0.0;  1.0000000E+04;  0.0000000E+00;  0.0000000E+00;  1.0000000E+04;  0.0000000E+00;  1.0000000E+04;0.0;0.0;0.0;0.0
  1.9600000E+00;  9.9999998E-03; -1.4000000E-01;583;0.0;0.0;0.0;1000.0;  4.0000001E-01;0.0;0;0.0;0.0;0.0;0;0.0;  1.0000000E+04;  0.0000000E+00;  0.0000000E+00;  1.0000000E+04;  0.0000000E+00;  1.0000000E+04;0.0;0.0;0.0;0.0
  1.9600000E+00;  9.9999998E-03; -1.2000000E-01;584;0.0;0.0;0.0;1000.0;  4.0000001E-01;0.0;0;0.0;0.0;0.0;0;0.0;  1.0000000E+04;  0.0000000E+00;  0.0000000E+00;  1.0000000E+04;  0.0000000E+00;  1.0000000E+04;0.0;0.0;0.0;0.0
  1.9800000E+00;  9.9999998E-03; -3.8000000E-01;585;0.0;0.0;0.0;1000.0;  4.0000001E-01;0.0;0;0.0;0.0;0.0;0;0.0;  1.0000000E+04;  0.0000000E+00;  0.0000000E+00;  1.0000000E+04;  0.0000000E+00;  1.0000000E+04;0.0;0.0;0.0;0.0
  1.9800000E+00;  9.9999998E-03; -3.6000001E-01;586;0.0;0.0;0.0;1000.0;  4.0000001E-01;0.0;0;0.0;0.0;0.0;0;0.0;  1.0000000E+04;  0.0000000E+00;  0.0000000E+00;  1.0000000E+04;  0.0000000E+00;  1.0000000E+04;0.0;0.0;0.0;0.0
  1.9800000E+00;  9.9999998E-03; -3.4000000E-01;587;0.0;0.0;0.0;1000.0;  4.0000001E-01;0.0;0;0.0;0.0;0.0;0;0.0;  1.0000000E+04;  0.0000000E+00;  0.0000000E+00;  1.0000000E+04;  0.0000000E+00;  1.0000000E+04;0.0;0.0;0.0;0.0
  1.9800000E+00;  9.9999998E-03; -3.1999999E-01;588;0.0;0.0;0.0;1000.0;  4.0000001E-01;0.0;0;0.0;0.0;0.0;0;0.0;  1.0000000E+04;  0.0000000E+00;  0.0000000E+00;  1.0000000E+04;  0.0000000E+00;  1.0000000E+04;0.0;0.0;0.0;0.0
  1.9800000E+00;  9.9999998E-03; -3.0000001E-01;589;0.0;0.0;0.0;1000.0;  4.0000001E-01;0.0;0;0.0;0.0;0.0;0;0.0;  1.0000000E+04;  0.0000000E+00;  0.0000000E+00;  1.0000000E+04;  0.0000000E+00;  1.0000000E+04;0.0;0.0;0.0;0.0
  1.9800000E+00;  9.9999998E-03; -2.8000000E-01;590;0.0;0.0;0.0;1000.0;  4.0000001E-01;0.0;0;0.0;0.0;0.0;0;0.0;  1.0000000E+04;  0.0000000E+00;  0.0000000E+00;  1.0000000E+04;  0.0000000E+00;  1.0000000E+04;0.0;0.0;0.0;0.0
  1.9800000E+00;  9.9999998E-03; -2.5999999E-01;591;0.0;0.0;0.0;1000.0;  4.0000001E-01;0.0;0;0.0;0.0;0.0;0;0.0;  1.0000000E+04;  0.0000000E+00;  0.0000000E+00;  1.0000000E+04;  0.0000000E+00;  1.0000000E+04;0.0;0.0;0.0;0.0
  1.9800000E+00;  9.9999998E-03; -2.3999999E-01;592;0.0;0.0;0.0;1000.0;  4.0000001E-01;0.0;0;0.0;0.0;0.0;0;0.0;  1.0000000E+04;  0.0000000E+00;  0.0000000E+00;  1.0000000E+04;  0.0000000E+00;  1.0000000E+04;0.0;0.0;0.0;0.0
  1.9800000E+00;  9.9999998E-03; -2.2000000E-01;593;0.0;0.0;0.0;1000.0;  4.0000001E-01;0.0;0;0.0;0.0;0.0;0;0.0;  1.0000000E+04;  0.0000000E+00;  0.0000000E+00;  1.0000000E+04;  0.0000000E+00;  1.0000000E+04;0.0;0.0;0.0;0.0
  1.9800000E+00;  9.9999998E-03; -2.0000000E-01;594;0.0;0.0;0.0;1000.0;  4.0000001E-01;0.0;0;0.0;0.0;0.0;0;0.0;  1.0000000E+04;  0.0000000E+00;  0.0000000E+00;  1.0000000E+04;  0.0000000E+00;  1.0000000E+04;0.0;0.0;0.0;0.0
  1.9800000E+00;  9.9999998E-03; -1.8000001E-01;595;0.0;0.0;0.0;1000.0;  4.0000001E-01;0.0;0;0.0;0.0;0.0;0;0.0;  1.0000000E+04;  0.0000000E+00;  0.0000000E+00;  1.0000000E+04;  0.0000000E+00;  1.0000000E+04;0.0;0.0;0.0;0.0
  1.9800000E+00;  9.9999998E-03; -1.6000000E-01;596;0.0;0.0;0.0;1000.0;  4.0000001E-01;0.0;0;0.0;0.0;0.0;0;0.0;  1.0000000E+04;  0.0000000E+00;  0.0000000E+00;  1.0000000E+04;  0.0000000E+00;  1.0000000E+04;0.0;0.0;0.0;0.0
  1.9800000E+00;  9.9999998E-03; -1.4000000E-01;597;0.0;0.0;0.0;1000.0;  4.0000001E-01;0.0;0;0.0;0.0;0.0;0;0.0;  1.0000000E+04;  0.0000000E+00;  0.0000000E+00;  1.0000000E+04;  0.0000000E+00;  1.0000000E+04;0.0;0.0;0.0;0.0
  1.9800000E+00;  9.9999998E-03; -1.2000000E-01;598;0.0;0.0;0.0;1000.0;  4.0000001E-01;0.0;0;0.0;0.0;0.0;0;0.0;  1.0000000E+04;  0.0000000E+00;  0.0000000E+00;  1.0000000E+04;  0.0000000E+00;  1.0000000E+04;0.0;0.0;0.0;0.0
  1.9800000E+00;  9.9999998E-03; -1.0000000E-01;599;0.0;0.0;0.0;1000.0;  4.0000001E-01;0.0;0;0.0;0.0;0.0;0;0.0;  1.0000000E+04;  0.0000000E+00;  0.0000000E+00;  1.0000000E+04;  0.0000000E+00;  1.0000000E+04;0.0;0.0;0.0;0.0
  1.9800000E+00;  9.9999998E-03; -7.9999998E-02;600;0.0;0.0;0.0;1000.0;  4.0000001E-01;0.0;0;0.0;0.0;0.0;0;0.0;  1.0000000E+04;  0.0000000E+00;  0.0000000E+00;  1.0000000E+04;  0.0000000E+00;  1.0000000E+04;0.0;0.0;0.0;0.0
  1.9800000E+00;  9.9999998E-03; -5.9999999E-02;601;0.0;0.0;0.0;1000.0;  4.0000001E-01;0.0;0;0.0;0.0;0.0;0;0.0;  1.0000000E+04;  0.0000000E+00;  0.0000000E+00;  1.0000000E+04;  0.0000000E+00;  1.0000000E+04;0.0;0.0;0.0;0.0
  1.9800000E+00;  9.9999998E-03; -3.9999999E-02;602;0.0;0.0;0.0;1000.0;  4.0000001E-01;0.0;0;0.0;0.0;0.0;0;0.0;  1.0000000E+04;  0.0000000E+00;  0.0000000E+00;  1.0000000E+04;  0.0000000E+00;  1.0000000E+04;0.0;0.0;0.0;0.0
  1.9800000E+00;  9.9999998E-03; -2.0000000E-02;603;0.0;0.0;0.0;1000.0;  4.0000001E-01;0.0;0;0.0;0.0;0.0;0;0.0;  1.0000000E+04;  0.0000000E+00;  0.0000000E+00;  1.0000000E+04;  0.0000000E+00;  1.0000000E+04;0.0;0.0;0.0;0.0
  2.0000000E+00;  9.9999998E-03; -3.8000000E-01;604;0.0;0.0;0.0;1000.0;  4.0000001E-01;0.0;0;0.0;0.0;0.0;0;0.0;  1.0000000E+04;  0.0000000E+00;  0.0000000E+00;  1.0000000E+04;  0.0000000E+00;  1.0000000E+04;0.0;0.0;0.0;0.0
  2.0000000E+00;  9.9999998E-03; -3.6000001E-01;605;0.0;0.0;0.0;1000.0;  4.0000001E-01;0.0;0;0.0;0.0;0.0;0;0.0;  1.0000000E+04;  0.0000000E+00;  0.0000000E+00;  1.0000000E+04;  0.0000000E+00;  1.0000000E+04;0.0;0.0;0.0;0.0
  2.0000000E+00;  9.9999998E-03; -3.4000000E-01;606;0.0;0.0;0.0;1000.0;  4.0000001E-01;0.0;0;0.0;0.0;0.0;0;0.0;  1.0000000E+04;  0.0000000E+00;  0.0000000E+00;  1.0000000E+04;  0.0000000E+00;  1.0000000E+04;0.0;0.0;0.0;0.0
  2.0000000E+00;  9.9999998E-03; -3.1999999E-01;607;0.0;0.0;0.0;1000.0;  4.0000001E-01;0.0;0;0.0;0.0;0.0;0;0.0;  1.0000000E+04;  0.0000000E+00;  0.0000000E+00;  1.0000000E+04;  0.0000000E+00;  1.0000000E+04;0.0;0.0;0.0;0.0
  2.0000000E+00;  9.9999998E-03; -3.0000001E-01;608;0.0;0.0;0.0;1000.0;  4.0000001E-01;0.0;0;0.0;0.0;0.0;0;0.0;  1.0000000E+04;  0.0000000E+00;  0.0000000E+00;  1.0000000E+04;  0.0000000E+00;  1.0000000E+04;0.0;0.0;0.0;0.0
  2.0000000E+00;  9.9999998E-03; -2.8000000E-01;609;0.0;0.0;0.0;1000.0;  4.0000001E-01;0.0;0;0.0;0.0;0.0;0;0.0;  1.0000000E+04;  0.0000000E+00;  0.0000000E+00;  1.0000000E+04;  0.0000000E+00;  1.0000000E+04;0.0;0.0;0.0;0.0
  2.0000000E+00;  9.9999998E-03; -2.5999999E-01;610;0.0;0.0;0.0;1000.0;  4.0000001E-01;0.0;0;0.0;0.0;0.0;0;0.0;  1.0000000E+04;  0.0000000E+00;  0.0000000E+00;  1.0000000E+04;  0.0000000E+00;  1.0000000E+04;0.0;0.0;0.0;0.0
  2.0000000E+00;  9.9999998E-03; -2.3999999E-01;611;0.0;0.0;0.0;1000.0;  4.0000001E-01;0.0;0;0.0;0.0;0.0;0;0.0;  1.0000000E+04;  0.0000000E+00;  0.0000000E+00;  1.0000000E+04;  0.0000000E+00;  1.0000000E+04;0.0;0.0;0.0;0.0
  2.0000000E+00;  9.9999998E-03; -2.2000000E-01;612;0.0;0.0;0.0;1000.0;  4.0000001E-01;0.0;0;0.0;0.0;0.0;0;0.0;  1.0000000E+04;  0.0000000E+00;  0.0000000E+00;  1.0000000E+04;  0.0000000E+00;  1.0000000E+04;0.0;0.0;0.0;0.0
  2.0000000E+00;  9.9999998E-03; -2.0000000E-01;613;0.0;0.0;0.0;1000.0;  4.0000001E-01;0.0;0;0.0;0.0;0.0;0;0.0;  1.0000000E+04;  0.0000000E+00;  0.0000000E+00;  1.0000000E+04;  0.0000000E+00;  1.0000000E+04;0.0;0.0;0.0;0.0
  2.0000000E+00;  9.9999998E-03; -1.8000001E-01;614;0.0;0.0;0.0;1000.0;  4.0000001E-01;0.0;0;0.0;0.0;0.0;0;0.0;  1.0000000E+04;  0.0000000E+00;  0.0000000E+00;  1.0000000E+04;  0.0000000E+00;  1.0000000E+04;0.0;0.0;0.0;0.0
  2.0000000E+00;  9.9999998E-03; -1.6000000E-01;615;0.0;0.0;0.0;1000.0;  4.0000001E-01;0.0;0;0.0;0.0;0.0;0;0.0;  1.0000000E+04;  0.0000000E+00;  0.0000000E+00;  1.0000000E+04;  0.0000000E+00;  1.0000000E+04;0.0;0.0;0.0;0.0
  2.0000000E+00;  9.9999998E-03; -1.4000000E-01;616;0.0;0.0;0.0;1000.0;  4.0000001E-01;0.0;0;0.0;0.0;0.0;0;0.0;  1.0000000E+04;  0.0000000E+00;  0.0000000E+00;  1.0000000E+04;  0.0000000E+00;  1.0000000E+04;0.0;0.0;0.0;0.0
  2.0000000E+00;  9.9999998E-03; -1.2000000E-01;617;0.0;0.0;0.0;1000.0;  4.0000001E-01;0.0;0;0.0;0.0;0.0;0;0.0;  1.0000000E+04;  0.0000000E+00;  0.0000000E+00;  1.0000000E+04;  0.0000000E+00;  1.0000000E+04;0.0;0.0;0.0;0.0
  2.0000000E+00;  9.9999998E-03; -1.0000000E-01;618;0.0;0.0;0.0;1000.0;  4.0000001E-01;0.0;0;0.0;0.0;0.0;0;0.0;  1.0000000E+04;  0.0000000E+00;  0.0000000E+00;  1.0000000E+04;  0.0000000E+00;  1.0000000E+04;0.0;0.0;0.0;0.0
  2.0000000E+00;  9.9999998E-03; -7.9999998E-02;619;0.0;0.0;0.0;1000.0;  4.0000001E-01;0.0;0;0.0;0.0;0.0;0;0.0;  1.0000000E+04;  0.0000000E+00;  0.0000000E+00;  1.0000000E+04;  0.0000000E+00;  1.0000000E+04;0.0;0.0;0.0;0.0
  2.0000000E+00;  9.9999998E-03; -5.9999999E-02;620;0.0;0.0;0.0;1000.0;  4.0000001E-01;0.0;0;0.0;0.0;0.0;0;0.0;  1.0000000E+04;  0.0000000E+00;  0.0000000E+00;  1.0000000E+04;  0.0000000E+00;  1.0000000E+04;0.0;0.0;0.0;0.0
  2.0000000E+00;  9.9999998E-03; -3.9999999E-02;621;0.0;0.0;0.0;1000.0;  4.0000001E-01;0.0;0;0.0;0.0;0.0;0;0.0;  1.0000000E+04;  0.0000000E+00;  0.0000000E+00;  1.0000000E+04;  0.0000000E+00;  1.0000000E+04;0.0;0.0;0.0;0.0
  2.0000000E+00;  9.9999998E-03; -2.0000000E-02;622;0.0;0.0;0.0;1000.0;  4.0000001E-01;0.0;0;0.0;0.0;0.0;0;0.0;  1.0000000E+04;  0.0000000E+00;  0.0000000E+00;  1.0000000E+04;  0.0000000E+00;  1.0000000E+04;0.0;0.0;0.0;0.0
  2.0000000E+00;  9.9999998E-03;  0.0000000E+00;623;0.0;0.0;0.0;1000.0;  4.0000001E-01;0.0;0;0.0;0.0;0.0;0;0.0;  1.0000000E+04;  0.0000000E+00;  0.0000000E+00;  1.0000000E+04;  0.0000000E+00;  1.0000000E+04;0.0;0.0;0.0;0.0
  2.0000000E+00;  9.9999998E-03;  2.0000000E-02;624;0.0;0.0;0.0;1000.0;  4.0000001E-01;0.0;0;0.0;0.0;0.0;0;0.0;  1.0000000E+04;  0.0000000E+00;  0.0000000E+00;  1.0000000E+04;  0.0000000E+00;  1.0000000E+04;0.0;0.0;0.0;0.0
  2.0000000E+00;  9.9999998E-03;  3.9999999E-02;625;0.0;0.0;0.0;1000.0;  4.0000001E-01;0.0;0;0.0;0.0;0.0;0;0.0;  1.0000000E+04;  0.0000000E+00;  0.0000000E+00;  1.0000000E+04;  0.0000000E+00;  1.0000000E+04;0.0;0.0;0.0;0.0
  2.0000000E+00;  9.9999998E-03;  5.9999999E-02;626;0.0;0.0;0.0;1000.0;  4.0000001E-01;0.0;0;0.0;0.0;0.0;0;0.0;  1.0000000E+04;  0.0000000E+00;  0.0000000E+00;  1.0000000E+04;  0.0000000E+00;  1.0000000E+04;0.0;0.0;0.0;0.0
  2.0000000E+00;  9.9999998E-03;  7.9999998E-02;627;0.0;0.0;0.0;1000.0;  4.0000001E-01;0.0;0;0.0;0.0;0.0;0;0.0;  1.0000000E+04;  0.0000000E+00;  0.0000000E+00;  1.0000000E+04;  0.0000000E+00;  1.0000000E+04;0.0;0.0;0.0;0.0
  2.0200000E+00;  9.9999998E-03; -4.0000001E-01;628;0.0;0.0;0.0;1000.0;  4.0000001E-01;0.0;0;0.0;0.0;0.0;0;0.0;  1.0000000E+04;  0.0000000E+00;  0.0000000E+00;  1.0000000E+04;  0.0000000E+00;  1.0000000E+04;0.0;0.0;0.0;0.0
  2.0200000E+00;  9.9999998E-03; -3.8000000E-01;629;0.0;0.0;0.0;1000.0;  4.0000001E-01;0.0;0;0.0;0.0;0.0;0;0.0;  1.0000000E+04;  0.0000000E+00;  0.0000000E+00;  1.0000000E+04;  0.0000000E+00;  1.0000000E+04;0.0;0.0;0.0;0.0
  2.0200000E+00;  9.9999998E-03; -3.6000001E-01;630;0.0;0.0;0.0;1000.0;  4.0000001E-01;0.0;0;0.0;0.0;0.0;0;0.0;  1.0000000E+04;  0.0000000E+00;  0.0000000E+00;  1.0000000E+04;  0.0000000E+00;  1.0000000E+04;0.0;0.0;0.0;0.0
  2.0200000E+00;  9.9999998E-03; -3.4000000E-01;631;0.0;0.0;0.0;1000.0;  4.0000001E-01;0.0;0;0.0;0.0;0.0;0;0.0;  1.0000000E+04;  0.0000000E+00;  0.0000000E+00;  1.0000000E+04;  0.0000000E+00;  1.0000000E+04;0.0;0.0;0.0;0.0
  2.0200000E+00;  9.9999998E-03; -3.1999999E-01;632;0.0;0.0;0.0;1000.0;  4.0000001E-01;0.0;0;0.0;0.0;0.0;0;0.0;  1.0000000E+04;  0.0000000E+00;  0.0000000E+00;  1.0000000E+04;  0.0000000E+00;  1.0000000E+04;0.0;0.0;0.0;0.0
  2.0200000E+00;  9.9999998E-03; -3.0000001E-01;633;0.0;0.0;0.0;1000.0;  4.0000001E-01;0.0;0;0.0;0.0;0.0;0;0.0;  1.0000000E+04;  0.0000000E+00;  0.0000000E+00;  1.0000000E+04;  0.0000000E+00;  1.0000000E+04;0.0;0.0;0.0;0.0
  2.0200000E+00;  9.9999998E-03; -2.8000000E-01;634;0.0;0.0;0.0;1000.0;  4.0000001E-01;0.0;0;0.0;0.0;0.0;0;0.0;  1.0000000E+04;  0.0000000E+00;  0.0000000E+00;  1.0000000E+04;  0.0000000E+00;  1.0000000E+04;0.0;0.0;0.0;0.0
  2.0200000E+00;  9.9999998E-03; -2.5999999E-01;635;0.0;0.0;0.0;1000.0;  4.0000001E-01;0.0;0;0.0;0.0;0.0;0;0.0;  1.0000000E+04;  0.0000000E+00;  0.0000000E+00;  1.0000000E+04;  0.0000000E+00;  1.0000000E+04;0.0;0.0;0.0;0.0
  2.0200000E+00;  9.9999998E-03; -2.3999999E-01;636;0.0;0.0;0.0;1000.0;  4.0000001E-01;0.0;0;0.0;0.0;0.0;0;0.0;  1.0000000E+04;  0.0000000E+00;  0.0000000E+00;  1.0000000E+04;  0.0000000E+00;  1.0000000E+04;0.0;0.0;0.0;0.0
  2.0200000E+00;  9.9999998E-03; -2.2000000E-01;637;0.0;0.0;0.0;1000.0;  4.0000001E-01;0.0;0;0.0;0.0;0.0;0;0.0;  1.0000000E+04;  0.0000000E+00;  0.0000000E+00;  1.0000000E+04;  0.0000000E+00;  1.0000000E+04;0.0;0.0;0.0;0.0
  2.0200000E+00;  9.9999998E-03; -2.0000000E-01;638;0.0;0.0;0.0;1000.0;  4.0000001E-01;0.0;0;0.0;0.0;0.0;0;0.0;  1.0000000E+04;  0.0000000E+00;  0.0000000E+00;  1.0000000E+04;  0.0000000E+00;  1.0000000E+04;0.0;0.0;0.0;0.0
  2.0200000E+00;  9.9999998E-03; -1.8000001E-01;639;0.0;0.0;0.0;1000.0;  4.0000001E-01;0.0;0;0.0;0.0;0.0;0;0.0;  1.0000000E+04;  0.0000000E+00;  0.0000000E+00;  1.0000000E+04;  0.0000000E+00;  1.0000000E+04;0.0;0.0;0.0;0.0
  2.0200000E+00;  9.9999998E-03; -1.6000000E-01;640;0.0;0.0;0.0;1000.0;  4.0000001E-01;0.0;0;0.0;0.0;0.0;0;0.0;  1.0000000E+04;  0.0000000E+00;  0.0000000E+00;  1.0000000E+04;  0.0000000E+00;  1.0000000E+04;0.0;0.0;0.0;0.0
  2.0200000E+00;  9.9999998E-03; -1.4000000E-01;641;0.0;0.0;0.0;1000.0;  4.0000001E-01;0.0;0;0.0;0.0;0.0;0;0.0;  1.0000000E+04;  0.0000000E+00;  0.0000000E+00;  1.0000000E+04;  0.0000000E+00;  1.0000000E+04;0.0;0.0;0.0;0.0
  2.0200000E+00;  9.9999998E-03; -1.2000000E-01;642;0.0;0.0;0.0;1000.0;  4.0000001E-01;0.0;0;0.0;0.0;0.0;0;0.0;  1.0000000E+04;  0.0000000E+00;  0.0000000E+00;  1.0000000E+04;  0.0000000E+00;  1.0000000E+04;0.0;0.0;0.0;0.0
  2.0200000E+00;  9.9999998E-03; -1.0000000E-01;643;0.0;0.0;0.0;1000.0;  4.0000001E-01;0.0;0;0.0;0.0;0.0;0;0.0;  1.0000000E+04;  0.0000000E+00;  0.0000000E+00;  1.0000000E+04;  0.0000000E+00;  1.0000000E+04;0.0;0.0;0.0;0.0
  2.0200000E+00;  9.9999998E-03; -7.9999998E-02;644;0.0;0.0;0.0;1000.0;  4.0000001E-01;0.0;0;0.0;0.0;0.0;0;0.0;  1.0000000E+04;  0.0000000E+00;  0.0000000E+00;  1.0000000E+04;  0.0000000E+00;  1.0000000E+04;0.0;0.0;0.0;0.0
  2.0200000E+00;  9.9999998E-03; -5.9999999E-02;645;0.0;0.0;0.0;1000.0;  4.0000001E-01;0.0;0;0.0;0.0;0.0;0;0.0;  1.0000000E+04;  0.0000000E+00;  0.0000000E+00;  1.0000000E+04;  0.0000000E+00;  1.0000000E+04;0.0;0.0;0.0;0.0
  2.0200000E+00;  9.9999998E-03; -3.9999999E-02;646;0.0;0.0;0.0;1000.0;  4.0000001E-01;0.0;0;0.0;0.0;0.0;0;0.0;  1.0000000E+04;  0.0000000E+00;  0.0000000E+00;  1.0000000E+04;  0.0000000E+00;  1.0000000E+04;0.0;0.0;0.0;0.0
  2.0200000E+00;  9.9999998E-03; -2.0000000E-02;647;0.0;0.0;0.0;1000.0;  4.0000001E-01;0.0;0;0.0;0.0;0.0;0;0.0;  1.0000000E+04;  0.0000000E+00;  0.0000000E+00;  1.0000000E+04;  0.0000000E+00;  1.0000000E+04;0.0;0.0;0.0;0.0
  2.0200000E+00;  9.9999998E-03;  0.0000000E+00;648;0.0;0.0;0.0;1000.0;  4.0000001E-01;0.0;0;0.0;0.0;0.0;0;0.0;  1.0000000E+04;  0.0000000E+00;  0.0000000E+00;  1.0000000E+04;  0.0000000E+00;  1.0000000E+04;0.0;0.0;0.0;0.0
  2.0200000E+00;  9.9999998E-03;  2.0000000E-02;649;0.0;0.0;0.0;1000.0;  4.0000001E-01;0.0;0;0.0;0.0;0.0;0;0.0;  1.0000000E+04;  0.0000000E+00;  0.0000000E+00;  1.0000000E+04;  0.0000000E+00;  1.0000000E+04;0.0;0.0;0.0;0.0
  2.0200000E+00;  9.9999998E-03;  3.9999999E-02;650;0.0;0.0;0.0;1000.0;  4.0000001E-01;0.0;0;0.0;0.0;0.0;0;0.0;  1.0000000E+04;  0.0000000E+00;  0.0000000E+00;  1.0000000E+04;  0.0000000E+00;  1.0000000E+04;0.0;0.0;0.0;0.0
  2.0200000E+00;  9.9999998E-03;  5.9999999E-02;651;0.0;0.0;0.0;1000.0;  4.0000001E-01;0.0;0;0.0;0.0;0.0;0;0.0;  1.0000000E+04;  0.0000000E+00;  0.0000000E+00;  1.0000000E+04;  0.0000000E+00;  1.0000000E+04;0.0;0.0;0.0;0.0
  2.0200000E+00;  9.9999998E-03;  7.9999998E-02;652;0.0;0.0;0.0;1000.0;  4.0000001E-01;0.0;0;0.0;0.0;0.0;0;0.0;  1.0000000E+04;  0.0000000E+00;  0.0000000E+00;  1.0000000E+04;  0.0000000E+00;  1.0000000E+04;0.0;0.0;0.0;0.0
  2.0200000E+00;  9.9999998E-03;  1.0000000E-01;653;0.0;0.0;0.0;1000.0;  4.0000001E-01;0.0;0;0.0;0.0;0.0;0;0.0;  1.0000000E+04;  0.0000000E+00;  0.0000000E+00;  1.0000000E+04;  0.0000000E+00;  1.0000000E+04;0.0;0.0;0.0;0.0
  2.0200000E+00;  9.9999998E-03;  1.2000000E-01;654;0.0;0.0;0.0;1000.0;  4.0000001E-01;0.0;0;0.0;0.0;0.0;0;0.0;  1.0000000E+04;  0.0000000E+00;  0.0000000E+00;  1.0000000E+04;  0.0000000E+00;  1.0000000E+04;0.0;0.0;0.0;0.0
  2.0200000E+00;  9.9999998E-03;  1.4000000E-01;655;0.0;0.0;0.0;1000.0;  4.0000001E-01;0.0;0;0.0;0.0;0.0;0;0.0;  1.0000000E+04;  0.0000000E+00;  0.0000000E+00;  1.0000000E+04;  0.0000000E+00;  1.0000000E+04;0.0;0.0;0.0;0.0
  2.0200000E+00;  9.9999998E-03;  1.6000000E-01;656;0.0;0.0;0.0;1000.0;  4.0000001E-01;0.0;0;0.0;0.0;0.0;0;0.0;  1.0000000E+04;  0.0000000E+00;  0.0000000E+00;  1.0000000E+04;  0.0000000E+00;  1.0000000E+04;0.0;0.0;0.0;0.0
  2.0200000E+00;  9.9999998E-03;  1.8000001E-01;657;0.0;0.0;0.0;1000.0;  4.0000001E-01;0.0;0;0.0;0.0;0.0;0;0.0;  1.0000000E+04;  0.0000000E+00;  0.0000000E+00;  1.0000000E+04;  0.0000000E+00;  1.0000000E+04;0.0;0.0;0.0;0.0
  2.0400000E+00;  9.9999998E-03; -4.0000001E-01;658;0.0;0.0;0.0;1000.0;  4.0000001E-01;0.0;0;0.0;0.0;0.0;0;0.0;  1.0000000E+04;  0.0000000E+00;  0.0000000E+00;  1.0000000E+04;  0.0000000E+00;  1.0000000E+04;0.0;0.0;0.0;0.0
  2.0400000E+00;  9.9999998E-03; -3.8000000E-01;659;0.0;0.0;0.0;1000.0;  4.0000001E-01;0.0;0;0.0;0.0;0.0;0;0.0;  1.0000000E+04;  0.0000000E+00;  0.0000000E+00;  1.0000000E+04;  0.0000000E+00;  1.0000000E+04;0.0;0.0;0.0;0.0
  2.0400000E+00;  9.9999998E-03; -3.6000001E-01;660;0.0;0.0;0.0;1000.0;  4.0000001E-01;0.0;0;0.0;0.0;0.0;0;0.0;  1.0000000E+04;  0.0000000E+00;  0.0000000E+00;  1.0000000E+04;  0.0000000E+00;  1.0000000E+04;0.0;0.0;0.0;0.0
  2.0400000E+00;  9.9999998E-03; -3.4000000E-01;661;0.0;0.0;0.0;1000.0;  4.0000001E-01;0.0;0;0.0;0.0;0.0;0;0.0;  1.0000000E+04;  0.0000000E+00;  0.0000000E+00;  1.0000000E+04;  0.0000000E+00;  1.0000000E+04;0.0;0.0;0.0;0.0
  2.0400000E+00;  9.9999998E-03; -3.1999999E-01;662;0.0;0.0;0.0;1000.0;  4.0000001E-01;0.0;0;0.0;0.0;0.0;0;0.0;  1.0000000E+04;  0.0000000E+00;  0.0000000E+00;  1.0000000E+04;  0.0000000E+00;  1.0000000E+04;0.0;0.0;0.0;0.0
  2.0400000E+00;  9.9999998E-03; -3.0000001E-01;663;0.0;0.0;0.0;1000.0;  4.0000001E-01;0.0;0;0.0;0.0;0.0;0;0.0;  1.0000000E+04;  0.0000000E+00;  0.0000000E+00;  1.0000000E+04;  0.0000000E+00;  1.0000000E+04;0.0;0.0;0.0;0.0
  2.0400000E+00;  9.9999998E-03; -2.8000000E-01;664;0.0;0.0;0.0;1000.0;  4.0000001E-01;0.0;0;0.0;0.0;0.0;0;0.0;  1.0000000E+04;  0.0000000E+00;  0.0000000E+00;  1.0000000E+04;  0.0000000E+00;  1.0000000E+04;0.0;0.0;0.0;0.0
  2.0400000E+00;  9.9999998E-03; -2.5999999E-01;665;0.0;0.0;0.0;1000.0;  4.0000001E-01;0.0;0;0.0;0.0;0.0;0;0.0;  1.0000000E+04;  0.0000000E+00;  0.0000000E+00;  1.0000000E+04;  0.0000000E+00;  1.0000000E+04;0.0;0.0;0.0;0.0
  2.0400000E+00;  9.9999998E-03; -2.3999999E-01;666;0.0;0.0;0.0;1000.0;  4.0000001E-01;0.0;0;0.0;0.0;0.0;0;0.0;  1.0000000E+04;  0.0000000E+00;  0.0000000E+00;  1.0000000E+04;  0.0000000E+00;  1.0000000E+04;0.0;0.0;0.0;0.0
  2.0400000E+00;  9.9999998E-03; -2.2000000E-01;667;0.0;0.0;0.0;1000.0;  4.0000001E-01;0.0;0;0.0;0.0;0.0;0;0.0;  1.0000000E+04;  0.0000000E+00;  0.0000000E+00;  1.0000000E+04;  0.0000000E+00;  1.0000000E+04;0.0;0.0;0.0;0.0
  2.0400000E+00;  9.9999998E-03; -2.0000000E-01;668;0.0;0.0;0.0;1000.0;  4.0000001E-01;0.0;0;0.0;0.0;0.0;0;0.0;  1.0000000E+04;  0.0000000E+00;  0.0000000E+00;  1.0000000E+04;  0.0000000E+00;  1.0000000E+04;0.0;0.0;0.0;0.0
  2.0400000E+00;  9.9999998E-03; -1.8000001E-01;669;0.0;0.0;0.0;1000.0;  4.0000001E-01;0.0;0;0.0;0.0;0.0;0;0.0;  1.0000000E+04;  0.0000000E+00;  0.0000000E+00;  1.0000000E+04;  0.0000000E+00;  1.0000000E+04;0.0;0.0;0.0;0.0
  2.0400000E+00;  9.9999998E-03; -1.6000000E-01;670;0.0;0.0;0.0;1000.0;  4.0000001E-01;0.0;0;0.0;0.0;0.0;0;0.0;  1.0000000E+04;  0.0000000E+00;  0.0000000E+00;  1.0000000E+04;  0.0000000E+00;  1.0000000E+04;0.0;0.0;0.0;0.0
  2.0400000E+00;  9.9999998E-03; -1.4000000E-01;671;0.0;0.0;0.0;1000.0;  4.0000001E-01;0.0;0;0.0;0.0;0.0;0;0.0;  1.0000000E+04;  0.0000000E+00;  0.0000000E+00;  1.0000000E+04;  0.0000000E+00;  1.0000000E+04;0.0;0.0;0.0;0.0
  2.0400000E+00;  9.9999998E-03; -1.2000000E-01;672;0.0;0.0;0.0;1000.0;  4.0000001E-01;0.0;0;0.0;0.0;0.0;0;0.0;  1.0000000E+04;  0.0000000E+00;  0.0000000E+00;  1.0000000E+04;  0.0000000E+00;  1.0000000E+04;0.0;0.0;0.0;0.0
  2.0400000E+00;  9.9999998E-03; -1.0000000E-01;673;0.0;0.0;0.0;1000.0;  4.0000001E-01;0.0;0;0.0;0.0;0.0;0;0.0;  1.0000000E+04;  0.0000000E+00;  0.0000000E+00;  1.0000000E+04;  0.0000000E+00;  1.0000000E+04;0.0;0.0;0.0;0.0
  2.0400000E+00;  9.9999998E-03; -7.9999998E-02;674;0.0;0.0;0.0;1000.0;  4.0000001E-01;0.0;0;0.0;0.0;0.0;0;0.0;  1.0000000E+04;  0.0000000E+00;  0.0000000E+00;  1.0000000E+04;  0.0000000E+00;  1.0000000E+04;0.0;0.0;0.0;0.0
  2.0400000E+00;  9.9999998E-03; -5.9999999E-02;675;0.0;0.0;0.0;1000.0;  4.0000001E-01;0.0;0;0.0;0.0;0.0;0;0.0;  1.0000000E+04;  0.0000000E+00;  0.0000000E+00;  1.0000000E+04;  0.0000000E+00;  1.0000000E+04;0.0;0.0;0.0;0.0
  2.0400000E+00;  9.9999998E-03; -3.9999999E-02;676;0.0;0.0;0.0;1000.0;  4.0000001E-01;0.0;0;0.0;0.0;0.0;0;0.0;  1.0000000E+04;  0.0000000E+00;  0.0000000E+00;  1.0000000E+04;  0.0000000E+00;  1.0000000E+04;0.0;0.0;0.0;0.0
  2.0400000E+00;  9.9999998E-03; -2.0000000E-02;677;0.0;0.0;0.0;1000.0;  4.0000001E-01;0.0;0;0.0;0.0;0.0;0;0.0;  1.0000000E+04;  0.0000000E+00;  0.0000000E+00;  1.0000000E+04;  0.0000000E+00;  1.0000000E+04;0.0;0.0;0.0;0.0
  2.0400000E+00;  9.9999998E-03;  0.0000000E+00;678;0.0;0.0;0.0;1000.0;  4.0000001E-01;0.0;0;0.0;0.0;0.0;0;0.0;  1.0000000E+04;  0.0000000E+00;  0.0000000E+00;  1.0000000E+04;  0.0000000E+00;  1.0000000E+04;0.0;0.0;0.0;0.0
  2.0400000E+00;  9.9999998E-03;  2.0000000E-02;679;0.0;0.0;0.0;1000.0;  4.0000001E-01;0.0;0;0.0;0.0;0.0;0;0.0;  1.0000000E+04;  0.0000000E+00;  0.0000000E+00;  1.0000000E+04;  0.0000000E+00;  1.0000000E+04;0.0;0.0;0.0;0.0
  2.0400000E+00;  9.9999998E-03;  3.9999999E-02;680;0.0;0.0;0.0;1000.0;  4.0000001E-01;0.0;0;0.0;0.0;0.0;0;0.0;  1.0000000E+04;  0.0000000E+00;  0.0000000E+00;  1.0000000E+04;  0.0000000E+00;  1.0000000E+04;0.0;0.0;0.0;0.0
  2.0400000E+00;  9.9999998E-03;  5.9999999E-02;681;0.0;0.0;0.0;1000.0;  4.0000001E-01;0.0;0;0.0;0.0;0.0;0;0.0;  1.0000000E+04;  0.0000000E+00;  0.0000000E+00;  1.0000000E+04;  0.0000000E+00;  1.0000000E+04;0.0;0.0;0.0;0.0
  2.0400000E+00;  9.9999998E-03;  7.9999998E-02;682;0.0;0.0;0.0;1000.0;  4.0000001E-01;0.0;0;0.0;0.0;0.0;0;0.0;  1.0000000E+04;  0.0000000E+00;  0.0000000E+00;  1.0000000E+04;  0.0000000E+00;  1.0000000E+04;0.0;0.0;0.0;0.0
  2.0400000E+00;  9.9999998E-03;  1.0000000E-01;683;0.0;0.0;0.0;1000.0;  4.0000001E-01;0.0;0;0.0;0.0;0.0;0;0.0;  1.0000000E+04;  0.0000000E+00;  0.0000000E+00;  1.0000000E+04;  0.0000000E+00;  1.0000000E+04;0.0;0.0;0.0;0.0
  2.0400000E+00;  9.9999998E-03;  1.2000000E-01;684;0.0;0.0;0.0;1000.0;  4.0000001E-01;0.0;0;0.0;0.0;0.0;0;0.0;  1.0000000E+04;  0.0000000E+00;  0.0000000E+00;  1.0000000E+04;  0.0000000E+00;  1.0000000E+04;0.0;0.0;0.0;0.0
  2.0400000E+00;  9.9999998E-03;  1.4000000E-01;685;0.0;0.0;0.0;1000.0;  4.0000001E-01;0.0;0;0.0;0.0;0.0;0;0.0;  1.0000000E+04;  0.0000000E+00;  0.0000000E+00;  1.0000000E+04;  0.0000000E+00;  1.0000000E+04;0.0;0.0;0.0;0.0
  2.0400000E+00;  9.9999998E-03;  1.6000000E-01;686;0.0;0.0;0.0;1000.0;  4.0000001E-01;0.0;0;0.0;0.0;0.0;0;0.0;  1.0000000E+04;  0.0000000E+00;  0.0000000E+00;  1.0000000E+04;  0.0000000E+00;  1.0000000E+04;0.0;0.0;0.0;0.0
  2.0400000E+00;  9.9999998E-03;  1.8000001E-01;687;0.0;0.0;0.0;1000.0;  4.0000001E-01;0.0;0;0.0;0.0;0.0;0;0.0;  1.0000000E+04;  0.0000000E+00;  0.0000000E+00;  1.0000000E+04;  0.0000000E+00;  1.0000000E+04;0.0;0.0;0.0;0.0
  2.0400000E+00;  9.9999998E-03;  2.0000000E-01;688;0.0;0.0;0.0;1000.0;  4.0000001E-01;0.0;0;0.0;0.0;0.0;0;0.0;  1.0000000E+04;  0.0000000E+00;  0.0000000E+00;  1.0000000E+04;  0.0000000E+00;  1.0000000E+04;0.0;0.0;0.0;0.0
  2.0400000E+00;  9.9999998E-03;  2.2000000E-01;689;0.0;0.0;0.0;1000.0;  4.0000001E-01;0.0;0;0.0;0.0;0.0;0;0.0;  1.0000000E+04;  0.0000000E+00;  0.0000000E+00;  1.0000000E+04;  0.0000000E+00;  1.0000000E+04;0.0;0.0;0.0;0.0
  2.0400000E+00;  9.9999998E-03;  2.3999999E-01;690;0.0;0.0;0.0;1000.0;  4.0000001E-01;0.0;0;0.0;0.0;0.0;0;0.0;  1.0000000E+04;  0.0000000E+00;  0.0000000E+00;  1.0000000E+04;  0.0000000E+00;  1.0000000E+04;0.0;0.0;0.0;0.0
  2.0400000E+00;  9.9999998E-03;  2.5999999E-01;691;0.0;0.0;0.0;1000.0;  4.0000001E-01;0.0;0;0.0;0.0;0.0;0;0.0;  1.0000000E+04;  0.0000000E+00;  0.0000000E+00;  1.0000000E+04;  0.0000000E+00;  1.0000000E+04;0.0;0.0;0.0;0.0
  2.0400000E+00;  9.9999998E-03;  2.8000000E-01;692;0.0;0.0;0.0;1000.0;  4.0000001E-01;0.0;0;0.0;0.0;0.0;0;0.0;  1.0000000E+04;  0.0000000E+00;  0.0000000E+00;  1.0000000E+04;  0.0000000E+00;  1.0000000E+04;0.0;0.0;0.0;0.0
  2.0599999E+00;  9.9999998E-03; -4.0000001E-01;693;0.0;0.0;0.0;1000.0;  4.0000001E-01;0.0;0;0.0;0.0;0.0;0;0.0;  1.0000000E+04;  0.0000000E+00;  0.0000000E+00;  1.0000000E+04;  0.0000000E+00;  1.0000000E+04;0.0;0.0;0.0;0.0
  2.0599999E+00;  9.9999998E-03; -3.8000000E-01;694;0.0;0.0;0.0;1000.0;  4.0000001E-01;0.0;0;0.0;0.0;0.0;0;0.0;  1.0000000E+04;  0.0000000E+00;  0.0000000E+00;  1.0000000E+04;  0.0000000E+00;  1.0000000E+04;0.0;0.0;0.0;0.0
  2.0599999E+00;  9.9999998E-03; -3.6000001E-01;695;0.0;0.0;0.0;1000.0;  4.0000001E-01;0.0;0;0.0;0.0;0.0;0;0.0;  1.0000000E+04;  0.0000000E+00;  0.0000000E+00;  1.0000000E+04;  0.0000000E+00;  1.0000000E+04;0.0;0.0;0.0;0.0
  2.0599999E+00;  9.9999998E-03; -3.4000000E-01;696;0.0;0.0;0.0;1000.0;  4.0000001E-01;0.0;0;0.0;0.0;0.0;0;0.0;  1.0000000E+04;  0.0000000E+00;  0.0000000E+00;  1.0000000E+04;  0.0000000E+00;  1.0000000E+04;0.0;0.0;0.0;0.0
  2.0599999E+00;  9.9999998E-03; -3.1999999E-01;697;0.0;0.0;0.0;1000.0;  4.0000001E-01;0.0;0;0.0;0.0;0.0;0;0.0;  1.0000000E+04;  0.0000000E+00;  0.0000000E+00;  1.0000000E+04;  0.0000000E+00;  1.0000000E+04;0.0;0.0;0.0;0.0
  2.0599999E+00;  9.9999998E-03; -3.0000001E-01;698;0.0;0.0;0.0;1000.0;  4.0000001E-01;0.0;0;0.0;0.0;0.0;0;0.0;  1.0000000E+04;  0.0000000E+00;  0.0000000E+00;  1.0000000E+04;  0.0000000E+00;  1.0000000E+04;0.0;0.0;0.0;0.0
  2.0599999E+00;  9.9999998E-03; -2.8000000E-01;699;0.0;0.0;0.0;1000.0;  4.0000001E-01;0.0;0;0.0;0.0;0.0;0;0.0;  1.0000000E+04;  0.0000000E+00;  0.0000000E+00;  1.0000000E+04;  0.0000000E+00;  1.0000000E+04;0.0;0.0;0.0;0.0
  2.0599999E+00;  9.9999998E-03; -2.5999999E-01;700;0.0;0.0;0.0;1000.0;  4.0000001E-01;0.0;0;0.0;0.0;0.0;0;0.0;  1.0000000E+04;  0.0000000E+00;  0.0000000E+00;  1.0000000E+04;  0.0000000E+00;  1.0000000E+04;0.0;0.0;0.0;0.0
  2.0599999E+00;  9.9999998E-03; -2.3999999E-01;701;0.0;0.0;0.0;1000.0;  4.0000001E-01;0.0;0;0.0;0.0;0.0;0;0.0;  1.0000000E+04;  0.0000000E+00;  0.0000000E+00;  1.0000000E+04;  0.0000000E+00;  1.0000000E+04;0.0;0.0;0.0;0.0
  2.0599999E+00;  9.9999998E-03; -2.2000000E-01;702;0.0;0.0;0.0;1000.0;  4.0000001E-01;0.0;0;0.0;0.0;0.0;0;0.0;  1.0000000E+04;  0.0000000E+00;  0.0000000E+00;  1.0000000E+04;  0.0000000E+00;  1.0000000E+04;0.0;0.0;0.0;0.0
  2.0599999E+00;  9.9999998E-03; -2.0000000E-01;703;0.0;0.0;0.0;1000.0;  4.0000001E-01;0.0;0;0.0;0.0;0.0;0;0.0;  1.0000000E+04;  0.0000000E+00;  0.0000000E+00;  1.0000000E+04;  0.0000000E+00;  1.0000000E+04;0.0;0.0;0.0;0.0
  2.0599999E+00;  9.9999998E-03; -1.8000001E-01;704;0.0;0.0;0.0;1000.0;  4.0000001E-01;0.0;0;0.0;0.0;0.0;0;0.0;  1.0000000E+04;  0.0000000E+00;  0.0000000E+00;  1.0000000E+04;  0.0000000E+00;  1.0000000E+04;0.0;0.0;0.0;0.0
  2.0599999E+00;  9.9999998E-03; -1.6000000E-01;705;0.0;0.0;0.0;1000.0;  4.0000001E-01;0.0;0;0.0;0.0;0.0;0;0.0;  1.0000000E+04;  0.0000000E+00;  0.0000000E+00;  1.0000000E+04;  0.0000000E+00;  1.0000000E+04;0.0;0.0;0.0;0.0
  2.0599999E+00;  9.9999998E-03; -1.4000000E-01;706;0.0;0.0;0.0;1000.0;  4.0000001E-01;0.0;0;0.0;0.0;0.0;0;0.0;  1.0000000E+04;  0.0000000E+00;  0.0000000E+00;  1.0000000E+04;  0.0000000E+00;  1.0000000E+04;0.0;0.0;0.0;0.0
  2.0599999E+00;  9.9999998E-03; -1.2000000E-01;707;0.0;0.0;0.0;1000.0;  4.0000001E-01;0.0;0;0.0;0.0;0.0;0;0.0;  1.0000000E+04;  0.0000000E+00;  0.0000000E+00;  1.0000000E+04;  0.0000000E+00;  1.0000000E+04;0.0;0.0;0.0;0.0
  2.0599999E+00;  9.9999998E-03; -1.0000000E-01;708;0.0;0.0;0.0;1000.0;  4.0000001E-01;0.0;0;0.0;0.0;0.0;0;0.0;  1.0000000E+04;  0.0000000E+00;  0.0000000E+00;  1.0000000E+04;  0.0000000E+00;  1.0000000E+04;0.0;0.0;0.0;0.0
  2.0599999E+00;  9.9999998E-03; -7.9999998E-02;709;0.0;0.0;0.0;1000.0;  4.0000001E-01;0.0;0;0.0;0.0;0.0;0;0.0;  1.0000000E+04;  0.0000000E+00;  0.0000000E+00;  1.0000000E+04;  0.0000000E+00;  1.0000000E+04;0.0;0.0;0.0;0.0
  2.0599999E+00;  9.9999998E-03; -5.9999999E-02;710;0.0;0.0;0.0;1000.0;  4.0000001E-01;0.0;0;0.0;0.0;0.0;0;0.0;  1.0000000E+04;  0.0000000E+00;  0.0000000E+00;  1.0000000E+04;  0.0000000E+00;  1.0000000E+04;0.0;0.0;0.0;0.0
  2.0599999E+00;  9.9999998E-03; -3.9999999E-02;711;0.0;0.0;0.0;1000.0;  4.0000001E-01;0.0;0;0.0;0.0;0.0;0;0.0;  1.0000000E+04;  0.0000000E+00;  0.0000000E+00;  1.0000000E+04;  0.0000000E+00;  1.0000000E+04;0.0;0.0;0.0;0.0
  2.0599999E+00;  9.9999998E-03; -2.0000000E-02;712;0.0;0.0;0.0;1000.0;  4.0000001E-01;0.0;0;0.0;0.0;0.0;0;0.0;  1.0000000E+04;  0.0000000E+00;  0.0000000E+00;  1.0000000E+04;  0.0000000E+00;  1.0000000E+04;0.0;0.0;0.0;0.0
  2.0599999E+00;  9.9999998E-03;  0.0000000E+00;713;0.0;0.0;0.0;1000.0;  4.0000001E-01;0.0;0;0.0;0.0;0.0;0;0.0;  1.0000000E+04;  0.0000000E+00;  0.0000000E+00;  1.0000000E+04;  0.0000000E+00;  1.0000000E+04;0.0;0.0;0.0;0.0
  2.0599999E+00;  9.9999998E-03;  2.0000000E-02;714;0.0;0.0;0.0;1000.0;  4.0000001E-01;0.0;0;0.0;0.0;0.0;0;0.0;  1.0000000E+04;  0.0000000E+00;  0.0000000E+00;  1.0000000E+04;  0.0000000E+00;  1.0000000E+04;0.0;0.0;0.0;0.0
  2.0599999E+00;  9.9999998E-03;  3.9999999E-02;715;0.0;0.0;0.0;1000.0;  4.0000001E-01;0.0;0;0.0;0.0;0.0;0;0.0;  1.0000000E+04;  0.0000000E+00;  0.0000000E+00;  1.0000000E+04;  0.0000000E+00;  1.0000000E+04;0.0;0.0;0.0;0.0
  2.0599999E+00;  9.9999998E-03;  5.9999999E-02;716;0.0;0.0;0.0;1000.0;  4.0000001E-01;0.0;0;0.0;0.0;0.0;0;0.0;  1.0000000E+04;  0.0000000E+00;  0.0000000E+00;  1.0000000E+04;  0.0000000E+00;  1.0000000E+04;0.0;0.0;0.0;0.0
  2.0599999E+00;  9.9999998E-03;  7.9999998E-02;717;0.0;0.0;0.0;1000.0;  4.0000001E-01;0.0;0;0.0;0.0;0.0;0;0.0;  1.0000000E+04;  0.0000000E+00;  0.0000000E+00;  1.0000000E+04;  0.0000000E+00;  1.0000000E+04;0.0;0.0;0.0;0.0
  2.0599999E+00;  9.9999998E-03;  1.0000000E-01;718;0.0;0.0;0.0;1000.0;  4.0000001E-01;0.0;0;0.0;0.0;0.0;0;0.0;  1.0000000E+04;  0.0000000E+00;  0.0000000E+00;  1.0000000E+04;  0.0000000E+00;  1.0000000E+04;0.0;0.0;0.0;0.0
  2.0599999E+00;  9.9999998E-03;  1.2000000E-01;719;0.0;0.0;0.0;1000.0;  4.0000001E-01;0.0;0;0.0;0.0;0.0;0;0.0;  1.0000000E+04;  0.0000000E+00;  0.0000000E+00;  1.0000000E+04;  0.0000000E+00;  1.0000000E+04;0.0;0.0;0.0;0.0
  2.0599999E+00;  9.9999998E-03;  1.4000000E-01;720;0.0;0.0;0.0;1000.0;  4.0000001E-01;0.0;0;0.0;0.0;0.0;0;0.0;  1.0000000E+04;  0.0000000E+00;  0.0000000E+00;  1.0000000E+04;  0.0000000E+00;  1.0000000E+04;0.0;0.0;0.0;0.0
  2.0599999E+00;  9.9999998E-03;  1.6000000E-01;721;0.0;0.0;0.0;1000.0;  4.0000001E-01;0.0;0;0.0;0.0;0.0;0;0.0;  1.0000000E+04;  0.0000000E+00;  0.0000000E+00;  1.0000000E+04;  0.0000000E+00;  1.0000000E+04;0.0;0.0;0.0;0.0
  2.0599999E+00;  9.9999998E-03;  1.8000001E-01;722;0.0;0.0;0.0;1000.0;  4.0000001E-01;0.0;0;0.0;0.0;0.0;0;0.0;  1.0000000E+04;  0.0000000E+00;  0.0000000E+00;  1.0000000E+04;  0.0000000E+00;  1.0000000E+04;0.0;0.0;0.0;0.0
  2.0599999E+00;  9.9999998E-03;  2.0000000E-01;723;0.0;0.0;0.0;1000.0;  4.0000001E-01;0.0;0;0.0;0.0;0.0;0;0.0;  1.0000000E+04;  0.0000000E+00;  0.0000000E+00;  1.0000000E+04;  0.0000000E+00;  1.0000000E+04;0.0;0.0;0.0;0.0
  2.0599999E+00;  9.9999998E-03;  2.2000000E-01;724;0.0;0.0;0.0;1000.0;  4.0000001E-01;0.0;0;0.0;0.0;0.0;0;0.0;  1.0000000E+04;  0.0000000E+00;  0.0000000E+00;  1.0000000E+04;  0.0000000E+00;  1.0000000E+04;0.0;0.0;0.0;0.0
  2.0599999E+00;  9.9999998E-03;  2.3999999E-01;725;0.0;0.0;0.0;1000.0;  4.0000001E-01;0.0;0;0.0;0.0;0.0;0;0.0;  1.0000000E+04;  0.0000000E+00;  0.0000000E+00;  1.0000000E+04;  0.0000000E+00;  1.0000000E+04;0.0;0.0;0.0;0.0
  2.0599999E+00;  9.9999998E-03;  2.5999999E-01;726;0.0;0.0;0.0;1000.0;  4.0000001E-01;0.0;0;0.0;0.0;0.0;0;0.0;  1.0000000E+04;  0.0000000E+00;  0.0000000E+00;  1.0000000E+04;  0.0000000E+00;  1.0000000E+04;0.0;0.0;0.0;0.0
  2.0599999E+00;  9.9999998E-03;  2.8000000E-01;727;0.0;0.0;0.0;1000.0;  4.0000001E-01;0.0;0;0.0;0.0;0.0;0;0.0;  1.0000000E+04;  0.0000000E+00;  0.0000000E+00;  1.0000000E+04;  0.0000000E+00;  1.0000000E+04;0.0;0.0;0.0;0.0
  2.0599999E+00;  9.9999998E-03;  3.0000001E-01;728;0.0;0.0;0.0;1000.0;  4.0000001E-01;0.0;0;0.0;0.0;0.0;0;0.0;  1.0000000E+04;  0.0000000E+00;  0.0000000E+00;  1.0000000E+04;  0.0000000E+00;  1.0000000E+04;0.0;0.0;0.0;0.0
  2.0599999E+00;  9.9999998E-03;  3.1999999E-01;729;0.0;0.0;0.0;1000.0;  4.0000001E-01;0.0;0;0.0;0.0;0.0;0;0.0;  1.0000000E+04;  0.0000000E+00;  0.0000000E+00;  1.0000000E+04;  0.0000000E+00;  1.0000000E+04;0.0;0.0;0.0;0.0
  2.0599999E+00;  9.9999998E-03;  3.4000000E-01;730;0.0;0.0;0.0;1000.0;  4.0000001E-01;0.0;0;0.0;0.0;0.0;0;0.0;  1.0000000E+04;  0.0000000E+00;  0.0000000E+00;  1.0000000E+04;  0.0000000E+00;  1.0000000E+04;0.0;0.0;0.0;0.0
  2.0599999E+00;  9.9999998E-03;  3.6000001E-01;731;0.0;0.0;0.0;1000.0;  4.0000001E-01;0.0;0;0.0;0.0;0.0;0;0.0;  1.0000000E+04;  0.0000000E+00;  0.0000000E+00;  1.0000000E+04;  0.0000000E+00;  1.0000000E+04;0.0;0.0;0.0;0.0
  2.0599999E+00;  9.9999998E-03;  3.8000000E-01;732;0.0;0.0;0.0;1000.0;  4.0000001E-01;0.0;0;0.0;0.0;0.0;0;0.0;  1.0000000E+04;  0.0000000E+00;  0.0000000E+00;  1.0000000E+04;  0.0000000E+00;  1.0000000E+04;0.0;0.0;0.0;0.0
  2.0799999E+00;  9.9999998E-03; -4.0000001E-01;733;0.0;0.0;0.0;1000.0;  4.0000001E-01;0.0;0;0.0;0.0;0.0;0;0.0;  1.0000000E+04;  0.0000000E+00;  0.0000000E+00;  1.0000000E+04;  0.0000000E+00;  1.0000000E+04;0.0;0.0;0.0;0.0
  2.0799999E+00;  9.9999998E-03; -3.8000000E-01;734;0.0;0.0;0.0;1000.0;  4.0000001E-01;0.0;0;0.0;0.0;0.0;0;0.0;  1.0000000E+04;  0.0000000E+00;  0.0000000E+00;  1.0000000E+04;  0.0000000E+00;  1.0000000E+04;0.0;0.0;0.0;0.0
  2.0799999E+00;  9.9999998E-03; -3.6000001E-01;735;0.0;0.0;0.0;1000.0;  4.0000001E-01;0.0;0;0.0;0.0;0.0;0;0.0;  1.0000000E+04;  0.0000000E+00;  0.0000000E+00;  1.0000000E+04;  0.0000000E+00;  1.0000000E+04;0.0;0.0;0.0;0.0
  2.0799999E+00;  9.9999998E-03; -3.4000000E-01;736;0.0;0.0;0.0;1000.0;  4.0000001E-01;0.0;0;0.0;0.0;0.0;0;0.0;  1.0000000E+04;  0.0000000E+00;  0.0000000E+00;  1.0000000E+04;  0.0000000E+00;  1.0000000E+04;0.0;0.0;0.0;0.0
  2.0799999E+00;  9.9999998E-03; -3.1999999E-01;737;0.0;0.0;0.0;1000.0;  4.0000001E-01;0.0;0;0.0;0.0;0.0;0;0.0;  1.0000000E+04;  0.0000000E+00;  0.0000000E+00;  1.0000000E+04;  0.0000000E+00;  1.0000000E+04;0.0;0.0;0.0;0.0
  2.0799999E+00;  9.9999998E-03; -3.0000001E-01;738;0.0;0.0;0.0;1000.0;  4.0000001E-01;0.0;0;0.0;0.0;0.0;0;0.0;  1.0000000E+04;  0.0000000E+00;  0.0000000E+00;  1.0000000E+04;  0.0000000E+00;  1.0000000E+04;0.0;0.0;0.0;0.0
  2.0799999E+00;  9.9999998E-03; -2.8000000E-01;739;0.0;0.0;0.0;1000.0;  4.0000001E-01;0.0;0;0.0;0.0;0.0;0;0.0;  1.0000000E+04;  0.0000000E+00;  0.0000000E+00;  1.0000000E+04;  0.0000000E+00;  1.0000000E+04;0.0;0.0;0.0;0.0
  2.0799999E+00;  9.9999998E-03; -2.5999999E-01;740;0.0;0.0;0.0;1000.0;  4.0000001E-01;0.0;0;0.0;0.0;0.0;0;0.0;  1.0000000E+04;  0.0000000E+00;  0.0000000E+00;  1.0000000E+04;  0.0000000E+00;  1.0000000E+04;0.0;0.0;0.0;0.0
  2.0799999E+00;  9.9999998E-03; -2.3999999E-01;741;0.0;0.0;0.0;1000.0;  4.0000001E-01;0.0;0;0.0;0.0;0.0;0;0.0;  1.0000000E+04;  0.0000000E+00;  0.0000000E+00;  1.0000000E+04;  0.0000000E+00;  1.0000000E+04;0.0;0.0;0.0;0.0
  2.0799999E+00;  9.9999998E-03; -2.2000000E-01;742;0.0;0.0;0.0;1000.0;  4.0000001E-01;0.0;0;0.0;0.0;0.0;0;0.0;  1.0000000E+04;  0.0000000E+00;  0.0000000E+00;  1.0000000E+04;  0.0000000E+00;  1.0000000E+04;0.0;0.0;0.0;0.0
  2.0799999E+00;  9.9999998E-03; -2.0000000E-01;743;0.0;0.0;0.0;1000.0;  4.0000001E-01;0.0;0;0.0;0.0;0.0;0;0.0;  1.0000000E+04;  0.0000000E+00;  0.0000000E+00;  1.0000000E+04;  0.0000000E+00;  1.0000000E+04;0.0;0.0;0.0;0.0
  2.0799999E+00;  9.9999998E-03; -1.8000001E-01;744;0.0;0.0;0.0;1000.0;  4.0000001E-01;0.0;0;0.0;0.0;0.0;0;0.0;  1.0000000E+04;  0.0000000E+00;  0.0000000E+00;  1.0000000E+04;  0.0000000E+00;  1.0000000E+04;0.0;0.0;0.0;0.0
  2.0799999E+00;  9.9999998E-03; -1.6000000E-01;745;0.0;0.0;0.0;1000.0;  4.0000001E-01;0.0;0;0.0;0.0;0.0;0;0.0;  1.0000000E+04;  0.0000000E+00;  0.0000000E+00;  1.0000000E+04;  0.0000000E+00;  1.0000000E+04;0.0;0.0;0.0;0.0
  2.0799999E+00;  9.9999998E-03; -1.4000000E-01;746;0.0;0.0;0.0;1000.0;  4.0000001E-01;0.0;0;0.0;0.0;0.0;0;0.0;  1.0000000E+04;  0.0000000E+00;  0.0000000E+00;  1.0000000E+04;  0.0000000E+00;  1.0000000E+04;0.0;0.0;0.0;0.0
  2.0799999E+00;  9.9999998E-03; -1.2000000E-01;747;0.0;0.0;0.0;1000.0;  4.0000001E-01;0.0;0;0.0;0.0;0.0;0;0.0;  1.0000000E+04;  0.0000000E+00;  0.0000000E+00;  1.0000000E+04;  0.0000000E+00;  1.0000000E+04;0.0;0.0;0.0;0.0
  2.0799999E+00;  9.9999998E-03; -1.0000000E-01;748;0.0;0.0;0.0;1000.0;  4.0000001E-01;0.0;0;0.0;0.0;0.0;0;0.0;  1.0000000E+04;  0.0000000E+00;  0.0000000E+00;  1.0000000E+04;  0.0000000E+00;  1.0000000E+04;0.0;0.0;0.0;0.0
  2.0799999E+00;  9.9999998E-03; -7.9999998E-02;749;0.0;0.0;0.0;1000.0;  4.0000001E-01;0.0;0;0.0;0.0;0.0;0;0.0;  1.0000000E+04;  0.0000000E+00;  0.0000000E+00;  1.0000000E+04;  0.0000000E+00;  1.0000000E+04;0.0;0.0;0.0;0.0
  2.0799999E+00;  9.9999998E-03; -5.9999999E-02;750;0.0;0.0;0.0;1000.0;  4.0000001E-01;0.0;0;0.0;0.0;0.0;0;0.0;  1.0000000E+04;  0.0000000E+00;  0.0000000E+00;  1.0000000E+04;  0.0000000E+00;  1.0000000E+04;0.0;0.0;0.0;0.0
  2.0799999E+00;  9.9999998E-03; -3.9999999E-02;751;0.0;0.0;0.0;1000.0;  4.0000001E-01;0.0;0;0.0;0.0;0.0;0;0.0;  1.0000000E+04;  0.0000000E+00;  0.0000000E+00;  1.0000000E+04;  0.0000000E+00;  1.0000000E+04;0.0;0.0;0.0;0.0
  2.0799999E+00;  9.9999998E-03; -2.0000000E-02;752;0.0;0.0;0.0;1000.0;  4.0000001E-01;0.0;0;0.0;0.0;0.0;0;0.0;  1.0000000E+04;  0.0000000E+00;  0.0000000E+00;  1.0000000E+04;  0.0000000E+00;  1.0000000E+04;0.0;0.0;0.0;0.0
  2.0799999E+00;  9.9999998E-03;  0.0000000E+00;753;0.0;0.0;0.0;1000.0;  4.0000001E-01;0.0;0;0.0;0.0;0.0;0;0.0;  1.0000000E+04;  0.0000000E+00;  0.0000000E+00;  1.0000000E+04;  0.0000000E+00;  1.0000000E+04;0.0;0.0;0.0;0.0
  2.0799999E+00;  9.9999998E-03;  2.0000000E-02;754;0.0;0.0;0.0;1000.0;  4.0000001E-01;0.0;0;0.0;0.0;0.0;0;0.0;  1.0000000E+04;  0.0000000E+00;  0.0000000E+00;  1.0000000E+04;  0.0000000E+00;  1.0000000E+04;0.0;0.0;0.0;0.0
  2.0799999E+00;  9.9999998E-03;  3.9999999E-02;755;0.0;0.0;0.0;1000.0;  4.0000001E-01;0.0;0;0.0;0.0;0.0;0;0.0;  1.0000000E+04;  0.0000000E+00;  0.0000000E+00;  1.0000000E+04;  0.0000000E+00;  1.0000000E+04;0.0;0.0;0.0;0.0
  2.0799999E+00;  9.9999998E-03;  5.9999999E-02;756;0.0;0.0;0.0;1000.0;  4.0000001E-01;0.0;0;0.0;0.0;0.0;0;0.0;  1.0000000E+04;  0.0000000E+00;  0.0000000E+00;  1.0000000E+04;  0.0000000E+00;  1.0000000E+04;0.0;0.0;0.0;0.0
  2.0799999E+00;  9.9999998E-03;  7.9999998E-02;757;0.0;0.0;0.0;1000.0;  4.0000001E-01;0.0;0;0.0;0.0;0.0;0;0.0;  1.0000000E+04;  0.0000000E+00;  0.0000000E+00;  1.0000000E+04;  0.0000000E+00;  1.0000000E+04;0.0;0.0;0.0;0.0
  2.0799999E+00;  9.9999998E-03;  1.0000000E-01;758;0.0;0.0;0.0;1000.0;  4.0000001E-01;0.0;0;0.0;0.0;0.0;0;0.0;  1.0000000E+04;  0.0000000E+00;  0.0000000E+00;  1.0000000E+04;  0.0000000E+00;  1.0000000E+04;0.0;0.0;0.0;0.0
  2.0799999E+00;  9.9999998E-03;  1.2000000E-01;759;0.0;0.0;0.0;1000.0;  4.0000001E-01;0.0;0;0.0;0.0;0.0;0;0.0;  1.0000000E+04;  0.0000000E+00;  0.0000000E+00;  1.0000000E+04;  0.0000000E+00;  1.0000000E+04;0.0;0.0;0.0;0.0
  2.0799999E+00;  9.9999998E-03;  1.4000000E-01;760;0.0;0.0;0.0;1000.0;  4.0000001E-01;0.0;0;0.0;0.0;0.0;0;0.0;  1.0000000E+04;  0.0000000E+00;  0.0000000E+00;  1.0000000E+04;  0.0000000E+00;  1.0000000E+04;0.0;0.0;0.0;0.0
  2.0799999E+00;  9.9999998E-03;  1.6000000E-01;761;0.0;0.0;0.0;1000.0;  4.0000001E-01;0.0;0;0.0;0.0;0.0;0;0.0;  1.0000000E+04;  0.0000000E+00;  0.0000000E+00;  1.0000000E+04;  0.0000000E+00;  1.0000000E+04;0.0;0.0;0.0;0.0
  2.0799999E+00;  9.9999998E-03;  1.8000001E-01;762;0.0;0.0;0.0;1000.0;  4.0000001E-01;0.0;0;0.0;0.0;0.0;0;0.0;  1.0000000E+04;  0.0000000E+00;  0.0000000E+00;  1.0000000E+04;  0.0000000E+00;  1.0000000E+04;0.0;0.0;0.0;0.0
  2.0799999E+00;  9.9999998E-03;  2.0000000E-01;763;0.0;0.0;0.0;1000.0;  4.0000001E-01;0.0;0;0.0;0.0;0.0;0;0.0;  1.0000000E+04;  0.0000000E+00;  0.0000000E+00;  1.0000000E+04;  0.0000000E+00;  1.0000000E+04;0.0;0.0;0.0;0.0
  2.0799999E+00;  9.9999998E-03;  2.2000000E-01;764;0.0;0.0;0.0;1000.0;  4.0000001E-01;0.0;0;0.0;0.0;0.0;0;0.0;  1.0000000E+04;  0.0000000E+00;  0.0000000E+00;  1.0000000E+04;  0.0000000E+00;  1.0000000E+04;0.0;0.0;0.0;0.0
  2.0799999E+00;  9.9999998E-03;  2.3999999E-01;765;0.0;0.0;0.0;1000.0;  4.0000001E-01;0.0;0;0.0;0.0;0.0;0;0.0;  1.0000000E+04;  0.0000000E+00;  0.0000000E+00;  1.0000000E+04;  0.0000000E+00;  1.0000000E+04;0.0;0.0;0.0;0.0
  2.0799999E+00;  9.9999998E-03;  2.5999999E-01;766;0.0;0.0;0.0;1000.0;  4.0000001E-01;0.0;0;0.0;0.0;0.0;0;0.0;  1.0000000E+04;  0.0000000E+00;  0.0000000E+00;  1.0000000E+04;  0.0000000E+00;  1.0000000E+04;0.0;0.0;0.0;0.0
  2.0799999E+00;  9.9999998E-03;  2.8000000E-01;767;0.0;0.0;0.0;1000.0;  4.0000001E-01;0.0;0;0.0;0.0;0.0;0;0.0;  1.0000000E+04;  0.0000000E+00;  0.0000000E+00;  1.0000000E+04;  0.0000000E+00;  1.0000000E+04;0.0;0.0;0.0;0.0
  2.0799999E+00;  9.9999998E-03;  3.0000001E-01;768;0.0;0.0;0.0;1000.0;  4.0000001E-01;0.0;0;0.0;0.0;0.0;0;0.0;  1.0000000E+04;  0.0000000E+00;  0.0000000E+00;  1.0000000E+04;  0.0000000E+00;  1.0000000E+04;0.0;0.0;0.0;0.0
  2.0799999E+00;  9.9999998E-03;  3.1999999E-01;769;0.0;0.0;0.0;1000.0;  4.0000001E-01;0.0;0;0.0;0.0;0.0;0;0.0;  1.0000000E+04;  0.0000000E+00;  0.0000000E+00;  1.0000000E+04;  0.0000000E+00;  1.0000000E+04;0.0;0.0;0.0;0.0
  2.0799999E+00;  9.9999998E-03;  3.4000000E-01;770;0.0;0.0;0.0;1000.0;  4.0000001E-01;0.0;0;0.0;0.0;0.0;0;0.0;  1.0000000E+04;  0.0000000E+00;  0.0000000E+00;  1.0000000E+04;  0.0000000E+00;  1.0000000E+04;0.0;0.0;0.0;0.0
  2.0799999E+00;  9.9999998E-03;  3.6000001E-01;771;0.0;0.0;0.0;1000.0;  4.0000001E-01;0.0;0;0.0;0.0;0.0;0;0.0;  1.0000000E+04;  0.0000000E+00;  0.0000000E+00;  1.0000000E+04;  0.0000000E+00;  1.0000000E+04;0.0;0.0;0.0;0.0
  2.0799999E+00;  9.9999998E-03;  3.8000000E-01;772;0.0;0.0;0.0;1000.0;  4.0000001E-01;0.0;0;0.0;0.0;0.0;0;0.0;  1.0000000E+04;  0.0000000E+00;  0.0000000E+00;  1.0000000E+04;  0.0000000E+00;  1.0000000E+04;0.0;0.0;0.0;0.0
  2.0799999E+00;  9.9999998E-03;  4.0000001E-01;773;0.0;0.0;0.0;1000.0;  4.0000001E-01;0.0;0;0.0;0.0;0.0;0;0.0;  1.0000000E+04;  0.0000000E+00;  0.0000000E+00;  1.0000000E+04;  0.0000000E+00;  1.0000000E+04;0.0;0.0;0.0;0.0
  2.0999999E+00;  9.9999998E-03; -4.0000001E-01;774;0.0;0.0;0.0;1000.0;  4.0000001E-01;0.0;0;0.0;0.0;0.0;0;0.0;  1.0000000E+04;  0.0000000E+00;  0.0000000E+00;  1.0000000E+04;  0.0000000E+00;  1.0000000E+04;0.0;0.0;0.0;0.0
  2.0999999E+00;  9.9999998E-03; -3.8000000E-01;775;0.0;0.0;0.0;1000.0;  4.0000001E-01;0.0;0;0.0;0.0;0.0;0;0.0;  1.0000000E+04;  0.0000000E+00;  0.0000000E+00;  1.0000000E+04;  0.0000000E+00;  1.0000000E+04;0.0;0.0;0.0;0.0
  2.0999999E+00;  9.9999998E-03; -3.6000001E-01;776;0.0;0.0;0.0;1000.0;  4.0000001E-01;0.0;0;0.0;0.0;0.0;0;0.0;  1.0000000E+04;  0.0000000E+00;  0.0000000E+00;  1.0000000E+04;  0.0000000E+00;  1.0000000E+04;0.0;0.0;0.0;0.0
  2.0999999E+00;  9.9999998E-03; -3.4000000E-01;777;0.0;0.0;0.0;1000.0;  4.0000001E-01;0.0;0;0.0;0.0;0.0;0;0.0;  1.0000000E+04;  0.0000000E+00;  0.0000000E+00;  1.0000000E+04;  0.0000000E+00;  1.0000000E+04;0.0;0.0;0.0;0.0
  2.0999999E+00;  9.9999998E-03; -3.1999999E-01;778;0.0;0.0;0.0;1000.0;  4.0000001E-01;0.0;0;0.0;0.0;0.0;0;0.0;  1.0000000E+04;  0.0000000E+00;  0.0000000E+00;  1.0000000E+04;  0.0000000E+00;  1.0000000E+04;0.0;0.0;0.0;0.0
  2.0999999E+00;  9.9999998E-03; -3.0000001E-01;779;0.0;0.0;0.0;1000.0;  4.0000001E-01;0.0;0;0.0;0.0;0.0;0;0.0;  1.0000000E+04;  0.0000000E+00;  0.0000000E+00;  1.0000000E+04;  0.0000000E+00;  1.0000000E+04;0.0;0.0;0.0;0.0
  2.0999999E+00;  9.9999998E-03; -2.8000000E-01;780;0.0;0.0;0.0;1000.0;  4.0000001E-01;0.0;0;0.0;0.0;0.0;0;0.0;  1.0000000E+04;  0.0000000E+00;  0.0000000E+00;  1.0000000E+04;  0.0000000E+00;  1.0000000E+04;0.0;0.0;0.0;0.0
  2.0999999E+00;  9.9999998E-03; -2.5999999E-01;781;0.0;0.0;0.0;1000.0;  4.0000001E-01;0.0;0;0.0;0.0;0.0;0;0.0;  1.0000000E+04;  0.0000000E+00;  0.0000000E+00;  1.0000000E+04;  0.0000000E+00;  1.0000000E+04;0.0;0.0;0.0;0.0
  2.0999999E+00;  9.9999998E-03; -2.3999999E-01;782;0.0;0.0;0.0;1000.0;  4.0000001E-01;0.0;0;0.0;0.0;0.0;0;0.0;  1.0000000E+04;  0.0000000E+00;  0.0000000E+00;  1.0000000E+04;  0.0000000E+00;  1.0000000E+04;0.0;0.0;0.0;0.0
  2.0999999E+00;  9.9999998E-03; -2.2000000E-01;783;0.0;0.0;0.0;1000.0;  4.0000001E-01;0.0;0;0.0;0.0;0.0;0;0.0;  1.0000000E+04;  0.0000000E+00;  0.0000000E+00;  1.0000000E+04;  0.0000000E+00;  1.0000000E+04;0.0;0.0;0.0;0.0
  2.0999999E+00;  9.9999998E-03; -2.0000000E-01;784;0.0;0.0;0.0;1000.0;  4.0000001E-01;0.0;0;0.0;0.0;0.0;0;0.0;  1.0000000E+04;  0.0000000E+00;  0.0000000E+00;  1.0000000E+04;  0.0000000E+00;  1.0000000E+04;0.0;0.0;0.0;0.0
  2.0999999E+00;  9.9999998E-03; -1.8000001E-01;785;0.0;0.0;0.0;1000.0;  4.0000001E-01;0.0;0;0.0;0.0;0.0;0;0.0;  1.0000000E+04;  0.0000000E+00;  0.0000000E+00;  1.0000000E+04;  0.0000000E+00;  1.0000000E+04;0.0;0.0;0.0;0.0
  2.0999999E+00;  9.9999998E-03; -1.6000000E-01;786;0.0;0.0;0.0;1000.0;  4.0000001E-01;0.0;0;0.0;0.0;0.0;0;0.0;  1.0000000E+04;  0.0000000E+00;  0.0000000E+00;  1.0000000E+04;  0.0000000E+00;  1.0000000E+04;0.0;0.0;0.0;0.0
  2.0999999E+00;  9.9999998E-03; -1.4000000E-01;787;0.0;0.0;0.0;1000.0;  4.0000001E-01;0.0;0;0.0;0.0;0.0;0;0.0;  1.0000000E+04;  0.0000000E+00;  0.0000000E+00;  1.0000000E+04;  0.0000000E+00;  1.0000000E+04;0.0;0.0;0.0;0.0
  2.0999999E+00;  9.9999998E-03; -1.2000000E-01;788;0.0;0.0;0.0;1000.0;  4.0000001E-01;0.0;0;0.0;0.0;0.0;0;0.0;  1.0000000E+04;  0.0000000E+00;  0.0000000E+00;  1.0000000E+04;  0.0000000E+00;  1.0000000E+04;0.0;0.0;0.0;0.0
  2.0999999E+00;  9.9999998E-03; -1.0000000E-01;789;0.0;0.0;0.0;1000.0;  4.0000001E-01;0.0;0;0.0;0.0;0.0;0;0.0;  1.0000000E+04;  0.0000000E+00;  0.0000000E+00;  1.0000000E+04;  0.0000000E+00;  1.0000000E+04;0.0;0.0;0.0;0.0
  2.0999999E+00;  9.9999998E-03; -7.9999998E-02;790;0.0;0.0;0.0;1000.0;  4.0000001E-01;0.0;0;0.0;0.0;0.0;0;0.0;  1.0000000E+04;  0.0000000E+00;  0.0000000E+00;  1.0000000E+04;  0.0000000E+00;  1.0000000E+04;0.0;0.0;0.0;0.0
  2.0999999E+00;  9.9999998E-03; -5.9999999E-02;791;0.0;0.0;0.0;1000.0;  4.0000001E-01;0.0;0;0.0;0.0;0.0;0;0.0;  1.0000000E+04;  0.0000000E+00;  0.0000000E+00;  1.0000000E+04;  0.0000000E+00;  1.0000000E+04;0.0;0.0;0.0;0.0
  2.0999999E+00;  9.9999998E-03; -3.9999999E-02;792;0.0;0.0;0.0;1000.0;  4.0000001E-01;0.0;0;0.0;0.0;0.0;0;0.0;  1.0000000E+04;  0.0000000E+00;  0.0000000E+00;  1.0000000E+04;  0.0000000E+00;  1.0000000E+04;0.0;0.0;0.0;0.0
  2.0999999E+00;  9.9999998E-03; -2.0000000E-02;793;0.0;0.0;0.0;1000.0;  4.0000001E-01;0.0;0;0.0;0.0;0.0;0;0.0;  1.0000000E+04;  0.0000000E+00;  0.0000000E+00;  1.0000000E+04;  0.0000000E+00;  1.0000000E+04;0.0;0.0;0.0;0.0
  2.0999999E+00;  9.9999998E-03;  0.0000000E+00;794;0.0;0.0;0.0;1000.0;  4.0000001E-01;0.0;0;0.0;0.0;0.0;0;0.0;  1.0000000E+04;  0.0000000E+00;  0.0000000E+00;  1.0000000E+04;  0.0000000E+00;  1.0000000E+04;0.0;0.0;0.0;0.0
  2.0999999E+00;  9.9999998E-03;  2.0000000E-02;795;0.0;0.0;0.0;1000.0;  4.0000001E-01;0.0;0;0.0;0.0;0.0;0;0.0;  1.0000000E+04;  0.0000000E+00;  0.0000000E+00;  1.0000000E+04;  0.0000000E+00;  1.0000000E+04;0.0;0.0;0.0;0.0
  2.0999999E+00;  9.9999998E-03;  3.9999999E-02;796;0.0;0.0;0.0;1000.0;  4.0000001E-01;0.0;0;0.0;0.0;0.0;0;0.0;  1.0000000E+04;  0.0000000E+00;  0.0000000E+00;  1.0000000E+04;  0.0000000E+00;  1.0000000E+04;0.0;0.0;0.0;0.0
  2.0999999E+00;  9.9999998E-03;  5.9999999E-02;797;0.0;0.0;0.0;1000.0;  4.0000001E-01;0.0;0;0.0;0.0;0.0;0;0.0;  1.0000000E+04;  0.0000000E+00;  0.0000000E+00;  1.0000000E+04;  0.0000000E+00;  1.0000000E+04;0.0;0.0;0.0;0.0
  2.0999999E+00;  9.9999998E-03;  7.9999998E-02;798;0.0;0.0;0.0;1000.0;  4.0000001E-01;0.0;0;0.0;0.0;0.0;0;0.0;  1.0000000E+04;  0.0000000E+00;  0.0000000E+00;  1.0000000E+04;  0.0000000E+00;  1.0000000E+04;0.0;0.0;0.0;0.0
  2.0999999E+00;  9.9999998E-03;  1.0000000E-01;799;0.0;0.0;0.0;1000.0;  4.0000001E-01;0.0;0;0.0;0.0;0.0;0;0.0;  1.0000000E+04;  0.0000000E+00;  0.0000000E+00;  1.0000000E+04;  0.0000000E+00;  1.0000000E+04;0.0;0.0;0.0;0.0
  2.0999999E+00;  9.9999998E-03;  1.2000000E-01;800;0.0;0.0;0.0;1000.0;  4.0000001E-01;0.0;0;0.0;0.0;0.0;0;0.0;  1.0000000E+04;  0.0000000E+00;  0.0000000E+00;  1.0000000E+04;  0.0000000E+00;  1.0000000E+04;0.0;0.0;0.0;0.0
  2.0999999E+00;  9.9999998E-03;  1.4000000E-01;801;0.0;0.0;0.0;1000.0;  4.0000001E-01;0.0;0;0.0;0.0;0.0;0;0.0;  1.0000000E+04;  0.0000000E+00;  0.0000000E+00;  1.0000000E+04;  0.0000000E+00;  1.0000000E+04;0.0;0.0;0.0;0.0
  2.0999999E+00;  9.9999998E-03;  1.6000000E-01;802;0.0;0.0;0.0;1000.0;  4.0000001E-01;0.0;0;0.0;0.0;0.0;0;0.0;  1.0000000E+04;  0.0000000E+00;  0.0000000E+00;  1.0000000E+04;  0.0000000E+00;  1.0000000E+04;0.0;0.0;0.0;0.0
  2.0999999E+00;  9.9999998E-03;  1.8000001E-01;803;0.0;0.0;0.0;1000.0;  4.0000001E-01;0.0;0;0.0;0.0;0.0;0;0.0;  1.0000000E+04;  0.0000000E+00;  0.0000000E+00;  1.0000000E+04;  0.0000000E+00;  1.0000000E+04;0.0;0.0;0.0;0.0
  2.0999999E+00;  9.9999998E-03;  2.0000000E-01;804;0.0;0.0;0.0;1000.0;  4.0000001E-01;0.0;0;0.0;0.0;0.0;0;0.0;  1.0000000E+04;  0.0000000E+00;  0.0000000E+00;  1.0000000E+04;  0.0000000E+00;  1.0000000E+04;0.0;0.0;0.0;0.0
  2.0999999E+00;  9.9999998E-03;  2.2000000E-01;805;0.0;0.0;0.0;1000.0;  4.0000001E-01;0.0;0;0.0;0.0;0.0;0;0.0;  1.0000000E+04;  0.0000000E+00;  0.0000000E+00;  1.0000000E+04;  0.0000000E+00;  1.0000000E+04;0.0;0.0;0.0;0.0
  2.0999999E+00;  9.9999998E-03;  2.3999999E-01;806;0.0;0.0;0.0;1000.0;  4.0000001E-01;0.0;0;0.0;0.0;0.0;0;0.0;  1.0000000E+04;  0.0000000E+00;  0.0000000E+00;  1.0000000E+04;  0.0000000E+00;  1.0000000E+04;0.0;0.0;0.0;0.0
  2.0999999E+00;  9.9999998E-03;  2.5999999E-01;807;0.0;0.0;0.0;1000.0;  4.0000001E-01;0.0;0;0.0;0.0;0.0;0;0.0;  1.0000000E+04;  0.0000000E+00;  0.0000000E+00;  1.0000000E+04;  0.0000000E+00;  1.0000000E+04;0.0;0.0;0.0;0.0
  2.0999999E+00;  9.9999998E-03;  2.8000000E-01;808;0.0;0.0;0.0;1000.0;  4.0000001E-01;0.0;0;0.0;0.0;0.0;0;0.0;  1.0000000E+04;  0.0000000E+00;  0.0000000E+00;  1.0000000E+04;  0.0000000E+00;  1.0000000E+04;0.0;0.0;0.0;0.0
  2.0999999E+00;  9.9999998E-03;  3.0000001E-01;809;0.0;0.0;0.0;1000.0;  4.0000001E-01;0.0;0;0.0;0.0;0.0;0;0.0;  1.0000000E+04;  0.0000000E+00;  0.0000000E+00;  1.0000000E+04;  0.0000000E+00;  1.0000000E+04;0.0;0.0;0.0;0.0
  2.0999999E+00;  9.9999998E-03;  3.1999999E-01;810;0.0;0.0;0.0;1000.0;  4.0000001E-01;0.0;0;0.0;0.0;0.0;0;0.0;  1.0000000E+04;  0.0000000E+00;  0.0000000E+00;  1.0000000E+04;  0.0000000E+00;  1.0000000E+04;0.0;0.0;0.0;0.0
  2.0999999E+00;  9.9999998E-03;  3.4000000E-01;811;0.0;0.0;0.0;1000.0;  4.0000001E-01;0.0;0;0.0;0.0;0.0;0;0.0;  1.0000000E+04;  0.0000000E+00;  0.0000000E+00;  1.0000000E+04;  0.0000000E+00;  1.0000000E+04;0.0;0.0;0.0;0.0
  2.0999999E+00;  9.9999998E-03;  3.6000001E-01;812;0.0;0.0;0.0;1000.0;  4.0000001E-01;0.0;0;0.0;0.0;0.0;0;0.0;  1.0000000E+04;  0.0000000E+00;  0.0000000E+00;  1.0000000E+04;  0.0000000E+00;  1.0000000E+04;0.0;0.0;0.0;0.0
  2.0999999E+00;  9.9999998E-03;  3.8000000E-01;813;0.0;0.0;0.0;1000.0;  4.0000001E-01;0.0;0;0.0;0.0;0.0;0;0.0;  1.0000000E+04;  0.0000000E+00;  0.0000000E+00;  1.0000000E+04;  0.0000000E+00;  1.0000000E+04;0.0;0.0;0.0;0.0
  2.0999999E+00;  9.9999998E-03;  4.0000001E-01;814;0.0;0.0;0.0;1000.0;  4.0000001E-01;0.0;0;0.0;0.0;0.0;0;0.0;  1.0000000E+04;  0.0000000E+00;  0.0000000E+00;  1.0000000E+04;  0.0000000E+00;  1.0000000E+04;0.0;0.0;0.0;0.0
  2.1199999E+00;  9.9999998E-03; -4.1999999E-01;815;0.0;0.0;0.0;1000.0;  4.0000001E-01;0.0;0;0.0;0.0;0.0;0;0.0;  1.0000000E+04;  0.0000000E+00;  0.0000000E+00;  1.0000000E+04;  0.0000000E+00;  1.0000000E+04;0.0;0.0;0.0;0.0
  2.1199999E+00;  9.9999998E-03; -4.0000001E-01;816;0.0;0.0;0.0;1000.0;  4.0000001E-01;0.0;0;0.0;0.0;0.0;0;0.0;  1.0000000E+04;  0.0000000E+00;  0.0000000E+00;  1.0000000E+04;  0.0000000E+00;  1.0000000E+04;0.0;0.0;0.0;0.0
  2.1199999E+00;  9.9999998E-03; -3.8000000E-01;817;0.0;0.0;0.0;1000.0;  4.0000001E-01;0.0;0;0.0;0.0;0.0;0;0.0;  1.0000000E+04;  0.0000000E+00;  0.0000000E+00;  1.0000000E+04;  0.0000000E+00;  1.0000000E+04;0.0;0.0;0.0;0.0
  2.1199999E+00;  9.9999998E-03; -3.6000001E-01;818;0.0;0.0;0.0;1000.0;  4.0000001E-01;0.0;0;0.0;0.0;0.0;0;0.0;  1.0000000E+04;  0.0000000E+00;  0.0000000E+00;  1.0000000E+04;  0.0000000E+00;  1.0000000E+04;0.0;0.0;0.0;0.0
  2.1199999E+00;  9.9999998E-03; -3.4000000E-01;819;0.0;0.0;0.0;1000.0;  4.0000001E-01;0.0;0;0.0;0.0;0.0;0;0.0;  1.0000000E+04;  0.0000000E+00;  0.0000000E+00;  1.0000000E+04;  0.0000000E+00;  1.0000000E+04;0.0;0.0;0.0;0.0
  2.1199999E+00;  9.9999998E-03; -3.1999999E-01;820;0.0;0.0;0.0;1000.0;  4.0000001E-01;0.0;0;0.0;0.0;0.0;0;0.0;  1.0000000E+04;  0.0000000E+00;  0.0000000E+00;  1.0000000E+04;  0.0000000E+00;  1.0000000E+04;0.0;0.0;0.0;0.0
  2.1199999E+00;  9.9999998E-03; -3.0000001E-01;821;0.0;0.0;0.0;1000.0;  4.0000001E-01;0.0;0;0.0;0.0;0.0;0;0.0;  1.0000000E+04;  0.0000000E+00;  0.0000000E+00;  1.0000000E+04;  0.0000000E+00;  1.0000000E+04;0.0;0.0;0.0;0.0
  2.1199999E+00;  9.9999998E-03; -2.8000000E-01;822;0.0;0.0;0.0;1000.0;  4.0000001E-01;0.0;0;0.0;0.0;0.0;0;0.0;  1.0000000E+04;  0.0000000E+00;  0.0000000E+00;  1.0000000E+04;  0.0000000E+00;  1.0000000E+04;0.0;0.0;0.0;0.0
  2.1199999E+00;  9.9999998E-03; -2.5999999E-01;823;0.0;0.0;0.0;1000.0;  4.0000001E-01;0.0;0;0.0;0.0;0.0;0;0.0;  1.0000000E+04;  0.0000000E+00;  0.0000000E+00;  1.0000000E+04;  0.0000000E+00;  1.0000000E+04;0.0;0.0;0.0;0.0
  2.1199999E+00;  9.9999998E-03; -2.3999999E-01;824;0.0;0.0;0.0;1000.0;  4.0000001E-01;0.0;0;0.0;0.0;0.0;0;0.0;  1.0000000E+04;  0.0000000E+00;  0.0000000E+00;  1.0000000E+04;  0.0000000E+00;  1.0000000E+04;0.0;0.0;0.0;0.0
  2.1199999E+00;  9.9999998E-03; -2.2000000E-01;825;0.0;0.0;0.0;1000.0;  4.0000001E-01;0.0;0;0.0;0.0;0.0;0;0.0;  1.0000000E+04;  0.0000000E+00;  0.0000000E+00;  1.0000000E+04;  0.0000000E+00;  1.0000000E+04;0.0;0.0;0.0;0.0
  2.1199999E+00;  9.9999998E-03; -2.0000000E-01;826;0.0;0.0;0.0;1000.0;  4.0000001E-01;0.0;0;0.0;0.0;0.0;0;0.0;  1.0000000E+04;  0.0000000E+00;  0.0000000E+00;  1.0000000E+04;  0.0000000E+00;  1.0000000E+04;0.0;0.0;0.0;0.0
  2.1199999E+00;  9.9999998E-03; -1.8000001E-01;827;0.0;0.0;0.0;1000.0;  4.0000001E-01;0.0;0;0.0;0.0;0.0;0;0.0;  1.0000000E+04;  0.0000000E+00;  0.0000000E+00;  1.0000000E+04;  0.0000000E+00;  1.0000000E+04;0.0;0.0;0.0;0.0
  2.1199999E+00;  9.9999998E-03; -1.6000000E-01;828;0.0;0.0;0.0;1000.0;  4.0000001E-01;0.0;0;0.0;0.0;0.0;0;0.0;  1.0000000E+04;  0.0000000E+00;  0.0000000E+00;  1.0000000E+04;  0.0000000E+00;  1.0000000E+04;0.0;0.0;0.0;0.0
  2.1199999E+00;  9.9999998E-03; -1.4000000E-01;829;0.0;0.0;0.0;1000.0;  4.0000001E-01;0.0;0;0.0;0.0;0.0;0;0.0;  1.0000000E+04;  0.0000000E+00;  0.0000000E+00;  1.0000000E+04;  0.0000000E+00;  1.0000000E+04;0.0;0.0;0.0;0.0
  2.1199999E+00;  9.9999998E-03; -1.2000000E-01;830;0.0;0.0;0.0;1000.0;  4.0000001E-01;0.0;0;0.0;0.0;0.0;0;0.0;  1.0000000E+04;  0.0000000E+00;  0.0000000E+00;  1.0000000E+04;  0.0000000E+00;  1.0000000E+04;0.0;0.0;0.0;0.0
  2.1199999E+00;  9.9999998E-03; -1.0000000E-01;831;0.0;0.0;0.0;1000.0;  4.0000001E-01;0.0;0;0.0;0.0;0.0;0;0.0;  1.0000000E+04;  0.0000000E+00;  0.0000000E+00;  1.0000000E+04;  0.0000000E+00;  1.0000000E+04;0.0;0.0;0.0;0.0
  2.1199999E+00;  9.9999998E-03; -7.9999998E-02;832;0.0;0.0;0.0;1000.0;  4.0000001E-01;0.0;0;0.0;0.0;0.0;0;0.0;  1.0000000E+04;  0.0000000E+00;  0.0000000E+00;  1.0000000E+04;  0.0000000E+00;  1.0000000E+04;0.0;0.0;0.0;0.0
  2.1199999E+00;  9.9999998E-03; -5.9999999E-02;833;0.0;0.0;0.0;1000.0;  4.0000001E-01;0.0;0;0.0;0.0;0.0;0;0.0;  1.0000000E+04;  0.0000000E+00;  0.0000000E+00;  1.0000000E+04;  0.0000000E+00;  1.0000000E+04;0.0;0.0;0.0;0.0
  2.1199999E+00;  9.9999998E-03; -3.9999999E-02;834;0.0;0.0;0.0;1000.0;  4.0000001E-01;0.0;0;0.0;0.0;0.0;0;0.0;  1.0000000E+04;  0.0000000E+00;  0.0000000E+00;  1.0000000E+04;  0.0000000E+00;  1.0000000E+04;0.0;0.0;0.0;0.0
  2.1199999E+00;  9.9999998E-03; -2.0000000E-02;835;0.0;0.0;0.0;1000.0;  4.0000001E-01;0.0;0;0.0;0.0;0.0;0;0.0;  1.0000000E+04;  0.0000000E+00;  0.0000000E+00;  1.0000000E+04;  0.0000000E+00;  1.0000000E+04;0.0;0.0;0.0;0.0
  2.1199999E+00;  9.9999998E-03;  0.0000000E+00;836;0.0;0.0;0.0;1000.0;  4.0000001E-01;0.0;0;0.0;0.0;0.0;0;0.0;  1.0000000E+04;  0.0000000E+00;  0.0000000E+00;  1.0000000E+04;  0.0000000E+00;  1.0000000E+04;0.0;0.0;0.0;0.0
  2.1199999E+00;  9.9999998E-03;  2.0000000E-02;837;0.0;0.0;0.0;1000.0;  4.0000001E-01;0.0;0;0.0;0.0;0.0;0;0.0;  1.0000000E+04;  0.0000000E+00;  0.0000000E+00;  1.0000000E+04;  0.0000000E+00;  1.0000000E+04;0.0;0.0;0.0;0.0
  2.1199999E+00;  9.9999998E-03;  3.9999999E-02;838;0.0;0.0;0.0;1000.0;  4.0000001E-01;0.0;0;0.0;0.0;0.0;0;0.0;  1.0000000E+04;  0.0000000E+00;  0.0000000E+00;  1.0000000E+04;  0.0000000E+00;  1.0000000E+04;0.0;0.0;0.0;0.0
  2.1199999E+00;  9.9999998E-03;  5.9999999E-02;839;0.0;0.0;0.0;1000.0;  4.0000001E-01;0.0;0;0.0;0.0;0.0;0;0.0;  1.0000000E+04;  0.0000000E+00;  0.0000000E+00;  1.0000000E+04;  0.0000000E+00;  1.0000000E+04;0.0;0.0;0.0;0.0
  2.1199999E+00;  9.9999998E-03;  7.9999998E-02;840;0.0;0.0;0.0;1000.0;  4.0000001E-01;0.0;0;0.0;0.0;0.0;0;0.0;  1.0000000E+04;  0.0000000E+00;  0.0000000E+00;  1.0000000E+04;  0.0000000E+00;  1.0000000E+04;0.0;0.0;0.0;0.0
  2.1199999E+00;  9.9999998E-03;  1.0000000E-01;841;0.0;0.0;0.0;1000.0;  4.0000001E-01;0.0;0;0.0;0.0;0.0;0;0.0;  1.0000000E+04;  0.0000000E+00;  0.0000000E+00;  1.0000000E+04;  0.0000000E+00;  1.0000000E+04;0.0;0.0;0.0;0.0
  2.1199999E+00;  9.9999998E-03;  1.2000000E-01;842;0.0;0.0;0.0;1000.0;  4.0000001E-01;0.0;0;0.0;0.0;0.0;0;0.0;  1.0000000E+04;  0.0000000E+00;  0.0000000E+00;  1.0000000E+04;  0.0000000E+00;  1.0000000E+04;0.0;0.0;0.0;0.0
  2.1199999E+00;  9.9999998E-03;  1.4000000E-01;843;0.0;0.0;0.0;1000.0;  4.0000001E-01;0.0;0;0.0;0.0;0.0;0;0.0;  1.0000000E+04;  0.0000000E+00;  0.0000000E+00;  1.0000000E+04;  0.0000000E+00;  1.0000000E+04;0.0;0.0;0.0;0.0
  2.1199999E+00;  9.9999998E-03;  1.6000000E-01;844;0.0;0.0;0.0;1000.0;  4.0000001E-01;0.0;0;0.0;0.0;0.0;0;0.0;  1.0000000E+04;  0.0000000E+00;  0.0000000E+00;  1.0000000E+04;  0.0000000E+00;  1.0000000E+04;0.0;0.0;0.0;0.0
  2.1199999E+00;  9.9999998E-03;  1.8000001E-01;845;0.0;0.0;0.0;1000.0;  4.0000001E-01;0.0;0;0.0;0.0;0.0;0;0.0;  1.0000000E+04;  0.0000000E+00;  0.0000000E+00;  1.0000000E+04;  0.0000000E+00;  1.0000000E+04;0.0;0.0;0.0;0.0
  2.1199999E+00;  9.9999998E-03;  2.0000000E-01;846;0.0;0.0;0.0;1000.0;  4.0000001E-01;0.0;0;0.0;0.0;0.0;0;0.0;  1.0000000E+04;  0.0000000E+00;  0.0000000E+00;  1.0000000E+04;  0.0000000E+00;  1.0000000E+04;0.0;0.0;0.0;0.0
  2.1199999E+00;  9.9999998E-03;  2.2000000E-01;847;0.0;0.0;0.0;1000.0;  4.0000001E-01;0.0;0;0.0;0.0;0.0;0;0.0;  1.0000000E+04;  0.0000000E+00;  0.0000000E+00;  1.0000000E+04;  0.0000000E+00;  1.0000000E+04;0.0;0.0;0.0;0.0
  2.1199999E+00;  9.9999998E-03;  2.3999999E-01;848;0.0;0.0;0.0;1000.0;  4.0000001E-01;0.0;0;0.0;0.0;0.0;0;0.0;  1.0000000E+04;  0.0000000E+00;  0.0000000E+00;  1.0000000E+04;  0.0000000E+00;  1.0000000E+04;0.0;0.0;0.0;0.0
  2.1199999E+00;  9.9999998E-03;  2.5999999E-01;849;0.0;0.0;0.0;1000.0;  4.0000001E-01;0.0;0;0.0;0.0;0.0;0;0.0;  1.0000000E+04;  0.0000000E+00;  0.0000000E+00;  1.0000000E+04;  0.0000000E+00;  1.0000000E+04;0.0;0.0;0.0;0.0
  2.1199999E+00;  9.9999998E-03;  2.8000000E-01;850;0.0;0.0;0.0;1000.0;  4.0000001E-01;0.0;0;0.0;0.0;0.0;0;0.0;  1.0000000E+04;  0.0000000E+00;  0.0000000E+00;  1.0000000E+04;  0.0000000E+00;  1.0000000E+04;0.0;0.0;0.0;0.0
  2.1199999E+00;  9.9999998E-03;  3.0000001E-01;851;0.0;0.0;0.0;1000.0;  4.0000001E-01;0.0;0;0.0;0.0;0.0;0;0.0;  1.0000000E+04;  0.0000000E+00;  0.0000000E+00;  1.0000000E+04;  0.0000000E+00;  1.0000000E+04;0.0;0.0;0.0;0.0
  2.1199999E+00;  9.9999998E-03;  3.1999999E-01;852;0.0;0.0;0.0;1000.0;  4.0000001E-01;0.0;0;0.0;0.0;0.0;0;0.0;  1.0000000E+04;  0.0000000E+00;  0.0000000E+00;  1.0000000E+04;  0.0000000E+00;  1.0000000E+04;0.0;0.0;0.0;0.0
  2.1199999E+00;  9.9999998E-03;  3.4000000E-01;853;0.0;0.0;0.0;1000.0;  4.0000001E-01;0.0;0;0.0;0.0;0.0;0;0.0;  1.0000000E+04;  0.0000000E+00;  0.0000000E+00;  1.0000000E+04;  0.0000000E+00;  1.0000000E+04;0.0;0.0;0.0;0.0
  2.1199999E+00;  9.9999998E-03;  3.6000001E-01;854;0.0;0.0;0.0;1000.0;  4.0000001E-01;0.0;0;0.0;0.0;0.0;0;0.0;  1.0000000E+04;  0.0000000E+00;  0.0000000E+00;  1.0000000E+04;  0.0000000E+00;  1.0000000E+04;0.0;0.0;0.0;0.0
  2.1199999E+00;  9.9999998E-03;  3.8000000E-01;855;0.0;0.0;0.0;1000.0;  4.0000001E-01;0.0;0;0.0;0.0;0.0;0;0.0;  1.0000000E+04;  0.0000000E+00;  0.0000000E+00;  1.0000000E+04;  0.0000000E+00;  1.0000000E+04;0.0;0.0;0.0;0.0
  2.1199999E+00;  9.9999998E-03;  4.0000001E-01;856;0.0;0.0;0.0;1000.0;  4.0000001E-01;0.0;0;0.0;0.0;0.0;0;0.0;  1.0000000E+04;  0.0000000E+00;  0.0000000E+00;  1.0000000E+04;  0.0000000E+00;  1.0000000E+04;0.0;0.0;0.0;0.0
  2.1400001E+00;  9.9999998E-03; -3.8000000E-01;857;0.0;0.0;0.0;1000.0;  4.0000001E-01;0.0;0;0.0;0.0;0.0;0;0.0;  1.0000000E+04;  0.0000000E+00;  0.0000000E+00;  1.0000000E+04;  0.0000000E+00;  1.0000000E+04;0.0;0.0;0.0;0.0
  2.1400001E+00;  9.9999998E-03; -3.6000001E-01;858;0.0;0.0;0.0;1000.0;  4.0000001E-01;0.0;0;0.0;0.0;0.0;0;0.0;  1.0000000E+04;  0.0000000E+00;  0.0000000E+00;  1.0000000E+04;  0.0000000E+00;  1.0000000E+04;0.0;0.0;0.0;0.0
  2.1400001E+00;  9.9999998E-03; -3.4000000E-01;859;0.0;0.0;0.0;1000.0;  4.0000001E-01;0.0;0;0.0;0.0;0.0;0;0.0;  1.0000000E+04;  0.0000000E+00;  0.0000000E+00;  1.0000000E+04;  0.0000000E+00;  1.0000000E+04;0.0;0.0;0.0;0.0
  2.1400001E+00;  9.9999998E-03; -3.1999999E-01;860;0.0;0.0;0.0;1000.0;  4.0000001E-01;0.0;0;0.0;0.0;0.0;0;0.0;  1.0000000E+04;  0.0000000E+00;  0.0000000E+00;  1.0000000E+04;  0.0000000E+00;  1.0000000E+04;0.0;0.0;0.0;0.0
  2.1400001E+00;  9.9999998E-03; -3.0000001E-01;861;0.0;0.0;0.0;1000.0;  4.0000001E-01;0.0;0;0.0;0.0;0.0;0;0.0;  1.0000000E+04;  0.0000000E+00;  0.0000000E+00;  1.0000000E+04;  0.0000000E+00;  1.0000000E+04;0.0;0.0;0.0;0.0
  2.1400001E+00;  9.9999998E-03; -2.8000000E-01;862;0.0;0.0;0.0;1000.0;  4.0000001E-01;0.0;0;0.0;0.0;0.0;0;0.0;  1.0000000E+04;  0.0000000E+00;  0.0000000E+00;  1.0000000E+04;  0.0000000E+00;  1.0000000E+04;0.0;0.0;0.0;0.0
  2.1400001E+00;  9.9999998E-03; -2.5999999E-01;863;0.0;0.0;0.0;1000.0;  4.0000001E-01;0.0;0;0.0;0.0;0.0;0;0.0;  1.0000000E+04;  0.0000000E+00;  0.0000000E+00;  1.0000000E+04;  0.0000000E+00;  1.0000000E+04;0.0;0.0;0.0;0.0
  2.1400001E+00;  9.9999998E-03; -2.3999999E-01;864;0.0;0.0;0.0;1000.0;  4.0000001E-01;0.0;0;0.0;0.0;0.0;0;0.0;  1.0000000E+04;  0.0000000E+00;  0.0000000E+00;  1.0000000E+04;  0.0000000E+00;  1.0000000E+04;0.0;0.0;0.0;0.0
  2.1400001E+00;  9.9999998E-03; -2.2000000E-01;865;0.0;0.0;0.0;1000.0;  4.0000001E-01;0.0;0;0.0;0.0;0.0;0;0.0;  1.0000000E+04;  0.0000000E+00;  0.0000000E+00;  1.0000000E+04;  0.0000000E+00;  1.0000000E+04;0.0;0.0;0.0;0.0
  2.1400001E+00;  9.9999998E-03; -2.0000000E-01;866;0.0;0.0;0.0;1000.0;  4.0000001E-01;0.0;0;0.0;0.0;0.0;0;0.0;  1.0000000E+04;  0.0000000E+00;  0.0000000E+00;  1.0000000E+04;  0.0000000E+00;  1.0000000E+04;0.0;0.0;0.0;0.0
  2.1400001E+00;  9.9999998E-03; -1.8000001E-01;867;0.0;0.0;0.0;1000.0;  4.0000001E-01;0.0;0;0.0;0.0;0.0;0;0.0;  1.0000000E+04;  0.0000000E+00;  0.0000000E+00;  1.0000000E+04;  0.0000000E+00;  1.0000000E+04;0.0;0.0;0.0;0.0
  2.1400001E+00;  9.9999998E-03; -1.6000000E-01;868;0.0;0.0;0.0;1000.0;  4.0000001E-01;0.0;0;0.0;0.0;0.0;0;0.0;  1.0000000E+04;  0.0000000E+00;  0.0000000E+00;  1.0000000E+04;  0.0000000E+00;  1.0000000E+04;0.0;0.0;0.0;0.0
  2.1400001E+00;  9.9999998E-03; -1.4000000E-01;869;0.0;0.0;0.0;1000.0;  4.0000001E-01;0.0;0;0.0;0.0;0.0;0;0.0;  1.0000000E+04;  0.0000000E+00;  0.0000000E+00;  1.0000000E+04;  0.0000000E+00;  1.0000000E+04;0.0;0.0;0.0;0.0
  2.1400001E+00;  9.9999998E-03; -1.2000000E-01;870;0.0;0.0;0.0;1000.0;  4.0000001E-01;0.0;0;0.0;0.0;0.0;0;0.0;  1.0000000E+04;  0.0000000E+00;  0.0000000E+00;  1.0000000E+04;  0.0000000E+00;  1.0000000E+04;0.0;0.0;0.0;0.0
  2.1400001E+00;  9.9999998E-03; -1.0000000E-01;871;0.0;0.0;0.0;1000.0;  4.0000001E-01;0.0;0;0.0;0.0;0.0;0;0.0;  1.0000000E+04;  0.0000000E+00;  0.0000000E+00;  1.0000000E+04;  0.0000000E+00;  1.0000000E+04;0.0;0.0;0.0;0.0
  2.1400001E+00;  9.9999998E-03; -7.9999998E-02;872;0.0;0.0;0.0;1000.0;  4.0000001E-01;0.0;0;0.0;0.0;0.0;0;0.0;  1.0000000E+04;  0.0000000E+00;  0.0000000E+00;  1.0000000E+04;  0.0000000E+00;  1.0000000E+04;0.0;0.0;0.0;0.0
  2.1400001E+00;  9.9999998E-03; -5.9999999E-02;873;0.0;0.0;0.0;1000.0;  4.0000001E-01;0.0;0;0.0;0.0;0.0;0;0.0;  1.0000000E+04;  0.0000000E+00;  0.0000000E+00;  1.0000000E+04;  0.0000000E+00;  1.0000000E+04;0.0;0.0;0.0;0.0
  2.1400001E+00;  9.9999998E-03; -3.9999999E-02;874;0.0;0.0;0.0;1000.0;  4.0000001E-01;0.0;0;0.0;0.0;0.0;0;0.0;  1.0000000E+04;  0.0000000E+00;  0.0000000E+00;  1.0000000E+04;  0.0000000E+00;  1.0000000E+04;0.0;0.0;0.0;0.0
  2.1400001E+00;  9.9999998E-03; -2.0000000E-02;875;0.0;0.0;0.0;1000.0;  4.0000001E-01;0.0;0;0.0;0.0;0.0;0;0.0;  1.0000000E+04;  0.0000000E+00;  0.0000000E+00;  1.0000000E+04;  0.0000000E+00;  1.0000000E+04;0.0;0.0;0.0;0.0
  2.1400001E+00;  9.9999998E-03;  0.0000000E+00;876;0.0;0.0;0.0;1000.0;  4.0000001E-01;0.0;0;0.0;0.0;0.0;0;0.0;  1.0000000E+04;  0.0000000E+00;  0.0000000E+00;  1.0000000E+04;  0.0000000E+00;  1.0000000E+04;0.0;0.0;0.0;0.0
  2.1400001E+00;  9.9999998E-03;  2.0000000E-02;877;0.0;0.0;0.0;1000.0;  4.0000001E-01;0.0;0;0.0;0.0;0.0;0;0.0;  1.0000000E+04;  0.0000000E+00;  0.0000000E+00;  1.0000000E+04;  0.0000000E+00;  1.0000000E+04;0.0;0.0;0.0;0.0
  2.1400001E+00;  9.9999998E-03;  3.9999999E-02;878;0.0;0.0;0.0;1000.0;  4.0000001E-01;0.0;0;0.0;0.0;0.0;0;0.0;  1.0000000E+04;  0.0000000E+00;  0.0000000E+00;  1.0000000E+04;  0.0000000E+00;  1.0000000E+04;0.0;0.0;0.0;0.0
  2.1400001E+00;  9.9999998E-03;  5.9999999E-02;879;0.0;0.0;0.0;1000.0;  4.0000001E-01;0.0;0;0.0;0.0;0.0;0;0.0;  1.0000000E+04;  0.0000000E+00;  0.0000000E+00;  1.0000000E+04;  0.0000000E+00;  1.0000000E+04;0.0;0.0;0.0;0.0
  2.1400001E+00;  9.9999998E-03;  7.9999998E-02;880;0.0;0.0;0.0;1000.0;  4.0000001E-01;0.0;0;0.0;0.0;0.0;0;0.0;  1.0000000E+04;  0.0000000E+00;  0.0000000E+00;  1.0000000E+04;  0.0000000E+00;  1.0000000E+04;0.0;0.0;0.0;0.0
  2.1400001E+00;  9.9999998E-03;  1.0000000E-01;881;0.0;0.0;0.0;1000.0;  4.0000001E-01;0.0;0;0.0;0.0;0.0;0;0.0;  1.0000000E+04;  0.0000000E+00;  0.0000000E+00;  1.0000000E+04;  0.0000000E+00;  1.0000000E+04;0.0;0.0;0.0;0.0
  2.1400001E+00;  9.9999998E-03;  1.2000000E-01;882;0.0;0.0;0.0;1000.0;  4.0000001E-01;0.0;0;0.0;0.0;0.0;0;0.0;  1.0000000E+04;  0.0000000E+00;  0.0000000E+00;  1.0000000E+04;  0.0000000E+00;  1.0000000E+04;0.0;0.0;0.0;0.0
  2.1400001E+00;  9.9999998E-03;  1.4000000E-01;883;0.0;0.0;0.0;1000.0;  4.0000001E-01;0.0;0;0.0;0.0;0.0;0;0.0;  1.0000000E+04;  0.0000000E+00;  0.0000000E+00;  1.0000000E+04;  0.0000000E+00;  1.0000000E+04;0.0;0.0;0.0;0.0
  2.1400001E+00;  9.9999998E-03;  1.6000000E-01;884;0.0;0.0;0.0;1000.0;  4.0000001E-01;0.0;0;0.0;0.0;0.0;0;0.0;  1.0000000E+04;  0.0000000E+00;  0.0000000E+00;  1.0000000E+04;  0.0000000E+00;  1.0000000E+04;0.0;0.0;0.0;0.0
  2.1400001E+00;  9.9999998E-03;  1.8000001E-01;885;0.0;0.0;0.0;1000.0;  4.0000001E-01;0.0;0;0.0;0.0;0.0;0;0.0;  1.0000000E+04;  0.0000000E+00;  0.0000000E+00;  1.0000000E+04;  0.0000000E+00;  1.0000000E+04;0.0;0.0;0.0;0.0
  2.1400001E+00;  9.9999998E-03;  2.0000000E-01;886;0.0;0.0;0.0;1000.0;  4.0000001E-01;0.0;0;0.0;0.0;0.0;0;0.0;  1.0000000E+04;  0.0000000E+00;  0.0000000E+00;  1.0000000E+04;  0.0000000E+00;  1.0000000E+04;0.0;0.0;0.0;0.0
  2.1400001E+00;  9.9999998E-03;  2.2000000E-01;887;0.0;0.0;0.0;1000.0;  4.0000001E-01;0.0;0;0.0;0.0;0.0;0;0.0;  1.0000000E+04;  0.0000000E+00;  0.0000000E+00;  1.0000000E+04;  0.0000000E+00;  1.0000000E+04;0.0;0.0;0.0;0.0
  2.1400001E+00;  9.9999998E-03;  2.3999999E-01;888;0.0;0.0;0.0;1000.0;  4.0000001E-01;0.0;0;0.0;0.0;0.0;0;0.0;  1.0000000E+04;  0.0000000E+00;  0.0000000E+00;  1.0000000E+04;  0.0000000E+00;  1.0000000E+04;0.0;0.0;0.0;0.0
  2.1400001E+00;  9.9999998E-03;  2.5999999E-01;889;0.0;0.0;0.0;1000.0;  4.0000001E-01;0.0;0;0.0;0.0;0.0;0;0.0;  1.0000000E+04;  0.0000000E+00;  0.0000000E+00;  1.0000000E+04;  0.0000000E+00;  1.0000000E+04;0.0;0.0;0.0;0.0
  2.1400001E+00;  9.9999998E-03;  2.8000000E-01;890;0.0;0.0;0.0;1000.0;  4.0000001E-01;0.0;0;0.0;0.0;0.0;0;0.0;  1.0000000E+04;  0.0000000E+00;  0.0000000E+00;  1.0000000E+04;  0.0000000E+00;  1.0000000E+04;0.0;0.0;0.0;0.0
  2.1400001E+00;  9.9999998E-03;  3.0000001E-01;891;0.0;0.0;0.0;1000.0;  4.0000001E-01;0.0;0;0.0;0.0;0.0;0;0.0;  1.0000000E+04;  0.0000000E+00;  0.0000000E+00;  1.0000000E+04;  0.0000000E+00;  1.0000000E+04;0.0;0.0;0.0;0.0
  2.1400001E+00;  9.9999998E-03;  3.1999999E-01;892;0.0;0.0;0.0;1000.0;  4.0000001E-01;0.0;0;0.0;0.0;0.0;0;0.0;  1.0000000E+04;  0.0000000E+00;  0.0000000E+00;  1.0000000E+04;  0.0000000E+00;  1.0000000E+04;0.0;0.0;0.0;0.0
  2.1400001E+00;  9.9999998E-03;  3.4000000E-01;893;0.0;0.0;0.0;1000.0;  4.0000001E-01;0.0;0;0.0;0.0;0.0;0;0.0;  1.0000000E+04;  0.0000000E+00;  0.0000000E+00;  1.0000000E+04;  0.0000000E+00;  1.0000000E+04;0.0;0.0;0.0;0.0
  2.1400001E+00;  9.9999998E-03;  3.6000001E-01;894;0.0;0.0;0.0;1000.0;  4.0000001E-01;0.0;0;0.0;0.0;0.0;0;0.0;  1.0000000E+04;  0.0000000E+00;  0.0000000E+00;  1.0000000E+04;  0.0000000E+00;  1.0000000E+04;0.0;0.0;0.0;0.0
  2.1400001E+00;  9.9999998E-03;  3.8000000E-01;895;0.0;0.0;0.0;1000.0;  4.0000001E-01;0.0;0;0.0;0.0;0.0;0;0.0;  1.0000000E+04;  0.0000000E+00;  0.0000000E+00;  1.0000000E+04;  0.0000000E+00;  1.0000000E+04;0.0;0.0;0.0;0.0
  2.1400001E+00;  9.9999998E-03;  4.0000001E-01;896;0.0;0.0;0.0;1000.0;  4.0000001E-01;0.0;0;0.0;0.0;0.0;0;0.0;  1.0000000E+04;  0.0000000E+00;  0.0000000E+00;  1.0000000E+04;  0.0000000E+00;  1.0000000E+04;0.0;0.0;0.0;0.0
  2.1600001E+00;  9.9999998E-03; -2.8000000E-01;897;0.0;0.0;0.0;1000.0;  4.0000001E-01;0.0;0;0.0;0.0;0.0;0;0.0;  1.0000000E+04;  0.0000000E+00;  0.0000000E+00;  1.0000000E+04;  0.0000000E+00;  1.0000000E+04;0.0;0.0;0.0;0.0
  2.1600001E+00;  9.9999998E-03; -2.5999999E-01;898;0.0;0.0;0.0;1000.0;  4.0000001E-01;0.0;0;0.0;0.0;0.0;0;0.0;  1.0000000E+04;  0.0000000E+00;  0.0000000E+00;  1.0000000E+04;  0.0000000E+00;  1.0000000E+04;0.0;0.0;0.0;0.0
  2.1600001E+00;  9.9999998E-03; -2.3999999E-01;899;0.0;0.0;0.0;1000.0;  4.0000001E-01;0.0;0;0.0;0.0;0.0;0;0.0;  1.0000000E+04;  0.0000000E+00;  0.0000000E+00;  1.0000000E+04;  0.0000000E+00;  1.0000000E+04;0.0;0.0;0.0;0.0
  2.1600001E+00;  9.9999998E-03; -2.2000000E-01;900;0.0;0.0;0.0;1000.0;  4.0000001E-01;0.0;0;0.0;0.0;0.0;0;0.0;  1.0000000E+04;  0.0000000E+00;  0.0000000E+00;  1.0000000E+04;  0.0000000E+00;  1.0000000E+04;0.0;0.0;0.0;0.0
  2.1600001E+00;  9.9999998E-03; -2.0000000E-01;901;0.0;0.0;0.0;1000.0;  4.0000001E-01;0.0;0;0.0;0.0;0.0;0;0.0;  1.0000000E+04;  0.0000000E+00;  0.0000000E+00;  1.0000000E+04;  0.0000000E+00;  1.0000000E+04;0.0;0.0;0.0;0.0
  2.1600001E+00;  9.9999998E-03; -1.8000001E-01;902;0.0;0.0;0.0;1000.0;  4.0000001E-01;0.0;0;0.0;0.0;0.0;0;0.0;  1.0000000E+04;  0.0000000E+00;  0.0000000E+00;  1.0000000E+04;  0.0000000E+00;  1.0000000E+04;0.0;0.0;0.0;0.0
  2.1600001E+00;  9.9999998E-03; -1.6000000E-01;903;0.0;0.0;0.0;1000.0;  4.0000001E-01;0.0;0;0.0;0.0;0.0;0;0.0;  1.0000000E+04;  0.0000000E+00;  0.0000000E+00;  1.0000000E+04;  0.0000000E+00;  1.0000000E+04;0.0;0.0;0.0;0.0
  2.1600001E+00;  9.9999998E-03; -1.4000000E-01;904;0.0;0.0;0.0;1000.0;  4.0000001E-01;0.0;0;0.0;0.0;0.0;0;0.0;  1.0000000E+04;  0.0000000E+00;  0.0000000E+00;  1.0000000E+04;  0.0000000E+00;  1.0000000E+04;0.0;0.0;0.0;0.0
  2.1600001E+00;  9.9999998E-03; -1.2000000E-01;905;0.0;0.0;0.0;1000.0;  4.0000001E-01;0.0;0;0.0;0.0;0.0;0;0.0;  1.0000000E+04;  0.0000000E+00;  0.0000000E+00;  1.0000000E+04;  0.0000000E+00;  1.0000000E+04;0.0;0.0;0.0;0.0
  2.1600001E+00;  9.9999998E-03; -1.0000000E-01;906;0.0;0.0;0.0;1000.0;  4.0000001E-01;0.0;0;0.0;0.0;0.0;0;0.0;  1.0000000E+04;  0.0000000E+00;  0.0000000E+00;  1.0000000E+04;  0.0000000E+00;  1.0000000E+04;0.0;0.0;0.0;0.0
  2.1600001E+00;  9.9999998E-03; -7.9999998E-02;907;0.0;0.0;0.0;1000.0;  4.0000001E-01;0.0;0;0.0;0.0;0.0;0;0.0;  1.0000000E+04;  0.0000000E+00;  0.0000000E+00;  1.0000000E+04;  0.0000000E+00;  1.0000000E+04;0.0;0.0;0.0;0.0
  2.1600001E+00;  9.9999998E-03; -5.9999999E-02;908;0.0;0.0;0.0;1000.0;  4.0000001E-01;0.0;0;0.0;0.0;0.0;0;0.0;  1.0000000E+04;  0.0000000E+00;  0.0000000E+00;  1.0000000E+04;  0.0000000E+00;  1.0000000E+04;0.0;0.0;0.0;0.0
  2.1600001E+00;  9.9999998E-03; -3.9999999E-02;909;0.0;0.0;0.0;1000.0;  4.0000001E-01;0.0;0;0.0;0.0;0.0;0;0.0;  1.0000000E+04;  0.0000000E+00;  0.0000000E+00;  1.0000000E+04;  0.0000000E+00;  1.0000000E+04;0.0;0.0;0.0;0.0
  2.1600001E+00;  9.9999998E-03; -2.0000000E-02;910;0.0;0.0;0.0;1000.0;  4.0000001E-01;0.0;0;0.0;0.0;0.0;0;0.0;  1.0000000E+04;  0.0000000E+00;  0.0000000E+00;  1.0000000E+04;  0.0000000E+00;  1.0000000E+04;0.0;0.0;0.0;0.0
  2.1600001E+00;  9.9999998E-03;  0.0000000E+00;911;0.0;0.0;0.0;1000.0;  4.0000001E-01;0.0;0;0.0;0.0;0.0;0;0.0;  1.0000000E+04;  0.0000000E+00;  0.0000000E+00;  1.0000000E+04;  0.0000000E+00;  1.0000000E+04;0.0;0.0;0.0;0.0
  2.1600001E+00;  9.9999998E-03;  2.0000000E-02;912;0.0;0.0;0.0;1000.0;  4.0000001E-01;0.0;0;0.0;0.0;0.0;0;0.0;  1.0000000E+04;  0.0000000E+00;  0.0000000E+00;  1.0000000E+04;  0.0000000E+00;  1.0000000E+04;0.0;0.0;0.0;0.0
  2.1600001E+00;  9.9999998E-03;  3.9999999E-02;913;0.0;0.0;0.0;1000.0;  4.0000001E-01;0.0;0;0.0;0.0;0.0;0;0.0;  1.0000000E+04;  0.0000000E+00;  0.0000000E+00;  1.0000000E+04;  0.0000000E+00;  1.0000000E+04;0.0;0.0;0.0;0.0
  2.1600001E+00;  9.9999998E-03;  5.9999999E-02;914;0.0;0.0;0.0;1000.0;  4.0000001E-01;0.0;0;0.0;0.0;0.0;0;0.0;  1.0000000E+04;  0.0000000E+00;  0.0000000E+00;  1.0000000E+04;  0.0000000E+00;  1.0000000E+04;0.0;0.0;0.0;0.0
  2.1600001E+00;  9.9999998E-03;  7.9999998E-02;915;0.0;0.0;0.0;1000.0;  4.0000001E-01;0.0;0;0.0;0.0;0.0;0;0.0;  1.0000000E+04;  0.0000000E+00;  0.0000000E+00;  1.0000000E+04;  0.0000000E+00;  1.0000000E+04;0.0;0.0;0.0;0.0
  2.1600001E+00;  9.9999998E-03;  1.0000000E-01;916;0.0;0.0;0.0;1000.0;  4.0000001E-01;0.0;0;0.0;0.0;0.0;0;0.0;  1.0000000E+04;  0.0000000E+00;  0.0000000E+00;  1.0000000E+04;  0.0000000E+00;  1.0000000E+04;0.0;0.0;0.0;0.0
  2.1600001E+00;  9.9999998E-03;  1.2000000E-01;917;0.0;0.0;0.0;1000.0;  4.0000001E-01;0.0;0;0.0;0.0;0.0;0;0.0;  1.0000000E+04;  0.0000000E+00;  0.0000000E+00;  1.0000000E+04;  0.0000000E+00;  1.0000000E+04;0.0;0.0;0.0;0.0
  2.1600001E+00;  9.9999998E-03;  1.4000000E-01;918;0.0;0.0;0.0;1000.0;  4.0000001E-01;0.0;0;0.0;0.0;0.0;0;0.0;  1.0000000E+04;  0.0000000E+00;  0.0000000E+00;  1.0000000E+04;  0.0000000E+00;  1.0000000E+04;0.0;0.0;0.0;0.0
  2.1600001E+00;  9.9999998E-03;  1.6000000E-01;919;0.0;0.0;0.0;1000.0;  4.0000001E-01;0.0;0;0.0;0.0;0.0;0;0.0;  1.0000000E+04;  0.0000000E+00;  0.0000000E+00;  1.0000000E+04;  0.0000000E+00;  1.0000000E+04;0.0;0.0;0.0;0.0
  2.1600001E+00;  9.9999998E-03;  1.8000001E-01;920;0.0;0.0;0.0;1000.0;  4.0000001E-01;0.0;0;0.0;0.0;0.0;0;0.0;  1.0000000E+04;  0.0000000E+00;  0.0000000E+00;  1.0000000E+04;  0.0000000E+00;  1.0000000E+04;0.0;0.0;0.0;0.0
  2.1600001E+00;  9.9999998E-03;  2.0000000E-01;921;0.0;0.0;0.0;1000.0;  4.0000001E-01;0.0;0;0.0;0.0;0.0;0;0.0;  1.0000000E+04;  0.0000000E+00;  0.0000000E+00;  1.0000000E+04;  0.0000000E+00;  1.0000000E+04;0.0;0.0;0.0;0.0
  2.1600001E+00;  9.9999998E-03;  2.2000000E-01;922;0.0;0.0;0.0;1000.0;  4.0000001E-01;0.0;0;0.0;0.0;0.0;0;0.0;  1.0000000E+04;  0.0000000E+00;  0.0000000E+00;  1.0000000E+04;  0.0000000E+00;  1.0000000E+04;0.0;0.0;0.0;0.0
  2.1600001E+00;  9.9999998E-03;  2.3999999E-01;923;0.0;0.0;0.0;1000.0;  4.0000001E-01;0.0;0;0.0;0.0;0.0;0;0.0;  1.0000000E+04;  0.0000000E+00;  0.0000000E+00;  1.0000000E+04;  0.0000000E+00;  1.0000000E+04;0.0;0.0;0.0;0.0
  2.1600001E+00;  9.9999998E-03;  2.5999999E-01;924;0.0;0.0;0.0;1000.0;  4.0000001E-01;0.0;0;0.0;0.0;0.0;0;0.0;  1.0000000E+04;  0.0000000E+00;  0.0000000E+00;  1.0000000E+04;  0.0000000E+00;  1.0000000E+04;0.0;0.0;0.0;0.0
  2.1600001E+00;  9.9999998E-03;  2.8000000E-01;925;0.0;0.0;0.0;1000.0;  4.0000001E-01;0.0;0;0.0;0.0;0.0;0;0.0;  1.0000000E+04;  0.0000000E+00;  0.0000000E+00;  1.0000000E+04;  0.0000000E+00;  1.0000000E+04;0.0;0.0;0.0;0.0
  2.1600001E+00;  9.9999998E-03;  3.0000001E-01;926;0.0;0.0;0.0;1000.0;  4.0000001E-01;0.0;0;0.0;0.0;0.0;0;0.0;  1.0000000E+04;  0.0000000E+00;  0.0000000E+00;  1.0000000E+04;  0.0000000E+00;  1.0000000E+04;0.0;0.0;0.0;0.0
  2.1600001E+00;  9.9999998E-03;  3.1999999E-01;927;0.0;0.0;0.0;1000.0;  4.0000001E-01;0.0;0;0.0;0.0;0.0;0;0.0;  1.0000000E+04;  0.0000000E+00;  0.0000000E+00;  1.0000000E+04;  0.0000000E+00;  1.0000000E+04;0.0;0.0;0.0;0.0
  2.1600001E+00;  9.9999998E-03;  3.4000000E-01;928;0.0;0.0;0.0;1000.0;  4.0000001E-01;0.0;0;0.0;0.0;0.0;0;0.0;  1.0000000E+04;  0.0000000E+00;  0.0000000E+00;  1.0000000E+04;  0.0000000E+00;  1.0000000E+04;0.0;0.0;0.0;0.0
  2.1600001E+00;  9.9999998E-03;  3.6000001E-01;929;0.0;0.0;0.0;1000.0;  4.0000001E-01;0.0;0;0.0;0.0;0.0;0;0.0;  1.0000000E+04;  0.0000000E+00;  0.0000000E+00;  1.0000000E+04;  0.0000000E+00;  1.0000000E+04;0.0;0.0;0.0;0.0
  2.1600001E+00;  9.9999998E-03;  3.8000000E-01;930;0.0;0.0;0.0;1000.0;  4.0000001E-01;0.0;0;0.0;0.0;0.0;0;0.0;  1.0000000E+04;  0.0000000E+00;  0.0000000E+00;  1.0000000E+04;  0.0000000E+00;  1.0000000E+04;0.0;0.0;0.0;0.0
  2.1600001E+00;  9.9999998E-03;  4.0000001E-01;931;0.0;0.0;0.0;1000.0;  4.0000001E-01;0.0;0;0.0;0.0;0.0;0;0.0;  1.0000000E+04;  0.0000000E+00;  0.0000000E+00;  1.0000000E+04;  0.0000000E+00;  1.0000000E+04;0.0;0.0;0.0;0.0
  2.1800001E+00;  9.9999998E-03; -1.8000001E-01;932;0.0;0.0;0.0;1000.0;  4.0000001E-01;0.0;0;0.0;0.0;0.0;0;0.0;  1.0000000E+04;  0.0000000E+00;  0.0000000E+00;  1.0000000E+04;  0.0000000E+00;  1.0000000E+04;0.0;0.0;0.0;0.0
  2.1800001E+00;  9.9999998E-03; -1.6000000E-01;933;0.0;0.0;0.0;1000.0;  4.0000001E-01;0.0;0;0.0;0.0;0.0;0;0.0;  1.0000000E+04;  0.0000000E+00;  0.0000000E+00;  1.0000000E+04;  0.0000000E+00;  1.0000000E+04;0.0;0.0;0.0;0.0
  2.1800001E+00;  9.9999998E-03; -1.4000000E-01;934;0.0;0.0;0.0;1000.0;  4.0000001E-01;0.0;0;0.0;0.0;0.0;0;0.0;  1.0000000E+04;  0.0000000E+00;  0.0000000E+00;  1.0000000E+04;  0.0000000E+00;  1.0000000E+04;0.0;0.0;0.0;0.0
  2.1800001E+00;  9.9999998E-03; -1.2000000E-01;935;0.0;0.0;0.0;1000.0;  4.0000001E-01;0.0;0;0.0;0.0;0.0;0;0.0;  1.0000000E+04;  0.0000000E+00;  0.0000000E+00;  1.0000000E+04;  0.0000000E+00;  1.0000000E+04;0.0;0.0;0.0;0.0
  2.1800001E+00;  9.9999998E-03; -1.0000000E-01;936;0.0;0.0;0.0;1000.0;  4.0000001E-01;0.0;0;0.0;0.0;0.0;0;0.0;  1.0000000E+04;  0.0000000E+00;  0.0000000E+00;  1.0000000E+04;  0.0000000E+00;  1.0000000E+04;0.0;0.0;0.0;0.0
  2.1800001E+00;  9.9999998E-03; -7.9999998E-02;937;0.0;0.0;0.0;1000.0;  4.0000001E-01;0.0;0;0.0;0.0;0.0;0;0.0;  1.0000000E+04;  0.0000000E+00;  0.0000000E+00;  1.0000000E+04;  0.0000000E+00;  1.0000000E+04;0.0;0.0;0.0;0.0
  2.1800001E+00;  9.9999998E-03; -5.9999999E-02;938;0.0;0.0;0.0;1000.0;  4.0000001E-01;0.0;0;0.0;0.0;0.0;0;0.0;  1.0000000E+04;  0.0000000E+00;  0.0000000E+00;  1.0000000E+04;  0.0000000E+00;  1.0000000E+04;0.0;0.0;0.0;0.0
  2.1800001E+00;  9.9999998E-03; -3.9999999E-02;939;0.0;0.0;0.0;1000.0;  4.0000001E-01;0.0;0;0.0;0.0;0.0;0;0.0;  1.0000000E+04;  0.0000000E+00;  0.0000000E+00;  1.0000000E+04;  0.0000000E+00;  1.0000000E+04;0.0;0.0;0.0;0.0
  2.1800001E+00;  9.9999998E-03; -2.0000000E-02;940;0.0;0.0;0.0;1000.0;  4.0000001E-01;0.0;0;0.0;0.0;0.0;0;0.0;  1.0000000E+04;  0.0000000E+00;  0.0000000E+00;  1.0000000E+04;  0.0000000E+00;  1.0000000E+04;0.0;0.0;0.0;0.0
  2.1800001E+00;  9.9999998E-03;  0.0000000E+00;941;0.0;0.0;0.0;1000.0;  4.0000001E-01;0.0;0;0.0;0.0;0.0;0;0.0;  1.0000000E+04;  0.0000000E+00;  0.0000000E+00;  1.0000000E+04;  0.0000000E+00;  1.0000000E+04;0.0;0.0;0.0;0.0
  2.1800001E+00;  9.9999998E-03;  2.0000000E-02;942;0.0;0.0;0.0;1000.0;  4.0000001E-01;0.0;0;0.0;0.0;0.0;0;0.0;  1.0000000E+04;  0.0000000E+00;  0.0000000E+00;  1.0000000E+04;  0.0000000E+00;  1.0000000E+04;0.0;0.0;0.0;0.0
  2.1800001E+00;  9.9999998E-03;  3.9999999E-02;943;0.0;0.0;0.0;1000.0;  4.0000001E-01;0.0;0;0.0;0.0;0.0;0;0.0;  1.0000000E+04;  0.0000000E+00;  0.0000000E+00;  1.0000000E+04;  0.0000000E+00;  1.0000000E+04;0.0;0.0;0.0;0.0
  2.1800001E+00;  9.9999998E-03;  5.9999999E-02;944;0.0;0.0;0.0;1000.0;  4.0000001E-01;0.0;0;0.0;0.0;0.0;0;0.0;  1.0000000E+04;  0.0000000E+00;  0.0000000E+00;  1.0000000E+04;  0.0000000E+00;  1.0000000E+04;0.0;0.0;0.0;0.0
  2.1800001E+00;  9.9999998E-03;  7.9999998E-02;945;0.0;0.0;0.0;1000.0;  4.0000001E-01;0.0;0;0.0;0.0;0.0;0;0.0;  1.0000000E+04;  0.0000000E+00;  0.0000000E+00;  1.0000000E+04;  0.0000000E+00;  1.0000000E+04;0.0;0.0;0.0;0.0
  2.1800001E+00;  9.9999998E-03;  1.0000000E-01;946;0.0;0.0;0.0;1000.0;  4.0000001E-01;0.0;0;0.0;0.0;0.0;0;0.0;  1.0000000E+04;  0.0000000E+00;  0.0000000E+00;  1.0000000E+04;  0.0000000E+00;  1.0000000E+04;0.0;0.0;0.0;0.0
  2.1800001E+00;  9.9999998E-03;  1.2000000E-01;947;0.0;0.0;0.0;1000.0;  4.0000001E-01;0.0;0;0.0;0.0;0.0;0;0.0;  1.0000000E+04;  0.0000000E+00;  0.0000000E+00;  1.0000000E+04;  0.0000000E+00;  1.0000000E+04;0.0;0.0;0.0;0.0
  2.1800001E+00;  9.9999998E-03;  1.4000000E-01;948;0.0;0.0;0.0;1000.0;  4.0000001E-01;0.0;0;0.0;0.0;0.0;0;0.0;  1.0000000E+04;  0.0000000E+00;  0.0000000E+00;  1.0000000E+04;  0.0000000E+00;  1.0000000E+04;0.0;0.0;0.0;0.0
  2.1800001E+00;  9.9999998E-03;  1.6000000E-01;949;0.0;0.0;0.0;1000.0;  4.0000001E-01;0.0;0;0.0;0.0;0.0;0;0.0;  1.0000000E+04;  0.0000000E+00;  0.0000000E+00;  1.0000000E+04;  0.0000000E+00;  1.0000000E+04;0.0;0.0;0.0;0.0
  2.1800001E+00;  9.9999998E-03;  1.8000001E-01;950;0.0;0.0;0.0;1000.0;  4.0000001E-01;0.0;0;0.0;0.0;0.0;0;0.0;  1.0000000E+04;  0.0000000E+00;  0.0000000E+00;  1.0000000E+04;  0.0000000E+00;  1.0000000E+04;0.0;0.0;0.0;0.0
  2.1800001E+00;  9.9999998E-03;  2.0000000E-01;951;0.0;0.0;0.0;1000.0;  4.0000001E-01;0.0;0;0.0;0.0;0.0;0;0.0;  1.0000000E+04;  0.0000000E+00;  0.0000000E+00;  1.0000000E+04;  0.0000000E+00;  1.0000000E+04;0.0;0.0;0.0;0.0
  2.1800001E+00;  9.9999998E-03;  2.2000000E-01;952;0.0;0.0;0.0;1000.0;  4.0000001E-01;0.0;0;0.0;0.0;0.0;0;0.0;  1.0000000E+04;  0.0000000E+00;  0.0000000E+00;  1.0000000E+04;  0.0000000E+00;  1.0000000E+04;0.0;0.0;0.0;0.0
  2.1800001E+00;  9.9999998E-03;  2.3999999E-01;953;0.0;0.0;0.0;1000.0;  4.0000001E-01;0.0;0;0.0;0.0;0.0;0;0.0;  1.0000000E+04;  0.0000000E+00;  0.0000000E+00;  1.0000000E+04;  0.0000000E+00;  1.0000000E+04;0.0;0.0;0.0;0.0
  2.1800001E+00;  9.9999998E-03;  2.5999999E-01;954;0.0;0.0;0.0;1000.0;  4.0000001E-01;0.0;0;0.0;0.0;0.0;0;0.0;  1.0000000E+04;  0.0000000E+00;  0.0000000E+00;  1.0000000E+04;  0.0000000E+00;  1.0000000E+04;0.0;0.0;0.0;0.0
  2.1800001E+00;  9.9999998E-03;  2.8000000E-01;955;0.0;0.0;0.0;1000.0;  4.0000001E-01;0.0;0;0.0;0.0;0.0;0;0.0;  1.0000000E+04;  0.0000000E+00;  0.0000000E+00;  1.0000000E+04;  0.0000000E+00;  1.0000000E+04;0.0;0.0;0.0;0.0
  2.1800001E+00;  9.9999998E-03;  3.0000001E-01;956;0.0;0.0;0.0;1000.0;  4.0000001E-01;0.0;0;0.0;0.0;0.0;0;0.0;  1.0000000E+04;  0.0000000E+00;  0.0000000E+00;  1.0000000E+04;  0.0000000E+00;  1.0000000E+04;0.0;0.0;0.0;0.0
  2.1800001E+00;  9.9999998E-03;  3.1999999E-01;957;0.0;0.0;0.0;1000.0;  4.0000001E-01;0.0;0;0.0;0.0;0.0;0;0.0;  1.0000000E+04;  0.0000000E+00;  0.0000000E+00;  1.0000000E+04;  0.0000000E+00;  1.0000000E+04;0.0;0.0;0.0;0.0
  2.1800001E+00;  9.9999998E-03;  3.4000000E-01;958;0.0;0.0;0.0;1000.0;  4.0000001E-01;0.0;0;0.0;0.0;0.0;0;0.0;  1.0000000E+04;  0.0000000E+00;  0.0000000E+00;  1.0000000E+04;  0.0000000E+00;  1.0000000E+04;0.0;0.0;0.0;0.0
  2.1800001E+00;  9.9999998E-03;  3.6000001E-01;959;0.0;0.0;0.0;1000.0;  4.0000001E-01;0.0;0;0.0;0.0;0.0;0;0.0;  1.0000000E+04;  0.0000000E+00;  0.0000000E+00;  1.0000000E+04;  0.0000000E+00;  1.0000000E+04;0.0;0.0;0.0;0.0
  2.1800001E+00;  9.9999998E-03;  3.8000000E-01;960;0.0;0.0;0.0;1000.0;  4.0000001E-01;0.0;0;0.0;0.0;0.0;0;0.0;  1.0000000E+04;  0.0000000E+00;  0.0000000E+00;  1.0000000E+04;  0.0000000E+00;  1.0000000E+04;0.0;0.0;0.0;0.0
  2.1800001E+00;  9.9999998E-03;  4.0000001E-01;961;0.0;0.0;0.0;1000.0;  4.0000001E-01;0.0;0;0.0;0.0;0.0;0;0.0;  1.0000000E+04;  0.0000000E+00;  0.0000000E+00;  1.0000000E+04;  0.0000000E+00;  1.0000000E+04;0.0;0.0;0.0;0.0
  2.2000000E+00;  9.9999998E-03; -7.9999998E-02;962;0.0;0.0;0.0;1000.0;  4.0000001E-01;0.0;0;0.0;0.0;0.0;0;0.0;  1.0000000E+04;  0.0000000E+00;  0.0000000E+00;  1.0000000E+04;  0.0000000E+00;  1.0000000E+04;0.0;0.0;0.0;0.0
  2.2000000E+00;  9.9999998E-03; -5.9999999E-02;963;0.0;0.0;0.0;1000.0;  4.0000001E-01;0.0;0;0.0;0.0;0.0;0;0.0;  1.0000000E+04;  0.0000000E+00;  0.0000000E+00;  1.0000000E+04;  0.0000000E+00;  1.0000000E+04;0.0;0.0;0.0;0.0
  2.2000000E+00;  9.9999998E-03; -3.9999999E-02;964;0.0;0.0;0.0;1000.0;  4.0000001E-01;0.0;0;0.0;0.0;0.0;0;0.0;  1.0000000E+04;  0.0000000E+00;  0.0000000E+00;  1.0000000E+04;  0.0000000E+00;  1.0000000E+04;0.0;0.0;0.0;0.0
  2.2000000E+00;  9.9999998E-03; -2.0000000E-02;965;0.0;0.0;0.0;1000.0;  4.0000001E-01;0.0;0;0.0;0.0;0.0;0;0.0;  1.0000000E+04;  0.0000000E+00;  0.0000000E+00;  1.0000000E+04;  0.0000000E+00;  1.0000000E+04;0.0;0.0;0.0;0.0
  2.2000000E+00;  9.9999998E-03;  0.0000000E+00;966;0.0;0.0;0.0;1000.0;  4.0000001E-01;0.0;0;0.0;0.0;0.0;0;0.0;  1.0000000E+04;  0.0000000E+00;  0.0000000E+00;  1.0000000E+04;  0.0000000E+00;  1.0000000E+04;0.0;0.0;0.0;0.0
  2.2000000E+00;  9.9999998E-03;  2.0000000E-02;967;0.0;0.0;0.0;1000.0;  4.0000001E-01;0.0;0;0.0;0.0;0.0;0;0.0;  1.0000000E+04;  0.0000000E+00;  0.0000000E+00;  1.0000000E+04;  0.0000000E+00;  1.0000000E+04;0.0;0.0;0.0;0.0
  2.2000000E+00;  9.9999998E-03;  3.9999999E-02;968;0.0;0.0;0.0;1000.0;  4.0000001E-01;0.0;0;0.0;0.0;0.0;0;0.0;  1.0000000E+04;  0.0000000E+00;  0.0000000E+00;  1.0000000E+04;  0.0000000E+00;  1.0000000E+04;0.0;0.0;0.0;0.0
  2.2000000E+00;  9.9999998E-03;  5.9999999E-02;969;0.0;0.0;0.0;1000.0;  4.0000001E-01;0.0;0;0.0;0.0;0.0;0;0.0;  1.0000000E+04;  0.0000000E+00;  0.0000000E+00;  1.0000000E+04;  0.0000000E+00;  1.0000000E+04;0.0;0.0;0.0;0.0
  2.2000000E+00;  9.9999998E-03;  7.9999998E-02;970;0.0;0.0;0.0;1000.0;  4.0000001E-01;0.0;0;0.0;0.0;0.0;0;0.0;  1.0000000E+04;  0.0000000E+00;  0.0000000E+00;  1.0000000E+04;  0.0000000E+00;  1.0000000E+04;0.0;0.0;0.0;0.0
  2.2000000E+00;  9.9999998E-03;  1.0000000E-01;971;0.0;0.0;0.0;1000.0;  4.0000001E-01;0.0;0;0.0;0.0;0.0;0;0.0;  1.0000000E+04;  0.0000000E+00;  0.0000000E+00;  1.0000000E+04;  0.0000000E+00;  1.0000000E+04;0.0;0.0;0.0;0.0
  2.2000000E+00;  9.9999998E-03;  1.2000000E-01;972;0.0;0.0;0.0;1000.0;  4.0000001E-01;0.0;0;0.0;0.0;0.0;0;0.0;  1.0000000E+04;  0.0000000E+00;  0.0000000E+00;  1.0000000E+04;  0.0000000E+00;  1.0000000E+04;0.0;0.0;0.0;0.0
  2.2000000E+00;  9.9999998E-03;  1.4000000E-01;973;0.0;0.0;0.0;1000.0;  4.0000001E-01;0.0;0;0.0;0.0;0.0;0;0.0;  1.0000000E+04;  0.0000000E+00;  0.0000000E+00;  1.0000000E+04;  0.0000000E+00;  1.0000000E+04;0.0;0.0;0.0;0.0
  2.2000000E+00;  9.9999998E-03;  1.6000000E-01;974;0.0;0.0;0.0;1000.0;  4.0000001E-01;0.0;0;0.0;0.0;0.0;0;0.0;  1.0000000E+04;  0.0000000E+00;  0.0000000E+00;  1.0000000E+04;  0.0000000E+00;  1.0000000E+04;0.0;0.0;0.0;0.0
  2.2000000E+00;  9.9999998E-03;  1.8000001E-01;975;0.0;0.0;0.0;1000.0;  4.0000001E-01;0.0;0;0.0;0.0;0.0;0;0.0;  1.0000000E+04;  0.0000000E+00;  0.0000000E+00;  1.0000000E+04;  0.0000000E+00;  1.0000000E+04;0.0;0.0;0.0;0.0
  2.2000000E+00;  9.9999998E-03;  2.0000000E-01;976;0.0;0.0;0.0;1000.0;  4.0000001E-01;0.0;0;0.0;0.0;0.0;0;0.0;  1.0000000E+04;  0.0000000E+00;  0.0000000E+00;  1.0000000E+04;  0.0000000E+00;  1.0000000E+04;0.0;0.0;0.0;0.0
  2.2000000E+00;  9.9999998E-03;  2.2000000E-01;977;0.0;0.0;0.0;1000.0;  4.0000001E-01;0.0;0;0.0;0.0;0.0;0;0.0;  1.0000000E+04;  0.0000000E+00;  0.0000000E+00;  1.0000000E+04;  0.0000000E+00;  1.0000000E+04;0.0;0.0;0.0;0.0
  2.2000000E+00;  9.9999998E-03;  2.3999999E-01;978;0.0;0.0;0.0;1000.0;  4.0000001E-01;0.0;0;0.0;0.0;0.0;0;0.0;  1.0000000E+04;  0.0000000E+00;  0.0000000E+00;  1.0000000E+04;  0.0000000E+00;  1.0000000E+04;0.0;0.0;0.0;0.0
  2.2000000E+00;  9.9999998E-03;  2.5999999E-01;979;0.0;0.0;0.0;1000.0;  4.0000001E-01;0.0;0;0.0;0.0;0.0;0;0.0;  1.0000000E+04;  0.0000000E+00;  0.0000000E+00;  1.0000000E+04;  0.0000000E+00;  1.0000000E+04;0.0;0.0;0.0;0.0
  2.2000000E+00;  9.9999998E-03;  2.8000000E-01;980;0.0;0.0;0.0;1000.0;  4.0000001E-01;0.0;0;0.0;0.0;0.0;0;0.0;  1.0000000E+04;  0.0000000E+00;  0.0000000E+00;  1.0000000E+04;  0.0000000E+00;  1.0000000E+04;0.0;0.0;0.0;0.0
  2.2000000E+00;  9.9999998E-03;  3.0000001E-01;981;0.0;0.0;0.0;1000.0;  4.0000001E-01;0.0;0;0.0;0.0;0.0;0;0.0;  1.0000000E+04;  0.0000000E+00;  0.0000000E+00;  1.0000000E+04;  0.0000000E+00;  1.0000000E+04;0.0;0.0;0.0;0.0
  2.2000000E+00;  9.9999998E-03;  3.1999999E-01;982;0.0;0.0;0.0;1000.0;  4.0000001E-01;0.0;0;0.0;0.0;0.0;0;0.0;  1.0000000E+04;  0.0000000E+00;  0.0000000E+00;  1.0000000E+04;  0.0000000E+00;  1.0000000E+04;0.0;0.0;0.0;0.0
  2.2000000E+00;  9.9999998E-03;  3.4000000E-01;983;0.0;0.0;0.0;1000.0;  4.0000001E-01;0.0;0;0.0;0.0;0.0;0;0.0;  1.0000000E+04;  0.0000000E+00;  0.0000000E+00;  1.0000000E+04;  0.0000000E+00;  1.0000000E+04;0.0;0.0;0.0;0.0
  2.2000000E+00;  9.9999998E-03;  3.6000001E-01;984;0.0;0.0;0.0;1000.0;  4.0000001E-01;0.0;0;0.0;0.0;0.0;0;0.0;  1.0000000E+04;  0.0000000E+00;  0.0000000E+00;  1.0000000E+04;  0.0000000E+00;  1.0000000E+04;0.0;0.0;0.0;0.0
  2.2000000E+00;  9.9999998E-03;  3.8000000E-01;985;0.0;0.0;0.0;1000.0;  4.0000001E-01;0.0;0;0.0;0.0;0.0;0;0.0;  1.0000000E+04;  0.0000000E+00;  0.0000000E+00;  1.0000000E+04;  0.0000000E+00;  1.0000000E+04;0.0;0.0;0.0;0.0
  2.2200000E+00;  9.9999998E-03;  2.0000000E-02;986;0.0;0.0;0.0;1000.0;  4.0000001E-01;0.0;0;0.0;0.0;0.0;0;0.0;  1.0000000E+04;  0.0000000E+00;  0.0000000E+00;  1.0000000E+04;  0.0000000E+00;  1.0000000E+04;0.0;0.0;0.0;0.0
  2.2200000E+00;  9.9999998E-03;  3.9999999E-02;987;0.0;0.0;0.0;1000.0;  4.0000001E-01;0.0;0;0.0;0.0;0.0;0;0.0;  1.0000000E+04;  0.0000000E+00;  0.0000000E+00;  1.0000000E+04;  0.0000000E+00;  1.0000000E+04;0.0;0.0;0.0;0.0
  2.2200000E+00;  9.9999998E-03;  5.9999999E-02;988;0.0;0.0;0.0;1000.0;  4.0000001E-01;0.0;0;0.0;0.0;0.0;0;0.0;  1.0000000E+04;  0.0000000E+00;  0.0000000E+00;  1.0000000E+04;  0.0000000E+00;  1.0000000E+04;0.0;0.0;0.0;0.0
  2.2200000E+00;  9.9999998E-03;  7.9999998E-02;989;0.0;0.0;0.0;1000.0;  4.0000001E-01;0.0;0;0.0;0.0;0.0;0;0.0;  1.0000000E+04;  0.0000000E+00;  0.0000000E+00;  1.0000000E+04;  0.0000000E+00;  1.0000000E+04;0.0;0.0;0.0;0.0
  2.2200000E+00;  9.9999998E-03;  1.0000000E-01;990;0.0;0.0;0.0;1000.0;  4.0000001E-01;0.0;0;0.0;0.0;0.0;0;0.0;  1.0000000E+04;  0.0000000E+00;  0.0000000E+00;  1.0000000E+04;  0.0000000E+00;  1.0000000E+04;0.0;0.0;0.0;0.0
  2.2200000E+00;  9.9999998E-03;  1.2000000E-01;991;0.0;0.0;0.0;1000.0;  4.0000001E-01;0.0;0;0.0;0.0;0.0;0;0.0;  1.0000000E+04;  0.0000000E+00;  0.0000000E+00;  1.0000000E+04;  0.0000000E+00;  1.0000000E+04;0.0;0.0;0.0;0.0
  2.2200000E+00;  9.9999998E-03;  1.4000000E-01;992;0.0;0.0;0.0;1000.0;  4.0000001E-01;0.0;0;0.0;0.0;0.0;0;0.0;  1.0000000E+04;  0.0000000E+00;  0.0000000E+00;  1.0000000E+04;  0.0000000E+00;  1.0000000E+04;0.0;0.0;0.0;0.0
  2.2200000E+00;  9.9999998E-03;  1.6000000E-01;993;0.0;0.0;0.0;1000.0;  4.0000001E-01;0.0;0;0.0;0.0;0.0;0;0.0;  1.0000000E+04;  0.0000000E+00;  0.0000000E+00;  1.0000000E+04;  0.0000000E+00;  1.0000000E+04;0.0;0.0;0.0;0.0
  2.2200000E+00;  9.9999998E-03;  1.8000001E-01;994;0.0;0.0;0.0;1000.0;  4.0000001E-01;0.0;0;0.0;0.0;0.0;0;0.0;  1.0000000E+04;  0.0000000E+00;  0.0000000E+00;  1.0000000E+04;  0.0000000E+00;  1.0000000E+04;0.0;0.0;0.0;0.0
  2.2200000E+00;  9.9999998E-03;  2.0000000E-01;995;0.0;0.0;0.0;1000.0;  4.0000001E-01;0.0;0;0.0;0.0;0.0;0;0.0;  1.0000000E+04;  0.0000000E+00;  0.0000000E+00;  1.0000000E+04;  0.0000000E+00;  1.0000000E+04;0.0;0.0;0.0;0.0
  2.2200000E+00;  9.9999998E-03;  2.2000000E-01;996;0.0;0.0;0.0;1000.0;  4.0000001E-01;0.0;0;0.0;0.0;0.0;0;0.0;  1.0000000E+04;  0.0000000E+00;  0.0000000E+00;  1.0000000E+04;  0.0000000E+00;  1.0000000E+04;0.0;0.0;0.0;0.0
  2.2200000E+00;  9.9999998E-03;  2.3999999E-01;997;0.0;0.0;0.0;1000.0;  4.0000001E-01;0.0;0;0.0;0.0;0.0;0;0.0;  1.0000000E+04;  0.0000000E+00;  0.0000000E+00;  1.0000000E+04;  0.0000000E+00;  1.0000000E+04;0.0;0.0;0.0;0.0
  2.2200000E+00;  9.9999998E-03;  2.5999999E-01;998;0.0;0.0;0.0;1000.0;  4.0000001E-01;0.0;0;0.0;0.0;0.0;0;0.0;  1.0000000E+04;  0.0000000E+00;  0.0000000E+00;  1.0000000E+04;  0.0000000E+00;  1.0000000E+04;0.0;0.0;0.0;0.0
  2.2200000E+00;  9.9999998E-03;  2.8000000E-01;999;0.0;0.0;0.0;1000.0;  4.0000001E-01;0.0;0;0.0;0.0;0.0;0;0.0;  1.0000000E+04;  0.0000000E+00;  0.0000000E+00;  1.0000000E+04;  0.0000000E+00;  1.0000000E+04;0.0;0.0;0.0;0.0
  2.2200000E+00;  9.9999998E-03;  3.0000001E-01;1000;0.0;0.0;0.0;1000.0;  4.0000001E-01;0.0;0;0.0;0.0;0.0;0;0.0;  1.0000000E+04;  0.0000000E+00;  0.0000000E+00;  1.0000000E+04;  0.0000000E+00;  1.0000000E+04;0.0;0.0;0.0;0.0
  2.2200000E+00;  9.9999998E-03;  3.1999999E-01;1001;0.0;0.0;0.0;1000.0;  4.0000001E-01;0.0;0;0.0;0.0;0.0;0;0.0;  1.0000000E+04;  0.0000000E+00;  0.0000000E+00;  1.0000000E+04;  0.0000000E+00;  1.0000000E+04;0.0;0.0;0.0;0.0
  2.2200000E+00;  9.9999998E-03;  3.4000000E-01;1002;0.0;0.0;0.0;1000.0;  4.0000001E-01;0.0;0;0.0;0.0;0.0;0;0.0;  1.0000000E+04;  0.0000000E+00;  0.0000000E+00;  1.0000000E+04;  0.0000000E+00;  1.0000000E+04;0.0;0.0;0.0;0.0
  2.2200000E+00;  9.9999998E-03;  3.6000001E-01;1003;0.0;0.0;0.0;1000.0;  4.0000001E-01;0.0;0;0.0;0.0;0.0;0;0.0;  1.0000000E+04;  0.0000000E+00;  0.0000000E+00;  1.0000000E+04;  0.0000000E+00;  1.0000000E+04;0.0;0.0;0.0;0.0
  2.2200000E+00;  9.9999998E-03;  3.8000000E-01;1004;0.0;0.0;0.0;1000.0;  4.0000001E-01;0.0;0;0.0;0.0;0.0;0;0.0;  1.0000000E+04;  0.0000000E+00;  0.0000000E+00;  1.0000000E+04;  0.0000000E+00;  1.0000000E+04;0.0;0.0;0.0;0.0
  2.2400000E+00;  9.9999998E-03;  1.2000000E-01;1005;0.0;0.0;0.0;1000.0;  4.0000001E-01;0.0;0;0.0;0.0;0.0;0;0.0;  1.0000000E+04;  0.0000000E+00;  0.0000000E+00;  1.0000000E+04;  0.0000000E+00;  1.0000000E+04;0.0;0.0;0.0;0.0
  2.2400000E+00;  9.9999998E-03;  1.4000000E-01;1006;0.0;0.0;0.0;1000.0;  4.0000001E-01;0.0;0;0.0;0.0;0.0;0;0.0;  1.0000000E+04;  0.0000000E+00;  0.0000000E+00;  1.0000000E+04;  0.0000000E+00;  1.0000000E+04;0.0;0.0;0.0;0.0
  2.2400000E+00;  9.9999998E-03;  1.6000000E-01;1007;0.0;0.0;0.0;1000.0;  4.0000001E-01;0.0;0;0.0;0.0;0.0;0;0.0;  1.0000000E+04;  0.0000000E+00;  0.0000000E+00;  1.0000000E+04;  0.0000000E+00;  1.0000000E+04;0.0;0.0;0.0;0.0
  2.2400000E+00;  9.9999998E-03;  1.8000001E-01;1008;0.0;0.0;0.0;1000.0;  4.0000001E-01;0.0;0;0.0;0.0;0.0;0;0.0;  1.0000000E+04;  0.0000000E+00;  0.0000000E+00;  1.0000000E+04;  0.0000000E+00;  1.0000000E+04;0.0;0.0;0.0;0.0
  2.2400000E+00;  9.9999998E-03;  2.0000000E-01;1009;0.0;0.0;0.0;1000.0;  4.0000001E-01;0.0;0;0.0;0.0;0.0;0;0.0;  1.0000000E+04;  0.0000000E+00;  0.0000000E+00;  1.0000000E+04;  0.0000000E+00;  1.0000000E+04;0.0;0.0;0.0;0.0
  2.2400000E+00;  9.9999998E-03;  2.2000000E-01;1010;0.0;0.0;0.0;1000.0;  4.0000001E-01;0.0;0;0.0;0.0;0.0;0;0.0;  1.0000000E+04;  0.0000000E+00;  0.0000000E+00;  1.0000000E+04;  0.0000000E+00;  1.0000000E+04;0.0;0.0;0.0;0.0
  2.2400000E+00;  9.9999998E-03;  2.3999999E-01;1011;0.0;0.0;0.0;1000.0;  4.0000001E-01;0.0;0;0.0;0.0;0.0;0;0.0;  1.0000000E+04;  0.0000000E+00;  0.0000000E+00;  1.0000000E+04;  0.0000000E+00;  1.0000000E+04;0.0;0.0;0.0;0.0
  2.2400000E+00;  9.9999998E-03;  2.5999999E-01;1012;0.0;0.0;0.0;1000.0;  4.0000001E-01;0.0;0;0.0;0.0;0.0;0;0.0;  1.0000000E+04;  0.0000000E+00;  0.0000000E+00;  1.0000000E+04;  0.0000000E+00;  1.0000000E+04;0.0;0.0;0.0;0.0
  2.2400000E+00;  9.9999998E-03;  2.8000000E-01;1013;0.0;0.0;0.0;1000.0;  4.0000001E-01;0.0;0;0.0;0.0;0.0;0;0.0;  1.0000000E+04;  0.0000000E+00;  0.0000000E+00;  1.0000000E+04;  0.0000000E+00;  1.0000000E+04;0.0;0.0;0.0;0.0
  2.2400000E+00;  9.9999998E-03;  3.0000001E-01;1014;0.0;0.0;0.0;1000.0;  4.0000001E-01;0.0;0;0.0;0.0;0.0;0;0.0;  1.0000000E+04;  0.0000000E+00;  0.0000000E+00;  1.0000000E+04;  0.0000000E+00;  1.0000000E+04;0.0;0.0;0.0;0.0
  2.2400000E+00;  9.9999998E-03;  3.1999999E-01;1015;0.0;0.0;0.0;1000.0;  4.0000001E-01;0.0;0;0.0;0.0;0.0;0;0.0;  1.0000000E+04;  0.0000000E+00;  0.0000000E+00;  1.0000000E+04;  0.0000000E+00;  1.0000000E+04;0.0;0.0;0.0;0.0
  2.2400000E+00;  9.9999998E-03;  3.4000000E-01;1016;0.0;0.0;0.0;1000.0;  4.0000001E-01;0.0;0;0.0;0.0;0.0;0;0.0;  1.0000000E+04;  0.0000000E+00;  0.0000000E+00;  1.0000000E+04;  0.0000000E+00;  1.0000000E+04;0.0;0.0;0.0;0.0
  2.2400000E+00;  9.9999998E-03;  3.6000001E-01;1017;0.0;0.0;0.0;1000.0;  4.0000001E-01;0.0;0;0.0;0.0;0.0;0;0.0;  1.0000000E+04;  0.0000000E+00;  0.0000000E+00;  1.0000000E+04;  0.0000000E+00;  1.0000000E+04;0.0;0.0;0.0;0.0
  2.2400000E+00;  9.9999998E-03;  3.8000000E-01;1018;0.0;0.0;0.0;1000.0;  4.0000001E-01;0.0;0;0.0;0.0;0.0;0;0.0;  1.0000000E+04;  0.0000000E+00;  0.0000000E+00;  1.0000000E+04;  0.0000000E+00;  1.0000000E+04;0.0;0.0;0.0;0.0
  2.2600000E+00;  9.9999998E-03;  2.2000000E-01;1019;0.0;0.0;0.0;1000.0;  4.0000001E-01;0.0;0;0.0;0.0;0.0;0;0.0;  1.0000000E+04;  0.0000000E+00;  0.0000000E+00;  1.0000000E+04;  0.0000000E+00;  1.0000000E+04;0.0;0.0;0.0;0.0
  2.2600000E+00;  9.9999998E-03;  2.3999999E-01;1020;0.0;0.0;0.0;1000.0;  4.0000001E-01;0.0;0;0.0;0.0;0.0;0;0.0;  1.0000000E+04;  0.0000000E+00;  0.0000000E+00;  1.0000000E+04;  0.0000000E+00;  1.0000000E+04;0.0;0.0;0.0;0.0
  2.2600000E+00;  9.9999998E-03;  2.5999999E-01;1021;0.0;0.0;0.0;1000.0;  4.0000001E-01;0.0;0;0.0;0.0;0.0;0;0.0;  1.0000000E+04;  0.0000000E+00;  0.0000000E+00;  1.0000000E+04;  0.0000000E+00;  1.0000000E+04;0.0;0.0;0.0;0.0
  2.2600000E+00;  9.9999998E-03;  2.8000000E-01;1022;0.0;0.0;0.0;1000.0;  4.0000001E-01;0.0;0;0.0;0.0;0.0;0;0.0;  1.0000000E+04;  0.0000000E+00;  0.0000000E+00;  1.0000000E+04;  0.0000000E+00;  1.0000000E+04;0.0;0.0;0.0;0.0
  2.2600000E+00;  9.9999998E-03;  3.0000001E-01;1023;0.0;0.0;0.0;1000.0;  4.0000001E-01;0.0;0;0.0;0.0;0.0;0;0.0;  1.0000000E+04;  0.0000000E+00;  0.0000000E+00;  1.0000000E+04;  0.0000000E+00;  1.0000000E+04;0.0;0.0;0.0;0.0
  2.2600000E+00;  9.9999998E-03;  3.1999999E-01;1024;0.0;0.0;0.0;1000.0;  4.0000001E-01;0.0;0;0.0;0.0;0.0;0;0.0;  1.0000000E+04;  0.0000000E+00;  0.0000000E+00;  1.0000000E+04;  0.0000000E+00;  1.0000000E+04;0.0;0.0;0.0;0.0
  2.2600000E+00;  9.9999998E-03;  3.4000000E-01;1025;0.0;0.0;0.0;1000.0;  4.0000001E-01;0.0;0;0.0;0.0;0.0;0;0.0;  1.0000000E+04;  0.0000000E+00;  0.0000000E+00;  1.0000000E+04;  0.0000000E+00;  1.0000000E+04;0.0;0.0;0.0;0.0
  2.2600000E+00;  9.9999998E-03;  3.6000001E-01;1026;0.0;0.0;0.0;1000.0;  4.0000001E-01;0.0;0;0.0;0.0;0.0;0;0.0;  1.0000000E+04;  0.0000000E+00;  0.0000000E+00;  1.0000000E+04;  0.0000000E+00;  1.0000000E+04;0.0;0.0;0.0;0.0
  2.2600000E+00;  9.9999998E-03;  3.8000000E-01;1027;0.0;0.0;0.0;1000.0;  4.0000001E-01;0.0;0;0.0;0.0;0.0;0;0.0;  1.0000000E+04;  0.0000000E+00;  0.0000000E+00;  1.0000000E+04;  0.0000000E+00;  1.0000000E+04;0.0;0.0;0.0;0.0
  2.2800000E+00;  9.9999998E-03;  3.1999999E-01;1028;0.0;0.0;0.0;1000.0;  4.0000001E-01;0.0;0;0.0;0.0;0.0;0;0.0;  1.0000000E+04;  0.0000000E+00;  0.0000000E+00;  1.0000000E+04;  0.0000000E+00;  1.0000000E+04;0.0;0.0;0.0;0.0
  2.2800000E+00;  9.9999998E-03;  3.4000000E-01;1029;0.0;0.0;0.0;1000.0;  4.0000001E-01;0.0;0;0.0;0.0;0.0;0;0.0;  1.0000000E+04;  0.0000000E+00;  0.0000000E+00;  1.0000000E+04;  0.0000000E+00;  1.0000000E+04;0.0;0.0;0.0;0.0
  2.2800000E+00;  9.9999998E-03;  3.6000001E-01;1030;0.0;0.0;0.0;1000.0;  4.0000001E-01;0.0;0;0.0;0.0;0.0;0;0.0;  1.0000000E+04;  0.0000000E+00;  0.0000000E+00;  1.0000000E+04;  0.0000000E+00;  1.0000000E+04;0.0;0.0;0.0;0.0
 -6.0564325E-06;  9.9999998E-03; -2.8000236E-01;1031;-0.0031998283;0.0;-0.0012735019;1000.1298;  4.0000001E-01;107.5525;3;-2.068881;0.0;-0.84200621;0;-0.063905373;  1.0002399E+04;  0.0000000E+00; -3.0591800E-06;  1.0000000E+04;  0.0000000E+00;  1.0000198E+04;-0.058780566;0.0;-0.005124806;81.595009
 -7.3980968E-06;  9.9999998E-03; -2.6000229E-01;1032;-0.0039259121;0.0;-0.0012370234;1000.1552;  4.0000001E-01;128.58894;3;-2.4120817;0.0;-0.77935219;0;-0.076578319;  1.0003019E+04;  0.0000000E+00; -1.2973284E-06;  1.0000000E+04;  0.0000000E+00;  1.0000091E+04;-0.074022174;0.0;-0.0025561419;29.83206
 -8.5385691E-06;  9.9999998E-03; -2.4000208E-01;1033;-0.0045480742;0.0;-0.0011369777;1000.1765;  4.0000001E-01;146.26744;3;-2.6988659;0.0;-0.69788504;0;-0.087185323;  1.0003548E+04;  0.0000000E+00; -2.5768742E-07;  1.0000000E+04;  0.0000000E+00;  9.9999844E+03;-0.087256581;0.0;7.1254326e-05;22.203274
 -9.4365305E-06;  9.9999998E-03; -2.2000182E-01;1034;-0.0050446936;0.0;-0.001002014;1000.1933;  4.0000001E-01;160.19298;3;-2.9395361;0.0;-0.61141729;0;-0.0957077;  1.0003967E+04;  0.0000000E+00;  5.8228778E-08;  1.0000000E+04;  0.0000000E+00;  9.9998994E+03;-0.097846605;0.0;0.0021389048;62.564148
 -1.0101617E-05;  9.9999998E-03; -2.0000152E-01;1035;-0.0054157428;0.0;-0.00085759291;1000.2062;  4.0000001E-01;170.85934;3;-3.1350842;0.0;-0.53036153;0;-0.10236499;  1.0004276E+04;  0.0000000E+00;  1.2928298E-08;  1.0000000E+04;  0.0000000E+00;  9.9998506E+03;-0.10578649;0.0;0.0034214961;86.933472
  1.9994078E-02;  9.9999998E-03; -3.0000308E-01;1060;-0.0030725347;0.0;-0.001645817;1000.1245;  4.0000001E-01;103.10818;3;-1.9601583;0.0;-1.0812898;0;-0.060383238;  1.0002146E+04;  0.0000000E+00; -3.3858253E-06;  1.0000000E+04;  0.0000000E+00;  1.0000346E+04;-0.051773068;0.0;-0.0086101685;150.56277
  1.9991646E-02;  9.9999998E-03; -2.8000286E-01;1061;-0.0043689292;0.0;-0.0015244993;1000.158;  4.0000001E-01;130.86047;3;-2.5665779;0.0;-0.91673326;0;-0.076652341;  1.0002907E+04;  0.0000000E+00; -1.2278275E-06;  1.0000000E+04;  0.0000000E+00;  1.0000248E+04;-0.070198797;0.0;-0.0064535467;104.21901
  1.9989556E-02;  9.9999998E-03; -2.6000285E-01;1062;-0.0054907561;0.0;-0.0015288197;1000.1868;  4.0000001E-01;154.76103;3;-3.006237;0.0;-0.86184549;0;-0.090883873;  1.0003628E+04;  0.0000000E+00;  6.9434708E-07;  1.0000000E+04;  0.0000000E+00;  1.0000110E+04;-0.087753624;0.0;-0.0031302471;36.324558
  1.9987861E-02;  9.9999998E-03; -2.4000268E-01;1063;-0.00640806;0.0;-0.001448755;1000.2106;  4.0000001E-01;174.41479;3;-3.3416138;0.0;-0.78840971;0;-0.10265329;  1.0004240E+04;  0.0000000E+00;  1.5261265E-06;  1.0000000E+04;  0.0000000E+00;  9.9999727E+03;-0.10284251;0.0;0.0001892217;30.38789
  1.9986570E-02;  9.9999998E-03; -2.2000238E-01;1064;-0.0071144211;0.0;-0.0013073001;1000.2292;  4.0000001E-01;189.92053;3;-3.6147118;0.0;-0.70553172;0;-0.11198528;  1.0004721E+04;  0.0000000E+00;  1.3916531E-06;  1.0000000E+04;  0.0000000E+00;  9.9998652E+03;-0.11476552;0.0;0.0027802412;81.566879
  1.9985642E-02;  9.9999998E-03; -2.0000203E-01;1065;-0.0076284427;0.0;-0.0011366089;1000.2435;  4.0000001E-01;201.67328;3;-3.8391495;0.0;-0.62366259;0;-0.11918307;  1.0005069E+04;  0.0000000E+00;  8.6770723E-07;  1.0000000E+04;  0.0000000E+00;  9.9998018E+03;-0.12357153;0.0;0.0043884576;112.23257
  3.9991774E-02;  9.9999998E-03; -3.0000338E-01;1091;-0.004231181;0.0;-0.0017596215;1000.1456;  4.0000001E-01;120.68793;3;-2.535634;0.0;-1.0830278;0;-0.069341242;  1.0002499E+04;  0.0000000E+00; -2.6438240E-06;  1.0000000E+04;  0.0000000E+00;  1.0000415E+04;-0.059168942;0.0;-0.0101723;181.28355
  3.9988425E-02;  9.9999998E-03; -2.8000322E-01;1092;-0.0060020019;0.0;-0.0016728893;1000.1829;  4.0000001E-01;151.50186;3;-3.2459536;0.0;-0.92136812;0;-0.087259024;  1.0003367E+04;  0.0000000E+00; -8.8113774E-07;  1.0000000E+04;  0.0000000E+00;  1.0000291E+04;-0.079849653;0.0;-0.0074093752;121.2602
  3.9985538E-02;  9.9999998E-03; -2.6000318E-01;1093;-0.007538259;0.0;-0.0016575489;1000.2151;  4.0000001E-01;178.16777;3;-3.7320614;0.0;-0.84201288;0;-0.10278079;  1.0004181E+04;  0.0000000E+00;  1.0112940E-06;  1.0000000E+04;  0.0000000E+00;  1.0000120E+04;-0.099285074;0.0;-0.0034957193;39.460255
  3.9983187E-02;  9.9999998E-03; -2.4000297E-01;1094;-0.0088002542;0.0;-0.0015803614;1000.241;  4.0000001E-01;199.59926;3;-4.0980129;0.0;-0.7693069;0;-0.11538125;  1.0004861E+04;  0.0000000E+00;  1.9642644E-06;  1.0000000E+04;  0.0000000E+00;  9.9999600E+03;-0.11569972;0.0;0.0003184746;39.01062
  3.9981432E-02;  9.9999998E-03; -2.2000268E-01;1095;-0.0097548505;0.0;-0.0014550146;1000.2606;  4.0000001E-01;215.8951;3;-4.3960581;0.0;-0.70330191;0;-0.12515114;  1.0005382E+04;  0.0000000E+00;  1.8801013E-06;  1.0000000E+04;  0.0000000E+00;  9.9998350E+03;-0.12841487;0.0;0.0032637317;98.356972
  3.9980188E-02;  9.9999998E-03; -2.0000230E-01;1096;-0.010440328;0.0;-0.0012800877;1000.2755;  4.0000001E-01;228.24042;3;-4.6504879;0.0;-0.63213766;0;-0.1325119;  1.0005747E+04;  0.0000000E+00;  1.3347234E-06;  1.0000000E+04;  0.0000000E+00;  9.9997627E+03;-0.13759688;0.0;0.0050849747;133.42815
  5.9988927E-02;  9.9999998E-03; -3.0000353E-01;1122;-0.0056449957;0.0;-0.0017926681;1000.1662;  4.0000001E-01;137.67509;3;-3.231657;0.0;-1.0409851;0;-0.077442206;  1.0002861E+04;  0.0000000E+00; -2.9572120E-05;  1.0000000E+04;  0.0000000E+00;  1.0000463E+04;-0.06631726;0.0;-0.011124947;202.63812
  5.9984513E-02;  9.9999998E-03; -2.8000334E-01;1123;-0.007954265;0.0;-0.00167846;1000.208;  4.0000001E-01;172.34077;3;-4.0434122;0.0;-0.85466957;0;-0.097021975;  1.0003842E+04;  0.0000000E+00; -1.0730078E-05;  1.0000000E+04;  0.0000000E+00;  1.0000314E+04;-0.089097209;0.0;-0.0079247626;131.37407
  5.9980772E-02;  9.9999998E-03; -2.6000330E-01;1124;-0.0099208076;0.0;-0.00167644;1000.2433;  4.0000001E-01;201.57451;3;-4.5515947;0.0;-0.78023338;0;-0.1138197;  1.0004742E+04;  0.0000000E+00; -2.3580260E-06;  1.0000000E+04;  0.0000000E+00;  1.0000126E+04;-0.11019085;0.0;-0.0036288467;38.648029
  5.9977755E-02;  9.9999998E-03; -2.4000312E-01;1125;-0.011523599;0.0;-0.001615687;1000.2712;  4.0000001E-01;224.68497;3;-4.9258518;0.0;-0.71909904;0;-0.12719244;  1.0005482E+04;  0.0000000E+00; -4.3829613E-07;  1.0000000E+04;  0.0000000E+00;  9.9999473E+03;-0.12764007;0.0;0.00044762855;48.056847
  5.9975516E-02;  9.9999998E-03; -2.2000283E-01;1126;-0.012730059;0.0;-0.0015033877;1000.2922;  4.0000001E-01;242.06718;3;-5.2402124;0.0;-0.66876364;0;-0.13727723;  1.0006034E+04;  0.0000000E+00;  5.8895336E-07;  1.0000000E+04;  0.0000000E+00;  9.9998115E+03;-0.14081816;0.0;0.0035409317;112.28099
  5.9973963E-02;  9.9999998E-03; -2.0000243E-01;1127;-0.013584408;0.0;-0.0013355967;1000.307;  4.0000001E-01;254.31375;3;-5.5224705;0.0;-0.61069;0;-0.14462899;  1.0006410E+04;  0.0000000E+00;  8.5089499E-07;  1.0000000E+04;  0.0000000E+00;  9.9997344E+03;-0.15006004;0.0;0.0054310588;149.33682
  7.9985589E-02;  9.9999998E-03; -3.0000371E-01;1153;-0.0072717178;0.0;-0.0018027592;1000.1901;  4.0000001E-01;157.42763;3;-4.0373201;0.0;-0.99629307;0;-0.086304404;  1.0003306E+04;  0.0000000E+00; -2.6659069E-03;  1.0000000E+04;  0.0000000E+00;  1.0000492E+04;-0.074801609;0.0;-0.011502797;215.42519
  7.9979986E-02;  9.9999998E-03; -2.8000337E-01;1154;-0.01016031;0.0;-0.0016127848;1000.2364;  4.0000001E-01;195.84628;3;-4.9540029;0.0;-0.76808453;0;-0.10762382;  1.0004402E+04;  0.0000000E+00; -1.4988155E-03;  1.0000000E+04;  0.0000000E+00;  1.0000329E+04;-0.099598132;0.0;-0.0080256937;134.93639
  7.9975337E-02;  9.9999998E-03; -2.6000330E-01;1155;-0.012570176;0.0;-0.0016112204;1000.2753;  4.0000001E-01;228.14166;3;-5.4808741;0.0;-0.69886541;0;-0.12570629;  1.0005387E+04;  0.0000000E+00; -5.2499061E-04;  1.0000000E+04;  0.0000000E+00;  1.0000119E+04;-0.12215163;0.0;-0.0035546646;34.154583
  7.9971649E-02;  9.9999998E-03; -2.4000312E-01;1156;-0.01450668;0.0;-0.0015639354;1000.3056;  4.0000001E-01;253.22737;3;-5.8584194;0.0;-0.65155387;0;-0.13987389;  1.0006182E+04;  0.0000000E+00; -6.1928178E-05;  1.0000000E+04;  0.0000000E+00;  9.9999326E+03;-0.14043418;0.0;0.00056029018;57.488167
  7.9968952E-02;  9.9999998E-03; -2.2000284E-01;1157;-0.015943309;0.0;-0.0014717594;1000.3277;  4.0000001E-01;271.49844;3;-6.1858654;0.0;-0.61793041;0;-0.15029082;  1.0006757E+04;  0.0000000E+00; -2.9733744E-06;  1.0000000E+04;  0.0000000E+00;  9.9997949E+03;-0.15389851;0.0;0.0036076955;123.49963
  7.9967111E-02;  9.9999998E-03; -2.0000246E-01;1158;-0.016948614;0.0;-0.0013186829;1000.3423;  4.0000001E-01;283.54749;3;-6.4931736;0.0;-0.57584572;0;-0.15759131;  1.0007130E+04;  0.0000000E+00; -7.0468309E-07;  1.0000000E+04;  0.0000000E+00;  9.9997207E+03;-0.16302569;0.0;0.0054343827;160.33722
  9.9981658E-02;  9.9999998E-03; -3.0000392E-01;1184;-0.0091362363;0.0;-0.0018283878;1000.2232;  4.0000001E-01;184.88364;3;-4.9714956;0.0;-0.97060299;0;-0.098903783;  1.0003956E+04;  0.0000000E+00; -2.3518393E-02;  1.0000000E+04;  0.0000000E+00;  1.0000509E+04;-0.087416343;0.0;-0.011487437;253.56152
  9.9974737E-02;  9.9999998E-03; -2.8000334E-01;1185;-0.012646487;0.0;-0.0015061478;1000.2745;  4.0000001E-01;227.45032;3;-6.0045743;0.0;-0.67376232;0;-0.12172838;  1.0005156E+04;  0.0000000E+00; -1.4905409E-02;  1.0000000E+04;  0.0000000E+00;  1.0000331E+04;-0.11387958;0.0;-0.0078487899;154.66971
  9.9969149E-02;  9.9999998E-03; -2.6000321E-01;1186;-0.015501716;0.0;-0.0014814931;1000.3161;  4.0000001E-01;261.91849;3;-6.5467391;0.0;-0.6030798;0;-0.14057223;  1.0006213E+04;  0.0000000E+00; -6.8859914E-03;  1.0000000E+04;  0.0000000E+00;  1.0000110E+04;-0.13722584;0.0;-0.0033463994;44.991226
  9.9964790E-02;  9.9999998E-03; -2.4000302E-01;1187;-0.017755097;0.0;-0.0014445081;1000.3475;  4.0000001E-01;287.89304;3;-6.9233003;0.0;-0.57010221;0;-0.15508649;  1.0007037E+04;  0.0000000E+00; -1.9063759E-03;  1.0000000E+04;  0.0000000E+00;  9.9999199E+03;-0.15572086;0.0;0.0006343727;68.116562
  9.9961668E-02;  9.9999998E-03; -2.2000276E-01;1188;-0.019400736;0.0;-0.0013799055;1000.3702;  4.0000001E-01;306.65796;3;-7.2614832;0.0;-0.55656588;0;-0.16561444;  1.0007616E+04;  0.0000000E+00; -2.1854379E-04;  1.0000000E+04;  0.0000000E+00;  9.9997842E+03;-0.16909979;0.0;0.0034853471;132.72563
  9.9959582E-02;  9.9999998E-03; -2.0000239E-01;1189;-0.020533955;0.0;-0.0012527717;1000.3849;  4.0000001E-01;318.90451;3;-7.5919127;0.0;-0.53341699;0;-0.17280054;  1.0007990E+04;  0.0000000E+00; -3.3425547E-06;  1.0000000E+04;  0.0000000E+00;  9.9997119E+03;-0.17795967;0.0;0.0051591196;167.85023
  1.1997697E-01;  9.9999998E-03; -3.0000430E-01;1215;-0.011294909;0.0;-0.0019404714;1000.2764;  4.0000001E-01;229.03052;3;-6.0535536;0.0;-1.0070591;0;-0.11955447;  1.0005007E+04;  0.0000000E+00; -9.8693356E-02;  1.0000000E+04;  0.0000000E+00;  1.0000522E+04;-0.10821921;0.0;-0.011335256;569.28571
  1.1996860E-01;  9.9999998E-03; -2.8000334E-01;1216;-0.015477346;0.0;-0.0014139073;1000.3304;  4.0000001E-01;273.67123;3;-7.2122812;0.0;-0.59794044;0;-0.14308685;  1.0006280E+04;  0.0000000E+00; -6.7639209E-02;  1.0000000E+04;  0.0000000E+00;  1.0000328E+04;-0.13546711;0.0;-0.0076197372;381.20169
  1.1996203E-01;  9.9999998E-03; -2.6000306E-01;1217;-0.0187764;0.0;-0.0013295793;1000.3715;  4.0000001E-01;307.74432;3;-7.7548904;0.0;-0.50797653;0;-0.16104394;  1.0007328E+04;  0.0000000E+00; -3.4081671E-02;  1.0000000E+04;  0.0000000E+00;  1.0000097E+04;-0.15793903;0.0;-0.0031049177;181.43222
  1.1995701E-01;  9.9999998E-03; -2.4000286E-01;1218;-0.021332704;0.0;-0.0012947887;1000.4011;  4.0000001E-01;332.33624;3;-8.1249123;0.0;-0.48323202;0;-0.17447309;  1.0008119E+04;  0.0000000E+00; -1.1887254E-02;  1.0000000E+04;  0.0000000E+00;  9.9999033E+03;-0.17515799;0.0;0.00068490766;101.08536
  1.1995349E-01;  9.9999998E-03; -2.2000264E-01;1219;-0.02317429;0.0;-0.0012579461;1000.4221;  4.0000001E-01;349.61969;3;-8.4705219;0.0;-0.48851717;0;-0.18419495;  1.0008673E+04;  0.0000000E+00; -2.3931481E-03;  1.0000000E+04;  0.0000000E+00;  9.9997725E+03;-0.18745819;0.0;0.0032632384;142.88678
  1.1995119E-01;  9.9999998E-03; -2.0000230E-01;1220;-0.02441889;0.0;-0.001168437;1000.4362;  4.0000001E-01;361.37244;3;-8.8205814;0.0;-0.48762882;0;-0.19084625;  1.0009016E+04;  0.0000000E+00; -1.7381762E-04;  1.0000000E+04;  0.0000000E+00;  9.9997070E+03;-0.19558276;0.0;0.0047365162;174.7388
  1.3997130E-01;  9.9999998E-03; -3.0000496E-01;1246;-0.013835006;0.0;-0.002210489;1000.3624;  4.0000001E-01;300.23837;3;-7.313302;0.0;-1.1439972;0;-0.15352298;  1.0006704E+04;  0.0000000E+00; -2.8662938E-01;  1.0000000E+04;  0.0000000E+00;  1.0000544E+04;-0.14223127;0.0;-0.011291718;1538.6379
  1.3996135E-01;  9.9999998E-03; -2.8000349E-01;1247;-0.018731236;0.0;-0.0014066785;1000.415;  4.0000001E-01;343.79269;3;-8.5917091;0.0;-0.57011223;0;-0.17579648;  1.0007963E+04;  0.0000000E+00; -2.0174961E-01;  1.0000000E+04;  0.0000000E+00;  1.0000338E+04;-0.16817056;0.0;-0.0076259272;1078.4812
  1.3995378E-01;  9.9999998E-03; -2.6000306E-01;1248;-0.022465393;0.0;-0.0012293963;1000.4475;  4.0000001E-01;370.75488;3;-9.1127701;0.0;-0.43264675;0;-0.18963683;  1.0008872E+04;  0.0000000E+00; -1.0572495E-01;  1.0000000E+04;  0.0000000E+00;  1.0000083E+04;-0.18670106;0.0;-0.0029357669;561.19067
  1.3994807E-01;  9.9999998E-03; -2.4000275E-01;1249;-0.025329603;0.0;-0.0011710135;1000.4697;  4.0000001E-01;389.12473;3;-9.45327;0.0;-0.41409874;0;-0.19926916;  1.0009516E+04;  0.0000000E+00; -4.0307298E-02;  1.0000000E+04;  0.0000000E+00;  9.9998799E+03;-0.20006838;0.0;0.00079921773;234.49228
  1.3994417E-01;  9.9999998E-03; -2.2000256E-01;1250;-0.027352709;0.0;-0.0011638991;1000.4855;  4.0000001E-01;402.16141;3;-9.7984304;0.0;-0.43071079;0;-0.20643896;  1.0009955E+04;  0.0000000E+00; -1.0100732E-02;  1.0000000E+04;  0.0000000E+00;  9.9997529E+03;-0.20959581;0.0;0.0031568506;166.74294
  1.3994169E-01;  9.9999998E-03; -2.0000228E-01;1251;-0.028698202;0.0;-0.0011136575;1000.4962;  4.0000001E-01;411.05005;3;-10.163568;0.0;-0.45190167;0;-0.21164784;  1.0010233E+04;  0.0000000E+00; -1.2991070E-03;  1.0000000E+04;  0.0000000E+00;  9.9996943E+03;-0.21607612;0.0;0.0044282894;187.01289
  1.5996422E-01;  9.9999998E-03; -3.0000576E-01;1277;-0.016941968;0.0;-0.0025278553;1000.4937;  4.0000001E-01;408.97601;3;-8.8387661;0.0;-1.3038235;0;-0.20567776;  1.0009294E+04;  0.0000000E+00; -6.5127367E-01;  1.0000000E+04;  0.0000000E+00;  1.0000583E+04;-0.19397251;0.0;-0.011705249;3469.6995
  1.5995274E-01;  9.9999998E-03; -2.8000385E-01;1278;-0.022475451;0.0;-0.001511076;1000.5353;  4.0000001E-01;443.44418;3;-10.131315;0.0;-0.61154175;0;-0.22249538;  1.0010345E+04;  0.0000000E+00; -4.5491362E-01;  1.0000000E+04;  0.0000000E+00;  1.0000358E+04;-0.21433415;0.0;-0.0081612328;2421.2847
  1.5994419E-01;  9.9999998E-03; -2.6000324E-01;1279;-0.026615035;0.0;-0.0012614001;1000.5484;  4.0000001E-01;454.30807;3;-10.580158;0.0;-0.43612289;0;-0.22735214;  1.0010911E+04;  0.0000000E+00; -2.4019434E-01;  1.0000000E+04;  0.0000000E+00;  1.0000061E+04;-0.22448355;0.0;-0.0028685858;1276.4058
  1.5993780E-01;  9.9999998E-03; -2.4000289E-01;1280;-0.029794674;0.0;-0.0011581216;1000.5544;  4.0000001E-01;459.34497;3;-10.893621;0.0;-0.38613319;0;-0.22960539;  1.0011256E+04;  0.0000000E+00; -9.4900645E-02;  1.0000000E+04;  0.0000000E+00;  9.9998320E+03;-0.23079503;0.0;0.0011896316;519.48938
  1.5993352E-01;  9.9999998E-03; -2.2000271E-01;1281;-0.031999607;0.0;-0.0011797899;1000.5597;  4.0000001E-01;463.69052;3;-11.227387;0.0;-0.41651416;0;-0.23203252;  1.0011496E+04;  0.0000000E+00; -2.6369760E-02;  1.0000000E+04;  0.0000000E+00;  9.9996992E+03;-0.23557274;0.0;0.0035402151;235.3311
  1.5993088E-01;  9.9999998E-03; -2.0000246E-01;1282;-0.033437543;0.0;-0.0011586286;1000.5649;  4.0000001E-01;468.03607;3;-11.605782;0.0;-0.45026034;0;-0.23467107;  1.0011648E+04;  0.0000000E+00; -4.3582916E-03;  1.0000000E+04;  0.0000000E+00;  9.9996475E+03;-0.23932837;0.0;0.0046572927;215.44098
  1.7995495E-01;  9.9999998E-03; -3.0000597E-01;1308;-0.021005481;0.0;-0.0024452237;1000.6761;  4.0000001E-01;560.18158;3;-10.84972;0.0;-1.196228;0;-0.27779323;  1.0012814E+04;  0.0000000E+00; -1.1872876E+00;  1.0000000E+04;  0.0000000E+00;  1.0000711E+04;-0.26343399;0.0;-0.014359226;6325.5571
  1.7994247E-01;  9.9999998E-03; -2.8000429E-01;1309;-0.026824547;0.0;-0.0016220188;1000.6887;  4.0000001E-01;570.5517;3;-11.890636;0.0;-0.63337326;0;-0.28131253;  1.0013372E+04;  0.0000000E+00; -8.1317109E-01;  1.0000000E+04;  0.0000000E+00;  1.0000409E+04;-0.27162254;0.0;-0.0096899802;4329.8213
  1.7993304E-01;  9.9999998E-03; -2.6000369E-01;1310;-0.031304013;0.0;-0.0013993471;1000.67;  4.0000001E-01;555.14471;3;-12.191305;0.0;-0.47703266;0;-0.2719768;  1.0013389E+04;  0.0000000E+00; -4.2477569E-01;  1.0000000E+04;  0.0000000E+00;  1.0000020E+04;-0.26918891;0.0;-0.0027878783;2260.1567
  1.7992602E-01;  9.9999998E-03; -2.4000336E-01;1311;-0.034765914;0.0;-0.001317236;1000.6522;  4.0000001E-01;540.33032;3;-12.439636;0.0;-0.42980862;0;-0.26379919;  1.0013315E+04;  0.0000000E+00; -1.6949840E-01;  1.0000000E+04;  0.0000000E+00;  9.9997305E+03;-0.26608989;0.0;0.0022906815;919.07715
  1.7992136E-01;  9.9999998E-03; -2.2000322E-01;1312;-0.037151173;0.0;-0.0013699827;1000.6432;  4.0000001E-01;532.82434;3;-12.746448;0.0;-0.47021556;0;-0.25986576;  1.0013283E+04;  0.0000000E+00; -4.9488232E-02;  1.0000000E+04;  0.0000000E+00;  9.9995889E+03;-0.26483369;0.0;0.0049679303;363.14761
  1.7991862E-01;  9.9999998E-03; -2.0000300E-01;1313;-0.038663752;0.0;-0.0013815801;1000.6408;  4.0000001E-01;530.84912;3;-13.135441;0.0;-0.50696051;0;-0.25917679;  1.0013273E+04;  0.0000000E+00; -9.2645884E-03;  1.0000000E+04;  0.0000000E+00;  9.9995449E+03;-0.26516753;0.0;0.0059907557;274.79944
  1.9994278E-01;  9.9999998E-03; -3.0000553E-01;1339;-0.026345361;0.0;-0.0019187554;1000.8911;  4.0000001E-01;738.25061;3;-13.517014;0.0;-0.80026245;0;-0.36214346;  1.0016776E+04;  0.0000000E+00; -1.7043407E+00;  1.0000000E+04;  0.0000000E+00;  1.0001049E+04;-0.33923262;0.0;-0.022910826;9097.958
  1.9993004E-01;  9.9999998E-03; -2.8000471E-01;1340;-0.03199533;0.0;-0.001674119;1000.857;  4.0000001E-01;710.00452;3;-13.936569;0.0;-0.6198082;0;-0.34367993;  1.0016638E+04;  0.0000000E+00; -1.1565650E+00;  1.0000000E+04;  0.0000000E+00;  1.0000513E+04;-0.3305876;0.0;-0.013092328;6166.3091
  1.9991998E-01;  9.9999998E-03; -2.6000434E-01;1341;-0.036654327;0.0;-0.0016093006;1000.7992;  4.0000001E-01;662.10461;3;-13.975944;0.0;-0.55159187;0;-0.31748581;  1.0016064E+04;  0.0000000E+00; -5.9596175E-01;  1.0000000E+04;  0.0000000E+00;  9.9999287E+03;-0.31505045;0.0;-0.0024353713;3175.7058
  1.9991247E-01;  9.9999998E-03; -2.4000424E-01;1342;-0.040312938;0.0;-0.0016758232;1000.7554;  4.0000001E-01;625.85876;3;-14.099836;0.0;-0.54780865;0;-0.29816929;  1.0015577E+04;  0.0000000E+00; -2.3740169E-01;  1.0000000E+04;  0.0000000E+00;  9.9995439E+03;-0.30298835;0.0;0.004819077;1294.1855
  1.9990754E-01;  9.9999998E-03; -2.2000422E-01;1343;-0.04284073;0.0;-0.0017852144;1000.7318;  4.0000001E-01;606.30377;3;-14.37306;0.0;-0.59126878;0;-0.28795609;  1.0015273E+04;  0.0000000E+00; -7.0793428E-02;  1.0000000E+04;  0.0000000E+00;  9.9993701E+03;-0.29611358;0.0;0.0081574963;521.22028
  1.9990475E-01;  9.9999998E-03; -2.0000403E-01;1344;-0.044391409;0.0;-0.0018409023;1000.7224;  4.0000001E-01;598.50153;3;-14.743209;0.0;-0.64196259;0;-0.28411934;  1.0015105E+04;  0.0000000E+00; -1.4063085E-02;  1.0000000E+04;  0.0000000E+00;  9.9993467E+03;-0.29319328;0.0;0.0090739373;378.76785
  2.1992904E-01;  9.9999998E-03; -3.0000833E-01;1370;-0.032154884;0.0;-0.0028735721;1001.0602;  4.0000001E-01;878.39478;3;-16.318081;0.0;-1.2091026;0;-0.42401177;  1.0020038E+04;  0.0000000E+00; -1.9463161E+00;  1.0000000E+04;  0.0000000E+00;  1.0001173E+04;-0.39577103;0.0;-0.028240729;10411.313
  2.1991527E-01;  9.9999998E-03; -2.8000647E-01;1371;-0.037992273;0.0;-0.0023418886;1001.0043;  4.0000001E-01;831.97632;3;-16.26569;0.0;-0.89686775;0;-0.39418313;  1.0019555E+04;  0.0000000E+00; -1.3059676E+00;  1.0000000E+04;  0.0000000E+00;  1.0000537E+04;-0.37830198;0.0;-0.015881157;6973.5342
  2.1990483E-01;  9.9999998E-03; -2.6000589E-01;1372;-0.042707156;0.0;-0.0022210239;1000.9178;  4.0000001E-01;760.37341;3;-15.943796;0.0;-0.7671833;0;-0.35580322;  1.0018636E+04;  0.0000000E+00; -6.6606665E-01;  1.0000000E+04;  0.0000000E+00;  9.9997236E+03;-0.3553524;0.0;-0.00045081414;3558.2959
  2.1989694E-01;  9.9999998E-03; -2.4000581E-01;1373;-0.046475232;0.0;-0.0023519571;1000.8549;  4.0000001E-01;708.32556;3;-15.87868;0.0;-0.75942802;0;-0.32846403;  1.0017904E+04;  0.0000000E+00; -2.6332888E-01;  1.0000000E+04;  0.0000000E+00;  9.9992051E+03;-0.33820134;0.0;0.0097372979;1473.4087
  2.1989186E-01;  9.9999998E-03; -2.2000583E-01;1374;-0.049092852;0.0;-0.002501691;1000.8218;  4.0000001E-01;680.86951;3;-16.068514;0.0;-0.82428908;0;-0.31411695;  1.0017426E+04;  0.0000000E+00; -7.8663647E-02;  1.0000000E+04;  0.0000000E+00;  9.9990176E+03;-0.32792729;0.0;0.013810324;681.12866
  2.1988913E-01;  9.9999998E-03; -2.0000567E-01;1375;-0.050638344;0.0;-0.0026099582;1000.8079;  4.0000001E-01;669.31433;3;-16.408941;0.0;-0.89138067;0;-0.30839041;  1.0017137E+04;  0.0000000E+00; -1.5823992E-02;  1.0000000E+04;  0.0000000E+00;  9.9990293E+03;-0.3228316;0.0;0.014441195;537.53015
  2.3991251E-01;  9.9999998E-03; -3.0002043E-01;1401;-0.038598511;0.0;-0.0079941181;1001.0806;  4.0000001E-01;895.2832;3;-19.173901;0.0;-3.7068176;0;-0.41755325;  1.0022360E+04;  0.0000000E+00; -1.8241875E+00;  1.0000000E+04;  0.0000000E+00;  9.9992705E+03;-0.42659351;0.0;0.0090402551;9775.5615
  2.3989789E-01;  9.9999998E-03; -2.8001413E-01;1402;-0.044717237;0.0;-0.0057664067;1001.0756;  4.0000001E-01;891.13513;3;-18.726454;0.0;-2.4281063;0;-0.40796208;  1.0021909E+04;  0.0000000E+00; -1.1876038E+00;  1.0000000E+04;  0.0000000E+00;  9.9996143E+03;-0.40986165;0.0;0.0018995609;6355.3896
  2.3988707E-01;  9.9999998E-03; -2.6001048E-01;1403;-0.049584832;0.0;-0.0042401822;1001.0059;  4.0000001E-01;833.35901;3;-18.101704;0.0;-1.5202255;0;-0.37844861;  1.0021006E+04;  0.0000000E+00; -5.9343886E-01;  1.0000000E+04;  0.0000000E+00;  9.9991270E+03;-0.38751176;0.0;0.0090631638;3208.6357
  2.3987906E-01;  9.9999998E-03; -2.4000905E-01;1404;-0.053358927;0.0;-0.0038183052;1000.9442;  4.0000001E-01;782.20001;3;-17.747671;0.0;-1.292583;0;-0.35161325;  1.0020243E+04;  0.0000000E+00; -2.3069914E-01;  1.0000000E+04;  0.0000000E+00;  9.9986484E+03;-0.37023607;0.0;0.018622812;1427.8708
  2.3987408E-01;  9.9999998E-03; -2.2000855E-01;1405;-0.055941101;0.0;-0.0037572554;1000.9103;  4.0000001E-01;754.15137;3;-17.834845;0.0;-1.2421565;0;-0.33710417;  1.0019716E+04;  0.0000000E+00; -6.7650512E-02;  1.0000000E+04;  0.0000000E+00;  9.9985029E+03;-0.35944489;0.0;0.022340719;869.83447
  2.3987153E-01;  9.9999998E-03; -2.0000814E-01;1406;-0.057452325;0.0;-0.0037797706;1000.8961;  4.0000001E-01;742.39862;3;-18.146635;0.0;-1.2670923;0;-0.33144653;  1.0019363E+04;  0.0000000E+00; -1.3122849E-02;  1.0000000E+04;  0.0000000E+00;  9.9985732E+03;-0.35366759;0.0;0.022221064;757.62323
  2.5989079E-01;  9.9999998E-03; -3.0003169E-01;1432;-0.046797421;0.0;-0.012294257;1001.0624;  4.0000001E-01;880.17242;3;-22.682213;0.0;-5.6507587;0;-0.39547169;  1.0024398E+04;  0.0000000E+00; -1.3144251E+00;  1.0000000E+04;  0.0000000E+00;  9.9968682E+03;-0.44657785;0.0;0.05110614;7226.0605
  2.5987664E-01;  9.9999998E-03; -2.8002414E-01;1433;-0.052698851;0.0;-0.009941577;1001.0923;  4.0000001E-01;904.96185;3;-21.553366;0.0;-4.1345406;0;-0.39706877;  1.0024010E+04;  0.0000000E+00; -8.4707177E-01;  1.0000000E+04;  0.0000000E+00;  9.9978506E+03;-0.43191987;0.0;0.034851111;4671.3276
  2.5986606E-01;  9.9999998E-03; -2.6001790E-01;1434;-0.057431228;0.0;-0.0075553968;1001.0656;  4.0000001E-01;882.7403;3;-20.432003;0.0;-2.7889118;0;-0.3852835;  1.0023288E+04;  0.0000000E+00; -4.1532239E-01;  1.0000000E+04;  0.0000000E+00;  9.9980342E+03;-0.41397089;0.0;0.028687388;2446.5674
  2.5985846E-01;  9.9999998E-03; -2.4001446E-01;1435;-0.06104093;0.0;-0.0062710056;1001.024;  4.0000001E-01;848.37085;3;-19.775749;0.0;-2.1682172;0;-0.36789975;  1.0022646E+04;  0.0000000E+00; -1.5689707E-01;  1.0000000E+04;  0.0000000E+00;  9.9978477E+03;-0.39986545;0.0;0.031965706;1392.7571
  2.5985393E-01;  9.9999998E-03; -2.2001281E-01;1436;-0.063447066;0.0;-0.0057229125;1000.9989;  4.0000001E-01;827.53198;3;-19.671925;0.0;-1.901226;0;-0.35740769;  1.0022159E+04;  0.0000000E+00; -4.3859974E-02;  1.0000000E+04;  0.0000000E+00;  9.9978359E+03;-0.39074001;0.0;0.033332329;1140.6449
  2.5985169E-01;  9.9999998E-03; -2.0001161E-01;1437;-0.064887874;0.0;-0.005400856;1000.9891;  4.0000001E-01;819.43341;3;-19.932638;0.0;-1.8141162;0;-0.35366422;  1.0021790E+04;  0.0000000E+00; -7.6364693E-03;  1.0000000E+04;  0.0000000E+00;  9.9980029E+03;-0.38555837;0.0;0.031894147;1034.3766
  2.7986464E-01;  9.9999998E-03; -3.0003989E-01;1463;-0.056394022;0.0;-0.015146606;1001.086;  4.0000001E-01;899.72742;3;-26.677219;0.0;-6.8833733;0;-0.38758454;  1.0026506E+04;  0.0000000E+00; -7.2272587E-01;  1.0000000E+04;  0.0000000E+00;  9.9952354E+03;-0.46271726;0.0;0.07513272;4549.0322
  2.7985156E-01;  9.9999998E-03; -2.8003278E-01;1464;-0.061869256;0.0;-0.013161337;1001.1196;  4.0000001E-01;927.57849;3;-24.732548;0.0;-5.291275;0;-0.38989264;  1.0026191E+04;  0.0000000E+00; -4.6236697E-01;  1.0000000E+04;  0.0000000E+00;  9.9962256E+03;-0.4509671;0.0;0.061074473;3120.2656
  2.7984184E-01;  9.9999998E-03; -2.6002595E-01;1465;-0.066190183;0.0;-0.010920114;1001.1229;  4.0000001E-01;930.24506;3;-22.93185;0.0;-3.9985869;0;-0.38850689;  1.0025679E+04;  0.0000000E+00; -2.2194454E-01;  1.0000000E+04;  0.0000000E+00;  9.9967959E+03;-0.43843785;0.0;0.04993096;2011.8076
  2.7983510E-01;  9.9999998E-03; -2.4002123E-01;1466;-0.069440752;0.0;-0.0092396094;1001.1055;  4.0000001E-01;915.82574;3;-21.862951;0.0;-3.1673172;0;-0.38174048;  1.0025199E+04;  0.0000000E+00; -7.9731219E-02;  1.0000000E+04;  0.0000000E+00;  9.9969297E+03;-0.42873871;0.0;0.046998244;1616.8983
  2.7983117E-01;  9.9999998E-03; -2.2001827E-01;1467;-0.071633406;0.0;-0.0081968028;1001.0935;  4.0000001E-01;905.94946;3;-21.557188;0.0;-2.7101288;0;-0.37711191;  1.0024790E+04;  0.0000000E+00; -2.0087702E-02;  1.0000000E+04;  0.0000000E+00;  9.9970918E+03;-0.42233527;0.0;0.04522334;1483.6145
  2.7982932E-01;  9.9999998E-03; -2.0001601E-01;1468;-0.072981246;0.0;-0.0074518695;1001.0893;  4.0000001E-01;902.4928;3;-21.770109;0.0;-2.4861641;0;-0.37609607;  1.0024436E+04;  0.0000000E+00; -2.7223947E-03;  1.0000000E+04;  0.0000000E+00;  9.9973633E+03;-0.41851792;0.0;0.042421848;1348.6636
  2.9983586E-01;  9.9999998E-03; -3.0004686E-01;1494;-0.066566959;0.0;-0.017392205;1001.1567;  4.0000001E-01;958.29352;3;-30.827129;0.0;-7.7600098;0;-0.39394993;  1.0028844E+04;  0.0000000E+00; -3.0127740E-01;  1.0000000E+04;  0.0000000E+00;  9.9943135E+03;-0.47830984;0.0;0.084359899;3252.0874
  2.9982397E-01;  9.9999998E-03; -2.8004023E-01;1495;-0.071478412;0.0;-0.015758121;1001.1848;  4.0000001E-01;981.50275;3;-27.878914;0.0;-6.1539974;0;-0.39463547;  1.0028626E+04;  0.0000000E+00; -1.8856426E-01;  1.0000000E+04;  0.0000000E+00;  9.9950889E+03;-0.47066405;0.0;0.076028585;2646.6306
  2.9981509E-01;  9.9999998E-03; -2.6003358E-01;1496;-0.075434171;0.0;-0.01389274;1001.2006;  4.0000001E-01;994.63818;3;-25.41267;0.0;-4.9623585;0;-0.39761978;  1.0028311E+04;  0.0000000E+00; -8.5796714E-02;  1.0000000E+04;  0.0000000E+00;  9.9957266E+03;-0.46355259;0.0;0.065932795;2190.5413
  2.9980907E-01;  9.9999998E-03; -2.4002825E-01;1497;-0.07842236;0.0;-0.01216948;1001.2004;  4.0000001E-01;994.53943;3;-23.953003;0.0;-4.0840774;0;-0.3982476;  1.0027976E+04;  0.0000000E+00; -2.7713371E-02;  1.0000000E+04;  0.0000000E+00;  9.9960566E+03;-0.45822975;0.0;0.059982136;1991.9385
  2.9980564E-01;  9.9999998E-03; -2.2002426E-01;1498;-0.080476567;0.0;-0.010828209;1001.199;  4.0000001E-01;993.35425;3;-23.464344;0.0;-3.549283;0;-0.39853179;  1.0027648E+04;  0.0000000E+00; -5.5197240E-03;  1.0000000E+04;  0.0000000E+00;  9.9963564E+03;-0.45471859;0.0;0.056186806;1843.9219
  2.9980421E-01;  9.9999998E-03; -2.0002103E-01;1499;-0.081771083;0.0;-0.009713091;1001.1998;  4.0000001E-01;993.94684;3;-23.649063;0.0;-3.1909952;0;-0.39994371;  1.0027320E+04;  0.0000000E+00; -3.7932626E-04;  1.0000000E+04;  0.0000000E+00;  9.9966943E+03;-0.45259735;0.0;0.052653629;1677.5376
  3.1980583E-01;  9.9999998E-03; -3.0005372E-01;1525;-0.076622486;0.0;-0.019531021;1001.2651;  4.0000001E-01;1048.0687;3;-34.707165;0.0;-8.5937281;0;-0.40972212;  1.0031533E+04;  0.0000000E+00; -8.8704921E-02;  1.0000000E+04;  0.0000000E+00;  9.9937979E+03;-0.49648085;0.0;0.086758733;3118.4209
  3.1979451E-01;  9.9999998E-03; -2.8004721E-01;1526;-0.081218116;0.0;-0.018083725;1001.2886;  4.0000001E-01;1067.5249;3;-30.879379;0.0;-6.9098811;0;-0.41050345;  1.0031419E+04;  0.0000000E+00; -5.1401120E-02;  1.0000000E+04;  0.0000000E+00;  9.9943750E+03;-0.49331987;0.0;0.082816407;2814.3127
  3.1978604E-01;  9.9999998E-03; -2.6004067E-01;1527;-0.085012764;0.0;-0.016472178;1001.3074;  4.0000001E-01;1083.1294;3;-27.812958;0.0;-5.7188292;0;-0.41541529;  1.0031245E+04;  0.0000000E+00; -2.0521713E-02;  1.0000000E+04;  0.0000000E+00;  9.9949316E+03;-0.49076831;0.0;0.075353019;2537.0649
  3.1978035E-01;  9.9999998E-03; -2.4003506E-01;1528;-0.087927341;0.0;-0.014831039;1001.315;  4.0000001E-01;1089.4503;3;-26.012714;0.0;-4.8398814;0;-0.41971806;  1.0031023E+04;  0.0000000E+00; -5.0200433E-03;  1.0000000E+04;  0.0000000E+00;  9.9953047E+03;-0.48908347;0.0;0.069365419;2357.7246
  3.1977719E-01;  9.9999998E-03; -2.2003038E-01;1529;-0.089970425;0.0;-0.013359204;1001.3197;  4.0000001E-01;1093.302;3;-25.391729;0.0;-4.2578592;0;-0.42293876;  1.0030767E+04;  0.0000000E+00; -4.5489133E-04;  1.0000000E+04;  0.0000000E+00;  9.9956563E+03;-0.48819628;0.0;0.065257534;2189.5168
  3.1977612E-01;  9.9999998E-03; -2.0002639E-01;1530;-0.091274783;0.0;-0.012013879;1001.3237;  4.0000001E-01;1096.6599;3;-25.569052;0.0;-3.8395665;0;-0.42601237;  1.0030468E+04;  0.0000000E+00;  4.4344262E-05;  1.0000000E+04;  0.0000000E+00;  9.9960322E+03;-0.48788771;0.0;0.061875332;2007.0514
  3.3977473E-01;  9.9999998E-03; -3.0006087E-01;1556;-0.086437806;0.0;-0.021644298;1001.4015;  4.0000001E-01;1161.1519;3;-38.299267;0.0;-9.3746729;0;-0.43308094;  1.0034625E+04;  0.0000000E+00; -1.3105737E-02;  1.0000000E+04;  0.0000000E+00;  9.9934395E+03;-0.51943338;0.0;0.08635243;3271.9712
  3.3976308E-01;  9.9999998E-03; -2.8005415E-01;1557;-0.091100425;0.0;-0.020294821;1001.4221;  4.0000001E-01;1178.139;3;-33.743374;0.0;-7.6057096;0;-0.43444163;  1.0034590E+04;  0.0000000E+00; -6.1363629E-03;  1.0000000E+04;  0.0000000E+00;  9.9938848E+03;-0.51974398;0.0;0.085302368;3054.7102
  3.3975437E-01;  9.9999998E-03; -2.6004753E-01;1558;-0.094995566;0.0;-0.01880423;1001.4399;  4.0000001E-01;1192.9534;3;-30.15946;0.0;-6.332109;0;-0.44002825;  1.0034511E+04;  0.0000000E+00; -1.4571163E-03;  1.0000000E+04;  0.0000000E+00;  9.9943262E+03;-0.52047592;0.0;0.080447681;2843.4194
  3.3974859E-01;  9.9999998E-03; -2.4004167E-01;1559;-0.098014325;0.0;-0.017241249;1001.4495;  4.0000001E-01;1200.8544;3;-28.05583;0.0;-5.4582605;0;-0.44574934;  1.0034371E+04;  0.0000000E+00;  9.7029668E-05;  1.0000000E+04;  0.0000000E+00;  9.9946563E+03;-0.52160501;0.0;0.07585568;2687.2417
  3.3974552E-01;  9.9999998E-03; -2.2003648E-01;1560;-0.10015546;0.0;-0.015714638;1001.4568;  4.0000001E-01;1206.8789;3;-27.31163;0.0;-4.8761425;0;-0.45051372;  1.0034172E+04;  0.0000000E+00;  1.2743491E-04;  1.0000000E+04;  0.0000000E+00;  9.9949990E+03;-0.52303463;0.0;0.072520927;2520.3457
  3.3974472E-01;  9.9999998E-03; -2.0003186E-01;1561;-0.10151569;0.0;-0.014234342;1001.4628;  4.0000001E-01;1211.9158;3;-27.513353;0.0;-4.4023051;0;-0.45473301;  1.0033906E+04;  0.0000000E+00;  3.9680250E-05;  1.0000000E+04;  0.0000000E+00;  9.9953740E+03;-0.52462655;0.0;0.069893532;2334.4221
  3.5974163E-01;  9.9999998E-03; -3.0006859E-01;1587;-0.096320249;0.0;-0.02378064;1001.5564;  4.0000001E-01;1289.4443;3;-41.741512;0.0;-10.090389;0;-0.46042597;  1.0038126E+04;  0.0000000E+00;  1.8363656E-04;  1.0000000E+04;  0.0000000E+00;  9.9930449E+03;-0.54697353;0.0;0.086547554;3481.0247
  3.5972887E-01;  9.9999998E-03; -2.8006142E-01;1588;-0.10137131;0.0;-0.022447109;1001.5767;  4.0000001E-01;1306.234;3;-36.567249;0.0;-8.2244034;0;-0.46276036;  1.0038158E+04;  0.0000000E+00;  5.8244576E-04;  1.0000000E+04;  0.0000000E+00;  9.9934199E+03;-0.54956895;0.0;0.086808585;3296.4834
  3.5971943E-01;  9.9999998E-03; -2.6005438E-01;1589;-0.10555169;0.0;-0.020990785;1001.5937;  4.0000001E-01;1320.3571;3;-32.493042;0.0;-6.8740993;0;-0.46882659;  1.0038148E+04;  0.0000000E+00;  5.1077228E-04;  1.0000000E+04;  0.0000000E+00;  9.9937656E+03;-0.55265111;0.0;0.083824508;3130.7986
  3.5971335E-01;  9.9999998E-03; -2.4004824E-01;1590;-0.10878365;0.0;-0.019456688;1001.6032;  4.0000001E-01;1328.2581;3;-30.103815;0.0;-5.9578347;0;-0.47528058;  1.0038078E+04;  0.0000000E+00;  2.9484712E-04;  1.0000000E+04;  0.0000000E+00;  9.9940264E+03;-0.55606127;0.0;0.08078067;3006.8694
  3.5971028E-01;  9.9999998E-03; -2.2004260E-01;1591;-0.11108139;0.0;-0.017887749;1001.6118;  4.0000001E-01;1335.3689;3;-29.269344;0.0;-5.3327837;0;-0.48109114;  1.0037926E+04;  0.0000000E+00;  1.2573955E-04;  1.0000000E+04;  0.0000000E+00;  9.9943496E+03;-0.5596382;0.0;0.07854706;2849.741
  3.5970971E-01;  9.9999998E-03; -2.0003739E-01;1592;-0.11252403;0.0;-0.016326785;1001.619;  4.0000001E-01;1341.2947;3;-29.471823;0.0;-4.8571086;0;-0.48631427;  1.0037691E+04;  0.0000000E+00;  3.6835114E-05;  1.0000000E+04;  0.0000000E+00;  9.9947275E+03;-0.56318581;0.0;0.076871552;2664.0251
  3.7970525E-01;  9.9999998E-03; -3.0007693E-01;1618;-0.10669871;0.0;-0.025906952;1001.7288;  4.0000001E-01;1432.2548;3;-45.197643;0.0;-10.735246;0;-0.48986864;  1.0042104E+04;  0.0000000E+00;  4.6451113E-04;  1.0000000E+04;  0.0000000E+00;  9.9925234E+03;-0.5782268;0.0;0.088358156;3754.7932
  3.7969103E-01;  9.9999998E-03; -2.8006914E-01;1619;-0.11225362;0.0;-0.024556877;1001.7509;  4.0000001E-01;1450.6245;3;-39.428741;0.0;-8.7330618;0;-0.49335498;  1.0042193E+04;  0.0000000E+00;  7.1963476E-04;  1.0000000E+04;  0.0000000E+00;  9.9928770E+03;-0.58253652;0.0;0.08918155;3579.1672
  3.7968069E-01;  9.9999998E-03; -2.6006153E-01;1620;-0.11680804;0.0;-0.023073684;1001.7676;  4.0000001E-01;1464.4513;3;-34.845287;0.0;-7.322372;0;-0.5004642;  1.0042239E+04;  0.0000000E+00;  5.7299825E-04;  1.0000000E+04;  0.0000000E+00;  9.9931660E+03;-0.58750933;0.0;0.087045155;3440.7898
  3.7967420E-01;  9.9999998E-03; -2.4005495E-01;1621;-0.12030127;0.0;-0.021530729;1001.7767;  4.0000001E-01;1471.9573;3;-32.160686;0.0;-6.3465219;0;-0.50773686;  1.0042210E+04;  0.0000000E+00;  3.2071013E-04;  1.0000000E+04;  0.0000000E+00;  9.9933721E+03;-0.59290469;0.0;0.085167833;3341.8564
  3.7967113E-01;  9.9999998E-03; -2.2004879E-01;1622;-0.12277868;0.0;-0.019918984;1001.7859;  4.0000001E-01;1479.6608;3;-31.22044;0.0;-5.6848412;0;-0.51454383;  1.0042086E+04;  0.0000000E+00;  1.3101166E-04;  1.0000000E+04;  0.0000000E+00;  9.9936826E+03;-0.59845573;0.0;0.083911873;3191.2302
  3.7967077E-01;  9.9999998E-03; -2.0004296E-01;1623;-0.1243334;0.0;-0.018287269;1001.7938;  4.0000001E-01;1486.0803;3;-31.437099;0.0;-5.2088814;0;-0.52070409;  1.0041862E+04;  0.0000000E+00;  3.5265857E-05;  1.0000000E+04;  0.0000000E+00;  9.9940596E+03;-0.60385227;0.0;0.083148167;3003.4592
  3.9966485E-01;  9.9999998E-03; -3.0008599E-01;1649;-0.11773556;0.0;-0.02797964;1001.9229;  4.0000001E-01;1593.1387;3;-48.72934;0.0;-11.265687;0;-0.52171546;  1.0046671E+04;  0.0000000E+00;  5.5800873E-04;  1.0000000E+04;  0.0000000E+00;  9.9918477E+03;-0.61328107;0.0;0.091565602;4100.9556
  3.9964902E-01;  9.9999998E-03; -2.8007743E-01;1650;-0.12382385;0.0;-0.026613249;1001.9468;  4.0000001E-01;1612.8912;3;-42.29715;0.0;-9.1649809;0;-0.52625787;  1.0046780E+04;  0.0000000E+00;  8.5105922E-04;  1.0000000E+04;  0.0000000E+00;  9.9922139E+03;-0.6189357;0.0;0.092677809;3920.9661
  3.9963770E-01;  9.9999998E-03; -2.6006910E-01;1651;-0.12880397;0.0;-0.02507522;1001.9631;  4.0000001E-01;1626.4216;3;-37.206661;0.0;-7.6663098;0;-0.53460658;  1.0046848E+04;  0.0000000E+00;  6.6354044E-04;  1.0000000E+04;  0.0000000E+00;  9.9924795E+03;-0.62543154;0.0;0.090824991;3794.6716
  3.9963073E-01;  9.9999998E-03; -2.4006194E-01;1652;-0.13259704;0.0;-0.023502745;1001.9713;  4.0000001E-01;1633.1376;3;-34.215771;0.0;-6.6283317;0;-0.54281527;  1.0046826E+04;  0.0000000E+00;  3.6128791E-04;  1.0000000E+04;  0.0000000E+00;  9.9926611E+03;-0.63247383;0.0;0.089658551;3707.9395
  3.9962763E-01;  9.9999998E-03; -2.2005516E-01;1653;-0.13528354;0.0;-0.021836236;1001.9807;  4.0000001E-01;1640.9398;3;-33.172794;0.0;-5.9188652;0;-0.55061525;  1.0046702E+04;  0.0000000E+00;  1.4092318E-04;  1.0000000E+04;  0.0000000E+00;  9.9929727E+03;-0.63970929;0.0;0.089094035;3555.0735
  3.9962754E-01;  9.9999998E-03; -2.0004864E-01;1654;-0.13697842;0.0;-0.020123653;1001.9882;  4.0000001E-01;1647.1617;3;-33.400669;0.0;-5.4593849;0;-0.55768716;  1.0046457E+04;  0.0000000E+00;  3.4086108E-05;  1.0000000E+04;  0.0000000E+00;  9.9933691E+03;-0.64673173;0.0;0.089044601;3358.9417
  4.1961992E-01;  9.9999998E-03; -3.0009592E-01;1680;-0.12943695;0.0;-0.02997;1002.1431;  4.0000001E-01;1775.5525;3;-52.308231;0.0;-11.648362;0;-0.55654651;  1.0051906E+04;  0.0000000E+00;  6.4584840E-04;  1.0000000E+04;  0.0000000E+00;  9.9910352E+03;-0.65235871;0.0;0.095812179;4522.4248
  4.1960239E-01;  9.9999998E-03; -2.8008640E-01;1681;-0.13610911;0.0;-0.02858855;1002.1671;  4.0000001E-01;1795.4037;3;-45.185898;0.0;-9.4641361;0;-0.56160522;  1.0051998E+04;  0.0000000E+00;  1.0086155E-03;  1.0000000E+04;  0.0000000E+00;  9.9914248E+03;-0.65894997;0.0;0.097344741;4329.5386
  4.1959000E-01;  9.9999998E-03; -2.6007721E-01;1682;-0.14155963;0.0;-0.027002661;1002.1822;  4.0000001E-01;1807.9465;3;-39.561596;0.0;-7.8928809;0;-0.57106054;  1.0052029E+04;  0.0000000E+00;  7.7807641E-04;  1.0000000E+04;  0.0000000E+00;  9.9916934E+03;-0.66655236;0.0;0.095491797;4201.0771
  4.1958255E-01;  9.9999998E-03; -2.4006931E-01;1683;-0.14569513;0.0;-0.025386022;1002.1886;  4.0000001E-01;1813.1809;3;-36.251213;0.0;-6.7993627;0;-0.58027625;  1.0051975E+04;  0.0000000E+00;  4.1426611E-04;  1.0000000E+04;  0.0000000E+00;  9.9918779E+03;-0.67483765;0.0;0.094561391;4110.645
  4.1957939E-01;  9.9999998E-03; -2.2006179E-01;1684;-0.1486254;0.0;-0.023646358;1002.1968;  4.0000001E-01;1819.9956;3;-35.106888;0.0;-6.0513043;0;-0.58907837;  1.0051795E+04;  0.0000000E+00;  1.5497419E-04;  1.0000000E+04;  0.0000000E+00;  9.9922188E+03;-0.68339717;0.0;0.094318815;3944.3484
  4.1957960E-01;  9.9999998E-03; -2.0005450E-01;1685;-0.15049334;0.0;-0.02182965;1002.2032;  4.0000001E-01;1825.3287;3;-35.35421;0.0;-5.5989556;0;-0.5970335;  1.0051496E+04;  0.0000000E+00;  3.3737211E-05;  1.0000000E+04;  0.0000000E+00;  9.9926436E+03;-0.69175684;0.0;0.094723336;3731.9438
  4.3956995E-01;  9.9999998E-03; -3.0010685E-01;1711;-0.14180988;0.0;-0.031858161;1002.3918;  4.0000001E-01;1981.5703;3;-55.90583;0.0;-11.848011;0;-0.59453219;  1.0057867E+04;  0.0000000E+00;  7.0182187E-04;  1.0000000E+04;  0.0000000E+00;  9.9900615E+03;-0.69555211;0.0;0.10101992;5020.8457
  4.3955058E-01;  9.9999998E-03; -2.8009623E-01;1712;-0.14912783;0.0;-0.030462362;1002.4144;  4.0000001E-01;2000.2365;3;-48.065899;0.0;-9.6014671;0;-0.59951586;  1.0057885E+04;  0.0000000E+00;  1.1874804E-03;  1.0000000E+04;  0.0000000E+00;  9.9904990E+03;-0.7025919;0.0;0.10307603;4804.3271
  4.3953705E-01;  9.9999998E-03; -2.6008597E-01;1713;-0.15509945;0.0;-0.028838601;1002.4272;  4.0000001E-01;2010.9027;3;-41.889584;0.0;-7.9775791;0;-0.60976297;  1.0057824E+04;  0.0000000E+00;  9.1879565E-04;  1.0000000E+04;  0.0000000E+00;  9.9908115E+03;-0.71080023;0.0;0.10103728;4653.3643
  4.3952909E-01;  9.9999998E-03; -2.4007711E-01;1714;-0.15962744;0.0;-0.027150815;1002.4304;  4.0000001E-01;2013.4706;3;-38.256611;0.0;-6.8324246;0;-0.62001586;  1.0057663E+04;  0.0000000E+00;  4.8356442E-04;  1.0000000E+04;  0.0000000E+00;  9.9910420E+03;-0.71983647;0.0;0.099820636;4542.8892
  4.3952596E-01;  9.9999998E-03; -2.2006872E-01;1715;-0.16283956;0.0;-0.025317891;1002.4355;  4.0000001E-01;2017.8162;3;-37.004906;0.0;-6.0607204;0;-0.6297555;  1.0057380E+04;  0.0000000E+00;  1.7693336E-04;  1.0000000E+04;  0.0000000E+00;  9.9914248E+03;-0.72927642;0.0;0.099520952;4353.6479
  4.3952650E-01;  9.9999998E-03; -2.0006061E-01;1716;-0.16491666;0.0;-0.02337547;1002.4386;  4.0000001E-01;2020.2852;3;-37.286636;0.0;-5.6080685;0;-0.63847989;  1.0056977E+04;  0.0000000E+00;  3.7198446E-05;  1.0000000E+04;  0.0000000E+00;  9.9918965E+03;-0.73861438;0.0;0.10013449;4118.541
  4.5951417E-01;  9.9999998E-03; -3.0011913E-01;1742;-0.15489075;0.0;-0.033629585;1002.6718;  4.0000078E-01;2213.4631;3;-59.505341;0.0;-11.828016;0;-0.63545573;  1.0064567E+04;  0.0000000E+00;  6.9996592E-04;  1.0000000E+04;  0.0000000E+00;  9.9889424E+03;-0.74268234;0.0;0.1072266;5596.4229
  4.5949283E-01;  9.9999998E-03; -2.8010714E-01;1743;-0.16292426;0.0;-0.032208696;1002.6908;  4.0000093E-01;2229.2651;3;-50.918301;0.0;-9.5386477;0;-0.63983351;  1.0064422E+04;  0.0000000E+00;  1.3944206E-03;  1.0000000E+04;  0.0000000E+00;  9.9894707E+03;-0.74952155;0.0;0.10968805;5331.6973
  4.5947820E-01;  9.9999998E-03; -2.6009542E-01;1744;-0.16946866;0.0;-0.030534191;1002.7004;  4.0000090E-01;2237.1663;3;-44.170414;0.0;-7.8792267;0;-0.65058917;  1.0064196E+04;  0.0000000E+00;  1.1004073E-03;  1.0000000E+04;  0.0000000E+00;  9.9898916E+03;-0.75767398;0.0;0.1070848;5127.7983
  4.5946980E-01;  9.9999998E-03; -2.4008532E-01;1745;-0.17444153;0.0;-0.028731862;1002.6982;  4.0000081E-01;2235.3884;3;-40.213634;0.0;-6.6868963;0;-0.66178787;  1.0063855E+04;  0.0000000E+00;  5.8263453E-04;  1.0000000E+04;  0.0000000E+00;  9.9901865E+03;-0.76682329;0.0;0.10503544;4986.7041
  4.5946670E-01;  9.9999998E-03; -2.2007602E-01;1746;-0.17797725;0.0;-0.026789615;1002.6969;  4.0000087E-01;2234.302;3;-38.859386;0.0;-5.8972144;0;-0.67217904;  1.0063398E+04;  0.0000000E+00;  2.1647711E-04;  1.0000000E+04;  0.0000000E+00;  9.9906201E+03;-0.77657747;0.0;0.10439843;4771.6655
  4.5946774E-01;  9.9999998E-03; -2.0006710E-01;1747;-0.18029629;0.0;-0.024719404;1002.6946;  4.0000096E-01;2232.4255;3;-39.189938;0.0;-5.4549298;0;-0.6813966;  1.0062830E+04;  0.0000000E+00;  5.0618874E-05;  1.0000000E+04;  0.0000000E+00;  9.9911406E+03;-0.786443;0.0;0.1050464;4512.1753
  4.7945145E-01;  9.9999998E-03; -3.0013302E-01;1773;-0.16878723;0.0;-0.035273828;1002.9778;  4.0000251E-01;2466.9846;3;-63.102551;0.0;-11.567991;0;-0.67828768;  1.0071869E+04;  0.0000000E+00;  6.2556186E-04;  1.0000000E+04;  0.0000000E+00;  9.9877051E+03;-0.79251313;0.0;0.11422545;6230.5674
  4.7942823E-01;  9.9999998E-03; -2.8011924E-01;1774;-0.17759246;0.0;-0.033795133;1002.9933;  4.0000245E-01;2479.9224;3;-53.738213;0.0;-9.2361526;0;-0.68161488;  1.0071474E+04;  0.0000000E+00;  1.6567938E-03;  1.0000000E+04;  0.0000000E+00;  9.9884160E+03;-0.79831165;0.0;0.11669677;5875.5659
  4.7941259E-01;  9.9999998E-03; -2.6010552E-01;1775;-0.18475023;0.0;-0.032009821;1002.9987;  4.0000269E-01;2484.3667;3;-46.397739;0.0;-7.5522985;0;-0.69274032;  1.0070979E+04;  0.0000000E+00;  1.3580625E-03;  1.0000000E+04;  0.0000000E+00;  9.9890156E+03;-0.80555987;0.0;0.11281957;5583.9072
  4.7940385E-01;  9.9999998E-03; -2.4009396E-01;1776;-0.19021423;0.0;-0.030030748;1002.9853;  4.0000239E-01;2473.2065;3;-42.114773;0.0;-6.3020964;0;-0.70446599;  1.0070372E+04;  0.0000000E+00;  7.3802908E-04;  1.0000000E+04;  0.0000000E+00;  9.9893555E+03;-0.81402177;0.0;0.10955581;5419.4536
  4.7940105E-01;  9.9999998E-03; -2.2008388E-01;1777;-0.19410364;0.0;-0.027998157;1002.9732;  4.0000254E-01;2463.2314;3;-40.661762;0.0;-5.5117855;0;-0.71485776;  1.0069663E+04;  0.0000000E+00;  2.9028163E-04;  1.0000000E+04;  0.0000000E+00;  9.9898213E+03;-0.82339227;0.0;0.10853451;5188.8691
  4.7940272E-01;  9.9999998E-03; -2.0007437E-01;1778;-0.19668938;0.0;-0.025828116;1002.9623;  4.0000248E-01;2454.1455;3;-41.053692;0.0;-5.086071;0;-0.72407651;  1.0068881E+04;  0.0000000E+00;  8.3663028E-05;  1.0000000E+04;  0.0000000E+00;  9.9903750E+03;-0.83323681;0.0;0.1091603;4910.5366
  4.9938014E-01;  9.9999998E-03; -3.0014905E-01;1804;-0.18373479;0.0;-0.036788709;1003.2967;  4.0000600E-01;2731.27;3;-66.743446;0.0;-11.042586;0;-0.72007936;  1.0079362E+04;  0.0000000E+00;  4.8723584E-04;  1.0000000E+04;  0.0000000E+00;  9.9864424E+03;-0.84153658;0.0;0.12145723;6878.7549
  4.9935555E-01;  9.9999998E-03; -2.8013286E-01;1805;-0.19329669;0.0;-0.035182696;1003.3096;  4.0000612E-01;2741.9363;3;-56.548512;0.0;-8.6565228;0;-0.72222978;  1.0078618E+04;  0.0000000E+00;  2.0368944E-03;  1.0000000E+04;  0.0000000E+00;  9.9874482E+03;-0.84537303;0.0;0.12314324;6376.084
  4.9933934E-01;  9.9999998E-03; -2.6011640E-01;1806;-0.20106775;0.0;-0.033163629;1003.3081;  4.0000609E-01;2740.6526;3;-48.580582;0.0;-6.9273252;0;-0.73366863;  1.0077767E+04;  0.0000000E+00;  1.7593870E-03;  1.0000000E+04;  0.0000000E+00;  9.9882734E+03;-0.85077721;0.0;0.11710858;5976.0776
  4.9933064E-01;  9.9999998E-03; -2.4010332E-01;1807;-0.20703977;0.0;-0.030962108;1003.2759;  4.0000612E-01;2713.9866;3;-43.964054;0.0;-5.6235151;0;-0.74489933;  1.0076815E+04;  0.0000000E+00;  9.9585636E-04;  1.0000000E+04;  0.0000000E+00;  9.9885713E+03;-0.85767984;0.0;0.11278053;5831.4766
  4.9932837E-01;  9.9999998E-03; -2.2009280E-01;1808;-0.21128787;0.0;-0.028910687;1003.2471;  4.0000606E-01;2690.0862;3;-42.413284;0.0;-4.845439;0;-0.75426525;  1.0075792E+04;  0.0000000E+00;  4.2244347E-04;  1.0000000E+04;  0.0000000E+00;  9.9890088E+03;-0.86592096;0.0;0.11165571;5612.439
  4.9933094E-01;  9.9999998E-03; -2.0008309E-01;1809;-0.214148;0.0;-0.026713768;1003.2236;  4.0000615E-01;2670.7288;3;-42.88081;0.0;-4.441545;0;-0.76281542;  1.0074752E+04;  0.0000000E+00;  1.4801981E-04;  1.0000000E+04;  0.0000000E+00;  9.9895801E+03;-0.87515557;0.0;0.11234014;5327.2764
  5.1929802E-01;  9.9999998E-03; -3.0016786E-01;1835;-0.20010747;0.0;-0.038195252;1003.6085;  4.0001655E-01;2989.5293;3;-70.532463;0.0;-10.210269;0;-0.75474918;  1.0086250E+04;  0.0000000E+00;  3.3288795E-04;  1.0000000E+04;  0.0000000E+00;  9.9852813E+03;-0.88278705;0.0;0.1280379;7474.2378
  5.1927346E-01;  9.9999998E-03; -2.8014848E-01;1836;-0.21025376;0.0;-0.036347888;1003.6217;  4.0001658E-01;3000.4919;3;-59.396439;0.0;-7.7559133;0;-0.75613248;  1.0085100E+04;  0.0000000E+00;  2.6495676E-03;  1.0000000E+04;  0.0000000E+00;  9.9866865E+03;-0.88392371;0.0;0.12779124;6772.5659
  5.1925766E-01;  9.9999998E-03; -2.6012847E-01;1837;-0.21854818;0.0;-0.033922464;1003.6083;  4.0001640E-01;2989.4304;3;-50.744076;0.0;-5.9412866;0;-0.76774931;  1.0083829E+04;  0.0000000E+00;  2.4313752E-03;  1.0000000E+04;  0.0000000E+00;  9.9876885E+03;-0.88671738;0.0;0.11896806;6287.2598
  5.1924962E-01;  9.9999998E-03; -2.4011423E-01;1838;-0.22498441;0.0;-0.031503811;1003.545;  4.0001652E-01;2936.8892;3;-45.77005;0.0;-4.5917993;0;-0.77678996;  1.0082493E+04;  0.0000000E+00;  1.4396603E-03;  1.0000000E+04;  0.0000000E+00;  9.9877646E+03;-0.89136171;0.0;0.11457175;6253.7319
  5.1924843E-01;  9.9999998E-03; -2.2010390E-01;1839;-0.22956149;0.0;-0.029572487;1003.4941;  4.0001649E-01;2894.8164;3;-44.118637;0.0;-3.8407927;0;-0.78384995;  1.0081134E+04;  0.0000000E+00;  6.4816861E-04;  1.0000000E+04;  0.0000000E+00;  9.9880986E+03;-0.89788127;0.0;0.11403131;6087.6138
  5.1925212E-01;  9.9999998E-03; -2.0009440E-01;1840;-0.23268312;0.0;-0.027469125;1003.457;  4.0001649E-01;2864.0027;3;-44.662067;0.0;-3.4757094;0;-0.79109526;  1.0079828E+04;  0.0000000E+00;  2.5190000E-04;  1.0000000E+04;  0.0000000E+00;  9.9886436E+03;-0.90604115;0.0;0.11494587;5808.4746
  5.3920305E-01;  9.9999998E-03; -3.0019036E-01;1866;-0.21827635;0.0;-0.039548133;1003.8859;  4.0004447E-01;3219.3433;3;-74.589104;0.0;-9.055377;0;-0.77249086;  1.0091265E+04;  0.0000000E+00;  2.4367165E-04;  1.0000000E+04;  0.0000000E+00;  9.9843848E+03;-0.90507346;0.0;0.1325826;7933.5161
  5.3918123E-01;  9.9999998E-03; -2.8016692E-01;1867;-0.22860287;0.0;-0.037314031;1003.9006;  4.0004444E-01;3231.491;3;-62.325306;0.0;-6.4817634;0;-0.77394944;  1.0089730E+04;  0.0000000E+00;  3.6638910E-03;  1.0000000E+04;  0.0000000E+00;  9.9862168E+03;-0.90339458;0.0;0.12944512;7023.8301
  5.3916752E-01;  9.9999998E-03; -2.6014289E-01;1868;-0.23721035;0.0;-0.034309845;1003.866;  4.0004447E-01;3202.8499;3;-52.914829;0.0;-4.5492716;0;-0.78534693;  1.0088077E+04;  0.0000000E+00;  3.5888362E-03;  1.0000000E+04;  0.0000000E+00;  9.9871738E+03;-0.90344644;0.0;0.11809953;6561.0127
  5.3916126E-01;  9.9999998E-03; -2.4012822E-01;1869;-0.24397013;0.0;-0.031779926;1003.7595;  4.0004444E-01;3114.6555;3;-47.545105;0.0;-3.1519711;0;-0.78987688;  1.0086389E+04;  0.0000000E+00;  2.2203643E-03;  1.0000000E+04;  0.0000000E+00;  9.9867383E+03;-0.90572679;0.0;0.11584993;6777.6958
  5.3916156E-01;  9.9999998E-03; -2.2011884E-01;1870;-0.24882264;0.0;-0.030123109;1003.6836;  4.0004453E-01;3051.7441;3;-45.775105;0.0;-2.4613729;0;-0.79359162;  1.0084746E+04;  0.0000000E+00;  1.0289730E-03;  1.0000000E+04;  0.0000000E+00;  9.9868555E+03;-0.91043854;0.0;0.1168469;6714.4746
  5.3916675E-01;  9.9999998E-03; -2.0010991E-01;1871;-0.25216728;0.0;-0.028271325;1003.6342;  4.0004453E-01;3010.8567;3;-46.388195;0.0;-2.1381116;0;-0.79924423;  1.0083218E+04;  0.0000000E+00;  3.9629563E-04;  1.0000000E+04;  0.0000000E+00;  9.9873809E+03;-0.91743296;0.0;0.11818872;6447.7192
  5.5909526E-01;  9.9999998E-03; -3.0021805E-01;1897;-0.23822802;0.0;-0.040962473;1004.12;  4.0011954E-01;3413.3032;3;-78.921684;0.0;-7.5602765;0;-0.75843245;  1.0092677E+04;  0.0000000E+00;  3.2906915E-04;  1.0000000E+04;  0.0000000E+00;  9.9838369E+03;-0.89214772;0.0;0.13371526;8210.292
  5.5908000E-01;  9.9999998E-03; -2.8018996E-01;1898;-0.24811606;0.0;-0.038204912;1004.1364;  4.0011957E-01;3426.8335;3;-65.304512;0.0;-4.787209;0;-0.76134813;  1.0090912E+04;  0.0000000E+00;  5.2772732E-03;  1.0000000E+04;  0.0000000E+00;  9.9859316E+03;-0.88884747;0.0;0.12749937;7172.5889
  5.5907065E-01;  9.9999998E-03; -2.6016188E-01;1899;-0.25669393;0.0;-0.034514662;1004.069;  4.0011957E-01;3371.1318;3;-55.059448;0.0;-2.6305845;0;-0.77185267;  1.0089043E+04;  0.0000000E+00;  5.5235252E-03;  1.0000000E+04;  0.0000000E+00;  9.9864561E+03;-0.88743019;0.0;0.11557754;6925.3569
  5.5906749E-01;  9.9999998E-03; -2.4014765E-01;1900;-0.2635473;0.0;-0.032101221;1003.912;  4.0011960E-01;3241.0627;3;-49.252388;0.0;-1.2275994;0;-0.76986653;  1.0087188E+04;  0.0000000E+00;  3.5593847E-03;  1.0000000E+04;  0.0000000E+00;  9.9851787E+03;-0.88855708;0.0;0.11869056;7553.3447
  5.5906999E-01;  9.9999998E-03; -2.2013982E-01;1901;-0.26860502;0.0;-0.03088708;1003.8143;  4.0011978E-01;3159.9792;3;-47.374783;0.0;-0.61045647;0;-0.77008134;  1.0085420E+04;  0.0000000E+00;  1.6649719E-03;  1.0000000E+04;  0.0000000E+00;  9.9849834E+03;-0.89243388;0.0;0.12235253;7642.3652
  5.5907667E-01;  9.9999998E-03; -2.0013125E-01;1902;-0.27215406;0.0;-0.02936206;1003.7601;  4.0011972E-01;3115.1416;3;-48.01231;0.0;-0.41090837;0;-0.77471042;  1.0083817E+04;  0.0000000E+00;  5.8222824E-04;  1.0000000E+04;  0.0000000E+00;  9.9854902E+03;-0.8989284;0.0;0.12421798;7383.1089
  5.7897902E-01;  9.9999998E-03; -3.0025327E-01;1928;-0.25912604;0.0;-0.042676162;1004.3769;  4.0031865E-01;3626.123;3;-83.383896;0.0;-5.7663398;0;-0.6895262;  1.0088162E+04;  0.0000000E+00;  8.4254582E-04;  1.0000000E+04;  0.0000000E+00;  9.9834404E+03;-0.82048327;0.0;0.13095708;8386.8184
  5.7897449E-01;  9.9999998E-03; -2.8022069E-01;1929;-0.26790297;0.0;-0.039292991;1004.3936;  4.0031886E-01;3639.9497;3;-68.194305;0.0;-2.6461933;0;-0.69639367;  1.0086511E+04;  0.0000000E+00;  7.8082355E-03;  1.0000000E+04;  0.0000000E+00;  9.9854287E+03;-0.81874365;0.0;0.12234998;7407.4541
  5.7897168E-01;  9.9999998E-03; -2.6018894E-01;1930;-0.2760624;0.0;-0.034967843;1004.2906;  4.0031892E-01;3554.7185;3;-57.031879;0.0;-0.24830961;0;-0.70570773;  1.0084812E+04;  0.0000000E+00;  8.6183902E-03;  1.0000000E+04;  0.0000000E+00;  9.9850830E+03;-0.81937724;0.0;0.1136695;7591.4199
  5.7897258E-01;  9.9999998E-03; -2.4017516E-01;1931;-0.28278041;0.0;-0.03285338;1004.0906;  4.0031895E-01;3388.9971;3;-50.772755;0.0;1.1923918;0;-0.69744164;  1.0083171E+04;  0.0000000E+00;  5.7068621E-03;  1.0000000E+04;  0.0000000E+00;  9.9827383E+03;-0.82285893;0.0;0.12541728;8739.1982
  5.7897782E-01;  9.9999998E-03; -2.2016856E-01;1932;-0.28779542;0.0;-0.032302465;1003.9847;  4.0031907E-01;3301.1982;3;-48.722557;0.0;1.6053393;0;-0.6960305;  1.0081627E+04;  0.0000000E+00;  2.6480809E-03;  1.0000000E+04;  0.0000000E+00;  9.9821621E+03;-0.82897151;0.0;0.13294104;9014.4551
  5.7898587E-01;  9.9999998E-03; -2.0015959E-01;1933;-0.29166061;0.0;-0.030973626;1003.9396;  4.0031922E-01;3263.8662;3;-49.417435;0.0;1.6938223;0;-0.70172441;  1.0080223E+04;  0.0000000E+00;  8.0287649E-04;  1.0000000E+04;  0.0000000E+00;  9.9826611E+03;-0.83724797;0.0;0.13552354;8760.5908
  5.9886414E-01;  9.9999998E-03; -3.0029997E-01;1959;-0.2792713;0.0;-0.045138709;1004.9279;  4.0082443E-01;4082.5801;3;-87.498947;0.0;-3.6222105;0;-0.53099668;  1.0074852E+04;  0.0000000E+00;  2.1588791E-03;  1.0000000E+04;  0.0000000E+00;  9.9824238E+03;-0.65828151;0.0;0.12728482;8839.0283
  5.9887248E-01;  9.9999998E-03; -2.8026426E-01;1960;-0.28644633;0.0;-0.041181557;1004.9473;  4.0082479E-01;4098.6782;3;-70.74276;0.0;-0.086685926;0;-0.545681;  1.0073834E+04;  0.0000000E+00;  1.1843553E-02;  1.0000000E+04;  0.0000000E+00;  9.9838242E+03;-0.66325676;0.0;0.11757579;8158.7666
  5.9887755E-01;  9.9999998E-03; -2.6022956E-01;1961;-0.29379317;0.0;-0.036547232;1004.8295;  4.0082514E-01;4001.1023;3;-58.68108;0.0;2.671247;0;-0.55504167;  1.0072858E+04;  0.0000000E+00;  1.3478409E-02;  1.0000000E+04;  0.0000000E+00;  9.9824609E+03;-0.67138302;0.0;0.11634133;8842.9863
  5.9888250E-01;  9.9999998E-03; -2.4021292E-01;1962;-0.30034018;0.0;-0.034460086;1004.6258;  4.0082550E-01;3832.3198;3;-52.032257;0.0;4.0971317;0;-0.54604614;  1.0071985E+04;  0.0000000E+00;  9.0404833E-03;  1.0000000E+04;  0.0000000E+00;  9.9792900E+03;-0.68271524;0.0;0.13666907;10392.183
  5.9888965E-01;  9.9999998E-03; -2.2020449E-01;1963;-0.30551487;0.0;-0.033963349;1004.5356;  4.0082586E-01;3757.5579;3;-49.741165;0.0;4.2586346;0;-0.5473609;  1.0071184E+04;  0.0000000E+00;  4.1102851E-03;  1.0000000E+04;  0.0000000E+00;  9.9782832E+03;-0.69626516;0.0;0.14890423;10878.742
  5.9889895E-01;  9.9999998E-03; -2.0019357E-01;1964;-0.30958831;0.0;-0.032821596;1004.5193;  4.0082592E-01;3744.1262;3;-50.374718;0.0;4.0201344;0;-0.55729818;  1.0070419E+04;  0.0000000E+00;  1.0421015E-03;  1.0000000E+04;  0.0000000E+00;  9.9787119E+03;-0.71073973;0.0;0.15344156;10660.744
  6.1876363E-01;  9.9999998E-03; -3.0036405E-01;1990;-0.29638103;0.0;-0.049113434;1006.4078;  4.0198606E-01;5308.5674;3;-91.011528;0.0;-1.5630244;0;-0.24052612;  1.0049851E+04;  0.0000000E+00;  4.4256425E-03;  1.0000000E+04;  0.0000000E+00;  9.9790186E+03;-0.37075514;0.0;0.13022901;10418.976
  6.1878264E-01;  9.9999998E-03; -2.8032839E-01;1991;-0.30233279;0.0;-0.04478354;1006.4419;  4.0198699E-01;5336.9111;3;-72.991173;0.0;2.9356894;0;-0.26846656;  1.0050030E+04;  0.0000000E+00;  1.7715154E-02;  1.0000000E+04;  0.0000000E+00;  9.9794707E+03;-0.38814005;0.0;0.11967349;10219.528
  6.1879176E-01;  9.9999998E-03; -2.6028779E-01;1992;-0.30939499;0.0;-0.040009696;1006.3987;  4.0198785E-01;5301.1597;3;-60.083931;0.0;6.0356112;0;-0.28414071;  1.0050344E+04;  0.0000000E+00;  2.0385876E-02;  1.0000000E+04;  0.0000000E+00;  9.9783066E+03;-0.40934077;0.0;0.12520006;10803.203
  6.1879981E-01;  9.9999998E-03; -2.4026214E-01;1993;-0.31579888;0.0;-0.036916766;1006.2552;  4.0198857E-01;5182.2524;3;-52.875401;0.0;7.3301401;0;-0.28435156;  1.0050797E+04;  0.0000000E+00;  1.3970592E-02;  1.0000000E+04;  0.0000000E+00;  9.9750000E+03;-0.43394619;0.0;0.14959463;12422.953
  6.1880964E-01;  9.9999998E-03; -2.2024763E-01;1994;-0.32094321;0.0;-0.035896678;1006.2048;  4.0198928E-01;5140.3779;3;-50.381386;0.0;7.4514594;0;-0.2916733;  1.0051285E+04;  0.0000000E+00;  6.3593430E-03;  1.0000000E+04;  0.0000000E+00;  9.9735039E+03;-0.46018001;0.0;0.1685067;13149.342
  6.1882019E-01;  9.9999998E-03; -2.0023179E-01;1995;-0.32523468;0.0;-0.034367356;1006.2346;  4.0198967E-01;5165.0679;3;-51.005554;0.0;6.9107108;0;-0.30849022;  1.0051649E+04;  0.0000000E+00;  1.4362779E-03;  1.0000000E+04;  0.0000000E+00;  9.9737070E+03;-0.48574477;0.0;0.17725456;13043.384
  6.3868970E-01;  9.9999998E-03; -3.0044967E-01;2021;-0.30875921;0.0;-0.055328198;1009.4529;  4.0413141E-01;7831.3389;3;-93.374626;0.0;0.40375736;0;0.21807294;  1.0011438E+04;  0.0000000E+00;  6.7137009E-03;  1.0000000E+04;  0.0000000E+00;  9.9715049E+03;0.065116867;0.0;0.15295607;13954.859
  6.3871104E-01;  9.9999998E-03; -2.8041759E-01;2022;-0.314845;0.0;-0.050906222;1009.5363;  4.0413329E-01;7900.3716;3;-74.61834;0.0;6.106329;0;0.16764192;  1.0013241E+04;  0.0000000E+00;  2.3763752E-02;  1.0000000E+04;  0.0000000E+00;  9.9712695E+03;0.031399723;0.0;0.1362422;14119.09
  6.3872164E-01;  9.9999998E-03; -2.6037562E-01;2023;-0.32201773;0.0;-0.046764132;1009.6353;  4.0413442E-01;7982.3423;3;-61.106968;0.0;9.5535812;0;0.13983609;  1.0015235E+04;  0.0000000E+00;  2.8304661E-02;  1.0000000E+04;  0.0000000E+00;  9.9712246E+03;-0.0060940008;0.0;0.14593008;14150.542
  6.3873011E-01;  9.9999998E-03; -2.4033216E-01;2024;-0.3285403;0.0;-0.041762147;1009.6677;  4.0413535E-01;8009.3037;3;-53.434692;0.0;10.968029;0;0.11775303;  1.0017369E+04;  0.0000000E+00;  2.0275727E-02;  1.0000000E+04;  0.0000000E+00;  9.9697334E+03;-0.046567079;0.0;0.16432011;14885.02
  6.3874084E-01;  9.9999998E-03; -2.2029948E-01;2025;-0.33366442;0.0;-0.038452625;1009.7006;  4.0413639E-01;8036.4624;3;-50.699184;0.0;10.884501;0;0.099987388;  1.0019469E+04;  0.0000000E+00;  9.7109945E-03;  1.0000000E+04;  0.0000000E+00;  9.9682578E+03;-0.087744325;0.0;0.18773171;15602.561
  6.3875395E-01;  9.9999998E-03; -2.0027500E-01;2026;-0.33770251;0.0;-0.035752635;1009.7818;  4.0413710E-01;8103.8164;3;-51.278038;0.0;10.19578;0;0.077287748;  1.0021306E+04;  0.0000000E+00;  2.4156859E-03;  1.0000000E+04;  0.0000000E+00;  9.9680000E+03;-0.12661837;0.0;0.20390612;15722.611
  6.5865237E-01;  9.9999998E-03; -3.0054957E-01;2052;-0.31349251;0.0;-0.063302703;1013.2112;  4.0686467E-01;10944.814;3;-93.516251;0.0;1.6727923;0;0.82165909;  9.9607441E+03;  0.0000000E+00;  6.0301255E-03;  1.0000000E+04;  0.0000000E+00;  9.9618125E+03;0.63838822;0.0;0.18327084;18518.359
  6.5867054E-01;  9.9999998E-03; -2.8052482E-01;2053;-0.32117838;0.0;-0.059649121;1013.3437;  4.0686643E-01;11054.534;3;-75.475624;0.0;9.2864714;0;0.75597525;  9.9642314E+03;  0.0000000E+00;  2.6329760E-02;  1.0000000E+04;  0.0000000E+00;  9.9608574E+03;0.58949959;0.0;0.16647564;19053.213
  6.5868163E-01;  9.9999998E-03; -2.6049292E-01;2054;-0.32838586;0.0;-0.057518154;1013.5674;  4.0686697E-01;11239.903;3;-61.524902;0.0;12.890029;0;0.71706367;  9.9679160E+03;  0.0000000E+00;  3.4178667E-02;  1.0000000E+04;  0.0000000E+00;  9.9615762E+03;0.53755611;0.0;0.17950757;18708.984
  6.5868932E-01;  9.9999998E-03; -2.4043903E-01;2055;-0.33519483;0.0;-0.052370418;1013.8292;  4.0686709E-01;11456.777;3;-53.499287;0.0;14.787108;0;0.67143023;  9.9716797E+03;  0.0000000E+00;  2.6338965E-02;  1.0000000E+04;  0.0000000E+00;  9.9629814E+03;0.4842312;0.0;0.187199;18021.736
  6.5869677E-01;  9.9999998E-03; -2.2037713E-01;2056;-0.34114131;0.0;-0.044543389;1014.0043;  4.0686750E-01;11601.854;3;-50.681438;0.0;14.829783;0;0.63658261;  9.9753271E+03;  0.0000000E+00;  1.3852665E-02;  1.0000000E+04;  0.0000000E+00;  9.9627949E+03;0.43172434;0.0;0.20485827;18115.26
  6.5870851E-01;  9.9999998E-03; -2.0033188E-01;2057;-0.345824;0.0;-0.03856539;1014.1391;  4.0686810E-01;11713.451;3;-51.229153;0.0;13.95113;0;0.61181122;  9.9785723E+03;  0.0000000E+00;  4.4148285E-03;  1.0000000E+04;  0.0000000E+00;  9.9621807E+03;0.38299295;0.0;0.22881828;18408.563
  6.7867565E-01;  9.9999998E-03; -3.0064067E-01;2083;-0.30331099;0.0;-0.071217299;1015.4947;  4.0907967E-01;12836.347;3;-87.66497;0.0;0.97670496;0;1.4818205;  9.9032266E+03;  0.0000000E+00;  1.5158912E-03;  1.0000000E+04;  0.0000000E+00;  9.9559727E+03;1.2839651;0.0;0.19785532;21151.305
  6.7867225E-01;  9.9999998E-03; -2.8062457E-01;2084;-0.31761363;0.0;-0.06782908;1015.6231;  4.0908006E-01;12942.708;3;-73.573883;0.0;12.249022;0;1.4058663;  9.9078223E+03;  0.0000000E+00;  2.1262566E-02;  1.0000000E+04;  0.0000000E+00;  9.9538818E+03;1.2295824;0.0;0.17628381;22271.756
  6.7867947E-01;  9.9999998E-03; -2.6060864E-01;2085;-0.32662803;0.0;-0.068372525;1015.8688;  4.0907970E-01;13146.246;3;-60.187653;0.0;16.656572;0;1.3710607;  9.9126621E+03;  0.0000000E+00;  3.3513293E-02;  1.0000000E+04;  0.0000000E+00;  9.9538828E+03;1.1728549;0.0;0.19820586;22279.402
  6.7868614E-01;  9.9999998E-03; -2.4056616E-01;2086;-0.33375469;0.0;-0.066475272;1016.2368;  4.0907851E-01;13451.109;3;-52.48877;0.0;18.433773;0;1.32511;  9.9174707E+03;  0.0000000E+00;  2.8876681E-02;  1.0000000E+04;  0.0000000E+00;  9.9563457E+03;1.117384;0.0;0.20772599;21071.348
  6.7868716E-01;  9.9999998E-03; -2.2048491E-01;2087;-0.34143212;0.0;-0.056829315;1016.5377;  4.0907753E-01;13700.372;3;-49.97477;0.0;18.378611;0;1.2831116;  9.9220508E+03;  0.0000000E+00;  1.7074326E-02;  1.0000000E+04;  0.0000000E+00;  9.9576982E+03;1.0647324;0.0;0.21837911;20408.904
  6.7869443E-01;  9.9999998E-03; -2.0041560E-01;2088;-0.34743378;0.0;-0.046596028;1016.708;  4.0907726E-01;13841.496;3;-50.703632;0.0;17.6429;0;1.2646848;  9.9261748E+03;  0.0000000E+00;  6.9827698E-03;  1.0000000E+04;  0.0000000E+00;  9.9569219E+03;1.0168418;0.0;0.24784298;20782.305
  6.9887984E-01;  9.9999998E-03; -3.0071399E-01;2114;-0.244845;0.0;-0.076271966;1015.6907;  4.1030815E-01;12998.443;3;-63.059494;0.0;3.8941557;0;2.057935;  9.8489141E+03;  0.0000000E+00;  1.1834986E-02;  1.0000000E+04;  0.0000000E+00;  9.9546064E+03;1.8796787;0.0;0.17825638;21617.178
  6.9876891E-01;  9.9999998E-03; -2.8070241E-01;2115;-0.28934336;0.0;-0.073379651;1015.7656;  4.1030717E-01;13060.465;3;-61.323448;0.0;16.167538;0;1.9978901;  9.8532432E+03;  0.0000000E+00;  1.4288303E-02;  1.0000000E+04;  0.0000000E+00;  9.9518574E+03;1.8399054;0.0;0.15798473;23059.258
  6.9874072E-01;  9.9999998E-03; -2.6070273E-01;2116;-0.31088829;0.0;-0.076522835;1015.9081;  4.1030616E-01;13178.575;3;-55.220688;0.0;20.255989;0;1.9892682;  9.8579639E+03;  0.0000000E+00;  2.5630582E-02;  1.0000000E+04;  0.0000000E+00;  9.9499756E+03;1.797745;0.0;0.19152315;23995.791
  6.9874567E-01;  9.9999998E-03; -2.4068742E-01;2117;-0.31841958;0.0;-0.080752395;1016.2165;  4.1030437E-01;13434.055;3;-49.275833;0.0;22.335682;0;1.9774272;  9.8626221E+03;  0.0000000E+00;  2.5678221E-02;  1.0000000E+04;  0.0000000E+00;  9.9514014E+03;1.7588187;0.0;0.21860847;23281.311
  6.9874024E-01;  9.9999998E-03; -2.2061898E-01;2118;-0.32645404;0.0;-0.07721819;1016.5385;  4.1030252E-01;13700.793;3;-46.498081;0.0;21.357338;0;1.9555764;  9.8670400E+03;  0.0000000E+00;  1.7029114E-02;  1.0000000E+04;  0.0000000E+00;  9.9533311E+03;1.7240022;0.0;0.23157413;22329.271
  6.9873887E-01;  9.9999998E-03; -2.0053855E-01;2119;-0.33535421;0.0;-0.066221438;1016.7109;  4.1030154E-01;13843.691;3;-47.990326;0.0;20.209831;0;1.95423;  9.8710840E+03;  0.0000000E+00;  8.4003191E-03;  1.0000000E+04;  0.0000000E+00;  9.9526719E+03;1.6934087;0.0;0.26082119;22645.324
  7.1924716E-01;  9.9999998E-03; -3.0076829E-01;2145;-0.15416345;0.0;-0.080036715;1015.0836;  4.1084942E-01;12495.146;3;-34.440472;0.0;6.8855786;0;2.4404848;  9.8097002E+03;  0.0000000E+00;  2.1506567E-02;  1.0000000E+04;  0.0000000E+00;  9.9560938E+03;2.2800703;0.0;0.16041456;20721.057
  7.1912658E-01;  9.9999998E-03; -2.8075650E-01;2146;-0.19397937;0.0;-0.076974981;1015.0622;  4.1084921E-01;12477.471;3;-34.249828;0.0;19.373707;0;2.4090779;  9.8119727E+03;  0.0000000E+00;  2.6852408E-02;  1.0000000E+04;  0.0000000E+00;  9.9534639E+03;2.2812514;0.0;0.12782647;22110.918
  7.1902043E-01;  9.9999998E-03; -2.6076442E-01;2147;-0.23482625;0.0;-0.079984479;1015.0056;  4.1084865E-01;12430.563;3;-34.534851;0.0;25.661089;0;2.4450488;  9.8147402E+03;  0.0000000E+00;  2.3407031E-02;  1.0000000E+04;  0.0000000E+00;  9.9496572E+03;2.2799463;0.0;0.16510251;23992.504
  7.1895134E-01;  9.9999998E-03; -2.4077109E-01;2148;-0.26507285;0.0;-0.088251084;1015.1267;  4.1084665E-01;12530.899;3;-35.128197;0.0;28.036407;0;2.4918072;  9.8176572E+03;  0.0000000E+00;  1.9057419E-02;  1.0000000E+04;  0.0000000E+00;  9.9491904E+03;2.2799175;0.0;0.21188971;24188.365
  7.1892059E-01;  9.9999998E-03; -2.2073661E-01;2149;-0.28149688;0.0;-0.093172185;1015.3353;  4.1084492E-01;12703.716;3;-36.281864;0.0;28.077152;0;2.5191207;  9.8205488E+03;  0.0000000E+00;  1.3064302E-02;  1.0000000E+04;  0.0000000E+00;  9.9504150E+03;2.2827251;0.0;0.23639557;23567.586
  7.1891350E-01;  9.9999998E-03; -2.0068084E-01;2150;-0.29123205;0.0;-0.093402289;1015.4404;  4.1084394E-01;12790.717;3;-38.19957;0.0;25.426762;0;2.5564921;  9.8234111E+03;  0.0000000E+00;  7.1848296E-03;  1.0000000E+04;  0.0000000E+00;  9.9496230E+03;2.2867203;0.0;0.26977181;23941.25
  7.3954862E-01;  9.9999998E-03; -3.0080625E-01;2176;-0.089427441;0.0;-0.083621435;1014.7935;  4.1106221E-01;12254.43;3;-18.013344;0.0;5.8173647;0;2.5786755;  9.7921270E+03;  0.0000000E+00;  2.7774647E-03;  1.0000000E+04;  0.0000000E+00;  9.9580596E+03;2.4191477;0.0;0.15952782;19644.057
  7.3947203E-01;  9.9999998E-03; -2.8079173E-01;2177;-0.1132245;0.0;-0.077653691;1014.6566;  4.1106254E-01;12141.067;3;-17.54055;0.0;22.279371;0;2.5556815;  9.7916807E+03;  0.0000000E+00;  1.8317347E-02;  1.0000000E+04;  0.0000000E+00;  9.9558613E+03;2.4658048;0.0;0.089876637;20864.895
  7.3940247E-01;  9.9999998E-03; -2.6078433E-01;2178;-0.13821192;0.0;-0.079755217;1014.5109;  4.1106260E-01;12020.301;3;-17.472977;0.0;29.44458;0;2.6496277;  9.7913916E+03;  0.0000000E+00;  1.7592113E-02;  1.0000000E+04;  0.0000000E+00;  9.9533418E+03;2.5176196;0.0;0.13200814;22082.857
  7.3934877E-01;  9.9999998E-03; -2.4078256E-01;2179;-0.15917143;0.0;-0.085131146;1014.4031;  4.1106156E-01;11931.032;3;-17.951992;0.0;32.110142;0;2.7521052;  9.7913926E+03;  0.0000000E+00;  1.2522347E-02;  1.0000000E+04;  0.0000000E+00;  9.9512930E+03;2.5711331;0.0;0.18097214;23051.709
  7.3931497E-01;  9.9999998E-03; -2.2075179E-01;2180;-0.17467354;0.0;-0.089615561;1014.3805;  4.1106045E-01;11912.271;3;-19.136507;0.0;32.813679;0;2.8451862;  9.7917969E+03;  0.0000000E+00;  7.6980032E-03;  1.0000000E+04;  0.0000000E+00;  9.9504971E+03;2.6232395;0.0;0.2219467;23407.807
  7.3930073E-01;  9.9999998E-03; -2.0070186E-01;2181;-0.18503313;0.0;-0.091035552;1014.3226;  4.1105971E-01;11864.378;3;-21.299688;0.0;30.390125;0;2.9383559;  9.7927393E+03;  0.0000000E+00;  4.1743065E-03;  1.0000000E+04;  0.0000000E+00;  9.9484395E+03;2.6704209;0.0;0.26793516;24385.316
  7.5975382E-01;  9.9999998E-03; -3.0083376E-01;2207;-0.053155761;0.0;-0.087501653;1015.0577;  4.1114077E-01;12472.639;3;-12.307721;0.0;2.4001873;0;2.5504031;  9.7933184E+03;  0.0000000E+00; -1.1466867E-02;  1.0000000E+04;  0.0000000E+00;  9.9583086E+03;2.3607044;0.0;0.18969859;19450.682
  7.5971192E-01;  9.9999998E-03; -2.8081620E-01;2208;-0.065563746;0.0;-0.07627178;1014.8157;  4.1114151E-01;12272.189;3;-11.548838;0.0;24.968327;0;2.4977827;  9.7905420E+03;  0.0000000E+00;  2.8992065E-03;  1.0000000E+04;  0.0000000E+00;  9.9563877E+03;2.4413531;0.0;0.056429643;20621.443
  7.5967485E-01;  9.9999998E-03; -2.6079181E-01;2209;-0.078205422;0.0;-0.078440942;1014.6331;  4.1114181E-01;12120.915;3;-10.974738;0.0;32.763626;0;2.6513731;  9.7875791E+03;  0.0000000E+00;  5.9802104E-03;  1.0000000E+04;  0.0000000E+00;  9.9558389E+03;2.5335715;0.0;0.1178017;20820.189
  7.5964320E-01;  9.9999998E-03; -2.4077763E-01;2210;-0.089605831;0.0;-0.079928495;1014.3459;  4.1114148E-01;11883.141;3;-10.943484;0.0;36.840759;0;2.7941692;  9.7849102E+03;  0.0000000E+00;  4.5242533E-03;  1.0000000E+04;  0.0000000E+00;  9.9529541E+03;2.6294742;0.0;0.16469495;22195.613
  7.5962096E-01;  9.9999998E-03; -2.2074379E-01;2211;-0.098717995;0.0;-0.082906678;1014.1291;  4.1114110E-01;11703.428;3;-11.562699;0.0;36.670185;0;2.9392626;  9.7829512E+03;  0.0000000E+00;  2.6358103E-03;  1.0000000E+04;  0.0000000E+00;  9.9507373E+03;2.722168;0.0;0.21709472;23232.998
  7.5960845E-01;  9.9999998E-03; -2.0069183E-01;2212;-0.10564934;0.0;-0.081452765;1013.9291;  4.1114056E-01;11537.834;3;-12.813469;0.0;32.980782;0;3.0752311;  9.7819707E+03;  0.0000000E+00;  1.3586779E-03;  1.0000000E+04;  0.0000000E+00;  9.9478408E+03;2.8056355;0.0;0.26959562;24610.83
  7.7988875E-01;  9.9999998E-03; -3.0085272E-01;2238;-0.033268899;0.0;-0.090109818;1015.6481;  4.1116795E-01;12960.851;3;-11.032853;0.0;1.4045711;0;2.4571552;  9.8047793E+03;  0.0000000E+00; -7.7884682E-03;  1.0000000E+04;  0.0000000E+00;  9.9569238E+03;2.2288148;0.0;0.22834051;20102.762
  7.7987325E-01;  9.9999998E-03; -2.8083262E-01;2239;-0.038023859;0.0;-0.075484641;1015.3347;  4.1116893E-01;12701.172;3;-10.263232;0.0;27.38413;0;2.3808117;  9.8004512E+03;  0.0000000E+00; -2.0274944E-03;  1.0000000E+04;  0.0000000E+00;  9.9551621E+03;2.3285868;0.0;0.052224938;21254.043
  7.7986044E-01;  9.9999998E-03; -2.6080042E-01;2240;-0.042319465;0.0;-0.07924708;1015.1142;  4.1116923E-01;12518.606;3;-9.5393028;0.0;35.465649;0;2.5798018;  9.7957842E+03;  0.0000000E+00;  1.5653788E-04;  1.0000000E+04;  0.0000000E+00;  9.9555898E+03;2.4422328;0.0;0.13756895;20926.875
  7.7984774E-01;  9.9999998E-03; -2.4077281E-01;2241;-0.046390038;0.0;-0.076425478;1014.7609;  4.1116920E-01;12225.95;3;-9.1375303;0.0;39.860046;0;2.7283726;  9.7914160E+03;  0.0000000E+00;  4.1163631E-04;  1.0000000E+04;  0.0000000E+00;  9.9531260E+03;2.5605521;0.0;0.16782056;22102.824
  7.7983689E-01;  9.9999998E-03; -2.2073217E-01;2242;-0.050000191;0.0;-0.076437369;1014.4407;  4.1116911E-01;11960.742;3;-9.1446419;0.0;38.973198;0;2.8973477;  9.7878887E+03;  0.0000000E+00;  1.9889572E-04;  1.0000000E+04;  0.0000000E+00;  9.9504570E+03;2.6748617;0.0;0.22248596;23355.17
  7.7982891E-01;  9.9999998E-03; -2.0067714E-01;2243;-0.053167026;0.0;-0.071548648;1014.1599;  4.1116890E-01;11728.119;3;-9.5461025;0.0;36.973923;0;3.0546968;  9.7856055E+03;  0.0000000E+00;  4.0546522E-05;  1.0000000E+04;  0.0000000E+00;  9.9472998E+03;2.7777102;0.0;0.27698651;24853.934
  7.9999846E-01;  9.9999998E-03; -3.0086255E-01;2269;-0.014820503;0.0;-0.091191441;1016.2579;  4.1117534E-01;13464.676;3;-8.1894693;0.0;1.5195984;0;2.3802392;  9.8178936E+03;  0.0000000E+00; -4.4680151E-04;  1.0000000E+04;  0.0000000E+00;  9.9551582E+03;2.1288586;0.0;0.25138071;20967.262
  8.0000395E-01;  9.9999998E-03; -2.8084084E-01;2270;-0.013850478;0.0;-0.075108416;1015.9093;  4.1117644E-01;13175.993;3;-7.7404828;0.0;28.498127;0;2.293818;  9.8128750E+03;  0.0000000E+00; -3.9880187E-04;  1.0000000E+04;  0.0000000E+00;  9.9533945E+03;2.2345695;0.0;0.05924838;22138.172
  8.0000955E-01;  9.9999998E-03; -2.6080734E-01;2271;-0.012179406;0.0;-0.0796021;1015.6595;  4.1117659E-01;12969.157;3;-7.294816;0.0;37.388901;0;2.5109253;  9.8075410E+03;  0.0000000E+00; -2.4822701E-04;  1.0000000E+04;  0.0000000E+00;  9.9539072E+03;2.3530068;0.0;0.15791844;21749.221
  8.0001235E-01;  9.9999998E-03; -2.4077369E-01;2272;-0.010701413;0.0;-0.076179378;1015.3042;  4.1117665E-01;12674.849;3;-6.9454231;0.0;41.035252;0;2.6599259;  9.8025352E+03;  0.0000000E+00; -1.4971780E-04;  1.0000000E+04;  0.0000000E+00;  9.9520479E+03;2.4753554;0.0;0.1845706;22626.951
  8.0001146E-01;  9.9999998E-03; -2.2072692E-01;2273;-0.01002386;0.0;-0.073883742;1014.969;  4.1117677E-01;12397.224;3;-6.7128372;0.0;40.372375;0;2.8277316;  9.7984326E+03;  0.0000000E+00; -1.1039188E-04;  1.0000000E+04;  0.0000000E+00;  9.9496504E+03;2.5925646;0.0;0.23516701;23744.334
  8.0000830E-01;  9.9999998E-03; -2.0066668E-01;2274;-0.010104278;0.0;-0.067198671;1014.6752;  4.1117659E-01;12153.858;3;-6.5885444;0.0;38.410793;0;2.984911;  9.7956826E+03;  0.0000000E+00; -9.1815520E-05;  1.0000000E+04;  0.0000000E+00;  9.9467090E+03;2.6967442;0.0;0.28816679;25134.686
  8.2011956E-01;  9.9999998E-03; -3.0086353E-01;2300;0.011950306;0.0;-0.091263101;1016.6688;  4.1115969E-01;13803.309;3;-0.68131137;0.0;1.9016554;0;2.3598628;  9.8278125E+03;  0.0000000E+00;  1.6280463E-04;  1.0000000E+04;  0.0000000E+00;  9.9538281E+03;2.1026809;0.0;0.25718182;21614.838
  8.2014447E-01;  9.9999998E-03; -2.8084117E-01;2301;0.018640129;0.0;-0.074870102;1016.3176;  4.1116083E-01;13512.487;3;-0.79533422;0.0;28.74589;0;2.2688723;  9.8228613E+03;  0.0000000E+00;  6.8601500E-04;  1.0000000E+04;  0.0000000E+00;  9.9519473E+03;2.2045012;0.0;0.064371198;22842.148
  8.2016492E-01;  9.9999998E-03; -2.6081043E-01;2302;0.025603686;0.0;-0.079098709;1016.0548;  4.1116112E-01;13294.914;3;-0.93571472;0.0;38.61689;0;2.4809847;  9.8177148E+03;  0.0000000E+00;  6.9127372E-04;  1.0000000E+04;  0.0000000E+00;  9.9520068E+03;2.3164091;0.0;0.16457565;22677.893
  8.2018042E-01;  9.9999998E-03; -2.4077934E-01;2303;0.03157983;0.0;-0.078402966;1015.7263;  4.1116112E-01;13022.752;3;-1.0246176;0.0;41.395004;0;2.6337106;  9.8129561E+03;  0.0000000E+00;  5.2263023E-04;  1.0000000E+04;  0.0000000E+00;  9.9504102E+03;2.4302113;0.0;0.20349933;23409.086
  8.2018745E-01;  9.9999998E-03; -2.2072871E-01;2304;0.035374206;0.0;-0.076641545;1015.4403;  4.1116089E-01;12786.03;3;-0.99764287;0.0;39.489849;0;2.7867498;  9.8091377E+03;  0.0000000E+00;  3.4112594E-04;  1.0000000E+04;  0.0000000E+00;  9.9486865E+03;2.5369561;0.0;0.24979383;24194.863
  8.2018721E-01;  9.9999998E-03; -2.0066081E-01;2305;0.037144892;0.0;-0.067913964;1015.1874;  4.1116059E-01;12576.554;3;-0.82493073;0.0;37.450935;0;2.927314;  9.8067100E+03;  0.0000000E+00;  1.7791170E-04;  1.0000000E+04;  0.0000000E+00;  9.9462246E+03;2.6288142;0.0;0.29849985;25353.805
  8.4026492E-01;  9.9999998E-03; -3.0085418E-01;2331;0.048565641;0.0;-0.090613313;1016.5719;  4.1097811E-01;13720.784;3;11.026357;0.0;2.0472693;0;2.3720887;  9.8344873E+03;  0.0000000E+00; -2.1235577E-03;  1.0000000E+04;  0.0000000E+00;  9.9539346E+03;2.1261587;0.0;0.24592999;21542.953
  8.4030920E-01;  9.9999998E-03; -2.8083149E-01;2332;0.06188212;0.0;-0.07471507;1016.2448;  4.1097918E-01;13449.946;3;10.297203;0.0;27.85866;0;2.2785697;  9.8301729E+03;  0.0000000E+00;  1.3463659E-03;  1.0000000E+04;  0.0000000E+00;  9.9518838E+03;2.2177272;0.0;0.060842492;22841.451
  8.4034359E-01;  9.9999998E-03; -2.6080346E-01;2333;0.074514106;0.0;-0.078108907;1015.9894;  4.1097921E-01;13238.526;3;9.4900675;0.0;38.33754;0;2.4732506;  9.8258115E+03;  0.0000000E+00;  2.0350197E-03;  1.0000000E+04;  0.0000000E+00;  9.9513008E+03;2.3166325;0.0;0.15661816;23005.73
  8.4036970E-01;  9.9999998E-03; -2.4077754E-01;2334;0.084585495;0.0;-0.079955623;1015.6943;  4.1097909E-01;12994.24;3;8.7767096;0.0;41.049774;0;2.6245949;  9.8219111E+03;  0.0000000E+00;  1.6043696E-03;  1.0000000E+04;  0.0000000E+00;  9.9494932E+03;2.4149137;0.0;0.2096812;23823.959
  8.4038264E-01;  9.9999998E-03; -2.2072732E-01;2335;0.090754457;0.0;-0.080538541;1015.476;  4.1097862E-01;12813.421;3;8.2882042;0.0;37.924767;0;2.761297;  9.8189932E+03;  0.0000000E+00;  9.7694085E-04;  1.0000000E+04;  0.0000000E+00;  9.9481943E+03;2.5037153;0.0;0.2575818;24402.305
  8.4038234E-01;  9.9999998E-03; -2.0065543E-01;2336;0.093041733;0.0;-0.071412452;1015.2894;  4.1097826E-01;12658.956;3;8.1126623;0.0;34.979923;0;2.8796828;  9.8174600E+03;  0.0000000E+00;  4.7090044E-04;  1.0000000E+04;  0.0000000E+00;  9.9461104E+03;2.5755186;0.0;0.30416414;25376.211
  8.6042619E-01;  9.9999998E-03; -3.0083600E-01;2362;0.090759575;0.0;-0.089419141;1016.0875;  4.1062120E-01;13316.689;3;24.469597;0.0;2.217685;0;2.3614786;  9.8410889E+03;  0.0000000E+00; -1.2674896E-03;  1.0000000E+04;  0.0000000E+00;  9.9550938E+03;2.139185;0.0;0.22229351;20953.176
  8.6049032E-01;  9.9999998E-03; -2.8081319E-01;2363;0.11141829;0.0;-0.074688926;1015.8061;  4.1062179E-01;13083.799;3;23.256451;0.0;26.29648;0;2.2688606;  9.8377891E+03;  0.0000000E+00;  3.9901165E-03;  1.0000000E+04;  0.0000000E+00;  9.9529287E+03;2.2164207;0.0;0.052439857;22281.756
  8.6053813E-01;  9.9999998E-03; -2.6078692E-01;2364;0.13017452;0.0;-0.077771336;1015.5817;  4.1062170E-01;12898.078;3;21.914774;0.0;36.197048;0;2.4431806;  9.8345928E+03;  0.0000000E+00;  4.6133930E-03;  1.0000000E+04;  0.0000000E+00;  9.9517871E+03;2.2983301;0.0;0.14485049;22730.293
  8.6057389E-01;  9.9999998E-03; -2.4076524E-01;2365;0.14448518;0.0;-0.080723636;1015.3337;  4.1062132E-01;12692.823;3;20.628117;0.0;39.156509;0;2.5818684;  9.8319609E+03;  0.0000000E+00;  3.3929900E-03;  1.0000000E+04;  0.0000000E+00;  9.9496299E+03;2.3770511;0.0;0.20481737;23715.482
  8.6059111E-01;  9.9999998E-03; -2.2071765E-01;2366;0.15251897;0.0;-0.083059974;1015.1891;  4.1062069E-01;12573.025;3;19.471785;0.0;36.66584;0;2.7001829;  9.8303506E+03;  0.0000000E+00;  1.8855389E-03;  1.0000000E+04;  0.0000000E+00;  9.9484541E+03;2.4440513;0.0;0.25613168;24232.613
  8.6058831E-01;  9.9999998E-03; -2.0064624E-01;2367;0.15454188;0.0;-0.075531058;1015.0785;  4.1062036E-01;12481.551;3;18.872297;0.0;31.723299;0;2.7965524;  9.8300850E+03;  0.0000000E+00;  7.8382081E-04;  1.0000000E+04;  0.0000000E+00;  9.9465625E+03;2.4925122;0.0;0.30404028;25109.229
  8.8058710E-01;  9.9999998E-03; -3.0081093E-01;2393;0.13307834;0.0;-0.088117704;1015.4154;  4.1010892E-01;12756.584;3;37.403851;0.0;2.5889382;0;2.28585;  9.8511709E+03;  0.0000000E+00;  3.5910471E-03;  1.0000000E+04;  0.0000000E+00;  9.9566377E+03;2.0873284;0.0;0.19852152;20167.881
  8.8066953E-01;  9.9999998E-03; -2.8078789E-01;2394;0.160927;0.0;-0.075058989;1015.1999;  4.1010901E-01;12578.21;3;36.015087;0.0;23.961529;0;2.1952193;  9.8491328E+03;  0.0000000E+00;  8.8302661E-03;  1.0000000E+04;  0.0000000E+00;  9.9545117E+03;2.146471;0.0;0.04874815;21441.639
  8.8072985E-01;  9.9999998E-03; -2.6076233E-01;2395;0.18582776;0.0;-0.077912815;1015.0348;  4.1010869E-01;12441.57;3;34.288456;0.0;33.1991;0;2.3418958;  9.8474043E+03;  0.0000000E+00;  8.4949415E-03;  1.0000000E+04;  0.0000000E+00;  9.9530811E+03;2.2072463;0.0;0.13464957;22047.451
  8.8077497E-01;  9.9999998E-03; -2.4074283E-01;2396;0.20443924;0.0;-0.081054382;1014.8566;  4.1010809E-01;12294.082;3;32.464352;0.0;36.045403;0;2.4572983;  9.8463506E+03;  0.0000000E+00;  5.9345565E-03;  1.0000000E+04;  0.0000000E+00;  9.9506934E+03;2.2623045;0.0;0.19499385;23149.014
  8.8079554E-01;  9.9999998E-03; -2.2069821E-01;2397;0.21430162;0.0;-0.083948396;1014.7926;  4.1010720E-01;12241.104;3;30.786261;0.0;34.501167;0;2.5531228;  9.8463564E+03;  0.0000000E+00;  3.1084795E-03;  1.0000000E+04;  0.0000000E+00;  9.9494707E+03;2.3042133;0.0;0.24890944;23686.303
  8.8078940E-01;  9.9999998E-03; -2.0063008E-01;2398;0.21607323;0.0;-0.078678787;1014.7627;  4.1010675E-01;12216.344;3;29.985287;0.0;28.251324;0;2.6271369;  9.8475918E+03;  0.0000000E+00;  1.1360812E-03;  1.0000000E+04;  0.0000000E+00;  9.9476563E+03;2.3275445;0.0;0.29959255;24528.529
  9.0073347E-01;  9.9999998E-03; -3.0078024E-01;2424;0.17201738;0.0;-0.087213717;1014.6843;  4.0946916E-01;12146.615;3;49.012943;0.0;2.3595648;0;2.1367655;  9.8662529E+03;  0.0000000E+00;  9.8556811E-03;  1.0000000E+04;  0.0000000E+00;  9.9582119E+03;1.9517083;0.0;0.18505719;19349.891
  9.0082985E-01;  9.9999998E-03; -2.8075719E-01;2425;0.20587373;0.0;-0.076133266;1014.5496;  4.0946883E-01;12035.161;3;47.744751;0.0;21.184296;0;2.0461142;  9.8657314E+03;  0.0000000E+00;  1.4328038E-02;  1.0000000E+04;  0.0000000E+00;  9.9561846E+03;1.9877553;0.0;0.058358982;20539.51
  9.0090108E-01;  9.9999998E-03; -2.6073119E-01;2426;0.23624322;0.0;-0.078221232;1014.4778;  4.0946820E-01;11975.681;3;45.343929;0.0;29.538578;0;2.1497443;  9.8657363E+03;  0.0000000E+00;  1.2566273E-02;  1.0000000E+04;  0.0000000E+00;  9.9548408E+03;2.0217285;0.0;0.12801576;21130.262
  9.0095282E-01;  9.9999998E-03; -2.4071009E-01;2427;0.25801948;0.0;-0.080435142;1014.3997;  4.0946725E-01;11911.177;3;42.862286;0.0;32.650986;0;2.2319264;  9.8665752E+03;  0.0000000E+00;  8.4905233E-03;  1.0000000E+04;  0.0000000E+00;  9.9525303E+03;2.0475211;0.0;0.18440543;22199.324
  9.0097785E-01;  9.9999998E-03; -2.2066738E-01;2428;0.27071932;0.0;-0.083397038;1014.4254;  4.0946627E-01;11932.37;3;41.387341;0.0;31.346102;0;2.2998302;  9.8684531E+03;  0.0000000E+00;  4.2142156E-03;  1.0000000E+04;  0.0000000E+00;  9.9511953E+03;2.0596857;0.0;0.24014443;22798.504
  9.0097028E-01;  9.9999998E-03; -2.0060536E-01;2429;0.27303869;0.0;-0.079730824;1014.4785;  4.0946576E-01;11976.351;3;40.712391;0.0;25.065067;0;2.3486271;  9.8713447E+03;  0.0000000E+00;  1.3524381E-03;  1.0000000E+04;  0.0000000E+00;  9.9493359E+03;2.0553217;0.0;0.29330537;23659.305
  9.2085630E-01;  9.9999998E-03; -3.0074480E-01;2455;0.20631374;0.0;-0.086461648;1013.9119;  4.0873539E-01;11501.397;3;59.779125;0.0;0.82610178;0;1.9260502;  9.8851357E+03;  0.0000000E+00;  1.4545865E-02;  1.0000000E+04;  0.0000000E+00;  9.9597754E+03;1.7510424;0.0;0.17500786;18520.883
  9.2095989E-01;  9.9999998E-03; -2.8072223E-01;2456;0.24405766;0.0;-0.077593602;1013.8715;  4.0873471E-01;11467.853;3;58.600174;0.0;17.506163;0;1.8327141;  9.8863555E+03;  0.0000000E+00;  1.8672936E-02;  1.0000000E+04;  0.0000000E+00;  9.9578643E+03;1.7586192;0.0;0.074094854;19618.42
  9.2103875E-01;  9.9999998E-03; -2.6069421E-01;2457;0.27760193;0.0;-0.078585878;1013.9258;  4.0873364E-01;11512.763;3;54.903553;0.0;25.661739;0;1.8862084;  9.8883604E+03;  0.0000000E+00;  1.5375193E-02;  1.0000000E+04;  0.0000000E+00;  9.9570176E+03;1.7597308;0.0;0.1264776;19997.029
  9.2109495E-01;  9.9999998E-03; -2.4066891E-01;2458;0.30276442;0.0;-0.079380602;1013.9703;  4.0873253E-01;11549.602;3;52.142513;0.0;28.907003;0;1.9266641;  9.8913428E+03;  0.0000000E+00;  9.8721907E-03;  1.0000000E+04;  0.0000000E+00;  9.9549766E+03;1.7502352;0.0;0.17642887;20942.842
  9.2112470E-01;  9.9999998E-03; -2.2062565E-01;2459;0.31818503;0.0;-0.080816478;1014.0931;  4.0873143E-01;11651.1;3;50.778984;0.0;27.481615;0;1.9589423;  9.8952598E+03;  0.0000000E+00;  4.5353519E-03;  1.0000000E+04;  0.0000000E+00;  9.9535000E+03;1.727667;0.0;0.23127528;21615.688
  9.2111421E-01;  9.9999998E-03; -2.0057251E-01;2460;0.32165354;0.0;-0.078456014;1014.2237;  4.0873075E-01;11759.02;3;51.010406;0.0;22.318848;0;1.9801959;  9.8998301E+03;  0.0000000E+00;  1.2241070E-03;  1.0000000E+04;  0.0000000E+00;  9.9514980E+03;1.6930882;0.0;0.28710771;22544.828
  9.4095135E-01;  9.9999998E-03; -3.0070597E-01;2486;0.23589817;0.0;-0.085269146;1013.0368;  4.0794322E-01;10769.92;3;70.192581;0.0;-0.42623585;0;1.6845827;  9.9049629E+03;  0.0000000E+00;  1.5962893E-02;  1.0000000E+04;  0.0000000E+00;  9.9612793E+03;1.5224538;0.0;0.16212898;17695.094
  9.4105673E-01;  9.9999998E-03; -2.8068393E-01;2487;0.27442899;0.0;-0.079151966;1013.1036;  4.0794212E-01;10825.02;3;67.87925;0.0;13.80007;0;1.5926654;  9.9080732E+03;  0.0000000E+00;  2.0930754E-02;  1.0000000E+04;  0.0000000E+00;  9.9595996E+03;1.4979988;0.0;0.094666623;18636.486
  9.4114035E-01;  9.9999998E-03; -2.6065311E-01;2488;0.3099395;0.0;-0.079308212;1013.3021;  4.0794095E-01;10988.949;3;62.997131;0.0;20.957577;0;1.5944794;  9.9122012E+03;  0.0000000E+00;  1.5897343E-02;  1.0000000E+04;  0.0000000E+00;  9.9594795E+03;1.4624068;0.0;0.13207267;18689.752
  9.4119829E-01;  9.9999998E-03; -2.4062158E-01;2489;0.33824098;0.0;-0.077412859;1013.4811;  4.0793958E-01;11136.739;3;60.809109;0.0;24.634077;0;1.5828643;  9.9173535E+03;  0.0000000E+00;  9.3628168E-03;  1.0000000E+04;  0.0000000E+00;  9.9579229E+03;1.4142942;0.0;0.16856998;19425.063
  9.4120991E-01;  9.9999998E-03; -2.2058383E-01;2490;0.3524068;0.0;-0.078609444;1013.6821;  4.0793899E-01;11302.868;3;60.364273;0.0;23.876734;0;1.5814615;  9.9232129E+03;  0.0000000E+00;  3.9391634E-03;  1.0000000E+04;  0.0000000E+00;  9.9560449E+03;1.3557471;0.0;0.22571449;20291.496
  9.4117671E-01;  9.9999998E-03; -2.0053700E-01;2491;0.35177869;0.0;-0.076963037;1013.8842;  4.0793851E-01;11469.808;3;61.328449;0.0;19.140329;0;1.5743979;  9.9292041E+03;  0.0000000E+00;  8.3645340E-04;  1.0000000E+04;  0.0000000E+00;  9.9539971E+03;1.2920772;0.0;0.28232077;21238.773
  9.6102637E-01;  9.9999998E-03; -3.0066401E-01;2517;0.26271534;0.0;-0.083738916;1012.0137;  4.0712765E-01;9914.7471;3;81.191071;0.0;-1.6437721;0;1.4491311;  9.9228438E+03;  0.0000000E+00;  1.3677266E-02;  1.0000000E+04;  0.0000000E+00;  9.9630674E+03;1.3000923;0.0;0.14903881;16686.219
  9.6113032E-01;  9.9999998E-03; -2.8064278E-01;2518;0.3008619;0.0;-0.08023759;1012.1834;  4.0712637E-01;10054.782;3;77.411278;0.0;10.537726;0;1.3599902;  9.9278057E+03;  0.0000000E+00;  3.1247210E-02;  1.0000000E+04;  0.0000000E+00;  9.9615693E+03;1.2438675;0.0;0.11612277;17493.479
  9.6121418E-01;  9.9999998E-03; -2.6060921E-01;2519;0.33681369;0.0;-0.079739712;1012.5244;  4.0712506E-01;10336.104;3;71.1325;0.0;16.046879;0;1.3093674;  9.9339473E+03;  0.0000000E+00;  2.3033673E-02;  1.0000000E+04;  0.0000000E+00;  9.9622568E+03;1.1721662;0.0;0.13720122;17197.213
  9.6125519E-01;  9.9999998E-03; -2.4057920E-01;2520;0.36359072;0.0;-0.07716687;1012.7983;  4.0712398E-01;10562.157;3;69.45137;0.0;19.948185;0;1.2552969;  9.9410215E+03;  0.0000000E+00;  1.1103532E-02;  1.0000000E+04;  0.0000000E+00;  9.9606367E+03;1.0876279;0.0;0.167669;17973.268
  9.6123642E-01;  9.9999998E-03; -2.2054873E-01;2521;0.37077183;0.0;-0.079378746;1013.0706;  4.0712354E-01;10786.871;3;69.370277;0.0;20.01919;0;1.2227435;  9.9484160E+03;  0.0000000E+00;  3.2202781E-03;  1.0000000E+04;  0.0000000E+00;  9.9586084E+03;0.99741238;0.0;0.22533111;18907.438
  9.6119314E-01;  9.9999998E-03; -2.0050137E-01;2522;0.36641943;0.0;-0.076263107;1013.3322;  4.0712327E-01;11002.845;3;70.059349;0.0;15.377937;0;1.1881235;  9.9554053E+03;  0.0000000E+00;  4.4750256E-04;  1.0000000E+04;  0.0000000E+00;  9.9567520E+03;0.90981585;0.0;0.27830768;19765.545
  9.8109466E-01;  9.9999998E-03; -3.0061883E-01;2548;0.2887609;0.0;-0.082137927;1010.866;  4.0631995E-01;8955.5654;3;93.177353;0.0;-3.8285074;0;1.2384095;  9.9372871E+03;  0.0000000E+00;  8.2509154E-03;  1.0000000E+04;  0.0000000E+00;  9.9655420E+03;1.1002111;0.0;0.13819842;15295.438
  9.8119318E-01;  9.9999998E-03; -2.8059837E-01;2549;0.32566273;0.0;-0.080093525;1011.1199;  4.0631852E-01;9164.7676;3;87.228333;0.0;7.3441811;0;1.1433301;  9.9437676E+03;  0.0000000E+00;  6.9837749E-02;  1.0000000E+04;  0.0000000E+00;  9.9641992E+03;1.0179435;0.0;0.12538664;16004.845
  9.8126620E-01;  9.9999998E-03; -2.6056439E-01;2550;0.35973179;0.0;-0.079132475;1011.558;  4.0631738E-01;9525.7793;3;79.673706;0.0;11.633666;0;1.0535414;  9.9515254E+03;  0.0000000E+00;  5.6174334E-02;  1.0000000E+04;  0.0000000E+00;  9.9651973E+03;0.9168644;0.0;0.13667709;15593.04
  9.8127586E-01;  9.9999998E-03; -2.4054238E-01;2551;0.37886789;0.0;-0.078951262;1011.8777;  4.0631676E-01;9789.2744;3;77.168747;0.0;15.311061;0;0.9785791;  9.9600146E+03;  0.0000000E+00;  2.9143849E-02;  1.0000000E+04;  0.0000000E+00;  9.9630488E+03;0.80400938;0.0;0.17456974;16600.121
  9.8124117E-01;  9.9999998E-03; -2.2051291E-01;2552;0.37903389;0.0;-0.081220314;1012.218;  4.0631649E-01;10069.702;3;75.071541;0.0;14.45642;0;0.91632777;  9.9683877E+03;  0.0000000E+00;  7.8464104E-03;  1.0000000E+04;  0.0000000E+00;  9.9613750E+03;0.69092792;0.0;0.22539984;17370.654
  9.8119241E-01;  9.9999998E-03; -2.0046622E-01;2553;0.37168244;0.0;-0.075712934;1012.5152;  4.0631616E-01;10314.675;3;74.568604;0.0;11.190796;0;0.86095732;  9.9759043E+03;  0.0000000E+00;  5.7694892E-04;  1.0000000E+04;  0.0000000E+00;  9.9597051E+03;0.58811474;0.0;0.27284259;18137.107
  1.0011666E+00;  9.9999998E-03; -3.0057120E-01;2579;0.31524301;0.0;-0.08006791;1009.6718;  4.0554637E-01;7956.8877;3;105.89539;0.0;-6.7693653;0;1.0489312;  9.9484219E+03;  0.0000000E+00; -1.2200787E-02;  1.0000000E+04;  0.0000000E+00;  9.9688281E+03;0.92187363;0.0;0.12705764;13484.363
  1.0012505E+00;  9.9999998E-03; -2.8055099E-01;2580;0.34934488;0.0;-0.078610919;1009.9775;  4.0554526E-01;8208.3711;3;97.62793;0.0;3.8421352;0;0.94795418;  9.9558301E+03;  0.0000000E+00;  1.3204885E-01;  1.0000000E+04;  0.0000000E+00;  9.9675771E+03;0.82442909;0.0;0.1235251;14146.134
  1.0012981E+00;  9.9999998E-03; -2.6051974E-01;2581;0.37869281;0.0;-0.078047618;1010.4439;  4.0554425E-01;8591.9834;3;88.960205;0.0;7.6233511;0;0.84134853;  9.9646211E+03;  0.0000000E+00;  1.1373274E-01;  1.0000000E+04;  0.0000000E+00;  9.9680791E+03;0.70523661;0.0;0.13611194;13975.806
  1.0012813E+00;  9.9999998E-03; -2.4050361E-01;2582;0.38625124;0.0;-0.080038734;1010.7886;  4.0554383E-01;8875.6201;3;82.202835;0.0;10.360895;0;0.75478637;  9.9739150E+03;  0.0000000E+00;  6.1963659E-02;  1.0000000E+04;  0.0000000E+00;  9.9656025E+03;0.5750829;0.0;0.1797035;15104.391
  1.0012364E+00;  9.9999998E-03; -2.2047396E-01;2583;0.38231742;0.0;-0.08088138;1011.1651;  4.0554377E-01;9185.3711;3;78.685341;0.0;8.8844738;0;0.67200601;  9.9826514E+03;  0.0000000E+00;  1.4992335E-02;  1.0000000E+04;  0.0000000E+00;  9.9642959E+03;0.45107934;0.0;0.22092669;15706.949
  1.0011845E+00;  9.9999998E-03; -2.0043278E-01;2584;0.37314501;0.0;-0.074354835;1011.4713;  4.0554368E-01;9437.2686;3;76.844971;0.0;7.868309;0;0.60738003;  9.9901953E+03;  0.0000000E+00; -5.9862202E-04;  1.0000000E+04;  0.0000000E+00;  9.9627764E+03;0.34351006;0.0;0.26386994;16398.676
  1.0212501E+00;  9.9999998E-03; -3.0052236E-01;2610;0.34296471;0.0;-0.077442452;1008.5246;  4.0482742E-01;6996.1108;3;119.46906;0.0;-10.068291;0;0.87692225;  9.9571318E+03;  0.0000000E+00; -5.1412627E-02;  1.0000000E+04;  0.0000000E+00;  9.9728584E+03;0.75810939;0.0;0.11881287;11325.416
  1.0213075E+00;  9.9999998E-03; -2.8050190E-01;2611;0.37271956;0.0;-0.07520403;1008.8464;  4.0482679E-01;7260.1064;3;108.33707;0.0;0.48718262;0;0.7658965;  9.9649678E+03;  0.0000000E+00;  1.5262970E-01;  1.0000000E+04;  0.0000000E+00;  9.9714668E+03;0.65830833;0.0;0.10758819;12053.47
  1.0213159E+00;  9.9999998E-03; -2.6047546E-01;2612;0.39037442;0.0;-0.076765455;1009.2852;  4.0482649E-01;7620.2212;3;96.503738;0.0;3.2258825;0;0.67112672;  9.9743516E+03;  0.0000000E+00;  1.4631459E-01;  1.0000000E+04;  0.0000000E+00;  9.9707871E+03;0.53048223;0.0;0.14064448;12397.316
  1.0212809E+00;  9.9999998E-03; -2.4046226E-01;2613;0.39022833;0.0;-0.078752808;1009.6298;  4.0482631E-01;7902.998;3;86.376259;0.0;5.4940224;0;0.57402414;  9.9837891E+03;  0.0000000E+00;  6.6797957E-02;  1.0000000E+04;  0.0000000E+00;  9.9681641E+03;0.39504269;0.0;0.17898147;13560.523
  1.0212283E+00;  9.9999998E-03; -2.2043607E-01;2614;0.38315716;0.0;-0.078471884;1010.0027;  4.0482616E-01;8209.1797;3;81.015259;0.0;5.1946597;0;0.48534375;  9.9922363E+03;  0.0000000E+00; -4.9828016E-03;  1.0000000E+04;  0.0000000E+00;  9.9670723E+03;0.27257815;0.0;0.21276559;14061.83
  1.0211735E+00;  9.9999998E-03; -2.0040187E-01;2615;0.37293917;0.0;-0.072664879;1010.2973;  4.0482634E-01;8450.9922;3;78.305557;0.0;5.3932786;0;0.42167163;  9.9993174E+03;  0.0000000E+00; -1.8596949E-02;  1.0000000E+04;  0.0000000E+00;  9.9658027E+03;0.17047973;0.0;0.25119191;14632.73
  1.0413551E+00;  9.9999998E-03; -3.0047289E-01;2641;0.37256265;0.0;-0.074083745;1007.4547;  4.0417781E-01;6098.0332;3;134.29013;0.0;-14.293584;0;0.72095001;  9.9632988E+03;  0.0000000E+00; -6.6583087E-03;  1.0000000E+04;  0.0000000E+00;  9.9776074E+03;0.61339343;0.0;0.1075566;8880.1533
  1.0413666E+00;  9.9999998E-03; -2.8045458E-01;2642;0.39395186;0.0;-0.071604796;1007.7773;  4.0417770E-01;6361.9941;3;118.9259;0.0;-2.8471994;0;0.61248201;  9.9722139E+03;  0.0000000E+00;  9.0146181E-04;  1.0000000E+04;  0.0000000E+00;  9.9750996E+03;0.51516908;0.0;0.097312935;10052.004
  1.0413285E+00;  9.9999998E-03; -2.6043370E-01;2643;0.39658517;0.0;-0.073746525;1008.1757;  4.0417781E-01;6687.8398;3;102.44638;0.0;0.23988342;0;0.52321577;  9.9822793E+03;  0.0000000E+00;  4.8442770E-02;  1.0000000E+04;  0.0000000E+00;  9.9728955E+03;0.37965956;0.0;0.14355619;11026.254
  1.0412785E+00;  9.9999998E-03; -2.4042109E-01;2644;0.39159274;0.0;-0.074745707;1008.5008;  4.0417799E-01;6953.9287;3;89.646408;0.0;2.3644078;0;0.42463207;  9.9912373E+03;  0.0000000E+00; -4.0973280E-02;  1.0000000E+04;  0.0000000E+00;  9.9703613E+03;0.25032693;0.0;0.17430513;12134.701
  1.0412197E+00;  9.9999998E-03; -2.2039892E-01;2645;0.38288024;0.0;-0.074212462;1008.8385;  4.0417802E-01;7230.2734;3;82.536446;0.0;3.0390675;0;0.34319702;  9.9987578E+03;  0.0000000E+00; -1.1011458E-01;  1.0000000E+04;  0.0000000E+00;  9.9695068E+03;0.1403771;0.0;0.20281991;12538.649
  1.0411606E+00;  9.9999998E-03; -2.0036919E-01;2646;0.37192374;0.0;-0.069417834;1009.1044;  4.0417814E-01;7447.9175;3;79.32534;0.0;3.4072702;0;0.28738654;  1.0004881E+04;  0.0000000E+00; -8.6064175E-02;  1.0000000E+04;  0.0000000E+00;  9.9686328E+03;0.05213071;0.0;0.23525582;12923.021
  1.0614562E+00;  9.9999998E-03; -3.0043098E-01;2672;0.40136743;0.0;-0.069314033;1006.3059;  4.0360653E-01;5135.9502;3;152.55692;0.0;-12.890542;0;0.60065353;  9.9658613E+03;  0.0000000E+00;  4.4884509E-01;  1.0000000E+04;  0.0000000E+00;  9.9805801E+03;0.51189983;0.0;0.088753678;7511.188
  1.0614084E+00;  9.9999998E-03; -2.8041470E-01;2673;0.40465134;0.0;-0.068402797;1006.7579;  4.0360662E-01;5504.0898;3;128.70903;0.0;-4.9879136;0;0.48979571;  9.9785000E+03;  0.0000000E+00; -3.4721249E-01;  1.0000000E+04;  0.0000000E+00;  9.9768447E+03;0.3815372;0.0;0.10825851;8979.7715
  1.0613427E+00;  9.9999998E-03; -2.6039502E-01;2674;0.40004453;0.0;-0.068627752;1007.1765;  4.0360680E-01;5845.1758;3;107.94276;0.0;-2.087615;0;0.3857466;  9.9893252E+03;  0.0000000E+00; -3.0997300E-01;  1.0000000E+04;  0.0000000E+00;  9.9742715E+03;0.24515559;0.0;0.14059103;10040.182
  1.0612762E+00;  9.9999998E-03; -2.4038239E-01;2675;0.39176008;0.0;-0.069157176;1007.4727;  4.0360716E-01;6086.5557;3;93.138718;0.0;0.23330346;0;0.29908603;  9.9974951E+03;  0.0000000E+00; -3.4932178E-01;  1.0000000E+04;  0.0000000E+00;  9.9719473E+03;0.12966831;0.0;0.16941772;11034.173
  1.0612117E+00;  9.9999998E-03; -2.2036244E-01;2676;0.38218239;0.0;-0.068898626;1007.7573;  4.0360740E-01;6318.4253;3;84.545311;0.0;1.403916;0;0.23323476;  1.0003600E+04;  0.0000000E+00; -3.6315095E-01;  1.0000000E+04;  0.0000000E+00;  9.9714600E+03;0.039675284;0.0;0.19355948;11273.631
  1.0611470E+00;  9.9999998E-03; -2.0033641E-01;2677;0.37038508;0.0;-0.065159194;1007.9797;  4.0360776E-01;6499.7129;3;80.56604;0.0;2.0042326;0;0.18874416;  1.0008361E+04;  0.0000000E+00; -2.4564573E-01;  1.0000000E+04;  0.0000000E+00;  9.9710801E+03;-0.02953542;0.0;0.21827959;11387.913
  1.0814974E+00;  9.9999998E-03; -3.0039251E-01;2703;0.41046828;0.0;-0.0645357;1005.3021;  4.0311643E-01;4293.4644;3;165.70589;0.0;-13.576527;0;0.48339796;  9.9680498E+03;  0.0000000E+00;  1.5508802E+00;  1.0000000E+04;  0.0000000E+00;  9.9827256E+03;0.40064678;0.0;0.082751185;8714.7324
  1.0814322E+00;  9.9999998E-03; -2.8037745E-01;2704;0.40906391;0.0;-0.063531347;1005.8762;  4.0311661E-01;4758.4668;3;138.67268;0.0;-7.7423453;0;0.36884621;  9.9838027E+03;  0.0000000E+00; -6.9182932E-01;  1.0000000E+04;  0.0000000E+00;  9.9782959E+03;0.26040915;0.0;0.10843705;8256.9248
  1.0813509E+00;  9.9999998E-03; -2.6035708E-01;2705;0.40011573;0.0;-0.06210348;1006.3442;  4.0311667E-01;5137.5981;3;114.49306;0.0;-3.9019198;0;0.25525522;  9.9956621E+03;  0.0000000E+00; -9.0143490E-01;  1.0000000E+04;  0.0000000E+00;  9.9756855E+03;0.12437437;0.0;0.13088083;9575.6934
  1.0812742E+00;  9.9999998E-03; -2.4034384E-01;2706;0.39083794;0.0;-0.062126387;1006.5979;  4.0311715E-01;5343.1646;3;97.699875;0.0;-1.1888493;0;0.18970689;  1.0003032E+04;  0.0000000E+00; -8.8495529E-01;  1.0000000E+04;  0.0000000E+00;  9.9733174E+03;0.027645279;0.0;0.16206162;10424.254
  1.0812045E+00;  9.9999998E-03; -2.2032727E-01;2707;0.38104361;0.0;-0.062604494;1006.8057;  4.0311739E-01;5511.6558;3;87.394035;0.0;0.066892788;0;0.14599065;  1.0007531E+04;  0.0000000E+00; -8.0156833E-01;  1.0000000E+04;  0.0000000E+00;  9.9729170E+03;-0.039566759;0.0;0.18555741;10482.89
  1.0811342E+00;  9.9999998E-03; -2.0030296E-01;2708;0.36846563;0.0;-0.059663951;1006.9753;  4.0311790E-01;5649.0684;3;82.0681;0.0;0.83673799;0;0.11371453;  1.0010708E+04;  0.0000000E+00; -5.3834146E-01;  1.0000000E+04;  0.0000000E+00;  9.9730781E+03;-0.088211253;0.0;0.20192578;10165.171
  1.1014372E+00;  9.9999998E-03; -2.8034276E-01;2734;0.40850997;0.0;-0.058521293;1005.1326;  4.0270573E-01;4124.8374;3;149.98451;0.0;-10.234357;0;0.26887989;  9.9876660E+03;  0.0000000E+00; -5.5070794E-01;  1.0000000E+04;  0.0000000E+00;  9.9800264E+03;0.1584958;0.0;0.11038408;6879.0054
  1.1013509E+00;  9.9999998E-03; -2.6031956E-01;2735;0.39801821;0.0;-0.055801909;1005.6798;  4.0270564E-01;4564.7378;3;123.32839;0.0;-6.2279506;0;0.14692082;  1.0000681E+04;  0.0000000E+00; -1.4783766E+00;  1.0000000E+04;  0.0000000E+00;  9.9778408E+03;0.024239777;0.0;0.12268104;9305.0898
  1.1012716E+00;  9.9999998E-03; -2.4030463E-01;2736;0.38856956;0.0;-0.054359376;1005.887;  4.0270615E-01;4731.3149;3;103.89341;0.0;-2.8737202;0;0.093893886;  1.0007508E+04;  0.0000000E+00; -1.5665027E+00;  1.0000000E+04;  0.0000000E+00;  9.9751035E+03;-0.055291791;0.0;0.14918567;10310.794
  1.1011978E+00;  9.9999998E-03; -2.2029097E-01;2737;0.37897921;0.0;-0.055059273;1006.0056;  4.0270656E-01;4826.895;3;91.496483;0.0;-1.1544968;0;0.07383202;  1.0010694E+04;  0.0000000E+00; -1.4122525E+00;  1.0000000E+04;  0.0000000E+00;  9.9742490E+03;-0.10194995;0.0;0.17578197;10258.851
  1.1011233E+00;  9.9999998E-03; -2.0027022E-01;2738;0.36633202;0.0;-0.0534807;1006.111;  4.0270686E-01;4911.6558;3;84.330269;0.0;-0.19599186;0;0.055740297;  1.0012365E+04;  0.0000000E+00; -9.9285424E-01;  1.0000000E+04;  0.0000000E+00;  9.9746338E+03;-0.13186955;0.0;0.18760985;9434.8379
  1.1214252E+00;  9.9999998E-03; -2.8031239E-01;2763;0.40451986;0.0;-0.053509325;1004.4871;  4.0236896E-01;3570.2195;3;162.3196;0.0;-12.31888;0;0.19396329;  9.9896738E+03;  0.0000000E+00;  5.2948165E-01;  1.0000000E+04;  0.0000000E+00;  9.9818730E+03;0.084313825;0.0;0.10964947;5650.3735
  1.1213475E+00;  9.9999998E-03; -2.6028880E-01;2764;0.39511061;0.0;-0.05024666;1005.0549;  4.0236908E-01;4022.1643;3;134.43073;0.0;-8.1373949;0;0.077579483;  1.0002938E+04;  0.0000000E+00; -1.7176049E+00;  1.0000000E+04;  0.0000000E+00;  9.9798730E+03;-0.040476374;0.0;0.11805586;8476.6563
  1.1212677E+00;  9.9999998E-03; -2.4026839E-01;2765;0.38508388;0.0;-0.046964943;1005.303;  4.0236935E-01;4219.7456;3;112.10403;0.0;-4.5361657;0;0.016589336;  1.0010157E+04;  0.0000000E+00; -2.2060118E+00;  1.0000000E+04;  0.0000000E+00;  9.9775635E+03;-0.11486108;0.0;0.13145041;10219.197
  1.1211923E+00;  9.9999998E-03; -2.2025564E-01;2766;0.37593243;0.0;-0.047132213;1005.351;  4.0236953E-01;4258.061;3;97.074677;0.0;-2.2574589;0;0.013714299;  1.0012830E+04;  0.0000000E+00; -2.1295655E+00;  1.0000000E+04;  0.0000000E+00;  9.9758213E+03;-0.14834291;0.0;0.16205721;10423.985
  1.1211146E+00;  9.9999998E-03; -2.0023786E-01;2767;0.36398429;0.0;-0.046688467;1005.3925;  4.0236992E-01;4291.3569;3;87.768097;0.0;-1.2012824;0;0.010111034;  1.0013486E+04;  0.0000000E+00; -1.6202092E+00;  1.0000000E+04;  0.0000000E+00;  9.9759658E+03;-0.1646172;0.0;0.17472823;9285.4482
  1.1413405E+00;  9.9999998E-03; -2.6026714E-01;2792;0.39164409;0.0;-0.04560614;1004.3643;  4.0209916E-01;3427.8743;3;147.70213;0.0;-9.6432867;0;0.055585895;  1.0001471E+04;  0.0000000E+00; -1.0921186E+00;  1.0000000E+04;  0.0000000E+00;  9.9810010E+03;-0.060436796;0.0;0.11602269;6107.8755
  1.1412632E+00;  9.9999998E-03; -2.4024202E-01;2793;0.38135284;0.0;-0.0412497;1004.7371;  4.0209916E-01;3720.772;3;123.07275;0.0;-5.9944811;0;-0.028035849;  1.0010062E+04;  0.0000000E+00; -2.5269377E+00;  1.0000000E+04;  0.0000000E+00;  9.9798145E+03;-0.14402989;0.0;0.11599404;9414.7217
  1.1411892E+00;  9.9999998E-03; -2.2022632E-01;2794;0.372089;0.0;-0.03956686;1004.7961;  4.0209946E-01;3767.4199;3;104.69609;0.0;-3.0754859;0;-0.036585763;  1.0013391E+04;  0.0000000E+00; -2.8277116E+00;  1.0000000E+04;  0.0000000E+00;  9.9776455E+03;-0.17799322;0.0;0.14140746;10510.651
  1.1411097E+00;  9.9999998E-03; -2.0020966E-01;2795;0.36135429;0.0;-0.039941024;1004.8064;  4.0209976E-01;3775.6934;3;92.748398;0.0;-1.9667535;0;-0.025732577;  1.0014008E+04;  0.0000000E+00; -2.3933010E+00;  1.0000000E+04;  0.0000000E+00;  9.9772109E+03;-0.18794571;0.0;0.16221313;9576.3818
  1.1613231E+00;  9.9999998E-03; -2.6025015E-01;2819;0.38594857;0.0;-0.041506905;1003.6844;  4.0188754E-01;2845.9307;3;161.92445;0.0;-10.84129;0;0.060476493;  9.9975527E+03;  0.0000000E+00;  9.8416805E-01;  1.0000000E+04;  0.0000000E+00;  9.9819004E+03;-0.052707259;0.0;0.11318375;4930.8232
  1.1612611E+00;  9.9999998E-03; -2.4022801E-01;2820;0.37775224;0.0;-0.037118033;1004.0487;  4.0188757E-01;3127.5107;3;136.46458;0.0;-7.0121045;0;-0.026074551;  1.0006138E+04;  0.0000000E+00; -2.0850744E+00;  1.0000000E+04;  0.0000000E+00;  9.9805684E+03;-0.13397177;0.0;0.10789721;7148.4302
  1.1611881E+00;  9.9999998E-03; -2.2020553E-01;2821;0.36788848;0.0;-0.033245116;1004.2658;  4.0188766E-01;3295.4253;3;115.07877;0.0;-3.7763689;0;-0.07035853;  1.0011567E+04;  0.0000000E+00; -3.2118852E+00;  1.0000000E+04;  0.0000000E+00;  9.9794551E+03;-0.1865992;0.0;0.11624067;9709.2148
  1.1611104E+00;  9.9999998E-03; -2.0018871E-01;2822;0.35826573;0.0;-0.033375267;1004.3033;  4.0188786E-01;3324.6763;3;100.08234;0.0;-2.4130471;0;-0.053760216;  1.0013367E+04;  0.0000000E+00; -3.1865599E+00;  1.0000000E+04;  0.0000000E+00;  9.9783857E+03;-0.20015952;0.0;0.1463993;9789.8955
  1.1812505E+00;  9.9999998E-03; -2.4022028E-01;2846;0.37311631;0.0;-0.034589097;1003.308;  4.0172496E-01;2501.8894;3;151.78021;0.0;-8.0374203;0;0.021591917;  9.9996357E+03;  0.0000000E+00; -2.0061972E-02;  1.0000000E+04;  0.0000000E+00;  9.9803926E+03;-0.092586584;0.0;0.1141785;3986.0281
  1.1811879E+00;  9.9999998E-03; -2.2019666E-01;2847;0.36386275;0.0;-0.029683707;1003.6284;  4.0172505E-01;2744.446;3;128.44551;0.0;-4.525558;0;-0.057535633;  1.0006330E+04;  0.0000000E+00; -2.7125161E+00;  1.0000000E+04;  0.0000000E+00;  9.9800830E+03;-0.16183004;0.0;0.1042944;7238.707
  1.1811157E+00;  9.9999998E-03; -2.0017743E-01;2848;0.35471165;0.0;-0.027971584;1003.7819;  4.0172514E-01;2860.8257;3;110.67706;0.0;-2.509753;0;-0.06565696;  1.0010298E+04;  0.0000000E+00; -3.6554327E+00;  1.0000000E+04;  0.0000000E+00;  9.9791660E+03;-0.19334652;0.0;0.12768956;9104.833
  1.2011794E+00;  9.9999998E-03; -2.2019391E-01;2871;0.35889867;0.0;-0.028243225;1002.9247;  4.0160286E-01;2154.9082;3;144.24095;0.0;-5.5843449;0;0.0044377893;  9.9986963E+03;  0.0000000E+00; -3.9328247E-01;  1.0000000E+04;  0.0000000E+00;  9.9797754E+03;-0.10707714;0.0;0.11151493;3540.8569
  1.2011222E+00;  9.9999998E-03; -2.0017542E-01;2872;0.35096076;0.0;-0.02509189;1003.1231;  4.0160277E-01;2301.3423;3;124.31083;0.0;-2.8218837;0;-0.030593634;  1.0003408E+04;  0.0000000E+00; -3.0660396E+00;  1.0000000E+04;  0.0000000E+00;  9.9790176E+03;-0.15074326;0.0;0.12014963;6641.7383
  1.2211409E+00;  9.9999998E-03; -2.2018164E-01;2894;0.34688187;0.0;-0.026133612;1002.6967;  4.0151253E-01;1924.6914;3;159.28111;0.0;-7.2209182;0;-0.0056728497;  9.9965400E+03;  0.0000000E+00;  3.4743083E+00;  1.0000000E+04;  0.0000000E+00;  9.9818643E+03;-0.11695412;0.0;0.11128127;5670.0522
  1.2211134E+00;  9.9999998E-03; -2.0017546E-01;2895;0.34515837;0.0;-0.024183253;1002.481;  4.0151283E-01;1770.8582;3;140.88454;0.0;-4.07375;0;0.038323879;  9.9955332E+03;  0.0000000E+00; -4.1729710E-01;  1.0000000E+04;  0.0000000E+00;  9.9785781E+03;-0.090395227;0.0;0.12871911;3065.2769
 -1.0565279E-05;  9.9999998E-03; -1.8000124E-01;1036;-0.0056794453;0.0;-0.00071890233;1000.216;  4.0000001E-01;178.95787;3;-3.28829;0.0;-0.45610368;0;-0.10745614;  1.0004491E+04;  0.0000000E+00; -5.5612638E-08;  1.0000000E+04;  0.0000000E+00;  9.9998281E+03;-0.11143763;0.0;0.0039814841;96.656212
 -1.0871799E-05;  9.9999998E-03; -1.6000098E-01;1037;-0.0058588954;0.0;-0.00058555172;1000.2234;  4.0000001E-01;185.08116;3;-3.4021034;0.0;-0.38388896;0;-0.11124866;  1.0004639E+04;  0.0000000E+00; -5.5191894E-08;  1.0000000E+04;  0.0000000E+00;  9.9998330E+03;-0.11528708;0.0;0.0040384219;96.165276
 -1.1053747E-05;  9.9999998E-03; -1.4000076E-01;1038;-0.005971469;0.0;-0.00046896451;1000.2282;  4.0000001E-01;189.03166;3;-3.48032;0.0;-0.31838661;0;-0.1139564;  1.0004722E+04;  0.0000000E+00; -2.8727671E-08;  1.0000000E+04;  0.0000000E+00;  9.9998447E+03;-0.117782;0.0;0.0038256038;90.156898
 -1.1146944E-05;  9.9999998E-03; -1.2000058E-01;1039;-0.0060349423;0.0;-0.00036899871;1000.2318;  4.0000001E-01;191.99454;3;-3.5298424;0.0;-0.26068079;0;-0.11579077;  1.0004770E+04;  0.0000000E+00; -1.3412028E-08;  1.0000000E+04;  0.0000000E+00;  9.9998643E+03;-0.11928338;0.0;0.0034926105;81.716331
 -1.1182265E-05;  9.9999998E-03; -1.0000042E-01;1040;-0.0060664513;0.0;-0.00028058034;1000.2336;  4.0000001E-01;193.47598;3;-3.5604229;0.0;-0.20585465;0;-0.1169677;  1.0004791E+04;  0.0000000E+00; -8.0574889E-09;  1.0000000E+04;  0.0000000E+00;  9.9998809E+03;-0.12009194;0.0;0.0031242422;72.66655
 -1.1181998E-05;  9.9999998E-03; -8.0000296E-02;1041;-0.0060770987;0.0;-0.00020655361;1000.2349;  4.0000001E-01;194.56236;3;-3.5774784;0.0;-0.15700346;0;-0.11767995;  1.0004795E+04;  0.0000000E+00; -3.4411811E-09;  1.0000000E+04;  0.0000000E+00;  9.9999023E+03;-0.1204524;0.0;0.0027724509;64.155029
 -1.1165050E-05;  9.9999998E-03; -6.0000200E-02;1042;-0.0060764425;0.0;-0.00014432683;1000.2355;  4.0000001E-01;195.15494;3;-3.5859127;0.0;-0.11380003;0;-0.11808225;  1.0004793E+04;  0.0000000E+00; -1.4191753E-09;  1.0000000E+04;  0.0000000E+00;  9.9999170E+03;-0.12055372;0.0;0.0024714659;56.938332
 -1.1144218E-05;  9.9999998E-03; -4.0000122E-02;1043;-0.0060716104;0.0;-9.0667912e-05;1000.2357;  4.0000001E-01;195.25371;3;-3.5898304;0.0;-0.0732636;0;-0.11829074;  1.0004786E+04;  0.0000000E+00; -3.7114073E-10;  1.0000000E+04;  0.0000000E+00;  9.9999297E+03;-0.12053376;0.0;0.0022430166;51.495235
 -1.1128351E-05;  9.9999998E-03; -2.0000057E-02;1044;-0.0060668727;0.0;-4.3976375e-05;1000.2357;  4.0000001E-01;195.25371;3;-3.5912132;0.0;-0.036483325;0;-0.11838527;  1.0004780E+04;  0.0000000E+00; -3.3370126E-10;  1.0000000E+04;  0.0000000E+00;  9.9999346E+03;-0.12048607;0.0;0.0021007974;48.121082
  1.9985015E-02;  9.9999998E-03; -1.8000166E-01;1066;-0.0079857362;0.0;-0.00095649238;1000.254;  4.0000001E-01;210.3644;3;-4.0190029;0.0;-0.5405665;0;-0.12463439;  1.0005306E+04;  0.0000000E+00;  4.5559716E-07;  1.0000000E+04;  0.0000000E+00;  9.9997793E+03;-0.12973545;0.0;0.0051010628;124.31606
  1.9984618E-02;  9.9999998E-03; -1.6000132E-01;1067;-0.0082189431;0.0;-0.00078853971;1000.2618;  4.0000001E-01;216.88272;3;-4.151926;0.0;-0.46330339;0;-0.12866937;  1.0005459E+04;  0.0000000E+00;  2.1854611E-07;  1.0000000E+04;  0.0000000E+00;  9.9997803E+03;-0.13386095;0.0;0.005191586;123.50723
  1.9984398E-02;  9.9999998E-03; -1.4000104E-01;1068;-0.0083591565;0.0;-0.00064083235;1000.2671;  4.0000001E-01;221.32704;3;-4.2428017;0.0;-0.39161909;0;-0.13153136;  1.0005547E+04;  0.0000000E+00;  1.0163028E-07;  1.0000000E+04;  0.0000000E+00;  9.9997979E+03;-0.13648067;0.0;0.0049493201;115.79116
  1.9984294E-02;  9.9999998E-03; -1.2000079E-01;1069;-0.0084366966;0.0;-0.00050527079;1000.2707;  4.0000001E-01;224.28992;3;-4.3021908;0.0;-0.32298163;0;-0.13345365;  1.0005591E+04;  0.0000000E+00;  3.5997218E-08;  1.0000000E+04;  0.0000000E+00;  9.9998203E+03;-0.13800882;0.0;0.0045551695;105.01109
  1.9984268E-02;  9.9999998E-03; -1.0000058E-01;1070;-0.0084705232;0.0;-0.0003895252;1000.2726;  4.0000001E-01;225.87012;3;-4.3384247;0.0;-0.2596207;0;-0.13467877;  1.0005606E+04;  0.0000000E+00;  8.7573691E-09;  1.0000000E+04;  0.0000000E+00;  9.9998457E+03;-0.13878645;0.0;0.00410769;93.361252
  1.9984284E-02;  9.9999998E-03; -8.0000415E-02;1071;-0.0084778015;0.0;-0.00029099415;1000.2739;  4.0000001E-01;226.95651;3;-4.3590641;0.0;-0.20194733;0;-0.13541573;  1.0005607E+04;  0.0000000E+00; -1.2721418E-10;  1.0000000E+04;  0.0000000E+00;  9.9998701E+03;-0.13908979;0.0;0.0036740617;82.341331
  1.9984322E-02;  9.9999998E-03; -6.0000282E-02;1072;-0.0084720161;0.0;-0.00020474804;1000.2743;  4.0000001E-01;227.25279;3;-4.3702393;0.0;-0.14710683;0;-0.13582908;  1.0005599E+04;  0.0000000E+00; -1.1738437E-09;  1.0000000E+04;  0.0000000E+00;  9.9998887E+03;-0.13912912;0.0;0.0033000458;72.965675
  1.9984361E-02;  9.9999998E-03; -4.0000174E-02;1073;-0.0084617054;0.0;-0.00013013562;1000.2746;  4.0000001E-01;227.45032;3;-4.3756008;0.0;-0.095620237;0;-0.13604167;  1.0005589E+04;  0.0000000E+00; -7.0218203E-10;  1.0000000E+04;  0.0000000E+00;  9.9999033E+03;-0.13905668;0.0;0.0030150055;65.882256
  1.9984389E-02;  9.9999998E-03; -2.0000083E-02;1074;-0.0084531382;0.0;-6.3328473e-05;1000.2745;  4.0000001E-01;227.45032;3;-4.3776455;0.0;-0.047815334;0;-0.13613695;  1.0005580E+04;  0.0000000E+00; -3.1474552E-11;  1.0000000E+04;  0.0000000E+00;  9.9999141E+03;-0.13897415;0.0;0.0028372032;61.48774
  3.9979376E-02;  9.9999998E-03; -1.8000191E-01;1097;-0.010902373;0.0;-0.0010960946;1000.2861;  4.0000001E-01;237.0303;3;-4.8575373;0.0;-0.56153816;0;-0.1379665;  1.0005991E+04;  0.0000000E+00;  8.0581975E-07;  1.0000000E+04;  0.0000000E+00;  9.9997363E+03;-0.14386739;0.0;0.005900885;146.91899
  3.9978880E-02;  9.9999998E-03; -1.6000155E-01;1098;-0.011197233;0.0;-0.00091558613;1000.2938;  4.0000001E-01;243.3511;3;-5.013135;0.0;-0.49016008;0;-0.14192568;  1.0006141E+04;  0.0000000E+00;  4.4302757E-07;  1.0000000E+04;  0.0000000E+00;  9.9997383E+03;-0.14795491;0.0;0.0060292273;145.68987
  3.9978616E-02;  9.9999998E-03; -1.4000122E-01;1099;-0.011370942;0.0;-0.0007507517;1000.2991;  4.0000001E-01;247.79543;3;-5.1204271;0.0;-0.42229635;0;-0.14467469;  1.0006224E+04;  0.0000000E+00;  2.0942623E-07;  1.0000000E+04;  0.0000000E+00;  9.9997598E+03;-0.15046921;0.0;0.0057945289;136.7238
  3.9978504E-02;  9.9999998E-03; -1.2000094E-01;1100;-0.01146212;0.0;-0.00059995323;1000.3022;  4.0000001E-01;250.36325;3;-5.1916676;0.0;-0.35409963;0;-0.14647622;  1.0006259E+04;  0.0000000E+00;  7.5787788E-08;  1.0000000E+04;  0.0000000E+00;  9.9997852E+03;-0.15186404;0.0;0.0053878073;124.28191
  3.9978497E-02;  9.9999998E-03; -1.0000070E-01;1101;-0.011498041;0.0;-0.00046797257;1000.3041;  4.0000001E-01;251.94345;3;-5.236455;0.0;-0.28908452;0;-0.14759791;  1.0006266E+04;  0.0000000E+00;  2.0366450E-08;  1.0000000E+04;  0.0000000E+00;  9.9998115E+03;-0.15250666;0.0;0.0049087512;110.7143
  3.9978538E-02;  9.9999998E-03; -8.0000505E-02;1102;-0.011501169;0.0;-0.00035217375;1000.3049;  4.0000001E-01;252.53603;3;-5.2630205;0.0;-0.22738332;0;-0.14825442;  1.0006259E+04;  0.0000000E+00;  3.5052907E-09;  1.0000000E+04;  0.0000000E+00;  9.9998408E+03;-0.15268929;0.0;0.0044348612;97.790154
  3.9978601E-02;  9.9999998E-03; -6.0000345E-02;1103;-0.011488273;0.0;-0.0002504031;1000.3052;  4.0000001E-01;252.93108;3;-5.2782021;0.0;-0.16763896;0;-0.14860937;  1.0006242E+04;  0.0000000E+00; -4.9348123E-11;  1.0000000E+04;  0.0000000E+00;  9.9998633E+03;-0.15263079;0.0;0.0040214201;86.74617
  3.9978664E-02;  9.9999998E-03; -4.0000215E-02;1104;-0.011470975;0.0;-0.00016061407;1000.3053;  4.0000001E-01;252.93108;3;-5.2859907;0.0;-0.11056313;0;-0.14878239;  1.0006225E+04;  0.0000000E+00; -3.4780157E-10;  1.0000000E+04;  0.0000000E+00;  9.9998828E+03;-0.15248686;0.0;0.0037044741;78.382385
  3.9978705E-02;  9.9999998E-03; -2.0000102E-02;1105;-0.011457605;0.0;-7.8169651e-05;1000.3052;  4.0000001E-01;252.83232;3;-5.2895947;0.0;-0.055066731;0;-0.14885503;  1.0006213E+04;  0.0000000E+00;  1.3857995E-10;  1.0000000E+04;  0.0000000E+00;  9.9998936E+03;-0.15236121;0.0;0.003506179;73.187263
  5.9972964E-02;  9.9999998E-03; -1.8000203E-01;1128;-0.014150065;0.0;-0.0011539306;1000.3176;  4.0000001E-01;263.10364;3;-5.7576475;0.0;-0.55310655;0;-0.14988595;  1.0006645E+04;  0.0000000E+00;  7.4456256E-07;  1.0000000E+04;  0.0000000E+00;  9.9997080E+03;-0.15616757;0.0;0.006281611;162.98492
  5.9972379E-02;  9.9999998E-03; -1.6000165E-01;1129;-0.014503375;0.0;-0.00097545295;1000.3246;  4.0000001E-01;268.93063;3;-5.9369812;0.0;-0.49180526;0;-0.15355754;  1.0006785E+04;  0.0000000E+00;  4.9418509E-07;  1.0000000E+04;  0.0000000E+00;  9.9997119E+03;-0.16000473;0.0;0.0064472016;161.20618
  5.9972081E-02;  9.9999998E-03; -1.4000131E-01;1130;-0.014708788;0.0;-0.00080418179;1000.329;  4.0000001E-01;272.58484;3;-6.0627804;0.0;-0.42850807;0;-0.15599081;  1.0006853E+04;  0.0000000E+00;  2.4666321E-07;  1.0000000E+04;  0.0000000E+00;  9.9997314E+03;-0.16225439;0.0;0.0062635802;151.62383
  5.9971977E-02;  9.9999998E-03; -1.2000101E-01;1131;-0.014811398;0.0;-0.00065017614;1000.3315;  4.0000001E-01;274.65884;3;-6.1471176;0.0;-0.36587158;0;-0.15750134;  1.0006875E+04;  0.0000000E+00;  8.9744248E-08;  1.0000000E+04;  0.0000000E+00;  9.9997598E+03;-0.16340435;0.0;0.0059030084;138.43643
  5.9971988E-02;  9.9999998E-03; -1.0000076E-01;1132;-0.014847302;0.0;-0.00051196507;1000.3331;  4.0000001E-01;275.94278;3;-6.2015944;0.0;-0.30358091;0;-0.15838814;  1.0006866E+04;  0.0000000E+00;  2.3387509E-08;  1.0000000E+04;  0.0000000E+00;  9.9997910E+03;-0.16383986;0.0;0.0054517183;123.89654
  5.9972066E-02;  9.9999998E-03; -8.0000550E-02;1133;-0.014844557;0.0;-0.00038809006;1000.3334;  4.0000001E-01;276.23904;3;-6.2358742;0.0;-0.24056317;0;-0.15886752;  1.0006848E+04;  0.0000000E+00;  3.6076970E-09;  1.0000000E+04;  0.0000000E+00;  9.9998193E+03;-0.16385815;0.0;0.0049906215;109.92077
  5.9972163E-02;  9.9999998E-03; -6.0000379E-02;1134;-0.0148232;0.0;-0.00027847142;1000.3334;  4.0000001E-01;276.23904;3;-6.2563076;0.0;-0.17920646;0;-0.15909578;  1.0006825E+04;  0.0000000E+00;  1.3125311E-10;  1.0000000E+04;  0.0000000E+00;  9.9998447E+03;-0.1636768;0.0;0.0045810137;97.905968
  5.9972253E-02;  9.9999998E-03; -4.0000234E-02;1135;-0.014798108;0.0;-0.00017943405;1000.3331;  4.0000001E-01;275.94278;3;-6.26756;0.0;-0.11930981;0;-0.1591846;  1.0006806E+04;  0.0000000E+00;  4.9282647E-11;  1.0000000E+04;  0.0000000E+00;  9.9998623E+03;-0.16344851;0.0;0.0042639151;88.773224
  5.9972316E-02;  9.9999998E-03; -2.0000113E-02;1136;-0.014779239;0.0;-8.7696033e-05;1000.333;  4.0000001E-01;275.84399;3;-6.2731123;0.0;-0.059454478;0;-0.15920916;  1.0006786E+04;  0.0000000E+00; -6.1295566E-11;  1.0000000E+04;  0.0000000E+00;  9.9998730E+03;-0.16327369;0.0;0.0040645241;83.089355
  7.9965957E-02;  9.9999998E-03; -1.8000205E-01;1159;-0.017603325;0.0;-0.0011487782;1000.3524;  4.0000001E-01;291.94232;3;-6.7567239;0.0;-0.52986711;0;-0.16255866;  1.0007357E+04;  0.0000000E+00;  2.1356057E-07;  1.0000000E+04;  0.0000000E+00;  9.9996904E+03;-0.16881776;0.0;0.0062590986;173.07013
  7.9965308E-02;  9.9999998E-03; -1.6000168E-01;1160;-0.018005615;0.0;-0.00097827148;1000.3586;  4.0000001E-01;297.17673;3;-6.9596305;0.0;-0.47927314;0;-0.16581684;  1.0007477E+04;  0.0000000E+00;  3.7712829E-07;  1.0000000E+04;  0.0000000E+00;  9.9996992E+03;-0.17228259;0.0;0.0064657526;170.73943
  7.9964995E-02;  9.9999998E-03; -1.4000133E-01;1161;-0.018234294;0.0;-0.00081294071;1000.3624;  4.0000001E-01;300.23837;3;-7.1037641;0.0;-0.4229427;0;-0.16779627;  1.0007530E+04;  0.0000000E+00;  2.2227329E-07;  1.0000000E+04;  0.0000000E+00;  9.9997158E+03;-0.17417528;0.0;0.0063790097;161.26097
  7.9964906E-02;  9.9999998E-03; -1.2000103E-01;1162;-0.018342983;0.0;-0.00066398835;1000.3637;  4.0000001E-01;301.32477;3;-7.2016859;0.0;-0.36609107;0;-0.16889331;  1.0007534E+04;  0.0000000E+00;  8.5789708E-08;  1.0000000E+04;  0.0000000E+00;  9.9997432E+03;-0.17501782;0.0;0.0061245137;148.29794
  7.9964958E-02;  9.9999998E-03; -1.0000078E-01;1163;-0.018375477;0.0;-0.00052634702;1000.3643;  4.0000001E-01;301.81857;3;-7.2669845;0.0;-0.30698675;0;-0.16944367;  1.0007515E+04;  0.0000000E+00;  2.1707917E-08;  1.0000000E+04;  0.0000000E+00;  9.9997744E+03;-0.17520618;0.0;0.0057625226;133.79323
  7.9965077E-02;  9.9999998E-03; -8.0000564E-02;1164;-0.018363977;0.0;-0.00040287149;1000.364;  4.0000001E-01;301.62106;3;-7.3093128;0.0;-0.24644136;0;-0.16966641;  1.0007480E+04;  0.0000000E+00;  2.5918034E-09;  1.0000000E+04;  0.0000000E+00;  9.9998047E+03;-0.17503548;0.0;0.0053690607;119.66695
  7.9965219E-02;  9.9999998E-03; -6.0000390E-02;1165;-0.018332642;0.0;-0.00029128802;1000.3636;  4.0000001E-01;301.22601;3;-7.335578;0.0;-0.18594247;0;-0.16970927;  1.0007450E+04;  0.0000000E+00; -6.1376426E-10;  1.0000000E+04;  0.0000000E+00;  9.9998301E+03;-0.17471687;0.0;0.0050076097;107.40896
  7.9965346E-02;  9.9999998E-03; -4.0000241E-02;1166;-0.018298756;0.0;-0.00018869957;1000.3633;  4.0000001E-01;300.92972;3;-7.3510127;0.0;-0.12411596;0;-0.16967398;  1.0007420E+04;  0.0000000E+00; -3.9148149E-10;  1.0000000E+04;  0.0000000E+00;  9.9998486E+03;-0.1743965;0.0;0.0047225193;98.034431
  7.9965428E-02;  9.9999998E-03; -2.0000117E-02;1167;-0.018273881;0.0;-9.2718758e-05;1000.3629;  4.0000001E-01;300.63342;3;-7.3588581;0.0;-0.062202029;0;-0.16962734;  1.0007400E+04;  0.0000000E+00; -1.1540509E-10;  1.0000000E+04;  0.0000000E+00;  9.9998613E+03;-0.17416885;0.0;0.0045415214;92.180069
  9.9958315E-02;  9.9999998E-03; -1.8000200E-01;1190;-0.021260321;0.0;-0.0011056237;1000.3942;  4.0000001E-01;326.50925;3;-7.8823671;0.0;-0.50159168;0;-0.17740808;  1.0008199E+04;  0.0000000E+00; -7.0604972E-07;  1.0000000E+04;  0.0000000E+00;  9.9996885E+03;-0.18334192;0.0;0.0059338417;179.23929
  9.9957623E-02;  9.9999998E-03; -1.6000164E-01;1191;-0.021699362;0.0;-0.00094881054;1000.3993;  4.0000001E-01;330.8548;3;-8.1086617;0.0;-0.45986044;0;-0.18015862;  1.0008295E+04;  0.0000000E+00;  1.0730390E-07;  1.0000000E+04;  0.0000000E+00;  9.9996943E+03;-0.18636397;0.0;0.0062053516;176.72876
  9.9957317E-02;  9.9999998E-03; -1.4000131E-01;1192;-0.021940636;0.0;-0.0007977272;1000.4017;  4.0000001E-01;332.83005;3;-8.2701769;0.0;-0.41278893;0;-0.1815909;  1.0008325E+04;  0.0000000E+00;  1.6887178E-07;  1.0000000E+04;  0.0000000E+00;  9.9997119E+03;-0.18785529;0.0;0.0062643909;168.14815
  9.9957272E-02;  9.9999998E-03; -1.2000102E-01;1193;-0.022048393;0.0;-0.00065704435;1000.4021;  4.0000001E-01;333.12634;3;-8.3817301;0.0;-0.36163628;0;-0.18218961;  1.0008313E+04;  0.0000000E+00;  8.0062911E-08;  1.0000000E+04;  0.0000000E+00;  9.9997344E+03;-0.18836482;0.0;0.006175207;156.36714
  9.9957384E-02;  9.9999998E-03; -1.0000077E-01;1194;-0.022072036;0.0;-0.00052695925;1000.4017;  4.0000001E-01;332.83005;3;-8.4577055;0.0;-0.30701858;0;-0.18232906;  1.0008272E+04;  0.0000000E+00;  2.1068868E-08;  1.0000000E+04;  0.0000000E+00;  9.9997637E+03;-0.18829021;0.0;0.0059611523;142.83595
  9.9957556E-02;  9.9999998E-03; -8.0000564E-02;1195;-0.022048539;0.0;-0.00040756923;1000.4008;  4.0000001E-01;332.03995;3;-8.5083055;0.0;-0.25004026;0;-0.18223478;  1.0008226E+04;  0.0000000E+00;  1.3445497E-09;  1.0000000E+04;  0.0000000E+00;  9.9997891E+03;-0.18792063;0.0;0.0056858547;129.36072
  9.9957749E-02;  9.9999998E-03; -6.0000390E-02;1196;-0.022005161;0.0;-0.00029697164;1000.3996;  4.0000001E-01;331.05231;3;-8.5409498;0.0;-0.18977074;0;-0.18204692;  1.0008179E+04;  0.0000000E+00; -1.9895792E-09;  1.0000000E+04;  0.0000000E+00;  9.9998135E+03;-0.18745881;0.0;0.0054118945;117.47905
  9.9957913E-02;  9.9999998E-03; -4.0000245E-02;1197;-0.021961151;0.0;-0.00019389758;1000.3988;  4.0000001E-01;330.36096;3;-8.5606842;0.0;-0.12758605;0;-0.18185586;  1.0008146E+04;  0.0000000E+00; -1.2272603E-09;  1.0000000E+04;  0.0000000E+00;  9.9998320E+03;-0.18704237;0.0;0.0051865173;108.29639
  9.9958017E-02;  9.9999998E-03; -2.0000119E-02;1198;-0.021929627;0.0;-9.5760064e-05;1000.3982;  4.0000001E-01;329.86716;3;-8.5710649;0.0;-0.06436085;0;-0.18171935;  1.0008121E+04;  0.0000000E+00; -1.9240275E-10;  1.0000000E+04;  0.0000000E+00;  9.9998447E+03;-0.18675967;0.0;0.0050403168;102.52634
  1.1994983E-01;  9.9999998E-03; -1.8000196E-01;1221;-0.025201386;0.0;-0.0010550037;1000.4443;  4.0000001E-01;368.08829;3;-9.1355562;0.0;-0.47281897;0;-0.19494246;  1.0009199E+04;  0.0000000E+00; -1.9588392E-06;  1.0000000E+04;  0.0000000E+00;  9.9996865E+03;-0.20041421;0.0;0.0054717581;184.84328
  1.1994914E-01;  9.9999998E-03; -1.6000162E-01;1222;-0.025663694;0.0;-0.0009208144;1000.4479;  4.0000001E-01;371.14993;3;-9.3835678;0.0;-0.44368201;0;-0.19708076;  1.0009271E+04;  0.0000000E+00; -2.3747823E-07;  1.0000000E+04;  0.0000000E+00;  9.9996885E+03;-0.20293573;0.0;0.005854968;182.87883
  1.1994888E-01;  9.9999998E-03; -1.4000130E-01;1223;-0.025907099;0.0;-0.00078769086;1000.4489;  4.0000001E-01;371.94003;3;-9.5619268;0.0;-0.4055391;0;-0.19789158;  1.0009278E+04;  0.0000000E+00;  1.2190819E-07;  1.0000000E+04;  0.0000000E+00;  9.9997031E+03;-0.20400672;0.0;0.0061151395;176.07034
  1.1994890E-01;  9.9999998E-03; -1.2000102E-01;1224;-0.026005818;0.0;-0.00065725192;1000.4481;  4.0000001E-01;371.24872;3;-9.6866474;0.0;-0.36065847;0;-0.19792864;  1.0009241E+04;  0.0000000E+00;  8.5894051E-08;  1.0000000E+04;  0.0000000E+00;  9.9997227E+03;-0.2041796;0.0;0.0062509649;166.39388
  1.1994908E-01;  9.9999998E-03; -1.0000078E-01;1225;-0.026014781;0.0;-0.00053471496;1000.4462;  4.0000001E-01;369.66849;3;-9.7731342;0.0;-0.31029993;0;-0.19760445;  1.0009182E+04;  0.0000000E+00;  2.6735378E-08;  1.0000000E+04;  0.0000000E+00;  9.9997432E+03;-0.20384322;0.0;0.0062387753;154.63283
  1.1994933E-01;  9.9999998E-03; -8.0000579E-02;1226;-0.025975466;0.0;-0.0004185125;1000.4443;  4.0000001E-01;368.08829;3;-9.8322649;0.0;-0.2552866;0;-0.19715199;  1.0009120E+04;  0.0000000E+00;  2.0087187E-09;  1.0000000E+04;  0.0000000E+00;  9.9997695E+03;-0.20327665;0.0;0.0061246594;142.41533
  1.1994958E-01;  9.9999998E-03; -6.0000405E-02;1227;-0.0259174;0.0;-0.00030852848;1000.4426;  4.0000001E-01;366.70563;3;-9.871501;0.0;-0.19575185;0;-0.19670297;  1.0009063E+04;  0.0000000E+00; -2.7721401E-09;  1.0000000E+04;  0.0000000E+00;  9.9997949E+03;-0.20267227;0.0;0.0059693041;131.32971
  1.1994979E-01;  9.9999998E-03; -4.0000256E-02;1228;-0.025861658;0.0;-0.0002031949;1000.4412;  4.0000001E-01;365.52048;3;-9.8958588;0.0;-0.13268185;0;-0.19633563;  1.0009019E+04;  0.0000000E+00; -1.8285071E-09;  1.0000000E+04;  0.0000000E+00;  9.9998096E+03;-0.2021597;0.0;0.0058240695;122.60421
  1.1994993E-01;  9.9999998E-03; -2.0000124E-02;1229;-0.025822619;0.0;-0.00010086172;1000.4403;  4.0000001E-01;364.82913;3;-9.9090099;0.0;-0.066999905;0;-0.19609722;  1.0008991E+04;  0.0000000E+00; -8.3146839E-10;  1.0000000E+04;  0.0000000E+00;  9.9998203E+03;-0.20182131;0.0;0.0057240911;117.06225
  1.3994029E-01;  9.9999998E-03; -1.8000199E-01;1252;-0.029524181;0.0;-0.0010391237;1000.5025;  4.0000001E-01;416.28445;3;-10.500635;0.0;-0.45601898;0;-0.21487994;  1.0010377E+04;  0.0000000E+00; -3.2167380E-05;  1.0000000E+04;  0.0000000E+00;  9.9996758E+03;-0.22000916;0.0;0.0051292148;195.23805
  1.3993962E-01;  9.9999998E-03; -1.6000168E-01;1253;-0.029997189;0.0;-0.00093318732;1000.5044;  4.0000001E-01;417.86465;3;-10.769216;0.0;-0.4412249;0;-0.21629675;  1.0010415E+04;  0.0000000E+00; -5.3984519E-07;  1.0000000E+04;  0.0000000E+00;  9.9996748E+03;-0.22195934;0.0;0.0056625837;194.16098
  1.3993943E-01;  9.9999998E-03; -1.4000137E-01;1254;-0.030233053;0.0;-0.00081762177;1000.5035;  4.0000001E-01;417.07455;3;-10.963851;0.0;-0.41273218;0;-0.21641679;  1.0010388E+04;  0.0000000E+00;  1.2097928E-07;  1.0000000E+04;  0.0000000E+00;  9.9996846E+03;-0.22259639;0.0;0.0061795996;189.86496
  1.3993955E-01;  9.9999998E-03; -1.2000110E-01;1255;-0.030314777;0.0;-0.00069666735;1000.5011;  4.0000001E-01;415.19806;3;-11.101583;0.0;-0.373633;0;-0.21584553;  1.0010327E+04;  0.0000000E+00;  1.1646478E-07;  1.0000000E+04;  0.0000000E+00;  9.9996943E+03;-0.22244151;0.0;0.0065959836;183.034
  1.3993981E-01;  9.9999998E-03; -1.0000086E-01;1256;-0.030303396;0.0;-0.00057611242;1000.4981;  4.0000001E-01;412.63025;3;-11.198866;0.0;-0.32595107;0;-0.21502627;  1.0010250E+04;  0.0000000E+00;  4.2639197E-08;  1.0000000E+04;  0.0000000E+00;  9.9997129E+03;-0.22185792;0.0;0.006831646;173.59711
  1.3994016E-01;  9.9999998E-03; -8.0000639E-02;1257;-0.030243948;0.0;-0.0004572761;1000.4952;  4.0000001E-01;410.25995;3;-11.266946;0.0;-0.27053231;0;-0.21419565;  1.0010171E+04;  0.0000000E+00;  6.2813590E-09;  1.0000000E+04;  0.0000000E+00;  9.9997324E+03;-0.22110735;0.0;0.0069116987;162.96864
  1.3994049E-01;  9.9999998E-03; -6.0000457E-02;1258;-0.030168265;0.0;-0.00034103563;1000.4927;  4.0000001E-01;408.18591;3;-11.313235;0.0;-0.20898153;0;-0.21347368;  1.0010101E+04;  0.0000000E+00; -1.4292418E-09;  1.0000000E+04;  0.0000000E+00;  9.9997549E+03;-0.22036967;0.0;0.0068959873;152.83586
  1.3994075E-01;  9.9999998E-03; -4.0000293E-02;1259;-0.030098919;0.0;-0.00022654889;1000.4907;  4.0000001E-01;406.50696;3;-11.342736;0.0;-0.14255528;0;-0.21292326;  1.0010045E+04;  0.0000000E+00; -2.0401429E-09;  1.0000000E+04;  0.0000000E+00;  9.9997715E+03;-0.21976613;0.0;0.00684286;144.61833
  1.3994092E-01;  9.9999998E-03; -2.0000143E-02;1260;-0.030051278;0.0;-0.00011305981;1000.4896;  4.0000001E-01;405.6181;3;-11.359009;0.0;-0.072293565;0;-0.21257976;  1.0010013E+04;  0.0000000E+00; -5.2853838E-10;  1.0000000E+04;  0.0000000E+00;  9.9997783E+03;-0.2193746;0.0;0.0067948364;139.30893
  1.5992947E-01;  9.9999998E-03; -1.8000220E-01;1283;-0.034293983;0.0;-0.0011170766;1000.5678;  4.0000001E-01;470.40637;3;-11.962152;0.0;-0.4721849;0;-0.23659234;  1.0011722E+04;  0.0000000E+00; -2.5895936E-04;  1.0000000E+04;  0.0000000E+00;  9.9996406E+03;-0.24188776;0.0;0.0052954326;218.95477
  1.5992887E-01;  9.9999998E-03; -1.6000190E-01;1284;-0.034766071;0.0;-0.0010363519;1000.568;  4.0000001E-01;470.60391;3;-12.250414;0.0;-0.47056445;0;-0.23717637;  1.0011721E+04;  0.0000000E+00; -7.7893225E-07;  1.0000000E+04;  0.0000000E+00;  9.9996396E+03;-0.24313976;0.0;0.0059633804;217.57066
  1.5992878E-01;  9.9999998E-03; -1.4000161E-01;1285;-0.034985971;0.0;-0.00093283935;1000.5653;  4.0000001E-01;468.33237;3;-12.461546;0.0;-0.45016253;0;-0.23657268;  1.0011664E+04;  0.0000000E+00;  1.6856113E-07;  1.0000000E+04;  0.0000000E+00;  9.9996416E+03;-0.24333154;0.0;0.0067588463;215.59665
  1.5992902E-01;  9.9999998E-03; -1.2000132E-01;1286;-0.035044491;0.0;-0.00081161526;1000.561;  4.0000001E-01;464.77692;3;-12.613162;0.0;-0.41372213;0;-0.23538049;  1.0011575E+04;  0.0000000E+00;  1.7959054E-07;  1.0000000E+04;  0.0000000E+00;  9.9996455E+03;-0.24286857;0.0;0.0074880836;211.72902
  1.5992941E-01;  9.9999998E-03; -1.0000104E-01;1287;-0.035007857;0.0;-0.00068167178;1000.5568;  4.0000001E-01;461.32022;3;-12.722241;0.0;-0.36470568;0;-0.23406777;  1.0011477E+04;  0.0000000E+00;  7.0748548E-08;  1.0000000E+04;  0.0000000E+00;  9.9996611E+03;-0.24206711;0.0;0.0079993512;204.68904
  1.5992986E-01;  9.9999998E-03; -8.0000803E-02;1288;-0.03492444;0.0;-0.00054736569;1000.5528;  4.0000001E-01;457.96228;3;-12.800337;0.0;-0.30476028;0;-0.2328676;  1.0011381E+04;  0.0000000E+00;  1.7051073E-08;  1.0000000E+04;  0.0000000E+00;  9.9996748E+03;-0.24115896;0.0;0.0082913702;195.57884
  1.5993027E-01;  9.9999998E-03; -6.0000576E-02;1289;-0.034828253;0.0;-0.00041164804;1000.5493;  4.0000001E-01;455.09818;3;-12.85461;0.0;-0.23641756;0;-0.23188365;  1.0011298E+04;  0.0000000E+00;  1.1654069E-09;  1.0000000E+04;  0.0000000E+00;  9.9996914E+03;-0.24030763;0.0;0.0084239813;186.22632
  1.5993060E-01;  9.9999998E-03; -4.0000375E-02;1290;-0.034743264;0.0;-0.00027509246;1000.5469;  4.0000001E-01;453.12292;3;-12.88995;0.0;-0.16152769;0;-0.23115997;  1.0011232E+04;  0.0000000E+00; -1.4226111E-09;  1.0000000E+04;  0.0000000E+00;  9.9997080E+03;-0.23962577;0.0;0.0084658014;178.32129
  1.5993083E-01;  9.9999998E-03; -2.0000184E-02;1291;-0.034685832;0.0;-0.00013775496;1000.5455;  4.0000001E-01;451.93777;3;-12.909765;0.0;-0.082009092;0;-0.23071799;  1.0011193E+04;  0.0000000E+00; -3.7245892E-10;  1.0000000E+04;  0.0000000E+00;  9.9997168E+03;-0.23918788;0.0;0.0084698955;173.09599
  1.7991725E-01;  9.9999998E-03; -1.8000273E-01;1314;-0.039534718;0.0;-0.0013625366;1000.6403;  4.0000001E-01;530.45404;3;-13.508302;0.0;-0.5444625;0;-0.25950819;  1.0013259E+04;  0.0000000E+00; -7.6967583E-04;  1.0000000E+04;  0.0000000E+00;  9.9995508E+03;-0.26599884;0.0;0.0064906571;267.88406
  1.7991675E-01;  9.9999998E-03; -1.6000243E-01;1315;-0.039996114;0.0;-0.0012900601;1000.6381;  4.0000001E-01;528.57758;3;-13.815447;0.0;-0.55269337;0;-0.25923666;  1.0013204E+04;  0.0000000E+00; -3.4590296E-06;  1.0000000E+04;  0.0000000E+00;  9.9995576E+03;-0.2664299;0.0;0.0071932282;262.60843
  1.7991680E-01;  9.9999998E-03; -1.4000210E-01;1316;-0.040194158;0.0;-0.0011813443;1000.6334;  4.0000001E-01;524.72583;3;-14.044339;0.0;-0.53524858;0;-0.25796849;  1.0013110E+04;  0.0000000E+00;  2.8248596E-07;  1.0000000E+04;  0.0000000E+00;  9.9995586E+03;-0.26617891;0.0;0.0082104271;260.79706
  1.7991717E-01;  9.9999998E-03; -1.2000175E-01;1317;-0.040225651;0.0;-0.0010407489;1000.6275;  4.0000001E-01;519.88647;3;-14.212001;0.0;-0.49503538;0;-0.25621328;  1.0012995E+04;  0.0000000E+00;  2.7144208E-07;  1.0000000E+04;  0.0000000E+00;  9.9995557E+03;-0.26544335;0.0;0.0092300912;258.68921
  1.7991771E-01;  9.9999998E-03; -1.0000141E-01;1318;-0.040160552;0.0;-0.00088143989;1000.6219;  4.0000001E-01;515.24463;3;-14.335182;0.0;-0.43686137;0;-0.25445983;  1.0012872E+04;  0.0000000E+00;  1.1554493E-07;  1.0000000E+04;  0.0000000E+00;  9.9995664E+03;-0.26446825;0.0;0.010008417;253.23804
  1.7991827E-01;  9.9999998E-03; -8.0001093E-02;1319;-0.040050276;0.0;-0.00071191054;1000.6168;  4.0000001E-01;510.9978;3;-14.42507;0.0;-0.36495188;0;-0.25293738;  1.0012760E+04;  0.0000000E+00;  3.4033430E-08;  1.0000000E+04;  0.0000000E+00;  9.9995771E+03;-0.26344323;0.0;0.010505869;244.96962
  1.7991880E-01;  9.9999998E-03; -6.0000800E-02;1320;-0.0399311;0.0;-0.00053737068;1000.6129;  4.0000001E-01;507.73865;3;-14.488698;0.0;-0.28287777;0;-0.25172967;  1.0012662E+04;  0.0000000E+00;  5.8967302E-09;  1.0000000E+04;  0.0000000E+00;  9.9995977E+03;-0.26250914;0.0;0.010779479;235.80457
  1.7991921E-01;  9.9999998E-03; -4.0000521E-02;1321;-0.039828576;0.0;-0.00036007378;1000.6097;  4.0000001E-01;505.17081;3;-14.530677;0.0;-0.19354896;0;-0.25086066;  1.0012587E+04;  0.0000000E+00;  8.9775415E-10;  1.0000000E+04;  0.0000000E+00;  9.9996123E+03;-0.26176971;0.0;0.010909043;227.73697
  1.7991947E-01;  9.9999998E-03; -2.0000257E-02;1322;-0.039760165;0.0;-0.00018063984;1000.608;  4.0000001E-01;503.78815;3;-14.554469;0.0;-0.098405711;0;-0.25033727;  1.0012540E+04;  0.0000000E+00;  1.4842369E-10;  1.0000000E+04;  0.0000000E+00;  9.9996221E+03;-0.26129732;0.0;0.01096005;222.287
  1.9990347E-01;  9.9999998E-03; -1.8000375E-01;1345;-0.045261659;0.0;-0.0018362046;1000.7186;  4.0000001E-01;595.34113;3;-15.124394;0.0;-0.69097656;0;-0.28302425;  1.0014997E+04;  0.0000000E+00; -1.3454113E-03;  1.0000000E+04;  0.0000000E+00;  9.9993789E+03;-0.29230657;0.0;0.0092823124;355.47888
  1.9990312E-01;  9.9999998E-03; -1.6000336E-01;1346;-0.045705441;0.0;-0.0017519341;1000.7144;  4.0000001E-01;591.78564;3;-15.452264;0.0;-0.70621622;0;-0.28206924;  1.0014886E+04;  0.0000000E+00; -1.2380165E-05;  1.0000000E+04;  0.0000000E+00;  9.9994082E+03;-0.29190013;0.0;0.0098308856;340.20258
  1.9990332E-01;  9.9999998E-03; -1.4000292E-01;1347;-0.045879535;0.0;-0.0016102437;1000.7081;  4.0000001E-01;586.64996;3;-15.702692;0.0;-0.68407971;0;-0.28031749;  1.0014751E+04;  0.0000000E+00;  4.0013487E-07;  1.0000000E+04;  0.0000000E+00;  9.9994180E+03;-0.29123327;0.0;0.010915783;333.90134
  1.9990388E-01;  9.9999998E-03; -1.2000246E-01;1348;-0.045883518;0.0;-0.0014206357;1000.701;  4.0000001E-01;580.72424;3;-15.890714;0.0;-0.62973714;0;-0.27815163;  1.0014605E+04;  0.0000000E+00;  3.5720302E-07;  1.0000000E+04;  0.0000000E+00;  9.9994189E+03;-0.29027748;0.0;0.012125847;330.4808
  1.9990456E-01;  9.9999998E-03; -1.0000201E-01;1349;-0.045789257;0.0;-0.0012029676;1000.6939;  4.0000001E-01;574.89722;3;-16.031622;0.0;-0.55285954;0;-0.27607629;  1.0014458E+04;  0.0000000E+00;  1.6174803E-07;  1.0000000E+04;  0.0000000E+00;  9.9994268E+03;-0.28918627;0.0;0.013109968;324.54932
  1.9990528E-01;  9.9999998E-03; -8.0001563E-02;1350;-0.045650709;0.0;-0.00097125984;1000.6881;  4.0000001E-01;570.05786;3;-16.135981;0.0;-0.45963949;0;-0.27432162;  1.0014329E+04;  0.0000000E+00;  5.3575977E-08;  1.0000000E+04;  0.0000000E+00;  9.9994404E+03;-0.28809512;0.0;0.013773514;315.63376
  1.9990592E-01;  9.9999998E-03; -6.0001146E-02;1351;-0.045506887;0.0;-0.00073268788;1000.6835;  4.0000001E-01;566.20612;3;-16.210873;0.0;-0.35441738;0;-0.27295703;  1.0014215E+04;  0.0000000E+00;  1.2653687E-08;  1.0000000E+04;  0.0000000E+00;  9.9994580E+03;-0.28711873;0.0;0.0141617;305.55371
  1.9990641E-01;  9.9999998E-03; -4.0000752E-02;1352;-0.045385379;0.0;-0.00049062085;1000.6801;  4.0000001E-01;563.4408;3;-16.261007;0.0;-0.24104773;0;-0.27198881;  1.0014127E+04;  0.0000000E+00;  3.0764225E-09;  1.0000000E+04;  0.0000000E+00;  9.9994756E+03;-0.28635028;0.0;0.014361481;296.54233
  1.9990674E-01;  9.9999998E-03; -2.0000372E-02;1353;-0.045305017;0.0;-0.00024594733;1000.678;  4.0000001E-01;561.66302;3;-16.289585;0.0;-0.12197859;0;-0.27141047;  1.0014073E+04;  0.0000000E+00;  2.0675631E-10;  1.0000000E+04;  0.0000000E+00;  9.9994893E+03;-0.28585979;0.0;0.014449328;290.39667
  2.1988799E-01;  9.9999998E-03; -1.8000530E-01;1376;-0.05150291;0.0;-0.0025751751;1000.8019;  4.0000001E-01;664.37616;3;-16.807283;0.0;-0.92514348;0;-0.30653867;  1.0016940E+04;  0.0000000E+00; -1.5400924E-03;  1.0000000E+04;  0.0000000E+00;  9.9991074E+03;-0.32065222;0.0;0.014113533;493.05753
  2.1988779E-01;  9.9999998E-03; -1.6000476E-01;1377;-0.051924217;0.0;-0.0024591053;1000.7966;  4.0000001E-01;660.03064;3;-17.153929;0.0;-0.94731361;0;-0.30528146;  1.0016772E+04;  0.0000000E+00; -1.3977636E-05;  1.0000000E+04;  0.0000000E+00;  9.9991680E+03;-0.31954458;0.0;0.014263131;459.9783
  2.1988820E-01;  9.9999998E-03; -1.4000417E-01;1378;-0.052077774;0.0;-0.0022462478;1000.7894;  4.0000001E-01;654.0061;3;-17.43359;0.0;-0.90172946;0;-0.30334079;  1.0016597E+04;  0.0000000E+00;  4.0993740E-07;  1.0000000E+04;  0.0000000E+00;  9.9992031E+03;-0.31853336;0.0;0.015192566;442.59119
  2.1988893E-01;  9.9999998E-03; -1.2000352E-01;1379;-0.052056894;0.0;-0.0019719803;1000.7812;  4.0000001E-01;647.19147;3;-17.647076;0.0;-0.82112575;0;-0.30100596;  1.0016417E+04;  0.0000000E+00;  3.6549878E-07;  1.0000000E+04;  0.0000000E+00;  9.9992129E+03;-0.3174305;0.0;0.016424533;433.00775
  2.1988979E-01;  9.9999998E-03; -1.0000287E-01;1380;-0.05193425;0.0;-0.0016641639;1000.7734;  4.0000001E-01;640.77191;3;-17.810265;0.0;-0.7125178;0;-0.29878974;  1.0016245E+04;  0.0000000E+00;  1.7355509E-07;  1.0000000E+04;  0.0000000E+00;  9.9992305E+03;-0.3162913;0.0;0.017501578;423.20956
  2.1989067E-01;  9.9999998E-03; -8.0002241E-02;1381;-0.051767264;0.0;-0.0013394286;1000.7667;  4.0000001E-01;635.24121;3;-17.932455;0.0;-0.58650327;0;-0.29693374;  1.0016093E+04;  0.0000000E+00;  6.1514527E-08;  1.0000000E+04;  0.0000000E+00;  9.9992529E+03;-0.31519368;0.0;0.018259937;411.29752
  2.1989144E-01;  9.9999998E-03; -6.0001649E-02;1382;-0.051597822;0.0;-0.0010086666;1000.7617;  4.0000001E-01;631.09314;3;-18.020788;0.0;-0.44878229;0;-0.29550302;  1.0015968E+04;  0.0000000E+00;  1.7413969E-08;  1.0000000E+04;  0.0000000E+00;  9.9992744E+03;-0.31422225;0.0;0.018719235;398.6806
  2.1989205E-01;  9.9999998E-03; -4.0001083E-02;1383;-0.051456239;0.0;-0.00067456171;1000.7579;  4.0000001E-01;627.93274;3;-18.08025;0.0;-0.30351946;0;-0.29449514;  1.0015868E+04;  0.0000000E+00;  1.2755074E-09;  1.0000000E+04;  0.0000000E+00;  9.9992930E+03;-0.31345895;0.0;0.018963821;387.65228
  2.1989243E-01;  9.9999998E-03; -2.0000536E-02;1384;-0.051363181;0.0;-0.00033815997;1000.7557;  4.0000001E-01;626.05627;3;-18.114298;0.0;-0.15278731;0;-0.2938965;  1.0015812E+04;  0.0000000E+00;  1.8156574E-09;  1.0000000E+04;  0.0000000E+00;  9.9993096E+03;-0.3129718;0.0;0.01907531;380.19482
  2.3987056E-01;  9.9999998E-03; -1.8000747E-01;1407;-0.058292639;0.0;-0.0036422284;1000.8904;  4.0000001E-01;737.75677;3;-18.543913;0.0;-1.3018885;0;-0.32976779;  1.0019103E+04;  0.0000000E+00; -1.1426888E-03;  1.0000000E+04;  0.0000000E+00;  9.9987119E+03;-0.35086095;0.0;0.021093162;685.44788
  2.3987058E-01;  9.9999998E-03; -1.6000670E-01;1408;-0.058698162;0.0;-0.0034170102;1000.885;  4.0000001E-01;733.21375;3;-18.925735;0.0;-1.2637397;0;-0.32868633;  1.0018880E+04;  0.0000000E+00; -4.0150881E-06;  1.0000000E+04;  0.0000000E+00;  9.9988330E+03;-0.34931469;0.0;0.020628365;627.06757
  2.3987119E-01;  9.9999998E-03; -1.4000584E-01;1409;-0.0588356;0.0;-0.0030934198;1000.8776;  4.0000001E-01;727.09045;3;-19.237085;0.0;-1.183468;0;-0.326906;  1.0018661E+04;  0.0000000E+00;  2.3984526E-07;  1.0000000E+04;  0.0000000E+00;  9.9989014E+03;-0.34809029;0.0;0.021184284;591.65137
  2.3987213E-01;  9.9999998E-03; -1.2000492E-01;1410;-0.058792021;0.0;-0.0027056546;1000.8689;  4.0000001E-01;719.88074;3;-19.480436;0.0;-1.0723505;0;-0.3246924;  1.0018448E+04;  0.0000000E+00;  2.3193171E-07;  1.0000000E+04;  0.0000000E+00;  9.9989395E+03;-0.34694228;0.0;0.022249866;570.1925
  2.3987320E-01;  9.9999998E-03; -1.0000402E-01;1411;-0.058644313;0.0;-0.0022721407;1000.8607;  4.0000001E-01;713.06616;3;-19.670544;0.0;-0.92206877;0;-0.32255548;  1.0018254E+04;  0.0000000E+00;  1.2368457E-07;  1.0000000E+04;  0.0000000E+00;  9.9989707E+03;-0.34583858;0.0;0.023283103;552.27899
  2.3987426E-01;  9.9999998E-03; -8.0003142E-02;1412;-0.058450617;0.0;-0.0018249648;1000.8539;  4.0000001E-01;707.43665;3;-19.815647;0.0;-0.75277859;0;-0.32075304;  1.0018081E+04;  0.0000000E+00;  4.7780102E-08;  1.0000000E+04;  0.0000000E+00;  9.9990039E+03;-0.34480199;0.0;0.024048962;534.38965
  2.3987518E-01;  9.9999998E-03; -6.0002312E-02;1413;-0.058256276;0.0;-0.0013729938;1000.8483;  4.0000001E-01;702.79486;3;-19.920383;0.0;-0.57615495;0;-0.31936213;  1.0017937E+04;  0.0000000E+00;  1.3701016E-08;  1.0000000E+04;  0.0000000E+00;  9.9990352E+03;-0.34389076;0.0;0.024528628;517.22211
  2.3987590E-01;  9.9999998E-03; -4.0001519E-02;1414;-0.058094844;0.0;-0.00091626984;1000.8442;  4.0000001E-01;699.43689;3;-19.991264;0.0;-0.38978013;0;-0.31838381;  1.0017833E+04;  0.0000000E+00;  3.9687698E-09;  1.0000000E+04;  0.0000000E+00;  9.9990615E+03;-0.34317479;0.0;0.024790971;502.8913
  2.3987634E-01;  9.9999998E-03; -2.0000752E-02;1415;-0.057989184;0.0;-0.00045821178;1000.8419;  4.0000001E-01;697.56042;3;-20.03233;0.0;-0.19596119;0;-0.3178032;  1.0017763E+04;  0.0000000E+00; -7.8071505E-10;  1.0000000E+04;  0.0000000E+00;  9.9990791E+03;-0.34271657;0.0;0.024913365;493.40704
  2.5985098E-01;  9.9999998E-03; -1.8001041E-01;1438;-0.065688007;0.0;-0.0050551845;1000.9851;  4.0000001E-01;816.17426;3;-20.347006;0.0;-1.7577673;0;-0.35292321;  1.0021488E+04;  0.0000000E+00; -4.7986704E-04;  1.0000000E+04;  0.0000000E+00;  9.9982227E+03;-0.38278702;0.0;0.029863805;928.18622
  2.5985122E-01;  9.9999998E-03; -1.6000919E-01;1439;-0.066082105;0.0;-0.0046366528;1000.9804;  4.0000001E-01;812.22375;3;-20.764336;0.0;-1.6625822;0;-0.35241282;  1.0021219E+04;  0.0000000E+00;  5.2686750E-07;  1.0000000E+04;  0.0000000E+00;  9.9984004E+03;-0.38113245;0.0;0.028719649;840.04169
  2.5985208E-01;  9.9999998E-03; -1.4000796E-01;1440;-0.066204563;0.0;-0.0041502034;1000.9734;  4.0000001E-01;806.39679;3;-21.11344;0.0;-1.5302564;0;-0.35111159;  1.0020964E+04;  0.0000000E+00; -6.0831148E-08;  1.0000000E+04;  0.0000000E+00;  9.9985166E+03;-0.37989548;0.0;0.028783878;781.35822
  2.5985324E-01;  9.9999998E-03; -1.2000670E-01;1441;-0.06614425;0.0;-0.003609356;1000.9651;  4.0000001E-01;799.58215;3;-21.396559;0.0;-1.3568164;0;-0.34929591;  1.0020721E+04;  0.0000000E+00; -2.4411211E-08;  1.0000000E+04;  0.0000000E+00;  9.9985918E+03;-0.37884226;0.0;0.029546352;742.88745
  2.5985456E-01;  9.9999998E-03; -1.0000546E-01;1442;-0.065973386;0.0;-0.0030327756;1000.9567;  4.0000001E-01;792.66876;3;-21.61911;0.0;-1.162146;0;-0.34745413;  1.0020502E+04;  0.0000000E+00;  3.0079367E-10;  1.0000000E+04;  0.0000000E+00;  9.9986455E+03;-0.37787643;0.0;0.030422296;712.62061
  2.5985581E-01;  9.9999998E-03; -8.0004275E-02;1443;-0.065754838;0.0;-0.0024369243;1000.9496;  4.0000001E-01;786.74298;3;-21.787607;0.0;-0.95443982;0;-0.3458623;  1.0020308E+04;  0.0000000E+00;  6.2292389E-09;  1.0000000E+04;  0.0000000E+00;  9.9986963E+03;-0.37698299;0.0;0.031120695;685.62476
  2.5985691E-01;  9.9999998E-03; -6.0003147E-02;1444;-0.06553711;0.0;-0.0018298768;1000.944;  4.0000001E-01;782.10114;3;-21.909986;0.0;-0.73231637;0;-0.34461835;  1.0020152E+04;  0.0000000E+00; -1.2664628E-09;  1.0000000E+04;  0.0000000E+00;  9.9987432E+03;-0.37619755;0.0;0.031579193;661.76624
  2.5985774E-01;  9.9999998E-03; -4.0002067E-02;1445;-0.065357186;0.0;-0.0012200233;1000.9401;  4.0000001E-01;778.84198;3;-21.995064;0.0;-0.49244472;0;-0.34373778;  1.0020035E+04;  0.0000000E+00; -2.0821509E-09;  1.0000000E+04;  0.0000000E+00;  9.9987764E+03;-0.3755779;0.0;0.031840123;642.77832
  2.5985825E-01;  9.9999998E-03; -2.0001026E-02;1446;-0.065239623;0.0;-0.00061091554;1000.9377;  4.0000001E-01;776.86676;3;-22.044436;0.0;-0.24841119;0;-0.34321392;  1.0019962E+04;  0.0000000E+00;  1.9242028E-09;  1.0000000E+04;  0.0000000E+00;  9.9988018E+03;-0.37518036;0.0;0.031966459;630.52557
  2.7982894E-01;  9.9999998E-03; -1.8001406E-01;1469;-0.073748335;0.0;-0.0067846184;1001.0875;  4.0000001E-01;900.9126;3;-22.209906;0.0;-2.3127677;0;-0.37662476;  1.0024116E+04;  0.0000000E+00; -5.8612190E-05;  1.0000000E+04;  0.0000000E+00;  9.9976514E+03;-0.41630751;0.0;0.039682761;1208.7501
  2.7982947E-01;  9.9999998E-03; -1.6001225E-01;1470;-0.074124992;0.0;-0.0061193625;1001.0844;  4.0000001E-01;898.44354;3;-22.665527;0.0;-2.149039;0;-0.37689382;  1.0023809E+04;  0.0000000E+00;  6.9756453E-07;  1.0000000E+04;  0.0000000E+00;  9.9978916E+03;-0.41491154;0.0;0.03801772;1091.3053
  2.7983060E-01;  9.9999998E-03; -1.4001052E-01;1471;-0.074236333;0.0;-0.0054223752;1001.0781;  4.0000001E-01;893.20911;3;-23.061193;0.0;-1.944034;0;-0.37629071;  1.0023518E+04;  0.0000000E+00; -3.5023768E-07;  1.0000000E+04;  0.0000000E+00;  9.9980605E+03;-0.41392666;0.0;0.037635945;1007.3384
  2.7983204E-01;  9.9999998E-03; -1.2000882E-01;1472;-0.074162759;0.0;-0.0046833353;1001.0703;  4.0000001E-01;886.6908;3;-23.389488;0.0;-1.6977212;0;-0.37507358;  1.0023246E+04;  0.0000000E+00; -3.0993669E-07;  1.0000000E+04;  0.0000000E+00;  9.9981709E+03;-0.41314399;0.0;0.038070407;948.58759
  2.7983359E-01;  9.9999998E-03; -1.0000719E-01;1473;-0.073974378;0.0;-0.0039228015;1001.0624;  4.0000001E-01;880.17242;3;-23.648638;0.0;-1.4407994;0;-0.37369809;  1.0023000E+04;  0.0000000E+00; -1.5657730E-07;  1.0000000E+04;  0.0000000E+00;  9.9982617E+03;-0.4124434;0.0;0.038745318;902.66095
  2.7983508E-01;  9.9999998E-03; -8.0005631E-02;1474;-0.073735297;0.0;-0.0031460887;1001.0552;  4.0000001E-01;874.14795;3;-23.848568;0.0;-1.170189;0;-0.37244824;  1.0022790E+04;  0.0000000E+00; -7.0326131E-08;  1.0000000E+04;  0.0000000E+00;  9.9983350E+03;-0.41179228;0.0;0.039344039;863.85828
  2.7983636E-01;  9.9999998E-03; -6.0004145E-02;1475;-0.073497839;0.0;-0.002362882;1001.05;  4.0000001E-01;869.90112;3;-23.995226;0.0;-0.88646042;0;-0.37144452;  1.0022616E+04;  0.0000000E+00; -2.1715712E-08;  1.0000000E+04;  0.0000000E+00;  9.9983965E+03;-0.41121221;0.0;0.039767686;831.37024
  2.7983734E-01;  9.9999998E-03; -4.0002726E-02;1476;-0.07330057;0.0;-0.0015753589;1001.0459;  4.0000001E-01;866.54321;3;-24.095907;0.0;-0.59346575;0;-0.37072343;  1.0022487E+04;  0.0000000E+00; -7.7377207E-09;  1.0000000E+04;  0.0000000E+00;  9.9984453E+03;-0.41075021;0.0;0.040026784;806.47455
  2.7983794E-01;  9.9999998E-03; -2.0001352E-02;1477;-0.073171392;0.0;-0.00078878616;1001.0436;  4.0000001E-01;864.56793;3;-24.151619;0.0;-0.30412167;0;-0.37029055;  1.0022409E+04;  0.0000000E+00; -9.5906172E-10;  1.0000000E+04;  0.0000000E+00;  9.9984766E+03;-0.41045156;0.0;0.040161021;790.76581
  2.9980418E-01;  9.9999998E-03; -1.8001828E-01;1500;-0.082514167;0.0;-0.0087359035;1001.2004;  4.0000001E-01;994.53943;3;-24.1273;0.0;-2.907124;0;-0.40164989;  1.0026993E+04;  0.0000000E+00;  1.0092116E-05;  1.0000000E+04;  0.0000000E+00;  9.9970332E+03;-0.45134711;0.0;0.049697235;1512.0449
  2.9980507E-01;  9.9999998E-03; -1.6001579E-01;1501;-0.08287783;0.0;-0.0078133699;1001.1982;  4.0000001E-01;992.76166;3;-24.633204;0.0;-2.677016;0;-0.40275267;  1.0026662E+04;  0.0000000E+00;  7.3537018E-07;  1.0000000E+04;  0.0000000E+00;  9.9973271E+03;-0.45060158;0.0;0.047848914;1369.9697
  2.9980651E-01;  9.9999998E-03; -1.4001347E-01;1502;-0.082979992;0.0;-0.0068694465;1001.1934;  4.0000001E-01;988.7124;3;-25.080351;0.0;-2.397316;0;-0.40293488;  1.0026344E+04;  0.0000000E+00; -5.1906801E-07;  1.0000000E+04;  0.0000000E+00;  9.9975410E+03;-0.45016083;0.0;0.047225956;1262.0874
  2.9980826E-01;  9.9999998E-03; -1.2001125E-01;1503;-0.082896903;0.0;-0.005905082;1001.1864;  4.0000001E-01;982.88544;3;-25.455547;0.0;-2.0882308;0;-0.40241364;  1.0026047E+04;  0.0000000E+00; -5.3677996E-07;  1.0000000E+04;  0.0000000E+00;  9.9977002E+03;-0.44984823;0.0;0.047434609;1182.1686
  2.9981008E-01;  9.9999998E-03; -1.0000915E-01;1504;-0.082696699;0.0;-0.0049282038;1001.1794;  4.0000001E-01;977.05841;3;-25.757339;0.0;-1.7569302;0;-0.40160257;  1.0025777E+04;  0.0000000E+00; -3.3086351E-07;  1.0000000E+04;  0.0000000E+00;  9.9978232E+03;-0.4495607;0.0;0.047958128;1118.776
  2.9981181E-01;  9.9999998E-03; -8.0007166E-02;1505;-0.082444325;0.0;-0.0039449162;1001.1729;  4.0000001E-01;971.72522;3;-25.995842;0.0;-1.4082546;0;-0.40078083;  1.0025547E+04;  0.0000000E+00; -1.5857499E-07;  1.0000000E+04;  0.0000000E+00;  9.9979258E+03;-0.44926956;0.0;0.048488729;1066.3325
  2.9981327E-01;  9.9999998E-03; -6.0005277E-02;1506;-0.082191586;0.0;-0.0029584067;1001.1674;  4.0000001E-01;967.18213;3;-26.167658;0.0;-1.0622973;0;-0.40008545;  1.0025356E+04;  0.0000000E+00; -5.9841135E-08;  1.0000000E+04;  0.0000000E+00;  9.9980098E+03;-0.44899127;0.0;0.048905808;1023.7505
  2.9981440E-01;  9.9999998E-03; -4.0003475E-02;1507;-0.081982657;0.0;-0.0019714057;1001.1635;  4.0000001E-01;963.92297;3;-26.286806;0.0;-0.7089687;0;-0.39956954;  1.0025217E+04;  0.0000000E+00; -1.7055955E-08;  1.0000000E+04;  0.0000000E+00;  9.9980684E+03;-0.44875848;0.0;0.049188942;991.94476
  2.9981509E-01;  9.9999998E-03; -2.0001722E-02;1508;-0.081846207;0.0;-0.00098581251;1001.1614;  4.0000001E-01;962.14526;3;-26.357544;0.0;-0.35716486;0;-0.39925373;  1.0025134E+04;  0.0000000E+00; -4.5632236E-09;  1.0000000E+04;  0.0000000E+00;  9.9981074E+03;-0.44860357;0.0;0.049349844;972.21387
  3.1977645E-01;  9.9999998E-03; -1.8002287E-01;1531;-0.092019893;0.0;-0.010789549;1001.3257;  4.0000001E-01;1098.3389;3;-26.091574;0.0;-3.4942145;0;-0.42870075;  1.0030140E+04;  0.0000000E+00;  8.9041223E-06;  1.0000000E+04;  0.0000000E+00;  9.9964053E+03;-0.4879379;0.0;0.05923716;1826.277
  3.1977770E-01;  9.9999998E-03; -1.6001967E-01;1532;-0.092381433;0.0;-0.0096062841;1001.325;  4.0000001E-01;1097.7463;3;-26.657106;0.0;-3.1906784;0;-0.4306193;  1.0029802E+04;  0.0000000E+00;  7.4235021E-07;  1.0000000E+04;  0.0000000E+00;  9.9967275E+03;-0.48821336;0.0;0.05759405;1665.8231
  3.1977952E-01;  9.9999998E-03; -1.4001670E-01;1533;-0.092482001;0.0;-0.0084203212;1001.3212;  4.0000001E-01;1094.5859;3;-27.164183;0.0;-2.8490245;0;-0.43156511;  1.0029461E+04;  0.0000000E+00; -5.2332570E-07;  1.0000000E+04;  0.0000000E+00;  9.9969854E+03;-0.48858532;0.0;0.057020202;1537.4783
  3.1978160E-01;  9.9999998E-03; -1.2001393E-01;1534;-0.092396528;0.0;-0.0072287968;1001.3149;  4.0000001E-01;1089.3514;3;-27.594812;0.0;-2.4747422;0;-0.43174383;  1.0029138E+04;  0.0000000E+00; -6.8690673E-07;  1.0000000E+04;  0.0000000E+00;  9.9971875E+03;-0.48894125;0.0;0.057197411;1437.4332
  3.1978375E-01;  9.9999998E-03; -1.0001132E-01;1535;-0.092191644;0.0;-0.0060283048;1001.3083;  4.0000001E-01;1083.9196;3;-27.946064;0.0;-2.0826464;0;-0.43152481;  1.0028846E+04;  0.0000000E+00; -4.8268538E-07;  1.0000000E+04;  0.0000000E+00;  9.9973428E+03;-0.489225;0.0;0.057700194;1356.2446
  3.1978571E-01;  9.9999998E-03; -8.0008857E-02;1536;-0.091932975;0.0;-0.0048258528;1001.3025;  4.0000001E-01;1079.0802;3;-28.221508;0.0;-1.6772988;0;-0.43117034;  1.0028592E+04;  0.0000000E+00; -2.5449762E-07;  1.0000000E+04;  0.0000000E+00;  9.9974756E+03;-0.48942637;0.0;0.05825603;1289.3082
  3.1978741E-01;  9.9999998E-03; -6.0006533E-02;1537;-0.09167555;0.0;-0.0036249238;1001.2974;  4.0000001E-01;1074.8334;3;-28.426516;0.0;-1.2649776;0;-0.43082023;  1.0028391E+04;  0.0000000E+00; -1.1175241E-07;  1.0000000E+04;  0.0000000E+00;  9.9975791E+03;-0.48955753;0.0;0.058737293;1235.7585
  3.1978866E-01;  9.9999998E-03; -4.0004302E-02;1538;-0.091461651;0.0;-0.0024204012;1001.2937;  4.0000001E-01;1071.7717;3;-28.564825;0.0;-0.85268611;0;-0.4305388;  1.0028242E+04;  0.0000000E+00; -3.0795171E-08;  1.0000000E+04;  0.0000000E+00;  9.9976543E+03;-0.48963559;0.0;0.059096791;1196.3666
  3.1978947E-01;  9.9999998E-03; -2.0002136E-02;1539;-0.091322057;0.0;-0.0012105976;1001.2917;  4.0000001E-01;1070.1915;3;-28.648312;0.0;-0.42457625;0;-0.43035781;  1.0028155E+04;  0.0000000E+00; -6.2176029E-09;  1.0000000E+04;  0.0000000E+00;  9.9977021E+03;-0.48967549;0.0;0.059317671;1172.2064
  3.3974540E-01;  9.9999998E-03; -1.8002765E-01;1562;-0.10229027;0.0;-0.012822539;1001.4663;  4.0000001E-01;1214.7799;3;-28.091219;0.0;-4.0312233;0;-0.45830885;  1.0033592E+04;  0.0000000E+00;  7.5500570E-06;  1.0000000E+04;  0.0000000E+00;  9.9957617E+03;-0.52625579;0.0;0.067946933;2145.562
  3.3974707E-01;  9.9999998E-03; -1.6002375E-01;1563;-0.10267098;0.0;-0.011420834;1001.4664;  4.0000001E-01;1214.8787;3;-28.72916;0.0;-3.6714494;0;-0.46096587;  1.0033244E+04;  0.0000000E+00;  6.6005299E-07;  1.0000000E+04;  0.0000000E+00;  9.9961143E+03;-0.52780479;0.0;0.06683892;1972.2104
  3.3974931E-01;  9.9999998E-03; -1.4002015E-01;1564;-0.10278555;0.0;-0.010014732;1001.463;  4.0000001E-01;1212.1133;3;-29.306601;0.0;-3.2787521;0;-0.46259829;  1.0032888E+04;  0.0000000E+00; -5.3267200E-07;  1.0000000E+04;  0.0000000E+00;  9.9964033E+03;-0.52919251;0.0;0.066594213;1827.0863
  3.3975178E-01;  9.9999998E-03; -1.2001679E-01;1565;-0.10270947;0.0;-0.0086008906;1001.4578;  4.0000001E-01;1207.7678;3;-29.800713;0.0;-2.8453438;0;-0.46342972;  1.0032541E+04;  0.0000000E+00; -8.2211477E-07;  1.0000000E+04;  0.0000000E+00;  9.9966396E+03;-0.53039062;0.0;0.066960894;1708.8328
  3.3975425E-01;  9.9999998E-03; -1.0001364E-01;1566;-0.10251349;0.0;-0.0071891737;1001.4515;  4.0000001E-01;1202.5333;3;-30.20697;0.0;-2.3991513;0;-0.4637889;  1.0032225E+04;  0.0000000E+00; -6.3242999E-07;  1.0000000E+04;  0.0000000E+00;  9.9968330E+03;-0.53140086;0.0;0.067611955;1610.4878
  3.3975649E-01;  9.9999998E-03; -8.0010690E-02;1567;-0.10226148;0.0;-0.0057703638;1001.4462;  4.0000001E-01;1198.089;3;-30.526096;0.0;-1.9367325;0;-0.46390969;  1.0031953E+04;  0.0000000E+00; -3.5588403E-07;  1.0000000E+04;  0.0000000E+00;  9.9969912E+03;-0.53223097;0.0;0.068321303;1528.9867
  3.3975840E-01;  9.9999998E-03; -6.0007885E-02;1568;-0.10200883;0.0;-0.0043428689;1001.4414;  4.0000001E-01;1194.1385;3;-30.764986;0.0;-1.4641725;0;-0.46392176;  1.0031733E+04;  0.0000000E+00; -1.5594804E-07;  1.0000000E+04;  0.0000000E+00;  9.9971162E+03;-0.5328843;0.0;0.068962537;1464.1251
  3.3975983E-01;  9.9999998E-03; -4.0005196E-02;1569;-0.10179837;0.0;-0.002905942;1001.4379;  4.0000001E-01;1191.2744;3;-30.93029;0.0;-0.98525125;0;-0.46389085;  1.0031575E+04;  0.0000000E+00; -5.0934027E-08;  1.0000000E+04;  0.0000000E+00;  9.9972070E+03;-0.5333572;0.0;0.06946636;1416.7964
  3.3976072E-01;  9.9999998E-03; -2.0002581E-02;1570;-0.10165975;0.0;-0.0014573655;1001.4361;  4.0000001E-01;1189.793;3;-31.023943;0.0;-0.49681962;0;-0.46385604;  1.0031478E+04;  0.0000000E+00; -7.7889029E-09;  1.0000000E+04;  0.0000000E+00;  9.9972676E+03;-0.53364432;0.0;0.069788292;1387.9713
  3.5971078E-01;  9.9999998E-03; -1.8003249E-01;1593;-0.11335564;0.0;-0.014770084;1001.6232;  4.0000001E-01;1344.8501;3;-30.119484;0.0;-4.4819031;0;-0.4907077;  1.0037387E+04;  0.0000000E+00;  6.0803432E-06;  1.0000000E+04;  0.0000000E+00;  9.9951182E+03;-0.56650013;0.0;0.075792439;2470.0469
  3.5971290E-01;  9.9999998E-03; -1.6002794E-01;1594;-0.11377981;0.0;-0.013190253;1001.6237;  4.0000001E-01;1345.2452;3;-30.836607;0.0;-4.0928755;0;-0.49402466;  1.0037026E+04;  0.0000000E+00;  2.2296265E-07;  1.0000000E+04;  0.0000000E+00;  9.9954883E+03;-0.56943589;0.0;0.075411238;2286.6912
  3.5971555E-01;  9.9999998E-03; -1.4002371E-01;1595;-0.11392982;0.0;-0.011592634;1001.6208;  4.0000001E-01;1342.7761;3;-31.496733;0.0;-3.650979;0;-0.49627045;  1.0036642E+04;  0.0000000E+00; -6.9072496E-07;  1.0000000E+04;  0.0000000E+00;  9.9958027E+03;-0.57196289;0.0;0.075692445;2127.3381
  3.5971844E-01;  9.9999998E-03; -1.2001976E-01;1596;-0.11388485;0.0;-0.0099908952;1001.6154;  4.0000001E-01;1338.3318;3;-32.064098;0.0;-3.1830518;0;-0.49770409;  1.0036271E+04;  0.0000000E+00; -9.9529211E-07;  1.0000000E+04;  0.0000000E+00;  9.9960723E+03;-0.57413602;0.0;0.076431938;1992.7233
  3.5972124E-01;  9.9999998E-03; -1.0001607E-01;1597;-0.11371522;0.0;-0.0083718449;1001.6095;  4.0000001E-01;1333.3937;3;-32.531876;0.0;-2.6896601;0;-0.49862012;  1.0035931E+04;  0.0000000E+00; -7.9041808E-07;  1.0000000E+04;  0.0000000E+00;  9.9962939E+03;-0.57600635;0.0;0.07738623;1878.2493
  3.5972381E-01;  9.9999998E-03; -8.0012597E-02;1598;-0.11348673;0.0;-0.0067350282;1001.6045;  4.0000001E-01;1329.2456;3;-32.902023;0.0;-2.1779602;0;-0.49921608;  1.0035638E+04;  0.0000000E+00; -4.5353613E-07;  1.0000000E+04;  0.0000000E+00;  9.9964844E+03;-0.57758802;0.0;0.078371935;1782.5859
  3.5972595E-01;  9.9999998E-03; -6.0009297E-02;1599;-0.11325358;0.0;-0.0050797141;1001.6002;  4.0000001E-01;1325.7889;3;-33.180408;0.0;-1.6509175;0;-0.49960226;  1.0035405E+04;  0.0000000E+00; -1.9733119E-07;  1.0000000E+04;  0.0000000E+00;  9.9966318E+03;-0.57886845;0.0;0.079266183;1706.4797
  3.5972753E-01;  9.9999998E-03; -4.0006123E-02;1600;-0.11305635;0.0;-0.0033988012;1001.5972;  4.0000001E-01;1323.2212;3;-33.372803;0.0;-1.1049504;0;-0.49983612;  1.0035233E+04;  0.0000000E+00; -6.5334810E-08;  1.0000000E+04;  0.0000000E+00;  9.9967412E+03;-0.57981628;0.0;0.079980165;1651.1658
  3.5972852E-01;  9.9999998E-03; -2.0003041E-02;1601;-0.11292651;0.0;-0.0017032893;1001.5953;  4.0000001E-01;1321.641;3;-33.485775;0.0;-0.55439448;0;-0.49995786;  1.0035131E+04;  0.0000000E+00; -1.0368756E-08;  1.0000000E+04;  0.0000000E+00;  9.9968057E+03;-0.58040035;0.0;0.080442473;1617.6216
  3.7967226E-01;  9.9999998E-03; -1.8003741E-01;1624;-0.12524946;0.0;-0.016608629;1001.7982;  4.0000001E-01;1489.8333;3;-32.157383;0.0;-4.8470864;0;-0.5258649;  1.0041548E+04;  0.0000000E+00;  4.2920697E-06;  1.0000000E+04;  0.0000000E+00;  9.9944639E+03;-0.60879916;0.0;0.08293426;2803.1782
  3.7967482E-01;  9.9999998E-03; -1.6003220E-01;1625;-0.12574407;0.0;-0.014877986;1001.7984;  4.0000001E-01;1489.932;3;-32.974754;0.0;-4.4302783;0;-0.52980036;  1.0041165E+04;  0.0000000E+00; -4.7365083E-07;  1.0000000E+04;  0.0000000E+00;  9.9948516E+03;-0.61312258;0.0;0.083322212;2609.8643
  3.7967795E-01;  9.9999998E-03; -1.4002734E-01;1626;-0.12595612;0.0;-0.013123551;1001.795;  4.0000001E-01;1487.1667;3;-33.726139;0.0;-3.9690621;0;-0.5326243;  1.0040752E+04;  0.0000000E+00; -9.8186797E-07;  1.0000000E+04;  0.0000000E+00;  9.9951924E+03;-0.61683917;0.0;0.084214851;2437.4292
  3.7968126E-01;  9.9999998E-03; -1.2002279E-01;1627;-0.12596682;0.0;-0.011340804;1001.7895;  4.0000001E-01;1482.5249;3;-34.37711;0.0;-3.4686663;0;-0.53463864;  1.0040347E+04;  0.0000000E+00; -1.2036473E-06;  1.0000000E+04;  0.0000000E+00;  9.9954873E+03;-0.62007022;0.0;0.085431576;2287.9568
  3.7968445E-01;  9.9999998E-03; -1.0001853E-01;1628;-0.12584811;0.0;-0.0095276963;1001.7837;  4.0000001E-01;1477.7843;3;-34.914948;0.0;-2.9428694;0;-0.53610694;  1.0039975E+04;  0.0000000E+00; -9.5180650E-07;  1.0000000E+04;  0.0000000E+00;  9.9957393E+03;-0.62289482;0.0;0.086787909;2158.5798
  3.7968731E-01;  9.9999998E-03; -8.0014527E-02;1629;-0.12566496;0.0;-0.0076817269;1001.7786;  4.0000001E-01;1473.5375;3;-35.343197;0.0;-2.3925347;0;-0.53719032;  1.0039657E+04;  0.0000000E+00; -5.3859213E-07;  1.0000000E+04;  0.0000000E+00;  9.9959541E+03;-0.625323;0.0;0.088132709;2049.55
  3.7968969E-01;  9.9999998E-03; -6.0010720E-02;1630;-0.12546779;0.0;-0.005795097;1001.7744;  4.0000001E-01;1470.0808;3;-35.665901;0.0;-1.8131801;0;-0.53796804;  1.0039410E+04;  0.0000000E+00; -2.4553867E-07;  1.0000000E+04;  0.0000000E+00;  9.9961182E+03;-0.62731332;0.0;0.089345306;1962.6759
  3.7969145E-01;  9.9999998E-03; -4.0007062E-02;1631;-0.12529841;0.0;-0.0038814829;1001.7715;  4.0000001E-01;1467.7104;3;-35.890785;0.0;-1.2172587;0;-0.53848279;  1.0039225E+04;  0.0000000E+00; -7.5678862E-08;  1.0000000E+04;  0.0000000E+00;  9.9962441E+03;-0.62879992;0.0;0.09031713;1899.6675
  3.7969255E-01;  9.9999998E-03; -2.0003507E-02;1632;-0.125185;0.0;-0.0019458822;1001.7696;  4.0000001E-01;1466.0315;3;-36.022957;0.0;-0.6085574;0;-0.53877151;  1.0039112E+04;  0.0000000E+00; -1.3026941E-08;  1.0000000E+04;  0.0000000E+00;  9.9963154E+03;-0.62972134;0.0;0.090949848;1861.5688
  3.9962944E-01;  9.9999998E-03; -1.8004239E-01;1655;-0.1380067;0.0;-0.018321829;1001.9921;  4.0000001E-01;1650.421;3;-34.204845;0.0;-5.1015992;0;-0.5635944;  1.0046109E+04;  0.0000000E+00;  2.2120416E-06;  1.0000000E+04;  0.0000000E+00;  9.9937891E+03;-0.65316474;0.0;0.089570336;3148.3
  3.9963251E-01;  9.9999998E-03; -1.6003650E-01;1656;-0.13859902;0.0;-0.016455177;1001.9913;  4.0000001E-01;1649.7296;3;-35.13036;0.0;-4.6714554;0;-0.56814682;  1.0045685E+04;  0.0000000E+00; -1.2133783E-06;  1.0000000E+04;  0.0000000E+00;  9.9941973E+03;-0.65880734;0.0;0.09066052;2943.4734
  3.9963612E-01;  9.9999998E-03; -1.4003100E-01;1657;-0.13890177;0.0;-0.014551745;1001.9868;  4.0000001E-01;1646.0754;3;-35.9884;0.0;-4.2045531;0;-0.57155311;  1.0045230E+04;  0.0000000E+00; -1.1206278E-06;  1.0000000E+04;  0.0000000E+00;  9.9945615E+03;-0.66370559;0.0;0.092152491;2758.6697
  3.9963990E-01;  9.9999998E-03; -1.2002583E-01;1658;-0.13899668;0.0;-0.01260521;1001.9806;  4.0000001E-01;1640.8409;3;-36.729691;0.0;-3.6934865;0;-0.57415491;  1.0044782E+04;  0.0000000E+00; -1.3401705E-06;  1.0000000E+04;  0.0000000E+00;  9.9948789E+03;-0.6680218;0.0;0.093866907;2596.1868
  3.9964348E-01;  9.9999998E-03; -1.0002100E-01;1659;-0.13895752;0.0;-0.010612223;1001.974;  4.0000001E-01;1635.4091;3;-37.348579;0.0;-3.1439462;0;-0.57619274;  1.0044375E+04;  0.0000000E+00; -1.0846221E-06;  1.0000000E+04;  0.0000000E+00;  9.9951563E+03;-0.67184687;0.0;0.09565413;2453.821
  3.9964667E-01;  9.9999998E-03; -8.0016457E-02;1660;-0.13884325;0.0;-0.0085652471;1001.9688;  4.0000001E-01;1631.0635;3;-37.841877;0.0;-2.5640953;0;-0.57778579;  1.0044030E+04;  0.0000000E+00; -6.4694700E-07;  1.0000000E+04;  0.0000000E+00;  9.9953906E+03;-0.67517126;0.0;0.097385481;2332.96
  3.9964929E-01;  9.9999998E-03; -6.0012147E-02;1661;-0.13870385;0.0;-0.0064723166;1001.9642;  4.0000001E-01;1627.3105;3;-38.215614;0.0;-1.9504739;0;-0.57897729;  1.0043753E+04;  0.0000000E+00; -3.0450548E-07;  1.0000000E+04;  0.0000000E+00;  9.9955791E+03;-0.6779176;0.0;0.098940313;2236.4265
  3.9965126E-01;  9.9999998E-03; -4.0008005E-02;1662;-0.13857655;0.0;-0.0043391208;1001.961;  4.0000001E-01;1624.6439;3;-38.476421;0.0;-1.3120825;0;-0.57979083;  1.0043559E+04;  0.0000000E+00; -1.0812281E-07;  1.0000000E+04;  0.0000000E+00;  9.9957158E+03;-0.67998117;0.0;0.10019037;2166.4783
  3.9965245E-01;  9.9999998E-03; -2.0003974E-02;1663;-0.13848895;0.0;-0.0021772005;1001.9593;  4.0000001E-01;1623.2612;3;-38.630924;0.0;-0.65900481;0;-0.58025658;  1.0043438E+04;  0.0000000E+00; -2.0048713E-08;  1.0000000E+04;  0.0000000E+00;  9.9957959E+03;-0.6812638;0.0;0.10100722;2124.2729
  4.1958198E-01;  9.9999998E-03; -1.8004748E-01;1686;-0.15166239;0.0;-0.019891033;1002.2054;  4.0000001E-01;1827.2052;3;-36.2584;0.0;-5.2328806;0;-0.60366225;  1.0051085E+04;  0.0000000E+00;  6.5492998E-07;  1.0000000E+04;  0.0000000E+00;  9.9930918E+03;-0.69947535;0.0;0.095813088;3506.342
  4.1958559E-01;  9.9999998E-03; -1.6004089E-01;1687;-0.15238006;0.0;-0.017887332;1002.2026;  4.0000001E-01;1824.835;3;-37.301525;0.0;-4.8037753;0;-0.6088292;  1.0050597E+04;  0.0000000E+00; -1.2528575E-06;  1.0000000E+04;  0.0000000E+00;  9.9935254E+03;-0.70632082;0.0;0.097491607;3289.1191
  4.1958976E-01;  9.9999998E-03; -1.4003471E-01;1688;-0.15280075;0.0;-0.015838206;1002.1963;  4.0000001E-01;1819.6006;3;-38.272644;0.0;-4.3389893;0;-0.61282259;  1.0050087E+04;  0.0000000E+00; -7.8511215E-07;  1.0000000E+04;  0.0000000E+00;  9.9939033E+03;-0.71234345;0.0;0.099520884;3094.2405
  4.1959405E-01;  9.9999998E-03; -1.2002891E-01;1689;-0.15300982;0.0;-0.013740024;1002.1878;  4.0000001E-01;1812.5884;3;-39.115154;0.0;-3.8307822;0;-0.61601913;  1.0049586E+04;  0.0000000E+00; -1.2182973E-06;  1.0000000E+04;  0.0000000E+00;  9.9942412E+03;-0.7177195;0.0;0.10170034;2922.519
  4.1959807E-01;  9.9999998E-03; -1.0002350E-01;1690;-0.15307754;0.0;-0.011584969;1002.1802;  4.0000001E-01;1806.2676;3;-39.822079;0.0;-3.2848282;0;-0.6186406;  1.0049137E+04;  0.0000000E+00; -1.1625358E-06;  1.0000000E+04;  0.0000000E+00;  9.9945352E+03;-0.72253537;0.0;0.10389479;2770.8792
  4.1960162E-01;  9.9999998E-03; -8.0018423E-02;1691;-0.15305929;0.0;-0.0093636559;1002.1738;  4.0000001E-01;1800.9344;3;-40.389145;0.0;-2.6839831;0;-0.6207636;  1.0048754E+04;  0.0000000E+00; -7.6301399E-07;  1.0000000E+04;  0.0000000E+00;  9.9947852E+03;-0.72675431;0.0;0.10599071;2641.1641
  4.1960451E-01;  9.9999998E-03; -6.0013607E-02;1692;-0.15299913;0.0;-0.0070866495;1002.1688;  4.0000001E-01;1796.7864;3;-40.81974;0.0;-2.0514569;0;-0.62239105;  1.0048453E+04;  0.0000000E+00; -3.9619408E-07;  1.0000000E+04;  0.0000000E+00;  9.9949863E+03;-0.73026049;0.0;0.10786945;2537.0977
  4.1960666E-01;  9.9999998E-03; -4.0008973E-02;1693;-0.15293011;0.0;-0.0047572488;1002.1654;  4.0000001E-01;1794.021;3;-41.121033;0.0;-1.3844856;0;-0.62352121;  1.0048234E+04;  0.0000000E+00; -1.5123845E-07;  1.0000000E+04;  0.0000000E+00;  9.9951309E+03;-0.7329064;0.0;0.10938522;2461.5984
  4.1960797E-01;  9.9999998E-03; -2.0004459E-02;1694;-0.15287806;0.0;-0.0023890445;1002.1632;  4.0000001E-01;1792.1445;3;-41.29932;0.0;-0.6974805;0;-0.62417632;  1.0048107E+04;  0.0000000E+00; -3.5949729E-08;  1.0000000E+04;  0.0000000E+00;  9.9952197E+03;-0.73455584;0.0;0.11037952;2416.0728
  4.3952945E-01;  9.9999998E-03; -1.8005282E-01;1717;-0.1662527;0.0;-0.021290325;1002.4375;  4.0000001E-01;2019.3964;3;-38.301842;0.0;-5.2294197;0;-0.64573842;  1.0056468E+04;  0.0000000E+00;  1.4258528E-06;  1.0000000E+04;  0.0000000E+00;  9.9923818E+03;-0.74736786;0.0;0.10162944;3875.666
  4.3953371E-01;  9.9999998E-03; -1.6004547E-01;1718;-0.16712058;0.0;-0.019143749;1002.4316;  4.0000001E-01;2014.557;3;-39.47377;0.0;-4.8079376;0;-0.65145415;  1.0055898E+04;  0.0000000E+00;  5.4888488E-07;  1.0000000E+04;  0.0000000E+00;  9.9928262E+03;-0.75525796;0.0;0.10380383;3648.655
  4.3953851E-01;  9.9999998E-03; -1.4003861E-01;1719;-0.16768464;0.0;-0.016953303;1002.4217;  4.0000001E-01;2006.3596;3;-40.56712;0.0;-4.3552608;0;-0.65598083;  1.0055308E+04;  0.0000000E+00;  7.3926537E-07;  1.0000000E+04;  0.0000000E+00;  9.9932139E+03;-0.76230621;0.0;0.10632538;3450.1526
  4.3954337E-01;  9.9999998E-03; -1.2003218E-01;1720;-0.16803417;0.0;-0.014717411;1002.4107;  4.0000001E-01;1997.1748;3;-41.520107;0.0;-3.8637121;0;-0.65973389;  1.0054748E+04;  0.0000000E+00; -5.4305275E-07;  1.0000000E+04;  0.0000000E+00;  9.9935498E+03;-0.76867419;0.0;0.10894031;3276.896
  4.3954787E-01;  9.9999998E-03; -1.0002618E-01;1721;-0.1682353;0.0;-0.012420019;1002.4005;  4.0000001E-01;1988.6812;3;-42.32354;0.0;-3.3322921;0;-0.66292149;  1.0054244E+04;  0.0000000E+00; -1.0304647E-06;  1.0000000E+04;  0.0000000E+00;  9.9938467E+03;-0.77442467;0.0;0.11150319;3122.8376
  4.3955177E-01;  9.9999998E-03; -8.0020539E-02;1722;-0.16833858;0.0;-0.010055238;1002.3925;  4.0000001E-01;1982.1628;3;-42.970737;0.0;-2.7411692;0;-0.66557992;  1.0053821E+04;  0.0000000E+00; -8.2256798E-07;  1.0000000E+04;  0.0000000E+00;  9.9941074E+03;-0.77949238;0.0;0.11391249;2989.4355
  4.3955496E-01;  9.9999998E-03; -6.0015190E-02;1723;-0.16837983;0.0;-0.0076219863;1002.3865;  4.0000001E-01;1977.126;3;-43.465405;0.0;-2.105602;0;-0.6676597;  1.0053489E+04;  0.0000000E+00; -4.6693080E-07;  1.0000000E+04;  0.0000000E+00;  9.9943184E+03;-0.78372025;0.0;0.11606053;2881.3176
  4.3955731E-01;  9.9999998E-03; -4.0010028E-02;1724;-0.16838618;0.0;-0.0051243226;1002.3821;  4.0000001E-01;1973.5706;3;-43.811909;0.0;-1.4282954;0;-0.66912466;  1.0053255E+04;  0.0000000E+00; -2.0421525E-07;  1.0000000E+04;  0.0000000E+00;  9.9944658E+03;-0.78691936;0.0;0.11779469;2802.4001
  4.3955877E-01;  9.9999998E-03; -2.0004986E-02;1725;-0.16838004;0.0;-0.0025755321;1002.3795;  4.0000001E-01;1971.299;3;-44.016594;0.0;-0.72071141;0;-0.66998267;  1.0053110E+04;  0.0000000E+00; -4.5372975E-08;  1.0000000E+04;  0.0000000E+00;  9.9945576E+03;-0.78891772;0.0;0.11893504;2754.6897
  4.5947137E-01;  9.9999998E-03; -1.8005860E-01;1748;-0.18182161;0.0;-0.0224938;1002.6884;  4.0000090E-01;2227.29;3;-40.32452;0.0;-5.0626936;0;-0.68905365;  1.0062188E+04;  0.0000000E+00;  8.3422410E-06;  1.0000000E+04;  0.0000000E+00;  9.9916484E+03;-0.79591346;0.0;0.10685978;4254.7397
  4.5947641E-01;  9.9999998E-03; -1.6005056E-01;1749;-0.18285877;0.0;-0.02021049;1002.6769;  4.0000087E-01;2217.8088;3;-41.63612;0.0;-4.6547499;0;-0.69512749;  1.0061510E+04;  0.0000000E+00;  6.3694224E-06;  1.0000000E+04;  0.0000000E+00;  9.9920957E+03;-0.80465186;0.0;0.10952435;4026.7102
  4.5948195E-01;  9.9999998E-03; -1.4004299E-01;1750;-0.1835853;0.0;-0.017890489;1002.6617;  4.0000096E-01;2205.1672;3;-42.859356;0.0;-4.2289023;0;-0.70002729;  1.0060835E+04;  0.0000000E+00;  4.7913445E-06;  1.0000000E+04;  0.0000000E+00;  9.9924668E+03;-0.81260574;0.0;0.11257846;3837.5261
  4.5948744E-01;  9.9999998E-03; -1.2003591E-01;1751;-0.18409607;0.0;-0.015532263;1002.6459;  4.0000090E-01;2192.1306;3;-43.929901;0.0;-3.7722211;0;-0.70421696;  1.0060206E+04;  0.0000000E+00;  1.4157171E-06;  1.0000000E+04;  0.0000000E+00;  9.9927744E+03;-0.81987721;0.0;0.11566026;3676.0359
  4.5949247E-01;  9.9999998E-03; -1.0002927E-01;1752;-0.18445371;0.0;-0.013115081;1002.6324;  4.0000087E-01;2180.8716;3;-44.837124;0.0;-3.2762477;0;-0.70790744;  1.0059650E+04;  0.0000000E+00; -3.2573615E-07;  1.0000000E+04;  0.0000000E+00;  9.9930557E+03;-0.82648563;0.0;0.11857818;3530.4868
  4.5949683E-01;  9.9999998E-03; -8.0023006E-02;1753;-0.1847015;0.0;-0.010632039;1002.6216;  4.0000081E-01;2171.8843;3;-45.571438;0.0;-2.717145;0;-0.71108377;  1.0059185E+04;  0.0000000E+00; -6.5738556E-07;  1.0000000E+04;  0.0000000E+00;  9.9933066E+03;-0.83232504;0.0;0.12124125;3401.1328
  4.5950034E-01;  9.9999998E-03; -6.0017046E-02;1754;-0.18486506;0.0;-0.0080719879;1002.6138;  4.0000081E-01;2165.4646;3;-46.135818;0.0;-2.1030128;0;-0.7136308;  1.0058819E+04;  0.0000000E+00; -4.5517660E-07;  1.0000000E+04;  0.0000000E+00;  9.9935088E+03;-0.8372044;0.0;0.12357362;3293.8528
  4.5950291E-01;  9.9999998E-03; -4.0011276E-02;1755;-0.18496346;0.0;-0.0054351967;1002.6082;  4.0000084E-01;2160.823;3;-46.533127;0.0;-1.4360863;0;-0.7154575;  1.0058561E+04;  0.0000000E+00; -2.0437390E-07;  1.0000000E+04;  0.0000000E+00;  9.9936631E+03;-0.8409;0.0;0.1254425;3214.3113
  4.5950449E-01;  9.9999998E-03; -2.0005612E-02;1756;-0.18501402;0.0;-0.0027350863;1002.6051;  4.0000084E-01;2158.2551;3;-46.768097;0.0;-0.72909743;0;-0.71654046;  1.0058403E+04;  0.0000000E+00; -5.0828010E-08;  1.0000000E+04;  0.0000000E+00;  9.9937529E+03;-0.84321004;0.0;0.1266696;3165.801
  4.7940722E-01;  9.9999998E-03; -1.8006530E-01;1779;-0.19841991;0.0;-0.023500249;1002.9478;  4.0000257E-01;2442.1951;3;-42.320156;0.0;-4.7008882;0;-0.73172879;  1.0068070E+04;  0.0000000E+00;  2.7253365E-05;  1.0000000E+04;  0.0000000E+00;  9.9908936E+03;-0.84304678;0.0;0.11131798;4647.8042
  4.7941315E-01;  9.9999998E-03; -1.6005665E-01;1780;-0.19963621;0.0;-0.021108609;1002.9286;  4.0000266E-01;2426.2944;3;-43.777969;0.0;-4.3134356;0;-0.7378124;  1.0067268E+04;  0.0000000E+00;  2.0500867E-05;  1.0000000E+04;  0.0000000E+00;  9.9913125E+03;-0.85241103;0.0;0.11459865;4434.9141
  4.7941956E-01;  9.9999998E-03; -1.4004840E-01;1781;-0.20053731;0.0;-0.018680362;1002.9063;  4.0000263E-01;2407.7271;3;-45.135002;0.0;-3.9336286;0;-0.74279273;  1.0066505E+04;  0.0000000E+00;  1.4286687E-05;  1.0000000E+04;  0.0000000E+00;  9.9916152E+03;-0.86115009;0.0;0.11835738;4275.3408
  4.7942579E-01;  9.9999998E-03; -1.2004056E-01;1782;-0.20122367;0.0;-0.016213378;1002.8838;  4.0000257E-01;2389.1597;3;-46.327038;0.0;-3.5352867;0;-0.74721032;  1.0065810E+04;  0.0000000E+00;  6.3305824E-06;  1.0000000E+04;  0.0000000E+00;  9.9918633E+03;-0.86924577;0.0;0.12203545;4144.9053
  4.7943142E-01;  9.9999998E-03; -1.0003315E-01;1783;-0.20175554;0.0;-0.013691402;1002.8651;  4.0000269E-01;2373.6541;3;-47.343712;0.0;-3.1011777;0;-0.75129277;  1.0065205E+04;  0.0000000E+00;  1.6815954E-06;  1.0000000E+04;  0.0000000E+00;  9.9920928E+03;-0.87663502;0.0;0.12534225;4022.8496
  4.7943625E-01;  9.9999998E-03; -8.0026135E-02;1784;-0.20216644;0.0;-0.011107013;1002.8508;  4.0000242E-01;2361.8027;3;-48.171593;0.0;-2.5998721;0;-0.75496268;  1.0064699E+04;  0.0000000E+00;  1.2037600E-08;  1.0000000E+04;  0.0000000E+00;  9.9923096E+03;-0.88316256;0.0;0.12819991;3907.5667
  4.7944012E-01;  9.9999998E-03; -6.0019407E-02;1785;-0.20246989;0.0;-0.0084429756;1002.8406;  4.0000272E-01;2353.3091;3;-48.81102;0.0;-2.0333824;0;-0.75800359;  1.0064302E+04;  0.0000000E+00; -2.6927933E-07;  1.0000000E+04;  0.0000000E+00;  9.9925020E+03;-0.88860464;0.0;0.13060105;3807.0613
  4.7944298E-01;  9.9999998E-03; -4.0012863E-02;1786;-0.20267537;0.0;-0.0056924187;1002.8337;  4.0000254E-01;2347.6797;3;-49.265034;0.0;-1.3999242;0;-0.76023751;  1.0064020E+04;  0.0000000E+00; -1.6091315E-07;  1.0000000E+04;  0.0000000E+00;  9.9926514E+03;-0.89271778;0.0;0.13248028;3730.0215
  4.7944471E-01;  9.9999998E-03; -2.0006413E-02;1787;-0.20279261;0.0;-0.0028675909;1002.8297;  4.0000248E-01;2344.3218;3;-49.535004;0.0;-0.71500432;0;-0.76158369;  1.0063845E+04;  0.0000000E+00; -4.7434224E-08;  1.0000000E+04;  0.0000000E+00;  9.9927432E+03;-0.89528537;0.0;0.13370167;3682.123
  4.9933648E-01;  9.9999998E-03; -1.8007372E-01;1810;-0.21608952;0.0;-0.024357902;1003.1989;  4.0000612E-01;2650.1863;3;-44.28368;0.0;-4.0879617;0;-0.76992893;  1.0073748E+04;  0.0000000E+00;  6.6287910E-05;  1.0000000E+04;  0.0000000E+00;  9.9900811E+03;-0.88490057;0.0;0.11497162;5073.2397
  4.9934345E-01;  9.9999998E-03; -1.6006455E-01;1811;-0.2174916;0.0;-0.021908751;1003.1692;  4.0000594E-01;2625.5945;3;-45.890396;0.0;-3.7607789;0;-0.77554649;  1.0072819E+04;  0.0000000E+00;  5.0241222E-05;  1.0000000E+04;  0.0000000E+00;  9.9904170E+03;-0.89466071;0.0;0.11911424;4896.8867
  4.9935085E-01;  9.9999998E-03; -1.4005554E-01;1812;-0.21857399;0.0;-0.019395491;1003.1368;  4.0000603E-01;2598.8298;3;-47.37949;0.0;-3.4480724;0;-0.78020763;  1.0071976E+04;  0.0000000E+00;  3.4962330E-05;  1.0000000E+04;  0.0000000E+00;  9.9906055E+03;-0.90407676;0.0;0.1238691;4792.3853
  4.9935791E-01;  9.9999998E-03; -1.2004677E-01;1813;-0.21944566;0.0;-0.016824629;1003.1068;  4.0000591E-01;2573.843;3;-48.694847;0.0;-3.1348574;0;-0.78457499;  1.0071230E+04;  0.0000000E+00;  1.7584569E-05;  1.0000000E+04;  0.0000000E+00;  9.9907393E+03;-0.91293514;0.0;0.12836017;4716.4326
  4.9936423E-01;  9.9999998E-03; -1.0003836E-01;1814;-0.22016355;0.0;-0.014198262;1003.0817;  4.0000594E-01;2553.103;3;-49.823299;0.0;-2.7936618;0;-0.78891283;  1.0070587E+04;  0.0000000E+00;  6.5765721E-06;  1.0000000E+04;  0.0000000E+00;  9.9908896E+03;-0.92104131;0.0;0.13212848;4635.5347
  4.9936959E-01;  9.9999998E-03; -8.0030322E-02;1815;-0.22074945;0.0;-0.01151343;1003.0631;  4.0000603E-01;2537.696;3;-50.748024;0.0;-2.3809571;0;-0.79305786;  1.0070047E+04;  0.0000000E+00;  1.7524081E-06;  1.0000000E+04;  0.0000000E+00;  9.9910518E+03;-0.92817116;0.0;0.1351133;4545.6606
  4.9937388E-01;  9.9999998E-03; -6.0022566E-02;1816;-0.22120588;0.0;-0.008753309;1003.0505;  4.0000594E-01;2527.3259;3;-51.470291;0.0;-1.8891549;0;-0.79664874;  1.0069620E+04;  0.0000000E+00;  2.4153874E-07;  1.0000000E+04;  0.0000000E+00;  9.9912197E+03;-0.93407744;0.0;0.13742869;4458.2471
  4.9937701E-01;  9.9999998E-03; -4.0014986E-02;1817;-0.22152975;0.0;-0.0059049265;1003.0417;  4.0000609E-01;2520.0176;3;-51.986885;0.0;-1.3145571;0;-0.79937065;  1.0069315E+04;  0.0000000E+00; -3.9434578E-08;  1.0000000E+04;  0.0000000E+00;  9.9913574E+03;-0.93851602;0.0;0.13914537;4386.7485
  4.9937889E-01;  9.9999998E-03; -2.0007480E-02;1818;-0.2217216;0.0;-0.0029766078;1003.0374;  4.0000612E-01;2516.3635;3;-52.297363;0.0;-0.67441374;0;-0.80104417;  1.0069126E+04;  0.0000000E+00; -1.6736589E-08;  1.0000000E+04;  0.0000000E+00;  9.9914434E+03;-0.94127417;0.0;0.14023001;4340.6782
  5.1925886E-01;  9.9999998E-03; -1.8008496E-01;1841;-0.23483606;0.0;-0.025180265;1003.4205;  4.0001652E-01;2833.7815;3;-46.2071;0.0;-3.199609;0;-0.7971946;  1.0078633E+04;  0.0000000E+00;  1.2734294E-04;  1.0000000E+04;  0.0000000E+00;  9.9891025E+03;-0.91538954;0.0;0.11819495;5574.7217
  5.1926702E-01;  9.9999998E-03; -1.6007525E-01;1842;-0.23643149;0.0;-0.022726921;1003.3795;  4.0001661E-01;2799.8074;3;-47.960171;0.0;-2.9720519;0;-0.80189294;  1.0077587E+04;  0.0000000E+00;  1.0052986E-04;  1.0000000E+04;  0.0000000E+00;  9.9893262E+03;-0.92534423;0.0;0.12345127;5453.6479
  5.1927543E-01;  9.9999998E-03; -1.4006530E-01;1843;-0.23770532;0.0;-0.020138793;1003.3361;  4.0001664E-01;2763.8579;3;-49.578354;0.0;-2.7540715;0;-0.80583286;  1.0076683E+04;  0.0000000E+00;  7.3511692E-05;  1.0000000E+04;  0.0000000E+00;  9.9893525E+03;-0.93533403;0.0;0.12950118;5427.8843
  5.1928341E-01;  9.9999998E-03; -1.2005530E-01;1844;-0.2387708;0.0;-0.017452713;1003.296;  4.0001652E-01;2730.6738;3;-51.014416;0.0;-2.5560451;0;-0.80986428;  1.0075904E+04;  0.0000000E+00;  4.0506475E-05;  1.0000000E+04;  0.0000000E+00;  9.9893281E+03;-0.94488907;0.0;0.13502476;5429.0073
  5.1929045E-01;  9.9999998E-03; -1.0004552E-01;1845;-0.23968078;0.0;-0.014701413;1003.2643;  4.0001658E-01;2704.4031;3;-52.253529;0.0;-2.3365042;0;-0.8143279;  1.0075240E+04;  0.0000000E+00;  1.7333146E-05;  1.0000000E+04;  0.0000000E+00;  9.9893555E+03;-0.9536407;0.0;0.13931279;5406.5625
  5.1929641E-01;  9.9999998E-03; -8.0036044E-02;1846;-0.24044801;0.0;-0.011896584;1003.2414;  4.0001643E-01;2685.4407;3;-53.28339;0.0;-2.0455294;0;-0.81895638;  1.0074684E+04;  0.0000000E+00;  5.8457999E-06;  1.0000000E+04;  0.0000000E+00;  9.9894521E+03;-0.96127731;0.0;0.14232092;5353.1064
  5.1930118E-01;  9.9999998E-03; -6.0026858E-02;1847;-0.24106325;0.0;-0.0090306308;1003.2257;  4.0001664E-01;2672.4041;3;-54.093796;0.0;-1.659336;0;-0.82319039;  1.0074243E+04;  0.0000000E+00;  1.5413971E-06;  1.0000000E+04;  0.0000000E+00;  9.9895781E+03;-0.96753538;0.0;0.14434499;5284.7192
  5.1930463E-01;  9.9999998E-03; -4.0017851E-02;1848;-0.24151148;0.0;-0.006086444;1003.2156;  4.0001658E-01;2664.0093;3;-54.679234;0.0;-1.1738784;0;-0.82651508;  1.0073922E+04;  0.0000000E+00;  2.9284132E-07;  1.0000000E+04;  0.0000000E+00;  9.9896973E+03;-0.97218889;0.0;0.14567381;5221.4316
  5.1930672E-01;  9.9999998E-03; -2.0008918E-02;1849;-0.24178255;0.0;-0.0030666431;1003.2104;  4.0001658E-01;2659.7627;3;-55.033836;0.0;-0.607997;0;-0.82860935;  1.0073725E+04;  0.0000000E+00;  3.8531496E-08;  1.0000000E+04;  0.0000000E+00;  9.9897803E+03;-0.9750607;0.0;0.14645135;5178.1396
  5.3917480E-01;  9.9999998E-03; -1.8010031E-01;1872;-0.25453949;0.0;-0.026127787;1003.5884;  4.0004438E-01;2972.9321;3;-48.06979;0.0;-1.9887285;0;-0.80423224;  1.0081883E+04;  0.0000000E+00;  1.9065944E-04;  1.0000000E+04;  0.0000000E+00;  9.9877959E+03;-0.92629331;0.0;0.12206107;6233.0303
  5.3918403E-01;  9.9999998E-03; -1.6008979E-01;1873;-0.25634912;0.0;-0.023688855;1003.5379;  4.0004462E-01;2931.0571;3;-49.963383;0.0;-1.9108956;0;-0.80788672;  1.0080757E+04;  0.0000000E+00;  1.5679021E-04;  1.0000000E+04;  0.0000000E+00;  9.9878975E+03;-0.93635714;0.0;0.12847042;6170.2729
  5.3919345E-01;  9.9999998E-03; -1.4007856E-01;1874;-0.25783971;0.0;-0.021014538;1003.4845;  4.0004423E-01;2886.8118;3;-51.710945;0.0;-1.8356346;0;-0.81095743;  1.0079835E+04;  0.0000000E+00;  1.2671061E-04;  1.0000000E+04;  0.0000000E+00;  9.9877471E+03;-0.94684392;0.0;0.13588651;6232.3887
  5.3920233E-01;  9.9999998E-03; -1.2006687E-01;1875;-0.25911382;0.0;-0.018179422;1003.4355;  4.0004444E-01;2846.2205;3;-53.265331;0.0;-1.7888566;0;-0.81453812;  1.0079059E+04;  0.0000000E+00;  7.7721095E-05;  1.0000000E+04;  0.0000000E+00;  9.9875361E+03;-0.95701838;0.0;0.14248022;6323.27
  5.3921020E-01;  9.9999998E-03; -1.0005518E-01;1876;-0.26022208;0.0;-0.015259367;1003.3969;  4.0004453E-01;2814.2217;3;-54.615185;0.0;-1.7102904;0;-0.81909633;  1.0078400E+04;  0.0000000E+00;  3.7181202E-05;  1.0000000E+04;  0.0000000E+00;  9.9874219E+03;-0.96631759;0.0;0.14722128;6371.2134
  5.3921682E-01;  9.9999998E-03; -8.0043748E-02;1877;-0.26117241;0.0;-0.012299584;1003.3696;  4.0004459E-01;2791.6052;3;-55.753685;0.0;-1.5784572;0;-0.82428056;  1.0077848E+04;  0.0000000E+00;  1.4281148E-05;  1.0000000E+04;  0.0000000E+00;  9.9874287E+03;-0.97434235;0.0;0.15006177;6362.6255
  5.3922206E-01;  9.9999998E-03; -6.0032617E-02;1878;-0.26194638;0.0;-0.0093023796;1003.3519;  4.0004453E-01;2776.9883;3;-56.658482;0.0;-1.3262506;0;-0.82929724;  1.0077404E+04;  0.0000000E+00;  4.4312637E-06;  1.0000000E+04;  0.0000000E+00;  9.9875088E+03;-0.98082066;0.0;0.1515234;6318.1563
  5.3922588E-01;  9.9999998E-03; -4.0021677E-02;1879;-0.26251885;0.0;-0.0062515805;1003.3406;  4.0004462E-01;2767.606;3;-57.318939;0.0;-0.96165961;0;-0.83337969;  1.0077081E+04;  0.0000000E+00;  1.1548429E-06;  1.0000000E+04;  0.0000000E+00;  9.9876045E+03;-0.985569;0.0;0.15218933;6265.4556
  5.3922820E-01;  9.9999998E-03; -2.0010822E-02;1880;-0.26286912;0.0;-0.0031418891;1003.3347;  4.0004450E-01;2762.668;3;-57.721493;0.0;-0.50599325;0;-0.83600885;  1.0076880E+04;  0.0000000E+00;  2.1165778E-07;  1.0000000E+04;  0.0000000E+00;  9.9876846E+03;-0.98846734;0.0;0.15245849;6225.9131
  5.5908591E-01;  9.9999998E-03; -1.8012106E-01;1903;-0.27477008;0.0;-0.027357168;1003.7128;  4.0011963E-01;3075.9331;3;-49.8228;0.0;-0.41824311;0;-0.77921659;  1.0082441E+04;  0.0000000E+00;  2.0841473E-04;  1.0000000E+04;  0.0000000E+00;  9.9859053E+03;-0.90771228;0.0;0.12849569;7167.8003
  5.5909616E-01;  9.9999998E-03; -1.6010924E-01;1904;-0.27685997;0.0;-0.02488818;1003.6592;  4.0011987E-01;3031.4905;3;-51.843098;0.0;-0.50761068;0;-0.78242773;  1.0081331E+04;  0.0000000E+00;  1.6749129E-04;  1.0000000E+04;  0.0000000E+00;  9.9859336E+03;-0.91811419;0.0;0.13568647;7139.6772
  5.5910641E-01;  9.9999998E-03; -1.4009608E-01;1905;-0.27862155;0.0;-0.022098262;1003.6006;  4.0011978E-01;2982.9983;3;-53.728889;0.0;-0.66908181;0;-0.78516114;  1.0080447E+04;  0.0000000E+00;  1.6163835E-04;  1.0000000E+04;  0.0000000E+00;  9.9856445E+03;-0.92919677;0.0;0.14403561;7270.6807
  5.5911613E-01;  9.9999998E-03; -1.2008212E-01;1906;-0.28013933;0.0;-0.019060886;1003.546;  4.0011978E-01;2937.7656;3;-55.406406;0.0;-0.80899489;0;-0.78870529;  1.0079717E+04;  0.0000000E+00;  1.1628462E-04;  1.0000000E+04;  0.0000000E+00;  9.9852734E+03;-0.9399972;0.0;0.15129192;7442.397
  5.5912471E-01;  9.9999998E-03; -1.0006791E-01;1907;-0.28146315;0.0;-0.015915284;1003.503;  4.0011987E-01;2902.1125;3;-56.870445;0.0;-0.91302466;0;-0.7936753;  1.0079107E+04;  0.0000000E+00;  6.3498199E-05;  1.0000000E+04;  0.0000000E+00;  9.9850156E+03;-0.94979769;0.0;0.15612236;7560.4312
  5.5913198E-01;  9.9999998E-03; -8.0053903E-02;1908;-0.28260151;0.0;-0.012748213;1003.4728;  4.0011978E-01;2877.1257;3;-58.119553;0.0;-0.95395464;0;-0.79969406;  1.0078597E+04;  0.0000000E+00;  2.7328813E-05;  1.0000000E+04;  0.0000000E+00;  9.9849248E+03;-0.95813197;0.0;0.15843788;7599.998
  5.5913776E-01;  9.9999998E-03; -6.0040187E-02;1909;-0.28353286;0.0;-0.0095839174;1003.4536;  4.0011999E-01;2861.1265;3;-59.121288;0.0;-0.86316162;0;-0.80575502;  1.0078181E+04;  0.0000000E+00;  9.6079457E-06;  1.0000000E+04;  0.0000000E+00;  9.9849512E+03;-0.96473861;0.0;0.15898357;7583.0464
  5.5914193E-01;  9.9999998E-03; -4.0026698E-02;1910;-0.2842274;0.0;-0.0064113326;1003.442;  4.0012011E-01;2851.6453;3;-59.859604;0.0;-0.65164369;0;-0.81082201;  1.0077872E+04;  0.0000000E+00;  2.8486040E-06;  1.0000000E+04;  0.0000000E+00;  9.9850264E+03;-0.96949637;0.0;0.15867434;7543.7803
  5.5914450E-01;  9.9999998E-03; -2.0013327E-02;1911;-0.28465724;0.0;-0.0032164461;1003.4359;  4.0011993E-01;2846.5098;3;-60.314949;0.0;-0.35255107;0;-0.81414187;  1.0077680E+04;  0.0000000E+00;  5.8175652E-07;  1.0000000E+04;  0.0000000E+00;  9.9850986E+03;-0.97235984;0.0;0.15821794;7509.7959
  5.7899594E-01;  9.9999998E-03; -1.8014795E-01;1934;-0.29462507;0.0;-0.028968338;1003.9042;  4.0031934E-01;3234.5342;3;-51.340553;0.0;1.4411025;0;-0.707461;  1.0079015E+04;  0.0000000E+00;  1.2055579E-04;  1.0000000E+04;  0.0000000E+00;  9.9831416E+03;-0.84739041;0.0;0.1399294;8514.6348
  5.7900679E-01;  9.9999998E-03; -1.6013381E-01;1935;-0.29708341;0.0;-0.026407456;1003.8594;  4.0031919E-01;3197.3999;3;-53.461231;0.0;1.0658784;0;-0.71180767;  1.0078048E+04;  0.0000000E+00;  5.5741231E-05;  1.0000000E+04;  0.0000000E+00;  9.9831992E+03;-0.8590064;0.0;0.14719875;8473.6855
  5.7901764E-01;  9.9999998E-03; -1.4011790E-01;1936;-0.299218;0.0;-0.023385232;1003.8064;  4.0031943E-01;3153.4512;3;-55.483261;0.0;0.67637324;0;-0.71577102;  1.0077308E+04;  0.0000000E+00;  1.1655841E-04;  1.0000000E+04;  0.0000000E+00;  9.9828711E+03;-0.87125933;0.0;0.15548831;8623.793
  5.7902795E-01;  9.9999998E-03; -1.2010095E-01;1937;-0.30105439;0.0;-0.020057019;1003.7541;  4.0031943E-01;3110.1936;3;-57.299671;0.0;0.36219227;0;-0.72068453;  1.0076708E+04;  0.0000000E+00;  1.2131395E-04;  1.0000000E+04;  0.0000000E+00;  9.9824131E+03;-0.88307965;0.0;0.16239515;8839.3369
  5.7903725E-01;  9.9999998E-03; -1.0008355E-01;1938;-0.3026329;0.0;-0.016634166;1003.7115;  4.0031952E-01;3074.9358;3;-58.897083;0.0;0.02137381;0;-0.7271558;  1.0076208E+04;  0.0000000E+00;  8.2565297E-05;  1.0000000E+04;  0.0000000E+00;  9.9820527E+03;-0.89364666;0.0;0.16649088;9008.8926
  5.7904512E-01;  9.9999998E-03; -8.0066323E-02;1939;-0.30397144;0.0;-0.013221916;1003.6818;  4.0031961E-01;3050.2454;3;-60.283081;0.0;-0.16121949;0;-0.73479772;  1.0075790E+04;  0.0000000E+00;  4.1134997E-05;  1.0000000E+04;  0.0000000E+00;  9.9818789E+03;-0.90247136;0.0;0.16767362;9091.8213
  5.7905138E-01;  9.9999998E-03; -6.0049444E-02;1940;-0.30506337;0.0;-0.0098704947;1003.6633;  4.0031967E-01;3034.9375;3;-61.388729;0.0;-0.25986347;0;-0.74247032;  1.0075437E+04;  0.0000000E+00;  1.6423823E-05;  1.0000000E+04;  0.0000000E+00;  9.9818525E+03;-0.90932447;0.0;0.16685416;9104.3799
  5.7905602E-01;  9.9999998E-03; -4.0032856E-02;1941;-0.30587602;0.0;-0.006571522;1003.6526;  4.0031978E-01;3026.1477;3;-62.216778;0.0;-0.2566129;0;-0.74891293;  1.0075173E+04;  0.0000000E+00;  5.5566306E-06;  1.0000000E+04;  0.0000000E+00;  9.9818994E+03;-0.91416007;0.0;0.16524711;9082.7451
  5.7905883E-01;  9.9999998E-03; -2.0016409E-02;1942;-0.30638263;0.0;-0.0032837878;1003.6467;  4.0031967E-01;3021.1108;3;-62.734028;0.0;-0.14798626;0;-0.75315833;  1.0075000E+04;  0.0000000E+00;  1.2473519E-06;  1.0000000E+04;  0.0000000E+00;  9.9819502E+03;-0.91702437;0.0;0.16386604;9057.9717
  5.9890974E-01;  9.9999998E-03; -1.8017951E-01;1965;-0.31292716;0.0;-0.030780502;1004.5131;  4.0082607E-01;3738.9907;3;-52.388748;0.0;3.5800591;0;-0.56714618;  1.0069704E+04;  0.0000000E+00; -1.3430817E-04;  1.0000000E+04;  0.0000000E+00;  9.9792813E+03;-0.7254262;0.0;0.15828004;10372.76
  5.9892130E-01;  9.9999998E-03; -1.6016285E-01;1966;-0.3158403;0.0;-0.027999761;1004.4937;  4.0082639E-01;3722.8926;3;-54.767635;0.0;3.080483;0;-0.5751611;  1.0069109E+04;  0.0000000E+00; -2.4874308E-04;  1.0000000E+04;  0.0000000E+00;  9.9794639E+03;-0.74024314;0.0;0.16508202;10271.747
  5.9893280E-01;  9.9999998E-03; -1.4014398E-01;1967;-0.31837866;0.0;-0.024708195;1004.4598;  4.0082654E-01;3694.8445;3;-56.932919;0.0;2.4415722;0;-0.58278447;  1.0068656E+04;  0.0000000E+00; -7.6300923E-05;  1.0000000E+04;  0.0000000E+00;  9.9792295E+03;-0.75496179;0.0;0.17217733;10378.595
  5.9894365E-01;  9.9999998E-03; -1.2012345E-01;1968;-0.32054812;0.0;-0.02108125;1004.4213;  4.0082672E-01;3662.9448;3;-58.849834;0.0;1.8167958;0;-0.59140444;  1.0068302E+04;  0.0000000E+00;  4.2506661E-05;  1.0000000E+04;  0.0000000E+00;  9.9788008E+03;-0.76878732;0.0;0.17738287;10582.424
  5.9895337E-01;  9.9999998E-03; -1.0010223E-01;1969;-0.32240039;0.0;-0.017310537;1004.3878;  4.0082684E-01;3635.1929;3;-60.605556;0.0;1.2709184;0;-0.60137302;  1.0068000E+04;  0.0000000E+00;  6.7792535E-05;  1.0000000E+04;  0.0000000E+00;  9.9784199E+03;-0.78092265;0.0;0.17954963;10768.351
  5.9896171E-01;  9.9999998E-03; -8.0081150E-02;1970;-0.32393688;0.0;-0.013626019;1004.3633;  4.0082729E-01;3614.8481;3;-62.082699;0.0;0.82278091;0;-0.61212331;  1.0067736E+04;  0.0000000E+00;  4.5120731E-05;  1.0000000E+04;  0.0000000E+00;  9.9781914E+03;-0.79088247;0.0;0.17875917;10880.854
  5.9896851E-01;  9.9999998E-03; -6.0060509E-02;1971;-0.32517239;0.0;-0.010087647;1004.3483;  4.0082741E-01;3602.4043;3;-63.307365;0.0;0.46568185;0;-0.6224252;  1.0067503E+04;  0.0000000E+00;  2.1482161E-05;  1.0000000E+04;  0.0000000E+00;  9.9781094E+03;-0.79848522;0.0;0.17606004;10922.745
  5.9897357E-01;  9.9999998E-03; -4.0040240E-02;1972;-0.32608375;0.0;-0.0066741765;1004.3395;  4.0082735E-01;3595.0959;3;-64.241623;0.0;0.22844535;0;-0.63089192;  1.0067316E+04;  0.0000000E+00;  8.6138898E-06;  1.0000000E+04;  0.0000000E+00;  9.9781162E+03;-0.80376005;0.0;0.17286813;10924.339
  5.9897667E-01;  9.9999998E-03; -2.0020114E-02;1973;-0.32665277;0.0;-0.0033197554;1004.3347;  4.0082750E-01;3591.1455;3;-64.830452;0.0;0.087242119;0;-0.63641846;  1.0067195E+04;  0.0000000E+00;  2.1701512E-06;  1.0000000E+04;  0.0000000E+00;  9.9781416E+03;-0.80684066;0.0;0.17042218;10914.592
  6.1883247E-01;  9.9999998E-03; -1.8021458E-01;1996;-0.32874107;0.0;-0.032176487;1006.2753;  4.0199009E-01;5198.8442;3;-53.097973;0.0;6.1599617;0;-0.3251332;  1.0051837E+04;  0.0000000E+00; -5.3007167E-04;  1.0000000E+04;  0.0000000E+00;  9.9742910E+03;-0.50905639;0.0;0.18392318;12748.468
  6.1884511E-01;  9.9999998E-03; -1.6019528E-01;1997;-0.33195555;0.0;-0.029196192;1006.2971;  4.0199083E-01;5216.917;3;-55.596489;0.0;5.4529147;0;-0.3394632;  1.0051903E+04;  0.0000000E+00; -7.6208782E-04;  1.0000000E+04;  0.0000000E+00;  9.9746309E+03;-0.52998;0.0;0.1905168;12573.498
  6.1885715E-01;  9.9999998E-03; -1.4017308E-01;1998;-0.33484545;0.0;-0.025663262;1006.2978;  4.0199140E-01;5217.5098;3;-57.891155;0.0;4.5580039;0;-0.35324967;  1.0051938E+04;  0.0000000E+00; -4.5804141E-04;  1.0000000E+04;  0.0000000E+00;  9.9745742E+03;-0.54906738;0.0;0.19581769;12594.567
  6.1886829E-01;  9.9999998E-03; -1.2014869E-01;1999;-0.33730817;0.0;-0.021719029;1006.2855;  4.0199155E-01;5207.3374;3;-59.954155;0.0;3.6799207;0;-0.36804754;  1.0051962E+04;  0.0000000E+00; -1.7187805E-04;  1.0000000E+04;  0.0000000E+00;  9.9742803E+03;-0.5662939;0.0;0.19824636;12737.936
  6.1887842E-01;  9.9999998E-03; -1.0012346E-01;2000;-0.33938429;0.0;-0.017671015;1006.27;  4.0199214E-01;5194.3999;3;-61.794983;0.0;2.9161451;0;-0.38380468;  1.0051959E+04;  0.0000000E+00; -2.3236924E-05;  1.0000000E+04;  0.0000000E+00;  9.9739531E+03;-0.58117133;0.0;0.19736667;12902.961
  6.1888719E-01;  9.9999998E-03; -8.0098271E-02;2001;-0.34108615;0.0;-0.013736336;1006.2573;  4.0199247E-01;5183.9312;3;-63.360332;0.0;2.1673493;0;-0.39950401;  1.0051935E+04;  0.0000000E+00;  1.4869271E-05;  1.0000000E+04;  0.0000000E+00;  9.9737109E+03;-0.59328187;0.0;0.19377786;13027.438
  6.1889440E-01;  9.9999998E-03; -6.0073406E-02;2002;-0.34240994;0.0;-0.010062257;1006.2492;  4.0199277E-01;5177.2153;3;-64.668381;0.0;1.4660933;0;-0.41372025;  1.0051884E+04;  0.0000000E+00;  1.3882411E-05;  1.0000000E+04;  0.0000000E+00;  9.9735791E+03;-0.60247511;0.0;0.18875484;13097.593
  6.1889988E-01;  9.9999998E-03; -4.0048879E-02;2003;-0.34339589;0.0;-0.0065854276;1006.2439;  4.0199283E-01;5172.8701;3;-65.685959;0.0;0.93922138;0;-0.42501205;  1.0051821E+04;  0.0000000E+00;  8.2909773E-06;  1.0000000E+04;  0.0000000E+00;  9.9735313E+03;-0.6088264;0.0;0.18381433;13129.605
  6.1890322E-01;  9.9999998E-03; -2.0024478E-02;2004;-0.34400427;0.0;-0.0032610067;1006.2412;  4.0199304E-01;5170.5986;3;-66.339462;0.0;0.43912938;0;-0.43224198;  1.0051776E+04;  0.0000000E+00;  2.6973325E-06;  1.0000000E+04;  0.0000000E+00;  9.9735127E+03;-0.61251968;0.0;0.18027772;13142.758
  6.3876826E-01;  9.9999998E-03; -1.8025284E-01;2027;-0.34123117;0.0;-0.032968793;1009.8759;  4.0413803E-01;8181.7363;3;-53.358784;0.0;9.1876831;0;0.054258808;  1.0022706E+04;  0.0000000E+00; -7.3796464E-04;  1.0000000E+04;  0.0000000E+00;  9.9684072E+03;-0.16083255;0.0;0.21509136;15515.398
  6.3878167E-01;  9.9999998E-03; -1.6022971E-01;2028;-0.34469485;0.0;-0.029751064;1009.9479;  4.0413868E-01;8241.3877;3;-55.967136;0.0;8.1697245;0;0.033150434;  1.0023701E+04;  0.0000000E+00; -1.2868800E-03;  1.0000000E+04;  0.0000000E+00;  9.9688018E+03;-0.18987629;0.0;0.22302672;15314.292
  6.3879389E-01;  9.9999998E-03; -1.4020354E-01;2029;-0.34789202;0.0;-0.025957599;1009.9915;  4.0413946E-01;8277.5332;3;-58.371803;0.0;7.0001235;0;0.012273222;  1.0024409E+04;  0.0000000E+00; -9.4146671E-04;  1.0000000E+04;  0.0000000E+00;  9.9689150E+03;-0.21479312;0.0;0.22706634;15259.448
  6.3880515E-01;  9.9999998E-03; -1.2017509E-01;2030;-0.35061535;0.0;-0.021879371;1010.0137;  4.0414008E-01;8295.9023;3;-60.491882;0.0;5.9372149;0;-0.0099430084;  1.0024952E+04;  0.0000000E+00; -5.1576889E-04;  1.0000000E+04;  0.0000000E+00;  9.9687754E+03;-0.23649374;0.0;0.22655073;15330.409
  6.3881558E-01;  9.9999998E-03; -1.0014550E-01;2031;-0.35289907;0.0;-0.017708493;1010.0241;  4.0414086E-01;8304.4951;3;-62.402966;0.0;4.9137888;0;-0.032882124;  1.0025358E+04;  0.0000000E+00; -2.2149840E-04;  1.0000000E+04;  0.0000000E+00;  9.9685332E+03;-0.25503296;0.0;0.22215083;15457.304
  6.3882482E-01;  9.9999998E-03; -8.0115855E-02;2032;-0.35472739;0.0;-0.013648055;1010.0287;  4.0414140E-01;8308.3467;3;-64.034813;0.0;3.838547;0;-0.054794058;  1.0025654E+04;  0.0000000E+00; -8.1103848E-05;  1.0000000E+04;  0.0000000E+00;  9.9682998E+03;-0.27015823;0.0;0.21536417;15584.319
  6.3883251E-01;  9.9999998E-03; -6.0086634E-02;2033;-0.35613963;0.0;-0.0098583028;1010.03;  4.0414178E-01;8309.4326;3;-65.445755;0.0;2.90729;0;-0.073842496;  1.0025847E+04;  0.0000000E+00; -2.4829489E-05;  1.0000000E+04;  0.0000000E+00;  9.9681201E+03;-0.28172916;0.0;0.20788667;15685.434
  6.3883829E-01;  9.9999998E-03; -4.0057775E-02;2034;-0.35715401;0.0;-0.006361505;1010.0304;  4.0414208E-01;8309.7285;3;-66.512093;0.0;1.9834975;0;-0.088501006;  1.0025962E+04;  0.0000000E+00; -3.1690404E-06;  1.0000000E+04;  0.0000000E+00;  9.9679951E+03;-0.28979459;0.0;0.20129359;15758.184
  6.3884187E-01;  9.9999998E-03; -2.0028934E-02;2035;-0.35777232;0.0;-0.0031007421;1010.03;  4.0414229E-01;8309.4326;3;-67.126762;0.0;1.0651901;0;-0.097691059;  1.0026022E+04;  0.0000000E+00;  1.0081959E-06;  1.0000000E+04;  0.0000000E+00;  9.9679160E+03;-0.29452038;0.0;0.19682932;15804.532
  6.5872246E-01;  9.9999998E-03; -1.8029857E-01;2058;-0.34980783;0.0;-0.034008387;1014.2735;  4.0686852E-01;11824.851;3;-53.388741;0.0;12.688581;0;0.5882923;  9.9812119E+03;  0.0000000E+00; -1.5251647E-04;  1.0000000E+04;  0.0000000E+00;  9.9621553E+03;0.34044871;0.0;0.24784359;18413.838
  6.5873575E-01;  9.9999998E-03; -1.6026902E-01;2059;-0.35353398;0.0;-0.029847289;1014.387;  4.0686929E-01;11918.868;3;-55.964375;0.0;11.357678;0;0.56486058;  9.9832012E+03;  0.0000000E+00; -1.3385294E-03;  1.0000000E+04;  0.0000000E+00;  9.9623633E+03;0.30483624;0.0;0.26002434;18304.668
  6.5874767E-01;  9.9999998E-03; -1.4023791E-01;2060;-0.35699001;0.0;-0.025660302;1014.4691;  4.0686986E-01;11986.913;3;-58.397064;0.0;9.9314117;0;0.53976035;  9.9846816E+03;  0.0000000E+00; -1.2204865E-03;  1.0000000E+04;  0.0000000E+00;  9.9624697E+03;0.27502832;0.0;0.26473206;18254.211
  6.5875864E-01;  9.9999998E-03; -1.2020412E-01;2061;-0.35995129;0.0;-0.021285566;1014.5244;  4.0687022E-01;12032.737;3;-60.610268;0.0;8.4897308;0;0.51185071;  9.9858145E+03;  0.0000000E+00; -8.3754287E-04;  1.0000000E+04;  0.0000000E+00;  9.9623994E+03;0.2494991;0.0;0.2623516;18297.574
  6.5876877E-01;  9.9999998E-03; -1.0016934E-01;2062;-0.36241561;0.0;-0.016962215;1014.5609;  4.0687087E-01;12062.957;3;-62.462494;0.0;7.0338864;0;0.48267102;  9.9867012E+03;  0.0000000E+00; -4.7992924E-04;  1.0000000E+04;  0.0000000E+00;  9.9622051E+03;0.22769894;0.0;0.2549721;18406.98
  6.5877807E-01;  9.9999998E-03; -8.0134980E-02;2063;-0.36433029;0.0;-0.012880174;1014.5839;  4.0687138E-01;12082.018;3;-64.13356;0.0;5.625536;0;0.45507255;  9.9873789E+03;  0.0000000E+00; -2.4322791E-04;  1.0000000E+04;  0.0000000E+00;  9.9619551E+03;0.20972335;0.0;0.2453492;18548.064
  6.5878594E-01;  9.9999998E-03; -6.0101327E-02;2064;-0.36574674;0.0;-0.0091620563;1014.5969;  4.0687186E-01;12092.782;3;-65.518982;0.0;4.2715569;0;0.43158665;  9.9878721E+03;  0.0000000E+00; -1.0523339E-04;  1.0000000E+04;  0.0000000E+00;  9.9616943E+03;0.19574903;0.0;0.23583762;18693.127
  6.5879190E-01;  9.9999998E-03; -4.0067803E-02;2065;-0.36674157;0.0;-0.0058666854;1014.6025;  4.0687218E-01;12097.424;3;-66.563438;0.0;2.9118097;0;0.41393059;  9.9882041E+03;  0.0000000E+00; -3.2401476E-05;  1.0000000E+04;  0.0000000E+00;  9.9614600E+03;0.18584436;0.0;0.22808623;18822.307
  6.5879554E-01;  9.9999998E-03; -2.0033972E-02;2066;-0.36734378;0.0;-0.002871694;1014.6037;  4.0687221E-01;12098.411;3;-67.316254;0.0;1.475513;0;0.40307188;  9.9883906E+03;  0.0000000E+00; -4.8176917E-06;  1.0000000E+04;  0.0000000E+00;  9.9612900E+03;0.17996229;0.0;0.2231096;18915.105
  6.7870659E-01;  9.9999998E-03; -1.8036716E-01;2089;-0.35208398;0.0;-0.03913182;1016.8504;  4.0907708E-01;13959.411;3;-52.997314;0.0;16.52532;0;1.2521724;  9.9296484E+03;  0.0000000E+00;  1.4273304E-03;  1.0000000E+04;  0.0000000E+00;  9.9562275E+03;0.97507966;0.0;0.2770927;21109.262
  6.7871869E-01;  9.9999998E-03; -1.6032781E-01;2090;-0.35642481;0.0;-0.032972269;1016.9758;  4.0907699E-01;14063.304;3;-55.705288;0.0;15.267272;0;1.2367835;  9.9324043E+03;  0.0000000E+00; -5.4483506E-04;  1.0000000E+04;  0.0000000E+00;  9.9559199E+03;0.93979937;0.0;0.29698417;21252.775
  6.7872918E-01;  9.9999998E-03; -1.4028928E-01;2091;-0.36048242;0.0;-0.02748587;1017.0756;  4.0907693E-01;14146.062;3;-58.232159;0.0;13.800487;0;1.2153963;  9.9345430E+03;  0.0000000E+00; -9.5612538E-04;  1.0000000E+04;  0.0000000E+00;  9.9557314E+03;0.91009849;0.0;0.30529779;21346.354
  6.7873865E-01;  9.9999998E-03; -1.2024876E-01;2092;-0.36403665;0.0;-0.022321351;1017.1511;  4.0907696E-01;14208.575;3;-60.548168;0.0;12.245943;0;1.1876564;  9.9362324E+03;  0.0000000E+00; -8.8817644E-04;  1.0000000E+04;  0.0000000E+00;  9.9555273E+03;0.88448334;0.0;0.30317307;21460.242
  6.7874771E-01;  9.9999998E-03; -1.0020754E-01;2093;-0.3669087;0.0;-0.017513359;1017.2067;  4.0907705E-01;14254.596;3;-62.426891;0.0;10.545727;0;1.1566242;  9.9375781E+03;  0.0000000E+00; -6.5065117E-04;  1.0000000E+04;  0.0000000E+00;  9.9552529E+03;0.86229473;0.0;0.29432943;21613.115
  6.7875612E-01;  9.9999998E-03; -8.0166966E-02;2094;-0.36911309;0.0;-0.013151539;1017.2435;  4.0907711E-01;14285.112;3;-64.104591;0.0;8.8836746;0;1.1266491;  9.9386396E+03;  0.0000000E+00; -4.0114860E-04;  1.0000000E+04;  0.0000000E+00;  9.9549121E+03;0.84360814;0.0;0.283041;21804.949
  6.7876321E-01;  9.9999998E-03; -6.0126700E-02;2095;-0.37074605;0.0;-0.0092241503;1017.2648;  4.0907735E-01;14302.789;3;-65.462448;0.0;7.130558;0;1.1012554;  9.9394395E+03;  0.0000000E+00; -2.0104853E-04;  1.0000000E+04;  0.0000000E+00;  9.9545205E+03;0.82873642;0.0;0.27251902;22019.469
  6.7876852E-01;  9.9999998E-03; -4.0085871E-02;2096;-0.37188593;0.0;-0.005825792;1017.2737;  4.0907735E-01;14310.098;3;-66.384125;0.0;5.0171089;0;1.0824785;  9.9400000E+03;  0.0000000E+00; -7.2409719E-05;  1.0000000E+04;  0.0000000E+00;  9.9541338E+03;0.81796455;0.0;0.26451391;22225.635
  6.7877167E-01;  9.9999998E-03; -2.0043548E-02;2097;-0.37256756;0.0;-0.0028162063;1017.2753;  4.0907738E-01;14311.48;3;-66.95343;0.0;2.6182528;0;1.071137;  9.9403213E+03;  0.0000000E+00; -1.3860352E-05;  1.0000000E+04;  0.0000000E+00;  9.9538428E+03;0.81146193;0.0;0.259675;22379.725
  6.9874531E-01;  9.9999998E-03; -1.8047410E-01;2120;-0.34230456;0.0;-0.054953098;1016.8228;  4.1030085E-01;13936.324;3;-51.216454;0.0;19.629532;0;1.965374;  9.8746475E+03;  0.0000000E+00;  3.0474139E-03;  1.0000000E+04;  0.0000000E+00;  9.9512969E+03;1.6666055;0.0;0.29876852;23302.762
  6.9875300E-01;  9.9999998E-03; -1.6042109E-01;2121;-0.3485758;0.0;-0.045211982;1016.9203;  4.1030008E-01;14017.105;3;-54.571682;0.0;18.948509;0;1.971676;  9.8776689E+03;  0.0000000E+00;  6.7908294E-04;  1.0000000E+04;  0.0000000E+00;  9.9501816E+03;1.643093;0.0;0.32858303;23835.313
  6.9875824E-01;  9.9999998E-03; -1.4036913E-01;2122;-0.35451862;0.0;-0.036808461;1017.0062;  4.1029951E-01;14088.308;3;-57.5658;0.0;17.873413;0;1.9655627;  9.8801484E+03;  0.0000000E+00; -2.3683798E-04;  1.0000000E+04;  0.0000000E+00;  9.9493926E+03;1.6223431;0.0;0.34321967;24222.996
  6.9876230E-01;  9.9999998E-03; -1.2031627E-01;2123;-0.35965583;0.0;-0.029722478;1017.0803;  4.1029915E-01;14149.635;3;-60.047565;0.0;16.374523;0;1.947226;  9.8821992E+03;  0.0000000E+00; -5.7883316E-04;  1.0000000E+04;  0.0000000E+00;  9.9488037E+03;1.6035663;0.0;0.34365979;24526.797
  6.9876760E-01;  9.9999998E-03; -1.0026442E-01;2124;-0.36358681;0.0;-0.023826873;1017.1398;  4.1029859E-01;14198.914;3;-62.18771;0.0;14.620628;0;1.9218086;  9.8838926E+03;  0.0000000E+00; -5.9179001E-04;  1.0000000E+04;  0.0000000E+00;  9.9482813E+03;1.5865436;0.0;0.33526501;24806.146
  6.9877338E-01;  9.9999998E-03; -8.0213934E-02;2125;-0.36667508;0.0;-0.018558862;1017.1819;  4.1029862E-01;14233.873;3;-63.922325;0.0;12.773534;0;1.8954446;  9.8852695E+03;  0.0000000E+00; -4.3809277E-04;  1.0000000E+04;  0.0000000E+00;  9.9477344E+03;1.5715522;0.0;0.3238925;25101.414
  6.9877851E-01;  9.9999998E-03; -6.0163207E-02;2126;-0.3690576;0.0;-0.013621395;1017.2058;  4.1029835E-01;14253.624;3;-65.209358;0.0;10.484189;0;1.8728218;  9.8863340E+03;  0.0000000E+00; -2.4437532E-04;  1.0000000E+04;  0.0000000E+00;  9.9471377E+03;1.5591331;0.0;0.31368881;25418.576
  6.9878227E-01;  9.9999998E-03; -4.0110964E-02;2127;-0.37083521;0.0;-0.0089187734;1017.2147;  4.1029826E-01;14260.932;3;-66.127205;0.0;7.6401725;0;1.8563552;  9.8870938E+03;  0.0000000E+00; -9.5507014E-05;  1.0000000E+04;  0.0000000E+00;  9.9465586E+03;1.5498408;0.0;0.30651438;25723.623
  6.9878441E-01;  9.9999998E-03; -2.0056307E-02;2128;-0.37185735;0.0;-0.0044004265;1017.2154;  4.1029802E-01;14261.524;3;-66.547821;0.0;3.977385;0;1.8466549;  9.8875518E+03;  0.0000000E+00; -1.9941870E-05;  1.0000000E+04;  0.0000000E+00;  9.9461152E+03;1.5441033;0.0;0.30255157;25952.359
  7.1891475E-01;  9.9999998E-03; -1.8061671E-01;2151;-0.30024266;0.0;-0.087868504;1015.4877;  4.1084304E-01;12829.922;3;-41.812771;0.0;20.944422;0;2.6019151;  9.8262275E+03;  0.0000000E+00;  3.2959604E-03;  1.0000000E+04;  0.0000000E+00;  9.9477256E+03;2.2894132;0.0;0.312502;24850.535
  7.1891969E-01;  9.9999998E-03; -1.6055584E-01;2152;-0.30832833;0.0;-0.07763952;1015.5228;  4.1084203E-01;12859.054;3;-46.232826;0.0;18.814508;0;2.6407228;  9.8288965E+03;  0.0000000E+00;  1.3390004E-03;  1.0000000E+04;  0.0000000E+00;  9.9457480E+03;2.2898257;0.0;0.35089716;25803.227
  7.1892345E-01;  9.9999998E-03; -1.4048941E-01;2153;-0.31654552;0.0;-0.066333413;1015.5657;  4.1084141E-01;12894.604;3;-50.490814;0.0;17.99505;0;2.660641;  9.8313105E+03;  0.0000000E+00;  3.8076047E-04;  1.0000000E+04;  0.0000000E+00;  9.9441709E+03;2.2881007;0.0;0.37254027;26571.404
  7.1892703E-01;  9.9999998E-03; -1.2041777E-01;2154;-0.32431909;0.0;-0.055483893;1015.616;  4.1084072E-01;12936.18;3;-54.498535;0.0;16.637854;0;2.6613369;  9.8334482E+03;  0.0000000E+00; -1.2389086E-04;  1.0000000E+04;  0.0000000E+00;  9.9430117E+03;2.2845895;0.0;0.3767474;27154.096
  7.1893233E-01;  9.9999998E-03; -1.0034670E-01;2155;-0.33061105;0.0;-0.045371007;1015.6639;  4.1084003E-01;12975.878;3;-58.130177;0.0;14.941087;0;2.6498959;  9.8353037E+03;  0.0000000E+00; -3.1309048E-04;  1.0000000E+04;  0.0000000E+00;  9.9420918E+03;2.2797427;0.0;0.37015319;27633.594
  7.1893871E-01;  9.9999998E-03; -8.0278277E-02;2156;-0.33530623;0.0;-0.035959791;1015.7004;  4.1083995E-01;13006.096;3;-61.287666;0.0;12.98388;0;2.6341898;  9.8368779E+03;  0.0000000E+00; -2.9046764E-04;  1.0000000E+04;  0.0000000E+00;  9.9412324E+03;2.2742174;0.0;0.35997257;28084.791
  7.1894497E-01;  9.9999998E-03; -6.0211409E-02;2157;-0.33878767;0.0;-0.027038157;1015.7201;  4.1083935E-01;13022.489;3;-63.884251;0.0;10.630525;0;2.6199801;  9.8381328E+03;  0.0000000E+00; -1.7663017E-04;  1.0000000E+04;  0.0000000E+00;  9.9403623E+03;2.2688088;0.0;0.35117131;28538.582
  7.1895027E-01;  9.9999998E-03; -4.0143482E-02;2158;-0.34118393;0.0;-0.018199107;1015.7247;  4.1083899E-01;13026.341;3;-65.904991;0.0;7.6470714;0;2.6099834;  9.8390498E+03;  0.0000000E+00; -7.0922426E-05;  1.0000000E+04;  0.0000000E+00;  9.9395400E+03;2.2643168;0.0;0.34566659;28963.4
  7.1895379E-01;  9.9999998E-03; -2.0072846E-02;2159;-0.34254277;0.0;-0.0091806576;1015.722;  4.1083884E-01;13024.068;3;-67.191849;0.0;4.0229034;0;2.6044865;  9.8396084E+03;  0.0000000E+00; -1.4676832E-05;  1.0000000E+04;  0.0000000E+00;  9.9389238E+03;2.2613616;0.0;0.34312499;29278.232
  7.3929745E-01;  9.9999998E-03; -1.8063995E-01;2182;-0.19272925;0.0;-0.084691912;1014.254;  4.1105875E-01;11807.498;3;-24.271063;0.0;25.574488;0;3.0287039;  9.7942178E+03;  0.0000000E+00;  2.1047799E-03;  1.0000000E+04;  0.0000000E+00;  9.9456201E+03;2.7097254;0.0;0.31897849;25736.354
  7.3929751E-01;  9.9999998E-03; -1.6058038E-01;2183;-0.19980119;0.0;-0.074237548;1014.2062;  4.1105813E-01;11767.999;3;-27.568945;0.0;24.538408;0;3.1038063;  9.7960840E+03;  0.0000000E+00;  1.0755939E-03;  1.0000000E+04;  0.0000000E+00;  9.9428369E+03;2.7401285;0.0;0.36367774;27080.303
  7.3929840E-01;  9.9999998E-03; -1.4051282E-01;2184;-0.20679578;0.0;-0.063318767;1014.1925;  4.1105717E-01;11756.544;3;-31.032282;0.0;23.298456;0;3.1524844;  9.7980996E+03;  0.0000000E+00;  5.2981981E-04;  1.0000000E+04;  0.0000000E+00;  9.9405527E+03;2.7628138;0.0;0.38967073;28196.887
  7.3930001E-01;  9.9999998E-03; -1.2043874E-01;2185;-0.21333154;0.0;-0.052708302;1014.2049;  4.1105652E-01;11766.813;3;-34.455647;0.0;21.34355;0;3.1760459;  9.8000908E+03;  0.0000000E+00;  1.8870330E-04;  1.0000000E+04;  0.0000000E+00;  9.9388115E+03;2.7794921;0.0;0.39655375;29067.662
  7.3930228E-01;  9.9999998E-03; -1.0036575E-01;2186;-0.21905619;0.0;-0.043225292;1014.229;  4.1105589E-01;11786.86;3;-37.667633;0.0;18.996593;0;3.1830397;  9.8019414E+03;  0.0000000E+00;  4.4730791E-06;  1.0000000E+04;  0.0000000E+00;  9.9374238E+03;2.791373;0.0;0.39166662;29776.094
  7.3930514E-01;  9.9999998E-03; -8.0295339E-02;2187;-0.22378103;0.0;-0.034608059;1014.2493;  4.1105539E-01;11803.647;3;-40.54311;0.0;16.362938;0;3.1824152;  9.8035674E+03;  0.0000000E+00; -5.0566963E-05;  1.0000000E+04;  0.0000000E+00;  9.9361885E+03;2.7993824;0.0;0.38303277;30413.896
  7.3930818E-01;  9.9999998E-03; -6.0225580E-02;2188;-0.22743173;0.0;-0.026278064;1014.2573;  4.1105485E-01;11810.264;3;-42.968899;0.0;13.285793;0;3.1804247;  9.8049170E+03;  0.0000000E+00; -3.5682275E-05;  1.0000000E+04;  0.0000000E+00;  9.9349961E+03;2.804409;0.0;0.37601569;31027.248
  7.3931098E-01;  9.9999998E-03; -4.0153727E-02;2189;-0.23000474;0.0;-0.017809769;1014.2527;  4.1105455E-01;11806.511;3;-44.826538;0.0;9.5231371;0;3.1796887;  9.8059180E+03;  0.0000000E+00; -1.0150625E-05;  1.0000000E+04;  0.0000000E+00;  9.9339053E+03;2.8072798;0.0;0.37240878;31584.998
  7.3931301E-01;  9.9999998E-03; -2.0078246E-02;2190;-0.2315295;0.0;-0.0090259658;1014.2436;  4.1105452E-01;11798.906;3;-46.000534;0.0;5.0093832;0;3.1800628;  9.8065400E+03;  0.0000000E+00; -3.6524008E-07;  1.0000000E+04;  0.0000000E+00;  9.9330986E+03;2.8086927;0.0;0.37137011;31991.709
  7.5960207E-01;  9.9999998E-03; -1.8063377E-01;2213;-0.11140139;0.0;-0.072983839;1013.7599;  4.1113985E-01;11397.717;3;-14.5986;0.0;31.369991;0;3.200089;  9.7820449E+03;  0.0000000E+00;  7.1520393E-04;  1.0000000E+04;  0.0000000E+00;  9.9444902E+03;2.8758557;0.0;0.32423332;26216.545
  7.5959772E-01;  9.9999998E-03; -1.6057941E-01;2214;-0.11714957;0.0;-0.064264394;1013.6423;  4.1113916E-01;11300.257;3;-16.764172;0.0;30.206715;0;3.3017015;  9.7829873E+03;  0.0000000E+00;  4.5665714E-04;  1.0000000E+04;  0.0000000E+00;  9.9412764E+03;2.9319396;0.0;0.36976203;27770.826
  7.5959432E-01;  9.9999998E-03; -1.4051567E-01;2215;-0.12300777;0.0;-0.055168584;1013.5775;  4.1113859E-01;11246.54;3;-19.146479;0.0;28.384304;0;3.3718903;  9.7844600E+03;  0.0000000E+00;  3.3495185E-04;  1.0000000E+04;  0.0000000E+00;  9.9385400E+03;2.9759867;0.0;0.39590365;29109.779
  7.5959176E-01;  9.9999998E-03; -1.2044422E-01;2216;-0.12866914;0.0;-0.046311967;1013.552;  4.1113788E-01;11225.409;3;-21.594851;0.0;25.817356;0;3.4139242;  9.7861533E+03;  0.0000000E+00;  2.3189084E-04;  1.0000000E+04;  0.0000000E+00;  9.9363516E+03;3.0110044;0.0;0.40291989;30200.16
  7.5959003E-01;  9.9999998E-03; -1.0037273E-01;2217;-0.13382488;0.0;-0.038383387;1013.5469;  4.1113719E-01;11221.262;3;-23.978237;0.0;22.866825;0;3.4372687;  9.7878428E+03;  0.0000000E+00;  1.4625058E-04;  1.0000000E+04;  0.0000000E+00;  9.9345654E+03;3.0389283;0.0;0.39834058;31108.016
  7.5958920E-01;  9.9999998E-03; -8.0302782E-02;2218;-0.13825285;0.0;-0.031074004;1013.5444;  4.1113672E-01;11219.09;3;-26.180897;0.0;19.624908;0;3.4511707;  9.7893828E+03;  0.0000000E+00;  9.0119953E-05;  1.0000000E+04;  0.0000000E+00;  9.9329766E+03;3.0607164;0.0;0.39045426;31922.15
  7.5958902E-01;  9.9999998E-03; -6.0232446E-02;2219;-0.14179888;0.0;-0.023831977;1013.5339;  4.1113618E-01;11210.499;3;-28.085911;0.0;15.88231;0;3.4615541;  9.7906807E+03;  0.0000000E+00;  5.6322922E-05;  1.0000000E+04;  0.0000000E+00;  9.9314707E+03;3.0769334;0.0;0.38462073;32690.059
  7.5958937E-01;  9.9999998E-03; -4.0159017E-02;2220;-0.14437118;0.0;-0.016276456;1013.5151;  4.1113597E-01;11194.897;3;-29.570019;0.0;11.351583;0;3.4704025;  9.7916641E+03;  0.0000000E+00;  3.0800446E-05;  1.0000000E+04;  0.0000000E+00;  9.9301201E+03;3.088048;0.0;0.38235453;33375.027
  7.5958979E-01;  9.9999998E-03; -2.0081125E-02;2221;-0.14592586;0.0;-0.0082875425;1013.4968;  4.1113576E-01;11179.69;3;-30.517412;0.0;5.9593434;0;3.4768739;  9.7922813E+03;  0.0000000E+00;  9.2897935E-06;  1.0000000E+04;  0.0000000E+00;  9.9291436E+03;3.0944972;0.0;0.38237673;33867.934
  7.7982312E-01;  9.9999998E-03; -1.8062252E-01;2244;-0.0562253;0.0;-0.063768499;1013.9355;  4.1116831E-01;11542.295;3;-10.27001;0.0;35.33596;0;3.1953988;  9.7846816E+03;  0.0000000E+00;  1.1208853E-05;  1.0000000E+04;  0.0000000E+00;  9.9438848E+03;2.8643737;0.0;0.33102509;26489.004
  7.7981812E-01;  9.9999998E-03; -1.6057210E-01;2245;-0.059593815;0.0;-0.056233581;1013.7803;  4.1116783E-01;11413.739;3;-11.247953;0.0;33.833202;0;3.3075492;  9.7849355E+03;  0.0000000E+00;  5.6910307E-05;  1.0000000E+04;  0.0000000E+00;  9.9406201E+03;2.9341652;0.0;0.37338397;28065.324
  7.7981347E-01;  9.9999998E-03; -1.4051150E-01;2246;-0.063302577;0.0;-0.048299644;1013.6852;  4.1116726E-01;11335.045;3;-12.42556;0.0;31.684692;0;3.3865569;  9.7859707E+03;  0.0000000E+00;  1.0417060E-04;  1.0000000E+04;  0.0000000E+00;  9.9377393E+03;2.9900546;0.0;0.39650226;29476.373
  7.7980924E-01;  9.9999998E-03; -1.2044241E-01;2247;-0.067145102;0.0;-0.040555131;1013.6337;  4.1116652E-01;11292.391;3;-13.735986;0.0;28.809;0;3.4373574;  9.7873740E+03;  0.0000000E+00;  1.1851663E-04;  1.0000000E+04;  0.0000000E+00;  9.9353369E+03;3.036119;0.0;0.40123841;30677.266
  7.7980548E-01;  9.9999998E-03; -1.0037261E-01;2248;-0.070865914;0.0;-0.033660211;1013.605;  4.1116610E-01;11268.595;3;-15.100137;0.0;25.556696;0;3.4698687;  9.7888525E+03;  0.0000000E+00;  1.0705979E-04;  1.0000000E+04;  0.0000000E+00;  9.9333027E+03;3.0747361;0.0;0.39513254;31710.115
  7.7980256E-01;  9.9999998E-03; -8.0303766E-02;2249;-0.074231617;0.0;-0.027323654;1013.5805;  4.1116548E-01;11248.354;3;-16.430975;0.0;21.979061;0;3.4931135;  9.7902236E+03;  0.0000000E+00;  8.3308463E-05;  1.0000000E+04;  0.0000000E+00;  9.9314590E+03;3.1066189;0.0;0.38649458;32649.74
  7.7980047E-01;  9.9999998E-03; -6.0233969E-02;2250;-0.077040009;0.0;-0.021028288;1013.5508;  4.1116503E-01;11223.77;3;-17.628716;0.0;17.813593;0;3.5122125;  9.7913828E+03;  0.0000000E+00;  5.5711109E-05;  1.0000000E+04;  0.0000000E+00;  9.9297178E+03;3.1316779;0.0;0.38053459;33534.98
  7.7979916E-01;  9.9999998E-03; -4.0160481E-02;2251;-0.079141237;0.0;-0.014408666;1013.5168;  4.1116488E-01;11195.629;3;-18.58799;0.0;12.739732;0;3.5281591;  9.7922646E+03;  0.0000000E+00;  2.9013800E-05;  1.0000000E+04;  0.0000000E+00;  9.9281689E+03;3.1496785;0.0;0.37848061;34318.516
  7.7979851E-01;  9.9999998E-03; -2.0082010E-02;2252;-0.08043766;0.0;-0.0073530599;1013.488;  4.1116458E-01;11171.636;3;-19.211021;0.0;6.6887994;0;3.539248;  9.7928203E+03;  0.0000000E+00;  8.1790549E-06;  1.0000000E+04;  0.0000000E+00;  9.9270557E+03;3.160491;0.0;0.37875703;34878.301
  8.0000424E-01;  9.9999998E-03; -1.8061231E-01;2275;-0.010709129;0.0;-0.059175998;1014.4461;  4.1117612E-01;11964.201;3;-6.5482764;0.0;36.678947;0;3.1225398;  9.7944307E+03;  0.0000000E+00; -6.8269903E-05;  1.0000000E+04;  0.0000000E+00;  9.9435244E+03;2.7832015;0.0;0.33933821;26652.799
  7.9999983E-01;  9.9999998E-03; -1.6056354E-01;2276;-0.011768346;0.0;-0.051886659;1014.2909;  4.1117555E-01;11835.657;3;-6.5945706;0.0;35.063934;0;3.2295694;  9.7944775E+03;  0.0000000E+00; -3.3483295E-05;  1.0000000E+04;  0.0000000E+00;  9.9404756E+03;2.8520045;0.0;0.37756485;28126.314
  7.9999512E-01;  9.9999998E-03; -1.4050448E-01;2277;-0.013247066;0.0;-0.04423923;1014.1945;  4.1117498E-01;11755.787;3;-6.7518568;0.0;32.856361;0;3.3039923;  9.7953906E+03;  0.0000000E+00; -5.9837203E-07;  1.0000000E+04;  0.0000000E+00;  9.9377031E+03;2.9073272;0.0;0.39666522;29489.281
  7.9999042E-01;  9.9999998E-03; -1.2043671E-01;2278;-0.015043104;0.0;-0.03677927;1014.1374;  4.1117427E-01;11708.497;3;-7.0264611;0.0;29.97817;0;3.3521004;  9.7966836E+03;  0.0000000E+00;  1.9220246E-05;  1.0000000E+04;  0.0000000E+00;  9.9352959E+03;2.9541788;0.0;0.3979215;30692.771
  7.9998600E-01;  9.9999998E-03; -1.0036813E-01;2279;-0.016993748;0.0;-0.03021952;1014.099;  4.1117370E-01;11676.706;3;-7.4022279;0.0;26.735645;0;3.384135;  9.7980430E+03;  0.0000000E+00;  2.5823536E-05;  1.0000000E+04;  0.0000000E+00;  9.9331953E+03;2.995189;0.0;0.38894603;31759.824
  7.9998219E-01;  9.9999998E-03; -8.0300450E-02;2280;-0.018909812;0.0;-0.024331795;1014.0626;  4.1117337E-01;11646.495;3;-7.8395996;0.0;23.121351;0;3.4087908;  9.7992783E+03;  0.0000000E+00;  2.3353507E-05;  1.0000000E+04;  0.0000000E+00;  9.9312539E+03;3.0306771;0.0;0.37811378;32751.271
  7.9997909E-01;  9.9999998E-03; -6.0231734E-02;2281;-0.020603225;0.0;-0.018626455;1014.0198;  4.1117299E-01;11611.053;3;-8.2805738;0.0;18.824783;0;3.4303808;  9.8003008E+03;  0.0000000E+00;  1.6347809E-05;  1.0000000E+04;  0.0000000E+00;  9.9293965E+03;3.0597825;0.0;0.37059823;33694.742
  7.9997694E-01;  9.9999998E-03; -4.0159155E-02;2282;-0.021922618;0.0;-0.012725528;1013.9741;  4.1117272E-01;11573.239;3;-8.6605616;0.0;13.503996;0;3.448905;  9.8010684E+03;  0.0000000E+00;  8.4698058E-06;  1.0000000E+04;  0.0000000E+00;  9.9277393E+03;3.0814099;0.0;0.36749512;34531.266
  7.9997563E-01;  9.9999998E-03; -2.0081406E-02;2283;-0.02275773;0.0;-0.0064854333;1013.9377;  4.1117239E-01;11543.128;3;-8.9180708;0.0;7.1017404;0;3.4618428;  9.8015469E+03;  0.0000000E+00;  2.3444600E-06;  1.0000000E+04;  0.0000000E+00;  9.9265547E+03;3.0947051;0.0;0.36713767;35128.227
  8.2018334E-01;  9.9999998E-03; -1.8060473E-01;2306;0.037847869;0.0;-0.059089419;1014.9931;  4.1116032E-01;12415.646;3;-0.50151861;0.0;35.72625;0;3.0491385;  9.8057930E+03;  0.0000000E+00;  6.3555366E-05;  1.0000000E+04;  0.0000000E+00;  9.9433740E+03;2.7017233;0.0;0.34741518;26707.703
  8.2017839E-01;  9.9999998E-03; -1.6055560E-01;2307;0.038148299;0.0;-0.051344976;1014.8699;  4.1115955E-01;12313.673;3;-0.060107823;0.0;34.143135;0;3.140187;  9.8061582E+03;  0.0000000E+00;  8.5061729E-06;  1.0000000E+04;  0.0000000E+00;  9.9406309E+03;2.7571728;0.0;0.38301411;28032.531
  8.2017320E-01;  9.9999998E-03; -1.4049661E-01;2308;0.038221929;0.0;-0.043287914;1014.7985;  4.1115895E-01;12254.543;3;0.43332419;0.0;32.059166;0;3.1999755;  9.8073184E+03;  0.0000000E+00; -6.5384261E-06;  1.0000000E+04;  0.0000000E+00;  9.9380879E+03;2.8008425;0.0;0.39913291;29282.592
  8.2016808E-01;  9.9999998E-03; -1.2042917E-01;2309;0.038067047;0.0;-0.035435576;1014.7576;  4.1115841E-01;12220.585;3;0.91240746;0.0;29.395845;0;3.2358642;  9.8087725E+03;  0.0000000E+00; -7.5218613E-06;  1.0000000E+04;  0.0000000E+00;  9.9358359E+03;2.8386421;0.0;0.39722201;30411.439
  8.2016325E-01;  9.9999998E-03; -1.0036124E-01;2310;0.037708215;0.0;-0.028609063;1014.7272;  4.1115785E-01;12195.413;3;1.3280858;0.0;26.397875;0;3.2585101;  9.8101934E+03;  0.0000000E+00; -7.0916190E-06;  1.0000000E+04;  0.0000000E+00;  9.9338320E+03;2.8734295;0.0;0.38508049;31433.961
  8.2015902E-01;  9.9999998E-03; -8.0294587E-02;2311;0.037225362;0.0;-0.022665679;1014.6927;  4.1115749E-01;12166.884;3;1.6582148;0.0;22.995266;0;3.2765372;  9.8114209E+03;  0.0000000E+00; -6.9248867E-06;  1.0000000E+04;  0.0000000E+00;  9.9319346E+03;2.9052267;0.0;0.37131041;32404.021
  8.2015550E-01;  9.9999998E-03; -6.0227159E-02;2312;0.036719751;0.0;-0.017132811;1014.6478;  4.1115716E-01;12129.767;3;1.9002287;0.0;18.83954;0;3.2938442;  9.8123926E+03;  0.0000000E+00; -5.7461057E-06;  1.0000000E+04;  0.0000000E+00;  9.9300928E+03;2.9325535;0.0;0.36129057;33342.191
  8.2015294E-01;  9.9999998E-03; -4.0156040E-02;2313;0.03628315;0.0;-0.011604317;1014.5989;  4.1115680E-01;12089.194;3;2.0609739;0.0;13.576411;0;3.3098049;  9.8131016E+03;  0.0000000E+00; -3.4041557E-06;  1.0000000E+04;  0.0000000E+00;  9.9284326E+03;2.9535758;0.0;0.35622904;34181.395
  8.2015139E-01;  9.9999998E-03; -2.0079833E-02;2314;0.035988543;0.0;-0.0058850269;1014.5595;  4.1115668E-01;12056.619;3;2.1510098;0.0;7.1590509;0;3.3213902;  9.8135293E+03;  0.0000000E+00; -1.0128448E-06;  1.0000000E+04;  0.0000000E+00;  9.9272373E+03;2.9667978;0.0;0.35459232;34782.762
  8.4037602E-01;  9.9999998E-03; -1.8059768E-01;2337;0.093662791;0.0;-0.061919078;1015.1531;  4.1097784E-01;12546.043;3;8.2881136;0.0;33.214714;0;2.9802642;  9.8173906E+03;  0.0000000E+00;  1.7770582E-04;  1.0000000E+04;  0.0000000E+00;  9.9435430E+03;2.6272919;0.0;0.35297215;26591.688
  8.4036845E-01;  9.9999998E-03; -1.6054747E-01;2338;0.094080731;0.0;-0.053506542;1015.0814;  4.1097718E-01;12486.726;3;8.7949677;0.0;31.698915;0;3.0506456;  9.8184775E+03;  0.0000000E+00;  5.3259806E-05;  1.0000000E+04;  0.0000000E+00;  9.9410654E+03;2.6621246;0.0;0.38852099;27782.449
  8.4036124E-01;  9.9999998E-03; -1.4048788E-01;2339;0.09471187;0.0;-0.044729102;1015.0516;  4.1097653E-01;12462.051;3;9.557107;0.0;29.807232;0;3.0909319;  9.8201943E+03;  0.0000000E+00;  1.3755358E-05;  1.0000000E+04;  0.0000000E+00;  9.9387754E+03;2.6871562;0.0;0.40377581;28906.754
  8.4035486E-01;  9.9999998E-03; -1.2042033E-01;2340;0.095465712;0.0;-0.036155894;1015.0424;  4.1097605E-01;12454.453;3;10.465566;0.0;27.449497;0;3.1091475;  9.8220449E+03;  0.0000000E+00;  3.9204028E-06;  1.0000000E+04;  0.0000000E+00;  9.9367559E+03;2.7090509;0.0;0.40009668;29923.691
  8.4034926E-01;  9.9999998E-03; -1.0035285E-01;2341;0.09620662;0.0;-0.028735572;1015.0356;  4.1097549E-01;12448.827;3;11.412757;0.0;24.810703;0;3.1164718;  9.8237227E+03;  0.0000000E+00;  9.4225931E-07;  1.0000000E+04;  0.0000000E+00;  9.9349453E+03;2.7309551;0.0;0.38551664;30850.682
  8.4034455E-01;  9.9999998E-03; -8.0287181E-02;2342;0.096853897;0.0;-0.022406634;1015.0169;  4.1097525E-01;12433.331;3;12.311475;0.0;21.770895;0;3.1218829;  9.8251006E+03;  0.0000000E+00; -1.2641119E-06;  1.0000000E+04;  0.0000000E+00;  9.9332090E+03;2.7528791;0.0;0.3690038;31743.813
  8.4034079E-01;  9.9999998E-03; -6.0221191E-02;2343;0.097366944;0.0;-0.016706225;1014.9822;  4.1097465E-01;12404.61;3;13.0902;0.0;17.957432;0;3.1294475;  9.8261494E+03;  0.0000000E+00; -2.3226023E-06;  1.0000000E+04;  0.0000000E+00;  9.9314814E+03;2.7731023;0.0;0.35634509;32623.9
  8.4033799E-01;  9.9999998E-03; -4.0151849E-02;2344;0.097728662;0.0;-0.011199529;1014.9388;  4.1097447E-01;12368.684;3;13.69097;0.0;13.009337;0;3.138514;  9.8268809E+03;  0.0000000E+00; -1.7758947E-06;  1.0000000E+04;  0.0000000E+00;  9.9299092E+03;2.7894282;0.0;0.34908578;33422.512
  8.4033626E-01;  9.9999998E-03; -2.0077668E-02;2345;0.097939633;0.0;-0.0056440174;1014.9022;  4.1097438E-01;12338.284;3;14.069827;0.0;6.8826938;0;3.1459899;  9.8273135E+03;  0.0000000E+00; -5.7789561E-07;  1.0000000E+04;  0.0000000E+00;  9.9287646E+03;2.8000033;0.0;0.34598669;33999.781
  8.6057717E-01;  9.9999998E-03; -1.8058784E-01;2368;0.1540468;0.0;-0.065705717;1015.01;  4.1061983E-01;12424.814;3;18.676413;0.0;29.904533;0;2.8751793;  9.8311553E+03;  0.0000000E+00;  2.4760791E-04;  1.0000000E+04;  0.0000000E+00;  9.9441719E+03;2.5205648;0.0;0.35461462;26236.539
  8.6056495E-01;  9.9999998E-03; -1.6053684E-01;2369;0.15359251;0.0;-0.056748044;1014.996;  4.1061908E-01;12413.172;3;18.996864;0.0;28.448084;0;2.9248383;  9.8331826E+03;  0.0000000E+00;  6.8673238E-05;  1.0000000E+04;  0.0000000E+00;  9.9418799E+03;2.5326009;0.0;0.39223734;27333.01
  8.6055434E-01;  9.9999998E-03; -1.4047688E-01;2370;0.15391326;0.0;-0.047316283;1015.0142;  4.1061839E-01;12428.271;3;19.767572;0.0;26.732794;0;2.9452238;  9.8356191E+03;  0.0000000E+00;  2.1692058E-05;  1.0000000E+04;  0.0000000E+00;  9.9398066E+03;2.5366137;0.0;0.40860999;28348.867
  8.6054564E-01;  9.9999998E-03; -1.2040955E-01;2371;0.15486279;0.0;-0.038063239;1015.0448;  4.1061795E-01;12453.633;3;20.856009;0.0;24.663074;0;2.9444687;  9.8379971E+03;  0.0000000E+00;  1.1976387E-05;  1.0000000E+04;  0.0000000E+00;  9.9380156E+03;2.5396523;0.0;0.40481633;29248.189
  8.6053866E-01;  9.9999998E-03; -1.0034284E-01;2372;0.15614803;0.0;-0.030036796;1015.0696;  4.1061750E-01;12474.158;3;22.110054;0.0;22.386021;0;2.934227;  9.8400547E+03;  0.0000000E+00;  1.1774917E-05;  1.0000000E+04;  0.0000000E+00;  9.9364473E+03;2.5451467;0.0;0.3890802;30057.51
  8.6053318E-01;  9.9999998E-03; -8.0278434E-02;2373;0.15751088;0.0;-0.02322869;1015.0763;  4.1061717E-01;12479.686;3;23.382561;0.0;19.757561;0;2.9241209;  9.8417041E+03;  0.0000000E+00;  1.0961667E-05;  1.0000000E+04;  0.0000000E+00;  9.9349316E+03;2.5533633;0.0;0.37075767;30842.16
  8.6052889E-01;  9.9999998E-03; -6.0214143E-02;2374;0.15874766;0.0;-0.017180312;1015.06;  4.1061687E-01;12466.168;3;24.538534;0.0;16.397879;0;2.9189041;  9.8429287E+03;  0.0000000E+00;  7.7458180E-06;  1.0000000E+04;  0.0000000E+00;  9.9333936E+03;2.5627856;0.0;0.35611838;31630.412
  8.6052585E-01;  9.9999998E-03; -4.0146880E-02;2375;0.15971358;0.0;-0.011440133;1015.0299;  4.1061655E-01;12441.301;3;25.459425;0.0;11.942912;0;2.9184976;  9.8437744E+03;  0.0000000E+00;  3.9557331E-06;  1.0000000E+04;  0.0000000E+00;  9.9319609E+03;2.5713568;0.0;0.34714085;32359.309
  8.6052394E-01;  9.9999998E-03; -2.0075092E-02;2376;0.16032091;0.0;-0.0057394463;1015.0008;  4.1061661E-01;12417.224;3;26.05224;0.0;6.3408432;0;2.9201667;  9.8442666E+03;  0.0000000E+00;  1.0786845E-06;  1.0000000E+04;  0.0000000E+00;  9.9309004E+03;2.5772741;0.0;0.34289256;32892.848
  8.8077229E-01;  9.9999998E-03; -1.8057230E-01;2399;0.2140701;0.0;-0.068799481;1014.7646;  4.1010615E-01;12218.024;3;29.448387;0.0;26.385855;0;2.6842108;  9.8499297E+03;  0.0000000E+00;  2.7147075E-04;  1.0000000E+04;  0.0000000E+00;  9.9453604E+03;2.3317039;0.0;0.35250694;25606.309
  8.8075459E-01;  9.9999998E-03; -1.6052145E-01;2400;0.21229522;0.0;-0.059566692;1014.807;  4.1010532E-01;12253.049;3;29.543787;0.0;24.994617;0;2.7147198;  9.8529385E+03;  0.0000000E+00;  4.4456887E-05;  1.0000000E+04;  0.0000000E+00;  9.9431797E+03;2.3217998;0.0;0.39292005;26642.49
  8.8073981E-01;  9.9999998E-03; -1.4046200E-01;2401;0.21182996;0.0;-0.049780507;1014.871;  4.1010505E-01;12306.025;3;30.236549;0.0;23.408546;0;2.7171559;  9.8560957E+03;  0.0000000E+00;  5.4233979E-06;  1.0000000E+04;  0.0000000E+00;  9.9412705E+03;2.3058004;0.0;0.41135553;27573.217
  8.8072819E-01;  9.9999998E-03; -1.2039575E-01;2402;0.21250273;0.0;-0.040144093;1014.9393;  4.1010451E-01;12362.554;3;31.383316;0.0;21.551584;0;2.6990287;  9.8590020E+03;  0.0000000E+00;  1.1590017E-06;  1.0000000E+04;  0.0000000E+00;  9.9396953E+03;2.2904487;0.0;0.40858012;28364.951
  8.8071930E-01;  9.9999998E-03; -1.0033055E-01;2403;0.21389011;0.0;-0.031739369;1014.9966;  4.1010410E-01;12409.906;3;32.802105;0.0;19.567154;0;2.6720858;  9.8614502E+03;  0.0000000E+00;  5.2946111E-06;  1.0000000E+04;  0.0000000E+00;  9.9383623E+03;2.27916;0.0;0.39292577;29055.006
  8.8071257E-01;  9.9999998E-03; -8.0268003E-02;2404;0.21558017;0.0;-0.02456885;1015.0303;  4.1010368E-01;12437.825;3;34.302452;0.0;17.319132;0;2.6465838;  9.8633975E+03;  0.0000000E+00;  8.9937357E-06;  1.0000000E+04;  0.0000000E+00;  9.9370850E+03;2.2725434;0.0;0.3740404;29721.191
  8.8070756E-01;  9.9999998E-03; -6.0205884E-02;2405;0.21722496;0.0;-0.018170636;1015.0366;  4.1010341E-01;12443.055;3;35.701012;0.0;14.439448;0;2.6282098;  9.8648428E+03;  0.0000000E+00;  8.4847024E-06;  1.0000000E+04;  0.0000000E+00;  9.9357598E+03;2.2696264;0.0;0.35858342;30403.49
  8.8070399E-01;  9.9999998E-03; -4.0141113E-02;2406;0.21856436;0.0;-0.012090355;1015.0224;  4.1010338E-01;12431.316;3;36.834259;0.0;10.565844;0;2.6177897;  9.8658447E+03;  0.0000000E+00;  5.1009069E-06;  1.0000000E+04;  0.0000000E+00;  9.9344893E+03;2.2689245;0.0;0.34886521;31048.887
  8.8070184E-01;  9.9999998E-03; -2.0072114E-02;2407;0.21942858;0.0;-0.0060603861;1015.0036;  4.1010320E-01;12415.729;3;37.57148;0.0;5.6286421;0;2.6132195;  9.8664268E+03;  0.0000000E+00;  1.5423572E-06;  1.0000000E+04;  0.0000000E+00;  9.9335342E+03;2.269089;0.0;0.34413058;31528.982
  9.0094769E-01;  9.9999998E-03; -1.8054953E-01;2430;0.26982841;0.0;-0.070198469;1014.5494;  4.0946513E-01;12035.028;3;40.118431;0.0;23.019476;0;2.3835659;  9.8749668E+03;  0.0000000E+00;  2.0620490E-04;  1.0000000E+04;  0.0000000E+00;  9.9470967E+03;2.0356002;0.0;0.3479656;24705.256
  9.0092474E-01;  9.9999998E-03; -1.6049992E-01;2431;0.26682827;0.0;-0.060960401;1014.6417;  4.0946448E-01;12111.259;3;40.119183;0.0;21.736296;0;2.3962436;  9.8788613E+03;  0.0000000E+00; -1.6909325E-05;  1.0000000E+04;  0.0000000E+00;  9.9449971E+03;2.0057895;0.0;0.39045408;25697.17
  9.0090579E-01;  9.9999998E-03; -1.4044210E-01;2432;0.26550815;0.0;-0.051181622;1014.7417;  4.0946415E-01;12193.996;3;40.788532;0.0;20.246412;0;2.3834136;  9.8825898E+03;  0.0000000E+00; -2.2193308E-05;  1.0000000E+04;  0.0000000E+00;  9.9432236E+03;1.9727498;0.0;0.41066366;26558.342
  9.0089107E-01;  9.9999998E-03; -1.2037806E-01;2433;0.26569337;0.0;-0.041550823;1014.838;  4.0946379E-01;12273.675;3;41.977764;0.0;18.522614;0;2.3511186;  9.8858682E+03;  0.0000000E+00; -1.6916423E-05;  1.0000000E+04;  0.0000000E+00;  9.9418291E+03;1.9419178;0.0;0.4092007;27255.59
  9.0087986E-01;  9.9999998E-03; -1.0031534E-01;2434;0.2668823;0.0;-0.033109713;1014.9203;  4.0946332E-01;12341.717;3;43.493256;0.0;16.737581;0;2.3105707;  9.8885908E+03;  0.0000000E+00; -1.2273381E-05;  1.0000000E+04;  0.0000000E+00;  9.9407188E+03;1.916121;0.0;0.39444971;27835.453
  9.0087152E-01;  9.9999998E-03; -8.0255419E-02;2435;0.26856792;0.0;-0.025827231;1014.9761;  4.0946299E-01;12387.868;3;45.124638;0.0;14.79382;0;2.2722955;  9.8907480E+03;  0.0000000E+00; -6.0362486E-06;  1.0000000E+04;  0.0000000E+00;  9.9396621E+03;1.8961277;0.0;0.37616783;28387.543
  9.0086538E-01;  9.9999998E-03; -6.0196105E-02;2436;0.27031395;0.0;-0.019224027;1015.0014;  4.0946287E-01;12408.873;3;46.664211;0.0;12.355442;0;2.2427709;  9.8923682E+03;  0.0000000E+00; -1.4251713E-06;  1.0000000E+04;  0.0000000E+00;  9.9385469E+03;1.8816166;0.0;0.36115441;28964.014
  9.0086102E-01;  9.9999998E-03; -4.0134374E-02;2437;0.27178574;0.0;-0.012849156;1015.0031;  4.0946278E-01;12410.256;3;47.923229;0.0;9.0696602;0;2.223707;  9.8934971E+03;  0.0000000E+00;  4.2645104E-07;  1.0000000E+04;  0.0000000E+00;  9.9374414E+03;1.8719037;0.0;0.35180324;29523.686
  9.0085840E-01;  9.9999998E-03; -2.0068660E-02;2438;0.27275479;0.0;-0.0064569926;1014.9938;  4.0946284E-01;12402.564;3;48.747551;0.0;4.8448434;0;2.2136943;  9.8941611E+03;  0.0000000E+00;  3.7262993E-07;  1.0000000E+04;  0.0000000E+00;  9.9365986E+03;1.8663559;0.0;0.34733847;29947.947
  9.2108172E-01;  9.9999998E-03; -1.8051998E-01;2461;0.31687862;0.0;-0.069639362;1014.356;  4.0873033E-01;11868.327;3;50.782898;0.0;19.98045;0;1.9925845;  9.9045908E+03;  0.0000000E+00;  6.0046608E-05;  1.0000000E+04;  0.0000000E+00;  9.9493066E+03;1.6501157;0.0;0.34246877;23564.1
  9.2104965E-01;  9.9999998E-03; -1.6047230E-01;2462;0.31213298;0.0;-0.060544886;1014.4845;  4.0873006E-01;11974.676;3;50.889805;0.0;18.87542;0;1.9890997;  9.9091172E+03;  0.0000000E+00; -6.1119572E-05;  1.0000000E+04;  0.0000000E+00;  9.9472842E+03;1.6035269;0.0;0.38557285;24514.232
  9.2102343E-01;  9.9999998E-03; -1.4041705E-01;2463;0.3093628;0.0;-0.051039018;1014.6046;  4.0872967E-01;12073.929;3;51.64558;0.0;17.483644;0;1.9644457;  9.9131279E+03;  0.0000000E+00; -1.5780812E-05;  1.0000000E+04;  0.0000000E+00;  9.9456270E+03;1.5579351;0.0;0.40651059;25313.119
  9.2100269E-01;  9.9999998E-03; -1.2035625E-01;2464;0.30832803;0.0;-0.041756567;1014.7141;  4.0872949E-01;12164.409;3;52.901306;0.0;15.842052;0;1.922525;  9.9165088E+03;  0.0000000E+00; -8.7942535E-06;  1.0000000E+04;  0.0000000E+00;  9.9443936E+03;1.5164845;0.0;0.40604052;25927.605
  9.2098635E-01;  9.9999998E-03; -1.0029704E-01;2465;0.30847806;0.0;-0.033628691;1014.8078;  4.0872929E-01;12241.978;3;54.472099;0.0;14.173935;0;1.8732905;  9.9192686E+03;  0.0000000E+00; -1.5456924E-05;  1.0000000E+04;  0.0000000E+00;  9.9434648E+03;1.480733;0.0;0.3925575;26410.162
  9.2097360E-01;  9.9999998E-03; -8.0240682E-02;2466;0.30930489;0.0;-0.026540769;1014.8749;  4.0872920E-01;12297.467;3;56.156193;0.0;12.443909;0;1.8269444;  9.9214443E+03;  0.0000000E+00; -1.5643272E-05;  1.0000000E+04;  0.0000000E+00;  9.9426094E+03;1.4512444;0.0;0.3757;26858.975
  9.2096406E-01;  9.9999998E-03; -6.0184933E-02;2467;0.3103925;0.0;-0.019967703;1014.9119;  4.0872887E-01;12328.022;3;57.748516;0.0;10.367847;0;1.7902794;  9.9230947E+03;  0.0000000E+00; -1.0442584E-05;  1.0000000E+04;  0.0000000E+00;  9.9416875E+03;1.4281715;0.0;0.36210781;27336.508
  9.2095733E-01;  9.9999998E-03; -4.0126804E-02;2468;0.3114101;0.0;-0.013454605;1014.9225;  4.0872893E-01;12336.797;3;59.05695;0.0;7.6148834;0;1.7655964;  9.9242568E+03;  0.0000000E+00; -4.6408240E-06;  1.0000000E+04;  0.0000000E+00;  9.9407393E+03;1.4115983;0.0;0.35399812;27813.537
  9.2095339E-01;  9.9999998E-03; -2.0064821E-02;2469;0.31211928;0.0;-0.0067941728;1014.9198;  4.0872884E-01;12334.531;3;59.916954;0.0;4.07337;0;1.7520001;  9.9249424E+03;  0.0000000E+00; -1.0450003E-06;  1.0000000E+04;  0.0000000E+00;  9.9399980E+03;1.4016079;0.0;0.35039219;28182.615
  9.4113469E-01;  9.9999998E-03; -1.8048726E-01;2492;0.34513557;0.0;-0.068029627;1014.0615;  4.0793815E-01;11616.268;3;61.457947;0.0;17.329359;0;1.5655692;  9.9347842E+03;  0.0000000E+00; -4.3858534E-05;  1.0000000E+04;  0.0000000E+00;  9.9518779E+03;1.2287036;0.0;0.33686554;22220.949
  9.4109750E-01;  9.9999998E-03; -1.6044113E-01;2493;0.33918965;0.0;-0.058921628;1014.2085;  4.0793803E-01;11737.81;3;61.834995;0.0;16.466639;0;1.5488453;  9.9396025E+03;  0.0000000E+00; -1.1472718E-05;  1.0000000E+04;  0.0000000E+00;  9.9499355E+03;1.1697097;0.0;0.37913564;23126.611
  9.4106662E-01;  9.9999998E-03; -1.4038864E-01;2494;0.33499417;0.0;-0.049748559;1014.3312;  4.0793791E-01;11839.161;3;62.726944;0.0;15.194972;0;1.5166852;  9.9435635E+03;  0.0000000E+00;  5.9428214E-05;  1.0000000E+04;  0.0000000E+00;  9.9483779E+03;1.1169624;0.0;0.39972278;23868.258
  9.4104147E-01;  9.9999998E-03; -1.2033170E-01;2495;0.33231455;0.0;-0.041010715;1014.4377;  4.0793782E-01;11927.216;3;63.978115;0.0;13.606619;0;1.4704808;  9.9467588E+03;  0.0000000E+00;  4.4011362E-05;  1.0000000E+04;  0.0000000E+00;  9.9472764E+03;1.0707064;0.0;0.39977443;24411.768
  9.4102120E-01;  9.9999998E-03; -1.0027657E-01;2496;0.33073461;0.0;-0.033406001;1014.5279;  4.0793785E-01;12001.677;3;65.39566;0.0;11.981252;0;1.4183819;  9.9492979E+03;  0.0000000E+00;  1.1083988E-05;  1.0000000E+04;  0.0000000E+00;  9.9465088E+03;1.0307497;0.0;0.38763231;24811.438
  9.4100517E-01;  9.9999998E-03; -8.0224194E-02;2497;0.32987392;0.0;-0.026689615;1014.595;  4.0793774E-01;12057.03;3;66.779816;0.0;10.356965;0;1.3696482;  9.9512969E+03;  0.0000000E+00; -6.1072305E-06;  1.0000000E+04;  0.0000000E+00;  9.9458252E+03;0.99704695;0.0;0.37260121;25169.576
  9.4099295E-01;  9.9999998E-03; -6.0172316E-02;2498;0.32942972;0.0;-0.020283746;1014.6337;  4.0793768E-01;12089.142;3;68.053802;0.0;8.5365448;0;1.3308384;  9.9528174E+03;  0.0000000E+00; -8.7729422E-06;  1.0000000E+04;  0.0000000E+00;  9.9450732E+03;0.96990478;0.0;0.36093372;25556.326
  9.4098437E-01;  9.9999998E-03; -4.0118165E-02;2499;0.32920864;0.0;-0.01376253;1014.6482;  4.0793774E-01;12101.063;3;68.921509;0.0;6.2359066;0;1.304384;  9.9538945E+03;  0.0000000E+00; -5.0442895E-06;  1.0000000E+04;  0.0000000E+00;  9.9442773E+03;0.94989008;0.0;0.35449395;25954.133
  9.4097930E-01;  9.9999998E-03; -2.0060387E-02;2500;0.32911974;0.0;-0.0069735148;1014.6482;  4.0793777E-01;12101.064;3;69.500923;0.0;3.3257542;0;1.2896159;  9.9545391E+03;  0.0000000E+00; -1.3082380E-06;  1.0000000E+04;  0.0000000E+00;  9.9436377E+03;0.93759972;0.0;0.35201612;26268.328
  9.6114826E-01;  9.9999998E-03; -1.8045460E-01;2523;0.35853192;0.0;-0.066910453;1013.5356;  4.0712318E-01;11170.712;3;69.993935;0.0;14.532676;0;1.162316;  9.9614287E+03;  0.0000000E+00; -1.4540427E-05;  1.0000000E+04;  0.0000000E+00;  9.9547070E+03;0.83151215;0.0;0.33080378;20702.531
  9.6110886E-01;  9.9999998E-03; -1.6040993E-01;2524;0.35164729;0.0;-0.057706293;1013.6851;  4.0712297E-01;11294.107;3;70.337379;0.0;13.906162;0;1.1368397;  9.9662324E+03;  0.0000000E+00;  1.2028534E-04;  1.0000000E+04;  0.0000000E+00;  9.9528379E+03;0.76550841;0.0;0.37133133;21564.715
  9.6107578E-01;  9.9999998E-03; -1.4036013E-01;2525;0.34619722;0.0;-0.048755113;1013.7974;  4.0712297E-01;11386.806;3;70.901352;0.0;12.751892;0;1.101975;  9.9699141E+03;  0.0000000E+00;  1.6345544E-04;  1.0000000E+04;  0.0000000E+00;  9.9513604E+03;0.71094263;0.0;0.39103231;22258.82
  9.6104848E-01;  9.9999998E-03; -1.2030700E-01;2526;0.34202543;0.0;-0.040481009;1013.8891;  4.0712306E-01;11462.478;3;71.508415;0.0;11.20908;0;1.0566478;  9.9727188E+03;  0.0000000E+00;  1.0778409E-04;  1.0000000E+04;  0.0000000E+00;  9.9503643E+03;0.66522473;0.0;0.39142302;22747.217
  9.6102619E-01;  9.9999998E-03; -1.0025574E-01;2527;0.33893111;0.0;-0.033289861;1013.9664;  4.0712309E-01;11526.245;3;72.210365;0.0;9.6224623;0;1.0069886;  9.9748887E+03;  0.0000000E+00;  4.6582860E-05;  1.0000000E+04;  0.0000000E+00;  9.9497090E+03;0.62631744;0.0;0.38067123;23081.715
  9.6100843E-01;  9.9999998E-03; -8.0207035E-02;2528;0.33666056;0.0;-0.026805827;1014.0249;  4.0712315E-01;11574.562;3;72.722992;0.0;8.1456051;0;0.96094215;  9.9765762E+03;  0.0000000E+00;  1.1629098E-05;  1.0000000E+04;  0.0000000E+00;  9.9491699E+03;0.59335285;0.0;0.36758929;23363.955
  9.6099490E-01;  9.9999998E-03; -6.0158905E-02;2529;0.33508077;0.0;-0.020485224;1014.0594;  4.0712318E-01;11603.102;3;73.212502;0.0;6.6068296;0;0.92440671;  9.9778652E+03;  0.0000000E+00; -1.4658506E-06;  1.0000000E+04;  0.0000000E+00;  9.9485674E+03;0.56648177;0.0;0.35792494;23668.994
  9.6098542E-01;  9.9999998E-03; -4.0108871E-02;2530;0.33403119;0.0;-0.013958891;1014.0728;  4.0712330E-01;11614.127;3;73.518181;0.0;4.8093758;0;0.89957798;  9.9787832E+03;  0.0000000E+00; -2.9614628E-06;  1.0000000E+04;  0.0000000E+00;  9.9479170E+03;0.54642969;0.0;0.35314831;23990.77
  9.6097988E-01;  9.9999998E-03; -2.0055667E-02;2531;0.33343345;0.0;-0.0071109924;1014.0735;  4.0712312E-01;11614.721;3;73.686928;0.0;2.5621331;0;0.88575339;  9.9793311E+03;  0.0000000E+00; -1.0018622E-06;  1.0000000E+04;  0.0000000E+00;  9.9473809E+03;0.5340094;0.0;0.35174403;24249.777
  9.8114568E-01;  9.9999998E-03; -1.8042365E-01;2554;0.36301059;0.0;-0.066586539;1012.7281;  4.0631622E-01;10490.187;3;74.204605;0.0;11.118948;0;0.82488763;  9.9820420E+03;  0.0000000E+00;  6.3545216E-05;  1.0000000E+04;  0.0000000E+00;  9.9577461E+03;0.50210416;0.0;0.32278344;19026.91
  9.8110491E-01;  9.9999998E-03; -1.6038115E-01;2555;0.35548526;0.0;-0.057444688;1012.87;  4.0631625E-01;10607.136;3;74.338303;0.0;10.822021;0;0.79589099;  9.9866611E+03;  0.0000000E+00;  2.1010161E-04;  1.0000000E+04;  0.0000000E+00;  9.9559268E+03;0.43448579;0.0;0.36140519;19852.539
  9.8107052E-01;  9.9999998E-03; -1.4033391E-01;2556;0.34932232;0.0;-0.048581425;1012.9656;  4.0631637E-01;10686.06;3;74.581268;0.0;9.9414959;0;0.76266146;  9.9899727E+03;  0.0000000E+00;  2.0246734E-04;  1.0000000E+04;  0.0000000E+00;  9.9544932E+03;0.38223377;0.0;0.38042766;20514.781
  9.8104209E-01;  9.9999998E-03; -1.2028408E-01;2557;0.34441236;0.0;-0.040512811;1013.0389;  4.0631652E-01;10746.408;3;74.742325;0.0;8.637785;0;0.72203588;  9.9923662E+03;  0.0000000E+00;  1.2500021E-04;  1.0000000E+04;  0.0000000E+00;  9.9535449E+03;0.34053704;0.0;0.38149884;20969.473
  9.8101884E-01;  9.9999998E-03; -1.0023617E-01;2558;0.34061909;0.0;-0.033455577;1013.1;  4.0631661E-01;10796.83;3;74.994415;0.0;7.2705898;0;0.67829311;  9.9941504E+03;  0.0000000E+00;  5.7635403E-05;  1.0000000E+04;  0.0000000E+00;  9.9529609E+03;0.3058883;0.0;0.37240484;21261.572
  9.8100036E-01;  9.9999998E-03; -8.0190822E-02;2559;0.3377578;0.0;-0.027035726;1013.1475;  4.0631679E-01;10835.949;3;75.104881;0.0;6.0595632;0;0.63803566;  9.9955186E+03;  0.0000000E+00;  1.7888364E-05;  1.0000000E+04;  0.0000000E+00;  9.9525254E+03;0.2766912;0.0;0.36134443;21487.27
  9.8098624E-01;  9.9999998E-03; -6.0146164E-02;2560;0.33568799;0.0;-0.020694071;1013.1765;  4.0631673E-01;10859.835;3;75.267258;0.0;4.8713379;0;0.6063621;  9.9965586E+03;  0.0000000E+00;  1.3703443E-08;  1.0000000E+04;  0.0000000E+00;  9.9520537E+03;0.25282234;0.0;0.35353976;21723.215
  9.8097622E-01;  9.9999998E-03; -4.0099893E-02;2561;0.33427858;0.0;-0.014078681;1013.1874;  4.0631679E-01;10868.884;3;75.400345;0.0;3.5384023;0;0.58507377;  9.9972988E+03;  0.0000000E+00; -3.7198990E-06;  1.0000000E+04;  0.0000000E+00;  9.9515352E+03;0.23493208;0.0;0.3501417;21974.314
  9.8097032E-01;  9.9999998E-03; -2.0050922E-02;2562;0.33346972;0.0;-0.0071377163;1013.1881;  4.0631688E-01;10869.477;3;75.494637;0.0;1.9105814;0;0.5733543;  9.9977461E+03;  0.0000000E+00; -1.5148088E-06;  1.0000000E+04;  0.0000000E+00;  9.9511006E+03;0.22381391;0.0;0.34954038;22179.023
  1.0011363E+00;  9.9999998E-03; -1.8039341E-01;2585;0.36383471;0.0;-0.065578699;1011.6823;  4.0554377E-01;9610.9043;3;76.213715;0.0;8.1558104;0;0.56816375;  9.9962002E+03;  0.0000000E+00; -3.9096555E-04;  1.0000000E+04;  0.0000000E+00;  9.9609336E+03;0.25721318;0.0;0.31095061;17220.893
  1.0010942E+00;  9.9999998E-03; -1.6035452E-01;2586;0.35587296;0.0;-0.056948815;1011.8134;  4.0554386E-01;9718.8271;3;76.182793;0.0;8.175704;0;0.54029548;  1.0000570E+04;  0.0000000E+00;  1.3375698E-04;  1.0000000E+04;  0.0000000E+00;  9.9591504E+03;0.1922777;0.0;0.34801775;18013.588
  1.0010585E+00;  9.9999998E-03; -1.4031067E-01;2587;0.34930971;0.0;-0.048435088;1011.8936;  4.0554410E-01;9784.7686;3;76.315697;0.0;7.6194582;0;0.51162452;  1.0003580E+04;  0.0000000E+00;  1.1407319E-04;  1.0000000E+04;  0.0000000E+00;  9.9577197E+03;0.1445051;0.0;0.3671194;18659.213
  1.0010290E+00;  9.9999998E-03; -1.2026453E-01;2588;0.3439827;0.0;-0.040598556;1011.9507;  4.0554410E-01;9831.873;3;76.400017;0.0;6.6831708;0;0.47758216;  1.0005668E+04;  0.0000000E+00;  7.1990165E-05;  1.0000000E+04;  0.0000000E+00;  9.9567646E+03;0.10788654;0.0;0.36969563;19103.123
  1.0010052E+00;  9.9999998E-03; -1.0021972E-01;2589;0.33979639;0.0;-0.033636663;1011.9989;  4.0554446E-01;9871.5195;3;76.377029;0.0;5.5874949;0;0.44101632;  1.0007180E+04;  0.0000000E+00;  3.7629594E-05;  1.0000000E+04;  0.0000000E+00;  9.9561973E+03;0.078165159;0.0;0.36285114;19379.184
  1.0009861E+00;  9.9999998E-03; -8.0177173E-02;2590;0.33653492;0.0;-0.027214624;1012.037;  4.0554449E-01;9902.9229;3;76.493042;0.0;4.564857;0;0.40743056;  1.0008314E+04;  0.0000000E+00;  1.0875357E-05;  1.0000000E+04;  0.0000000E+00;  9.9558125E+03;0.053394984;0.0;0.35403559;19572.777
  1.0009714E+00;  9.9999998E-03; -6.0135212E-02;2591;0.33407116;0.0;-0.020844888;1012.0612;  4.0554458E-01;9922.8467;3;76.551086;0.0;3.6533864;0;0.38121483;  1.0009164E+04;  0.0000000E+00; -5.2476880E-06;  1.0000000E+04;  0.0000000E+00;  9.9554326E+03;0.033258554;0.0;0.34795627;19757.68
  1.0009608E+00;  9.9999998E-03; -4.0092051E-02;2592;0.3323639;0.0;-0.014214168;1012.071;  4.0554461E-01;9930.8994;3;76.655525;0.0;2.6003609;0;0.36380485;  1.0009768E+04;  0.0000000E+00; -7.8531912E-06;  1.0000000E+04;  0.0000000E+00;  9.9550303E+03;0.01821724;0.0;0.34558761;19948.166
  1.0009545E+00;  9.9999998E-03; -2.0046813E-02;2593;0.33134806;0.0;-0.0072254441;1012.0721;  4.0554479E-01;9931.7891;3;76.684952;0.0;1.3843499;0;0.35433874;  1.0010131E+04;  0.0000000E+00; -3.0214676E-06;  1.0000000E+04;  0.0000000E+00;  9.9546963E+03;0.0088871298;0.0;0.34545159;20102.744
  1.0211232E+00;  9.9999998E-03; -1.8036561E-01;2616;0.3629694;0.0;-0.064636089;1010.4982;  4.0482643E-01;8615.9043;3;77.244644;0.0;5.5845532;0;0.3848978;  1.0004917E+04;  0.0000000E+00; -5.9863883E-03;  1.0000000E+04;  0.0000000E+00;  9.9641738E+03;0.09056922;0.0;0.29432857;15341.091
  1.0210797E+00;  9.9999998E-03; -1.6032889E-01;2617;0.35450158;0.0;-0.056165203;1010.6207;  4.0482658E-01;8716.5332;3;77.158203;0.0;5.7237763;0;0.36113876;  1.0009044E+04;  0.0000000E+00; -3.1104745E-04;  1.0000000E+04;  0.0000000E+00;  9.9624678E+03;0.031234231;0.0;0.32990453;16080.896
  1.0210425E+00;  9.9999998E-03; -1.4028835E-01;2618;0.34752047;0.0;-0.047871571;1010.6913;  4.0482670E-01;8774.4971;3;77.153664;0.0;5.5263729;0;0.33816838;  1.0011892E+04;  0.0000000E+00; -8.8007037E-05;  1.0000000E+04;  0.0000000E+00;  9.9610156E+03;-0.011801137;0.0;0.34996951;16714.492
  1.0210121E+00;  9.9999998E-03; -1.2024561E-01;2619;0.34187135;0.0;-0.040152531;1010.7402;  4.0482697E-01;8814.7461;3;77.164726;0.0;4.9386306;0;0.31080559;  1.0013857E+04;  0.0000000E+00; -2.7466367E-05;  1.0000000E+04;  0.0000000E+00;  9.9600107E+03;-0.044296619;0.0;0.35510221;17164.506
  1.0209876E+00;  9.9999998E-03; -1.0020354E-01;2620;0.33736715;0.0;-0.03308811;1010.7809;  4.0482715E-01;8848.1387;3;77.24929;0.0;4.2448311;0;0.28097665;  1.0015272E+04;  0.0000000E+00;  8.4874009E-06;  1.0000000E+04;  0.0000000E+00;  9.9594004E+03;-0.070387468;0.0;0.35136414;17449.314
  1.0209681E+00;  9.9999998E-03; -8.0163620E-02;2621;0.33380741;0.0;-0.02662003;1010.8137;  4.0482736E-01;8875.0674;3;77.168152;0.0;3.7186685;0;0.25339964;  1.0016314E+04;  0.0000000E+00;  7.6090350E-06;  1.0000000E+04;  0.0000000E+00;  9.9590068E+03;-0.091864981;0.0;0.34526461;17637.57
  1.0209529E+00;  9.9999998E-03; -6.0124572E-02;2622;0.33112296;0.0;-0.020366222;1010.8356;  4.0482736E-01;8893.0898;3;77.120522;0.0;3.0150154;0;0.2318947;  1.0017077E+04;  0.0000000E+00; -5.6832146E-06;  1.0000000E+04;  0.0000000E+00;  9.9586738E+03;-0.10907201;0.0;0.3409667;17794.186
  1.0209420E+00;  9.9999998E-03; -4.0084641E-02;2623;0.32921627;0.0;-0.013895686;1010.8459;  4.0482745E-01;8901.5166;3;77.120422;0.0;2.1481745;0;0.2176469;  1.0017599E+04;  0.0000000E+00; -9.6103731E-06;  1.0000000E+04;  0.0000000E+00;  9.9583584E+03;-0.12175867;0.0;0.33940557;17939.885
  1.0209353E+00;  9.9999998E-03; -2.0042948E-02;2624;0.32807153;0.0;-0.007054579;1010.8488;  4.0482754E-01;8903.873;3;77.176064;0.0;1.1468127;0;0.20991093;  1.0017908E+04;  0.0000000E+00; -3.9390134E-06;  1.0000000E+04;  0.0000000E+00;  9.9581035E+03;-0.12955835;0.0;0.33946928;18053.135
  1.0411075E+00;  9.9999998E-03; -1.8033825E-01;2647;0.36127931;0.0;-0.062526591;1009.2872;  4.0417850E-01;7597.3916;3;78.237495;0.0;3.8736389;0;0.25692418;  1.0009796E+04;  0.0000000E+00; -3.0261250E-02;  1.0000000E+04;  0.0000000E+00;  9.9673320E+03;-0.016183119;0.0;0.27310729;13466.424
  1.0410614E+00;  9.9999998E-03; -1.6030434E-01;2648;0.35210389;0.0;-0.054867782;1009.4037;  4.0417859E-01;7692.833;3;77.959641;0.0;4.100759;0;0.23848742;  1.0013631E+04;  0.0000000E+00; -3.4192228E-03;  1.0000000E+04;  0.0000000E+00;  9.9657988E+03;-0.068061687;0.0;0.3065491;14106.786
  1.0410229E+00;  9.9999998E-03; -1.4026788E-01;2649;0.34464833;0.0;-0.047214042;1009.4747;  4.0417862E-01;7751.0107;3;77.937462;0.0;4.1420689;0;0.22079597;  1.0016478E+04;  0.0000000E+00; -3.5062674E-04;  1.0000000E+04;  0.0000000E+00;  9.9643652E+03;-0.10723938;0.0;0.32803535;14710.963
  1.0409912E+00;  9.9999998E-03; -1.2022834E-01;2650;0.33854967;0.0;-0.039664648;1009.5236;  4.0417877E-01;7790.9429;3;77.826172;0.0;3.8568199;0;0.19899961;  1.0018516E+04;  0.0000000E+00; -1.4593318E-04;  1.0000000E+04;  0.0000000E+00;  9.9632910E+03;-0.13766161;0.0;0.33666122;15170.712
  1.0409659E+00;  9.9999998E-03; -1.0018916E-01;2651;0.33373556;0.0;-0.032707911;1009.5631;  4.0417901E-01;7823.3569;3;77.705933;0.0;3.4315197;0;0.17459391;  1.0020010E+04;  0.0000000E+00; -1.5316855E-05;  1.0000000E+04;  0.0000000E+00;  9.9625859E+03;-0.1623707;0.0;0.33696461;15480.987
  1.0409459E+00;  9.9999998E-03; -8.0151364E-02;2652;0.32995868;0.0;-0.026179202;1009.5948;  4.0417913E-01;7849.3276;3;77.627533;0.0;2.8229885;0;0.15170093;  1.0021094E+04;  0.0000000E+00;  1.9965395E-05;  1.0000000E+04;  0.0000000E+00;  9.9621260E+03;-0.18255816;0.0;0.33425909;15687.797
  1.0409303E+00;  9.9999998E-03; -6.0114559E-02;2653;0.32705435;0.0;-0.019781889;1009.6165;  4.0417925E-01;7867.0996;3;77.60054;0.0;2.2665637;0;0.13363853;  1.0021865E+04;  0.0000000E+00;  9.2148775E-06;  1.0000000E+04;  0.0000000E+00;  9.9617881E+03;-0.19841927;0.0;0.3320578;15840.513
  1.0409188E+00;  9.9999998E-03; -4.0077340E-02;2654;0.32497674;0.0;-0.01327238;1009.629;  4.0417933E-01;7877.3564;3;77.697105;0.0;1.747447;0;0.12147482;  1.0022379E+04;  0.0000000E+00; -2.4103983E-06;  1.0000000E+04;  0.0000000E+00;  9.9615166E+03;-0.20987378;0.0;0.3313486;15961.827
  1.0409119E+00;  9.9999998E-03; -2.0039108E-02;2655;0.32371369;0.0;-0.0066847294;1009.6339;  4.0417928E-01;7881.3647;3;77.833862;0.0;0.98968667;0;0.11474101;  1.0022680E+04;  0.0000000E+00; -2.3625676E-06;  1.0000000E+04;  0.0000000E+00;  9.9613184E+03;-0.21680598;0.0;0.33154699;16047.018
  1.0610901E+00;  9.9999998E-03; -1.8030971E-01;2678;0.35879517;0.0;-0.059324726;1008.1362;  4.0360790E-01;6627.2979;3;78.937042;0.0;2.5529468;0;0.16589749;  1.0012292E+04;  0.0000000E+00; -9.7107098E-02;  1.0000000E+04;  0.0000000E+00;  9.9702432E+03;-0.082964204;0.0;0.2488617;11687.44
  1.0610410E+00;  9.9999998E-03; -1.6027968E-01;2679;0.348809;0.0;-0.052673835;1008.2479;  4.0360805E-01;6718.3623;3;78.374107;0.0;2.9542024;0;0.15255062;  1.0015710E+04;  0.0000000E+00; -1.6793385E-02;  1.0000000E+04;  0.0000000E+00;  9.9690361E+03;-0.12617756;0.0;0.27872819;12166.112
  1.0610003E+00;  9.9999998E-03; -1.4024720E-01;2680;0.34081677;0.0;-0.045793235;1008.327;  4.0360826E-01;6782.8096;3;78.263626;0.0;3.041338;0;0.13872246;  1.0018602E+04;  0.0000000E+00; -9.1108464E-04;  1.0000000E+04;  0.0000000E+00;  9.9677139E+03;-0.16246583;0.0;0.30118829;12698.831
  1.0609672E+00;  9.9999998E-03; -1.2021212E-01;2681;0.33429334;0.0;-0.038820855;1008.3851;  4.0360841E-01;6830.252;3;78.132553;0.0;3.0941975;0;0.12079923;  1.0020874E+04;  0.0000000E+00; -3.0022621E-04;  1.0000000E+04;  0.0000000E+00;  9.9665977E+03;-0.19294716;0.0;0.31374639;13153.492
  1.0609407E+00;  9.9999998E-03; -1.0017592E-01;2682;0.32915139;0.0;-0.032108732;1008.4301;  4.0360841E-01;6866.8081;3;78.075294;0.0;2.7983809;0;0.10031377;  1.0022580E+04;  0.0000000E+00; -6.1395163E-05;  1.0000000E+04;  0.0000000E+00;  9.9657852E+03;-0.21847616;0.0;0.31878993;13490.646
  1.0609199E+00;  9.9999998E-03; -8.0140322E-02;2683;0.32503423;0.0;-0.025572879;1008.4641;  4.0360859E-01;6894.6147;3;78.069489;0.0;2.3828695;0;0.080777794;  1.0023827E+04;  0.0000000E+00;  3.1124549E-05;  1.0000000E+04;  0.0000000E+00;  9.9652158E+03;-0.23935676;0.0;0.32013455;13729.237
  1.0609038E+00;  9.9999998E-03; -6.0105391E-02;2684;0.32184556;0.0;-0.019223865;1008.4877;  4.0360868E-01;6913.8687;3;78.08847;0.0;1.8402505;0;0.065006912;  1.0024700E+04;  0.0000000E+00;  3.3976670E-05;  1.0000000E+04;  0.0000000E+00;  9.9648125E+03;-0.2555123;0.0;0.32051921;13898.238
  1.0608921E+00;  9.9999998E-03; -4.0070627E-02;2685;0.31952518;0.0;-0.012880499;1008.5021;  4.0360874E-01;6925.6392;3;78.151909;0.0;1.2391678;0;0.054057598;  1.0025269E+04;  0.0000000E+00;  1.3640840E-05;  1.0000000E+04;  0.0000000E+00;  9.9645303E+03;-0.2669453;0.0;0.3210029;14016.525
  1.0608848E+00;  9.9999998E-03; -2.0035461E-02;2686;0.31813878;0.0;-0.0064395289;1008.509;  4.0360871E-01;6931.2837;3;78.205109;0.0;0.58096677;0;0.047792405;  1.0025582E+04;  0.0000000E+00;  2.2355748E-06;  1.0000000E+04;  0.0000000E+00;  9.9643525E+03;-0.27374679;0.0;0.32153919;14089.727
  1.0810717E+00;  9.9999998E-03; -1.8027925E-01;2709;0.35584524;0.0;-0.055175662;1007.0967;  4.0311801E-01;5747.4683;3;79.570885;0.0;1.3896998;0;0.098596245;  1.0013409E+04;  0.0000000E+00; -2.4337153E-01;  1.0000000E+04;  0.0000000E+00;  9.9727637E+03;-0.12548539;0.0;0.22408164;10102.307
  1.0810196E+00;  9.9999998E-03; -1.6025509E-01;2710;0.34501275;0.0;-0.049950738;1007.1979;  4.0311837E-01;5829.5352;3;78.654099;0.0;1.8277309;0;0.089623004;  1.0016181E+04;  0.0000000E+00; -6.1721362E-02;  1.0000000E+04;  0.0000000E+00;  9.9719961E+03;-0.15901883;0.0;0.24864183;10351.403
  1.0809760E+00;  9.9999998E-03; -1.4022650E-01;2711;0.33615896;0.0;-0.043957293;1007.2877;  4.0311849E-01;5902.417;3;78.365425;0.0;2.0710242;0;0.078297004;  1.0019021E+04;  0.0000000E+00; -5.9219752E-03;  1.0000000E+04;  0.0000000E+00;  9.9709395E+03;-0.19227915;0.0;0.27057615;10755.885
  1.0809412E+00;  9.9999998E-03; -1.2019602E-01;2712;0.32914454;0.0;-0.037676267;1007.3619;  4.0311852E-01;5962.5381;3;78.268356;0.0;2.1429636;0;0.062624514;  1.0021579E+04;  0.0000000E+00; -5.3780776E-04;  1.0000000E+04;  0.0000000E+00;  9.9698672E+03;-0.22396544;0.0;0.28658995;11169.616
  1.0809133E+00;  9.9999998E-03; -1.0016332E-01;2713;0.32349771;0.0;-0.031224899;1007.4189;  4.0311846E-01;6008.7441;3;78.229332;0.0;2.1009598;0;0.044703871;  1.0023602E+04;  0.0000000E+00; -1.9282028E-04;  1.0000000E+04;  0.0000000E+00;  9.9689795E+03;-0.25177953;0.0;0.2964834;11515.298
  1.0808914E+00;  9.9999998E-03; -8.0130219E-02;2714;0.31901288;0.0;-0.02483093;1007.46;  4.0311870E-01;6042.0977;3;78.211441;0.0;1.8553566;0;0.027460605;  1.0025102E+04;  0.0000000E+00; -9.6029480E-06;  1.0000000E+04;  0.0000000E+00;  9.9682979E+03;-0.27476928;0.0;0.30222988;11781.428
  1.0808747E+00;  9.9999998E-03; -6.0097322E-02;2715;0.31551814;0.0;-0.018505603;1007.4874;  4.0311861E-01;6064.3379;3;78.22155;0.0;1.4973726;0;0.013192266;  1.0026142E+04;  0.0000000E+00;  3.9453967E-05;  1.0000000E+04;  0.0000000E+00;  9.9678018E+03;-0.29247883;0.0;0.3056711;11975.197
  1.0808625E+00;  9.9999998E-03; -4.0064778E-02;2716;0.31299785;0.0;-0.012303587;1007.5046;  4.0311888E-01;6078.2651;3;78.276726;0.0;1.0420765;0;0.0029714108;  1.0026814E+04;  0.0000000E+00;  2.6946846E-05;  1.0000000E+04;  0.0000000E+00;  9.9674678E+03;-0.30486286;0.0;0.30783427;12106.121
  1.0808553E+00;  9.9999998E-03; -2.0032413E-02;2717;0.31147972;0.0;-0.0061757634;1007.5135;  4.0311879E-01;6085.5215;3;78.348015;0.0;0.52314591;0;-0.0030495524;  1.0027187E+04;  0.0000000E+00;  7.2878270E-06;  1.0000000E+04;  0.0000000E+00;  9.9672705E+03;-0.31213781;0.0;0.30908826;12181.792
  1.1010550E+00;  9.9999998E-03; -1.8024836E-01;2739;0.3527725;0.0;-0.050062448;1006.189;  4.0270701E-01;4974.5615;3;80.642929;0.0;0.45309061;0;0.047393337;  1.0013730E+04;  0.0000000E+00; -5.1496142E-01;  1.0000000E+04;  0.0000000E+00;  9.9748027E+03;-0.15385729;0.0;0.20125063;8835.3838
  1.1009983E+00;  9.9999998E-03; -1.6022755E-01;2740;0.34091595;0.0;-0.046126042;1006.2699;  4.0270743E-01;5039.7456;3;78.907257;0.0;0.94153136;0;0.042454898;  1.0015604E+04;  0.0000000E+00; -1.7803749E-01;  1.0000000E+04;  0.0000000E+00;  9.9745205E+03;-0.17687845;0.0;0.21933335;8754.7471
  1.1009521E+00;  9.9999998E-03; -1.4020544E-01;2741;0.33116502;0.0;-0.041563671;1006.3627;  4.0270752E-01;5114.3955;3;78.327896;0.0;1.1159317;0;0.03328836;  1.0018117E+04;  0.0000000E+00; -3.4174420E-02;  1.0000000E+04;  0.0000000E+00;  9.9738506E+03;-0.20545071;0.0;0.23873907;8977.0254
  1.1009145E+00;  9.9999998E-03; -1.2017927E-01;2742;0.32333335;0.0;-0.036182359;1006.4545;  4.0270746E-01;5188.3589;3;78.161652;0.0;1.2722673;0;0.019096553;  1.0020827E+04;  0.0000000E+00; -2.6432548E-03;  1.0000000E+04;  0.0000000E+00;  9.9729727E+03;-0.2373707;0.0;0.25646725;9298.3516
  1.1008850E+00;  9.9999998E-03; -1.0015098E-01;2743;0.31709617;0.0;-0.030272674;1006.5298;  4.0270746E-01;5248.8901;3;78.052963;0.0;1.3229994;0;0.0026443005;  1.0023201E+04;  0.0000000E+00; -4.4970526E-04;  1.0000000E+04;  0.0000000E+00;  9.9720986E+03;-0.26777482;0.0;0.27041912;9616.8164
  1.1008618E+00;  9.9999998E-03; -8.0120526E-02;2744;0.31213522;0.0;-0.024031727;1006.5841;  4.0270770E-01;5292.5435;3;78.015465;0.0;1.2634121;0;-0.013180375;  1.0025027E+04;  0.0000000E+00; -1.5904705E-04;  1.0000000E+04;  0.0000000E+00;  9.9713584E+03;-0.29353109;0.0;0.28035071;9887.9434
  1.1008443E+00;  9.9999998E-03; -6.0089909E-02;2745;0.3083052;0.0;-0.01779197;1006.6198;  4.0270761E-01;5321.2354;3;77.998383;0.0;1.0860721;0;-0.026482701;  1.0026324E+04;  0.0000000E+00; -2.0101354E-05;  1.0000000E+04;  0.0000000E+00;  9.9707744E+03;-0.31352881;0.0;0.2870461;10098.203
  1.1008317E+00;  9.9999998E-03; -4.0059496E-02;2746;0.30558899;0.0;-0.011691851;1006.6414;  4.0270776E-01;5338.7051;3;78.066818;0.0;0.75164163;0;-0.036217064;  1.0027151E+04;  0.0000000E+00;  1.3743718E-05;  1.0000000E+04;  0.0000000E+00;  9.9703721E+03;-0.32750788;0.0;0.29129082;10244.507
  1.1008244E+00;  9.9999998E-03; -2.0029608E-02;2747;0.30400589;0.0;-0.0058498019;1006.6525;  4.0270787E-01;5347.6338;3;78.131073;0.0;0.32057077;0;-0.042043865;  1.0027613E+04;  0.0000000E+00;  6.5969234E-06;  1.0000000E+04;  0.0000000E+00;  9.9701367E+03;-0.3356815;0.0;0.29363763;10329.389
  1.1210415E+00;  9.9999998E-03; -1.8021789E-01;2768;0.34983033;0.0;-0.044210546;1005.4226;  4.0237021E-01;4315.4419;3;82.229042;0.0;-0.35953417;0;0.0076082647;  1.0013654E+04;  0.0000000E+00; -9.6750689E-01;  1.0000000E+04;  0.0000000E+00;  9.9763691E+03;-0.17450675;0.0;0.18211502;8068.3071
  1.1209793E+00;  9.9999998E-03; -1.6019909E-01;2769;0.33682871;0.0;-0.041235723;1005.47;  4.0237060E-01;4353.353;3;79.421875;0.0;0.11919107;0;0.0068100691;  1.0014463E+04;  0.0000000E+00; -4.3385303E-01;  1.0000000E+04;  0.0000000E+00;  9.9764854E+03;-0.18697661;0.0;0.19378668;7490.415
  1.1209294E+00;  9.9999998E-03; -1.4018135E-01;2770;0.32623887;0.0;-0.038050368;1005.5502;  4.0237054E-01;4417.3281;3;78.281174;0.0;0.40501422;0;0.0008725822;  1.0016289E+04;  0.0000000E+00; -1.3513941E-01;  1.0000000E+04;  0.0000000E+00;  9.9762500E+03;-0.20819098;0.0;0.20906356;7449.6699
  1.1208893E+00;  9.9999998E-03; -1.2016121E-01;2771;0.31736413;0.0;-0.033860896;1005.6491;  4.0237081E-01;4496.082;3;77.798668;0.0;0.49928999;0;-0.011167541;  1.0018792E+04;  0.0000000E+00; -2.5055584E-02;  1.0000000E+04;  0.0000000E+00;  9.9757168E+03;-0.23706424;0.0;0.2258967;7627.8145
  1.1208574E+00;  9.9999998E-03; -1.0013729E-01;2772;0.31042358;0.0;-0.028874006;1005.7432;  4.0237069E-01;4571.0229;3;77.652748;0.0;0.63850623;0;-0.026351154;  1.0021372E+04;  0.0000000E+00; -2.4061739E-03;  1.0000000E+04;  0.0000000E+00;  9.9750117E+03;-0.26820448;0.0;0.24185333;7871.6587
  1.1208328E+00;  9.9999998E-03; -8.0110893E-02;2773;0.30484754;0.0;-0.023099104;1005.8169;  4.0237084E-01;4629.8184;3;77.519051;0.0;0.69976884;0;-0.041439712;  1.0023548E+04;  0.0000000E+00; -4.1716747E-04;  1.0000000E+04;  0.0000000E+00;  9.9743105E+03;-0.29638016;0.0;0.25494045;8112.8667
  1.1208142E+00;  9.9999998E-03; -6.0082749E-02;2774;0.30064178;0.0;-0.017087288;1005.867;  4.0237090E-01;4669.7173;3;77.494881;0.0;0.68171823;0;-0.054261774;  1.0025153E+04;  0.0000000E+00; -1.6992136E-04;  1.0000000E+04;  0.0000000E+00;  9.9737080E+03;-0.31880978;0.0;0.264548;8316.5449
  1.1208012E+00;  9.9999998E-03; -4.0054742E-02;2775;0.2977424;0.0;-0.011269438;1005.8977;  4.0237078E-01;4694.2314;3;77.578194;0.0;0.32322603;0;-0.06373921;  1.0026214E+04;  0.0000000E+00; -4.7870592E-05;  1.0000000E+04;  0.0000000E+00;  9.9732637E+03;-0.33467707;0.0;0.27093786;8466.2979
  1.1207936E+00;  9.9999998E-03; -2.0027209E-02;2776;0.29603413;0.0;-0.005636848;1005.9138;  4.0237072E-01;4707.061;3;77.56218;0.0;0.16169195;0;-0.069445252;  1.0026807E+04;  0.0000000E+00; -7.2048906E-06;  1.0000000E+04;  0.0000000E+00;  9.9729932E+03;-0.34400803;0.0;0.27456278;8556.2598
  1.1410321E+00;  9.9999998E-03; -1.8018982E-01;2796;0.34726331;0.0;-0.038238741;1004.8015;  4.0210018E-01;3772.0691;3;85.059578;0.0;-1.1915731;0;-0.024000362;  1.0013498E+04;  0.0000000E+00; -1.6396768E+00;  1.0000000E+04;  0.0000000E+00;  9.9775947E+03;-0.19135173;0.0;0.16735137;7954.7163
  1.1409647E+00;  9.9999998E-03; -1.6017170E-01;2797;0.33338705;0.0;-0.035746112;1004.8077;  4.0210021E-01;3777.125;3;80.632401;0.0;-0.49960649;0;-0.02133809;  1.0013279E+04;  0.0000000E+00; -9.1108894E-01;  1.0000000E+04;  0.0000000E+00;  9.9779199E+03;-0.19521342;0.0;0.17387533;6752.8101
  1.1409098E+00;  9.9999998E-03; -1.4015576E-01;2798;0.32148978;0.0;-0.033313811;1004.8564;  4.0210044E-01;3815.5837;3;78.533165;0.0;-0.25723535;0;-0.022601575;  1.0014114E+04;  0.0000000E+00; -3.9732555E-01;  1.0000000E+04;  0.0000000E+00;  9.9780430E+03;-0.20709841;0.0;0.18449683;6271.127
  1.1408664E+00;  9.9999998E-03; -1.2014031E-01;2799;0.31193355;0.0;-0.0305376;1004.9423;  4.0210053E-01;3883.1416;3;77.596367;0.0;-0.064756922;0;-0.030514225;  1.0015963E+04;  0.0000000E+00; -1.2940340E-01;  1.0000000E+04;  0.0000000E+00;  9.9779063E+03;-0.22872229;0.0;0.19820806;6231.041
  1.1408321E+00;  9.9999998E-03; -1.0012195E-01;2800;0.30384195;0.0;-0.026560642;1005.0417;  4.0210044E-01;3961.3555;3;77.083038;0.0;0.029272197;0;-0.043112129;  1.0018322E+04;  0.0000000E+00; -2.9747320E-02;  1.0000000E+04;  0.0000000E+00;  9.9775313E+03;-0.25633311;0.0;0.21322098;6354.168
  1.1408055E+00;  9.9999998E-03; -8.0099702E-02;2801;0.29768339;0.0;-0.021725643;1005.1319;  4.0210056E-01;4032.2441;3;76.876762;0.0;0.21051301;0;-0.057019606;  1.0020635E+04;  0.0000000E+00; -4.4507785E-03;  1.0000000E+04;  0.0000000E+00;  9.9770176E+03;-0.28428727;0.0;0.22726767;6524.7178
  1.1407859E+00;  9.9999998E-03; -6.0075302E-02;2802;0.29297063;0.0;-0.016217859;1005.2003;  4.0210050E-01;4086.0671;3;76.81356;0.0;0.20256321;0;-0.069556013;  1.0022521E+04;  0.0000000E+00; -5.3971831E-04;  1.0000000E+04;  0.0000000E+00;  9.9765020E+03;-0.30818161;0.0;0.2386256;6691.1953
  1.1407723E+00;  9.9999998E-03; -4.0049974E-02;2803;0.28985232;0.0;-0.010828727;1005.2453;  4.0210053E-01;4121.5146;3;76.837646;0.0;0.039186172;0;-0.079027936;  1.0023846E+04;  0.0000000E+00; -1.4792982E-04;  1.0000000E+04;  0.0000000E+00;  9.9760820E+03;-0.32569563;0.0;0.2466677;6823.7217
  1.1407644E+00;  9.9999998E-03; -2.0024927E-02;2804;0.2879667;0.0;-0.0054091956;1005.2698;  4.0210044E-01;4140.7407;3;76.7798;0.0;0.035663862;0;-0.084760666;  1.0024601E+04;  0.0000000E+00; -3.3542325E-05;  1.0000000E+04;  0.0000000E+00;  9.9758154E+03;-0.33616695;0.0;0.25140628;6906.9683
  1.1610284E+00;  9.9999998E-03; -1.8016763E-01;2823;0.34491315;0.0;-0.032474723;1004.313;  4.0188807E-01;3332.3923;3;89.84568;0.0;-1.7546557;0;-0.049210191;  1.0013308E+04;  0.0000000E+00; -2.5019810E+00;  1.0000000E+04;  0.0000000E+00;  9.9786094E+03;-0.20519716;0.0;0.15598696;8331.751
  1.1609554E+00;  9.9999998E-03; -1.6014792E-01;2824;0.3307173;0.0;-0.030331045;1004.2933;  4.0188840E-01;3317.4214;3;83.428215;0.0;-1.0979825;0;-0.04570365;  1.0012519E+04;  0.0000000E+00; -1.6570648E+00;  1.0000000E+04;  0.0000000E+00;  9.9789854E+03;-0.2055742;0.0;0.15987055;6717.3818
  1.1608952E+00;  9.9999998E-03; -1.4013177E-01;2825;0.31773823;0.0;-0.028172199;1004.298;  4.0188864E-01;3321.2009;3;79.72493;0.0;-0.69730955;0;-0.042310581;  1.0012283E+04;  0.0000000E+00; -9.1755247E-01;  1.0000000E+04;  0.0000000E+00;  9.9793008E+03;-0.20870908;0.0;0.1663985;5629.9482
  1.1608473E+00;  9.9999998E-03; -1.2011776E-01;2826;0.30680403;0.0;-0.025926232;1004.3483;  4.0188855E-01;3360.2251;3;77.872864;0.0;-0.56208074;0;-0.044305831;  1.0013093E+04;  0.0000000E+00; -4.1996029E-01;  1.0000000E+04;  0.0000000E+00;  9.9794951E+03;-0.22023447;0.0;0.17592864;5190.7085
  1.1608101E+00;  9.9999998E-03; -1.0010375E-01;2827;0.29815039;0.0;-0.023279585;1004.4303;  4.0188849E-01;3423.7234;3;76.805939;0.0;-0.35445201;0;-0.051972866;  1.0014731E+04;  0.0000000E+00; -1.5744846E-01;  1.0000000E+04;  0.0000000E+00;  9.9794873E+03;-0.23958857;0.0;0.18761571;5119.4419
  1.1607815E+00;  9.9999998E-03; -8.0086805E-02;2828;0.29100209;0.0;-0.019442024;1004.5199;  4.0188855E-01;3493.0947;3;76.254234;0.0;-0.1853753;0;-0.062869787;  1.0016711E+04;  0.0000000E+00; -4.7509126E-02;  1.0000000E+04;  0.0000000E+00;  9.9792920E+03;-0.26262072;0.0;0.19975093;5181.5967
  1.1607603E+00;  9.9999998E-03; -6.0066365E-02;2829;0.28585872;0.0;-0.014961097;1004.5983;  4.0188846E-01;3553.7852;3;76.122307;0.0;-0.18465987;0;-0.073944435;  1.0018568E+04;  0.0000000E+00; -1.0712276E-02;  1.0000000E+04;  0.0000000E+00;  9.9790000E+03;-0.28454551;0.0;0.21060108;5279.7515
  1.1607460E+00;  9.9999998E-03; -4.0044580E-02;2830;0.28233674;0.0;-0.010118382;1004.6557;  4.0188846E-01;3598.147;3;76.002495;0.0;-0.22290434;0;-0.083002761;  1.0020015E+04;  0.0000000E+00; -1.6860031E-03;  1.0000000E+04;  0.0000000E+00;  9.9787090E+03;-0.30196297;0.0;0.21896021;5372.2158
  1.1607378E+00;  9.9999998E-03; -2.0022389E-02;2831;0.28030735;0.0;-0.0050937957;1004.6901;  4.0188846E-01;3624.8005;3;75.925636;0.0;-0.092732467;0;-0.088733733;  1.0020907E+04;  0.0000000E+00; -1.1794990E-04;  1.0000000E+04;  0.0000000E+00;  9.9785000E+03;-0.31289572;0.0;0.22416198;5435.2124
  1.1810349E+00;  9.9999998E-03; -1.8015586E-01;2849;0.34247479;0.0;-0.027058246;1003.8781;  4.0172532E-01;2933.7864;3;97.402664;0.0;-1.7231166;0;-0.066202238;  1.0012139E+04;  0.0000000E+00; -3.4075418E+00;  1.0000000E+04;  0.0000000E+00;  9.9792324E+03;-0.21107833;0.0;0.14487609;8639.2607
  1.1809542E+00;  9.9999998E-03; -1.6013214E-01;2850;0.32852015;0.0;-0.025343837;1003.908;  4.0172526E-01;2956.7935;3;88.673134;0.0;-1.358072;0;-0.067035988;  1.0012155E+04;  0.0000000E+00; -2.6110201E+00;  1.0000000E+04;  0.0000000E+00;  9.9797852E+03;-0.2173395;0.0;0.15030351;7143.1943
  1.1808866E+00;  9.9999998E-03; -1.4011261E-01;2851;0.31485096;0.0;-0.023195583;1003.8896;  4.0172562E-01;2943.0474;3;82.913002;0.0;-1.0534501;0;-0.062982231;  1.0011331E+04;  0.0000000E+00; -1.7292577E+00;  1.0000000E+04;  0.0000000E+00;  9.9802266E+03;-0.21709605;0.0;0.15411381;5664.6206
  1.1808336E+00;  9.9999998E-03; -1.2009754E-01;2852;0.30282333;0.0;-0.021133883;1003.891;  4.0172568E-01;2944.313;3;79.296906;0.0;-0.79634941;0;-0.059236363;  1.0010972E+04;  0.0000000E+00; -9.9136215E-01;  1.0000000E+04;  0.0000000E+00;  9.9806064E+03;-0.21894599;0.0;0.15970963;4681.3779
  1.1807925E+00;  9.9999998E-03; -1.0008459E-01;2853;0.29302561;0.0;-0.018870579;1003.9307;  4.0172565E-01;2974.4954;3;77.293724;0.0;-0.67342854;0;-0.060203657;  1.0011476E+04;  0.0000000E+00; -4.8988926E-01;  1.0000000E+04;  0.0000000E+00;  9.9808936E+03;-0.22708873;0.0;0.16688508;4242.0923
  1.1807612E+00;  9.9999998E-03; -8.0071442E-02;2854;0.28549895;0.0;-0.016321149;1003.995;  4.0172568E-01;3023.2292;3;76.289833;0.0;-0.53340292;0;-0.065622419;  1.0012616E+04;  0.0000000E+00; -2.0603608E-01;  1.0000000E+04;  0.0000000E+00;  9.9810352E+03;-0.24060036;0.0;0.17497794;4121.8379
  1.1807386E+00;  9.9999998E-03; -6.0055938E-02;2855;0.27964067;0.0;-0.012913633;1004.0639;  4.0172556E-01;3075.4546;3;75.666634;0.0;-0.45405257;0;-0.073293701;  1.0013986E+04;  0.0000000E+00; -7.0435904E-02;  1.0000000E+04;  0.0000000E+00;  9.9810410E+03;-0.25607011;0.0;0.18277641;4123.4893
  1.1807233E+00;  9.9999998E-03; -4.0038127E-02;2856;0.27582273;0.0;-0.0089981575;1004.1218;  4.0172571E-01;3119.3552;3;75.407738;0.0;-0.39820698;0;-0.080590978;  1.0015217E+04;  0.0000000E+00; -1.7844627E-02;  1.0000000E+04;  0.0000000E+00;  9.9809668E+03;-0.26992223;0.0;0.18933125;4158.0908
  1.1807146E+00;  9.9999998E-03; -2.0019228E-02;2857;0.273572;0.0;-0.0045851259;1004.1599;  4.0172562E-01;3148.2568;3;75.213371;0.0;-0.20702061;0;-0.085657448;  1.0016053E+04;  0.0000000E+00; -2.4498515E-03;  1.0000000E+04;  0.0000000E+00;  9.9808877E+03;-0.27936018;0.0;0.19370273;4189.3325
  1.2010477E+00;  9.9999998E-03; -1.8015255E-01;2873;0.3395555;0.0;-0.022642996;1003.3777;  4.0160272E-01;2489.1509;3;108.21574;0.0;-1.3415928;0;-0.063076615;  1.0008146E+04;  0.0000000E+00; -3.9256270E+00;  1.0000000E+04;  0.0000000E+00;  9.9793535E+03;-0.19599406;0.0;0.13291745;7983.3799
  1.2009674E+00;  9.9999998E-03; -1.6012934E-01;2874;0.32658392;0.0;-0.021132991;1003.5306;  4.0160283E-01;2602.165;3;96.582932;0.0;-0.91017824;0;-0.076848432;  1.0010544E+04;  0.0000000E+00; -3.5821688E+00;  1.0000000E+04;  0.0000000E+00;  9.9799902E+03;-0.21997668;0.0;0.14312825;7407.0845
  1.2008892E+00;  9.9999998E-03; -1.4010429E-01;2875;0.312646;0.0;-0.019036131;1003.5944;  4.0160289E-01;2649.47;3;89.017586;0.0;-0.99702078;0;-0.082771286;  1.0010944E+04;  0.0000000E+00; -2.7143183E+00;  1.0000000E+04;  0.0000000E+00;  9.9808457E+03;-0.22883958;0.0;0.14606829;6019.8706
  1.2008270E+00;  9.9999998E-03; -1.2008388E-01;2876;0.29972956;0.0;-0.016634151;1003.5825;  4.0160295E-01;2640.9204;3;83.015152;0.0;-0.82349634;0;-0.079557225;  1.0010084E+04;  0.0000000E+00; -1.8116878E+00;  1.0000000E+04;  0.0000000E+00;  9.9814541E+03;-0.22761689;0.0;0.14805967;4715.3174
  1.2007806E+00;  9.9999998E-03; -1.0006884E-01;2877;0.28919864;0.0;-0.014586531;1003.5698;  4.0160304E-01;2631.6938;3;79.431183;0.0;-0.73597682;0;-0.074533671;  1.0009364E+04;  0.0000000E+00; -1.0637906E+00;  1.0000000E+04;  0.0000000E+00;  9.9819121E+03;-0.22540341;0.0;0.15086974;3829.4268
  1.2007462E+00;  9.9999998E-03; -8.0056481E-02;2878;0.28068995;0.0;-0.0123014;1003.5855;  4.0160307E-01;2643.426;3;77.330521;0.0;-0.6232866;0;-0.073361859;  1.0009301E+04;  0.0000000E+00; -5.3805083E-01;  1.0000000E+04;  0.0000000E+00;  9.9822832E+03;-0.22724709;0.0;0.15388523;3392.9624
  1.2007213E+00;  9.9999998E-03; -6.0044348E-02;2879;0.27466679;0.0;-0.010060397;1003.6218;  4.0160310E-01;2670.3279;3;76.327332;0.0;-0.61468697;0;-0.075567767;  1.0009759E+04;  0.0000000E+00; -2.2554237E-01;  1.0000000E+04;  0.0000000E+00;  9.9825508E+03;-0.23267713;0.0;0.15710936;3240.2356
  1.2007048E+00;  9.9999998E-03; -4.0030710E-02;2880;0.27045923;0.0;-0.0072588143;1003.6625;  4.0160298E-01;2700.4512;3;75.465225;0.0;-0.4901228;0;-0.079629451;  1.0010416E+04;  0.0000000E+00; -7.2213046E-02;  1.0000000E+04;  0.0000000E+00;  9.9827109E+03;-0.23963968;0.0;0.16001023;3202.7583
  1.2006955E+00;  9.9999998E-03; -2.0015649E-02;2881;0.2680622;0.0;-0.0037990557;1003.6935;  4.0160301E-01;2723.3403;3;75.251274;0.0;-0.29375139;0;-0.083166674;  1.0010959E+04;  0.0000000E+00; -1.3507486E-02;  1.0000000E+04;  0.0000000E+00;  9.9827900E+03;-0.24527618;0.0;0.16210951;3198.052
  1.2210531E+00;  9.9999998E-03; -1.8015361E-01;2896;0.33534381;0.0;-0.020384386;1002.7861;  4.0151262E-01;1988.8079;3;123.03567;0.0;-1.7027791;0;-0.022106782;  1.0001058E+04;  0.0000000E+00; -3.0870023E+00;  1.0000000E+04;  0.0000000E+00;  9.9791357E+03;-0.14984755;0.0;0.12774077;5442.2261
  1.2209840E+00;  9.9999998E-03; -1.6013180E-01;2897;0.32366711;0.0;-0.017642749;1003.0428;  4.0151262E-01;2172.3682;3;108.3119;0.0;-0.34749332;0;-0.063059226;  1.0005513E+04;  0.0000000E+00; -3.9382870E+00;  1.0000000E+04;  0.0000000E+00;  9.9798018E+03;-0.19745842;0.0;0.13439919;6506.5439
  1.2209088E+00;  9.9999998E-03; -1.4010951E-01;2898;0.31109753;0.0;-0.016051782;1003.232;  4.0151253E-01;2307.7346;3;97.733543;0.0;-0.26236898;0;-0.082974628;  1.0008354E+04;  0.0000000E+00; -3.5730014E+00;  1.0000000E+04;  0.0000000E+00;  9.9807207E+03;-0.22412252;0.0;0.1411479;6002.0342
  1.2208364E+00;  9.9999998E-03; -1.2008476E-01;2899;0.297609;0.0;-0.01340986;1003.334;  4.0151262E-01;2380.895;3;89.973236;0.0;-0.3299025;0;-0.097031817;  1.0009285E+04;  0.0000000E+00; -2.6767190E+00;  1.0000000E+04;  0.0000000E+00;  9.9818135E+03;-0.23686211;0.0;0.13983029;4830.2983
  1.2207788E+00;  9.9999998E-03; -1.0006307E-01;2900;0.28622362;0.0;-0.010939031;1003.3397;  4.0151274E-01;2385.1338;3;84.612083;0.0;-0.46000558;0;-0.095910788;  1.0008582E+04;  0.0000000E+00; -1.7514399E+00;  1.0000000E+04;  0.0000000E+00;  9.9826182E+03;-0.23383941;0.0;0.13792862;3728.1582
  1.2207381E+00;  9.9999998E-03; -8.0046967E-02;2901;0.27707416;0.0;-0.0087424461;1003.3137;  4.0151268E-01;2366.8259;3;80.701019;0.0;-0.48992199;0;-0.090769067;  1.0007503E+04;  0.0000000E+00; -9.9436492E-01;  1.0000000E+04;  0.0000000E+00;  9.9831709E+03;-0.2267538;0.0;0.13598473;2987.9036
  1.2207099E+00;  9.9999998E-03; -6.0034767E-02;2902;0.27041179;0.0;-0.0067595285;1003.3021;  4.0151268E-01;2358.5969;3;78.426476;0.0;-0.47213736;0;-0.087469429;  1.0006847E+04;  0.0000000E+00; -4.7145692E-01;  1.0000000E+04;  0.0000000E+00;  9.9835898E+03;-0.22161995;0.0;0.13415052;2628.1516
  1.2206914E+00;  9.9999998E-03; -4.0024035E-02;2903;0.26598915;0.0;-0.004957723;1003.3084;  4.0151277E-01;2363.1853;3;77.33812;0.0;-0.41078401;0;-0.087177426;  1.0006658E+04;  0.0000000E+00; -1.7260776E-01;  1.0000000E+04;  0.0000000E+00;  9.9839063E+03;-0.21992756;0.0;0.13275014;2499.0383
  1.2206810E+00;  9.9999998E-03; -2.0012408E-02;2904;0.26347733;0.0;-0.0026830069;1003.3204;  4.0151277E-01;2371.8289;3;76.716255;0.0;-0.27390406;0;-0.088339671;  1.0006695E+04;  0.0000000E+00; -3.6554251E-02;  1.0000000E+04;  0.0000000E+00;  9.9841045E+03;-0.22017498;0.0;0.13183531;2458.644
  1.2410339E+00;  9.9999998E-03; -1.8014988E-01;2917;0.32723737;0.0;-0.019375738;1002.4235;  4.0144765E-01;1666.2566;3;139.85873;0.0;-3.3432412;0;0.01571992;  9.9963750E+03;  0.0000000E+00; -2.2081587E-02;  1.0000000E+04;  0.0000000E+00;  9.9798281E+03;-0.11446877;0.0;0.13018869;2356.3381
  1.2409823E+00;  9.9999998E-03; -1.6013135E-01;2918;0.31812823;0.0;-0.015661437;1002.5855;  4.0144747E-01;1777.8263;3;124.16363;0.0;-1.2057977;0;-0.026910901;  9.9992959E+03;  0.0000000E+00; -2.4524927E+00;  1.0000000E+04;  0.0000000E+00;  9.9801338E+03;-0.15391168;0.0;0.12700078;3728.7725
  1.2409240E+00;  9.9999998E-03; -1.4011435E-01;2919;0.30753815;0.0;-0.013480143;1002.7487;  4.0144762E-01;1890.264;3;110.72466;0.0;-0.018167937;0;-0.055986851;  1.0002196E+04;  0.0000000E+00; -3.4009638E+00;  1.0000000E+04;  0.0000000E+00;  9.9804883E+03;-0.18948503;0.0;0.13349818;4643.9067
  1.2408608E+00;  9.9999998E-03; -1.2009488E-01;2920;0.29548219;0.0;-0.011102205;1002.926;  4.0144756E-01;2012.4229;3;100.14339;0.0;0.55988181;0;-0.089410439;  1.0004794E+04;  0.0000000E+00; -3.1594715E+00;  1.0000000E+04;  0.0000000E+00;  9.9814199E+03;-0.22221303;0.0;0.13280259;4378.6025
  1.2407991E+00;  9.9999998E-03; -1.0007358E-01;2921;0.28418624;0.0;-0.0089305053;1003.0505;  4.0144753E-01;2098.2808;3;92.743446;0.0;0.3794958;0;-0.10493912;  1.0006163E+04;  0.0000000E+00; -2.3209014E+00;  1.0000000E+04;  0.0000000E+00;  9.9825293E+03;-0.23318398;0.0;0.12824486;3530.666
  1.2407471E+00;  9.9999998E-03; -8.0052115E-02;2922;0.2741954;0.0;-0.0063303737;1003.1022;  4.0144745E-01;2134.0923;3;87.267044;0.0;0.23649454;0;-0.11054717;  1.0006214E+04;  0.0000000E+00; -1.4148082E+00;  1.0000000E+04;  0.0000000E+00;  9.9834990E+03;-0.23125111;0.0;0.12070394;2713.8726
  1.2407103E+00;  9.9999998E-03; -6.0034480E-02;2923;0.26708791;0.0;-0.0043628179;1003.0977;  4.0144745E-01;2131.2166;3;83.837868;0.0;-0.040479463;0;-0.10786337;  1.0005454E+04;  0.0000000E+00; -7.1761221E-01;  1.0000000E+04;  0.0000000E+00;  9.9841611E+03;-0.22174871;0.0;0.11388534;2221.302
  1.2406869E+00;  9.9999998E-03; -4.0021546E-02;2924;0.26221702;0.0;-0.0028043617;1003.0811;  4.0144742E-01;2119.8337;3;81.844666;0.0;-0.17237318;0;-0.10519075;  1.0004692E+04;  0.0000000E+00; -2.8241456E-01;  1.0000000E+04;  0.0000000E+00;  9.9845898E+03;-0.21349488;0.0;0.10830413;2014.4724
  1.2406741E+00;  9.9999998E-03; -2.0010883E-02;2925;0.25934184;0.0;-0.0014538377;1003.0731;  4.0144756E-01;2114.3933;3;80.648224;0.0;-0.091952473;0;-0.10424069;  1.0004257E+04;  0.0000000E+00; -6.3729294E-02;  1.0000000E+04;  0.0000000E+00;  9.9848584E+03;-0.20882797;0.0;0.10458728;1945.6266
  1.2609527E+00;  9.9999998E-03; -1.6012479E-01;2936;0.30727386;0.0;-0.014087552;1002.5072;  4.0140152E-01;1651.5956;3;140.15955;0.0;-2.4363613;0;-0.035120688;  9.9986133E+03;  0.0000000E+00;  9.1472590E-01;  1.0000000E+04;  0.0000000E+00;  9.9815518E+03;-0.15539649;0.0;0.1202758;2020.9401
  1.2609121E+00;  9.9999998E-03; -1.4011110E-01;2937;0.30004704;0.0;-0.011321787;1002.4791;  4.0140149E-01;1633.2135;3;127.05019;0.0;-0.88522851;0;-0.038660072;  9.9982988E+03;  0.0000000E+00; -1.1820078E+00;  1.0000000E+04;  0.0000000E+00;  9.9813008E+03;-0.1598524;0.0;0.12119233;2149.3269
  1.2608644E+00;  9.9999998E-03; -1.2009550E-01;2938;0.29001859;0.0;-0.0083985943;1002.5645;  4.0140149E-01;1689.7054;3;114.93866;0.0;0.35498941;0;-0.075153582;  9.9996270E+03;  0.0000000E+00; -2.1404040E+00;  1.0000000E+04;  0.0000000E+00;  9.9816689E+03;-0.19286889;0.0;0.11771531;2703.1111
  1.2608176E+00;  9.9999998E-03; -1.0008126E-01;2939;0.28027266;0.0;-0.0068111517;1002.6326;  4.0140149E-01;1734.7379;3;105.1749;0.0;0.82819664;0;-0.094712183;  1.0000450E+04;  0.0000000E+00; -2.1141362E+00;  1.0000000E+04;  0.0000000E+00;  9.9822061E+03;-0.21066968;0.0;0.1159575;2662.7441
  1.2607733E+00;  9.9999998E-03; -8.0063634E-02;2940;0.27084014;0.0;-0.0046019596;1002.7166;  4.0140134E-01;1790.2181;3;97.762962;0.0;1.149194;0;-0.11643545;  1.0001141E+04;  0.0000000E+00; -1.5129734E+00;  1.0000000E+04;  0.0000000E+00;  9.9831895E+03;-0.22277108;0.0;0.10633563;2225.7297
  1.2607368E+00;  9.9999998E-03; -6.0045768E-02;2941;0.26368171;0.0;-0.0030009903;1002.7665;  4.0140149E-01;1823.2853;3;92.773506;0.0;1.065871;0;-0.12189826;  1.0001215E+04;  0.0000000E+00; -8.3876103E-01;  1.0000000E+04;  0.0000000E+00;  9.9841025E+03;-0.21812685;0.0;0.096228585;1818.5262
  1.2607095E+00;  9.9999998E-03; -4.0028393E-02;2942;0.25853243;0.0;-0.0016665716;1002.797;  4.0140155E-01;1843.5121;3;90.105667;0.0;0.53430831;0;-0.12379139;  1.0001133E+04;  0.0000000E+00; -3.4431791E-01;  1.0000000E+04;  0.0000000E+00;  9.9847793E+03;-0.21087521;0.0;0.087083824;1608.203
  1.2606934E+00;  9.9999998E-03; -2.0013466E-02;2943;0.25544319;0.0;-0.00060585997;1002.8094;  4.0140143E-01;1851.7512;3;88.560753;0.0;0.21402763;0;-0.12411226;  1.0000994E+04;  0.0000000E+00; -7.9472348E-02;  1.0000000E+04;  0.0000000E+00;  9.9851738E+03;-0.20513995;0.0;0.081027687;1535.9316
  1.2808386E+00;  9.9999998E-03; -1.2008952E-01;2953;0.27963752;0.0;-0.006022389;1002.6;  4.0136939E-01;1634.0015;3;130.15332;0.0;-0.062882259;0;-0.10532155;  1.0000795E+04;  0.0000000E+00;  3.9781773E-01;  1.0000000E+04;  0.0000000E+00;  9.9828076E+03;-0.20371069;0.0;0.098389141;1522.4198
  1.2808044E+00;  9.9999998E-03; -1.0007802E-01;2954;0.27227268;0.0;-0.0041306838;1002.5272;  4.0136942E-01;1588.3584;3;120.27675;0.0;0.63909578;0;-0.10910653;  9.9994287E+03;  0.0000000E+00; -4.6519282E-01;  1.0000000E+04;  0.0000000E+00;  9.9827178E+03;-0.20469765;0.0;0.095591128;1501.8925
  1.2807697E+00;  9.9999998E-03; -8.0062345E-02;2955;0.26420254;0.0;-0.0019066464;1002.5501;  4.0136939E-01;1602.9554;3;111.89349;0.0;1.3178668;0;-0.13287544;  9.9991943E+03;  0.0000000E+00; -6.5594608E-01;  1.0000000E+04;  0.0000000E+00;  9.9834023E+03;-0.21863919;0.0;0.08576376;1476.1901
  1.2807426E+00;  9.9999998E-03; -6.0046535E-02;2956;0.25789681;0.0;-0.00081810832;1002.5309;  4.0136948E-01;1590.9963;3;106.15955;0.0;1.4685733;0;-0.13975695;  9.9980576E+03;  0.0000000E+00; -4.7341970E-01;  1.0000000E+04;  0.0000000E+00;  9.9841602E+03;-0.21649043;0.0;0.076733485;1345.6268
  1.2807224E+00;  9.9999998E-03; -4.0029645E-02;2957;0.25294349;0.0;7.1654744e-05;1002.5175;  4.0136951E-01;1582.6071;3;102.6039;0.0;1.2866865;0;-0.14532168;  9.9971064E+03;  0.0000000E+00; -2.2081284E-01;  1.0000000E+04;  0.0000000E+00;  9.9848438E+03;-0.21275325;0.0;0.067431569;1226.9484
  1.2807101E+00;  9.9999998E-03; -2.0013791E-02;2958;0.25009519;0.0;0.00027122063;1002.5045;  4.0136951E-01;1574.486;3;101.02395;0.0;0.3456547;0;-0.14692806;  9.9964141E+03;  0.0000000E+00; -5.3768769E-02;  1.0000000E+04;  0.0000000E+00;  9.9852637E+03;-0.20794412;0.0;0.061016072;1162.5762
  1.3007411E+00;  9.9999998E-03; -8.0057628E-02;2966;0.25376758;0.0;0.00048022703;1002.8018;  4.0134740E-01;1675.3167;3;126.89856;0.0;1.5102364;0;-0.19723773;  1.0004847E+04;  0.0000000E+00;  6.7926073E-01;  1.0000000E+04;  0.0000000E+00;  9.9838574E+03;-0.26063415;0.0;0.063396432;1374.0652
  1.3007185E+00;  9.9999998E-03; -6.0040932E-02;2967;0.24888681;0.0;0.0019028302;1002.7706;  4.0134749E-01;1656.807;3;121.63573;0.0;1.3312576;0;-0.19515502;  1.0003553E+04;  0.0000000E+00;  2.3904571E-01;  1.0000000E+04;  0.0000000E+00;  9.9845332E+03;-0.25014156;0.0;0.054986529;1241.1504
  1.3007016E+00;  9.9999998E-03; -4.0025264E-02;2968;0.24542046;0.0;0.0015550626;1002.7412;  4.0134767E-01;1639.2703;3;118.31501;0.0;0.65788257;0;-0.18920256;  1.0002476E+04;  0.0000000E+00;  6.2225688E-02;  1.0000000E+04;  0.0000000E+00;  9.9850215E+03;-0.23874667;0.0;0.049544111;1168.057
  1.3006915E+00;  9.9999998E-03; -2.0011727E-02;2969;0.24325453;0.0;0.00082605297;1002.7139;  4.0134761E-01;1622.9867;3;116.32777;0.0;0.33661512;0;-0.18622074;  1.0001642E+04;  0.0000000E+00;  9.5480103E-03;  1.0000000E+04;  0.0000000E+00;  9.9853047E+03;-0.23073912;0.0;0.044518389;1123.6222
 -1.1122535E-05;  9.9999998E-03; -2.2502237E-14;1045;-0.0060650664;0.0;-7.275166e-10;1000.2357;  4.0000001E-01;195.25371;3;-3.5915451;0.0;-9.3644758e-07;0;-0.11841171;  1.0004779E+04;  0.0000000E+00;  9.8370044E-16;  1.0000000E+04;  0.0000000E+00;  9.9999395E+03;-0.12046427;0.0;0.0020525539;46.978851
 -1.1128355E-05;  9.9999998E-03;  2.0000057E-02;1046;-0.0060668779;0.0;4.3977543e-05;1000.2357;  4.0000001E-01;195.25371;3;-3.5912075;0.0;0.036487453;0;-0.11838529;  1.0004780E+04;  0.0000000E+00; -1.1564771E-10;  1.0000000E+04;  0.0000000E+00;  9.9999346E+03;-0.12048608;0.0;0.0021007976;48.121082
 -1.1144215E-05;  9.9999998E-03;  4.0000122E-02;1047;-0.0060716104;0.0;9.0668029e-05;1000.2357;  4.0000001E-01;195.25371;3;-3.5898438;0.0;0.073264927;0;-0.11829077;  1.0004786E+04;  0.0000000E+00; -3.3311476E-10;  1.0000000E+04;  0.0000000E+00;  9.9999297E+03;-0.12053379;0.0;0.002243018;51.495251
 -1.1165048E-05;  9.9999998E-03;  6.0000200E-02;1048;-0.0060764397;0.0;0.00014432661;1000.2355;  4.0000001E-01;195.15494;3;-3.5859222;0.0;0.11379972;0;-0.11808223;  1.0004793E+04;  0.0000000E+00; -1.4003233E-09;  1.0000000E+04;  0.0000000E+00;  9.9999170E+03;-0.1205537;0.0;0.0024714672;56.938343
 -1.1181998E-05;  9.9999998E-03;  8.0000296E-02;1049;-0.0060770963;0.0;0.00020655358;1000.2349;  4.0000001E-01;194.56236;3;-3.5774574;0.0;0.15700272;0;-0.11767995;  1.0004795E+04;  0.0000000E+00; -3.4587113E-09;  1.0000000E+04;  0.0000000E+00;  9.9999023E+03;-0.1204524;0.0;0.0027724528;64.155052
 -1.1182270E-05;  9.9999998E-03;  1.0000042E-01;1050;-0.0060664541;0.0;0.00028058022;1000.2336;  4.0000001E-01;193.47598;3;-3.5604324;0.0;0.20585486;0;-0.11696771;  1.0004791E+04;  0.0000000E+00; -8.1884854E-09;  1.0000000E+04;  0.0000000E+00;  9.9998809E+03;-0.12009195;0.0;0.0031242433;72.666557
 -1.1146944E-05;  9.9999998E-03;  1.2000058E-01;1051;-0.0060349456;0.0;0.00036899868;1000.2318;  4.0000001E-01;191.99454;3;-3.5298328;0.0;0.26067919;0;-0.11579075;  1.0004770E+04;  0.0000000E+00; -1.5094454E-08;  1.0000000E+04;  0.0000000E+00;  9.9998643E+03;-0.11928336;0.0;0.0034926119;81.716362
 -1.1053748E-05;  9.9999998E-03;  1.4000076E-01;1052;-0.0059714708;0.0;0.00046896414;1000.2282;  4.0000001E-01;189.03166;3;-3.4803219;0.0;0.31838727;0;-0.11395641;  1.0004722E+04;  0.0000000E+00; -2.6103585E-08;  1.0000000E+04;  0.0000000E+00;  9.9998447E+03;-0.11778201;0.0;0.0038256054;90.156921
  1.9984398E-02;  9.9999998E-03; -4.4249793E-13;1075;-0.0084499372;0.0;1.8276266e-12;1000.2746;  4.0000001E-01;227.45032;3;-4.3782139;0.0;1.8877763e-06;0;-0.1361635;  1.0005577E+04;  0.0000000E+00; -1.0322239E-15;  1.0000000E+04;  0.0000000E+00;  9.9999150E+03;-0.13894033;0.0;0.0027768319;59.999699
  1.9984389E-02;  9.9999998E-03;  2.0000083E-02;1076;-0.0084531363;0.0;6.332864e-05;1000.2745;  4.0000001E-01;227.45032;3;-4.3776283;0.0;0.04781583;0;-0.13613698;  1.0005580E+04;  0.0000000E+00; -1.5396463E-10;  1.0000000E+04;  0.0000000E+00;  9.9999141E+03;-0.13897419;0.0;0.0028372048;61.487732
  1.9984361E-02;  9.9999998E-03;  4.0000174E-02;1077;-0.0084617035;0.0;0.000130135;1000.2746;  4.0000001E-01;227.45032;3;-4.3756084;0.0;0.095619768;0;-0.13604167;  1.0005589E+04;  0.0000000E+00; -7.3682499E-10;  1.0000000E+04;  0.0000000E+00;  9.9999033E+03;-0.13905668;0.0;0.0030150064;65.882278
  1.9984322E-02;  9.9999998E-03;  6.0000282E-02;1078;-0.0084720124;0.0;0.00020474796;1000.2743;  4.0000001E-01;227.25279;3;-4.370224;0.0;0.14710777;0;-0.13582909;  1.0005599E+04;  0.0000000E+00; -1.2152025E-09;  1.0000000E+04;  0.0000000E+00;  9.9998887E+03;-0.13912915;0.0;0.0033000486;72.965698
  1.9984284E-02;  9.9999998E-03;  8.0000415E-02;1079;-0.008477807;0.0;0.00029099325;1000.2739;  4.0000001E-01;226.95651;3;-4.3590622;0.0;0.2019452;0;-0.13541572;  1.0005607E+04;  0.0000000E+00;  1.0284320E-10;  1.0000000E+04;  0.0000000E+00;  9.9998701E+03;-0.13908978;0.0;0.0036740629;82.341354
  1.9984268E-02;  9.9999998E-03;  1.0000058E-01;1080;-0.0084705278;0.0;0.0003895252;1000.2726;  4.0000001E-01;225.87012;3;-4.3384228;0.0;0.25961986;0;-0.13467881;  1.0005606E+04;  0.0000000E+00;  8.2482341E-09;  1.0000000E+04;  0.0000000E+00;  9.9998457E+03;-0.13878649;0.0;0.0041076913;93.36129
  1.9984294E-02;  9.9999998E-03;  1.2000079E-01;1081;-0.0084367022;0.0;0.00050527009;1000.2707;  4.0000001E-01;224.28992;3;-4.3021832;0.0;0.32298064;0;-0.1334537;  1.0005591E+04;  0.0000000E+00;  3.4420477E-08;  1.0000000E+04;  0.0000000E+00;  9.9998203E+03;-0.13800886;0.0;0.0045551714;105.01112
  1.9984398E-02;  9.9999998E-03;  1.4000104E-01;1082;-0.0083591528;0.0;0.00064083212;1000.2671;  4.0000001E-01;221.32704;3;-4.2427883;0.0;0.39161718;0;-0.13153133;  1.0005547E+04;  0.0000000E+00;  1.0271715E-07;  1.0000000E+04;  0.0000000E+00;  9.9997979E+03;-0.13648064;0.0;0.0049493196;115.79116
  3.9978724E-02;  9.9999998E-03; -1.6697522E-14;1106;-0.011452653;0.0;2.546301e-11;1000.3052;  4.0000001E-01;252.83232;3;-5.2905655;0.0;-4.8191805e-07;0;-0.14887418;  1.0006213E+04;  0.0000000E+00;  6.3611804E-16;  1.0000000E+04;  0.0000000E+00;  9.9998945E+03;-0.15231293;0.0;0.0034387594;71.427307
  3.9978705E-02;  9.9999998E-03;  2.0000102E-02;1107;-0.011457604;0.0;7.817024e-05;1000.3052;  4.0000001E-01;252.83232;3;-5.2895908;0.0;0.055075843;0;-0.148855;  1.0006213E+04;  0.0000000E+00;  2.4369713E-11;  1.0000000E+04;  0.0000000E+00;  9.9998936E+03;-0.15236118;0.0;0.0035061811;73.187271
  3.9978664E-02;  9.9999998E-03;  4.0000215E-02;1108;-0.011470979;0.0;0.00016061407;1000.3053;  4.0000001E-01;252.93108;3;-5.2859993;0.0;0.11056614;0;-0.14878237;  1.0006225E+04;  0.0000000E+00; -9.7520450E-11;  1.0000000E+04;  0.0000000E+00;  9.9998828E+03;-0.15248685;0.0;0.0037044764;78.382401
  3.9978601E-02;  9.9999998E-03;  6.0000345E-02;1109;-0.01148827;0.0;0.00025040255;1000.3052;  4.0000001E-01;252.93108;3;-5.2781849;0.0;0.16763818;0;-0.14860937;  1.0006242E+04;  0.0000000E+00; -3.6335761E-11;  1.0000000E+04;  0.0000000E+00;  9.9998633E+03;-0.15263079;0.0;0.0040214211;86.746193
  3.9978538E-02;  9.9999998E-03;  8.0000505E-02;1110;-0.011501169;0.0;0.0003521734;1000.3049;  4.0000001E-01;252.53603;3;-5.2630129;0.0;0.22738275;0;-0.14825447;  1.0006259E+04;  0.0000000E+00;  3.3269330E-09;  1.0000000E+04;  0.0000000E+00;  9.9998408E+03;-0.15268934;0.0;0.0044348631;97.790192
  3.9978497E-02;  9.9999998E-03;  1.0000070E-01;1111;-0.011498037;0.0;0.0004679721;1000.3041;  4.0000001E-01;251.94345;3;-5.236455;0.0;0.28908414;0;-0.14759789;  1.0006266E+04;  0.0000000E+00;  2.0413944E-08;  1.0000000E+04;  0.0000000E+00;  9.9998115E+03;-0.15250665;0.0;0.0049087512;110.71433
  3.9978504E-02;  9.9999998E-03;  1.2000094E-01;1112;-0.011462118;0.0;0.0005999523;1000.3022;  4.0000001E-01;250.36325;3;-5.1916513;0.0;0.3540971;0;-0.14647627;  1.0006259E+04;  0.0000000E+00;  7.5897397E-08;  1.0000000E+04;  0.0000000E+00;  9.9997852E+03;-0.15186408;0.0;0.0053878077;124.28192
  3.9978616E-02;  9.9999998E-03;  1.4000122E-01;1113;-0.011370945;0.0;0.00075075123;1000.2991;  4.0000001E-01;247.79543;3;-5.1204348;0.0;0.42229533;0;-0.14467475;  1.0006224E+04;  0.0000000E+00;  2.0972477E-07;  1.0000000E+04;  0.0000000E+00;  9.9997598E+03;-0.15046927;0.0;0.005794527;136.72382
  5.9972338E-02;  9.9999998E-03; -1.1177921E-12;1137;-0.014772313;0.0;-1.6889874e-09;1000.333;  4.0000001E-01;275.84399;3;-6.2747993;0.0;-3.0048122e-06;0;-0.15921274;  1.0006779E+04;  0.0000000E+00;  1.1106182E-15;  1.0000000E+04;  0.0000000E+00;  9.9998799E+03;-0.16320933;0.0;0.0039965902;81.162193
  5.9972316E-02;  9.9999998E-03;  2.0000113E-02;1138;-0.01477924;0.0;8.7693181e-05;1000.333;  4.0000001E-01;275.84399;3;-6.2731171;0.0;0.059453454;0;-0.15920922;  1.0006786E+04;  0.0000000E+00; -2.8460009E-11;  1.0000000E+04;  0.0000000E+00;  9.9998730E+03;-0.16327375;0.0;0.0040645259;83.089363
  5.9972253E-02;  9.9999998E-03;  4.0000234E-02;1139;-0.014798103;0.0;0.0001794347;1000.3331;  4.0000001E-01;275.94278;3;-6.2675552;0.0;0.11931556;0;-0.15918455;  1.0006806E+04;  0.0000000E+00; -1.7952639E-10;  1.0000000E+04;  0.0000000E+00;  9.9998623E+03;-0.16344847;0.0;0.0042639174;88.773239
  5.9972163E-02;  9.9999998E-03;  6.0000379E-02;1140;-0.014823199;0.0;0.00027847139;1000.3334;  4.0000001E-01;276.23904;3;-6.2563028;0.0;0.17920519;0;-0.15909575;  1.0006825E+04;  0.0000000E+00;  3.3075284E-10;  1.0000000E+04;  0.0000000E+00;  9.9998447E+03;-0.16367677;0.0;0.0045810151;97.905991
  5.9972066E-02;  9.9999998E-03;  8.0000550E-02;1141;-0.014844558;0.0;0.00038808986;1000.3334;  4.0000001E-01;276.23904;3;-6.2358704;0.0;0.24056271;0;-0.15886752;  1.0006848E+04;  0.0000000E+00;  3.7234984E-09;  1.0000000E+04;  0.0000000E+00;  9.9998193E+03;-0.16385815;0.0;0.0049906243;109.92081
  5.9971988E-02;  9.9999998E-03;  1.0000076E-01;1142;-0.014847302;0.0;0.0005119656;1000.3331;  4.0000001E-01;275.94278;3;-6.2015934;0.0;0.30358291;0;-0.15838824;  1.0006866E+04;  0.0000000E+00;  2.3559949E-08;  1.0000000E+04;  0.0000000E+00;  9.9997910E+03;-0.16383997;0.0;0.0054517188;123.89656
  5.9971977E-02;  9.9999998E-03;  1.2000101E-01;1143;-0.014811401;0.0;0.00065017637;1000.3315;  4.0000001E-01;274.65884;3;-6.1471252;0.0;0.36586872;0;-0.15750141;  1.0006875E+04;  0.0000000E+00;  8.9267523E-08;  1.0000000E+04;  0.0000000E+00;  9.9997598E+03;-0.16340442;0.0;0.0059030061;138.43643
  5.9972081E-02;  9.9999998E-03;  1.4000131E-01;1144;-0.01470879;0.0;0.00080418313;1000.329;  4.0000001E-01;272.58484;3;-6.0627899;0.0;0.4285112;0;-0.15599081;  1.0006853E+04;  0.0000000E+00;  2.4497839E-07;  1.0000000E+04;  0.0000000E+00;  9.9997314E+03;-0.16225439;0.0;0.0062635778;151.62384
  7.9965457E-02;  9.9999998E-03; -1.0706336E-12;1168;-0.018264832;0.0;3.657703e-10;1000.3627;  4.0000001E-01;300.43591;3;-7.3612337;0.0;-1.7910024e-06;0;-0.16960764;  1.0007394E+04;  0.0000000E+00; -4.3031780E-16;  1.0000000E+04;  0.0000000E+00;  9.9998652E+03;-0.17408726;0.0;0.0044796155;90.192162
  7.9965428E-02;  9.9999998E-03;  2.0000117E-02;1169;-0.018273881;0.0;9.2721035e-05;1000.3629;  4.0000001E-01;300.63342;3;-7.3588676;0.0;0.062214978;0;-0.16962737;  1.0007400E+04;  0.0000000E+00; -1.7374616E-10;  1.0000000E+04;  0.0000000E+00;  9.9998613E+03;-0.17416888;0.0;0.0045415233;92.180084
  7.9965346E-02;  9.9999998E-03;  4.0000241E-02;1170;-0.018298753;0.0;0.00018869918;1000.3633;  4.0000001E-01;300.92972;3;-7.3509984;0.0;0.12411108;0;-0.16967398;  1.0007420E+04;  0.0000000E+00; -4.7323229E-10;  1.0000000E+04;  0.0000000E+00;  9.9998486E+03;-0.1743965;0.0;0.0047225216;98.034454
  7.9965219E-02;  9.9999998E-03;  6.0000390E-02;1171;-0.018332638;0.0;0.00029128752;1000.3636;  4.0000001E-01;301.22601;3;-7.3355761;0.0;0.18594271;0;-0.16970932;  1.0007450E+04;  0.0000000E+00; -5.6812038E-10;  1.0000000E+04;  0.0000000E+00;  9.9998301E+03;-0.17471693;0.0;0.0050076135;107.40897
  7.9965077E-02;  9.9999998E-03;  8.0000564E-02;1172;-0.018363979;0.0;0.0004028712;1000.364;  4.0000001E-01;301.62106;3;-7.3093219;0.0;0.24644393;0;-0.16966639;  1.0007480E+04;  0.0000000E+00;  2.4778797E-09;  1.0000000E+04;  0.0000000E+00;  9.9998047E+03;-0.17503546;0.0;0.005369063;119.66698
  7.9964958E-02;  9.9999998E-03;  1.0000078E-01;1173;-0.018375481;0.0;0.00052634743;1000.3643;  4.0000001E-01;301.81857;3;-7.2669959;0.0;0.30698788;0;-0.16944367;  1.0007515E+04;  0.0000000E+00;  2.1864391E-08;  1.0000000E+04;  0.0000000E+00;  9.9997744E+03;-0.17520618;0.0;0.0057625207;133.79326
  7.9964906E-02;  9.9999998E-03;  1.2000103E-01;1174;-0.018342979;0.0;0.00066398853;1000.3637;  4.0000001E-01;301.32477;3;-7.2016811;0.0;0.36609313;0;-0.16889332;  1.0007534E+04;  0.0000000E+00;  8.4950379E-08;  1.0000000E+04;  0.0000000E+00;  9.9997432E+03;-0.17501783;0.0;0.0061245156;148.29797
  7.9964995E-02;  9.9999998E-03;  1.4000133E-01;1175;-0.018234298;0.0;0.00081293943;1000.3624;  4.0000001E-01;300.23837;3;-7.1037679;0.0;0.42294225;0;-0.16779627;  1.0007530E+04;  0.0000000E+00;  2.2205499E-07;  1.0000000E+04;  0.0000000E+00;  9.9997158E+03;-0.17417528;0.0;0.0063790078;161.26099
  9.9958062E-02;  9.9999998E-03; -3.0777301E-13;1199;-0.021918288;0.0;7.136659e-10;1000.3979;  4.0000001E-01;329.66965;3;-8.574295;0.0;4.1204858e-06;0;-0.18167022;  1.0008112E+04;  0.0000000E+00;  3.2172741E-16;  1.0000000E+04;  0.0000000E+00;  9.9998486E+03;-0.18666008;0.0;0.0049898662;100.56187
  9.9958017E-02;  9.9999998E-03;  2.0000119E-02;1200;-0.021929633;0.0;9.5759417e-05;1000.3982;  4.0000001E-01;329.86716;3;-8.5710697;0.0;0.06435921;0;-0.18171935;  1.0008121E+04;  0.0000000E+00; -2.9081521E-10;  1.0000000E+04;  0.0000000E+00;  9.9998447E+03;-0.18675967;0.0;0.005040315;102.52635
  9.9957913E-02;  9.9999998E-03;  4.0000245E-02;1201;-0.021961153;0.0;0.00019389857;1000.3988;  4.0000001E-01;330.36096;3;-8.5606823;0.0;0.12758927;0;-0.18185596;  1.0008146E+04;  0.0000000E+00; -9.0148217E-10;  1.0000000E+04;  0.0000000E+00;  9.9998320E+03;-0.18704247;0.0;0.0051865182;108.2964
  9.9957749E-02;  9.9999998E-03;  6.0000390E-02;1202;-0.022005163;0.0;0.00029697228;1000.3996;  4.0000001E-01;331.05231;3;-8.5409489;0.0;0.18977091;0;-0.18204696;  1.0008179E+04;  0.0000000E+00; -1.9551469E-09;  1.0000000E+04;  0.0000000E+00;  9.9998135E+03;-0.18745886;0.0;0.0054118996;117.47909
  9.9957556E-02;  9.9999998E-03;  8.0000564E-02;1203;-0.022048535;0.0;0.00040756923;1000.4008;  4.0000001E-01;332.03995;3;-8.508297;0.0;0.25004268;0;-0.18223472;  1.0008226E+04;  0.0000000E+00;  1.2761615E-09;  1.0000000E+04;  0.0000000E+00;  9.9997891E+03;-0.18792057;0.0;0.005685858;129.36072
  9.9957384E-02;  9.9999998E-03;  1.0000077E-01;1204;-0.022072032;0.0;0.00052695884;1000.4017;  4.0000001E-01;332.83005;3;-8.4576979;0.0;0.30701846;0;-0.18232909;  1.0008272E+04;  0.0000000E+00;  2.1482515E-08;  1.0000000E+04;  0.0000000E+00;  9.9997637E+03;-0.18829024;0.0;0.0059611541;142.83598
  9.9957272E-02;  9.9999998E-03;  1.2000102E-01;1205;-0.022048397;0.0;0.00065704447;1000.4021;  4.0000001E-01;333.12634;3;-8.381731;0.0;0.36163688;0;-0.18218963;  1.0008313E+04;  0.0000000E+00;  7.9708890E-08;  1.0000000E+04;  0.0000000E+00;  9.9997344E+03;-0.18836483;0.0;0.0061752046;156.36716
  9.9957317E-02;  9.9999998E-03;  1.4000131E-01;1206;-0.021940641;0.0;0.00079772586;1000.4017;  4.0000001E-01;332.83005;3;-8.2701874;0.0;0.41278791;0;-0.18159091;  1.0008325E+04;  0.0000000E+00;  1.6635383E-07;  1.0000000E+04;  0.0000000E+00;  9.9997119E+03;-0.1878553;0.0;0.0062643904;168.14815
  1.1994997E-01;  9.9999998E-03; -4.6505592E-14;1230;-0.025808671;0.0;-4.9238841e-10;1000.4399;  4.0000001E-01;364.43408;3;-9.913147;0.0;-6.2220297e-06;0;-0.1960149;  1.0008980E+04;  0.0000000E+00; -2.6592537E-17;  1.0000000E+04;  0.0000000E+00;  9.9998242E+03;-0.20170365;0.0;0.0056887581;115.16626
  1.1994993E-01;  9.9999998E-03;  2.0000124E-02;1231;-0.025822617;0.0;0.00010086159;1000.4403;  4.0000001E-01;364.82913;3;-9.9090157;0.0;0.067010708;0;-0.19609728;  1.0008991E+04;  0.0000000E+00; -3.2173941E-10;  1.0000000E+04;  0.0000000E+00;  9.9998203E+03;-0.20182137;0.0;0.0057240897;117.06225
  1.1994979E-01;  9.9999998E-03;  4.0000256E-02;1232;-0.025861658;0.0;0.00020319528;1000.4412;  4.0000001E-01;365.52048;3;-9.8958626;0.0;0.13268374;0;-0.1963356;  1.0009019E+04;  0.0000000E+00; -1.6345750E-09;  1.0000000E+04;  0.0000000E+00;  9.9998096E+03;-0.20215967;0.0;0.0058240728;122.60421
  1.1994958E-01;  9.9999998E-03;  6.0000405E-02;1233;-0.025917396;0.0;0.00030852784;1000.4426;  4.0000001E-01;366.70563;3;-9.8714828;0.0;0.19575295;0;-0.19670308;  1.0009063E+04;  0.0000000E+00; -2.6643523E-09;  1.0000000E+04;  0.0000000E+00;  9.9997949E+03;-0.20267238;0.0;0.0059693069;131.32973
  1.1994933E-01;  9.9999998E-03;  8.0000579E-02;1234;-0.025975464;0.0;0.00041851209;1000.4443;  4.0000001E-01;368.08829;3;-9.8322535;0.0;0.25528559;0;-0.197152;  1.0009120E+04;  0.0000000E+00;  2.0439119E-09;  1.0000000E+04;  0.0000000E+00;  9.9997695E+03;-0.20327666;0.0;0.0061246641;142.41536
  1.1994908E-01;  9.9999998E-03;  1.0000078E-01;1235;-0.026014782;0.0;0.0005347142;1000.4462;  4.0000001E-01;369.66849;3;-9.7731237;0.0;0.31029755;0;-0.19760443;  1.0009182E+04;  0.0000000E+00;  2.7735009E-08;  1.0000000E+04;  0.0000000E+00;  9.9997432E+03;-0.20384321;0.0;0.0062387735;154.63286
  1.1994890E-01;  9.9999998E-03;  1.2000102E-01;1236;-0.026005814;0.0;0.00065725285;1000.4481;  4.0000001E-01;371.24872;3;-9.686636;0.0;0.36066645;0;-0.19792865;  1.0009241E+04;  0.0000000E+00;  8.6443691E-08;  1.0000000E+04;  0.0000000E+00;  9.9997227E+03;-0.20417961;0.0;0.0062509677;166.39389
  1.1994888E-01;  9.9999998E-03;  1.4000130E-01;1237;-0.025907097;0.0;0.00078769238;1000.4489;  4.0000001E-01;371.94003;3;-9.5619173;0.0;0.40554035;0;-0.1978917;  1.0009278E+04;  0.0000000E+00;  1.2280356E-07;  1.0000000E+04;  0.0000000E+00;  9.9997031E+03;-0.20400684;0.0;0.0061151376;176.07033
  1.3994099E-01;  9.9999998E-03;  1.2588418E-12;1261;-0.030034393;0.0;-6.9241907e-10;1000.489;  4.0000001E-01;405.1243;3;-11.364183;0.0;1.5375372e-07;0;-0.21246307;  1.0010004E+04;  0.0000000E+00; -1.6809835E-15;  1.0000000E+04;  0.0000000E+00;  9.9997832E+03;-0.21923934;0.0;0.0067762681;137.47823
  1.3994092E-01;  9.9999998E-03;  2.0000143E-02;1262;-0.03005128;0.0;0.00011305875;1000.4896;  4.0000001E-01;405.6181;3;-11.359006;0.0;0.07229612;0;-0.2125797;  1.0010013E+04;  0.0000000E+00; -5.0194005E-11;  1.0000000E+04;  0.0000000E+00;  9.9997783E+03;-0.21937454;0.0;0.0067948396;139.30893
  1.3994075E-01;  9.9999998E-03;  4.0000293E-02;1263;-0.030098917;0.0;0.00022654919;1000.4907;  4.0000001E-01;406.50696;3;-11.342721;0.0;0.1425499;0;-0.21292311;  1.0010045E+04;  0.0000000E+00; -2.0143684E-09;  1.0000000E+04;  0.0000000E+00;  9.9997715E+03;-0.21976598;0.0;0.0068428591;144.61832
  1.3994049E-01;  9.9999998E-03;  6.0000457E-02;1264;-0.030168267;0.0;0.00034103447;1000.4927;  4.0000001E-01;408.18591;3;-11.313241;0.0;0.20897962;0;-0.21347371;  1.0010101E+04;  0.0000000E+00; -1.6152130E-09;  1.0000000E+04;  0.0000000E+00;  9.9997549E+03;-0.2203697;0.0;0.0068959929;152.83591
  1.3994016E-01;  9.9999998E-03;  8.0000639E-02;1265;-0.030243948;0.0;0.00045727612;1000.4952;  4.0000001E-01;410.25995;3;-11.266934;0.0;0.27053216;0;-0.21419568;  1.0010171E+04;  0.0000000E+00;  6.2475034E-09;  1.0000000E+04;  0.0000000E+00;  9.9997324E+03;-0.22110739;0.0;0.0069117039;162.96866
  1.3993981E-01;  9.9999998E-03;  1.0000086E-01;1266;-0.030303396;0.0;0.00057611213;1000.4981;  4.0000001E-01;412.63025;3;-11.198854;0.0;0.32595351;0;-0.21502632;  1.0010250E+04;  0.0000000E+00;  4.1711026E-08;  1.0000000E+04;  0.0000000E+00;  9.9997129E+03;-0.22185796;0.0;0.0068316455;173.59714
  1.3993955E-01;  9.9999998E-03;  1.2000110E-01;1267;-0.030314777;0.0;0.00069666648;1000.5011;  4.0000001E-01;415.19806;3;-11.10159;0.0;0.37362802;0;-0.21584554;  1.0010327E+04;  0.0000000E+00;  1.1810693E-07;  1.0000000E+04;  0.0000000E+00;  9.9996943E+03;-0.22244152;0.0;0.0065959827;183.03404
  1.3993943E-01;  9.9999998E-03;  1.4000137E-01;1268;-0.030233052;0.0;0.00081762474;1000.5035;  4.0000001E-01;417.07455;3;-10.96386;0.0;0.41272703;0;-0.21641687;  1.0010388E+04;  0.0000000E+00;  1.1786747E-07;  1.0000000E+04;  0.0000000E+00;  9.9996846E+03;-0.22259647;0.0;0.0061795986;189.86496
  1.5993090E-01;  9.9999998E-03; -1.5253181E-12;1292;-0.034665618;0.0;-5.8055741e-11;1000.545;  4.0000001E-01;451.54272;3;-12.916141;0.0;-3.7327954e-06;0;-0.23056933;  1.0011181E+04;  0.0000000E+00;  2.3240990E-15;  1.0000000E+04;  0.0000000E+00;  9.9997227E+03;-0.23903719;0.0;0.0084678531;171.27577
  1.5993083E-01;  9.9999998E-03;  2.0000184E-02;1293;-0.034685835;0.0;0.00013775223;1000.5455;  4.0000001E-01;451.93777;3;-12.909772;0.0;0.081997983;0;-0.23071802;  1.0011193E+04;  0.0000000E+00; -5.5202960E-12;  1.0000000E+04;  0.0000000E+00;  9.9997168E+03;-0.23918791;0.0;0.0084698964;173.09604
  1.5993060E-01;  9.9999998E-03;  4.0000375E-02;1294;-0.034743264;0.0;0.00027509002;1000.5469;  4.0000001E-01;453.12292;3;-12.889952;0.0;0.16152152;0;-0.23115996;  1.0011232E+04;  0.0000000E+00; -8.6129037E-10;  1.0000000E+04;  0.0000000E+00;  9.9997080E+03;-0.23962575;0.0;0.0084658042;178.32133
  1.5993027E-01;  9.9999998E-03;  6.0000576E-02;1295;-0.034828249;0.0;0.00041164825;1000.5493;  4.0000001E-01;455.09818;3;-12.854599;0.0;0.23642033;0;-0.23188369;  1.0011298E+04;  0.0000000E+00;  1.5231036E-09;  1.0000000E+04;  0.0000000E+00;  9.9996914E+03;-0.24030767;0.0;0.008423985;186.22638
  1.5992986E-01;  9.9999998E-03;  8.0000803E-02;1296;-0.03492444;0.0;0.00054736569;1000.5528;  4.0000001E-01;457.96228;3;-12.800333;0.0;0.30475599;0;-0.23286751;  1.0011381E+04;  0.0000000E+00;  1.7065666E-08;  1.0000000E+04;  0.0000000E+00;  9.9996748E+03;-0.24115889;0.0;0.0082913712;195.5789
  1.5992941E-01;  9.9999998E-03;  1.0000104E-01;1297;-0.035007849;0.0;0.00068167213;1000.5568;  4.0000001E-01;461.32022;3;-12.722238;0.0;0.36470205;0;-0.23406783;  1.0011477E+04;  0.0000000E+00;  7.0253009E-08;  1.0000000E+04;  0.0000000E+00;  9.9996611E+03;-0.24206719;0.0;0.007999354;204.68904
  1.5992902E-01;  9.9999998E-03;  1.2000132E-01;1298;-0.035044491;0.0;0.0008116173;1000.561;  4.0000001E-01;464.77692;3;-12.613149;0.0;0.41372344;0;-0.2353805;  1.0011575E+04;  0.0000000E+00;  1.7875772E-07;  1.0000000E+04;  0.0000000E+00;  9.9996455E+03;-0.24286859;0.0;0.0074880808;211.72905
  1.5992878E-01;  9.9999998E-03;  1.4000161E-01;1299;-0.034985974;0.0;0.00093284075;1000.5653;  4.0000001E-01;468.33237;3;-12.461555;0.0;0.45016193;0;-0.23657282;  1.0011664E+04;  0.0000000E+00;  1.6793140E-07;  1.0000000E+04;  0.0000000E+00;  9.9996416E+03;-0.24333166;0.0;0.0067588449;215.59665
  1.7991956E-01;  9.9999998E-03;  1.5812106E-12;1323;-0.039736222;0.0;-1.0243895e-10;1000.6074;  4.0000001E-01;503.19556;3;-14.56214;0.0;-5.1237685e-06;0;-0.25016236;  1.0012522E+04;  0.0000000E+00;  1.3666868E-15;  1.0000000E+04;  0.0000000E+00;  9.9996230E+03;-0.26113501;0.0;0.010972657;220.36995
  1.7991947E-01;  9.9999998E-03;  2.0000257E-02;1324;-0.039760161;0.0;0.00018063757;1000.608;  4.0000001E-01;503.78815;3;-14.554473;0.0;0.098408237;0;-0.25033736;  1.0012540E+04;  0.0000000E+00;  4.9390236E-10;  1.0000000E+04;  0.0000000E+00;  9.9996221E+03;-0.2612974;0.0;0.010960055;222.28697
  1.7991921E-01;  9.9999998E-03;  4.0000521E-02;1325;-0.039828576;0.0;0.00036007274;1000.6097;  4.0000001E-01;505.17081;3;-14.53067;0.0;0.19354622;0;-0.25086066;  1.0012587E+04;  0.0000000E+00;  1.9875763E-09;  1.0000000E+04;  0.0000000E+00;  9.9996123E+03;-0.26176971;0.0;0.010909047;227.73701
  1.7991880E-01;  9.9999998E-03;  6.0000800E-02;1326;-0.0399311;0.0;0.00053737103;1000.6129;  4.0000001E-01;507.73865;3;-14.488687;0.0;0.28287971;0;-0.2517297;  1.0012662E+04;  0.0000000E+00;  7.0212898E-09;  1.0000000E+04;  0.0000000E+00;  9.9995977E+03;-0.2625092;0.0;0.010779488;235.80457
  1.7991827E-01;  9.9999998E-03;  8.0001093E-02;1327;-0.040050283;0.0;0.00071191014;1000.6168;  4.0000001E-01;510.9978;3;-14.425073;0.0;0.36495131;0;-0.25293723;  1.0012759E+04;  0.0000000E+00;  3.3478187E-08;  1.0000000E+04;  0.0000000E+00;  9.9995771E+03;-0.26344311;0.0;0.010505875;244.96964
  1.7991771E-01;  9.9999998E-03;  1.0000141E-01;1328;-0.040160552;0.0;0.00088143832;1000.6219;  4.0000001E-01;515.24463;3;-14.335184;0.0;0.43685442;0;-0.25445995;  1.0012872E+04;  0.0000000E+00;  1.1550917E-07;  1.0000000E+04;  0.0000000E+00;  9.9995664E+03;-0.26446837;0.0;0.010008416;253.23801
  1.7991717E-01;  9.9999998E-03;  1.2000175E-01;1329;-0.040225659;0.0;0.0010407477;1000.6275;  4.0000001E-01;519.88647;3;-14.212008;0.0;0.49503452;0;-0.25621322;  1.0012995E+04;  0.0000000E+00;  2.7295437E-07;  1.0000000E+04;  0.0000000E+00;  9.9995557E+03;-0.2654433;0.0;0.0092300884;258.68921
  1.7991680E-01;  9.9999998E-03;  1.4000210E-01;1330;-0.04019415;0.0;0.0011813438;1000.6334;  4.0000001E-01;524.72583;3;-14.04434;0.0;0.53525078;0;-0.25796843;  1.0013110E+04;  0.0000000E+00;  2.9108659E-07;  1.0000000E+04;  0.0000000E+00;  9.9995586E+03;-0.26617885;0.0;0.0082104281;260.79709
  1.9990684E-01;  9.9999998E-03;  1.0615712E-12;1354;-0.04527697;0.0;1.859406e-09;1000.6772;  4.0000001E-01;561.0705;3;-16.298853;0.0;-4.5077636e-06;0;-0.27121791;  1.0014058E+04;  0.0000000E+00; -1.2475902E-16;  1.0000000E+04;  0.0000000E+00;  9.9994902E+03;-0.28569117;0.0;0.014473265;288.22476
  1.9990674E-01;  9.9999998E-03;  2.0000372E-02;1355;-0.045305014;0.0;0.00024594605;1000.678;  4.0000001E-01;561.66302;3;-16.289589;0.0;0.12197931;0;-0.27141041;  1.0014073E+04;  0.0000000E+00; -1.2699285E-10;  1.0000000E+04;  0.0000000E+00;  9.9994893E+03;-0.28585973;0.0;0.014449332;290.39667
  1.9990641E-01;  9.9999998E-03;  4.0000752E-02;1356;-0.045385372;0.0;0.00049061992;1000.6801;  4.0000001E-01;563.4408;3;-16.261024;0.0;0.24105209;0;-0.27198878;  1.0014127E+04;  0.0000000E+00;  3.0742444E-09;  1.0000000E+04;  0.0000000E+00;  9.9994756E+03;-0.28635025;0.0;0.014361479;296.54236
  1.9990592E-01;  9.9999998E-03;  6.0001146E-02;1357;-0.045506887;0.0;0.00073268538;1000.6835;  4.0000001E-01;566.20612;3;-16.210905;0.0;0.35440969;0;-0.27295694;  1.0014215E+04;  0.0000000E+00;  1.3119243E-08;  1.0000000E+04;  0.0000000E+00;  9.9994580E+03;-0.28711864;0.0;0.014161709;305.5538
  1.9990528E-01;  9.9999998E-03;  8.0001563E-02;1358;-0.045650706;0.0;0.00097125885;1000.6881;  4.0000001E-01;570.05786;3;-16.135996;0.0;0.4596391;0;-0.27432162;  1.0014329E+04;  0.0000000E+00;  5.1669080E-08;  1.0000000E+04;  0.0000000E+00;  9.9994404E+03;-0.28809512;0.0;0.013773515;315.63379
  1.9990456E-01;  9.9999998E-03;  1.0000201E-01;1359;-0.045789257;0.0;0.0012029686;1000.6939;  4.0000001E-01;574.89722;3;-16.031622;0.0;0.55285197;0;-0.27607638;  1.0014458E+04;  0.0000000E+00;  1.6081384E-07;  1.0000000E+04;  0.0000000E+00;  9.9994268E+03;-0.28918633;0.0;0.013109966;324.54941
  1.9990388E-01;  9.9999998E-03;  1.2000246E-01;1360;-0.04588351;0.0;0.0014206371;1000.701;  4.0000001E-01;580.72424;3;-15.890712;0.0;0.62974489;0;-0.27815166;  1.0014605E+04;  0.0000000E+00;  3.5792831E-07;  1.0000000E+04;  0.0000000E+00;  9.9994189E+03;-0.29027751;0.0;0.012125841;330.48077
  1.9990332E-01;  9.9999998E-03;  1.4000292E-01;1361;-0.045879532;0.0;0.0016102397;1000.7081;  4.0000001E-01;586.64996;3;-15.702717;0.0;0.6840772;0;-0.28031728;  1.0014751E+04;  0.0000000E+00;  4.0200774E-07;  1.0000000E+04;  0.0000000E+00;  9.9994180E+03;-0.29123306;0.0;0.010915782;333.90134
  2.1989256E-01;  9.9999998E-03; -2.1566958E-12;1385;-0.05133063;0.0;1.5657121e-10;1000.7549;  4.0000001E-01;625.46368;3;-18.12454;0.0;6.414597e-06;0;-0.29369774;  1.0015793E+04;  0.0000000E+00;  1.0833637E-15;  1.0000000E+04;  0.0000000E+00;  9.9993135E+03;-0.31280425;0.0;0.019106494;377.56662
  2.1989243E-01;  9.9999998E-03;  2.0000536E-02;1386;-0.051363174;0.0;0.00033815633;1000.7557;  4.0000001E-01;626.05627;3;-18.11429;0.0;0.15277421;0;-0.29389656;  1.0015812E+04;  0.0000000E+00;  4.5190553E-12;  1.0000000E+04;  0.0000000E+00;  9.9993096E+03;-0.31297186;0.0;0.019075306;380.19482
  2.1989205E-01;  9.9999998E-03;  4.0001083E-02;1387;-0.051456243;0.0;0.00067456247;1000.7579;  4.0000001E-01;627.93274;3;-18.080242;0.0;0.30352518;0;-0.2944954;  1.0015868E+04;  0.0000000E+00;  3.6957082E-09;  1.0000000E+04;  0.0000000E+00;  9.9992930E+03;-0.31345922;0.0;0.018963825;387.65234
  2.1989144E-01;  9.9999998E-03;  6.0001649E-02;1388;-0.051597815;0.0;0.0010086675;1000.7617;  4.0000001E-01;631.09314;3;-18.020792;0.0;0.4487915;0;-0.29550302;  1.0015968E+04;  0.0000000E+00;  1.6456656E-08;  1.0000000E+04;  0.0000000E+00;  9.9992744E+03;-0.31422225;0.0;0.01871923;398.6806
  2.1989067E-01;  9.9999998E-03;  8.0002241E-02;1389;-0.051767267;0.0;0.0013394268;1000.7667;  4.0000001E-01;635.24121;3;-17.932487;0.0;0.58650464;0;-0.29693377;  1.0016093E+04;  0.0000000E+00;  6.2223371E-08;  1.0000000E+04;  0.0000000E+00;  9.9992529E+03;-0.31519371;0.0;0.018259935;411.29755
  2.1988979E-01;  9.9999998E-03;  1.0000287E-01;1390;-0.05193425;0.0;0.0016641639;1000.7734;  4.0000001E-01;640.77191;3;-17.810266;0.0;0.71252328;0;-0.29878992;  1.0016245E+04;  0.0000000E+00;  1.7146992E-07;  1.0000000E+04;  0.0000000E+00;  9.9992305E+03;-0.31629148;0.0;0.017501578;423.20956
  2.1988893E-01;  9.9999998E-03;  1.2000352E-01;1391;-0.052056886;0.0;0.0019719782;1000.7812;  4.0000001E-01;647.19147;3;-17.647049;0.0;0.8211326;0;-0.30100587;  1.0016417E+04;  0.0000000E+00;  3.6784454E-07;  1.0000000E+04;  0.0000000E+00;  9.9992129E+03;-0.31743041;0.0;0.016424539;433.00775
  2.1988820E-01;  9.9999998E-03;  1.4000417E-01;1392;-0.052077781;0.0;0.0022462469;1000.7894;  4.0000001E-01;654.0061;3;-17.433598;0.0;0.90172964;0;-0.30334076;  1.0016597E+04;  0.0000000E+00;  4.1901623E-07;  1.0000000E+04;  0.0000000E+00;  9.9992031E+03;-0.31853333;0.0;0.015192565;442.59122
  2.3987649E-01;  9.9999998E-03;  2.1391933E-12;1416;-0.057952516;0.0;2.5364297e-09;1000.8411;  4.0000001E-01;696.77032;3;-20.045706;0.0;1.3236822e-06;0;-0.31761044;  1.0017745E+04;  0.0000000E+00; -1.8826195E-15;  1.0000000E+04;  0.0000000E+00;  9.9990869E+03;-0.34255862;0.0;0.024948167;490.09314
  2.3987634E-01;  9.9999998E-03;  2.0000752E-02;1417;-0.057989188;0.0;0.00045820753;1000.8419;  4.0000001E-01;697.56042;3;-20.032347;0.0;0.1959575;0;-0.31780326;  1.0017763E+04;  0.0000000E+00; -4.3901400E-11;  1.0000000E+04;  0.0000000E+00;  9.9990791E+03;-0.34271663;0.0;0.024913358;493.40704
  2.3987590E-01;  9.9999998E-03;  4.0001519E-02;1418;-0.058094848;0.0;0.00091626612;1000.8442;  4.0000001E-01;699.43689;3;-19.991302;0.0;0.38977832;0;-0.31838366;  1.0017833E+04;  0.0000000E+00;  4.2329429E-09;  1.0000000E+04;  0.0000000E+00;  9.9990615E+03;-0.34317464;0.0;0.024790959;502.89145
  2.3987518E-01;  9.9999998E-03;  6.0002312E-02;1419;-0.058256291;0.0;0.0013729923;1000.8483;  4.0000001E-01;702.79486;3;-19.920376;0.0;0.5761528;0;-0.31936213;  1.0017937E+04;  0.0000000E+00;  1.3245282E-08;  1.0000000E+04;  0.0000000E+00;  9.9990352E+03;-0.34389076;0.0;0.02452863;517.22211
  2.3987426E-01;  9.9999998E-03;  8.0003142E-02;1420;-0.058450606;0.0;0.001824964;1000.8539;  4.0000001E-01;707.43665;3;-19.815636;0.0;0.75277972;0;-0.3207531;  1.0018081E+04;  0.0000000E+00;  4.5720764E-08;  1.0000000E+04;  0.0000000E+00;  9.9990039E+03;-0.34480205;0.0;0.024048943;534.38971
  2.3987320E-01;  9.9999998E-03;  1.0000402E-01;1421;-0.058644313;0.0;0.0022721395;1000.8607;  4.0000001E-01;713.06616;3;-19.670521;0.0;0.9220627;0;-0.32255536;  1.0018254E+04;  0.0000000E+00;  1.2304461E-07;  1.0000000E+04;  0.0000000E+00;  9.9989707E+03;-0.34583846;0.0;0.023283085;552.27911
  2.3987213E-01;  9.9999998E-03;  1.2000492E-01;1422;-0.058792006;0.0;0.0027056555;1000.8689;  4.0000001E-01;719.88074;3;-19.480421;0.0;1.0723577;0;-0.32469255;  1.0018448E+04;  0.0000000E+00;  2.3831620E-07;  1.0000000E+04;  0.0000000E+00;  9.9989395E+03;-0.34694242;0.0;0.022249866;570.19244
  2.3987119E-01;  9.9999998E-03;  1.4000584E-01;1423;-0.0588356;0.0;0.003093421;1000.8776;  4.0000001E-01;727.09045;3;-19.237055;0.0;1.1834809;0;-0.3269062;  1.0018661E+04;  0.0000000E+00;  2.3937724E-07;  1.0000000E+04;  0.0000000E+00;  9.9989014E+03;-0.3480905;0.0;0.021184288;591.65137
  2.5985843E-01;  9.9999998E-03; -3.6608481E-12;1447;-0.065198645;0.0;-4.4776658e-09;1000.9369;  4.0000001E-01;776.17542;3;-22.059958;0.0;-1.0667587e-05;0;-0.34303981;  1.0019938E+04;  0.0000000E+00;  1.6431132E-15;  1.0000000E+04;  0.0000000E+00;  9.9988105E+03;-0.37504312;0.0;0.032003324;626.29108
  2.5985825E-01;  9.9999998E-03;  2.0001026E-02;1448;-0.065239623;0.0;0.00061091402;1000.9377;  4.0000001E-01;776.86676;3;-22.044426;0.0;0.24840112;0;-0.34321386;  1.0019962E+04;  0.0000000E+00;  9.9981690E-10;  1.0000000E+04;  0.0000000E+00;  9.9988018E+03;-0.3751803;0.0;0.031966455;630.52557
  2.5985774E-01;  9.9999998E-03;  4.0002067E-02;1449;-0.065357193;0.0;0.0012200159;1000.9401;  4.0000001E-01;778.84198;3;-21.99506;0.0;0.49242911;0;-0.34373784;  1.0020035E+04;  0.0000000E+00; -1.7001837E-09;  1.0000000E+04;  0.0000000E+00;  9.9987764E+03;-0.37557799;0.0;0.031840131;642.77838
  2.5985691E-01;  9.9999998E-03;  6.0003147E-02;1450;-0.06553711;0.0;0.0018298751;1000.944;  4.0000001E-01;782.10114;3;-21.909929;0.0;0.73231173;0;-0.3446185;  1.0020152E+04;  0.0000000E+00;  2.3695110E-10;  1.0000000E+04;  0.0000000E+00;  9.9987432E+03;-0.3761977;0.0;0.031579193;661.76624
  2.5985581E-01;  9.9999998E-03;  8.0004275E-02;1451;-0.065754838;0.0;0.002436924;1000.9496;  4.0000001E-01;786.74298;3;-21.78759;0.0;0.95443499;0;-0.34586227;  1.0020308E+04;  0.0000000E+00;  5.2666480E-09;  1.0000000E+04;  0.0000000E+00;  9.9986963E+03;-0.37698296;0.0;0.031120697;685.62476
  2.5985456E-01;  9.9999998E-03;  1.0000546E-01;1452;-0.065973379;0.0;0.0030327735;1000.9567;  4.0000001E-01;792.66876;3;-21.619093;0.0;1.162147;0;-0.34745413;  1.0020502E+04;  0.0000000E+00;  5.8717875E-10;  1.0000000E+04;  0.0000000E+00;  9.9986455E+03;-0.3778764;0.0;0.030422276;712.62054
  2.5985324E-01;  9.9999998E-03;  1.2000670E-01;1453;-0.06614425;0.0;0.0036093534;1000.9651;  4.0000001E-01;799.58215;3;-21.396578;0.0;1.3568269;0;-0.34929574;  1.0020721E+04;  0.0000000E+00; -2.3721354E-08;  1.0000000E+04;  0.0000000E+00;  9.9985918E+03;-0.37884209;0.0;0.029546343;742.88733
  2.5985208E-01;  9.9999998E-03;  1.4000796E-01;1454;-0.066204555;0.0;0.0041502095;1000.9734;  4.0000001E-01;806.39679;3;-21.113482;0.0;1.5302777;0;-0.35111168;  1.0020964E+04;  0.0000000E+00; -7.9250015E-08;  1.0000000E+04;  0.0000000E+00;  9.9985166E+03;-0.37989557;0.0;0.028783875;781.35815
  2.7983814E-01;  9.9999998E-03; -1.4821328E-13;1478;-0.073126897;0.0;9.5253316e-10;1001.0429;  4.0000001E-01;864.07416;3;-24.171009;0.0;-8.3058876e-06;0;-0.37014619;  1.0022383E+04;  0.0000000E+00; -5.7452376E-16;  1.0000000E+04;  0.0000000E+00;  9.9984873E+03;-0.41034818;0.0;0.040201999;785.39282
  2.7983794E-01;  9.9999998E-03;  2.0001352E-02;1479;-0.073171392;0.0;0.00078878197;1001.0436;  4.0000001E-01;864.56793;3;-24.151581;0.0;0.30412978;0;-0.37029058;  1.0022409E+04;  0.0000000E+00; -1.7164022E-10;  1.0000000E+04;  0.0000000E+00;  9.9984766E+03;-0.41045159;0.0;0.040161014;790.76563
  2.7983734E-01;  9.9999998E-03;  4.0002726E-02;1480;-0.073300578;0.0;0.0015753589;1001.0459;  4.0000001E-01;866.54321;3;-24.095922;0.0;0.59346038;0;-0.37072349;  1.0022487E+04;  0.0000000E+00; -7.1474129E-09;  1.0000000E+04;  0.0000000E+00;  9.9984453E+03;-0.41075027;0.0;0.040026773;806.47461
  2.7983636E-01;  9.9999998E-03;  6.0004145E-02;1481;-0.073497817;0.0;0.0023628832;1001.05;  4.0000001E-01;869.90112;3;-23.995188;0.0;0.88646203;0;-0.37144473;  1.0022616E+04;  0.0000000E+00; -2.5160668E-08;  1.0000000E+04;  0.0000000E+00;  9.9983965E+03;-0.41121241;0.0;0.039767679;831.37024
  2.7983508E-01;  9.9999998E-03;  8.0005631E-02;1482;-0.073735297;0.0;0.0031460884;1001.0552;  4.0000001E-01;874.14795;3;-23.8486;0.0;1.1701868;0;-0.37244806;  1.0022790E+04;  0.0000000E+00; -6.6832420E-08;  1.0000000E+04;  0.0000000E+00;  9.9983350E+03;-0.4117921;0.0;0.039344039;863.8584
  2.7983359E-01;  9.9999998E-03;  1.0000719E-01;1483;-0.073974386;0.0;0.0039228024;1001.0624;  4.0000001E-01;880.17242;3;-23.648642;0.0;1.440797;0;-0.37369826;  1.0023000E+04;  0.0000000E+00; -1.5816236E-07;  1.0000000E+04;  0.0000000E+00;  9.9982617E+03;-0.41244361;0.0;0.038745336;902.66089
  2.7983204E-01;  9.9999998E-03;  1.2000882E-01;1484;-0.074162744;0.0;0.0046833321;1001.0703;  4.0000001E-01;886.6908;3;-23.389526;0.0;1.6977156;0;-0.37507358;  1.0023246E+04;  0.0000000E+00; -3.1552153E-07;  1.0000000E+04;  0.0000000E+00;  9.9981709E+03;-0.41314399;0.0;0.038070407;948.58716
  2.7983060E-01;  9.9999998E-03;  1.4001052E-01;1485;-0.074236326;0.0;0.0054223724;1001.0781;  4.0000001E-01;893.20911;3;-23.06119;0.0;1.9440316;0;-0.37629068;  1.0023518E+04;  0.0000000E+00; -3.5009560E-07;  1.0000000E+04;  0.0000000E+00;  9.9980605E+03;-0.41392663;0.0;0.037635952;1007.3384
  2.9981533E-01;  9.9999998E-03; -3.0683190E-12;1509;-0.081798919;0.0;-2.9081553e-09;1001.1605;  4.0000001E-01;961.45392;3;-26.380402;0.0;-6.0726725e-06;0;-0.39914769;  1.0025104E+04;  0.0000000E+00; -6.2063760E-15;  1.0000000E+04;  0.0000000E+00;  9.9981230E+03;-0.44854957;0.0;0.049401868;965.52173
  2.9981509E-01;  9.9999998E-03;  2.0001722E-02;1510;-0.081846207;0.0;0.00098580576;1001.1614;  4.0000001E-01;962.14526;3;-26.357529;0.0;0.35715011;0;-0.39925379;  1.0025134E+04;  0.0000000E+00; -4.7307580E-09;  1.0000000E+04;  0.0000000E+00;  9.9981074E+03;-0.44860363;0.0;0.049349852;972.21399
  2.9981440E-01;  9.9999998E-03;  4.0003475E-02;1511;-0.081982657;0.0;0.001971405;1001.1635;  4.0000001E-01;963.92297;3;-26.286791;0.0;0.7089625;0;-0.39956951;  1.0025217E+04;  0.0000000E+00; -1.7951674E-08;  1.0000000E+04;  0.0000000E+00;  9.9980684E+03;-0.44875842;0.0;0.049188923;991.94501
  2.9981327E-01;  9.9999998E-03;  6.0005277E-02;1512;-0.082191609;0.0;0.0029584048;1001.1674;  4.0000001E-01;967.18213;3;-26.167679;0.0;1.0622996;0;-0.40008548;  1.0025356E+04;  0.0000000E+00; -6.1633337E-08;  1.0000000E+04;  0.0000000E+00;  9.9980098E+03;-0.4489913;0.0;0.048905823;1023.7506
  2.9981181E-01;  9.9999998E-03;  8.0007166E-02;1513;-0.082444325;0.0;0.0039449157;1001.1729;  4.0000001E-01;971.72522;3;-25.995829;0.0;1.4082558;0;-0.40078092;  1.0025547E+04;  0.0000000E+00; -1.5696804E-07;  1.0000000E+04;  0.0000000E+00;  9.9979258E+03;-0.44926962;0.0;0.048488718;1066.3323
  2.9981008E-01;  9.9999998E-03;  1.0000915E-01;1514;-0.082696714;0.0;0.0049282033;1001.1794;  4.0000001E-01;977.05841;3;-25.757345;0.0;1.7569342;0;-0.40160254;  1.0025777E+04;  0.0000000E+00; -3.2424961E-07;  1.0000000E+04;  0.0000000E+00;  9.9978232E+03;-0.44956067;0.0;0.047958139;1118.7758
  2.9980826E-01;  9.9999998E-03;  1.2001125E-01;1515;-0.082896903;0.0;0.005905082;1001.1864;  4.0000001E-01;982.88544;3;-25.455473;0.0;2.0882246;0;-0.40241349;  1.0026047E+04;  0.0000000E+00; -5.2938401E-07;  1.0000000E+04;  0.0000000E+00;  9.9977002E+03;-0.44984812;0.0;0.047434617;1182.1683
  2.9980651E-01;  9.9999998E-03;  1.4001347E-01;1516;-0.082979985;0.0;0.006869447;1001.1934;  4.0000001E-01;988.7124;3;-25.080339;0.0;2.3973246;0;-0.40293509;  1.0026344E+04;  0.0000000E+00; -5.2140206E-07;  1.0000000E+04;  0.0000000E+00;  9.9975410E+03;-0.45016101;0.0;0.047225937;1262.0869
  3.1978974E-01;  9.9999998E-03; -6.3006371E-12;1540;-0.091273561;0.0;-5.6707683e-09;1001.291;  4.0000001E-01;1069.599;3;-28.675896;0.0;-2.3257298e-05;0;-0.43029526;  1.0028122E+04;  0.0000000E+00;  4.3180218E-16;  1.0000000E+04;  0.0000000E+00;  9.9977188E+03;-0.48968747;0.0;0.059392203;1164.061
  3.1978947E-01;  9.9999998E-03;  2.0002136E-02;1541;-0.091322057;0.0;0.0012105919;1001.2917;  4.0000001E-01;1070.1915;3;-28.648325;0.0;0.42455578;0;-0.43035787;  1.0028155E+04;  0.0000000E+00; -7.0853305E-09;  1.0000000E+04;  0.0000000E+00;  9.9977021E+03;-0.48967555;0.0;0.059317671;1172.2064
  3.1978866E-01;  9.9999998E-03;  4.0004302E-02;1542;-0.091461666;0.0;0.0024203944;1001.2937;  4.0000001E-01;1071.7717;3;-28.564854;0.0;0.85266775;0;-0.43053868;  1.0028242E+04;  0.0000000E+00; -3.2913348E-08;  1.0000000E+04;  0.0000000E+00;  9.9976543E+03;-0.4896355;0.0;0.059096821;1196.3666
  3.1978741E-01;  9.9999998E-03;  6.0006533E-02;1543;-0.091675542;0.0;0.0036249214;1001.2974;  4.0000001E-01;1074.8334;3;-28.426514;0.0;1.2649803;0;-0.43082038;  1.0028391E+04;  0.0000000E+00; -1.0907848E-07;  1.0000000E+04;  0.0000000E+00;  9.9975791E+03;-0.48955762;0.0;0.058737237;1235.7587
  3.1978571E-01;  9.9999998E-03;  8.0008857E-02;1544;-0.09193299;0.0;0.0048258533;1001.3025;  4.0000001E-01;1079.0802;3;-28.221512;0.0;1.6773031;0;-0.43117049;  1.0028592E+04;  0.0000000E+00; -2.5420630E-07;  1.0000000E+04;  0.0000000E+00;  9.9974756E+03;-0.48942652;0.0;0.058256023;1289.3082
  3.1978375E-01;  9.9999998E-03;  1.0001132E-01;1545;-0.092191644;0.0;0.0060283048;1001.3083;  4.0000001E-01;1083.9196;3;-27.946054;0.0;2.082653;0;-0.43152472;  1.0028846E+04;  0.0000000E+00; -4.8519070E-07;  1.0000000E+04;  0.0000000E+00;  9.9973428E+03;-0.48922491;0.0;0.057700198;1356.2441
  3.1978160E-01;  9.9999998E-03;  1.2001393E-01;1546;-0.09239652;0.0;0.0072287996;1001.3149;  4.0000001E-01;1089.3514;3;-27.594839;0.0;2.4747603;0;-0.43174383;  1.0029138E+04;  0.0000000E+00; -6.7884247E-07;  1.0000000E+04;  0.0000000E+00;  9.9971875E+03;-0.48894125;0.0;0.057197422;1437.4323
  3.1977952E-01;  9.9999998E-03;  1.4001670E-01;1547;-0.092481956;0.0;0.0084203193;1001.3212;  4.0000001E-01;1094.5859;3;-27.164118;0.0;2.8490267;0;-0.43156511;  1.0029461E+04;  0.0000000E+00; -5.2726926E-07;  1.0000000E+04;  0.0000000E+00;  9.9969854E+03;-0.48858532;0.0;0.057020228;1537.4775
  3.3976102E-01;  9.9999998E-03; -3.1069442E-12;1571;-0.10161152;0.0;-2.8855949e-09;1001.4355;  4.0000001E-01;1189.2992;3;-31.055569;0.0;5.4827997e-06;0;-0.46384159;  1.0031445E+04;  0.0000000E+00;  1.7939895E-15;  1.0000000E+04;  0.0000000E+00;  9.9972871E+03;-0.53374076;0.0;0.069899179;1378.2909
  3.3976072E-01;  9.9999998E-03;  2.0002581E-02;1572;-0.10165976;0.0;0.0014573638;1001.4361;  4.0000001E-01;1189.793;3;-31.023945;0.0;0.49683505;0;-0.46385616;  1.0031478E+04;  0.0000000E+00; -9.5893293E-09;  1.0000000E+04;  0.0000000E+00;  9.9972676E+03;-0.53364444;0.0;0.069788292;1387.9717
  3.3975983E-01;  9.9999998E-03;  4.0005196E-02;1573;-0.10179838;0.0;0.0029059432;1001.4379;  4.0000001E-01;1191.2744;3;-30.930323;0.0;0.98525274;0;-0.46389097;  1.0031575E+04;  0.0000000E+00; -4.7748109E-08;  1.0000000E+04;  0.0000000E+00;  9.9972070E+03;-0.53335732;0.0;0.069466352;1416.7968
  3.3975840E-01;  9.9999998E-03;  6.0007885E-02;1574;-0.10200883;0.0;0.0043428699;1001.4414;  4.0000001E-01;1194.1385;3;-30.765005;0.0;1.4641755;0;-0.46392184;  1.0031733E+04;  0.0000000E+00; -1.5518147E-07;  1.0000000E+04;  0.0000000E+00;  9.9971162E+03;-0.53288436;0.0;0.068962522;1464.1256
  3.3975649E-01;  9.9999998E-03;  8.0010690E-02;1575;-0.10226149;0.0;0.0057703634;1001.4462;  4.0000001E-01;1198.089;3;-30.526096;0.0;1.9367385;0;-0.46390998;  1.0031953E+04;  0.0000000E+00; -3.6239547E-07;  1.0000000E+04;  0.0000000E+00;  9.9969912E+03;-0.53223127;0.0;0.06832128;1528.9867
  3.3975425E-01;  9.9999998E-03;  1.0001364E-01;1576;-0.10251348;0.0;0.0071891751;1001.4515;  4.0000001E-01;1202.5333;3;-30.206902;0.0;2.3991625;0;-0.46378899;  1.0032225E+04;  0.0000000E+00; -6.2313950E-07;  1.0000000E+04;  0.0000000E+00;  9.9968330E+03;-0.53140092;0.0;0.067611918;1610.4873
  3.3975178E-01;  9.9999998E-03;  1.2001679E-01;1577;-0.10270947;0.0;0.0086008869;1001.4578;  4.0000001E-01;1207.7678;3;-29.800673;0.0;2.8453417;0;-0.46343005;  1.0032541E+04;  0.0000000E+00; -8.2856951E-07;  1.0000000E+04;  0.0000000E+00;  9.9966396E+03;-0.53039086;0.0;0.066960827;1708.832
  3.3974931E-01;  9.9999998E-03;  1.4002015E-01;1578;-0.10278555;0.0;0.010014729;1001.463;  4.0000001E-01;1212.1133;3;-29.306551;0.0;3.2787526;0;-0.46259832;  1.0032888E+04;  0.0000000E+00; -5.5831839E-07;  1.0000000E+04;  0.0000000E+00;  9.9964033E+03;-0.52919257;0.0;0.066594236;1827.0852
  3.5972887E-01;  9.9999998E-03; -5.0654051E-12;1602;-0.11288076;0.0;-2.8019171e-09;1001.5945;  4.0000001E-01;1321.0483;3;-33.520973;0.0;-1.7078055e-05;0;-0.49999467;  1.0035097E+04;  0.0000000E+00;  1.3261580E-17;  1.0000000E+04;  0.0000000E+00;  9.9968281E+03;-0.58059758;0.0;0.080602907;1606.3851
  3.5972852E-01;  9.9999998E-03;  2.0003041E-02;1603;-0.1129265;0.0;0.001703285;1001.5953;  4.0000001E-01;1321.641;3;-33.485794;0.0;0.55435336;0;-0.49995768;  1.0035131E+04;  0.0000000E+00; -1.1559218E-08;  1.0000000E+04;  0.0000000E+00;  9.9968057E+03;-0.58040017;0.0;0.080442481;1617.6216
  3.5972753E-01;  9.9999998E-03;  4.0006123E-02;1604;-0.11305634;0.0;0.003398801;1001.5972;  4.0000001E-01;1323.2212;3;-33.372791;0.0;1.1049489;0;-0.49983633;  1.0035233E+04;  0.0000000E+00; -6.4505372E-08;  1.0000000E+04;  0.0000000E+00;  9.9967412E+03;-0.57981646;0.0;0.07998012;1651.1665
  3.5972595E-01;  9.9999998E-03;  6.0009297E-02;1605;-0.11325358;0.0;0.0050797155;1001.6002;  4.0000001E-01;1325.7889;3;-33.180305;0.0;1.6509215;0;-0.49960229;  1.0035405E+04;  0.0000000E+00; -2.0076686E-07;  1.0000000E+04;  0.0000000E+00;  9.9966318E+03;-0.57886851;0.0;0.07926622;1706.4796
  3.5972381E-01;  9.9999998E-03;  8.0012597E-02;1606;-0.11348672;0.0;0.0067350287;1001.6045;  4.0000001E-01;1329.2456;3;-32.901974;0.0;2.1779702;0;-0.49921593;  1.0035638E+04;  0.0000000E+00; -4.4600182E-07;  1.0000000E+04;  0.0000000E+00;  9.9964844E+03;-0.57758784;0.0;0.078371905;1782.5858
  3.5972124E-01;  9.9999998E-03;  1.0001607E-01;1607;-0.11371523;0.0;0.0083718468;1001.6095;  4.0000001E-01;1333.3937;3;-32.531925;0.0;2.6896577;0;-0.49861944;  1.0035931E+04;  0.0000000E+00; -7.9186088E-07;  1.0000000E+04;  0.0000000E+00;  9.9962939E+03;-0.5760057;0.0;0.077386267;1878.2485
  3.5971844E-01;  9.9999998E-03;  1.2001976E-01;1608;-0.11388485;0.0;0.0099908961;1001.6154;  4.0000001E-01;1338.3318;3;-32.064079;0.0;3.183054;0;-0.49770409;  1.0036271E+04;  0.0000000E+00; -1.0095212E-06;  1.0000000E+04;  0.0000000E+00;  9.9960723E+03;-0.57413602;0.0;0.07643193;1992.7224
  3.5971555E-01;  9.9999998E-03;  1.4002371E-01;1609;-0.11392981;0.0;0.011592631;1001.6208;  4.0000001E-01;1342.7761;3;-31.496784;0.0;3.6509666;0;-0.49627045;  1.0036642E+04;  0.0000000E+00; -6.9007910E-07;  1.0000000E+04;  0.0000000E+00;  9.9958027E+03;-0.57196295;0.0;0.075692497;2127.3367
  3.7969291E-01;  9.9999998E-03; -8.6049969E-12;1633;-0.12514561;0.0;-2.5275382e-09;1001.7689;  4.0000001E-01;1465.5377;3;-36.067539;0.0;2.8030136e-06;0;-0.53886318;  1.0039074E+04;  0.0000000E+00;  2.7814523E-15;  1.0000000E+04;  0.0000000E+00;  9.9963408E+03;-0.63003302;0.0;0.091169856;1848.8313
  3.7969255E-01;  9.9999998E-03;  2.0003507E-02;1634;-0.12518498;0.0;0.0019458896;1001.7696;  4.0000001E-01;1466.0315;3;-36.022968;0.0;0.60856062;0;-0.53877121;  1.0039112E+04;  0.0000000E+00; -1.5511739E-08;  1.0000000E+04;  0.0000000E+00;  9.9963154E+03;-0.62972099;0.0;0.090949796;1861.5688
  3.7969145E-01;  9.9999998E-03;  4.0007062E-02;1635;-0.1252984;0.0;0.0038814852;1001.7715;  4.0000001E-01;1467.7104;3;-35.890781;0.0;1.2172661;0;-0.53848308;  1.0039225E+04;  0.0000000E+00; -8.0627743E-08;  1.0000000E+04;  0.0000000E+00;  9.9962441E+03;-0.62880015;0.0;0.090317093;1899.6675
  3.7968969E-01;  9.9999998E-03;  6.0010720E-02;1636;-0.12546779;0.0;0.0057950988;1001.7744;  4.0000001E-01;1470.0808;3;-35.66589;0.0;1.8131945;0;-0.53796804;  1.0039410E+04;  0.0000000E+00; -2.4300277E-07;  1.0000000E+04;  0.0000000E+00;  9.9961182E+03;-0.62731332;0.0;0.089345291;1962.6759
  3.7968731E-01;  9.9999998E-03;  8.0014527E-02;1637;-0.12566496;0.0;0.0076817302;1001.7786;  4.0000001E-01;1473.5375;3;-35.343216;0.0;2.3925457;0;-0.5371905;  1.0039657E+04;  0.0000000E+00; -5.4426278E-07;  1.0000000E+04;  0.0000000E+00;  9.9959541E+03;-0.62532318;0.0;0.088132672;2049.55
  3.7968445E-01;  9.9999998E-03;  1.0001853E-01;1638;-0.1258481;0.0;0.0095276982;1001.7837;  4.0000001E-01;1477.7843;3;-34.91494;0.0;2.9428701;0;-0.53610677;  1.0039975E+04;  0.0000000E+00; -9.5574376E-07;  1.0000000E+04;  0.0000000E+00;  9.9957393E+03;-0.6228947;0.0;0.086787917;2158.5789
  3.7968126E-01;  9.9999998E-03;  1.2002279E-01;1639;-0.12596683;0.0;0.011340805;1001.7895;  4.0000001E-01;1482.5249;3;-34.377056;0.0;3.4686708;0;-0.53463835;  1.0040347E+04;  0.0000000E+00; -1.1939727E-06;  1.0000000E+04;  0.0000000E+00;  9.9954873E+03;-0.6200698;0.0;0.085431479;2287.9558
  3.7967795E-01;  9.9999998E-03;  1.4002734E-01;1640;-0.1259561;0.0;0.013123552;1001.795;  4.0000001E-01;1487.1667;3;-33.726082;0.0;3.9690659;0;-0.53262466;  1.0040752E+04;  0.0000000E+00; -9.6044994E-07;  1.0000000E+04;  0.0000000E+00;  9.9951924E+03;-0.61683947;0.0;0.084214784;2437.4275
  3.9965287E-01;  9.9999998E-03; -1.7176917E-13;1664;-0.13845809;0.0;-9.3867658e-10;1001.9589;  4.0000001E-01;1622.8662;3;-38.682411;0.0;-1.1864028e-05;0;-0.58040732;  1.0043399E+04;  0.0000000E+00;  4.8696377E-15;  1.0000000E+04;  0.0000000E+00;  9.9958242E+03;-0.68169934;0.0;0.10129204;2110.1848
  3.9965245E-01;  9.9999998E-03;  2.0003974E-02;1665;-0.13848895;0.0;0.0021771975;1001.9593;  4.0000001E-01;1623.2612;3;-38.630924;0.0;0.65899509;0;-0.58025634;  1.0043438E+04;  0.0000000E+00; -2.1821519E-08;  1.0000000E+04;  0.0000000E+00;  9.9957959E+03;-0.68126357;0.0;0.10100724;2124.2734
  3.9965126E-01;  9.9999998E-03;  4.0008005E-02;1666;-0.13857655;0.0;0.0043391204;1001.961;  4.0000001E-01;1624.6439;3;-38.476414;0.0;1.3120873;0;-0.57979071;  1.0043559E+04;  0.0000000E+00; -1.1111900E-07;  1.0000000E+04;  0.0000000E+00;  9.9957158E+03;-0.67998111;0.0;0.10019041;2166.479
  3.9964929E-01;  9.9999998E-03;  6.0012147E-02;1667;-0.13870384;0.0;0.0064723236;1001.9642;  4.0000001E-01;1627.3105;3;-38.215595;0.0;1.950487;0;-0.57897729;  1.0043753E+04;  0.0000000E+00; -3.0416271E-07;  1.0000000E+04;  0.0000000E+00;  9.9955791E+03;-0.6779176;0.0;0.098940313;2236.4275
  3.9964667E-01;  9.9999998E-03;  8.0016457E-02;1668;-0.13884322;0.0;0.0085652526;1001.9688;  4.0000001E-01;1631.0635;3;-37.841854;0.0;2.5641141;0;-0.57778597;  1.0044030E+04;  0.0000000E+00; -6.5055298E-07;  1.0000000E+04;  0.0000000E+00;  9.9953906E+03;-0.67517138;0.0;0.097385429;2332.96
  3.9964348E-01;  9.9999998E-03;  1.0002100E-01;1669;-0.13895753;0.0;0.01061223;1001.974;  4.0000001E-01;1635.4091;3;-37.348598;0.0;3.1439695;0;-0.57619244;  1.0044375E+04;  0.0000000E+00; -1.0841964E-06;  1.0000000E+04;  0.0000000E+00;  9.9951563E+03;-0.67184663;0.0;0.095654167;2453.8201
  3.9963990E-01;  9.9999998E-03;  1.2002583E-01;1670;-0.13899665;0.0;0.012605214;1001.9806;  4.0000001E-01;1640.8409;3;-36.729652;0.0;3.6935034;0;-0.57415479;  1.0044782E+04;  0.0000000E+00; -1.3259644E-06;  1.0000000E+04;  0.0000000E+00;  9.9948789E+03;-0.66802168;0.0;0.093866862;2596.1855
  3.9963612E-01;  9.9999998E-03;  1.4003100E-01;1671;-0.13890176;0.0;0.014551739;1001.9868;  4.0000001E-01;1646.0754;3;-35.988316;0.0;4.2045531;0;-0.57155305;  1.0045230E+04;  0.0000000E+00; -1.1516552E-06;  1.0000000E+04;  0.0000000E+00;  9.9945615E+03;-0.66370559;0.0;0.092152558;2758.6682
  4.1960841E-01;  9.9999998E-03; -6.2391303E-12;1695;-0.15285906;0.0;-6.4758381e-09;1002.1625;  4.0000001E-01;1791.6508;3;-41.358879;0.0;-1.3144321e-05;0;-0.62438941;  1.0048062E+04;  0.0000000E+00; -2.2584323E-15;  1.0000000E+04;  0.0000000E+00;  9.9952500E+03;-0.7351163;0.0;0.11072687;2400.8901
  4.1960797E-01;  9.9999998E-03;  2.0004459E-02;1696;-0.15287811;0.0;0.0023890431;1002.1632;  4.0000001E-01;1792.1445;3;-41.29937;0.0;0.69746053;0;-0.62417626;  1.0048107E+04;  0.0000000E+00; -3.6568778E-08;  1.0000000E+04;  0.0000000E+00;  9.9952197E+03;-0.73455572;0.0;0.11037949;2416.0737
  4.1960666E-01;  9.9999998E-03;  4.0008973E-02;1697;-0.15293013;0.0;0.0047572521;1002.1654;  4.0000001E-01;1794.021;3;-41.121128;0.0;1.3844894;0;-0.62352133;  1.0048234E+04;  0.0000000E+00; -1.4972603E-07;  1.0000000E+04;  0.0000000E+00;  9.9951309E+03;-0.73290652;0.0;0.10938521;2461.5989
  4.1960451E-01;  9.9999998E-03;  6.0013607E-02;1698;-0.15299912;0.0;0.0070866551;1002.1688;  4.0000001E-01;1796.7864;3;-40.819672;0.0;2.0514748;0;-0.62239122;  1.0048453E+04;  0.0000000E+00; -3.8575905E-07;  1.0000000E+04;  0.0000000E+00;  9.9949863E+03;-0.73026067;0.0;0.10786944;2537.0986
  4.1960162E-01;  9.9999998E-03;  8.0018423E-02;1699;-0.1530593;0.0;0.0093636615;1002.1738;  4.0000001E-01;1800.9344;3;-40.389198;0.0;2.6840045;0;-0.62076384;  1.0048754E+04;  0.0000000E+00; -7.6230884E-07;  1.0000000E+04;  0.0000000E+00;  9.9947852E+03;-0.72675449;0.0;0.10599065;2641.1641
  4.1959807E-01;  9.9999998E-03;  1.0002350E-01;1700;-0.15307754;0.0;0.011584978;1002.1802;  4.0000001E-01;1806.2676;3;-39.822033;0.0;3.2848487;0;-0.61864042;  1.0049137E+04;  0.0000000E+00; -1.1612798E-06;  1.0000000E+04;  0.0000000E+00;  9.9945352E+03;-0.72253525;0.0;0.1038948;2770.8782
  4.1959405E-01;  9.9999998E-03;  1.2002891E-01;1701;-0.15300982;0.0;0.013740026;1002.1878;  4.0000001E-01;1812.5884;3;-39.115166;0.0;3.8307874;0;-0.61601883;  1.0049586E+04;  0.0000000E+00; -1.2259071E-06;  1.0000000E+04;  0.0000000E+00;  9.9942412E+03;-0.71771926;0.0;0.1017004;2922.5176
  4.1958976E-01;  9.9999998E-03;  1.4003471E-01;1702;-0.15280078;0.0;0.01583821;1002.1962;  4.0000001E-01;1819.5017;3;-38.272579;0.0;4.3389916;0;-0.61282235;  1.0050087E+04;  0.0000000E+00; -7.8313121E-07;  1.0000000E+04;  0.0000000E+00;  9.9939033E+03;-0.71234328;0.0;0.099520914;3094.2388
  4.3955925E-01;  9.9999998E-03;  5.6764810E-12;1726;-0.16837633;0.0;3.0419809e-09;1002.3787;  4.0000001E-01;1970.7064;3;-44.084572;0.0;3.9742745e-06;0;-0.67026341;  1.0053064E+04;  0.0000000E+00;  3.3661430E-15;  1.0000000E+04;  0.0000000E+00;  9.9945869E+03;-0.78959757;0.0;0.11933419;2738.7681
  4.3955877E-01;  9.9999998E-03;  2.0004986E-02;1727;-0.16838005;0.0;0.0025755335;1002.3795;  4.0000001E-01;1971.299;3;-44.016586;0.0;0.72074556;0;-0.66998249;  1.0053110E+04;  0.0000000E+00; -4.6389015E-08;  1.0000000E+04;  0.0000000E+00;  9.9945576E+03;-0.7889176;0.0;0.11893511;2754.6904
  4.3955731E-01;  9.9999998E-03;  4.0010028E-02;1728;-0.16838619;0.0;0.0051243319;1002.3821;  4.0000001E-01;1973.5706;3;-43.811958;0.0;1.4282931;0;-0.66912448;  1.0053255E+04;  0.0000000E+00; -1.9837611E-07;  1.0000000E+04;  0.0000000E+00;  9.9944658E+03;-0.78691918;0.0;0.11779467;2802.4009
  4.3955496E-01;  9.9999998E-03;  6.0015190E-02;1729;-0.16837984;0.0;0.007621991;1002.3865;  4.0000001E-01;1977.126;3;-43.465466;0.0;2.1056199;0;-0.66765976;  1.0053489E+04;  0.0000000E+00; -4.7131181E-07;  1.0000000E+04;  0.0000000E+00;  9.9943184E+03;-0.78372031;0.0;0.11606057;2881.3186
  4.3955177E-01;  9.9999998E-03;  8.0020539E-02;1730;-0.16833858;0.0;0.010055244;1002.3925;  4.0000001E-01;1982.1628;3;-42.970825;0.0;2.7411952;0;-0.6655798;  1.0053821E+04;  0.0000000E+00; -8.2703735E-07;  1.0000000E+04;  0.0000000E+00;  9.9941074E+03;-0.77949226;0.0;0.11391247;2989.4368
  4.3954787E-01;  9.9999998E-03;  1.0002618E-01;1731;-0.16823532;0.0;0.012420026;1002.4005;  4.0000001E-01;1988.6812;3;-42.323578;0.0;3.3323143;0;-0.66292149;  1.0054244E+04;  0.0000000E+00; -1.0245074E-06;  1.0000000E+04;  0.0000000E+00;  9.9938467E+03;-0.77442467;0.0;0.11150321;3122.8374
  4.3954337E-01;  9.9999998E-03;  1.2003218E-01;1732;-0.16803417;0.0;0.014717418;1002.4107;  4.0000001E-01;1997.1748;3;-41.520111;0.0;3.8637381;0;-0.65973395;  1.0054748E+04;  0.0000000E+00; -5.4124592E-07;  1.0000000E+04;  0.0000000E+00;  9.9935498E+03;-0.76867419;0.0;0.10894022;3276.8953
  4.3953851E-01;  9.9999998E-03;  1.4003861E-01;1733;-0.16768464;0.0;0.016953303;1002.4217;  4.0000001E-01;2006.3596;3;-40.56715;0.0;4.3552628;0;-0.6559816;  1.0055308E+04;  0.0000000E+00;  7.7046451E-07;  1.0000000E+04;  0.0000000E+00;  9.9932139E+03;-0.76230693;0.0;0.10632533;3450.1509
  4.5950502E-01;  9.9999998E-03;  8.0393782E-12;1757;-0.18502901;0.0;-2.0303734e-09;1002.604;  4.0000093E-01;2157.3662;3;-46.844921;0.0;-2.2284656e-05;0;-0.71689641;  1.0058350E+04;  0.0000000E+00;  1.6008647E-14;  1.0000000E+04;  0.0000000E+00;  9.9937832E+03;-0.84399551;0.0;0.12709908;3149.5522
  4.5950449E-01;  9.9999998E-03;  2.0005612E-02;1758;-0.18501404;0.0;0.002735089;1002.6051;  4.0000084E-01;2158.2551;3;-46.768101;0.0;0.72910142;0;-0.71653938;  1.0058403E+04;  0.0000000E+00; -5.0018020E-08;  1.0000000E+04;  0.0000000E+00;  9.9937529E+03;-0.84320903;0.0;0.12666963;3165.8013
  4.5950291E-01;  9.9999998E-03;  4.0011276E-02;1759;-0.18496346;0.0;0.0054351971;1002.6082;  4.0000084E-01;2160.823;3;-46.533043;0.0;1.4361026;0;-0.71545732;  1.0058561E+04;  0.0000000E+00; -2.0788825E-07;  1.0000000E+04;  0.0000000E+00;  9.9936631E+03;-0.84089988;0.0;0.12544253;3214.3127
  4.5950034E-01;  9.9999998E-03;  6.0017046E-02;1760;-0.18486504;0.0;0.0080719898;1002.6138;  4.0000081E-01;2165.4646;3;-46.135807;0.0;2.1030288;0;-0.71363115;  1.0058819E+04;  0.0000000E+00; -4.5902223E-07;  1.0000000E+04;  0.0000000E+00;  9.9935088E+03;-0.83720469;0.0;0.12357357;3293.854
  4.5949683E-01;  9.9999998E-03;  8.0023006E-02;1761;-0.18470152;0.0;0.010632044;1002.6216;  4.0000081E-01;2171.8843;3;-45.571487;0.0;2.7171671;0;-0.71108401;  1.0059185E+04;  0.0000000E+00; -6.5765363E-07;  1.0000000E+04;  0.0000000E+00;  9.9933066E+03;-0.83232528;0.0;0.12124126;3401.1333
  4.5949247E-01;  9.9999998E-03;  1.0002927E-01;1762;-0.18445371;0.0;0.013115085;1002.6324;  4.0000087E-01;2180.8716;3;-44.837196;0.0;3.2762587;0;-0.70790756;  1.0059650E+04;  0.0000000E+00; -3.1547245E-07;  1.0000000E+04;  0.0000000E+00;  9.9930557E+03;-0.82648569;0.0;0.11857816;3530.4868
  4.5948744E-01;  9.9999998E-03;  1.2003591E-01;1763;-0.1840961;0.0;0.015532267;1002.6459;  4.0000090E-01;2192.1306;3;-43.92989;0.0;3.772222;0;-0.7042169;  1.0060206E+04;  0.0000000E+00;  1.4301471E-06;  1.0000000E+04;  0.0000000E+00;  9.9927744E+03;-0.81987715;0.0;0.11566023;3676.0352
  4.5948195E-01;  9.9999998E-03;  1.4004299E-01;1764;-0.18358532;0.0;0.017890479;1002.6617;  4.0000096E-01;2205.1672;3;-42.859455;0.0;4.2288723;0;-0.70002699;  1.0060835E+04;  0.0000000E+00;  4.7959702E-06;  1.0000000E+04;  0.0000000E+00;  9.9924668E+03;-0.81260544;0.0;0.11257847;3837.5247
  4.7944528E-01;  9.9999998E-03; -9.0944597E-13;1788;-0.20283034;0.0;3.6378551e-09;1002.8284;  4.0000263E-01;2343.334;3;-49.623852;0.0;5.0682393e-06;0;-0.76203042;  1.0063787E+04;  0.0000000E+00;  2.2291798E-16;  1.0000000E+04;  0.0000000E+00;  9.9927705E+03;-0.89615828;0.0;0.13412784;3665.9409
  4.7944471E-01;  9.9999998E-03;  2.0006413E-02;1789;-0.20279261;0.0;0.0028675892;1002.8297;  4.0000248E-01;2344.3218;3;-49.535015;0.0;0.71502775;0;-0.76158369;  1.0063845E+04;  0.0000000E+00; -4.3342542E-08;  1.0000000E+04;  0.0000000E+00;  9.9927432E+03;-0.89528543;0.0;0.13370174;3682.1243
  4.7944298E-01;  9.9999998E-03;  4.0012863E-02;1790;-0.20267537;0.0;0.0056924177;1002.8337;  4.0000254E-01;2347.6797;3;-49.26495;0.0;1.3999463;0;-0.76023787;  1.0064020E+04;  0.0000000E+00; -1.6681288E-07;  1.0000000E+04;  0.0000000E+00;  9.9926514E+03;-0.89271814;0.0;0.13248028;3730.0222
  4.7944012E-01;  9.9999998E-03;  6.0019407E-02;1791;-0.20246992;0.0;0.0084429784;1002.8406;  4.0000272E-01;2353.3091;3;-48.811016;0.0;2.0333948;0;-0.75800371;  1.0064302E+04;  0.0000000E+00; -2.6649013E-07;  1.0000000E+04;  0.0000000E+00;  9.9925020E+03;-0.88860488;0.0;0.13060115;3807.062
  4.7943625E-01;  9.9999998E-03;  8.0026135E-02;1792;-0.20216647;0.0;0.011107016;1002.8508;  4.0000242E-01;2361.8027;3;-48.171486;0.0;2.5998831;0;-0.75496209;  1.0064699E+04;  0.0000000E+00;  1.0731715E-08;  1.0000000E+04;  0.0000000E+00;  9.9923096E+03;-0.88316202;0.0;0.12819993;3907.5676
  4.7943142E-01;  9.9999998E-03;  1.0003315E-01;1793;-0.20175555;0.0;0.013691406;1002.8651;  4.0000269E-01;2373.6541;3;-47.343666;0.0;3.1011915;0;-0.75129312;  1.0065205E+04;  0.0000000E+00;  1.6814849E-06;  1.0000000E+04;  0.0000000E+00;  9.9920928E+03;-0.87663537;0.0;0.12534225;4022.8496
  4.7942579E-01;  9.9999998E-03;  1.2004056E-01;1794;-0.20122372;0.0;0.01621338;1002.8838;  4.0000257E-01;2389.1597;3;-46.327038;0.0;3.5352826;0;-0.7472102;  1.0065810E+04;  0.0000000E+00;  6.3511716E-06;  1.0000000E+04;  0.0000000E+00;  9.9918633E+03;-0.86924559;0.0;0.1220354;4144.9048
  4.7941956E-01;  9.9999998E-03;  1.4004840E-01;1795;-0.20053729;0.0;0.018680362;1002.9063;  4.0000263E-01;2407.7271;3;-45.134903;0.0;3.9336395;0;-0.74279267;  1.0066505E+04;  0.0000000E+00;  1.4269172E-05;  1.0000000E+04;  0.0000000E+00;  9.9916152E+03;-0.86115009;0.0;0.11835742;4275.3394
  4.9937955E-01;  9.9999998E-03; -1.1390592E-11;1819;-0.2217847;0.0;3.8950905e-09;1003.0356;  4.0000612E-01;2514.8821;3;-52.399555;0.0;1.6832579e-05;0;-0.80160648;  1.0069071E+04;  0.0000000E+00; -4.3758116E-15;  1.0000000E+04;  0.0000000E+00;  9.9914707E+03;-0.94221073;0.0;0.14060426;4324.8672
  4.9937889E-01;  9.9999998E-03;  2.0007480E-02;1820;-0.22172159;0.0;0.0029766038;1003.0374;  4.0000612E-01;2516.3635;3;-52.297207;0.0;0.67443591;0;-0.80104405;  1.0069126E+04;  0.0000000E+00; -1.8668620E-08;  1.0000000E+04;  0.0000000E+00;  9.9914434E+03;-0.94127411;0.0;0.14023004;4340.6797
  4.9937701E-01;  9.9999998E-03;  4.0014986E-02;1821;-0.22152975;0.0;0.0059049213;1003.0417;  4.0000609E-01;2520.0176;3;-51.986866;0.0;1.3145576;0;-0.79937053;  1.0069315E+04;  0.0000000E+00; -2.3881169E-08;  1.0000000E+04;  0.0000000E+00;  9.9913574E+03;-0.93851584;0.0;0.13914534;4386.75
  4.9937388E-01;  9.9999998E-03;  6.0022566E-02;1822;-0.22120588;0.0;0.008753309;1003.0505;  4.0000594E-01;2527.3259;3;-51.470306;0.0;1.8891722;0;-0.7966491;  1.0069620E+04;  0.0000000E+00;  2.4495424E-07;  1.0000000E+04;  0.0000000E+00;  9.9912197E+03;-0.93407774;0.0;0.13742861;4458.2476
  4.9936959E-01;  9.9999998E-03;  8.0030322E-02;1823;-0.2207495;0.0;0.011513432;1003.0631;  4.0000603E-01;2537.696;3;-50.748081;0.0;2.3809707;0;-0.7930578;  1.0070046E+04;  0.0000000E+00;  1.7502535E-06;  1.0000000E+04;  0.0000000E+00;  9.9910518E+03;-0.9281711;0.0;0.13511327;4545.6611
  4.9936423E-01;  9.9999998E-03;  1.0003836E-01;1824;-0.22016357;0.0;0.014198266;1003.0817;  4.0000594E-01;2553.103;3;-49.823277;0.0;2.7936733;0;-0.78891271;  1.0070587E+04;  0.0000000E+00;  6.5706540E-06;  1.0000000E+04;  0.0000000E+00;  9.9908896E+03;-0.92104119;0.0;0.13212848;4635.5347
  4.9935791E-01;  9.9999998E-03;  1.2004677E-01;1825;-0.21944565;0.0;0.016824633;1003.1068;  4.0000591E-01;2573.843;3;-48.694759;0.0;3.1348641;0;-0.78457463;  1.0071230E+04;  0.0000000E+00;  1.7583234E-05;  1.0000000E+04;  0.0000000E+00;  9.9907393E+03;-0.91293484;0.0;0.12836018;4716.4321
  4.9935085E-01;  9.9999998E-03;  1.4005554E-01;1826;-0.218574;0.0;0.019395499;1003.1368;  4.0000603E-01;2598.8298;3;-47.37944;0.0;3.4480731;0;-0.78020769;  1.0071976E+04;  0.0000000E+00;  3.4968136E-05;  1.0000000E+04;  0.0000000E+00;  9.9906055E+03;-0.90407681;0.0;0.12386914;4792.3843
  5.1930743E-01;  9.9999998E-03; -1.7813076E-11;1850;-0.24187285;0.0;8.2901686e-10;1003.2083;  4.0001655E-01;2657.9849;3;-55.153141;0.0;2.7166163e-05;0;-0.82932055;  1.0073659E+04;  0.0000000E+00; -1.0850153E-14;  1.0000000E+04;  0.0000000E+00;  9.9898076E+03;-0.9760316;0.0;0.14671108;5162.9082
  5.1930672E-01;  9.9999998E-03;  2.0008918E-02;1851;-0.24178255;0.0;0.0030666487;1003.2104;  4.0001658E-01;2659.7627;3;-55.033882;0.0;0.6080426;0;-0.82860929;  1.0073725E+04;  0.0000000E+00;  3.5689691E-08;  1.0000000E+04;  0.0000000E+00;  9.9897803E+03;-0.9750607;0.0;0.14645141;5178.1411
  5.1930463E-01;  9.9999998E-03;  4.0017851E-02;1852;-0.24151149;0.0;0.0060864431;1003.2156;  4.0001658E-01;2664.0093;3;-54.679428;0.0;1.1739029;0;-0.82651538;  1.0073922E+04;  0.0000000E+00;  2.9888986E-07;  1.0000000E+04;  0.0000000E+00;  9.9896973E+03;-0.97218913;0.0;0.14567377;5221.4321
  5.1930118E-01;  9.9999998E-03;  6.0026858E-02;1853;-0.2410633;0.0;0.009030628;1003.2257;  4.0001664E-01;2672.4041;3;-54.093727;0.0;1.6593348;0;-0.82319063;  1.0074243E+04;  0.0000000E+00;  1.5304914E-06;  1.0000000E+04;  0.0000000E+00;  9.9895781E+03;-0.96753567;0.0;0.14434506;5284.7212
  5.1929641E-01;  9.9999998E-03;  8.0036044E-02;1854;-0.24044803;0.0;0.011896589;1003.2414;  4.0001643E-01;2685.4407;3;-53.283379;0.0;2.0455515;0;-0.81895638;  1.0074684E+04;  0.0000000E+00;  5.8399096E-06;  1.0000000E+04;  0.0000000E+00;  9.9894521E+03;-0.96127731;0.0;0.14232095;5353.1064
  5.1929045E-01;  9.9999998E-03;  1.0004552E-01;1855;-0.23968077;0.0;0.014701417;1003.2643;  4.0001658E-01;2704.4031;3;-52.253536;0.0;2.336529;0;-0.81432819;  1.0075240E+04;  0.0000000E+00;  1.7335029E-05;  1.0000000E+04;  0.0000000E+00;  9.9893555E+03;-0.953641;0.0;0.13931277;5406.5625
  5.1928341E-01;  9.9999998E-03;  1.2005530E-01;1856;-0.23877081;0.0;0.017452713;1003.296;  4.0001652E-01;2730.6738;3;-51.014339;0.0;2.5560462;0;-0.80986488;  1.0075905E+04;  0.0000000E+00;  4.0495004E-05;  1.0000000E+04;  0.0000000E+00;  9.9893281E+03;-0.94488966;0.0;0.1350248;5429.0078
  5.1927543E-01;  9.9999998E-03;  1.4006530E-01;1857;-0.23770532;0.0;0.020138791;1003.3361;  4.0001664E-01;2763.8579;3;-49.578213;0.0;2.7540519;0;-0.80583245;  1.0076684E+04;  0.0000000E+00;  7.3535892E-05;  1.0000000E+04;  0.0000000E+00;  9.9893525E+03;-0.93533361;0.0;0.12950118;5427.8838
  5.3922898E-01;  9.9999998E-03; -7.8129468E-13;1881;-0.26298752;0.0;3.0009595e-09;1003.3326;  4.0004453E-01;2760.989;3;-57.857128;0.0;2.069147e-05;0;-0.83691198;  1.0076811E+04;  0.0000000E+00; -1.1869151E-14;  1.0000000E+04;  0.0000000E+00;  9.9877119E+03;-0.98944145;0.0;0.15252948;6211.5103
  5.3922820E-01;  9.9999998E-03;  2.0010822E-02;1882;-0.26286912;0.0;0.0031418819;1003.3347;  4.0004450E-01;2762.668;3;-57.721474;0.0;0.50600702;0;-0.83600855;  1.0076880E+04;  0.0000000E+00;  2.0929599E-07;  1.0000000E+04;  0.0000000E+00;  9.9876846E+03;-0.98846698;0.0;0.15245846;6225.9141
  5.3922588E-01;  9.9999998E-03;  4.0021677E-02;1883;-0.26251885;0.0;0.0062515819;1003.3406;  4.0004462E-01;2767.606;3;-57.318886;0.0;0.96168923;0;-0.83337957;  1.0077081E+04;  0.0000000E+00;  1.1515815E-06;  1.0000000E+04;  0.0000000E+00;  9.9876045E+03;-0.98556888;0.0;0.15218931;6265.457
  5.3922206E-01;  9.9999998E-03;  6.0032617E-02;1884;-0.26194632;0.0;0.0093023852;1003.3519;  4.0004453E-01;2776.9883;3;-56.658195;0.0;1.3262802;0;-0.82929707;  1.0077404E+04;  0.0000000E+00;  4.4516960E-06;  1.0000000E+04;  0.0000000E+00;  9.9875088E+03;-0.98082048;0.0;0.15152341;6318.1577
  5.3921682E-01;  9.9999998E-03;  8.0043748E-02;1885;-0.26117238;0.0;0.012299592;1003.3697;  4.0004459E-01;2791.7039;3;-55.753613;0.0;1.5784813;0;-0.82428074;  1.0077848E+04;  0.0000000E+00;  1.4283254E-05;  1.0000000E+04;  0.0000000E+00;  9.9874287E+03;-0.97434253;0.0;0.15006177;6362.627
  5.3921020E-01;  9.9999998E-03;  1.0005518E-01;1886;-0.26022208;0.0;0.015259376;1003.3969;  4.0004453E-01;2814.2217;3;-54.615227;0.0;1.710307;0;-0.81909668;  1.0078400E+04;  0.0000000E+00;  3.7181122E-05;  1.0000000E+04;  0.0000000E+00;  9.9874219E+03;-0.96631801;0.0;0.1472213;6371.2129
  5.3920233E-01;  9.9999998E-03;  1.2006687E-01;1887;-0.25911379;0.0;0.01817942;1003.4355;  4.0004444E-01;2846.2205;3;-53.265202;0.0;1.7888567;0;-0.81453812;  1.0079059E+04;  0.0000000E+00;  7.7739256E-05;  1.0000000E+04;  0.0000000E+00;  9.9875361E+03;-0.95701832;0.0;0.14248018;6323.27
  5.3919345E-01;  9.9999998E-03;  1.4007856E-01;1888;-0.25783968;0.0;0.021014534;1003.4845;  4.0004423E-01;2886.8118;3;-51.71093;0.0;1.8356378;0;-0.81095725;  1.0079835E+04;  0.0000000E+00;  1.2666536E-04;  1.0000000E+04;  0.0000000E+00;  9.9877471E+03;-0.94684374;0.0;0.13588649;6232.3872
  5.5914539E-01;  9.9999998E-03; -1.6682060E-11;1912;-0.28480265;0.0;-3.7733101e-09;1003.4337;  4.0011987E-01;2844.7319;3;-60.468731;0.0;7.2055263e-06;0;-0.81529307;  1.0077613E+04;  0.0000000E+00; -8.1705687E-15;  1.0000000E+04;  0.0000000E+00;  9.9851240E+03;-0.97331583;0.0;0.15802279;7496.8516
  5.5914450E-01;  9.9999998E-03;  2.0013327E-02;1913;-0.2846573;0.0;0.0032164515;1003.4359;  4.0011993E-01;2846.5098;3;-60.315144;0.0;0.35258707;0;-0.81414235;  1.0077680E+04;  0.0000000E+00;  5.7661674E-07;  1.0000000E+04;  0.0000000E+00;  9.9850986E+03;-0.97236037;0.0;0.15821803;7509.7959
  5.5914193E-01;  9.9999998E-03;  4.0026698E-02;1914;-0.28422737;0.0;0.0064113396;1003.442;  4.0012011E-01;2851.6453;3;-59.859585;0.0;0.65168238;0;-0.81082213;  1.0077872E+04;  0.0000000E+00;  2.8425018E-06;  1.0000000E+04;  0.0000000E+00;  9.9850264E+03;-0.96949637;0.0;0.15867423;7543.7817
  5.5913776E-01;  9.9999998E-03;  6.0040187E-02;1915;-0.28353286;0.0;0.0095839296;1003.4536;  4.0011999E-01;2861.1265;3;-59.121216;0.0;0.86320621;0;-0.8057552;  1.0078181E+04;  0.0000000E+00;  9.6123495E-06;  1.0000000E+04;  0.0000000E+00;  9.9849512E+03;-0.96473867;0.0;0.15898347;7583.0469
  5.5913198E-01;  9.9999998E-03;  8.0053903E-02;1916;-0.28260151;0.0;0.012748223;1003.4728;  4.0011978E-01;2877.1257;3;-58.119396;0.0;0.95398712;0;-0.79969364;  1.0078597E+04;  0.0000000E+00;  2.7327093E-05;  1.0000000E+04;  0.0000000E+00;  9.9849248E+03;-0.95813149;0.0;0.15843786;7599.999
  5.5912471E-01;  9.9999998E-03;  1.0006791E-01;1917;-0.28146321;0.0;0.015915297;1003.503;  4.0011987E-01;2902.1125;3;-56.870514;0.0;0.91305846;0;-0.79367507;  1.0079107E+04;  0.0000000E+00;  6.3498592E-05;  1.0000000E+04;  0.0000000E+00;  9.9850156E+03;-0.94979739;0.0;0.15612236;7560.4312
  5.5911613E-01;  9.9999998E-03;  1.2008212E-01;1918;-0.28013927;0.0;0.019060891;1003.546;  4.0011978E-01;2937.7656;3;-55.406384;0.0;0.80899954;0;-0.78870565;  1.0079717E+04;  0.0000000E+00;  1.1627637E-04;  1.0000000E+04;  0.0000000E+00;  9.9852734E+03;-0.93999749;0.0;0.15129183;7442.3984
  5.5910641E-01;  9.9999998E-03;  1.4009608E-01;1919;-0.27862155;0.0;0.022098262;1003.6006;  4.0011978E-01;2982.9983;3;-53.728943;0.0;0.66906244;0;-0.78516126;  1.0080447E+04;  0.0000000E+00;  1.6167226E-04;  1.0000000E+04;  0.0000000E+00;  9.9856445E+03;-0.92919683;0.0;0.14403555;7270.6807
  5.7905978E-01;  9.9999998E-03; -1.0380893E-11;1943;-0.3065539;0.0;-9.9004094e-10;1003.6448;  4.0031976E-01;3019.6294;3;-62.906689;0.0;9.2456758e-06;0;-0.75463498;  1.0074944E+04;  0.0000000E+00;  6.3051015E-15;  1.0000000E+04;  0.0000000E+00;  9.9819707E+03;-0.91797155;0.0;0.16333655;9047.9082
  5.7905883E-01;  9.9999998E-03;  2.0016409E-02;1944;-0.30638263;0.0;0.0032837915;1003.6467;  4.0031967E-01;3021.1108;3;-62.734222;0.0;0.14798795;0;-0.75315815;  1.0075000E+04;  0.0000000E+00;  1.2427066E-06;  1.0000000E+04;  0.0000000E+00;  9.9819502E+03;-0.91702414;0.0;0.163866;9057.9717
  5.7905602E-01;  9.9999998E-03;  4.0032856E-02;1945;-0.30587599;0.0;0.0065715332;1003.6526;  4.0031978E-01;3026.1477;3;-62.216755;0.0;0.25664529;0;-0.74891281;  1.0075173E+04;  0.0000000E+00;  5.5647934E-06;  1.0000000E+04;  0.0000000E+00;  9.9818994E+03;-0.91415989;0.0;0.1652471;9082.7451
  5.7905138E-01;  9.9999998E-03;  6.0049444E-02;1946;-0.30506334;0.0;0.0098705105;1003.6633;  4.0031967E-01;3034.9375;3;-61.38884;0.0;0.25991622;0;-0.74246973;  1.0075437E+04;  0.0000000E+00;  1.6459901E-05;  1.0000000E+04;  0.0000000E+00;  9.9818525E+03;-0.90932405;0.0;0.16685431;9104.3809
  5.7904512E-01;  9.9999998E-03;  8.0066323E-02;1947;-0.30397141;0.0;0.01322193;1003.6818;  4.0031961E-01;3050.2454;3;-60.283077;0.0;0.16126288;0;-0.73479766;  1.0075790E+04;  0.0000000E+00;  4.1146555E-05;  1.0000000E+04;  0.0000000E+00;  9.9818789E+03;-0.9024713;0.0;0.16767365;9091.8223
  5.7903725E-01;  9.9999998E-03;  1.0008355E-01;1948;-0.3026329;0.0;0.016634179;1003.7115;  4.0031952E-01;3074.9358;3;-58.897152;0.0;-0.021333922;0;-0.72715569;  1.0076208E+04;  0.0000000E+00;  8.2556078E-05;  1.0000000E+04;  0.0000000E+00;  9.9820527E+03;-0.89364648;0.0;0.16649079;9008.8936
  5.7902795E-01;  9.9999998E-03;  1.2010095E-01;1949;-0.30105445;0.0;0.020057026;1003.7541;  4.0031943E-01;3110.1936;3;-57.29974;0.0;-0.36217541;0;-0.72068453;  1.0076708E+04;  0.0000000E+00;  1.2127817E-04;  1.0000000E+04;  0.0000000E+00;  9.9824131E+03;-0.88307959;0.0;0.16239507;8839.3369
  5.7901764E-01;  9.9999998E-03;  1.4011790E-01;1950;-0.29921806;0.0;0.023385232;1003.8064;  4.0031943E-01;3153.4512;3;-55.483273;0.0;-0.67638755;0;-0.71577084;  1.0077308E+04;  0.0000000E+00;  1.1650305E-04;  1.0000000E+04;  0.0000000E+00;  9.9828711E+03;-0.87125915;0.0;0.1554883;8623.793
  5.9897774E-01;  9.9999998E-03;  7.1454201E-12;1974;-0.32684287;0.0;4.2881827e-09;1004.3332;  4.0082756E-01;3589.8616;3;-65.013077;0.0;1.0290532e-05;0;-0.6383338;  1.0067154E+04;  0.0000000E+00; -1.4916204E-14;  1.0000000E+04;  0.0000000E+00;  9.9781533E+03;-0.80785054;0.0;0.16951677;10909.788
  5.9897667E-01;  9.9999998E-03;  2.0020114E-02;1975;-0.32665274;0.0;0.0033197636;1004.3347;  4.0082750E-01;3591.1455;3;-64.83033;0.0;-0.087233499;0;-0.63641769;  1.0067195E+04;  0.0000000E+00;  2.1804733E-06;  1.0000000E+04;  0.0000000E+00;  9.9781416E+03;-0.80683982;0.0;0.17042214;10914.595
  5.9897357E-01;  9.9999998E-03;  4.0040240E-02;1976;-0.32608375;0.0;0.0066741868;1004.3395;  4.0082735E-01;3595.0959;3;-64.241722;0.0;-0.22842669;0;-0.63089287;  1.0067316E+04;  0.0000000E+00;  8.5852353E-06;  1.0000000E+04;  0.0000000E+00;  9.9781162E+03;-0.80376089;0.0;0.17286801;10924.341
  5.9896851E-01;  9.9999998E-03;  6.0060509E-02;1977;-0.32517242;0.0;0.010087666;1004.3483;  4.0082741E-01;3602.4043;3;-63.307354;0.0;-0.46563703;0;-0.62242514;  1.0067503E+04;  0.0000000E+00;  2.1487636E-05;  1.0000000E+04;  0.0000000E+00;  9.9781094E+03;-0.7984851;0.0;0.17605996;10922.746
  5.9896171E-01;  9.9999998E-03;  8.0081150E-02;1978;-0.32393691;0.0;0.013626034;1004.3633;  4.0082729E-01;3614.8481;3;-62.082745;0.0;-0.82273567;0;-0.61212301;  1.0067736E+04;  0.0000000E+00;  4.5119228E-05;  1.0000000E+04;  0.0000000E+00;  9.9781914E+03;-0.79088217;0.0;0.17875916;10880.855
  5.9895337E-01;  9.9999998E-03;  1.0010223E-01;1979;-0.32240039;0.0;0.017310547;1004.3878;  4.0082684E-01;3635.1929;3;-60.605511;0.0;-1.2708871;0;-0.60137296;  1.0068000E+04;  0.0000000E+00;  6.7740490E-05;  1.0000000E+04;  0.0000000E+00;  9.9784199E+03;-0.78092253;0.0;0.1795496;10768.35
  5.9894365E-01;  9.9999998E-03;  1.2012345E-01;1980;-0.32054812;0.0;0.021081256;1004.4213;  4.0082672E-01;3662.9448;3;-58.849903;0.0;-1.8167822;0;-0.59140456;  1.0068302E+04;  0.0000000E+00;  4.2437918E-05;  1.0000000E+04;  0.0000000E+00;  9.9788008E+03;-0.76878732;0.0;0.17738275;10582.423
  5.9893280E-01;  9.9999998E-03;  1.4014398E-01;1981;-0.31837866;0.0;0.024708197;1004.4598;  4.0082654E-01;3694.8445;3;-56.93293;0.0;-2.4415781;0;-0.58278483;  1.0068656E+04;  0.0000000E+00; -7.6217308E-05;  1.0000000E+04;  0.0000000E+00;  9.9792295E+03;-0.75496227;0.0;0.17217743;10378.593
  6.1890435E-01;  9.9999998E-03; -1.3796125E-12;2005;-0.34420627;0.0;5.0437308e-09;1006.2401;  4.0199304E-01;5169.71;3;-66.550957;0.0;-7.9126039e-08;0;-0.43472636;  1.0051759E+04;  0.0000000E+00; -6.9399794E-15;  1.0000000E+04;  0.0000000E+00;  9.9735088E+03;-0.61372793;0.0;0.17900155;13146.483
  6.1890322E-01;  9.9999998E-03;  2.0024478E-02;2006;-0.34400421;0.0;0.0032610195;1006.2412;  4.0199304E-01;5170.5986;3;-66.339371;0.0;-0.43911979;0;-0.43224153;  1.0051776E+04;  0.0000000E+00;  2.7003091E-06;  1.0000000E+04;  0.0000000E+00;  9.9735127E+03;-0.61251926;0.0;0.18027773;13142.758
  6.1889988E-01;  9.9999998E-03;  4.0048879E-02;2007;-0.34339589;0.0;0.0065854373;1006.2439;  4.0199283E-01;5172.8701;3;-65.685844;0.0;-0.93921214;0;-0.4250122;  1.0051821E+04;  0.0000000E+00;  8.2952311E-06;  1.0000000E+04;  0.0000000E+00;  9.9735313E+03;-0.60882646;0.0;0.18381426;13129.605
  6.1889440E-01;  9.9999998E-03;  6.0073406E-02;2008;-0.34240991;0.0;0.010062267;1006.2492;  4.0199277E-01;5177.2153;3;-64.668243;0.0;-1.4660745;0;-0.41372019;  1.0051884E+04;  0.0000000E+00;  1.3933396E-05;  1.0000000E+04;  0.0000000E+00;  9.9735791E+03;-0.60247511;0.0;0.1887549;13097.593
  6.1888719E-01;  9.9999998E-03;  8.0098271E-02;2009;-0.34108618;0.0;0.013736356;1006.2573;  4.0199247E-01;5183.9312;3;-63.360294;0.0;-2.1673093;0;-0.3995041;  1.0051935E+04;  0.0000000E+00;  1.4893712E-05;  1.0000000E+04;  0.0000000E+00;  9.9737109E+03;-0.59328187;0.0;0.19377777;13027.437
  6.1887842E-01;  9.9999998E-03;  1.0012346E-01;2010;-0.33938435;0.0;0.017671032;1006.27;  4.0199214E-01;5194.3999;3;-61.795116;0.0;-2.9161146;0;-0.38380504;  1.0051959E+04;  0.0000000E+00; -2.3229410E-05;  1.0000000E+04;  0.0000000E+00;  9.9739531E+03;-0.58117169;0.0;0.19736665;12902.96
  6.1886829E-01;  9.9999998E-03;  1.2014869E-01;2011;-0.33730814;0.0;0.021719035;1006.2855;  4.0199155E-01;5207.3374;3;-59.95417;0.0;-3.6799207;0;-0.36804777;  1.0051962E+04;  0.0000000E+00; -1.7183583E-04;  1.0000000E+04;  0.0000000E+00;  9.9742803E+03;-0.56629407;0.0;0.19824632;12737.935
  6.1885715E-01;  9.9999998E-03;  1.4017308E-01;2012;-0.33484551;0.0;0.025663264;1006.2978;  4.0199140E-01;5217.5098;3;-57.891293;0.0;-4.5580001;0;-0.35324931;  1.0051938E+04;  0.0000000E+00; -4.5812191E-04;  1.0000000E+04;  0.0000000E+00;  9.9745742E+03;-0.54906696;0.0;0.19581766;12594.568
  6.3884306E-01;  9.9999998E-03;  3.4601724E-11;2036;-0.35799083;0.0;1.0158169e-08;1010.0295;  4.0414250E-01;8308.9385;3;-67.354004;0.0;-7.677354e-07;0;-0.10081574;  1.0026040E+04;  0.0000000E+00;  6.5351954E-16;  1.0000000E+04;  0.0000000E+00;  9.9678848E+03;-0.29607317;0.0;0.19525743;15820.984
  6.3884187E-01;  9.9999998E-03;  2.0028934E-02;2037;-0.35777235;0.0;0.0031007621;1010.03;  4.0414229E-01;8309.4326;3;-67.126808;0.0;-1.0651661;0;-0.097691178;  1.0026022E+04;  0.0000000E+00;  1.0124073E-06;  1.0000000E+04;  0.0000000E+00;  9.9679160E+03;-0.29452062;0.0;0.19682944;15804.534
  6.3883829E-01;  9.9999998E-03;  4.0057775E-02;2038;-0.3571541;0.0;0.0063615213;1010.0304;  4.0414208E-01;8309.7285;3;-66.51226;0.0;-1.9834691;0;-0.088500842;  1.0025962E+04;  0.0000000E+00; -3.1339073E-06;  1.0000000E+04;  0.0000000E+00;  9.9679951E+03;-0.2897945;0.0;0.20129366;15758.181
  6.3883251E-01;  9.9999998E-03;  6.0086634E-02;2039;-0.35613957;0.0;0.0098583149;1010.03;  4.0414178E-01;8309.4326;3;-65.445839;0.0;-2.9072518;0;-0.073842585;  1.0025847E+04;  0.0000000E+00; -2.4790563E-05;  1.0000000E+04;  0.0000000E+00;  9.9681201E+03;-0.28172913;0.0;0.20788655;15685.434
  6.3882482E-01;  9.9999998E-03;  8.0115855E-02;2040;-0.35472739;0.0;0.013648068;1010.0287;  4.0414140E-01;8308.3467;3;-64.034859;0.0;-3.8385305;0;-0.054794163;  1.0025654E+04;  0.0000000E+00; -8.1067861E-05;  1.0000000E+04;  0.0000000E+00;  9.9682998E+03;-0.27015817;0.0;0.21536401;15584.321
  6.3881558E-01;  9.9999998E-03;  1.0014550E-01;2041;-0.3528991;0.0;0.01770851;1010.0241;  4.0414086E-01;8304.4951;3;-62.403049;0.0;-4.913763;0;-0.032882214;  1.0025358E+04;  0.0000000E+00; -2.2153425E-04;  1.0000000E+04;  0.0000000E+00;  9.9685332E+03;-0.25503296;0.0;0.22215074;15457.304
  6.3880515E-01;  9.9999998E-03;  1.2017509E-01;2042;-0.35061532;0.0;0.021879379;1010.0137;  4.0414008E-01;8295.9023;3;-60.491951;0.0;-5.9371977;0;-0.0099429935;  1.0024952E+04;  0.0000000E+00; -5.1566883E-04;  1.0000000E+04;  0.0000000E+00;  9.9687754E+03;-0.23649377;0.0;0.22655077;15330.409
  6.3879389E-01;  9.9999998E-03;  1.4020354E-01;2043;-0.34789199;0.0;0.025957596;1009.9915;  4.0413946E-01;8277.5332;3;-58.371731;0.0;-7.0001345;0;0.012273133;  1.0024409E+04;  0.0000000E+00; -9.4133534E-04;  1.0000000E+04;  0.0000000E+00;  9.9689150E+03;-0.21479315;0.0;0.22706628;15259.442
  6.5879679E-01;  9.9999998E-03; -2.6194543E-12;2067;-0.36755937;0.0;1.5957859e-08;1014.6038;  4.0687227E-01;12098.411;3;-67.608948;0.0;6.5082641e-06;0;0.39941978;  9.9884531E+03;  0.0000000E+00;  1.1480046E-14;  1.0000000E+04;  0.0000000E+00;  9.9612285E+03;0.17801517;0.0;0.22140461;18949.471
  6.5879554E-01;  9.9999998E-03;  2.0033972E-02;2068;-0.36734378;0.0;0.0028717197;1014.6037;  4.0687221E-01;12098.411;3;-67.316223;0.0;-1.4755001;0;0.40307176;  9.9883906E+03;  0.0000000E+00; -4.8562847E-06;  1.0000000E+04;  0.0000000E+00;  9.9612900E+03;0.17996217;0.0;0.2231096;18915.105
  6.5879190E-01;  9.9999998E-03;  4.0067803E-02;2069;-0.3667416;0.0;0.005866704;1014.6025;  4.0687218E-01;12097.424;3;-66.563362;0.0;-2.9117966;0;0.41393051;  9.9882041E+03;  0.0000000E+00; -3.2281165E-05;  1.0000000E+04;  0.0000000E+00;  9.9614600E+03;0.18584427;0.0;0.22808623;18822.307
  6.5878594E-01;  9.9999998E-03;  6.0101327E-02;2070;-0.36574671;0.0;0.0091620749;1014.5969;  4.0687186E-01;12092.782;3;-65.518967;0.0;-4.2715364;0;0.43158668;  9.9878721E+03;  0.0000000E+00; -1.0519898E-04;  1.0000000E+04;  0.0000000E+00;  9.9616943E+03;0.19574913;0.0;0.23583753;18693.127
  6.5877807E-01;  9.9999998E-03;  8.0134980E-02;2071;-0.36433026;0.0;0.012880182;1014.5839;  4.0687138E-01;12082.018;3;-64.133636;0.0;-5.6255279;0;0.4550724;  9.9873789E+03;  0.0000000E+00; -2.4327582E-04;  1.0000000E+04;  0.0000000E+00;  9.9619551E+03;0.20972323;0.0;0.24534917;18548.066
  6.5876877E-01;  9.9999998E-03;  1.0016934E-01;2072;-0.36241558;0.0;0.016962223;1014.5609;  4.0687087E-01;12062.957;3;-62.462692;0.0;-7.0338821;0;0.48267066;  9.9867012E+03;  0.0000000E+00; -4.7981899E-04;  1.0000000E+04;  0.0000000E+00;  9.9622051E+03;0.22769879;0.0;0.25497189;18406.984
  6.5875864E-01;  9.9999998E-03;  1.2020412E-01;2073;-0.35995126;0.0;0.02128558;1014.5244;  4.0687022E-01;12032.737;3;-60.610344;0.0;-8.4897156;0;0.51185036;  9.9858145E+03;  0.0000000E+00; -8.3763490E-04;  1.0000000E+04;  0.0000000E+00;  9.9623994E+03;0.24949892;0.0;0.26235145;18297.578
  6.5874767E-01;  9.9999998E-03;  1.4023791E-01;2074;-0.35699007;0.0;0.025660312;1014.4691;  4.0686986E-01;11986.913;3;-58.397118;0.0;-9.9313965;0;0.53975999;  9.9846816E+03;  0.0000000E+00; -1.2205869E-03;  1.0000000E+04;  0.0000000E+00;  9.9624697E+03;0.27502817;0.0;0.26473179;18254.213
  6.7877275E-01;  9.9999998E-03;  1.7784963E-11;2098;-0.37279528;0.0;1.6773964e-08;1017.2755;  4.0907758E-01;14311.678;3;-67.152145;0.0;7.5389617e-06;0;1.0673671;  9.9404277E+03;  0.0000000E+00;  3.5710929E-14;  1.0000000E+04;  0.0000000E+00;  9.9537305E+03;0.80929142;0.0;0.25807562;22437.541
  6.7877167E-01;  9.9999998E-03;  2.0043548E-02;2099;-0.3725675;0.0;0.0028162391;1017.2753;  4.0907738E-01;14311.48;3;-66.953339;0.0;-2.6182301;0;1.0711371;  9.9403213E+03;  0.0000000E+00; -1.3883974E-05;  1.0000000E+04;  0.0000000E+00;  9.9538428E+03;0.81146216;0.0;0.25967488;22379.725
  6.7876852E-01;  9.9999998E-03;  4.0085871E-02;2100;-0.37188593;0.0;0.0058258208;1017.2737;  4.0907735E-01;14310.098;3;-66.383942;0.0;-5.0170989;0;1.0824785;  9.9400000E+03;  0.0000000E+00; -7.2397954E-05;  1.0000000E+04;  0.0000000E+00;  9.9541338E+03;0.81796461;0.0;0.26451385;22225.641
  6.7876321E-01;  9.9999998E-03;  6.0126700E-02;2101;-0.37074599;0.0;0.009224168;1017.2648;  4.0907735E-01;14302.789;3;-65.462311;0.0;-7.1305575;0;1.1012557;  9.9394395E+03;  0.0000000E+00; -2.0101278E-04;  1.0000000E+04;  0.0000000E+00;  9.9545205E+03;0.82873654;0.0;0.27251908;22019.471
  6.7875612E-01;  9.9999998E-03;  8.0166966E-02;2102;-0.36911309;0.0;0.013151547;1017.2435;  4.0907711E-01;14285.112;3;-64.104607;0.0;-8.8836679;0;1.126649;  9.9386396E+03;  0.0000000E+00; -4.0117046E-04;  1.0000000E+04;  0.0000000E+00;  9.9549121E+03;0.84360814;0.0;0.28304085;21804.949
  6.7874771E-01;  9.9999998E-03;  1.0020754E-01;2103;-0.3669087;0.0;0.017513368;1017.2067;  4.0907705E-01;14254.596;3;-62.426895;0.0;-10.54574;0;1.1566236;  9.9375781E+03;  0.0000000E+00; -6.5062172E-04;  1.0000000E+04;  0.0000000E+00;  9.9552529E+03;0.86229444;0.0;0.2943292;21613.115
  6.7873865E-01;  9.9999998E-03;  1.2024876E-01;2104;-0.36403668;0.0;0.022321364;1017.1511;  4.0907696E-01;14208.575;3;-60.548336;0.0;-12.245939;0;1.1876559;  9.9362324E+03;  0.0000000E+00; -8.8799372E-04;  1.0000000E+04;  0.0000000E+00;  9.9555273E+03;0.8844831;0.0;0.30317283;21460.242
  6.7872918E-01;  9.9999998E-03;  1.4028928E-01;2105;-0.36048245;0.0;0.027485901;1017.0756;  4.0907693E-01;14146.062;3;-58.232391;0.0;-13.800452;0;1.2153965;  9.9345430E+03;  0.0000000E+00; -9.5607474E-04;  1.0000000E+04;  0.0000000E+00;  9.9557314E+03;0.91009885;0.0;0.30529767;21346.352
  6.9878507E-01;  9.9999998E-03;  4.3080588E-11;2129;-0.37218919;0.0;2.6295934e-08;1017.2147;  4.1029814E-01;14260.932;3;-66.782494;0.0;2.0685984e-05;0;1.8434885;  9.8877021E+03;  0.0000000E+00;  2.6701892E-14;  1.0000000E+04;  0.0000000E+00;  9.9459521E+03;1.5421664;0.0;0.30132204;26038.201
  6.9878441E-01;  9.9999998E-03;  2.0056307E-02;2130;-0.37185735;0.0;0.0044004698;1017.2154;  4.1029802E-01;14261.524;3;-66.547859;0.0;-3.977351;0;1.8466551;  9.8875508E+03;  0.0000000E+00; -1.9902885E-05;  1.0000000E+04;  0.0000000E+00;  9.9461152E+03;1.5441034;0.0;0.30255172;25952.357
  6.9878227E-01;  9.9999998E-03;  4.0110964E-02;2131;-0.37083521;0.0;0.0089188041;1017.2147;  4.1029826E-01;14260.932;3;-66.127136;0.0;-7.6401539;0;1.8563553;  9.8870938E+03;  0.0000000E+00; -9.5507647E-05;  1.0000000E+04;  0.0000000E+00;  9.9465586E+03;1.5498412;0.0;0.30651414;25723.627
  6.9877851E-01;  9.9999998E-03;  6.0163207E-02;2132;-0.36905754;0.0;0.013621438;1017.2058;  4.1029835E-01;14253.624;3;-65.209305;0.0;-10.484183;0;1.8728205;  9.8863340E+03;  0.0000000E+00; -2.4436702E-04;  1.0000000E+04;  0.0000000E+00;  9.9471377E+03;1.5591319;0.0;0.31368861;25418.576
  6.9877338E-01;  9.9999998E-03;  8.0213934E-02;2133;-0.36667502;0.0;0.01855888;1017.1819;  4.1029862E-01;14233.873;3;-63.922371;0.0;-12.773521;0;1.895445;  9.8852695E+03;  0.0000000E+00; -4.3810718E-04;  1.0000000E+04;  0.0000000E+00;  9.9477344E+03;1.5715528;0.0;0.32389227;25101.418
  6.9876760E-01;  9.9999998E-03;  1.0026442E-01;2134;-0.36358684;0.0;0.023826856;1017.1398;  4.1029859E-01;14198.914;3;-62.18771;0.0;-14.620625;0;1.9218082;  9.8838926E+03;  0.0000000E+00; -5.9187465E-04;  1.0000000E+04;  0.0000000E+00;  9.9482813E+03;1.5865436;0.0;0.33526471;24806.145
  6.9876230E-01;  9.9999998E-03;  1.2031627E-01;2135;-0.3596558;0.0;0.029722489;1017.0803;  4.1029915E-01;14149.635;3;-60.047516;0.0;-16.374537;0;1.9472255;  9.8821992E+03;  0.0000000E+00; -5.7867583E-04;  1.0000000E+04;  0.0000000E+00;  9.9488037E+03;1.6035658;0.0;0.34365961;24526.795
  6.9875824E-01;  9.9999998E-03;  1.4036913E-01;2136;-0.35451862;0.0;0.036808476;1017.0062;  4.1029951E-01;14088.308;3;-57.565731;0.0;-17.873396;0;1.9655623;  9.8801484E+03;  0.0000000E+00; -2.3716173E-04;  1.0000000E+04;  0.0000000E+00;  9.9493926E+03;1.6223429;0.0;0.34321934;24222.996
  7.1895504E-01;  9.9999998E-03; -1.8603770E-11;2160;-0.34297737;0.0;1.1322292e-08;1015.7197;  4.1083905E-01;13022.191;3;-67.608055;0.0;-7.2507828e-06;0;2.6027882;  9.8397939E+03;  0.0000000E+00;  6.5373020E-14;  1.0000000E+04;  0.0000000E+00;  9.9386934E+03;2.2603331;0.0;0.34245518;29395.777
  7.1895379E-01;  9.9999998E-03;  2.0072846E-02;2161;-0.34254268;0.0;0.0091806846;1015.722;  4.1083884E-01;13024.068;3;-67.191833;0.0;-4.0228715;0;2.6044874;  9.8396084E+03;  0.0000000E+00; -1.4702153E-05;  1.0000000E+04;  0.0000000E+00;  9.9389238E+03;2.2613626;0.0;0.34312481;29278.227
  7.1895027E-01;  9.9999998E-03;  4.0143482E-02;2162;-0.34118393;0.0;0.018199157;1015.7247;  4.1083899E-01;13026.341;3;-65.905022;0.0;-7.6470327;0;2.6099834;  9.8390498E+03;  0.0000000E+00; -7.0920680E-05;  1.0000000E+04;  0.0000000E+00;  9.9395400E+03;2.2643168;0.0;0.34566662;28963.4
  7.1894497E-01;  9.9999998E-03;  6.0211409E-02;2163;-0.33878782;0.0;0.027038164;1015.7201;  4.1083935E-01;13022.489;3;-63.8843;0.0;-10.630507;0;2.6199825;  9.8381328E+03;  0.0000000E+00; -1.7663695E-04;  1.0000000E+04;  0.0000000E+00;  9.9403623E+03;2.2688115;0.0;0.35117102;28538.582
  7.1893871E-01;  9.9999998E-03;  8.0278277E-02;2164;-0.33530617;0.0;0.035959825;1015.7003;  4.1083989E-01;13006.096;3;-61.287659;0.0;-12.983882;0;2.6341889;  9.8368779E+03;  0.0000000E+00; -2.9047939E-04;  1.0000000E+04;  0.0000000E+00;  9.9412324E+03;2.2742164;0.0;0.35997254;28084.789
  7.1893233E-01;  9.9999998E-03;  1.0034670E-01;2165;-0.33061108;0.0;0.045371037;1015.6639;  4.1084003E-01;12975.878;3;-58.13031;0.0;-14.941084;0;2.6498952;  9.8353037E+03;  0.0000000E+00; -3.1305134E-04;  1.0000000E+04;  0.0000000E+00;  9.9420918E+03;2.2797422;0.0;0.37015295;27633.588
  7.1892703E-01;  9.9999998E-03;  1.2041777E-01;2166;-0.32431915;0.0;0.055483904;1015.616;  4.1084072E-01;12936.18;3;-54.498596;0.0;-16.637871;0;2.6613357;  9.8334482E+03;  0.0000000E+00; -1.2383384E-04;  1.0000000E+04;  0.0000000E+00;  9.9430117E+03;2.2845886;0.0;0.37674716;27154.094
  7.1892345E-01;  9.9999998E-03;  1.4048941E-01;2167;-0.31654555;0.0;0.066333383;1015.5657;  4.1084141E-01;12894.604;3;-50.490795;0.0;-17.995058;0;2.6606407;  9.8313105E+03;  0.0000000E+00;  3.8074801E-04;  1.0000000E+04;  0.0000000E+00;  9.9441709E+03;2.2881007;0.0;0.37253997;26571.408
  7.3931372E-01;  9.9999998E-03;  6.7273534E-11;2191;-0.23203421;0.0;2.723041e-08;1014.2391;  4.1105428E-01;11795.253;3;-46.40287;0.0;2.6116497e-05;0;3.1803851;  9.8067490E+03;  0.0000000E+00;  4.3718078E-14;  1.0000000E+04;  0.0000000E+00;  9.9328047E+03;2.8091102;0.0;0.37127486;32142.436
  7.3931301E-01;  9.9999998E-03;  2.0078244E-02;2192;-0.23152947;0.0;0.0090259556;1014.2436;  4.1105452E-01;11798.906;3;-46.000462;0.0;-5.0093327;0;3.1800621;  9.8065400E+03;  0.0000000E+00; -3.8690240E-07;  1.0000000E+04;  0.0000000E+00;  9.9330986E+03;2.8086922;0.0;0.37136984;31991.705
  7.3931098E-01;  9.9999998E-03;  4.0153727E-02;2193;-0.23000474;0.0;0.017809814;1014.2527;  4.1105455E-01;11806.511;3;-44.826607;0.0;-9.5231333;0;3.1796887;  9.8059180E+03;  0.0000000E+00; -1.0206279E-05;  1.0000000E+04;  0.0000000E+00;  9.9339053E+03;2.8072801;0.0;0.37240857;31584.998
  7.3930818E-01;  9.9999998E-03;  6.0225580E-02;2194;-0.2274317;0.0;0.026278114;1014.2573;  4.1105485E-01;11810.264;3;-42.968975;0.0;-13.28578;0;3.1804249;  9.8049170E+03;  0.0000000E+00; -3.5728754E-05;  1.0000000E+04;  0.0000000E+00;  9.9349961E+03;2.804409;0.0;0.37601587;31027.244
  7.3930514E-01;  9.9999998E-03;  8.0295339E-02;2195;-0.22378108;0.0;0.034608088;1014.2493;  4.1105539E-01;11803.647;3;-40.543186;0.0;-16.36293;0;3.1824152;  9.8035674E+03;  0.0000000E+00; -5.0595598E-05;  1.0000000E+04;  0.0000000E+00;  9.9361885E+03;2.7993824;0.0;0.3830328;30413.891
  7.3930228E-01;  9.9999998E-03;  1.0036575E-01;2196;-0.21905617;0.0;0.043225288;1014.229;  4.1105589E-01;11786.86;3;-37.667709;0.0;-18.996595;0;3.1830399;  9.8019414E+03;  0.0000000E+00;  4.4363078E-06;  1.0000000E+04;  0.0000000E+00;  9.9374238E+03;2.7913735;0.0;0.3916665;29776.094
  7.3930001E-01;  9.9999998E-03;  1.2043875E-01;2197;-0.21333165;0.0;0.052708339;1014.2049;  4.1105652E-01;11766.813;3;-34.455799;0.0;-21.343534;0;3.1760461;  9.8000908E+03;  0.0000000E+00;  1.8873057E-04;  1.0000000E+04;  0.0000000E+00;  9.9388115E+03;2.7794924;0.0;0.39655367;29067.67
  7.3929840E-01;  9.9999998E-03;  1.4051282E-01;2198;-0.2067959;0.0;0.063318759;1014.1925;  4.1105717E-01;11756.544;3;-31.032362;0.0;-23.298456;0;3.1524823;  9.7980996E+03;  0.0000000E+00;  5.2973029E-04;  1.0000000E+04;  0.0000000E+00;  9.9405527E+03;2.7628117;0.0;0.38967064;28196.887
  7.5958991E-01;  9.9999998E-03;  1.6695284E-10;2222;-0.1464458;0.0;3.4230581e-08;1013.4892;  4.1113546E-01;11173.47;3;-30.843763;0.0;1.6046455e-05;0;3.47929;  9.7924902E+03;  0.0000000E+00; -1.7488046E-14;  1.0000000E+04;  0.0000000E+00;  9.9287803E+03;3.0966055;0.0;0.38268441;34049.477
  7.5958979E-01;  9.9999998E-03;  2.0081125E-02;2223;-0.14592591;0.0;0.0082876133;1013.4968;  4.1113576E-01;11179.69;3;-30.517506;0.0;-5.9593663;0;3.4768739;  9.7922813E+03;  0.0000000E+00;  9.3111976E-06;  1.0000000E+04;  0.0000000E+00;  9.9291436E+03;3.0944972;0.0;0.38237676;33867.941
  7.5958937E-01;  9.9999998E-03;  4.0159017E-02;2224;-0.14437115;0.0;0.016276464;1013.5151;  4.1113597E-01;11194.897;3;-29.569889;0.0;-11.351588;0;3.470402;  9.7916641E+03;  0.0000000E+00;  3.0817966E-05;  1.0000000E+04;  0.0000000E+00;  9.9301201E+03;3.0880475;0.0;0.38235447;33375.02
  7.5958902E-01;  9.9999998E-03;  6.0232446E-02;2225;-0.14179879;0.0;0.023831993;1013.5339;  4.1113618E-01;11210.499;3;-28.085909;0.0;-15.882331;0;3.4615555;  9.7906807E+03;  0.0000000E+00;  5.6293371E-05;  1.0000000E+04;  0.0000000E+00;  9.9314707E+03;3.0769351;0.0;0.38462055;32690.059
  7.5958920E-01;  9.9999998E-03;  8.0302782E-02;2226;-0.13825281;0.0;0.031074001;1013.5444;  4.1113672E-01;11219.09;3;-26.181026;0.0;-19.624943;0;3.4511709;  9.7893828E+03;  0.0000000E+00;  9.0112742E-05;  1.0000000E+04;  0.0000000E+00;  9.9329766E+03;3.0607169;0.0;0.39045402;31922.152
  7.5959003E-01;  9.9999998E-03;  1.0037273E-01;2227;-0.13382497;0.0;0.038383383;1013.5469;  4.1113719E-01;11221.262;3;-23.978312;0.0;-22.866858;0;3.4372692;  9.7878428E+03;  0.0000000E+00;  1.4624029E-04;  1.0000000E+04;  0.0000000E+00;  9.9345654E+03;3.0389285;0.0;0.39834058;31108.021
  7.5959176E-01;  9.9999998E-03;  1.2044422E-01;2228;-0.12866917;0.0;0.046311926;1013.552;  4.1113788E-01;11225.409;3;-21.594957;0.0;-25.817358;0;3.4139233;  9.7861533E+03;  0.0000000E+00;  2.3190049E-04;  1.0000000E+04;  0.0000000E+00;  9.9363516E+03;3.0110037;0.0;0.40291959;30200.16
  7.5959432E-01;  9.9999998E-03;  1.4051567E-01;2229;-0.12300779;0.0;0.055168591;1013.5775;  4.1113859E-01;11246.54;3;-19.146521;0.0;-28.38427;0;3.3718882;  9.7844600E+03;  0.0000000E+00;  3.3487627E-04;  1.0000000E+04;  0.0000000E+00;  9.9385400E+03;2.9759846;0.0;0.39590347;29109.785
  7.7979827E-01;  9.9999998E-03; -7.9806869E-11;2253;-0.080875412;0.0;-3.8701337e-08;1013.4767;  4.1116458E-01;11162.354;3;-19.427208;0.0;-2.1062209e-05;0;3.5432634;  9.7930068E+03;  0.0000000E+00;  2.4156922E-14;  1.0000000E+04;  0.0000000E+00;  9.9266455E+03;3.1640925;0.0;0.37917084;35083.715
  7.7979851E-01;  9.9999998E-03;  2.0082010E-02;2254;-0.08043769;0.0;0.0073530395;1013.488;  4.1116458E-01;11171.636;3;-19.211044;0.0;-6.6888247;0;3.5392506;  9.7928203E+03;  0.0000000E+00;  8.1764974E-06;  1.0000000E+04;  0.0000000E+00;  9.9270557E+03;3.1604934;0.0;0.37875724;34878.297
  7.7979916E-01;  9.9999998E-03;  4.0160481E-02;2255;-0.079141244;0.0;0.014408647;1013.5168;  4.1116488E-01;11195.629;3;-18.588095;0.0;-12.739734;0;3.5281601;  9.7922637E+03;  0.0000000E+00;  2.8996743E-05;  1.0000000E+04;  0.0000000E+00;  9.9281689E+03;3.1496797;0.0;0.37848055;34318.516
  7.7980047E-01;  9.9999998E-03;  6.0233969E-02;2256;-0.077040069;0.0;0.021028282;1013.5508;  4.1116503E-01;11223.77;3;-17.628698;0.0;-17.813625;0;3.5122123;  9.7913828E+03;  0.0000000E+00;  5.5714590E-05;  1.0000000E+04;  0.0000000E+00;  9.9297178E+03;3.1316779;0.0;0.3805345;33534.98
  7.7980256E-01;  9.9999998E-03;  8.0303766E-02;2257;-0.07423149;0.0;0.027323665;1013.5805;  4.1116548E-01;11248.354;3;-16.430861;0.0;-21.97909;0;3.4931149;  9.7902236E+03;  0.0000000E+00;  8.3310289E-05;  1.0000000E+04;  0.0000000E+00;  9.9314590E+03;3.1066203;0.0;0.38649467;32649.736
  7.7980548E-01;  9.9999998E-03;  1.0037261E-01;2258;-0.070865974;0.0;0.033660199;1013.605;  4.1116610E-01;11268.595;3;-15.100196;0.0;-25.55673;0;3.4698694;  9.7888525E+03;  0.0000000E+00;  1.0705343E-04;  1.0000000E+04;  0.0000000E+00;  9.9333027E+03;3.0747371;0.0;0.39513239;31710.119
  7.7980924E-01;  9.9999998E-03;  1.2044241E-01;2259;-0.067145184;0.0;0.040555164;1013.6338;  4.1116655E-01;11292.489;3;-13.736106;0.0;-28.809025;0;3.4373574;  9.7873740E+03;  0.0000000E+00;  1.1853170E-04;  1.0000000E+04;  0.0000000E+00;  9.9353369E+03;3.0361192;0.0;0.40123817;30677.268
  7.7981347E-01;  9.9999998E-03;  1.4051150E-01;2260;-0.063302755;0.0;0.048299678;1013.6852;  4.1116726E-01;11335.045;3;-12.425641;0.0;-31.684616;0;3.3865561;  9.7859707E+03;  0.0000000E+00;  1.0416995E-04;  1.0000000E+04;  0.0000000E+00;  9.9377393E+03;2.9900541;0.0;0.39650208;29476.375
  7.9997522E-01;  9.9999998E-03; -2.1815133E-10;2284;-0.023043441;0.0;-2.1231182e-08;1013.9238;  4.1117245E-01;11531.576;3;-9.0093346;0.0;3.7505059e-05;0;3.4665258;  9.8017061E+03;  0.0000000E+00; -3.1382689E-14;  1.0000000E+04;  0.0000000E+00;  9.9261152E+03;3.0991888;0.0;0.36733696;35347.105
  7.9997563E-01;  9.9999998E-03;  2.0081408E-02;2285;-0.022757633;0.0;0.006485418;1013.9377;  4.1117239E-01;11543.128;3;-8.9180326;0.0;-7.1017346;0;3.4618442;  9.8015469E+03;  0.0000000E+00;  2.3412672E-06;  1.0000000E+04;  0.0000000E+00;  9.9265547E+03;3.0947063;0.0;0.36713785;35128.223
  7.9997694E-01;  9.9999998E-03;  4.0159155E-02;2286;-0.021922514;0.0;0.012725532;1013.9741;  4.1117272E-01;11573.239;3;-8.660531;0.0;-13.503996;0;3.4489026;  9.8010684E+03;  0.0000000E+00;  8.4705698E-06;  1.0000000E+04;  0.0000000E+00;  9.9277393E+03;3.0814078;0.0;0.36749494;34531.262
  7.9997909E-01;  9.9999998E-03;  6.0231734E-02;2287;-0.020603307;0.0;0.018626455;1014.0198;  4.1117299E-01;11611.053;3;-8.2805929;0.0;-18.824789;0;3.4303827;  9.8003008E+03;  0.0000000E+00;  1.6347207E-05;  1.0000000E+04;  0.0000000E+00;  9.9293965E+03;3.0597847;0.0;0.37059811;33694.742
  7.9998219E-01;  9.9999998E-03;  8.0300450E-02;2288;-0.018909775;0.0;0.024331816;1014.0626;  4.1117337E-01;11646.495;3;-7.8396025;0.0;-23.121378;0;3.4087911;  9.7992783E+03;  0.0000000E+00;  2.3356946E-05;  1.0000000E+04;  0.0000000E+00;  9.9312539E+03;3.0306773;0.0;0.37811372;32751.26
  7.9998600E-01;  9.9999998E-03;  1.0036813E-01;2289;-0.016993761;0.0;0.030219527;1014.099;  4.1117370E-01;11676.706;3;-7.4022288;0.0;-26.735672;0;3.3841348;  9.7980439E+03;  0.0000000E+00;  2.5819561E-05;  1.0000000E+04;  0.0000000E+00;  9.9331953E+03;2.9951887;0.0;0.38894612;31759.826
  7.9999042E-01;  9.9999998E-03;  1.2043671E-01;2290;-0.01504308;0.0;0.036779284;1014.1374;  4.1117427E-01;11708.497;3;-7.0264659;0.0;-29.978153;0;3.3521016;  9.7966836E+03;  0.0000000E+00;  1.9219478E-05;  1.0000000E+04;  0.0000000E+00;  9.9352959E+03;2.95418;0.0;0.39792156;30692.775
  7.9999512E-01;  9.9999998E-03;  1.4050448E-01;2291;-0.013247124;0.0;0.044239253;1014.1945;  4.1117498E-01;11755.787;3;-6.751781;0.0;-32.856308;0;3.303993;  9.7953906E+03;  0.0000000E+00; -6.0400691E-07;  1.0000000E+04;  0.0000000E+00;  9.9377031E+03;2.9073281;0.0;0.39666489;29489.289
  8.2015085E-01;  9.9999998E-03;  3.1786875E-11;2315;0.035884686;0.0;2.1323546e-08;1014.5444;  4.1115662E-01;12044.181;3;2.1798482;0.0;5.4873992e-05;0;3.3256538;  9.8136729E+03;  0.0000000E+00;  9.6815705E-15;  1.0000000E+04;  0.0000000E+00;  9.9267949E+03;2.9713085;0.0;0.35434529;35003.676
  8.2015139E-01;  9.9999998E-03;  2.0079833E-02;2316;0.035988532;0.0;0.0058849873;1014.5595;  4.1115668E-01;12056.619;3;2.1509738;0.0;-7.1590133;0;3.3213925;  9.8135293E+03;  0.0000000E+00; -1.0136379E-06;  1.0000000E+04;  0.0000000E+00;  9.9272373E+03;2.9668002;0.0;0.35459229;34782.754
  8.2015294E-01;  9.9999998E-03;  4.0156040E-02;2317;0.036283165;0.0;0.011604308;1014.5989;  4.1115680E-01;12089.194;3;2.0609529;0.0;-13.576389;0;3.3098056;  9.8131016E+03;  0.0000000E+00; -3.4003965E-06;  1.0000000E+04;  0.0000000E+00;  9.9284326E+03;2.9535768;0.0;0.35622883;34181.387
  8.2015550E-01;  9.9999998E-03;  6.0227159E-02;2318;0.036719769;0.0;0.017132843;1014.6478;  4.1115716E-01;12129.767;3;1.9002618;0.0;-18.839563;0;3.2938437;  9.8123926E+03;  0.0000000E+00; -5.7470061E-06;  1.0000000E+04;  0.0000000E+00;  9.9300928E+03;2.9325531;0.0;0.36129081;33342.184
  8.2015902E-01;  9.9999998E-03;  8.0294587E-02;2319;0.037225388;0.0;0.022665622;1014.6927;  4.1115749E-01;12166.884;3;1.6581749;0.0;-22.995302;0;3.2765379;  9.8114209E+03;  0.0000000E+00; -6.9291304E-06;  1.0000000E+04;  0.0000000E+00;  9.9319346E+03;2.9052277;0.0;0.37131023;32404.021
  8.2016325E-01;  9.9999998E-03;  1.0036124E-01;2320;0.037708219;0.0;0.028609101;1014.7272;  4.1115785E-01;12195.413;3;1.3281167;0.0;-26.397846;0;3.2585108;  9.8101934E+03;  0.0000000E+00; -7.0887900E-06;  1.0000000E+04;  0.0000000E+00;  9.9338320E+03;2.8734305;0.0;0.38508025;31433.961
  8.2016808E-01;  9.9999998E-03;  1.2042917E-01;2321;0.038067039;0.0;0.035435539;1014.7576;  4.1115841E-01;12220.585;3;0.91242915;0.0;-29.395844;0;3.2358658;  9.8087725E+03;  0.0000000E+00; -7.5351359E-06;  1.0000000E+04;  0.0000000E+00;  9.9358359E+03;2.8386438;0.0;0.39722201;30411.441
  8.2017320E-01;  9.9999998E-03;  1.4049661E-01;2322;0.038221993;0.0;0.043287907;1014.7985;  4.1115895E-01;12254.543;3;0.43342125;0.0;-32.059155;0;3.1999753;  9.8073184E+03;  0.0000000E+00; -6.5263835E-06;  1.0000000E+04;  0.0000000E+00;  9.9380879E+03;2.8008423;0.0;0.39913297;29282.592
  8.4033567E-01;  9.9999998E-03;  2.3475055E-10;2346;0.098008461;0.0;7.5197434e-08;1014.888;  4.1097423E-01;12326.638;3;14.199063;0.0;3.740401e-05;0;3.1488879;  9.8274570E+03;  0.0000000E+00; -1.5843894E-14;  1.0000000E+04;  0.0000000E+00;  9.9283379E+03;2.8036616;0.0;0.34522635;34212.719
  8.4033626E-01;  9.9999998E-03;  2.0077668E-02;2347;0.097939722;0.0;0.0056440234;1014.9022;  4.1097438E-01;12338.284;3;14.069826;0.0;-6.8827119;0;3.145992;  9.8273135E+03;  0.0000000E+00; -5.7860393E-07;  1.0000000E+04;  0.0000000E+00;  9.9287646E+03;2.8000054;0.0;0.34598669;33999.777
  8.4033799E-01;  9.9999998E-03;  4.0151849E-02;2348;0.097728632;0.0;0.01119953;1014.9388;  4.1097447E-01;12368.684;3;13.691079;0.0;-13.009333;0;3.1385145;  9.8268809E+03;  0.0000000E+00; -1.7849763E-06;  1.0000000E+04;  0.0000000E+00;  9.9299092E+03;2.7894289;0.0;0.34908554;33422.516
  8.4034079E-01;  9.9999998E-03;  6.0221191E-02;2349;0.097366862;0.0;0.016706217;1014.9822;  4.1097465E-01;12404.61;3;13.090229;0.0;-17.957426;0;3.129447;  9.8261494E+03;  0.0000000E+00; -2.3197533E-06;  1.0000000E+04;  0.0000000E+00;  9.9314814E+03;2.773102;0.0;0.35634482;32623.898
  8.4034455E-01;  9.9999998E-03;  8.0287181E-02;2350;0.096853882;0.0;0.022406613;1015.0169;  4.1097525E-01;12433.331;3;12.311473;0.0;-21.770945;0;3.1218839;  9.8251006E+03;  0.0000000E+00; -1.2673812E-06;  1.0000000E+04;  0.0000000E+00;  9.9332090E+03;2.7528801;0.0;0.3690038;31743.811
  8.4034926E-01;  9.9999998E-03;  1.0035285E-01;2351;0.096206583;0.0;0.028735539;1015.0356;  4.1097549E-01;12448.827;3;11.412865;0.0;-24.810745;0;3.116472;  9.8237227E+03;  0.0000000E+00;  9.4504685E-07;  1.0000000E+04;  0.0000000E+00;  9.9349453E+03;2.7309556;0.0;0.38551646;30850.693
  8.4035486E-01;  9.9999998E-03;  1.2042033E-01;2352;0.095465846;0.0;0.036155887;1015.0424;  4.1097605E-01;12454.453;3;10.465553;0.0;-27.449509;0;3.1091466;  9.8220449E+03;  0.0000000E+00;  3.9276988E-06;  1.0000000E+04;  0.0000000E+00;  9.9367559E+03;2.7090502;0.0;0.40009636;29923.684
  8.4036124E-01;  9.9999998E-03;  1.4048788E-01;2353;0.094711915;0.0;0.044729222;1015.0516;  4.1097653E-01;12462.051;3;9.5571995;0.0;-29.807184;0;3.0909321;  9.8201943E+03;  0.0000000E+00;  1.3762181E-05;  1.0000000E+04;  0.0000000E+00;  9.9387754E+03;2.6871564;0.0;0.40377572;28906.754
  8.6052328E-01;  9.9999998E-03;  1.8263417E-10;2377;0.1605271;0.0;7.771969e-08;1014.9891;  4.1061655E-01;12407.454;3;26.256613;0.0;1.4092016e-05;0;2.9211056;  9.8444287E+03;  0.0000000E+00;  2.5762280E-14;  1.0000000E+04;  0.0000000E+00;  9.9305059E+03;2.5793769;0.0;0.3417286;33090.859
  8.6052394E-01;  9.9999998E-03;  2.0075092E-02;2378;0.16032094;0.0;0.00573947;1015.0008;  4.1061661E-01;12417.224;3;26.052368;0.0;-6.3408456;0;2.9201658;  9.8442666E+03;  0.0000000E+00;  1.0833089E-06;  1.0000000E+04;  0.0000000E+00;  9.9309004E+03;2.5772734;0.0;0.34289241;32892.852
  8.6052585E-01;  9.9999998E-03;  4.0146880E-02;2379;0.15971361;0.0;0.01144015;1015.0299;  4.1061655E-01;12441.301;3;25.459381;0.0;-11.942917;0;2.9184971;  9.8437744E+03;  0.0000000E+00;  3.9501197E-06;  1.0000000E+04;  0.0000000E+00;  9.9319609E+03;2.5713565;0.0;0.34714055;32359.307
  8.6052889E-01;  9.9999998E-03;  6.0214143E-02;2380;0.15874767;0.0;0.017180318;1015.06;  4.1061687E-01;12466.168;3;24.538437;0.0;-16.397884;0;2.9189043;  9.8429287E+03;  0.0000000E+00;  7.7513077E-06;  1.0000000E+04;  0.0000000E+00;  9.9333936E+03;2.5627861;0.0;0.35611811;31630.412
  8.6053318E-01;  9.9999998E-03;  8.0278434E-02;2381;0.15751098;0.0;0.023228649;1015.0763;  4.1061717E-01;12479.686;3;23.382608;0.0;-19.757612;0;2.9241211;  9.8417041E+03;  0.0000000E+00;  1.0956374E-05;  1.0000000E+04;  0.0000000E+00;  9.9349316E+03;2.5533636;0.0;0.37075749;30842.16
  8.6053866E-01;  9.9999998E-03;  1.0034284E-01;2382;0.15614809;0.0;0.030036787;1015.0696;  4.1061750E-01;12474.158;3;22.110159;0.0;-22.386032;0;2.9342289;  9.8400547E+03;  0.0000000E+00;  1.1770347E-05;  1.0000000E+04;  0.0000000E+00;  9.9364473E+03;2.5451486;0.0;0.38908032;30057.514
  8.6054564E-01;  9.9999998E-03;  1.2040955E-01;2383;0.1548629;0.0;0.038063243;1015.0448;  4.1061795E-01;12453.633;3;20.856077;0.0;-24.663059;0;2.9444683;  9.8379971E+03;  0.0000000E+00;  1.1984123E-05;  1.0000000E+04;  0.0000000E+00;  9.9380156E+03;2.5396521;0.0;0.40481618;29248.197
  8.6055434E-01;  9.9999998E-03;  1.4047688E-01;2384;0.15391332;0.0;0.047316305;1015.0142;  4.1061839E-01;12428.271;3;19.767607;0.0;-26.732782;0;2.9452229;  9.8356191E+03;  0.0000000E+00;  2.1690386E-05;  1.0000000E+04;  0.0000000E+00;  9.9398066E+03;2.536613;0.0;0.40860987;28348.865
  8.8070112E-01;  9.9999998E-03; -1.1235252E-10;2408;0.21972604;0.0;2.7526283e-08;1014.9953;  4.1010326E-01;12408.923;3;37.827038;0.0;6.6745939e-05;0;2.6120415;  9.8666240E+03;  0.0000000E+00; -5.7303176E-15;  1.0000000E+04;  0.0000000E+00;  9.9331787E+03;2.2692442;0.0;0.34279716;31708.525
  8.8070184E-01;  9.9999998E-03;  2.0072114E-02;2409;0.21942855;0.0;0.0060604336;1015.0035;  4.1010317E-01;12415.729;3;37.571323;0.0;-5.6286459;0;2.6132183;  9.8664268E+03;  0.0000000E+00;  1.5448612E-06;  1.0000000E+04;  0.0000000E+00;  9.9335342E+03;2.269088;0.0;0.34413016;31528.984
  8.8070399E-01;  9.9999998E-03;  4.0141113E-02;2410;0.21856426;0.0;0.012090322;1015.0223;  4.1010335E-01;12431.316;3;36.834152;0.0;-10.565855;0;2.6177902;  9.8658447E+03;  0.0000000E+00;  5.0909034E-06;  1.0000000E+04;  0.0000000E+00;  9.9344893E+03;2.2689252;0.0;0.34886515;31048.885
  8.8070756E-01;  9.9999998E-03;  6.0205884E-02;2411;0.2172249;0.0;0.018170597;1015.0366;  4.1010341E-01;12443.055;3;35.701015;0.0;-14.43948;0;2.628211;  9.8648428E+03;  0.0000000E+00;  8.4902422E-06;  1.0000000E+04;  0.0000000E+00;  9.9357598E+03;2.2696278;0.0;0.35858312;30403.479
  8.8071257E-01;  9.9999998E-03;  8.0268003E-02;2412;0.21558024;0.0;0.024568828;1015.0303;  4.1010368E-01;12437.825;3;34.302521;0.0;-17.319145;0;2.6465831;  9.8633975E+03;  0.0000000E+00;  9.0010290E-06;  1.0000000E+04;  0.0000000E+00;  9.9370850E+03;2.272543;0.0;0.37404025;29721.193
  8.8071930E-01;  9.9999998E-03;  1.0033055E-01;2413;0.21389024;0.0;0.031739388;1014.9966;  4.1010410E-01;12409.906;3;32.802174;0.0;-19.567139;0;2.672086;  9.8614502E+03;  0.0000000E+00;  5.2950177E-06;  1.0000000E+04;  0.0000000E+00;  9.9383623E+03;2.2791607;0.0;0.39292532;29055.002
  8.8072819E-01;  9.9999998E-03;  1.2039575E-01;2414;0.21250273;0.0;0.040144123;1014.9393;  4.1010451E-01;12362.554;3;31.383205;0.0;-21.551575;0;2.6990287;  9.8590020E+03;  0.0000000E+00;  1.1995871E-06;  1.0000000E+04;  0.0000000E+00;  9.9396953E+03;2.2904484;0.0;0.40858024;28364.959
  8.8073981E-01;  9.9999998E-03;  1.4046200E-01;2415;0.21183003;0.0;0.049780536;1014.871;  4.1010505E-01;12306.025;3;30.236551;0.0;-23.408552;0;2.7171569;  9.8560957E+03;  0.0000000E+00;  5.4076527E-06;  1.0000000E+04;  0.0000000E+00;  9.9412705E+03;2.3058014;0.0;0.41135561;27573.219
  9.0085757E-01;  9.9999998E-03; -1.2369282E-10;2439;0.27309155;0.0;2.1218405e-08;1014.9883;  4.0946293E-01;12398.029;3;49.034275;0.0;5.1116251e-05;0;2.2106581;  9.8943760E+03;  0.0000000E+00;  3.4530680E-14;  1.0000000E+04;  0.0000000E+00;  9.9362783E+03;1.8645531;0.0;0.34610504;30108.047
  9.0085840E-01;  9.9999998E-03;  2.0068660E-02;2440;0.27275476;0.0;0.006457062;1014.9938;  4.0946284E-01;12402.564;3;48.747581;0.0;-4.8448133;0;2.2136943;  9.8941611E+03;  0.0000000E+00;  3.6966310E-07;  1.0000000E+04;  0.0000000E+00;  9.9365986E+03;1.8663559;0.0;0.34733835;29947.943
  9.0086102E-01;  9.9999998E-03;  4.0134374E-02;2441;0.27178568;0.0;0.012849194;1015.0031;  4.0946278E-01;12410.256;3;47.923306;0.0;-9.0696583;0;2.2237072;  9.8934971E+03;  0.0000000E+00;  4.2304720E-07;  1.0000000E+04;  0.0000000E+00;  9.9374414E+03;1.8719043;0.0;0.35180292;29523.68
  9.0086538E-01;  9.9999998E-03;  6.0196105E-02;2442;0.27031404;0.0;0.019224044;1015.0014;  4.0946287E-01;12408.873;3;46.664318;0.0;-12.35544;0;2.2427704;  9.8923682E+03;  0.0000000E+00; -1.4287548E-06;  1.0000000E+04;  0.0000000E+00;  9.9385469E+03;1.8816166;0.0;0.36115393;28964.016
  9.0087152E-01;  9.9999998E-03;  8.0255419E-02;2443;0.26856792;0.0;0.025827199;1014.9761;  4.0946299E-01;12387.868;3;45.124645;0.0;-14.793841;0;2.2722957;  9.8907480E+03;  0.0000000E+00; -6.0400293E-06;  1.0000000E+04;  0.0000000E+00;  9.9396621E+03;1.8961282;0.0;0.37616763;28387.537
  9.0087986E-01;  9.9999998E-03;  1.0031534E-01;2444;0.26688224;0.0;0.033109691;1014.9203;  4.0946332E-01;12341.717;3;43.493233;0.0;-16.737572;0;2.3105707;  9.8885908E+03;  0.0000000E+00; -1.2290408E-05;  1.0000000E+04;  0.0000000E+00;  9.9407188E+03;1.9161211;0.0;0.39444956;27835.447
  9.0089107E-01;  9.9999998E-03;  1.2037806E-01;2445;0.26569331;0.0;0.041550815;1014.838;  4.0946379E-01;12273.675;3;41.977768;0.0;-18.522615;0;2.3511176;  9.8858682E+03;  0.0000000E+00; -1.6917229E-05;  1.0000000E+04;  0.0000000E+00;  9.9418291E+03;1.9419171;0.0;0.40920067;27255.598
  9.0090579E-01;  9.9999998E-03;  1.4044210E-01;2446;0.26550823;0.0;0.051181629;1014.7417;  4.0946415E-01;12193.996;3;40.788589;0.0;-20.246414;0;2.3834119;  9.8825898E+03;  0.0000000E+00; -2.2131042E-05;  1.0000000E+04;  0.0000000E+00;  9.9432236E+03;1.9727483;0.0;0.41066363;26558.342
  9.2095208E-01;  9.9999998E-03; -6.8786578E-13;2470;0.31237134;0.0;5.534802e-09;1014.9171;  4.0872887E-01;12332.266;3;60.216995;0.0;-2.3392378e-05;0;1.7477362;  9.9251719E+03;  0.0000000E+00; -3.8039542E-14;  1.0000000E+04;  0.0000000E+00;  9.9397148E+03;1.39827;0.0;0.34946615;28323.225
  9.2095339E-01;  9.9999998E-03;  2.0064821E-02;2471;0.31211933;0.0;0.0067942254;1014.9198;  4.0872884E-01;12334.531;3;59.916985;0.0;-4.0733504;0;1.7519997;  9.9249424E+03;  0.0000000E+00; -1.0496234E-06;  1.0000000E+04;  0.0000000E+00;  9.9399990E+03;1.4016076;0.0;0.35039213;28182.609
  9.2095733E-01;  9.9999998E-03;  4.0126804E-02;2472;0.31141007;0.0;0.013454595;1014.9225;  4.0872893E-01;12336.797;3;59.056911;0.0;-7.614872;0;1.7655957;  9.9242568E+03;  0.0000000E+00; -4.6348982E-06;  1.0000000E+04;  0.0000000E+00;  9.9407393E+03;1.4115981;0.0;0.35399756;27813.537
  9.2096406E-01;  9.9999998E-03;  6.0184933E-02;2473;0.31039244;0.0;0.019967696;1014.9119;  4.0872887E-01;12328.022;3;57.748611;0.0;-10.367874;0;1.7902796;  9.9230947E+03;  0.0000000E+00; -1.0445850E-05;  1.0000000E+04;  0.0000000E+00;  9.9416875E+03;1.4281719;0.0;0.36210772;27336.508
  9.2097360E-01;  9.9999998E-03;  8.0240682E-02;2474;0.30930489;0.0;0.026540717;1014.8749;  4.0872920E-01;12297.467;3;56.156147;0.0;-12.443917;0;1.8269441;  9.9214443E+03;  0.0000000E+00; -1.5648297E-05;  1.0000000E+04;  0.0000000E+00;  9.9426094E+03;1.4512442;0.0;0.37569982;26858.971
  9.2098635E-01;  9.9999998E-03;  1.0029704E-01;2475;0.30847809;0.0;0.033628695;1014.8078;  4.0872929E-01;12241.978;3;54.472122;0.0;-14.173923;0;1.8732903;  9.9192686E+03;  0.0000000E+00; -1.5445354E-05;  1.0000000E+04;  0.0000000E+00;  9.9434648E+03;1.4807329;0.0;0.39255741;26410.162
  9.2100269E-01;  9.9999998E-03;  1.2035625E-01;2476;0.30832806;0.0;0.041756589;1014.7141;  4.0872949E-01;12164.409;3;52.901379;0.0;-15.842043;0;1.9225245;  9.9165088E+03;  0.0000000E+00; -8.7845592E-06;  1.0000000E+04;  0.0000000E+00;  9.9443936E+03;1.516484;0.0;0.40604046;25927.605
  9.2102343E-01;  9.9999998E-03;  1.4041705E-01;2477;0.30936283;0.0;0.051039033;1014.6046;  4.0872967E-01;12073.929;3;51.645691;0.0;-17.483644;0;1.9644457;  9.9131279E+03;  0.0000000E+00; -1.5741667E-05;  1.0000000E+04;  0.0000000E+00;  9.9456270E+03;1.5579351;0.0;0.40651062;25313.119
  9.4097763E-01;  9.9999998E-03;  1.3602486E-10;2501;0.32910624;0.0;2.6057576e-08;1014.6466;  4.0793774E-01;12099.785;3;69.732742;0.0;6.0128805e-06;0;1.2849417;  9.9547500E+03;  0.0000000E+00; -1.5606638E-14;  1.0000000E+04;  0.0000000E+00;  9.9433896E+03;0.93345404;0.0;0.35148761;26389.193
  9.4097930E-01;  9.9999998E-03;  2.0060387E-02;2502;0.32911971;0.0;0.0069735353;1014.6482;  4.0793777E-01;12101.064;3;69.500862;0.0;-3.3257751;0;1.2896161;  9.9545391E+03;  0.0000000E+00; -1.3074355E-06;  1.0000000E+04;  0.0000000E+00;  9.9436377E+03;0.9376002;0.0;0.35201591;26268.322
  9.4098437E-01;  9.9999998E-03;  4.0118165E-02;2503;0.32920864;0.0;0.013762537;1014.6482;  4.0793774E-01;12101.063;3;68.921524;0.0;-6.2359099;0;1.3043838;  9.9538945E+03;  0.0000000E+00; -5.0441490E-06;  1.0000000E+04;  0.0000000E+00;  9.9442773E+03;0.94989002;0.0;0.3544938;25954.129
  9.4099295E-01;  9.9999998E-03;  6.0172316E-02;2504;0.32942966;0.0;0.020283738;1014.6337;  4.0793768E-01;12089.142;3;68.053787;0.0;-8.536562;0;1.3308382;  9.9528174E+03;  0.0000000E+00; -8.7477965E-06;  1.0000000E+04;  0.0000000E+00;  9.9450732E+03;0.96990478;0.0;0.36093342;25556.324
  9.4100517E-01;  9.9999998E-03;  8.0224194E-02;2505;0.32987386;0.0;0.026689626;1014.595;  4.0793774E-01;12057.03;3;66.779793;0.0;-10.356969;0;1.3696477;  9.9512969E+03;  0.0000000E+00; -6.1102596E-06;  1.0000000E+04;  0.0000000E+00;  9.9458252E+03;0.99704689;0.0;0.37260091;25169.57
  9.4102120E-01;  9.9999998E-03;  1.0027657E-01;2506;0.33073461;0.0;0.033405975;1014.5279;  4.0793785E-01;12001.677;3;65.395653;0.0;-11.981264;0;1.4183818;  9.9492979E+03;  0.0000000E+00;  1.1108935E-05;  1.0000000E+04;  0.0000000E+00;  9.9465088E+03;1.0307498;0.0;0.38763198;24811.432
  9.4104147E-01;  9.9999998E-03;  1.2033170E-01;2507;0.33231446;0.0;0.041010655;1014.4377;  4.0793782E-01;11927.216;3;63.977947;0.0;-13.606596;0;1.4704807;  9.9467588E+03;  0.0000000E+00;  4.3992408E-05;  1.0000000E+04;  0.0000000E+00;  9.9472764E+03;1.0707061;0.0;0.39977452;24411.766
  9.4106662E-01;  9.9999998E-03;  1.4038864E-01;2508;0.33499417;0.0;0.049748551;1014.3312;  4.0793791E-01;11839.161;3;62.726925;0.0;-15.194981;0;1.5166833;  9.9435635E+03;  0.0000000E+00;  5.9362948E-05;  1.0000000E+04;  0.0000000E+00;  9.9483779E+03;1.1169603;0.0;0.39972311;23868.254
  9.6097797E-01;  9.9999998E-03;  4.3859114E-11;2532;0.33324221;0.0;6.3360779e-09;1014.0722;  4.0712327E-01;11613.641;3;73.744156;0.0;-1.5975966e-06;0;0.88138664;  9.9795166E+03;  0.0000000E+00;  2.4611908E-14;  1.0000000E+04;  0.0000000E+00;  9.9471738E+03;0.52980185;0.0;0.35158479;24350.332
  9.6097988E-01;  9.9999998E-03;  2.0055667E-02;2533;0.33343345;0.0;0.0071110101;1014.0735;  4.0712312E-01;11614.721;3;73.686974;0.0;-2.5621402;0;0.88575339;  9.9793311E+03;  0.0000000E+00; -1.0126573E-06;  1.0000000E+04;  0.0000000E+00;  9.9473809E+03;0.53400922;0.0;0.35174415;24249.773
  9.6098542E-01;  9.9999998E-03;  4.0108871E-02;2534;0.33403116;0.0;0.013958894;1014.0728;  4.0712330E-01;11614.127;3;73.518112;0.0;-4.8093805;0;0.89957798;  9.9787832E+03;  0.0000000E+00; -2.9508130E-06;  1.0000000E+04;  0.0000000E+00;  9.9479170E+03;0.54642975;0.0;0.35314825;23990.762
  9.6099490E-01;  9.9999998E-03;  6.0158905E-02;2535;0.33508077;0.0;0.020485204;1014.0594;  4.0712318E-01;11603.102;3;73.212593;0.0;-6.6068358;0;0.92440641;  9.9778652E+03;  0.0000000E+00; -1.4641596E-06;  1.0000000E+04;  0.0000000E+00;  9.9485674E+03;0.56648183;0.0;0.35792455;23668.994
  9.6100843E-01;  9.9999998E-03;  8.0207035E-02;2536;0.3366605;0.0;0.02680582;1014.0249;  4.0712315E-01;11574.562;3;72.723091;0.0;-8.1456156;0;0.96094197;  9.9765762E+03;  0.0000000E+00;  1.1637102E-05;  1.0000000E+04;  0.0000000E+00;  9.9491699E+03;0.59335279;0.0;0.36758918;23363.955
  9.6102619E-01;  9.9999998E-03;  1.0025574E-01;2537;0.33893108;0.0;0.033289872;1013.9664;  4.0712309E-01;11526.245;3;72.210228;0.0;-9.6224689;0;1.0069889;  9.9748887E+03;  0.0000000E+00;  4.6596284E-05;  1.0000000E+04;  0.0000000E+00;  9.9497090E+03;0.6263175;0.0;0.38067135;23081.715
  9.6104848E-01;  9.9999998E-03;  1.2030700E-01;2538;0.3420254;0.0;0.040480979;1013.8891;  4.0712306E-01;11462.478;3;71.508301;0.0;-11.209072;0;1.056648;  9.9727188E+03;  0.0000000E+00;  1.0770171E-04;  1.0000000E+04;  0.0000000E+00;  9.9503643E+03;0.66522497;0.0;0.39142305;22747.217
  9.6107578E-01;  9.9999998E-03;  1.4036013E-01;2539;0.34619719;0.0;0.048755109;1013.7974;  4.0712297E-01;11386.806;3;70.90136;0.0;-12.751895;0;1.1019747;  9.9699141E+03;  0.0000000E+00;  1.6342985E-04;  1.0000000E+04;  0.0000000E+00;  9.9513604E+03;0.71094251;0.0;0.39103225;22258.82
  9.8096836E-01;  9.9999998E-03; -4.0171238E-11;2563;0.33321303;0.0;-7.4377984e-09;1013.1871;  4.0631685E-01;10868.595;3;75.532608;0.0;-1.4876234e-05;0;0.56968009;  9.9978984E+03;  0.0000000E+00;  2.4309896E-15;  1.0000000E+04;  0.0000000E+00;  9.9509336E+03;0.22004046;0.0;0.34963962;22259.023
  9.8097032E-01;  9.9999998E-03;  2.0050922E-02;2564;0.33346972;0.0;0.0071376897;1013.1881;  4.0631688E-01;10869.477;3;75.494942;0.0;-1.9106044;0;0.57335401;  9.9977461E+03;  0.0000000E+00; -1.5316081E-06;  1.0000000E+04;  0.0000000E+00;  9.9511006E+03;0.22381388;0.0;0.34954014;22179.018
  9.8097622E-01;  9.9999998E-03;  4.0099893E-02;2565;0.33427858;0.0;0.014078691;1013.1874;  4.0631679E-01;10868.884;3;75.400314;0.0;-3.5384083;0;0.58507413;  9.9972988E+03;  0.0000000E+00; -3.7306443E-06;  1.0000000E+04;  0.0000000E+00;  9.9515352E+03;0.23493224;0.0;0.35014188;21974.316
  9.8098624E-01;  9.9999998E-03;  6.0146164E-02;2566;0.33568797;0.0;0.020694071;1013.1765;  4.0631673E-01;10859.835;3;75.267349;0.0;-4.871336;0;0.60636199;  9.9965586E+03;  0.0000000E+00;  4.8698250E-09;  1.0000000E+04;  0.0000000E+00;  9.9520537E+03;0.25282261;0.0;0.35353935;21723.217
  9.8100036E-01;  9.9999998E-03;  8.0190822E-02;2567;0.33775777;0.0;0.027035728;1013.1475;  4.0631679E-01;10835.949;3;75.104919;0.0;-6.0595741;0;0.63803548;  9.9955186E+03;  0.0000000E+00;  1.7895325E-05;  1.0000000E+04;  0.0000000E+00;  9.9525254E+03;0.27669117;0.0;0.36134431;21487.266
  9.8101884E-01;  9.9999998E-03;  1.0023617E-01;2568;0.34061912;0.0;0.033455566;1013.1;  4.0631661E-01;10796.83;3;74.994545;0.0;-7.2705841;0;0.67829299;  9.9941504E+03;  0.0000000E+00;  5.7619429E-05;  1.0000000E+04;  0.0000000E+00;  9.9529609E+03;0.30588838;0.0;0.37240463;21261.57
  9.8104209E-01;  9.9999998E-03;  1.2028408E-01;2569;0.34441239;0.0;0.040512796;1013.0389;  4.0631652E-01;10746.408;3;74.742348;0.0;-8.6377964;0;0.72203577;  9.9923662E+03;  0.0000000E+00;  1.2494497E-04;  1.0000000E+04;  0.0000000E+00;  9.9535449E+03;0.34053689;0.0;0.38149887;20969.475
  9.8107052E-01;  9.9999998E-03;  1.4033391E-01;2570;0.34932232;0.0;0.048581421;1012.9656;  4.0631637E-01;10686.06;3;74.581161;0.0;-9.9414787;0;0.76266146;  9.9899727E+03;  0.0000000E+00;  2.0244840E-04;  1.0000000E+04;  0.0000000E+00;  9.9544932E+03;0.38223377;0.0;0.38042772;20514.785
  1.0009525E+00;  9.9999998E-03;  8.8683332E-12;2594;0.33101723;0.0;-6.5449473e-09;1012.0715;  4.0554476E-01;9931.3008;3;76.694862;0.0;-1.322692e-05;0;0.35139611;  1.0010250E+04;  0.0000000E+00; -1.4506960E-14;  1.0000000E+04;  0.0000000E+00;  9.9545654E+03;0.0057224752;0.0;0.34567365;20163.234
  1.0009545E+00;  9.9999998E-03;  2.0046813E-02;2595;0.33134806;0.0;0.0072254403;1012.0721;  4.0554479E-01;9931.7891;3;76.684883;0.0;-1.3843602;0;0.35433877;  1.0010131E+04;  0.0000000E+00; -3.0311937E-06;  1.0000000E+04;  0.0000000E+00;  9.9546963E+03;0.0088871848;0.0;0.34545159;20102.744
  1.0009608E+00;  9.9999998E-03;  4.0092051E-02;2596;0.3323639;0.0;0.014214174;1012.071;  4.0554461E-01;9930.8994;3;76.655472;0.0;-2.600379;0;0.36380482;  1.0009768E+04;  0.0000000E+00; -7.8562343E-06;  1.0000000E+04;  0.0000000E+00;  9.9550303E+03;0.018217316;0.0;0.34558749;19948.164
  1.0009714E+00;  9.9999998E-03;  6.0135212E-02;2597;0.33407119;0.0;0.020844894;1012.0612;  4.0554458E-01;9922.8467;3;76.551224;0.0;-3.6533768;0;0.38121501;  1.0009164E+04;  0.0000000E+00; -5.2218866E-06;  1.0000000E+04;  0.0000000E+00;  9.9554326E+03;0.033258695;0.0;0.3479563;19757.678
  1.0009861E+00;  9.9999998E-03;  8.0177173E-02;2598;0.33653483;0.0;0.02721462;1012.037;  4.0554449E-01;9902.9229;3;76.492851;0.0;-4.5648661;0;0.40743086;  1.0008314E+04;  0.0000000E+00;  1.0899385E-05;  1.0000000E+04;  0.0000000E+00;  9.9558125E+03;0.053395193;0.0;0.35403568;19572.775
  1.0010052E+00;  9.9999998E-03;  1.0021972E-01;2599;0.33979639;0.0;0.033636674;1011.9989;  4.0554446E-01;9871.5195;3;76.377144;0.0;-5.5874972;0;0.44101635;  1.0007180E+04;  0.0000000E+00;  3.7632220E-05;  1.0000000E+04;  0.0000000E+00;  9.9561973E+03;0.078165263;0.0;0.36285108;19379.18
  1.0010290E+00;  9.9999998E-03;  1.2026453E-01;2600;0.3439827;0.0;0.040598541;1011.9507;  4.0554410E-01;9831.873;3;76.399994;0.0;-6.6831679;0;0.47758234;  1.0005667E+04;  0.0000000E+00;  7.2036593E-05;  1.0000000E+04;  0.0000000E+00;  9.9567646E+03;0.10788654;0.0;0.36969581;19103.123
  1.0010585E+00;  9.9999998E-03;  1.4031067E-01;2601;0.34930971;0.0;0.048435077;1011.8936;  4.0554410E-01;9784.7686;3;76.315689;0.0;-7.6194577;0;0.51162463;  1.0003580E+04;  0.0000000E+00;  1.1405787E-04;  1.0000000E+04;  0.0000000E+00;  9.9577197E+03;0.14450525;0.0;0.3671194;18659.211
  1.0209330E+00;  9.9999998E-03;  3.0301924E-11;2625;0.32769373;0.0;6.344576e-09;1010.8489;  4.0482739E-01;8903.9736;3;77.220337;0.0;9.7686716e-06;0;0.20750839;  1.0018015E+04;  0.0000000E+00;  3.3671142E-14;  1.0000000E+04;  0.0000000E+00;  9.9580078E+03;-0.13219205;0.0;0.33970043;18096.861
  1.0209353E+00;  9.9999998E-03;  2.0042948E-02;2626;0.32807156;0.0;0.0070545748;1010.8488;  4.0482754E-01;8903.873;3;77.176254;0.0;-1.1468128;0;0.20991088;  1.0017908E+04;  0.0000000E+00; -3.9520546E-06;  1.0000000E+04;  0.0000000E+00;  9.9581035E+03;-0.12955831;0.0;0.33946919;18053.131
  1.0209420E+00;  9.9999998E-03;  4.0084641E-02;2627;0.3292163;0.0;0.013895668;1010.8459;  4.0482745E-01;8901.5166;3;77.120483;0.0;-2.1481943;0;0.21764684;  1.0017599E+04;  0.0000000E+00; -9.5892592E-06;  1.0000000E+04;  0.0000000E+00;  9.9583584E+03;-0.12175865;0.0;0.33940548;17939.889
  1.0209529E+00;  9.9999998E-03;  6.0124572E-02;2628;0.33112296;0.0;0.020366229;1010.8356;  4.0482736E-01;8893.0898;3;77.120636;0.0;-3.0150216;0;0.23189488;  1.0017077E+04;  0.0000000E+00; -5.6528365E-06;  1.0000000E+04;  0.0000000E+00;  9.9586738E+03;-0.10907193;0.0;0.34096682;17794.186
  1.0209681E+00;  9.9999998E-03;  8.0163620E-02;2629;0.33380747;0.0;0.026620036;1010.8137;  4.0482736E-01;8875.0674;3;77.168327;0.0;-3.7186837;0;0.2533997;  1.0016314E+04;  0.0000000E+00;  7.6184838E-06;  1.0000000E+04;  0.0000000E+00;  9.9590068E+03;-0.091864876;0.0;0.34526458;17637.566
  1.0209876E+00;  9.9999998E-03;  1.0020354E-01;2630;0.33736718;0.0;0.033088107;1010.7809;  4.0482715E-01;8848.1387;3;77.24929;0.0;-4.244844;0;0.28097644;  1.0015272E+04;  0.0000000E+00;  8.4926460E-06;  1.0000000E+04;  0.0000000E+00;  9.9594004E+03;-0.070387393;0.0;0.35136384;17449.314
  1.0210121E+00;  9.9999998E-03;  1.2024561E-01;2631;0.34187138;0.0;0.040152524;1010.7402;  4.0482697E-01;8814.7461;3;77.16481;0.0;-4.9386606;0;0.31080568;  1.0013857E+04;  0.0000000E+00; -2.7432581E-05;  1.0000000E+04;  0.0000000E+00;  9.9600107E+03;-0.044296626;0.0;0.3551023;17164.506
  1.0210425E+00;  9.9999998E-03;  1.4028835E-01;2632;0.3475205;0.0;0.047871541;1010.6913;  4.0482670E-01;8774.4971;3;77.153908;0.0;-5.526423;0;0.33816832;  1.0011892E+04;  0.0000000E+00; -8.8124973E-05;  1.0000000E+04;  0.0000000E+00;  9.9610156E+03;-0.011801154;0.0;0.34996948;16714.494
  1.0409095E+00;  9.9999998E-03;  2.1342768E-11;2656;0.32328585;0.0;1.0569318e-09;1009.635;  4.0417930E-01;7882.2451;3;77.88105;0.0;1.3170793e-06;0;0.11261956;  1.0022776E+04;  0.0000000E+00; -1.2015641E-14;  1.0000000E+04;  0.0000000E+00;  9.9612441E+03;-0.21912734;0.0;0.33174691;16078.529
  1.0409119E+00;  9.9999998E-03;  2.0039108E-02;2657;0.32371363;0.0;0.0066847377;1009.6339;  4.0417928E-01;7881.3647;3;77.833778;0.0;-0.98968196;0;0.1147411;  1.0022680E+04;  0.0000000E+00; -2.3639798E-06;  1.0000000E+04;  0.0000000E+00;  9.9613184E+03;-0.21680589;0.0;0.33154699;16047.013
  1.0409188E+00;  9.9999998E-03;  4.0077340E-02;2658;0.32497674;0.0;0.013272375;1009.629;  4.0417933E-01;7877.3564;3;77.697052;0.0;-1.7474433;0;0.12147494;  1.0022379E+04;  0.0000000E+00; -2.3882262E-06;  1.0000000E+04;  0.0000000E+00;  9.9615166E+03;-0.20987366;0.0;0.3313486;15961.827
  1.0409303E+00;  9.9999998E-03;  6.0114559E-02;2659;0.32705435;0.0;0.019781891;1009.6165;  4.0417925E-01;7867.0996;3;77.600471;0.0;-2.2665477;0;0.13363859;  1.0021865E+04;  0.0000000E+00;  9.2272130E-06;  1.0000000E+04;  0.0000000E+00;  9.9617881E+03;-0.19841918;0.0;0.33205777;15840.511
  1.0409459E+00;  9.9999998E-03;  8.0151364E-02;2660;0.32995868;0.0;0.026179213;1009.5948;  4.0417913E-01;7849.3276;3;77.627365;0.0;-2.8229887;0;0.15170078;  1.0021094E+04;  0.0000000E+00;  1.9976436E-05;  1.0000000E+04;  0.0000000E+00;  9.9621260E+03;-0.18255813;0.0;0.33425891;15687.795
  1.0409659E+00;  9.9999998E-03;  1.0018916E-01;2661;0.33373556;0.0;0.032707896;1009.5631;  4.0417901E-01;7823.3569;3;77.705894;0.0;-3.4315188;0;0.17459385;  1.0020010E+04;  0.0000000E+00; -1.5373495E-05;  1.0000000E+04;  0.0000000E+00;  9.9625859E+03;-0.16237064;0.0;0.33696449;15480.987
  1.0409912E+00;  9.9999998E-03;  1.2022834E-01;2662;0.33854964;0.0;0.039664667;1009.5236;  4.0417877E-01;7790.9429;3;77.82608;0.0;-3.8568232;0;0.19899984;  1.0018516E+04;  0.0000000E+00; -1.4596185E-04;  1.0000000E+04;  0.0000000E+00;  9.9632910E+03;-0.13766156;0.0;0.3366614;15170.712
  1.0410229E+00;  9.9999998E-03;  1.4026788E-01;2663;0.3446483;0.0;0.047214016;1009.4747;  4.0417862E-01;7751.0107;3;77.937469;0.0;-4.1421175;0;0.22079596;  1.0016478E+04;  0.0000000E+00; -3.5046588E-04;  1.0000000E+04;  0.0000000E+00;  9.9643652E+03;-0.10723942;0.0;0.32803538;14710.964
  1.0608824E+00;  9.9999998E-03;  5.2795854E-11;2687;0.31772566;0.0;2.7217828e-09;1008.5112;  4.0360868E-01;6933.0352;3;78.283363;0.0;-1.5982027e-05;0;0.045771897;  1.0025685E+04;  0.0000000E+00;  9.0336835E-15;  1.0000000E+04;  0.0000000E+00;  9.9642920E+03;-0.27600327;0.0;0.32177517;14114.978
  1.0608848E+00;  9.9999998E-03;  2.0035461E-02;2688;0.31813875;0.0;0.0064395298;1008.509;  4.0360871E-01;6931.2837;3;78.204964;0.0;-0.58095938;0;0.047792375;  1.0025582E+04;  0.0000000E+00;  2.2416407E-06;  1.0000000E+04;  0.0000000E+00;  9.9643525E+03;-0.27374673;0.0;0.3215391;14089.725
  1.0608921E+00;  9.9999998E-03;  4.0070627E-02;2689;0.31952515;0.0;0.012880495;1008.5021;  4.0360874E-01;6925.6392;3;78.151871;0.0;-1.2391713;0;0.054057688;  1.0025269E+04;  0.0000000E+00;  1.3627422E-05;  1.0000000E+04;  0.0000000E+00;  9.9645303E+03;-0.26694518;0.0;0.32100287;14016.526
  1.0609038E+00;  9.9999998E-03;  6.0105391E-02;2690;0.32184553;0.0;0.01922386;1008.4877;  4.0360868E-01;6913.8687;3;78.088379;0.0;-1.8402464;0;0.065006852;  1.0024700E+04;  0.0000000E+00;  3.3967430E-05;  1.0000000E+04;  0.0000000E+00;  9.9648125E+03;-0.25551236;0.0;0.32051921;13898.236
  1.0609199E+00;  9.9999998E-03;  8.0140322E-02;2691;0.32503417;0.0;0.025572883;1008.4641;  4.0360859E-01;6894.6147;3;78.069389;0.0;-2.3828733;0;0.080777794;  1.0023827E+04;  0.0000000E+00;  3.1146403E-05;  1.0000000E+04;  0.0000000E+00;  9.9652158E+03;-0.23935664;0.0;0.32013443;13729.236
  1.0609407E+00;  9.9999998E-03;  1.0017592E-01;2692;0.32915133;0.0;0.032108728;1008.4301;  4.0360841E-01;6866.8081;3;78.075378;0.0;-2.798408;0;0.10031365;  1.0022580E+04;  0.0000000E+00; -6.1357401E-05;  1.0000000E+04;  0.0000000E+00;  9.9657852E+03;-0.21847616;0.0;0.31878981;13490.648
  1.0609672E+00;  9.9999998E-03;  1.2021212E-01;2693;0.33429334;0.0;0.038820855;1008.3851;  4.0360841E-01;6830.252;3;78.132614;0.0;-3.0942073;0;0.1207992;  1.0020874E+04;  0.0000000E+00; -3.0030977E-04;  1.0000000E+04;  0.0000000E+00;  9.9665977E+03;-0.19294719;0.0;0.31374639;13153.491
  1.0610003E+00;  9.9999998E-03;  1.4024720E-01;2694;0.34081686;0.0;0.045793209;1008.327;  4.0360826E-01;6782.8096;3;78.26384;0.0;-3.0413723;0;0.1387223;  1.0018602E+04;  0.0000000E+00; -9.1113435E-04;  1.0000000E+04;  0.0000000E+00;  9.9677139E+03;-0.1624659;0.0;0.3011882;12698.831
  1.0808527E+00;  9.9999998E-03;  2.0876755E-11;2718;0.31096718;0.0;3.2342569e-09;1007.5162;  4.0311891E-01;6087.6509;3;78.368362;0.0;-2.1248779e-06;0;-0.0050269365;  1.0027304E+04;  0.0000000E+00; -1.0173214E-14;  1.0000000E+04;  0.0000000E+00;  9.9672070E+03;-0.31453341;0.0;0.30950648;12206.598
  1.0808553E+00;  9.9999998E-03;  2.0032413E-02;2719;0.31147972;0.0;0.0061757648;1007.5135;  4.0311879E-01;6085.5215;3;78.348076;0.0;-0.52314967;0;-0.003049612;  1.0027187E+04;  0.0000000E+00;  7.2880575E-06;  1.0000000E+04;  0.0000000E+00;  9.9672705E+03;-0.31213772;0.0;0.30908811;12181.794
  1.0808625E+00;  9.9999998E-03;  4.0064778E-02;2720;0.31299782;0.0;0.012303585;1007.5046;  4.0311888E-01;6078.2651;3;78.276711;0.0;-1.0420841;0;0.002971828;  1.0026814E+04;  0.0000000E+00;  2.6931188E-05;  1.0000000E+04;  0.0000000E+00;  9.9674678E+03;-0.30486271;0.0;0.30783454;12106.121
  1.0808747E+00;  9.9999998E-03;  6.0097322E-02;2721;0.31551814;0.0;0.018505603;1007.4874;  4.0311861E-01;6064.3379;3;78.221542;0.0;-1.4973824;0;0.013192266;  1.0026142E+04;  0.0000000E+00;  3.9443192E-05;  1.0000000E+04;  0.0000000E+00;  9.9678018E+03;-0.29247886;0.0;0.30567113;11975.199
  1.0808914E+00;  9.9999998E-03;  8.0130219E-02;2722;0.31901285;0.0;0.024830934;1007.46;  4.0311870E-01;6042.0977;3;78.211411;0.0;-1.8553535;0;0.027460515;  1.0025102E+04;  0.0000000E+00; -9.6280382E-06;  1.0000000E+04;  0.0000000E+00;  9.9682979E+03;-0.27476925;0.0;0.30222976;11781.427
  1.0809133E+00;  9.9999998E-03;  1.0016332E-01;2723;0.32349774;0.0;0.031224899;1007.4189;  4.0311846E-01;6008.7441;3;78.229553;0.0;-2.1009781;0;0.044703871;  1.0023602E+04;  0.0000000E+00; -1.9281326E-04;  1.0000000E+04;  0.0000000E+00;  9.9689795E+03;-0.25177956;0.0;0.29648343;11515.296
  1.0809412E+00;  9.9999998E-03;  1.2019602E-01;2724;0.32914457;0.0;0.037676249;1007.3619;  4.0311852E-01;5962.5381;3;78.268417;0.0;-2.1429749;0;0.062624589;  1.0021579E+04;  0.0000000E+00; -5.3773599E-04;  1.0000000E+04;  0.0000000E+00;  9.9698672E+03;-0.22396539;0.0;0.28658998;11169.615
  1.0809760E+00;  9.9999998E-03;  1.4022650E-01;2725;0.33615893;0.0;0.043957289;1007.2877;  4.0311849E-01;5902.417;3;78.365372;0.0;-2.0710521;0;0.078297153;  1.0019021E+04;  0.0000000E+00; -5.9219911E-03;  1.0000000E+04;  0.0000000E+00;  9.9709395E+03;-0.19227915;0.0;0.2705763;10755.885
  1.1008217E+00;  9.9999998E-03; -4.4475591E-12;2748;0.30346352;0.0;8.7231655e-10;1006.6559;  4.0270755E-01;5350.4189;3;78.138092;0.0;-3.7370955e-06;0;-0.043971568;  1.0027760E+04;  0.0000000E+00;  2.2112039E-15;  1.0000000E+04;  0.0000000E+00;  9.9700635E+03;-0.33836192;0.0;0.29439035;10357.044
  1.1008244E+00;  9.9999998E-03;  2.0029608E-02;2749;0.30400589;0.0;0.0058498089;1006.6525;  4.0270787E-01;5347.6338;3;78.131042;0.0;-0.32058397;0;-0.042044014;  1.0027613E+04;  0.0000000E+00;  6.6125717E-06;  1.0000000E+04;  0.0000000E+00;  9.9701367E+03;-0.33568162;0.0;0.2936376;10329.388
  1.1008317E+00;  9.9999998E-03;  4.0059496E-02;2750;0.30558899;0.0;0.011691854;1006.6414;  4.0270776E-01;5338.7051;3;78.066788;0.0;-0.75163871;0;-0.036216915;  1.0027151E+04;  0.0000000E+00;  1.3729387E-05;  1.0000000E+04;  0.0000000E+00;  9.9703721E+03;-0.32750764;0.0;0.29129073;10244.507
  1.1008443E+00;  9.9999998E-03;  6.0089909E-02;2751;0.30830523;0.0;0.017791968;1006.6198;  4.0270761E-01;5321.2354;3;77.998344;0.0;-1.0860753;0;-0.02648297;  1.0026323E+04;  0.0000000E+00; -2.0113866E-05;  1.0000000E+04;  0.0000000E+00;  9.9707744E+03;-0.31352887;0.0;0.2870459;10098.201
  1.1008618E+00;  9.9999998E-03;  8.0120526E-02;2752;0.31213525;0.0;0.024031727;1006.5841;  4.0270770E-01;5292.5435;3;78.015587;0.0;-1.2634031;0;-0.013180137;  1.0025027E+04;  0.0000000E+00; -1.5903237E-04;  1.0000000E+04;  0.0000000E+00;  9.9713584E+03;-0.29353106;0.0;0.28035092;9887.9434
  1.1008850E+00;  9.9999998E-03;  1.0015098E-01;2753;0.31709614;0.0;0.030272678;1006.5298;  4.0270746E-01;5248.8901;3;78.052956;0.0;-1.3230039;0;0.0026444495;  1.0023201E+04;  0.0000000E+00; -4.4970372E-04;  1.0000000E+04;  0.0000000E+00;  9.9720986E+03;-0.26777479;0.0;0.27041924;9616.8154
  1.1009145E+00;  9.9999998E-03;  1.2017927E-01;2754;0.32333338;0.0;0.036182359;1006.4545;  4.0270746E-01;5188.3589;3;78.161812;0.0;-1.2723001;0;0.019096449;  1.0020827E+04;  0.0000000E+00; -2.6431906E-03;  1.0000000E+04;  0.0000000E+00;  9.9729727E+03;-0.2373706;0.0;0.25646704;9298.3516
  1.1009521E+00;  9.9999998E-03;  1.4020544E-01;2755;0.33116502;0.0;0.041563679;1006.3627;  4.0270752E-01;5114.3955;3;78.327896;0.0;-1.1159524;0;0.033288583;  1.0018117E+04;  0.0000000E+00; -3.4174599E-02;  1.0000000E+04;  0.0000000E+00;  9.9738506E+03;-0.20545068;0.0;0.23873927;8977.0264
  1.1207910E+00;  9.9999998E-03; -1.5212586E-11;2777;0.29545051;0.0;2.8377294e-09;1005.9188;  4.0237078E-01;4710.9575;3;77.570732;0.0;-2.1674068e-06;0;-0.071333736;  1.0026992E+04;  0.0000000E+00;  3.2098278E-15;  1.0000000E+04;  0.0000000E+00;  9.9729033E+03;-0.34707221;0.0;0.27573848;8586.0781
  1.1207936E+00;  9.9999998E-03;  2.0027209E-02;2778;0.2960341;0.0;0.0056368513;1005.9138;  4.0237072E-01;4707.061;3;77.562157;0.0;-0.16169602;0;-0.069445014;  1.0026807E+04;  0.0000000E+00; -7.1837107E-06;  1.0000000E+04;  0.0000000E+00;  9.9729932E+03;-0.34400791;0.0;0.2745629;8556.2588
  1.1208012E+00;  9.9999998E-03;  4.0054742E-02;2779;0.2977424;0.0;0.011269442;1005.8977;  4.0237078E-01;4694.2314;3;77.578293;0.0;-0.32322744;0;-0.063739121;  1.0026214E+04;  0.0000000E+00; -4.7875285E-05;  1.0000000E+04;  0.0000000E+00;  9.9732637E+03;-0.33467713;0.0;0.27093801;8466.2959
  1.1208142E+00;  9.9999998E-03;  6.0082749E-02;2780;0.30064178;0.0;0.017087288;1005.867;  4.0237090E-01;4669.7173;3;77.495018;0.0;-0.68172717;0;-0.054261506;  1.0025153E+04;  0.0000000E+00; -1.6993917E-04;  1.0000000E+04;  0.0000000E+00;  9.9737090E+03;-0.31880948;0.0;0.26454797;8316.5449
  1.1208328E+00;  9.9999998E-03;  8.0110893E-02;2781;0.30484751;0.0;0.023099108;1005.8169;  4.0237084E-01;4629.8184;3;77.519051;0.0;-0.69976586;0;-0.041439801;  1.0023548E+04;  0.0000000E+00; -4.1718929E-04;  1.0000000E+04;  0.0000000E+00;  9.9743105E+03;-0.29638016;0.0;0.25494036;8112.8682
  1.1208574E+00;  9.9999998E-03;  1.0013729E-01;2782;0.31042355;0.0;0.028874004;1005.7432;  4.0237069E-01;4571.0229;3;77.652702;0.0;-0.63849753;0;-0.026351094;  1.0021372E+04;  0.0000000E+00; -2.4061564E-03;  1.0000000E+04;  0.0000000E+00;  9.9750117E+03;-0.26820457;0.0;0.24185348;7871.6587
  1.1208893E+00;  9.9999998E-03;  1.2016121E-01;2783;0.31736419;0.0;0.033860892;1005.6491;  4.0237081E-01;4496.082;3;77.798706;0.0;-0.49930775;0;-0.011167362;  1.0018792E+04;  0.0000000E+00; -2.5055517E-02;  1.0000000E+04;  0.0000000E+00;  9.9757168E+03;-0.23706412;0.0;0.22589676;7627.8145
  1.1209294E+00;  9.9999998E-03;  1.4018135E-01;2784;0.32623893;0.0;0.038050368;1005.5502;  4.0237054E-01;4417.3281;3;78.281242;0.0;-0.40502036;0;0.00087270141;  1.0016289E+04;  0.0000000E+00; -1.3513941E-01;  1.0000000E+04;  0.0000000E+00;  9.9762500E+03;-0.20819092;0.0;0.20906362;7449.6689
  1.1407617E+00;  9.9999998E-03;  1.2483674E-11;2805;0.28734869;0.0;3.4287293e-09;1005.2778;  4.0210056E-01;4147.0249;3;76.779266;0.0;2.4979272e-06;0;-0.086661994;  1.0024850E+04;  0.0000000E+00; -1.2028505E-14;  1.0000000E+04;  0.0000000E+00;  9.9757217E+03;-0.33963168;0.0;0.25296968;6935.1802
  1.1407644E+00;  9.9999998E-03;  2.0024927E-02;2806;0.28796664;0.0;0.0054092011;1005.2698;  4.0210044E-01;4140.7407;3;76.7799;0.0;-0.035662033;0;-0.084760547;  1.0024601E+04;  0.0000000E+00; -3.3515698E-05;  1.0000000E+04;  0.0000000E+00;  9.9758154E+03;-0.33616695;0.0;0.2514064;6906.9658
  1.1407723E+00;  9.9999998E-03;  4.0049974E-02;2807;0.28985232;0.0;0.010828737;1005.2453;  4.0210053E-01;4121.5146;3;76.837677;0.0;-0.039180063;0;-0.07902813;  1.0023846E+04;  0.0000000E+00; -1.4795996E-04;  1.0000000E+04;  0.0000000E+00;  9.9760820E+03;-0.32569566;0.0;0.24666753;6823.7197
  1.1407859E+00;  9.9999998E-03;  6.0075302E-02;2808;0.29297069;0.0;0.016217861;1005.2003;  4.0210050E-01;4086.0671;3;76.813568;0.0;-0.20256208;0;-0.069555998;  1.0022521E+04;  0.0000000E+00; -5.3970562E-04;  1.0000000E+04;  0.0000000E+00;  9.9765020E+03;-0.30818152;0.0;0.23862553;6691.1953
  1.1408055E+00;  9.9999998E-03;  8.0099702E-02;2809;0.29768342;0.0;0.021725636;1005.1319;  4.0210056E-01;4032.2441;3;76.876999;0.0;-0.21052881;0;-0.05701983;  1.0020635E+04;  0.0000000E+00; -4.4507603E-03;  1.0000000E+04;  0.0000000E+00;  9.9770176E+03;-0.28428739;0.0;0.22726756;6524.7178
  1.1408321E+00;  9.9999998E-03;  1.0012195E-01;2810;0.30384189;0.0;0.026560647;1005.0417;  4.0210044E-01;3961.3555;3;77.082985;0.0;-0.029272463;0;-0.043112114;  1.0018322E+04;  0.0000000E+00; -2.9747318E-02;  1.0000000E+04;  0.0000000E+00;  9.9775313E+03;-0.25633311;0.0;0.213221;6354.1685
  1.1408664E+00;  9.9999998E-03;  1.2014031E-01;2811;0.31193352;0.0;0.030537598;1004.9423;  4.0210053E-01;3883.1416;3;77.596382;0.0;0.064754114;0;-0.0305143;  1.0015963E+04;  0.0000000E+00; -1.2940343E-01;  1.0000000E+04;  0.0000000E+00;  9.9779063E+03;-0.2287223;0.0;0.198208;6231.0405
  1.1409098E+00;  9.9999998E-03;  1.4015576E-01;2812;0.32148981;0.0;0.033313826;1004.8564;  4.0210044E-01;3815.5837;3;78.533051;0.0;0.25723806;0;-0.022601485;  1.0014114E+04;  0.0000000E+00; -3.9732558E-01;  1.0000000E+04;  0.0000000E+00;  9.9780430E+03;-0.20709839;0.0;0.18449691;6271.1265
  1.1607350E+00;  9.9999998E-03;  1.7763267E-11;2832;0.27963084;0.0;3.6433188e-09;1004.7014;  4.0188852E-01;3633.47;3;75.908585;0.0;-5.1752249e-06;0;-0.090677917;  1.0021201E+04;  0.0000000E+00; -1.3987753E-15;  1.0000000E+04;  0.0000000E+00;  9.9784297E+03;-0.31660244;0.0;0.22592452;5457.335
  1.1607378E+00;  9.9999998E-03;  2.0022389E-02;2833;0.28030738;0.0;0.0050938008;1004.6901;  4.0188846E-01;3624.8005;3;75.925491;0.0;0.092739232;0;-0.088733763;  1.0020907E+04;  0.0000000E+00; -1.1797127E-04;  1.0000000E+04;  0.0000000E+00;  9.9785000E+03;-0.31289563;0.0;0.22416186;5435.2124
  1.1607460E+00;  9.9999998E-03;  4.0044580E-02;2834;0.28233671;0.0;0.01011839;1004.6557;  4.0188846E-01;3598.147;3;76.002472;0.0;0.22291571;0;-0.083002776;  1.0020015E+04;  0.0000000E+00; -1.6860808E-03;  1.0000000E+04;  0.0000000E+00;  9.9787090E+03;-0.30196291;0.0;0.21896014;5372.2139
  1.1607603E+00;  9.9999998E-03;  6.0066365E-02;2835;0.28585875;0.0;0.014961099;1004.5983;  4.0188846E-01;3553.7852;3;76.122177;0.0;0.18466949;0;-0.073944524;  1.0018568E+04;  0.0000000E+00; -1.0712306E-02;  1.0000000E+04;  0.0000000E+00;  9.9790000E+03;-0.28454557;0.0;0.21060105;5279.7505
  1.1607815E+00;  9.9999998E-03;  8.0086805E-02;2836;0.29100212;0.0;0.019442014;1004.5199;  4.0188855E-01;3493.0947;3;76.254257;0.0;0.18537739;0;-0.062869817;  1.0016711E+04;  0.0000000E+00; -4.7509141E-02;  1.0000000E+04;  0.0000000E+00;  9.9792920E+03;-0.26262075;0.0;0.19975093;5181.5947
  1.1608101E+00;  9.9999998E-03;  1.0010375E-01;2837;0.29815039;0.0;0.023279585;1004.4303;  4.0188849E-01;3423.7234;3;76.805946;0.0;0.35446143;0;-0.051972941;  1.0014731E+04;  0.0000000E+00; -1.5744843E-01;  1.0000000E+04;  0.0000000E+00;  9.9794873E+03;-0.23958857;0.0;0.18761563;5119.4414
  1.1608473E+00;  9.9999998E-03;  1.2011776E-01;2838;0.30680412;0.0;0.025926229;1004.3483;  4.0188855E-01;3360.2251;3;77.87291;0.0;0.56205648;0;-0.04430601;  1.0013093E+04;  0.0000000E+00; -4.1996014E-01;  1.0000000E+04;  0.0000000E+00;  9.9794951E+03;-0.2202346;0.0;0.17592859;5190.707
  1.1608952E+00;  9.9999998E-03;  1.4013177E-01;2839;0.31773826;0.0;0.028172208;1004.298;  4.0188864E-01;3321.2009;3;79.724792;0.0;0.69732475;0;-0.042310834;  1.0012283E+04;  0.0000000E+00; -9.1755241E-01;  1.0000000E+04;  0.0000000E+00;  9.9793008E+03;-0.20870925;0.0;0.16639842;5629.9478
  1.1807117E+00;  9.9999998E-03;  1.6245909E-11;2858;0.2728599;0.0;1.0209397e-08;1004.1729;  4.0172553E-01;3158.1011;3;75.226067;0.0;2.2579552e-06;0;-0.087461233;  1.0016348E+04;  0.0000000E+00; -1.1921761E-14;  1.0000000E+04;  0.0000000E+00;  9.9808555E+03;-0.2826972;0.0;0.19523597;4201.3125
  1.1807146E+00;  9.9999998E-03;  2.0019228E-02;2859;0.273572;0.0;0.0045851329;1004.1599;  4.0172562E-01;3148.2568;3;75.213554;0.0;0.20703617;0;-0.085657552;  1.0016053E+04;  0.0000000E+00; -2.4498126E-03;  1.0000000E+04;  0.0000000E+00;  9.9808877E+03;-0.2793602;0.0;0.19370265;4189.332
  1.1807233E+00;  9.9999998E-03;  4.0038127E-02;2860;0.27582279;0.0;0.0089981658;1004.1218;  4.0172571E-01;3119.3552;3;75.407616;0.0;0.3982259;0;-0.080590874;  1.0015217E+04;  0.0000000E+00; -1.7844634E-02;  1.0000000E+04;  0.0000000E+00;  9.9809668E+03;-0.26992214;0.0;0.18933126;4158.0898
  1.1807386E+00;  9.9999998E-03;  6.0055938E-02;2861;0.27964064;0.0;0.012913641;1004.0639;  4.0172556E-01;3075.4546;3;75.666634;0.0;0.45405552;0;-0.073293909;  1.0013986E+04;  0.0000000E+00; -7.0435949E-02;  1.0000000E+04;  0.0000000E+00;  9.9810410E+03;-0.25607029;0.0;0.18277638;4123.4873
  1.1807612E+00;  9.9999998E-03;  8.0071442E-02;2862;0.28549901;0.0;0.016321151;1003.995;  4.0172568E-01;3023.2292;3;76.289886;0.0;0.5333997;0;-0.065622762;  1.0012616E+04;  0.0000000E+00; -2.0603609E-01;  1.0000000E+04;  0.0000000E+00;  9.9810352E+03;-0.2406006;0.0;0.17497784;4121.8379
  1.1807925E+00;  9.9999998E-03;  1.0008459E-01;2863;0.29302555;0.0;0.018870592;1003.9307;  4.0172565E-01;2974.4954;3;77.293549;0.0;0.67344743;0;-0.06020385;  1.0011476E+04;  0.0000000E+00; -4.8988938E-01;  1.0000000E+04;  0.0000000E+00;  9.9808936E+03;-0.22708885;0.0;0.166885;4242.0933
  1.1808336E+00;  9.9999998E-03;  1.2009754E-01;2864;0.30282336;0.0;0.02113387;1003.891;  4.0172568E-01;2944.313;3;79.296883;0.0;0.79634678;0;-0.05923672;  1.0010972E+04;  0.0000000E+00; -9.9136269E-01;  1.0000000E+04;  0.0000000E+00;  9.9806064E+03;-0.21894625;0.0;0.15970953;4681.3784
  1.1808866E+00;  9.9999998E-03;  1.4011261E-01;2865;0.31485102;0.0;0.023195585;1003.8896;  4.0172562E-01;2943.0474;3;82.91304;0.0;1.0534128;0;-0.062982023;  1.0011331E+04;  0.0000000E+00; -1.7292582E+00;  1.0000000E+04;  0.0000000E+00;  9.9802266E+03;-0.21709599;0.0;0.15411396;5664.6206
  1.2006924E+00;  9.9999998E-03;  2.1028929E-11;2882;0.26730382;0.0;1.0874088e-08;1003.7047;  4.0160295E-01;2731.5264;3;75.091644;0.0;1.0330652e-05;0;-0.084510103;  1.0011157E+04;  0.0000000E+00; -2.1357151E-14;  1.0000000E+04;  0.0000000E+00;  9.9828066E+03;-0.24738519;0.0;0.16287509;3198.4446
  1.2006955E+00;  9.9999998E-03;  2.0015649E-02;2883;0.26806214;0.0;0.0037990781;1003.6935;  4.0160301E-01;2723.3403;3;75.251228;0.0;0.29376638;0;-0.083166763;  1.0010959E+04;  0.0000000E+00; -1.3507471E-02;  1.0000000E+04;  0.0000000E+00;  9.9827900E+03;-0.24527627;0.0;0.16210951;3198.0505
  1.2007048E+00;  9.9999998E-03;  4.0030710E-02;2884;0.2704592;0.0;0.0072588199;1003.6625;  4.0160298E-01;2700.4512;3;75.465164;0.0;0.4901287;0;-0.079629436;  1.0010416E+04;  0.0000000E+00; -7.2212994E-02;  1.0000000E+04;  0.0000000E+00;  9.9827109E+03;-0.23963964;0.0;0.1600102;3202.7571
  1.2007213E+00;  9.9999998E-03;  6.0044348E-02;2885;0.27466682;0.0;0.0100604;1003.6218;  4.0160310E-01;2670.3279;3;76.327377;0.0;0.61469328;0;-0.07556808;  1.0009759E+04;  0.0000000E+00; -2.2554234E-01;  1.0000000E+04;  0.0000000E+00;  9.9825508E+03;-0.23267736;0.0;0.15710928;3240.2349
  1.2007462E+00;  9.9999998E-03;  8.0056481E-02;2886;0.28069001;0.0;0.012301397;1003.5855;  4.0160307E-01;2643.426;3;77.330589;0.0;0.62326813;0;-0.073362008;  1.0009301E+04;  0.0000000E+00; -5.3805083E-01;  1.0000000E+04;  0.0000000E+00;  9.9822832E+03;-0.22724715;0.0;0.15388514;3392.9622
  1.2007806E+00;  9.9999998E-03;  1.0006884E-01;2887;0.28919864;0.0;0.014586525;1003.5698;  4.0160304E-01;2631.6938;3;79.431198;0.0;0.73595262;0;-0.074533895;  1.0009364E+04;  0.0000000E+00; -1.0637904E+00;  1.0000000E+04;  0.0000000E+00;  9.9819121E+03;-0.22540362;0.0;0.15086973;3829.4263
  1.2008270E+00;  9.9999998E-03;  1.2008388E-01;2888;0.29972956;0.0;0.01663414;1003.5825;  4.0160295E-01;2640.9204;3;83.015106;0.0;0.82349104;0;-0.079557404;  1.0010084E+04;  0.0000000E+00; -1.8116877E+00;  1.0000000E+04;  0.0000000E+00;  9.9814541E+03;-0.22761703;0.0;0.14805962;4715.3174
  1.2008892E+00;  9.9999998E-03;  1.4010429E-01;2889;0.31264597;0.0;0.019036118;1003.5944;  4.0160289E-01;2649.47;3;89.017647;0.0;0.99696761;0;-0.082771569;  1.0010944E+04;  0.0000000E+00; -2.7143190E+00;  1.0000000E+04;  0.0000000E+00;  9.9808457E+03;-0.22883984;0.0;0.14606827;6019.8721
  1.2206775E+00;  9.9999998E-03;  2.1802308E-11;2905;0.26259604;0.0;1.4096303e-08;1003.3257;  4.0151268E-01;2375.5894;3;76.504074;0.0;1.8098937e-05;0;-0.089008436;  1.0006736E+04;  0.0000000E+00; -1.0171992E-14;  1.0000000E+04;  0.0000000E+00;  9.9841699E+03;-0.22053115;0.0;0.13152272;2449.1221
  1.2206810E+00;  9.9999998E-03;  2.0012408E-02;2906;0.26347733;0.0;0.0026830395;1003.3204;  4.0151277E-01;2371.8289;3;76.716301;0.0;0.27392542;0;-0.088339761;  1.0006695E+04;  0.0000000E+00; -3.6554195E-02;  1.0000000E+04;  0.0000000E+00;  9.9841045E+03;-0.22017495;0.0;0.13183519;2458.6438
  1.2206914E+00;  9.9999998E-03;  4.0024035E-02;2907;0.26598918;0.0;0.0049577425;1003.3084;  4.0151277E-01;2363.1853;3;77.338173;0.0;0.41079569;0;-0.087177515;  1.0006658E+04;  0.0000000E+00; -1.7260776E-01;  1.0000000E+04;  0.0000000E+00;  9.9839063E+03;-0.21992762;0.0;0.13275011;2499.0374
  1.2207099E+00;  9.9999998E-03;  6.0034767E-02;2908;0.27041179;0.0;0.0067595383;1003.3021;  4.0151268E-01;2358.5969;3;78.426399;0.0;0.47215533;0;-0.087469473;  1.0006847E+04;  0.0000000E+00; -4.7145697E-01;  1.0000000E+04;  0.0000000E+00;  9.9835898E+03;-0.22161986;0.0;0.13415039;2628.1506
  1.2207381E+00;  9.9999998E-03;  8.0046967E-02;2909;0.27707416;0.0;0.0087424414;1003.3137;  4.0151268E-01;2366.8259;3;80.701019;0.0;0.48991105;0;-0.09076938;  1.0007503E+04;  0.0000000E+00; -9.9436510E-01;  1.0000000E+04;  0.0000000E+00;  9.9831709E+03;-0.22675392;0.0;0.13598454;2987.9028
  1.2207788E+00;  9.9999998E-03;  1.0006307E-01;2910;0.28622365;0.0;0.010939018;1003.3397;  4.0151274E-01;2385.1338;3;84.612122;0.0;0.45998889;0;-0.095911041;  1.0008582E+04;  0.0000000E+00; -1.7514397E+00;  1.0000000E+04;  0.0000000E+00;  9.9826182E+03;-0.23383965;0.0;0.13792861;3728.157
  1.2208364E+00;  9.9999998E-03;  1.2008476E-01;2911;0.297609;0.0;0.013409839;1003.334;  4.0151262E-01;2380.895;3;89.973175;0.0;0.32990766;0;-0.0970321;  1.0009285E+04;  0.0000000E+00; -2.6767192E+00;  1.0000000E+04;  0.0000000E+00;  9.9818135E+03;-0.23686235;0.0;0.13983025;4830.2988
  1.2209088E+00;  9.9999998E-03;  1.4010951E-01;2912;0.31109753;0.0;0.016051779;1003.232;  4.0151253E-01;2307.7346;3;97.733521;0.0;0.26233259;0;-0.082974717;  1.0008354E+04;  0.0000000E+00; -3.5730026E+00;  1.0000000E+04;  0.0000000E+00;  9.9807207E+03;-0.22412264;0.0;0.14114793;6002.0352
  1.2406700E+00;  9.9999998E-03;  2.9710789E-11;2926;0.25844249;0.0;1.5804332e-08;1003.0714;  4.0144759E-01;2113.2627;3;80.509621;0.0;1.8303399e-05;0;-0.10432646;  1.0004128E+04;  0.0000000E+00;  5.2497659E-14;  1.0000000E+04;  0.0000000E+00;  9.9849551E+03;-0.20757756;0.0;0.10325109;1929.434
  1.2406741E+00;  9.9999998E-03;  2.0010883E-02;2927;0.25934184;0.0;0.0014538659;1003.0731;  4.0144756E-01;2114.3933;3;80.648087;0.0;0.091997162;0;-0.10424078;  1.0004257E+04;  0.0000000E+00; -6.3729301E-02;  1.0000000E+04;  0.0000000E+00;  9.9848584E+03;-0.20882799;0.0;0.10458721;1945.6257
  1.2406869E+00;  9.9999998E-03;  4.0021546E-02;2928;0.26221696;0.0;0.0028043846;1003.0811;  4.0144742E-01;2119.8337;3;81.844643;0.0;0.17240289;0;-0.10519087;  1.0004692E+04;  0.0000000E+00; -2.8241447E-01;  1.0000000E+04;  0.0000000E+00;  9.9845898E+03;-0.21349481;0.0;0.10830394;2014.4716
  1.2407103E+00;  9.9999998E-03;  6.0034480E-02;2929;0.26708776;0.0;0.0043627536;1003.0977;  4.0144745E-01;2131.1345;3;83.837662;0.0;0.040416092;0;-0.10786407;  1.0005454E+04;  0.0000000E+00; -7.1761167E-01;  1.0000000E+04;  0.0000000E+00;  9.9841611E+03;-0.22174925;0.0;0.11388518;2221.3008
  1.2407471E+00;  9.9999998E-03;  8.0052115E-02;2930;0.27419534;0.0;0.0063303551;1003.1022;  4.0144745E-01;2134.0923;3;87.267128;0.0;-0.23652221;0;-0.11054748;  1.0006214E+04;  0.0000000E+00; -1.4148079E+00;  1.0000000E+04;  0.0000000E+00;  9.9834990E+03;-0.23125124;0.0;0.12070376;2713.8721
  1.2407991E+00;  9.9999998E-03;  1.0007358E-01;2931;0.28418624;0.0;0.0089304829;1003.0505;  4.0144753E-01;2098.2808;3;92.743576;0.0;-0.3795597;0;-0.10493964;  1.0006163E+04;  0.0000000E+00; -2.3209009E+00;  1.0000000E+04;  0.0000000E+00;  9.9825293E+03;-0.23318438;0.0;0.12824474;3530.6658
  1.2408608E+00;  9.9999998E-03;  1.2009488E-01;2932;0.29548219;0.0;0.011102187;1002.926;  4.0144756E-01;2012.4229;3;100.14337;0.0;-0.55991709;0;-0.089410648;  1.0004794E+04;  0.0000000E+00; -3.1594718E+00;  1.0000000E+04;  0.0000000E+00;  9.9814199E+03;-0.22221319;0.0;0.13280255;4378.6025
  1.2409240E+00;  9.9999998E-03;  1.4011435E-01;2933;0.30753812;0.0;0.01348012;1002.7487;  4.0144762E-01;1890.264;3;110.72469;0.0;0.018132955;0;-0.055987298;  1.0002196E+04;  0.0000000E+00; -3.4009635E+00;  1.0000000E+04;  0.0000000E+00;  9.9804883E+03;-0.18948549;0.0;0.13349819;4643.9067
  1.2606879E+00;  9.9999998E-03;  2.3179163E-11;2944;0.25441673;0.0;1.3180367e-08;1002.8138;  4.0140140E-01;1854.6813;3;88.08683;0.0;1.7487328e-05;0;-0.1240452;  1.0000946E+04;  0.0000000E+00; -6.4154559E-15;  1.0000000E+04;  0.0000000E+00;  9.9853027E+03;-0.20301417;0.0;0.078968965;1520.2263
  1.2606934E+00;  9.9999998E-03;  2.0013466E-02;2945;0.25544319;0.0;0.00060588418;1002.8094;  4.0140143E-01;1851.7512;3;88.560776;0.0;-0.2140034;0;-0.12411258;  1.0000994E+04;  0.0000000E+00; -7.9472288E-02;  1.0000000E+04;  0.0000000E+00;  9.9851738E+03;-0.20514016;0.0;0.081027575;1535.931
  1.2607095E+00;  9.9999998E-03;  4.0028393E-02;2946;0.25853243;0.0;0.0016665867;1002.797;  4.0140155E-01;1843.5121;3;90.105606;0.0;-0.53427541;0;-0.12379143;  1.0001133E+04;  0.0000000E+00; -3.4431773E-01;  1.0000000E+04;  0.0000000E+00;  9.9847793E+03;-0.21087511;0.0;0.087083682;1608.2024
  1.2607368E+00;  9.9999998E-03;  6.0045768E-02;2947;0.26368171;0.0;0.0030009903;1002.7665;  4.0140149E-01;1823.2853;3;92.773476;0.0;-1.0658488;0;-0.12189851;  1.0001215E+04;  0.0000000E+00; -8.3876097E-01;  1.0000000E+04;  0.0000000E+00;  9.9841025E+03;-0.21812689;0.0;0.096228383;1818.5254
  1.2607733E+00;  9.9999998E-03;  8.0063634E-02;2948;0.27084008;0.0;0.0046019438;1002.7166;  4.0140134E-01;1790.2181;3;97.762878;0.0;-1.1491833;0;-0.11643565;  1.0001141E+04;  0.0000000E+00; -1.5129726E+00;  1.0000000E+04;  0.0000000E+00;  9.9831895E+03;-0.22277111;0.0;0.10633545;2225.7288
  1.2608176E+00;  9.9999998E-03;  1.0008126E-01;2949;0.28027263;0.0;0.0068111201;1002.6326;  4.0140149E-01;1734.7379;3;105.17487;0.0;-0.82823586;0;-0.094712682;  1.0000450E+04;  0.0000000E+00; -2.1141360E+00;  1.0000000E+04;  0.0000000E+00;  9.9822061E+03;-0.21067004;0.0;0.11595736;2662.7434
  1.2608644E+00;  9.9999998E-03;  1.2009550E-01;2950;0.29001859;0.0;0.0083985655;1002.5645;  4.0140149E-01;1689.7054;3;114.93866;0.0;-0.35505193;0;-0.075153947;  9.9996270E+03;  0.0000000E+00; -2.1404040E+00;  1.0000000E+04;  0.0000000E+00;  9.9816689E+03;-0.1928692;0.0;0.11771525;2703.1111
  1.2609121E+00;  9.9999998E-03;  1.4011110E-01;2951;0.30004704;0.0;0.011321759;1002.4791;  4.0140149E-01;1633.2135;3;127.05022;0.0;0.88515198;0;-0.038660496;  9.9982988E+03;  0.0000000E+00; -1.1820084E+00;  1.0000000E+04;  0.0000000E+00;  9.9813008E+03;-0.15985286;0.0;0.12119237;2149.3271
  1.2807062E+00;  9.9999998E-03;  2.4208913E-11;2959;0.24923322;0.0;8.6663112e-09;1002.4979;  4.0136954E-01;1570.3793;3;100.42037;0.0;1.1276279e-05;0;-0.14634925;  9.9961553E+03;  0.0000000E+00; -8.4408061E-15;  1.0000000E+04;  0.0000000E+00;  9.9854004E+03;-0.20511982;0.0;0.058770571;1143.3231
  1.2807101E+00;  9.9999998E-03;  2.0013791E-02;2960;0.25009519;0.0;-0.00027119659;1002.5045;  4.0136951E-01;1574.486;3;101.02402;0.0;-0.34561169;0;-0.14692844;  9.9964141E+03;  0.0000000E+00; -5.3768802E-02;  1.0000000E+04;  0.0000000E+00;  9.9852637E+03;-0.20794442;0.0;0.061015978;1162.5757
  1.2807224E+00;  9.9999998E-03;  4.0029645E-02;2961;0.25294349;0.0;-7.1643444e-05;1002.5175;  4.0136951E-01;1582.6071;3;102.60392;0.0;-1.2866744;0;-0.14532211;  9.9971064E+03;  0.0000000E+00; -2.2081295E-01;  1.0000000E+04;  0.0000000E+00;  9.9848438E+03;-0.21275356;0.0;0.067431442;1226.9474
  1.2807426E+00;  9.9999998E-03;  6.0046535E-02;2962;0.25789678;0.0;0.00081809406;1002.5309;  4.0136948E-01;1590.9963;3;106.15954;0.0;-1.4685781;0;-0.13975757;  9.9980576E+03;  0.0000000E+00; -4.7341943E-01;  1.0000000E+04;  0.0000000E+00;  9.9841602E+03;-0.21649078;0.0;0.076733209;1345.6266
  1.2807697E+00;  9.9999998E-03;  8.0062345E-02;2963;0.26420254;0.0;0.0019066249;1002.5501;  4.0136939E-01;1602.9554;3;111.89342;0.0;-1.3178881;0;-0.13287595;  9.9991943E+03;  0.0000000E+00; -6.5594602E-01;  1.0000000E+04;  0.0000000E+00;  9.9834023E+03;-0.21863949;0.0;0.085763551;1476.1896
  1.2808044E+00;  9.9999998E-03;  1.0007802E-01;2964;0.27227268;0.0;0.0041306601;1002.5272;  4.0136942E-01;1588.3584;3;120.2767;0.0;-0.63909638;0;-0.1091065;  9.9994287E+03;  0.0000000E+00; -4.6519262E-01;  1.0000000E+04;  0.0000000E+00;  9.9827178E+03;-0.20469745;0.0;0.095590942;1501.8916
  1.2808386E+00;  9.9999998E-03;  1.2008952E-01;2965;0.27963749;0.0;0.006022363;1002.6;  4.0136939E-01;1634.0015;3;130.1532;0.0;0.062894821;0;-0.10532124;  1.0000795E+04;  0.0000000E+00;  3.9781773E-01;  1.0000000E+04;  0.0000000E+00;  9.9828076E+03;-0.20371014;0.0;0.098388895;1522.4196
  1.3006881E+00;  9.9999998E-03;  2.0161877E-11;2970;0.24251564;0.0;8.9738723e-09;1002.7024;  4.0134764E-01;1616.0852;3;115.67774;0.0;2.165238e-05;0;-0.18541695;  1.0001322E+04;  0.0000000E+00;  4.4363368E-15;  1.0000000E+04;  0.0000000E+00;  9.9853955E+03;-0.22789019;0.0;0.042473242;1107.8749
  1.3006915E+00;  9.9999998E-03;  2.0011727E-02;2971;0.24325453;0.0;-0.00082603574;1002.7139;  4.0134761E-01;1622.9867;3;116.32774;0.0;-0.33657902;0;-0.18622077;  1.0001642E+04;  0.0000000E+00;  9.5479582E-03;  1.0000000E+04;  0.0000000E+00;  9.9853047E+03;-0.23073906;0.0;0.044518284;1123.6222
  1.3007016E+00;  9.9999998E-03;  4.0025264E-02;2972;0.24542043;0.0;-0.0015550498;1002.7412;  4.0134767E-01;1639.2703;3;118.31492;0.0;-0.65786207;0;-0.18920258;  1.0002476E+04;  0.0000000E+00;  6.2225729E-02;  1.0000000E+04;  0.0000000E+00;  9.9850215E+03;-0.23874654;0.0;0.049543966;1168.0564
  1.3007185E+00;  9.9999998E-03;  6.0040932E-02;2973;0.24888678;0.0;-0.0019028295;1002.7706;  4.0134749E-01;1656.807;3;121.6356;0.0;-1.3312553;0;-0.19515502;  1.0003553E+04;  0.0000000E+00;  2.3904552E-01;  1.0000000E+04;  0.0000000E+00;  9.9845332E+03;-0.25014138;0.0;0.054986358;1241.1493
  1.3007411E+00;  9.9999998E-03;  8.0057628E-02;2974;0.25376752;0.0;-0.00048024693;1002.8018;  4.0134740E-01;1675.3167;3;126.89845;0.0;-1.5102528;0;-0.19723782;  1.0004847E+04;  0.0000000E+00;  6.7926049E-01;  1.0000000E+04;  0.0000000E+00;  9.9838574E+03;-0.26063398;0.0;0.063396156;1374.0643
 -1.0871800E-05;  9.9999998E-03;  1.6000098E-01;1053;-0.005858893;0.0;0.00058555225;1000.2234;  4.0000001E-01;185.08116;3;-3.4020805;0.0;0.38389015;0;-0.11124866;  1.0004639E+04;  0.0000000E+00; -5.0848001E-08;  1.0000000E+04;  0.0000000E+00;  9.9998330E+03;-0.11528709;0.0;0.00403842;96.165276
 -1.0565280E-05;  9.9999998E-03;  1.8000124E-01;1054;-0.0056794458;0.0;0.00071890262;1000.216;  4.0000001E-01;178.95787;3;-3.2882938;0.0;0.45610452;0;-0.10745612;  1.0004491E+04;  0.0000000E+00; -5.5237564E-08;  1.0000000E+04;  0.0000000E+00;  9.9998281E+03;-0.1114376;0.0;0.0039814855;96.656212
 -1.0101614E-05;  9.9999998E-03;  2.0000152E-01;1055;-0.0054157418;0.0;0.00085759244;1000.2062;  4.0000001E-01;170.85934;3;-3.1350918;0.0;0.5303607;0;-0.10236499;  1.0004276E+04;  0.0000000E+00;  1.3184038E-08;  1.0000000E+04;  0.0000000E+00;  9.9998506E+03;-0.10578648;0.0;0.0034214957;86.933472
 -9.4365323E-06;  9.9999998E-03;  2.2000182E-01;1056;-0.005044695;0.0;0.0010020139;1000.1933;  4.0000001E-01;160.19298;3;-2.9395361;0.0;0.61141682;0;-0.095707707;  1.0003967E+04;  0.0000000E+00;  5.1294222E-08;  1.0000000E+04;  0.0000000E+00;  9.9998994E+03;-0.097846612;0.0;0.0021389062;62.564152
 -8.5385682E-06;  9.9999998E-03;  2.4000208E-01;1057;-0.0045480751;0.0;0.0011369784;1000.1765;  4.0000001E-01;146.26744;3;-2.6988726;0.0;0.69788742;0;-0.087185338;  1.0003548E+04;  0.0000000E+00; -2.5517846E-07;  1.0000000E+04;  0.0000000E+00;  9.9999844E+03;-0.087256595;0.0;7.1256654e-05;22.203291
 -7.3980950E-06;  9.9999998E-03;  2.6000229E-01;1058;-0.003925913;0.0;0.0012370233;1000.1552;  4.0000001E-01;128.58894;3;-2.4120865;0.0;0.77935076;0;-0.076578356;  1.0003019E+04;  0.0000000E+00; -1.3007580E-06;  1.0000000E+04;  0.0000000E+00;  1.0000091E+04;-0.074022211;0.0;-0.0025561424;29.83206
 -6.0564330E-06;  9.9999998E-03;  2.8000236E-01;1059;-0.0031998283;0.0;0.0012735013;1000.1298;  4.0000001E-01;107.5525;3;-2.0688801;0.0;0.8420043;0;-0.063905381;  1.0002399E+04;  0.0000000E+00; -3.0769393E-06;  1.0000000E+04;  0.0000000E+00;  1.0000198E+04;-0.058780573;0.0;-0.0051248064;81.595032
  1.9984618E-02;  9.9999998E-03;  1.6000132E-01;1083;-0.0082189441;0.0;0.0007885386;1000.2618;  4.0000001E-01;216.88272;3;-4.1519222;0.0;0.4632951;0;-0.1286694;  1.0005459E+04;  0.0000000E+00;  2.2373547E-07;  1.0000000E+04;  0.0000000E+00;  9.9997803E+03;-0.13386098;0.0;0.0051915855;123.50723
  1.9985015E-02;  9.9999998E-03;  1.8000166E-01;1084;-0.0079857381;0.0;0.00095649267;1000.254;  4.0000001E-01;210.3644;3;-4.0190048;0.0;0.5405696;0;-0.12463441;  1.0005306E+04;  0.0000000E+00;  4.5824530E-07;  1.0000000E+04;  0.0000000E+00;  9.9997793E+03;-0.12973547;0.0;0.0051010638;124.31606
  1.9985642E-02;  9.9999998E-03;  2.0000203E-01;1085;-0.0076284469;0.0;0.0011366094;1000.2435;  4.0000001E-01;201.67328;3;-3.8391705;0.0;0.62366652;0;-0.11918305;  1.0005069E+04;  0.0000000E+00;  8.8160874E-07;  1.0000000E+04;  0.0000000E+00;  9.9998018E+03;-0.12357151;0.0;0.004388459;112.23259
  1.9986570E-02;  9.9999998E-03;  2.2000238E-01;1086;-0.0071144225;0.0;0.0013072998;1000.2292;  4.0000001E-01;189.92053;3;-3.6147194;0.0;0.70553088;0;-0.11198528;  1.0004721E+04;  0.0000000E+00;  1.3842080E-06;  1.0000000E+04;  0.0000000E+00;  9.9998652E+03;-0.11476552;0.0;0.0027802433;81.566895
  1.9987861E-02;  9.9999998E-03;  2.4000268E-01;1087;-0.0064080553;0.0;0.0014487556;1000.2106;  4.0000001E-01;174.41479;3;-3.3416033;0.0;0.78841019;0;-0.10265325;  1.0004240E+04;  0.0000000E+00;  1.5275582E-06;  1.0000000E+04;  0.0000000E+00;  9.9999727E+03;-0.10284247;0.0;0.00018922309;30.387911
  1.9989556E-02;  9.9999998E-03;  2.6000285E-01;1088;-0.0054907566;0.0;0.0015288207;1000.1868;  4.0000001E-01;154.76103;3;-3.0062342;0.0;0.86185074;0;-0.090883851;  1.0003628E+04;  0.0000000E+00;  6.9823960E-07;  1.0000000E+04;  0.0000000E+00;  1.0000110E+04;-0.087753609;0.0;-0.0031302436;36.324554
  1.9991646E-02;  9.9999998E-03;  2.8000286E-01;1089;-0.0043689292;0.0;0.0015244992;1000.158;  4.0000001E-01;130.86047;3;-2.5665789;0.0;0.91673279;0;-0.076652348;  1.0002907E+04;  0.0000000E+00; -1.2390122E-06;  1.0000000E+04;  0.0000000E+00;  1.0000248E+04;-0.070198804;0.0;-0.0064535448;104.21899
  1.9994078E-02;  9.9999998E-03;  3.0000308E-01;1090;-0.0030725354;0.0;0.0016458174;1000.1245;  4.0000001E-01;103.10818;3;-1.9601545;0.0;1.0812912;0;-0.060383223;  1.0002146E+04;  0.0000000E+00; -3.3825108E-06;  1.0000000E+04;  0.0000000E+00;  1.0000346E+04;-0.051773056;0.0;-0.0086101666;150.56277
  3.9978880E-02;  9.9999998E-03;  1.6000155E-01;1114;-0.011197235;0.0;0.00091558625;1000.2938;  4.0000001E-01;243.3511;3;-5.0131321;0.0;0.49016333;0;-0.14192566;  1.0006141E+04;  0.0000000E+00;  4.4350801E-07;  1.0000000E+04;  0.0000000E+00;  9.9997383E+03;-0.1479549;0.0;0.006029231;145.68987
  3.9979376E-02;  9.9999998E-03;  1.8000191E-01;1115;-0.010902374;0.0;0.0010960944;1000.2861;  4.0000001E-01;237.0303;3;-4.8575459;0.0;0.56153864;0;-0.13796651;  1.0005991E+04;  0.0000000E+00;  8.0116376E-07;  1.0000000E+04;  0.0000000E+00;  9.9997363E+03;-0.1438674;0.0;0.005900884;146.91902
  3.9980188E-02;  9.9999998E-03;  2.0000230E-01;1116;-0.010440331;0.0;0.0012800882;1000.2755;  4.0000001E-01;228.24042;3;-4.6504984;0.0;0.63213867;0;-0.13251181;  1.0005747E+04;  0.0000000E+00;  1.3366730E-06;  1.0000000E+04;  0.0000000E+00;  9.9997627E+03;-0.13759679;0.0;0.005084977;133.42816
  3.9981432E-02;  9.9999998E-03;  2.2000268E-01;1117;-0.0097548515;0.0;0.0014550147;1000.2606;  4.0000001E-01;215.8951;3;-4.3960667;0.0;0.70330286;0;-0.12515113;  1.0005382E+04;  0.0000000E+00;  1.8871405E-06;  1.0000000E+04;  0.0000000E+00;  9.9998350E+03;-0.12841487;0.0;0.0032637343;98.356995
  3.9983187E-02;  9.9999998E-03;  2.4000297E-01;1118;-0.0088002561;0.0;0.0015803622;1000.241;  4.0000001E-01;199.59926;3;-4.0980139;0.0;0.76930833;0;-0.11538126;  1.0004861E+04;  0.0000000E+00;  1.9679840E-06;  1.0000000E+04;  0.0000000E+00;  9.9999600E+03;-0.11569974;0.0;0.0003184774;39.010643
  3.9985538E-02;  9.9999998E-03;  2.6000318E-01;1119;-0.0075382604;0.0;0.0016575508;1000.2151;  4.0000001E-01;178.16777;3;-3.7320604;0.0;0.84201574;0;-0.1027808;  1.0004181E+04;  0.0000000E+00;  1.0254386E-06;  1.0000000E+04;  0.0000000E+00;  1.0000120E+04;-0.099285081;0.0;-0.0034957165;39.460228
  3.9988425E-02;  9.9999998E-03;  2.8000322E-01;1120;-0.0060019991;0.0;0.0016728895;1000.1829;  4.0000001E-01;151.50186;3;-3.2459526;0.0;0.92136908;0;-0.087259017;  1.0003367E+04;  0.0000000E+00; -8.9256429E-07;  1.0000000E+04;  0.0000000E+00;  1.0000291E+04;-0.079849645;0.0;-0.0074093705;121.2602
  3.9991774E-02;  9.9999998E-03;  3.0000338E-01;1121;-0.0042311801;0.0;0.0017596212;1000.1456;  4.0000001E-01;120.68793;3;-2.5356293;0.0;1.0830269;0;-0.06934125;  1.0002499E+04;  0.0000000E+00; -2.6437742E-06;  1.0000000E+04;  0.0000000E+00;  1.0000415E+04;-0.059168946;0.0;-0.010172302;181.28355
  5.9972379E-02;  9.9999998E-03;  1.6000165E-01;1145;-0.014503375;0.0;0.00097544992;1000.3246;  4.0000001E-01;268.93063;3;-5.9369726;0.0;0.49179843;0;-0.15355751;  1.0006785E+04;  0.0000000E+00;  4.9496913E-07;  1.0000000E+04;  0.0000000E+00;  9.9997119E+03;-0.16000471;0.0;0.0064472021;161.20618
  5.9972964E-02;  9.9999998E-03;  1.8000203E-01;1146;-0.014150064;0.0;0.0011539269;1000.3176;  4.0000001E-01;263.10364;3;-5.7576427;0.0;0.55309767;0;-0.14988601;  1.0006645E+04;  0.0000000E+00;  7.4258742E-07;  1.0000000E+04;  0.0000000E+00;  9.9997080E+03;-0.15616763;0.0;0.0062816101;162.98497
  5.9973963E-02;  9.9999998E-03;  2.0000243E-01;1147;-0.013584408;0.0;0.0013355961;1000.307;  4.0000001E-01;254.31375;3;-5.52248;0.0;0.61069119;0;-0.14462896;  1.0006410E+04;  0.0000000E+00;  8.5699213E-07;  1.0000000E+04;  0.0000000E+00;  9.9997344E+03;-0.15006001;0.0;0.0054310607;149.3369
  5.9975516E-02;  9.9999998E-03;  2.2000283E-01;1148;-0.012730061;0.0;0.0015033882;1000.2922;  4.0000001E-01;242.06718;3;-5.2402115;0.0;0.66876411;0;-0.1372772;  1.0006034E+04;  0.0000000E+00;  5.8969613E-07;  1.0000000E+04;  0.0000000E+00;  9.9998115E+03;-0.14081813;0.0;0.0035409373;112.28101
  5.9977755E-02;  9.9999998E-03;  2.4000312E-01;1149;-0.011523599;0.0;0.0016156875;1000.2712;  4.0000001E-01;224.68497;3;-4.9258537;0.0;0.71909857;0;-0.12719244;  1.0005482E+04;  0.0000000E+00; -4.4339129E-07;  1.0000000E+04;  0.0000000E+00;  9.9999473E+03;-0.12764007;0.0;0.00044763088;48.056904
  5.9980772E-02;  9.9999998E-03;  2.6000330E-01;1150;-0.0099208048;0.0;0.0016764408;1000.2433;  4.0000001E-01;201.57451;3;-4.5515881;0.0;0.78023386;0;-0.11381968;  1.0004742E+04;  0.0000000E+00; -2.3582859E-06;  1.0000000E+04;  0.0000000E+00;  1.0000126E+04;-0.11019084;0.0;-0.0036288439;38.647991
  5.9984513E-02;  9.9999998E-03;  2.8000334E-01;1151;-0.0079542669;0.0;0.0016784599;1000.208;  4.0000001E-01;172.34077;3;-4.043416;0.0;0.85467052;0;-0.097021945;  1.0003842E+04;  0.0000000E+00; -1.0725933E-05;  1.0000000E+04;  0.0000000E+00;  1.0000314E+04;-0.089097187;0.0;-0.0079247598;131.37405
  5.9988927E-02;  9.9999998E-03;  3.0000353E-01;1152;-0.0056449953;0.0;0.0017926686;1000.1662;  4.0000001E-01;137.67509;3;-3.2316589;0.0;1.0409842;0;-0.077442199;  1.0002861E+04;  0.0000000E+00; -2.9579056E-05;  1.0000000E+04;  0.0000000E+00;  1.0000463E+04;-0.06631726;0.0;-0.011124942;202.63808
  7.9965308E-02;  9.9999998E-03;  1.6000168E-01;1176;-0.018005619;0.0;0.00097827159;1000.3586;  4.0000001E-01;297.17673;3;-6.9596357;0.0;0.47927773;0;-0.16581683;  1.0007477E+04;  0.0000000E+00;  3.7155840E-07;  1.0000000E+04;  0.0000000E+00;  9.9996992E+03;-0.17228258;0.0;0.0064657521;170.73947
  7.9965957E-02;  9.9999998E-03;  1.8000205E-01;1177;-0.017603327;0.0;0.0011487779;1000.3524;  4.0000001E-01;291.94232;3;-6.7567291;0.0;0.52986455;0;-0.16255865;  1.0007357E+04;  0.0000000E+00;  2.1945071E-07;  1.0000000E+04;  0.0000000E+00;  9.9996904E+03;-0.16881774;0.0;0.0062591014;173.07019
  7.9967111E-02;  9.9999998E-03;  2.0000246E-01;1178;-0.016948618;0.0;0.0013186831;1000.3423;  4.0000001E-01;283.54749;3;-6.493176;0.0;0.57584876;0;-0.15759143;  1.0007130E+04;  0.0000000E+00; -6.9723791E-07;  1.0000000E+04;  0.0000000E+00;  9.9997207E+03;-0.16302581;0.0;0.0054343832;160.33727
  7.9968952E-02;  9.9999998E-03;  2.2000284E-01;1179;-0.015943307;0.0;0.0014717594;1000.3277;  4.0000001E-01;271.49844;3;-6.1858582;0.0;0.61793292;0;-0.15029079;  1.0006757E+04;  0.0000000E+00; -2.9766481E-06;  1.0000000E+04;  0.0000000E+00;  9.9997949E+03;-0.15389849;0.0;0.0036077006;123.49965
  7.9971649E-02;  9.9999998E-03;  2.4000312E-01;1180;-0.014506682;0.0;0.001563936;1000.3056;  4.0000001E-01;253.22737;3;-5.8584228;0.0;0.65155602;0;-0.13987383;  1.0006182E+04;  0.0000000E+00; -6.1923602E-05;  1.0000000E+04;  0.0000000E+00;  9.9999326E+03;-0.14043413;0.0;0.00056029158;57.488228
  7.9975337E-02;  9.9999998E-03;  2.6000330E-01;1181;-0.012570178;0.0;0.0016112218;1000.2753;  4.0000001E-01;228.14166;3;-5.4808788;0.0;0.69886827;0;-0.12570633;  1.0005387E+04;  0.0000000E+00; -5.2501174E-04;  1.0000000E+04;  0.0000000E+00;  1.0000119E+04;-0.12215167;0.0;-0.0035546618;34.154537
  7.9979986E-02;  9.9999998E-03;  2.8000337E-01;1182;-0.010160314;0.0;0.0016127843;1000.2364;  4.0000001E-01;195.84628;3;-4.9540086;0.0;0.76808262;0;-0.1076238;  1.0004402E+04;  0.0000000E+00; -1.4988360E-03;  1.0000000E+04;  0.0000000E+00;  1.0000329E+04;-0.09959811;0.0;-0.0080256891;134.93639
  7.9985589E-02;  9.9999998E-03;  3.0000371E-01;1183;-0.0072717168;0.0;0.0018027576;1000.1901;  4.0000001E-01;157.42763;3;-4.0373249;0.0;0.99629211;0;-0.086304389;  1.0003306E+04;  0.0000000E+00; -2.6659197E-03;  1.0000000E+04;  0.0000000E+00;  1.0000492E+04;-0.074801594;0.0;-0.011502798;215.42516
  9.9957623E-02;  9.9999998E-03;  1.6000164E-01;1207;-0.021699362;0.0;0.00094881066;1000.3993;  4.0000001E-01;330.8548;3;-8.1086597;0.0;0.45986691;0;-0.18015863;  1.0008295E+04;  0.0000000E+00;  9.9214169E-08;  1.0000000E+04;  0.0000000E+00;  9.9996943E+03;-0.18636398;0.0;0.0062053506;176.72878
  9.9958315E-02;  9.9999998E-03;  1.8000200E-01;1208;-0.021260321;0.0;0.0011056245;1000.3942;  4.0000001E-01;326.50925;3;-7.8823586;0.0;0.5016017;0;-0.17740795;  1.0008199E+04;  0.0000000E+00; -6.9274307E-07;  1.0000000E+04;  0.0000000E+00;  9.9996885E+03;-0.18334179;0.0;0.0059338403;179.23933
  9.9959582E-02;  9.9999998E-03;  2.0000239E-01;1209;-0.020533955;0.0;0.001252771;1000.3849;  4.0000001E-01;318.90451;3;-7.5919113;0.0;0.53342134;0;-0.1728005;  1.0007990E+04;  0.0000000E+00; -3.3128051E-06;  1.0000000E+04;  0.0000000E+00;  9.9997119E+03;-0.17795962;0.0;0.0051591252;167.8503
  9.9961668E-02;  9.9999998E-03;  2.2000276E-01;1210;-0.019400736;0.0;0.0013799059;1000.3702;  4.0000001E-01;306.65796;3;-7.261488;0.0;0.55656564;0;-0.16561447;  1.0007616E+04;  0.0000000E+00; -2.1852909E-04;  1.0000000E+04;  0.0000000E+00;  9.9997842E+03;-0.16909982;0.0;0.0034853478;132.72568
  9.9964790E-02;  9.9999998E-03;  2.4000302E-01;1211;-0.017755102;0.0;0.0014445076;1000.3475;  4.0000001E-01;287.89304;3;-6.923317;0.0;0.57009983;0;-0.15508662;  1.0007037E+04;  0.0000000E+00; -1.9063737E-03;  1.0000000E+04;  0.0000000E+00;  9.9999199E+03;-0.15572099;0.0;0.00063437689;68.116608
  9.9969149E-02;  9.9999998E-03;  2.6000321E-01;1212;-0.015501716;0.0;0.0014814923;1000.3161;  4.0000001E-01;261.91849;3;-6.5467429;0.0;0.60307789;0;-0.14057223;  1.0006213E+04;  0.0000000E+00; -6.8859900E-03;  1.0000000E+04;  0.0000000E+00;  1.0000110E+04;-0.13722584;0.0;-0.0033463961;44.991219
  9.9974737E-02;  9.9999998E-03;  2.8000334E-01;1213;-0.012646486;0.0;0.0015061478;1000.2745;  4.0000001E-01;227.45032;3;-6.004581;0.0;0.67376328;0;-0.12172836;  1.0005156E+04;  0.0000000E+00; -1.4905377E-02;  1.0000000E+04;  0.0000000E+00;  1.0000331E+04;-0.11387957;0.0;-0.0078487881;154.6696
  9.9981658E-02;  9.9999998E-03;  3.0000392E-01;1214;-0.0091362372;0.0;0.0018283875;1000.2232;  4.0000001E-01;184.88364;3;-4.9715023;0.0;0.97060013;0;-0.098903775;  1.0003956E+04;  0.0000000E+00; -2.3518424E-02;  1.0000000E+04;  0.0000000E+00;  1.0000509E+04;-0.087416336;0.0;-0.011487441;253.56161
  1.1994914E-01;  9.9999998E-03;  1.6000162E-01;1238;-0.025663696;0.0;0.00092081068;1000.4479;  4.0000001E-01;371.14993;3;-9.3835697;0.0;0.44366771;0;-0.19708087;  1.0009271E+04;  0.0000000E+00; -2.3719113E-07;  1.0000000E+04;  0.0000000E+00;  9.9996885E+03;-0.20293583;0.0;0.0058549675;182.87886
  1.1994983E-01;  9.9999998E-03;  1.8000196E-01;1239;-0.02520139;0.0;0.0010549983;1000.4443;  4.0000001E-01;368.08829;3;-9.135561;0.0;0.47280645;0;-0.19494252;  1.0009199E+04;  0.0000000E+00; -1.9433744E-06;  1.0000000E+04;  0.0000000E+00;  9.9996865E+03;-0.20041429;0.0;0.005471759;184.84331
  1.1995119E-01;  9.9999998E-03;  2.0000230E-01;1240;-0.02441889;0.0;0.0011684349;1000.4362;  4.0000001E-01;361.37244;3;-8.8205843;0.0;0.48762161;0;-0.19084629;  1.0009016E+04;  0.0000000E+00; -1.7379611E-04;  1.0000000E+04;  0.0000000E+00;  9.9997070E+03;-0.19558281;0.0;0.0047365194;174.73885
  1.1995349E-01;  9.9999998E-03;  2.2000264E-01;1241;-0.02317429;0.0;0.0012579436;1000.4221;  4.0000001E-01;349.61969;3;-8.4705067;0.0;0.48851418;0;-0.184195;  1.0008673E+04;  0.0000000E+00; -2.3931516E-03;  1.0000000E+04;  0.0000000E+00;  9.9997725E+03;-0.18745823;0.0;0.0032632423;142.88686
  1.1995701E-01;  9.9999998E-03;  2.4000286E-01;1242;-0.021332702;0.0;0.0012947877;1000.4011;  4.0000001E-01;332.33624;3;-8.1249018;0.0;0.48322868;0;-0.17447318;  1.0008119E+04;  0.0000000E+00; -1.1887243E-02;  1.0000000E+04;  0.0000000E+00;  9.9999033E+03;-0.1751581;0.0;0.00068491185;101.0854
  1.1996203E-01;  9.9999998E-03;  2.6000306E-01;1243;-0.018776404;0.0;0.0013295803;1000.3715;  4.0000001E-01;307.74432;3;-7.7549057;0.0;0.50798225;0;-0.16104405;  1.0007328E+04;  0.0000000E+00; -3.4081675E-02;  1.0000000E+04;  0.0000000E+00;  1.0000097E+04;-0.15793914;0.0;-0.003104914;181.43222
  1.1996860E-01;  9.9999998E-03;  2.8000334E-01;1244;-0.015477348;0.0;0.0014139077;1000.3304;  4.0000001E-01;273.67123;3;-7.212286;0.0;0.59793758;0;-0.14308687;  1.0006280E+04;  0.0000000E+00; -6.7639217E-02;  1.0000000E+04;  0.0000000E+00;  1.0000328E+04;-0.13546713;0.0;-0.0076197376;381.20169
  1.1997697E-01;  9.9999998E-03;  3.0000430E-01;1245;-0.011294911;0.0;0.0019404721;1000.2764;  4.0000001E-01;229.03052;3;-6.0535603;0.0;1.0070591;0;-0.11955446;  1.0005007E+04;  0.0000000E+00; -9.8693371E-02;  1.0000000E+04;  0.0000000E+00;  1.0000522E+04;-0.10821921;0.0;-0.011335254;569.28583
  1.3993962E-01;  9.9999998E-03;  1.6000168E-01;1269;-0.029997185;0.0;0.00093318621;1000.5044;  4.0000001E-01;417.86465;3;-10.769221;0.0;0.44121936;0;-0.21629681;  1.0010415E+04;  0.0000000E+00; -5.4701013E-07;  1.0000000E+04;  0.0000000E+00;  9.9996748E+03;-0.2219594;0.0;0.0056625865;194.16096
  1.3994029E-01;  9.9999998E-03;  1.8000199E-01;1270;-0.029524185;0.0;0.0010391193;1000.5025;  4.0000001E-01;416.28445;3;-10.500632;0.0;0.45599627;0;-0.21488008;  1.0010377E+04;  0.0000000E+00; -3.2173968E-05;  1.0000000E+04;  0.0000000E+00;  9.9996758E+03;-0.2200093;0.0;0.0051292148;195.2381
  1.3994169E-01;  9.9999998E-03;  2.0000228E-01;1271;-0.02869821;0.0;0.0011136545;1000.4962;  4.0000001E-01;411.05005;3;-10.163569;0.0;0.45189798;0;-0.21164785;  1.0010233E+04;  0.0000000E+00; -1.2990952E-03;  1.0000000E+04;  0.0000000E+00;  9.9996943E+03;-0.21607615;0.0;0.0044282912;187.01295
  1.3994417E-01;  9.9999998E-03;  2.2000256E-01;1272;-0.027352707;0.0;0.0011638991;1000.4855;  4.0000001E-01;402.16141;3;-9.798439;0.0;0.43071413;0;-0.20643905;  1.0009955E+04;  0.0000000E+00; -1.0100726E-02;  1.0000000E+04;  0.0000000E+00;  9.9997529E+03;-0.2095959;0.0;0.0031568524;166.74298
  1.3994807E-01;  9.9999998E-03;  2.4000275E-01;1273;-0.025329605;0.0;0.0011710122;1000.4697;  4.0000001E-01;389.12473;3;-9.453269;0.0;0.41409636;0;-0.19926913;  1.0009516E+04;  0.0000000E+00; -4.0307295E-02;  1.0000000E+04;  0.0000000E+00;  9.9998799E+03;-0.20006835;0.0;0.00079922006;234.49231
  1.3995378E-01;  9.9999998E-03;  2.6000306E-01;1274;-0.022465393;0.0;0.0012293948;1000.4475;  4.0000001E-01;370.75488;3;-9.1127605;0.0;0.43263912;0;-0.18963686;  1.0008872E+04;  0.0000000E+00; -1.0572495E-01;  1.0000000E+04;  0.0000000E+00;  1.0000083E+04;-0.18670109;0.0;-0.0029357641;561.19067
  1.3996135E-01;  9.9999998E-03;  2.8000349E-01;1275;-0.018731242;0.0;0.001406682;1000.415;  4.0000001E-01;343.79269;3;-8.5917206;0.0;0.5701189;0;-0.17579654;  1.0007963E+04;  0.0000000E+00; -2.0174970E-01;  1.0000000E+04;  0.0000000E+00;  1.0000338E+04;-0.16817062;0.0;-0.007625923;1078.4817
  1.3997130E-01;  9.9999998E-03;  3.0000496E-01;1276;-0.013835005;0.0;0.0022104878;1000.3624;  4.0000001E-01;300.23837;3;-7.3132992;0.0;1.1439953;0;-0.153523;  1.0006704E+04;  0.0000000E+00; -2.8662941E-01;  1.0000000E+04;  0.0000000E+00;  1.0000544E+04;-0.14223129;0.0;-0.011291717;1538.6379
  1.5992887E-01;  9.9999998E-03;  1.6000190E-01;1300;-0.034766082;0.0;0.0010363508;1000.568;  4.0000001E-01;470.60391;3;-12.250424;0.0;0.4705652;0;-0.23717642;  1.0011721E+04;  0.0000000E+00; -7.8496299E-07;  1.0000000E+04;  0.0000000E+00;  9.9996396E+03;-0.2431398;0.0;0.0059633795;217.57071
  1.5992947E-01;  9.9999998E-03;  1.8000220E-01;1301;-0.034293979;0.0;0.0011170738;1000.5678;  4.0000001E-01;470.40637;3;-11.962149;0.0;0.47217387;0;-0.23659241;  1.0011722E+04;  0.0000000E+00; -2.5896955E-04;  1.0000000E+04;  0.0000000E+00;  9.9996406E+03;-0.24188785;0.0;0.0052954345;218.95485
  1.5993088E-01;  9.9999998E-03;  2.0000246E-01;1302;-0.033437543;0.0;0.0011586307;1000.5649;  4.0000001E-01;468.03607;3;-11.605784;0.0;0.45026493;0;-0.23467112;  1.0011648E+04;  0.0000000E+00; -4.3583014E-03;  1.0000000E+04;  0.0000000E+00;  9.9996475E+03;-0.23932841;0.0;0.0046572946;215.44104
  1.5993352E-01;  9.9999998E-03;  2.2000271E-01;1303;-0.031999614;0.0;0.0011797923;1000.5597;  4.0000001E-01;463.69052;3;-11.227399;0.0;0.4165206;0;-0.23203254;  1.0011496E+04;  0.0000000E+00; -2.6369760E-02;  1.0000000E+04;  0.0000000E+00;  9.9996992E+03;-0.23557276;0.0;0.0035402218;235.33113
  1.5993780E-01;  9.9999998E-03;  2.4000289E-01;1304;-0.029794678;0.0;0.001158121;1000.5544;  4.0000001E-01;459.34497;3;-10.893621;0.0;0.38613653;0;-0.22960533;  1.0011256E+04;  0.0000000E+00; -9.4900645E-02;  1.0000000E+04;  0.0000000E+00;  9.9998320E+03;-0.23079497;0.0;0.0011896372;519.48944
  1.5994419E-01;  9.9999998E-03;  2.6000324E-01;1305;-0.026615035;0.0;0.0012614008;1000.5484;  4.0000001E-01;454.30807;3;-10.580154;0.0;0.43611908;0;-0.22735205;  1.0010911E+04;  0.0000000E+00; -2.4019428E-01;  1.0000000E+04;  0.0000000E+00;  1.0000061E+04;-0.22448348;0.0;-0.0028685802;1276.4058
  1.5995274E-01;  9.9999998E-03;  2.8000385E-01;1306;-0.022475453;0.0;0.0015110741;1000.5353;  4.0000001E-01;443.44418;3;-10.131314;0.0;0.61154938;0;-0.22249538;  1.0010345E+04;  0.0000000E+00; -4.5491365E-01;  1.0000000E+04;  0.0000000E+00;  1.0000358E+04;-0.21433415;0.0;-0.0081612356;2421.2847
  1.5996422E-01;  9.9999998E-03;  3.0000576E-01;1307;-0.016941968;0.0;0.0025278537;1000.4937;  4.0000001E-01;408.97601;3;-8.8387604;0.0;1.3038158;0;-0.20567781;  1.0009294E+04;  0.0000000E+00; -6.5127361E-01;  1.0000000E+04;  0.0000000E+00;  1.0000583E+04;-0.19397256;0.0;-0.011705242;3469.6995
  1.7991675E-01;  9.9999998E-03;  1.6000243E-01;1331;-0.039996117;0.0;0.0012900617;1000.6381;  4.0000001E-01;528.57758;3;-13.81543;0.0;0.55270535;0;-0.25923669;  1.0013204E+04;  0.0000000E+00; -3.4769703E-06;  1.0000000E+04;  0.0000000E+00;  9.9995576E+03;-0.26642993;0.0;0.0071932268;262.60846
  1.7991725E-01;  9.9999998E-03;  1.8000273E-01;1332;-0.039534718;0.0;0.0013625405;1000.6403;  4.0000001E-01;530.45404;3;-13.508301;0.0;0.54445946;0;-0.25950831;  1.0013259E+04;  0.0000000E+00; -7.6967600E-04;  1.0000000E+04;  0.0000000E+00;  9.9995508E+03;-0.26599896;0.0;0.0064906594;267.88416
  1.7991862E-01;  9.9999998E-03;  2.0000300E-01;1333;-0.038663752;0.0;0.0013815813;1000.6408;  4.0000001E-01;530.84912;3;-13.135462;0.0;0.5069623;0;-0.25917661;  1.0013273E+04;  0.0000000E+00; -9.2646070E-03;  1.0000000E+04;  0.0000000E+00;  9.9995449E+03;-0.26516739;0.0;0.0059907632;274.79947
  1.7992136E-01;  9.9999998E-03;  2.2000322E-01;1334;-0.037151173;0.0;0.0013699795;1000.6432;  4.0000001E-01;532.82434;3;-12.746418;0.0;0.47020793;0;-0.25986585;  1.0013283E+04;  0.0000000E+00; -4.9488228E-02;  1.0000000E+04;  0.0000000E+00;  9.9995889E+03;-0.26483378;0.0;0.0049679377;363.14764
  1.7992602E-01;  9.9999998E-03;  2.4000336E-01;1335;-0.03476591;0.0;0.0013172347;1000.6522;  4.0000001E-01;540.33032;3;-12.439618;0.0;0.42980194;0;-0.26379925;  1.0013315E+04;  0.0000000E+00; -1.6949843E-01;  1.0000000E+04;  0.0000000E+00;  9.9997305E+03;-0.26608995;0.0;0.002290688;919.07733
  1.7993304E-01;  9.9999998E-03;  2.6000369E-01;1336;-0.031304009;0.0;0.0013993471;1000.67;  4.0000001E-01;555.14471;3;-12.191294;0.0;0.47703266;0;-0.2719768;  1.0013389E+04;  0.0000000E+00; -4.2477569E-01;  1.0000000E+04;  0.0000000E+00;  1.0000020E+04;-0.26918894;0.0;-0.0027878727;2260.157
  1.7994247E-01;  9.9999998E-03;  2.8000429E-01;1337;-0.026824549;0.0;0.0016220188;1000.6887;  4.0000001E-01;570.5517;3;-11.890637;0.0;0.63337708;0;-0.28131258;  1.0013372E+04;  0.0000000E+00; -8.1317115E-01;  1.0000000E+04;  0.0000000E+00;  1.0000409E+04;-0.2716226;0.0;-0.0096899774;4329.8218
  1.7995495E-01;  9.9999998E-03;  3.0000597E-01;1338;-0.021005483;0.0;0.0024452223;1000.6761;  4.0000001E-01;560.18158;3;-10.849716;0.0;1.1962147;0;-0.27779326;  1.0012814E+04;  0.0000000E+00; -1.1872877E+00;  1.0000000E+04;  0.0000000E+00;  1.0000711E+04;-0.26343405;0.0;-0.014359212;6325.5571
  1.9990312E-01;  9.9999998E-03;  1.6000336E-01;1362;-0.045705449;0.0;0.0017519357;1000.7144;  4.0000001E-01;591.78564;3;-15.452258;0.0;0.70623183;0;-0.28206918;  1.0014886E+04;  0.0000000E+00; -1.2392696E-05;  1.0000000E+04;  0.0000000E+00;  9.9994082E+03;-0.29190007;0.0;0.0098308874;340.20255
  1.9990347E-01;  9.9999998E-03;  1.8000375E-01;1363;-0.045261659;0.0;0.0018362046;1000.7186;  4.0000001E-01;595.34113;3;-15.124392;0.0;0.69099259;0;-0.28302419;  1.0014997E+04;  0.0000000E+00; -1.3454154E-03;  1.0000000E+04;  0.0000000E+00;  9.9993789E+03;-0.29230651;0.0;0.0092823124;355.47882
  1.9990475E-01;  9.9999998E-03;  2.0000403E-01;1364;-0.044391416;0.0;0.0018408981;1000.7224;  4.0000001E-01;598.50153;3;-14.743217;0.0;0.64196265;0;-0.28411931;  1.0015105E+04;  0.0000000E+00; -1.4063096E-02;  1.0000000E+04;  0.0000000E+00;  9.9993467E+03;-0.29319325;0.0;0.0090739429;378.76794
  1.9990754E-01;  9.9999998E-03;  2.2000422E-01;1365;-0.042840738;0.0;0.001785211;1000.7318;  4.0000001E-01;606.30377;3;-14.373078;0.0;0.59126353;0;-0.28795609;  1.0015273E+04;  0.0000000E+00; -7.0793465E-02;  1.0000000E+04;  0.0000000E+00;  9.9993701E+03;-0.29611358;0.0;0.0081575019;521.22046
  1.9991247E-01;  9.9999998E-03;  2.4000424E-01;1366;-0.04031295;0.0;0.0016758231;1000.7554;  4.0000001E-01;625.85876;3;-14.099843;0.0;0.54781008;0;-0.29816931;  1.0015577E+04;  0.0000000E+00; -2.3740166E-01;  1.0000000E+04;  0.0000000E+00;  9.9995439E+03;-0.30298841;0.0;0.004819083;1294.1853
  1.9991998E-01;  9.9999998E-03;  2.6000434E-01;1367;-0.036654323;0.0;0.0016093004;1000.7992;  4.0000001E-01;662.10461;3;-13.975929;0.0;0.55158997;0;-0.31748584;  1.0016064E+04;  0.0000000E+00; -5.9596169E-01;  1.0000000E+04;  0.0000000E+00;  9.9999287E+03;-0.31505048;0.0;-0.0024353629;3175.7051
  1.9993004E-01;  9.9999998E-03;  2.8000471E-01;1368;-0.03199533;0.0;0.0016741201;1000.857;  4.0000001E-01;710.00452;3;-13.936567;0.0;0.61980629;0;-0.34367993;  1.0016638E+04;  0.0000000E+00; -1.1565651E+00;  1.0000000E+04;  0.0000000E+00;  1.0000513E+04;-0.33058763;0.0;-0.013092318;6166.3105
  1.9994278E-01;  9.9999998E-03;  3.0000553E-01;1369;-0.026345368;0.0;0.0019187551;1000.8911;  4.0000001E-01;738.25061;3;-13.51704;0.0;0.80027008;0;-0.36214358;  1.0016776E+04;  0.0000000E+00; -1.7043409E+00;  1.0000000E+04;  0.0000000E+00;  1.0001049E+04;-0.33923274;0.0;-0.022910826;9097.958
  2.1988779E-01;  9.9999998E-03;  1.6000476E-01;1393;-0.051924221;0.0;0.0024591042;1000.7966;  4.0000001E-01;660.03064;3;-17.153954;0.0;0.94731814;0;-0.30528149;  1.0016772E+04;  0.0000000E+00; -1.3964579E-05;  1.0000000E+04;  0.0000000E+00;  9.9991680E+03;-0.31954461;0.0;0.014263126;459.97827
  2.1988799E-01;  9.9999998E-03;  1.8000530E-01;1394;-0.051502906;0.0;0.0025751768;1000.8019;  4.0000001E-01;664.37616;3;-16.807264;0.0;0.9251554;0;-0.3065387;  1.0016940E+04;  0.0000000E+00; -1.5400876E-03;  1.0000000E+04;  0.0000000E+00;  9.9991074E+03;-0.32065225;0.0;0.014113541;493.05759
  2.1988913E-01;  9.9999998E-03;  2.0000567E-01;1395;-0.050638348;0.0;0.0026099598;1000.8079;  4.0000001E-01;669.31433;3;-16.40897;0.0;0.89137775;0;-0.30839044;  1.0017137E+04;  0.0000000E+00; -1.5823966E-02;  1.0000000E+04;  0.0000000E+00;  9.9990293E+03;-0.32283163;0.0;0.014441205;537.53021
  2.1989186E-01;  9.9999998E-03;  2.2000583E-01;1396;-0.049092855;0.0;0.0025016917;1000.8218;  4.0000001E-01;680.86951;3;-16.068495;0.0;0.82429242;0;-0.31411704;  1.0017426E+04;  0.0000000E+00; -7.8663647E-02;  1.0000000E+04;  0.0000000E+00;  9.9990176E+03;-0.32792738;0.0;0.013810342;681.1286
  2.1989694E-01;  9.9999998E-03;  2.4000581E-01;1397;-0.046475235;0.0;0.0023519567;1000.8549;  4.0000001E-01;708.32556;3;-15.878654;0.0;0.75942469;0;-0.32846403;  1.0017904E+04;  0.0000000E+00; -2.6332891E-01;  1.0000000E+04;  0.0000000E+00;  9.9992051E+03;-0.33820134;0.0;0.0097373147;1473.4087
  2.1990483E-01;  9.9999998E-03;  2.6000589E-01;1398;-0.042707156;0.0;0.0022210239;1000.9178;  4.0000001E-01;760.37341;3;-15.943787;0.0;0.76718426;0;-0.35580331;  1.0018636E+04;  0.0000000E+00; -6.6606659E-01;  1.0000000E+04;  0.0000000E+00;  9.9997236E+03;-0.35535249;0.0;-0.00045080762;3558.2959
  2.1991527E-01;  9.9999998E-03;  2.8000647E-01;1399;-0.037992276;0.0;0.0023418874;1001.0043;  4.0000001E-01;831.97632;3;-16.265688;0.0;0.89686012;0;-0.39418316;  1.0019555E+04;  0.0000000E+00; -1.3059675E+00;  1.0000000E+04;  0.0000000E+00;  1.0000537E+04;-0.37830201;0.0;-0.015881147;6973.5332
  2.1992904E-01;  9.9999998E-03;  3.0000833E-01;1400;-0.032154884;0.0;0.0028735669;1001.0602;  4.0000001E-01;878.39478;3;-16.318077;0.0;1.2090874;0;-0.42401183;  1.0020038E+04;  0.0000000E+00; -1.9463161E+00;  1.0000000E+04;  0.0000000E+00;  1.0001173E+04;-0.39577112;0.0;-0.028240707;10411.313
  2.3987058E-01;  9.9999998E-03;  1.6000670E-01;1424;-0.058698159;0.0;0.0034170053;1000.885;  4.0000001E-01;733.21375;3;-18.925743;0.0;1.2637193;0;-0.32868636;  1.0018880E+04;  0.0000000E+00; -3.9969477E-06;  1.0000000E+04;  0.0000000E+00;  9.9988330E+03;-0.34931472;0.0;0.020628354;627.06763
  2.3987056E-01;  9.9999998E-03;  1.8000747E-01;1425;-0.058292627;0.0;0.0036422235;1000.8904;  4.0000001E-01;737.75677;3;-18.543892;0.0;1.3018825;0;-0.32976785;  1.0019103E+04;  0.0000000E+00; -1.1426893E-03;  1.0000000E+04;  0.0000000E+00;  9.9987119E+03;-0.35086101;0.0;0.021093162;685.44775
  2.3987153E-01;  9.9999998E-03;  2.0000814E-01;1426;-0.057452329;0.0;0.0037797736;1000.8962;  4.0000001E-01;742.49744;3;-18.146614;0.0;1.267113;0;-0.33144665;  1.0019363E+04;  0.0000000E+00; -1.3122872E-02;  1.0000000E+04;  0.0000000E+00;  9.9985732E+03;-0.35366771;0.0;0.022221062;757.62335
  2.3987408E-01;  9.9999998E-03;  2.2000855E-01;1427;-0.055941097;0.0;0.0037572556;1000.9103;  4.0000001E-01;754.15137;3;-17.834843;0.0;1.242157;0;-0.33710411;  1.0019716E+04;  0.0000000E+00; -6.7650512E-02;  1.0000000E+04;  0.0000000E+00;  9.9985029E+03;-0.35944486;0.0;0.022340732;869.83435
  2.3987906E-01;  9.9999998E-03;  2.4000905E-01;1428;-0.053358931;0.0;0.0038183043;1000.9442;  4.0000001E-01;782.20001;3;-17.747681;0.0;1.292582;0;-0.35161352;  1.0020243E+04;  0.0000000E+00; -2.3069908E-01;  1.0000000E+04;  0.0000000E+00;  9.9986484E+03;-0.37023634;0.0;0.018622812;1427.8706
  2.3988707E-01;  9.9999998E-03;  2.6001048E-01;1429;-0.049584836;0.0;0.0042401832;1001.0059;  4.0000001E-01;833.35901;3;-18.101715;0.0;1.5202208;0;-0.37844861;  1.0021006E+04;  0.0000000E+00; -5.9343880E-01;  1.0000000E+04;  0.0000000E+00;  9.9991270E+03;-0.38751179;0.0;0.009063188;3208.6357
  2.3989789E-01;  9.9999998E-03;  2.8001413E-01;1430;-0.044717241;0.0;0.0057664081;1001.0756;  4.0000001E-01;891.13513;3;-18.726444;0.0;2.4281101;0;-0.40796199;  1.0021909E+04;  0.0000000E+00; -1.1876040E+00;  1.0000000E+04;  0.0000000E+00;  9.9996143E+03;-0.40986156;0.0;0.0018995795;6355.3901
  2.3991251E-01;  9.9999998E-03;  3.0002043E-01;1431;-0.038598515;0.0;0.0079941107;1001.0806;  4.0000001E-01;895.2832;3;-19.173901;0.0;3.7067928;0;-0.41755331;  1.0022360E+04;  0.0000000E+00; -1.8241874E+00;  1.0000000E+04;  0.0000000E+00;  9.9992705E+03;-0.42659357;0.0;0.0090402663;9775.5625
  2.5985122E-01;  9.9999998E-03;  1.6000919E-01;1455;-0.066082098;0.0;0.0046366509;1000.9804;  4.0000001E-01;812.22375;3;-20.764315;0.0;1.6626059;0;-0.35241279;  1.0021219E+04;  0.0000000E+00;  5.4737728E-07;  1.0000000E+04;  0.0000000E+00;  9.9984004E+03;-0.38113245;0.0;0.02871966;840.04175
  2.5985098E-01;  9.9999998E-03;  1.8001041E-01;1456;-0.065688014;0.0;0.0050551868;1000.9851;  4.0000001E-01;816.17426;3;-20.347002;0.0;1.7577901;0;-0.35292313;  1.0021488E+04;  0.0000000E+00; -4.7982807E-04;  1.0000000E+04;  0.0000000E+00;  9.9982227E+03;-0.38278693;0.0;0.029863808;928.18616
  2.5985169E-01;  9.9999998E-03;  2.0001161E-01;1457;-0.064887889;0.0;0.0054008542;1000.9891;  4.0000001E-01;819.43341;3;-19.932642;0.0;1.8141176;0;-0.35366407;  1.0021790E+04;  0.0000000E+00; -7.6364288E-03;  1.0000000E+04;  0.0000000E+00;  9.9980029E+03;-0.38555822;0.0;0.031894136;1034.3765
  2.5985393E-01;  9.9999998E-03;  2.2001281E-01;1458;-0.063447081;0.0;0.0057229102;1000.9989;  4.0000001E-01;827.53198;3;-19.671944;0.0;1.9012237;0;-0.35740772;  1.0022159E+04;  0.0000000E+00; -4.3859977E-02;  1.0000000E+04;  0.0000000E+00;  9.9978359E+03;-0.39074004;0.0;0.033332326;1140.6448
  2.5985846E-01;  9.9999998E-03;  2.4001446E-01;1459;-0.06104093;0.0;0.0062710023;1001.024;  4.0000001E-01;848.37085;3;-19.775772;0.0;2.1682143;0;-0.36789969;  1.0022646E+04;  0.0000000E+00; -1.5689710E-01;  1.0000000E+04;  0.0000000E+00;  9.9978477E+03;-0.39986539;0.0;0.031965714;1392.757
  2.5986606E-01;  9.9999998E-03;  2.6001790E-01;1460;-0.057431236;0.0;0.0075553954;1001.0656;  4.0000001E-01;882.7403;3;-20.432007;0.0;2.7889137;0;-0.38528341;  1.0023288E+04;  0.0000000E+00; -4.1532242E-01;  1.0000000E+04;  0.0000000E+00;  9.9980342E+03;-0.4139708;0.0;0.02868738;2446.5676
  2.5987664E-01;  9.9999998E-03;  2.8002414E-01;1461;-0.052698862;0.0;0.0099415733;1001.0923;  4.0000001E-01;904.96185;3;-21.553402;0.0;4.1345377;0;-0.39706892;  1.0024010E+04;  0.0000000E+00; -8.4707189E-01;  1.0000000E+04;  0.0000000E+00;  9.9978506E+03;-0.43192002;0.0;0.034851104;4671.3276
  2.5989079E-01;  9.9999998E-03;  3.0003169E-01;1462;-0.046797428;0.0;0.012294256;1001.0624;  4.0000001E-01;880.17242;3;-22.682219;0.0;5.6507587;0;-0.39547166;  1.0024398E+04;  0.0000000E+00; -1.3144251E+00;  1.0000000E+04;  0.0000000E+00;  9.9968682E+03;-0.44657779;0.0;0.051106133;7226.061
  2.7982947E-01;  9.9999998E-03;  1.6001225E-01;1486;-0.074124999;0.0;0.0061193635;1001.0844;  4.0000001E-01;898.44354;3;-22.665531;0.0;2.1490431;0;-0.37689388;  1.0023809E+04;  0.0000000E+00;  7.1095354E-07;  1.0000000E+04;  0.0000000E+00;  9.9978916E+03;-0.41491163;0.0;0.038017746;1091.3052
  2.7982894E-01;  9.9999998E-03;  1.8001406E-01;1487;-0.073748358;0.0;0.0067846156;1001.0875;  4.0000001E-01;900.9126;3;-22.209953;0.0;2.3127494;0;-0.376625;  1.0024116E+04;  0.0000000E+00; -5.8630034E-05;  1.0000000E+04;  0.0000000E+00;  9.9976514E+03;-0.41630775;0.0;0.039682742;1208.7499
  2.7982932E-01;  9.9999998E-03;  2.0001601E-01;1488;-0.072981261;0.0;0.0074518672;1001.0893;  4.0000001E-01;902.4928;3;-21.770111;0.0;2.4861548;0;-0.37609607;  1.0024436E+04;  0.0000000E+00; -2.7223728E-03;  1.0000000E+04;  0.0000000E+00;  9.9973633E+03;-0.41851792;0.0;0.042421859;1348.6633
  2.7983117E-01;  9.9999998E-03;  2.2001827E-01;1489;-0.071633413;0.0;0.0081968028;1001.0935;  4.0000001E-01;905.94946;3;-21.557199;0.0;2.7101274;0;-0.37711215;  1.0024790E+04;  0.0000000E+00; -2.0087721E-02;  1.0000000E+04;  0.0000000E+00;  9.9970918E+03;-0.42233548;0.0;0.045223329;1483.6144
  2.7983510E-01;  9.9999998E-03;  2.4002123E-01;1490;-0.069440767;0.0;0.0092396084;1001.1055;  4.0000001E-01;915.82574;3;-21.862959;0.0;3.1673179;0;-0.3817406;  1.0025199E+04;  0.0000000E+00; -7.9731241E-02;  1.0000000E+04;  0.0000000E+00;  9.9969297E+03;-0.42873883;0.0;0.046998221;1616.8984
  2.7984184E-01;  9.9999998E-03;  2.6002595E-01;1491;-0.066190191;0.0;0.010920112;1001.1229;  4.0000001E-01;930.24506;3;-22.931879;0.0;3.9985888;0;-0.38850689;  1.0025679E+04;  0.0000000E+00; -2.2194445E-01;  1.0000000E+04;  0.0000000E+00;  9.9967959E+03;-0.43843782;0.0;0.049930945;2011.8073
  2.7985156E-01;  9.9999998E-03;  2.8003278E-01;1492;-0.061869249;0.0;0.013161335;1001.1196;  4.0000001E-01;927.57849;3;-24.73255;0.0;5.2912707;0;-0.38989258;  1.0026191E+04;  0.0000000E+00; -4.6236694E-01;  1.0000000E+04;  0.0000000E+00;  9.9962256E+03;-0.4509671;0.0;0.061074518;3120.2656
  2.7986464E-01;  9.9999998E-03;  3.0003989E-01;1493;-0.056394026;0.0;0.015146599;1001.086;  4.0000001E-01;899.72742;3;-26.67721;0.0;6.8833761;0;-0.38758469;  1.0026506E+04;  0.0000000E+00; -7.2272605E-01;  1.0000000E+04;  0.0000000E+00;  9.9952354E+03;-0.46271741;0.0;0.075132728;4549.0322
  2.9980507E-01;  9.9999998E-03;  1.6001579E-01;1517;-0.082877845;0.0;0.0078133643;1001.1982;  4.0000001E-01;992.76166;3;-24.633198;0.0;2.6770105;0;-0.40275258;  1.0026662E+04;  0.0000000E+00;  7.5985241E-07;  1.0000000E+04;  0.0000000E+00;  9.9973271E+03;-0.45060146;0.0;0.047848888;1369.9694
  2.9980418E-01;  9.9999998E-03;  1.8001828E-01;1518;-0.082514159;0.0;0.0087359063;1001.2004;  4.0000001E-01;994.53943;3;-24.127274;0.0;2.9071314;0;-0.40164989;  1.0026993E+04;  0.0000000E+00;  1.0111005E-05;  1.0000000E+04;  0.0000000E+00;  9.9970332E+03;-0.45134714;0.0;0.049697235;1512.0447
  2.9980421E-01;  9.9999998E-03;  2.0002103E-01;1519;-0.081771076;0.0;0.0097130938;1001.1998;  4.0000001E-01;993.94684;3;-23.649063;0.0;3.1910059;0;-0.3999438;  1.0027320E+04;  0.0000000E+00; -3.7933449E-04;  1.0000000E+04;  0.0000000E+00;  9.9966943E+03;-0.45259741;0.0;0.052653603;1677.5375
  2.9980564E-01;  9.9999998E-03;  2.2002426E-01;1520;-0.08047656;0.0;0.010828208;1001.199;  4.0000001E-01;993.35425;3;-23.464317;0.0;3.5492721;0;-0.39853182;  1.0027648E+04;  0.0000000E+00; -5.5197114E-03;  1.0000000E+04;  0.0000000E+00;  9.9963564E+03;-0.45471865;0.0;0.056186818;1843.9218
  2.9980907E-01;  9.9999998E-03;  2.4002825E-01;1521;-0.078422368;0.0;0.012169477;1001.2004;  4.0000001E-01;994.53943;3;-23.953001;0.0;4.0840678;0;-0.39824736;  1.0027976E+04;  0.0000000E+00; -2.7713381E-02;  1.0000000E+04;  0.0000000E+00;  9.9960566E+03;-0.45822951;0.0;0.059982143;1991.9385
  2.9981509E-01;  9.9999998E-03;  2.6003358E-01;1522;-0.075434178;0.0;0.013892739;1001.2006;  4.0000001E-01;994.63818;3;-25.412609;0.0;4.9623537;0;-0.39761961;  1.0028311E+04;  0.0000000E+00; -8.5796699E-02;  1.0000000E+04;  0.0000000E+00;  9.9957266E+03;-0.46355245;0.0;0.06593284;2190.541
  2.9982397E-01;  9.9999998E-03;  2.8004023E-01;1523;-0.071478412;0.0;0.015758118;1001.1848;  4.0000001E-01;981.50275;3;-27.878906;0.0;6.1539946;0;-0.39463562;  1.0028626E+04;  0.0000000E+00; -1.8856423E-01;  1.0000000E+04;  0.0000000E+00;  9.9950889E+03;-0.47066414;0.0;0.076028541;2646.6311
  2.9983586E-01;  9.9999998E-03;  3.0004686E-01;1524;-0.066566952;0.0;0.017392203;1001.1567;  4.0000001E-01;958.29352;3;-30.82712;0.0;7.7600079;0;-0.39395002;  1.0028844E+04;  0.0000000E+00; -3.0127737E-01;  1.0000000E+04;  0.0000000E+00;  9.9943135E+03;-0.47830993;0.0;0.084359907;3252.0869
  3.1977770E-01;  9.9999998E-03;  1.6001967E-01;1548;-0.09238144;0.0;0.0096062841;1001.325;  4.0000001E-01;1097.7463;3;-26.65711;0.0;3.190685;0;-0.43061939;  1.0029802E+04;  0.0000000E+00;  7.6197125E-07;  1.0000000E+04;  0.0000000E+00;  9.9967275E+03;-0.48821342;0.0;0.057594024;1665.8221
  3.1977645E-01;  9.9999998E-03;  1.8002287E-01;1549;-0.092019893;0.0;0.010789544;1001.3257;  4.0000001E-01;1098.3389;3;-26.091576;0.0;3.4942076;0;-0.42870089;  1.0030140E+04;  0.0000000E+00;  8.9054574E-06;  1.0000000E+04;  0.0000000E+00;  9.9964053E+03;-0.48793805;0.0;0.059237156;1826.2764
  3.1977612E-01;  9.9999998E-03;  2.0002639E-01;1550;-0.091274768;0.0;0.012013875;1001.3237;  4.0000001E-01;1096.6599;3;-25.569094;0.0;3.8395679;0;-0.4260124;  1.0030468E+04;  0.0000000E+00;  4.4361394E-05;  1.0000000E+04;  0.0000000E+00;  9.9960322E+03;-0.48788771;0.0;0.061875299;2007.051
  3.1977719E-01;  9.9999998E-03;  2.2003038E-01;1551;-0.089970425;0.0;0.013359203;1001.3197;  4.0000001E-01;1093.302;3;-25.391739;0.0;4.2578611;0;-0.42293888;  1.0030767E+04;  0.0000000E+00; -4.5485023E-04;  1.0000000E+04;  0.0000000E+00;  9.9956563E+03;-0.48819643;0.0;0.065257534;2189.5168
  3.1978035E-01;  9.9999998E-03;  2.4003506E-01;1552;-0.087927356;0.0;0.014831038;1001.315;  4.0000001E-01;1089.4503;3;-26.012724;0.0;4.8398814;0;-0.41971821;  1.0031023E+04;  0.0000000E+00; -5.0200303E-03;  1.0000000E+04;  0.0000000E+00;  9.9953047E+03;-0.48908365;0.0;0.069365434;2357.7241
  3.1978604E-01;  9.9999998E-03;  2.6004067E-01;1553;-0.085012764;0.0;0.016472174;1001.3074;  4.0000001E-01;1083.1294;3;-27.812944;0.0;5.718823;0;-0.41541535;  1.0031245E+04;  0.0000000E+00; -2.0521708E-02;  1.0000000E+04;  0.0000000E+00;  9.9949316E+03;-0.49076834;0.0;0.075352989;2537.0649
  3.1979451E-01;  9.9999998E-03;  2.8004721E-01;1554;-0.081218131;0.0;0.018083723;1001.2886;  4.0000001E-01;1067.5249;3;-30.879395;0.0;6.9098821;0;-0.41050354;  1.0031419E+04;  0.0000000E+00; -5.1401131E-02;  1.0000000E+04;  0.0000000E+00;  9.9943750E+03;-0.4933199;0.0;0.082816362;2814.3127
  3.1980583E-01;  9.9999998E-03;  3.0005372E-01;1555;-0.076622486;0.0;0.019531021;1001.2651;  4.0000001E-01;1048.0687;3;-34.707142;0.0;8.5937319;0;-0.40972212;  1.0031533E+04;  0.0000000E+00; -8.8704944E-02;  1.0000000E+04;  0.0000000E+00;  9.9937979E+03;-0.49648079;0.0;0.086758681;3118.4209
  3.3974707E-01;  9.9999998E-03;  1.6002375E-01;1579;-0.10267098;0.0;0.011420834;1001.4664;  4.0000001E-01;1214.8787;3;-28.72916;0.0;3.6714501;0;-0.46096563;  1.0033244E+04;  0.0000000E+00;  6.6776215E-07;  1.0000000E+04;  0.0000000E+00;  9.9961143E+03;-0.52780455;0.0;0.066838905;1972.2095
  3.3974540E-01;  9.9999998E-03;  1.8002765E-01;1580;-0.10229026;0.0;0.01282254;1001.4663;  4.0000001E-01;1214.7799;3;-28.091198;0.0;4.0312448;0;-0.45830876;  1.0033592E+04;  0.0000000E+00;  7.5448711E-06;  1.0000000E+04;  0.0000000E+00;  9.9957617E+03;-0.52625567;0.0;0.067946926;2145.5613
  3.3974472E-01;  9.9999998E-03;  2.0003186E-01;1581;-0.10151571;0.0;0.014234345;1001.4628;  4.0000001E-01;1211.9158;3;-27.513405;0.0;4.4023252;0;-0.4547331;  1.0033906E+04;  0.0000000E+00;  3.9706258E-05;  1.0000000E+04;  0.0000000E+00;  9.9953740E+03;-0.52462661;0.0;0.069893509;2334.4211
  3.3974552E-01;  9.9999998E-03;  2.2003648E-01;1582;-0.10015546;0.0;0.015714634;1001.4568;  4.0000001E-01;1206.8789;3;-27.311665;0.0;4.8761435;0;-0.45051396;  1.0034172E+04;  0.0000000E+00;  1.2744550E-04;  1.0000000E+04;  0.0000000E+00;  9.9949990E+03;-0.52303487;0.0;0.072520927;2520.3455
  3.3974859E-01;  9.9999998E-03;  2.4004167E-01;1583;-0.098014317;0.0;0.017241249;1001.4495;  4.0000001E-01;1200.8544;3;-28.055868;0.0;5.4582624;0;-0.4457494;  1.0034371E+04;  0.0000000E+00;  9.7012198E-05;  1.0000000E+04;  0.0000000E+00;  9.9946563E+03;-0.52160513;0.0;0.075855725;2687.2422
  3.3975437E-01;  9.9999998E-03;  2.6004753E-01;1584;-0.094995581;0.0;0.018804226;1001.4399;  4.0000001E-01;1192.9534;3;-30.159456;0.0;6.3321071;0;-0.44002831;  1.0034511E+04;  0.0000000E+00; -1.4570919E-03;  1.0000000E+04;  0.0000000E+00;  9.9943262E+03;-0.52047598;0.0;0.080447689;2843.4194
  3.3976308E-01;  9.9999998E-03;  2.8005415E-01;1585;-0.091100425;0.0;0.020294819;1001.4221;  4.0000001E-01;1178.139;3;-33.743359;0.0;7.6057062;0;-0.43444178;  1.0034590E+04;  0.0000000E+00; -6.1363312E-03;  1.0000000E+04;  0.0000000E+00;  9.9938848E+03;-0.51974416;0.0;0.085302383;3054.7102
  3.3977473E-01;  9.9999998E-03;  3.0006087E-01;1586;-0.086437814;0.0;0.021644296;1001.4015;  4.0000001E-01;1161.1519;3;-38.299294;0.0;9.3746805;0;-0.43308094;  1.0034625E+04;  0.0000000E+00; -1.3105704E-02;  1.0000000E+04;  0.0000000E+00;  9.9934395E+03;-0.51943332;0.0;0.086352371;3271.9712
  3.5971290E-01;  9.9999998E-03;  1.6002794E-01;1610;-0.11377981;0.0;0.013190244;1001.6237;  4.0000001E-01;1345.2452;3;-30.836582;0.0;4.0928588;0;-0.49402475;  1.0037026E+04;  0.0000000E+00;  2.3337914E-07;  1.0000000E+04;  0.0000000E+00;  9.9954883E+03;-0.56943595;0.0;0.075411215;2286.6895
  3.5971078E-01;  9.9999998E-03;  1.8003249E-01;1611;-0.11335562;0.0;0.014770079;1001.6232;  4.0000001E-01;1344.8501;3;-30.119457;0.0;4.4819078;0;-0.49070776;  1.0037387E+04;  0.0000000E+00;  6.0855918E-06;  1.0000000E+04;  0.0000000E+00;  9.9951182E+03;-0.56650019;0.0;0.075792432;2470.0457
  3.5970971E-01;  9.9999998E-03;  2.0003739E-01;1612;-0.11252402;0.0;0.016326781;1001.619;  4.0000001E-01;1341.2947;3;-29.471874;0.0;4.8571057;0;-0.48631418;  1.0037691E+04;  0.0000000E+00;  3.6862428E-05;  1.0000000E+04;  0.0000000E+00;  9.9947275E+03;-0.56318563;0.0;0.07687147;2664.0247
  3.5971028E-01;  9.9999998E-03;  2.2004260E-01;1613;-0.11108139;0.0;0.017887741;1001.6118;  4.0000001E-01;1335.3689;3;-29.26936;0.0;5.3327737;0;-0.48109123;  1.0037926E+04;  0.0000000E+00;  1.2577770E-04;  1.0000000E+04;  0.0000000E+00;  9.9943496E+03;-0.55963832;0.0;0.078547098;2849.7407
  3.5971335E-01;  9.9999998E-03;  2.4004824E-01;1614;-0.10878365;0.0;0.019456685;1001.6032;  4.0000001E-01;1328.2581;3;-30.103821;0.0;5.9578319;0;-0.47528055;  1.0038078E+04;  0.0000000E+00;  2.9487637E-04;  1.0000000E+04;  0.0000000E+00;  9.9940264E+03;-0.55606121;0.0;0.080780655;3006.8699
  3.5971943E-01;  9.9999998E-03;  2.6005438E-01;1615;-0.1055517;0.0;0.020990781;1001.5937;  4.0000001E-01;1320.3571;3;-32.493076;0.0;6.8740983;0;-0.468826;  1.0038148E+04;  0.0000000E+00;  5.1076250E-04;  1.0000000E+04;  0.0000000E+00;  9.9937656E+03;-0.55265045;0.0;0.083824441;3130.7983
  3.5972887E-01;  9.9999998E-03;  2.8006142E-01;1616;-0.10137133;0.0;0.022447107;1001.5767;  4.0000001E-01;1306.234;3;-36.567242;0.0;8.224411;0;-0.46276027;  1.0038158E+04;  0.0000000E+00;  5.8250834E-04;  1.0000000E+04;  0.0000000E+00;  9.9934199E+03;-0.54956877;0.0;0.086808518;3296.4829
  3.5974163E-01;  9.9999998E-03;  3.0006859E-01;1617;-0.096320257;0.0;0.023780638;1001.5564;  4.0000001E-01;1289.4443;3;-41.741528;0.0;10.090387;0;-0.46042594;  1.0038126E+04;  0.0000000E+00;  1.8369322E-04;  1.0000000E+04;  0.0000000E+00;  9.9930449E+03;-0.54697347;0.0;0.086547516;3481.0242
  3.7967482E-01;  9.9999998E-03;  1.6003220E-01;1641;-0.12574406;0.0;0.014877978;1001.7984;  4.0000001E-01;1489.932;3;-32.974747;0.0;4.4302478;0;-0.52980089;  1.0041165E+04;  0.0000000E+00; -4.6945644E-07;  1.0000000E+04;  0.0000000E+00;  9.9948516E+03;-0.61312306;0.0;0.083322152;2609.863
  3.7967226E-01;  9.9999998E-03;  1.8003741E-01;1642;-0.12524948;0.0;0.016608618;1001.7982;  4.0000001E-01;1489.8333;3;-32.157391;0.0;4.8470802;0;-0.52586472;  1.0041548E+04;  0.0000000E+00;  4.2938909E-06;  1.0000000E+04;  0.0000000E+00;  9.9944639E+03;-0.60879898;0.0;0.082934238;2803.1772
  3.7967077E-01;  9.9999998E-03;  2.0004296E-01;1643;-0.1243334;0.0;0.01828726;1001.7938;  4.0000001E-01;1486.0803;3;-31.437082;0.0;5.2088494;0;-0.52070415;  1.0041862E+04;  0.0000000E+00;  3.5264973E-05;  1.0000000E+04;  0.0000000E+00;  9.9940596E+03;-0.60385227;0.0;0.083148144;3003.4583
  3.7967113E-01;  9.9999998E-03;  2.2004879E-01;1644;-0.12277867;0.0;0.019918976;1001.7859;  4.0000001E-01;1479.6608;3;-31.220402;0.0;5.684834;0;-0.51454389;  1.0042086E+04;  0.0000000E+00;  1.3106230E-04;  1.0000000E+04;  0.0000000E+00;  9.9936826E+03;-0.59845579;0.0;0.083911873;3191.2305
  3.7967420E-01;  9.9999998E-03;  2.4005495E-01;1645;-0.12030128;0.0;0.021530723;1001.7767;  4.0000001E-01;1471.9573;3;-32.160736;0.0;6.3465219;0;-0.50773716;  1.0042210E+04;  0.0000000E+00;  3.2070154E-04;  1.0000000E+04;  0.0000000E+00;  9.9933721E+03;-0.59290504;0.0;0.08516787;3341.8572
  3.7968069E-01;  9.9999998E-03;  2.6006153E-01;1646;-0.11680804;0.0;0.023073681;1001.7676;  4.0000001E-01;1464.4513;3;-34.845222;0.0;7.3223701;0;-0.50046426;  1.0042239E+04;  0.0000000E+00;  5.7297433E-04;  1.0000000E+04;  0.0000000E+00;  9.9931660E+03;-0.58750945;0.0;0.087045178;3440.7905
  3.7969103E-01;  9.9999998E-03;  2.8006914E-01;1647;-0.11225364;0.0;0.024556875;1001.7509;  4.0000001E-01;1450.6245;3;-39.428802;0.0;8.7330608;0;-0.49335533;  1.0042193E+04;  0.0000000E+00;  7.1961561E-04;  1.0000000E+04;  0.0000000E+00;  9.9928770E+03;-0.58253688;0.0;0.089181535;3579.1672
  3.7970525E-01;  9.9999998E-03;  3.0007693E-01;1648;-0.10669872;0.0;0.025906952;1001.7288;  4.0000001E-01;1432.2548;3;-45.197639;0.0;10.735239;0;-0.48986873;  1.0042104E+04;  0.0000000E+00;  4.6446096E-04;  1.0000000E+04;  0.0000000E+00;  9.9925234E+03;-0.57822692;0.0;0.088358201;3754.7925
  3.9963251E-01;  9.9999998E-03;  1.6003650E-01;1672;-0.13859904;0.0;0.016455164;1001.9913;  4.0000001E-01;1649.7296;3;-35.130367;0.0;4.6714416;0;-0.56814694;  1.0045685E+04;  0.0000000E+00; -1.2377719E-06;  1.0000000E+04;  0.0000000E+00;  9.9941973E+03;-0.65880746;0.0;0.090660535;2943.4722
  3.9962944E-01;  9.9999998E-03;  1.8004239E-01;1673;-0.1380067;0.0;0.01832181;1001.9921;  4.0000001E-01;1650.421;3;-34.204876;0.0;5.1015849;0;-0.56359458;  1.0046109E+04;  0.0000000E+00;  2.2305023E-06;  1.0000000E+04;  0.0000000E+00;  9.9937891E+03;-0.65316492;0.0;0.089570336;3148.2986
  3.9962754E-01;  9.9999998E-03;  2.0004864E-01;1674;-0.13697839;0.0;0.020123642;1001.9882;  4.0000001E-01;1647.1617;3;-33.400661;0.0;5.4593635;0;-0.55768728;  1.0046457E+04;  0.0000000E+00;  3.4088960E-05;  1.0000000E+04;  0.0000000E+00;  9.9933691E+03;-0.64673197;0.0;0.089044668;3358.9412
  3.9962763E-01;  9.9999998E-03;  2.2005516E-01;1675;-0.13528356;0.0;0.021836223;1001.9807;  4.0000001E-01;1640.9398;3;-33.17281;0.0;5.9188514;0;-0.55061567;  1.0046702E+04;  0.0000000E+00;  1.4098457E-04;  1.0000000E+04;  0.0000000E+00;  9.9929727E+03;-0.63970971;0.0;0.089094028;3555.0735
  3.9963073E-01;  9.9999998E-03;  2.4006194E-01;1676;-0.13259706;0.0;0.023502735;1001.9713;  4.0000001E-01;1633.1376;3;-34.215889;0.0;6.6283293;0;-0.54281557;  1.0046826E+04;  0.0000000E+00;  3.6131134E-04;  1.0000000E+04;  0.0000000E+00;  9.9926611E+03;-0.63247412;0.0;0.089658581;3707.9402
  3.9963770E-01;  9.9999998E-03;  2.6006910E-01;1677;-0.12880397;0.0;0.025075216;1001.9631;  4.0000001E-01;1626.4216;3;-37.206741;0.0;7.6663198;0;-0.53460634;  1.0046848E+04;  0.0000000E+00;  6.6355272E-04;  1.0000000E+04;  0.0000000E+00;  9.9924795E+03;-0.62543142;0.0;0.090825088;3794.6716
  3.9964902E-01;  9.9999998E-03;  2.8007743E-01;1678;-0.12382387;0.0;0.026613245;1001.9468;  4.0000001E-01;1612.8912;3;-42.297192;0.0;9.1649866;0;-0.52625823;  1.0046780E+04;  0.0000000E+00;  8.5114001E-04;  1.0000000E+04;  0.0000000E+00;  9.9922139E+03;-0.618936;0.0;0.092677757;3920.9666
  3.9966485E-01;  9.9999998E-03;  3.0008599E-01;1679;-0.11773557;0.0;0.027979633;1001.9229;  4.0000001E-01;1593.1387;3;-48.729336;0.0;11.265681;0;-0.52171534;  1.0046671E+04;  0.0000000E+00;  5.5794819E-04;  1.0000000E+04;  0.0000000E+00;  9.9918477E+03;-0.61328089;0.0;0.091565557;4100.9565
  4.1958559E-01;  9.9999998E-03;  1.6004089E-01;1703;-0.15238006;0.0;0.017887317;1002.2026;  4.0000001E-01;1824.835;3;-37.301571;0.0;4.8037434;0;-0.60882956;  1.0050597E+04;  0.0000000E+00; -1.2631681E-06;  1.0000000E+04;  0.0000000E+00;  9.9935254E+03;-0.70632118;0.0;0.0974916;3289.1179
  4.1958198E-01;  9.9999998E-03;  1.8004748E-01;1704;-0.15166236;0.0;0.019891016;1002.2054;  4.0000001E-01;1827.2052;3;-36.258339;0.0;5.2328434;0;-0.60366255;  1.0051085E+04;  0.0000000E+00;  6.5005383E-07;  1.0000000E+04;  0.0000000E+00;  9.9930918E+03;-0.69947565;0.0;0.09581311;3506.3396
  4.1957960E-01;  9.9999998E-03;  2.0005450E-01;1705;-0.15049335;0.0;0.021829637;1002.2032;  4.0000001E-01;1825.3287;3;-35.354259;0.0;5.5989223;0;-0.59703356;  1.0051496E+04;  0.0000000E+00;  3.3743363E-05;  1.0000000E+04;  0.0000000E+00;  9.9926436E+03;-0.69175696;0.0;0.094723381;3731.9424
  4.1957939E-01;  9.9999998E-03;  2.2006179E-01;1706;-0.1486254;0.0;0.023646345;1002.1968;  4.0000001E-01;1819.9956;3;-35.106861;0.0;6.0512891;0;-0.58907849;  1.0051795E+04;  0.0000000E+00;  1.5496777E-04;  1.0000000E+04;  0.0000000E+00;  9.9922188E+03;-0.68339735;0.0;0.094318859;3944.3479
  4.1958255E-01;  9.9999998E-03;  2.4006931E-01;1707;-0.14569512;0.0;0.025386013;1002.1886;  4.0000001E-01;1813.1809;3;-36.251148;0.0;6.799345;0;-0.58027637;  1.0051975E+04;  0.0000000E+00;  4.1427967E-04;  1.0000000E+04;  0.0000000E+00;  9.9918779E+03;-0.67483777;0.0;0.094561368;4110.646
  4.1959000E-01;  9.9999998E-03;  2.6007721E-01;1708;-0.14155963;0.0;0.027002657;1002.1822;  4.0000001E-01;1807.9465;3;-39.561474;0.0;7.8928685;0;-0.5710609;  1.0052029E+04;  0.0000000E+00;  7.7810074E-04;  1.0000000E+04;  0.0000000E+00;  9.9916934E+03;-0.66655272;0.0;0.095491856;4201.0776
  4.1960239E-01;  9.9999998E-03;  2.8008640E-01;1709;-0.13610911;0.0;0.028588543;1002.1671;  4.0000001E-01;1795.4037;3;-45.185959;0.0;9.4641352;0;-0.5616051;  1.0051998E+04;  0.0000000E+00;  1.0086558E-03;  1.0000000E+04;  0.0000000E+00;  9.9914248E+03;-0.65894985;0.0;0.097344771;4329.5396
  4.1961992E-01;  9.9999998E-03;  3.0009592E-01;1710;-0.12943698;0.0;0.029969996;1002.1431;  4.0000001E-01;1775.5525;3;-52.3083;0.0;11.648387;0;-0.55654669;  1.0051906E+04;  0.0000000E+00;  6.4588571E-04;  1.0000000E+04;  0.0000000E+00;  9.9910352E+03;-0.65235871;0.0;0.095812008;4522.4248
  4.3953371E-01;  9.9999998E-03;  1.6004547E-01;1734;-0.16712055;0.0;0.019143732;1002.4316;  4.0000001E-01;2014.557;3;-39.473785;0.0;4.8079247;0;-0.65145409;  1.0055898E+04;  0.0000000E+00;  5.4197534E-07;  1.0000000E+04;  0.0000000E+00;  9.9928262E+03;-0.7552579;0.0;0.10380384;3648.6533
  4.3952945E-01;  9.9999998E-03;  1.8005282E-01;1735;-0.1662527;0.0;0.02129031;1002.4375;  4.0000001E-01;2019.3964;3;-38.301815;0.0;5.2293935;0;-0.64573812;  1.0056468E+04;  0.0000000E+00;  1.4663866E-06;  1.0000000E+04;  0.0000000E+00;  9.9923818E+03;-0.74736762;0.0;0.10162949;3875.665
  4.3952650E-01;  9.9999998E-03;  2.0006061E-01;1736;-0.16491668;0.0;0.023375463;1002.4386;  4.0000001E-01;2020.2852;3;-37.286678;0.0;5.6080413;0;-0.63848019;  1.0056977E+04;  0.0000000E+00;  3.7214781E-05;  1.0000000E+04;  0.0000000E+00;  9.9918965E+03;-0.7386148;0.0;0.1001346;4118.5396
  4.3952596E-01;  9.9999998E-03;  2.2006872E-01;1737;-0.16283956;0.0;0.025317881;1002.4355;  4.0000001E-01;2017.8162;3;-37.004948;0.0;6.0606875;0;-0.62975532;  1.0057380E+04;  0.0000000E+00;  1.7689359E-04;  1.0000000E+04;  0.0000000E+00;  9.9914248E+03;-0.7292763;0.0;0.099520996;4353.6479
  4.3952909E-01;  9.9999998E-03;  2.4007711E-01;1738;-0.15962747;0.0;0.027150808;1002.4304;  4.0000001E-01;2013.4706;3;-38.256584;0.0;6.8324018;0;-0.6200158;  1.0057663E+04;  0.0000000E+00;  4.8355726E-04;  1.0000000E+04;  0.0000000E+00;  9.9910420E+03;-0.71983653;0.0;0.099820733;4542.8896
  4.3953705E-01;  9.9999998E-03;  2.6008597E-01;1739;-0.15509945;0.0;0.028838599;1002.4272;  4.0000001E-01;2010.9027;3;-41.889545;0.0;7.9775705;0;-0.60976285;  1.0057824E+04;  0.0000000E+00;  9.1879122E-04;  1.0000000E+04;  0.0000000E+00;  9.9908115E+03;-0.71080017;0.0;0.1010373;4653.3652
  4.3955058E-01;  9.9999998E-03;  2.8009623E-01;1740;-0.1491278;0.0;0.030462364;1002.4144;  4.0000001E-01;2000.2365;3;-48.065994;0.0;9.6014748;0;-0.59951603;  1.0057885E+04;  0.0000000E+00;  1.1874547E-03;  1.0000000E+04;  0.0000000E+00;  9.9904990E+03;-0.70259207;0.0;0.10307604;4804.3267
  4.3956995E-01;  9.9999998E-03;  3.0010685E-01;1741;-0.1418099;0.0;0.031858161;1002.3918;  4.0000001E-01;1981.5703;3;-55.905941;0.0;11.848038;0;-0.59453225;  1.0057867E+04;  0.0000000E+00;  7.0174097E-04;  1.0000000E+04;  0.0000000E+00;  9.9900615E+03;-0.69555205;0.0;0.10101981;5020.8462
  4.5947641E-01;  9.9999998E-03;  1.6005056E-01;1765;-0.18285878;0.0;0.020210478;1002.6769;  4.0000087E-01;2217.8088;3;-41.636124;0.0;4.6547279;0;-0.69512761;  1.0061510E+04;  0.0000000E+00;  6.3969119E-06;  1.0000000E+04;  0.0000000E+00;  9.9920957E+03;-0.80465198;0.0;0.10952439;4026.7085
  4.5947137E-01;  9.9999998E-03;  1.8005860E-01;1766;-0.18182163;0.0;0.022493783;1002.6884;  4.0000090E-01;2227.29;3;-40.324547;0.0;5.062644;0;-0.68905395;  1.0062188E+04;  0.0000000E+00;  8.3673149E-06;  1.0000000E+04;  0.0000000E+00;  9.9916494E+03;-0.79591382;0.0;0.10685985;4254.7388
  4.5946774E-01;  9.9999998E-03;  2.0006710E-01;1767;-0.18029629;0.0;0.024719389;1002.6946;  4.0000096E-01;2232.4255;3;-39.189938;0.0;5.4548855;0;-0.68139654;  1.0062830E+04;  0.0000000E+00;  5.0611350E-05;  1.0000000E+04;  0.0000000E+00;  9.9911406E+03;-0.786443;0.0;0.10504645;4512.1753
  4.5946670E-01;  9.9999998E-03;  2.2007602E-01;1768;-0.17797726;0.0;0.026789607;1002.6969;  4.0000087E-01;2234.302;3;-38.859493;0.0;5.8971896;0;-0.67217892;  1.0063398E+04;  0.0000000E+00;  2.1646472E-04;  1.0000000E+04;  0.0000000E+00;  9.9906201E+03;-0.77657747;0.0;0.10439853;4771.6655
  4.5946980E-01;  9.9999998E-03;  2.4008532E-01;1769;-0.1744415;0.0;0.02873186;1002.6982;  4.0000081E-01;2235.3884;3;-40.213558;0.0;6.6868653;0;-0.66178751;  1.0063855E+04;  0.0000000E+00;  5.8263488E-04;  1.0000000E+04;  0.0000000E+00;  9.9901865E+03;-0.76682311;0.0;0.10503561;4986.7041
  4.5947820E-01;  9.9999998E-03;  2.6009542E-01;1770;-0.16946869;0.0;0.030534189;1002.7004;  4.0000090E-01;2237.1663;3;-44.170475;0.0;7.8792005;0;-0.65058929;  1.0064196E+04;  0.0000000E+00;  1.1003787E-03;  1.0000000E+04;  0.0000000E+00;  9.9898916E+03;-0.75767416;0.0;0.10708489;5127.7988
  4.5949283E-01;  9.9999998E-03;  2.8010714E-01;1771;-0.16292426;0.0;0.032208692;1002.6908;  4.0000093E-01;2229.2651;3;-50.918324;0.0;9.5386467;0;-0.63983327;  1.0064422E+04;  0.0000000E+00;  1.3944469E-03;  1.0000000E+04;  0.0000000E+00;  9.9894707E+03;-0.74952132;0.0;0.10968804;5331.6982
  4.5951417E-01;  9.9999998E-03;  3.0011913E-01;1772;-0.15489076;0.0;0.033629589;1002.6718;  4.0000078E-01;2213.4631;3;-59.505291;0.0;11.828046;0;-0.63545579;  1.0064567E+04;  0.0000000E+00;  7.0008537E-04;  1.0000000E+04;  0.0000000E+00;  9.9889424E+03;-0.74268228;0.0;0.10722651;5596.4238
  4.7941315E-01;  9.9999998E-03;  1.6005665E-01;1796;-0.19963624;0.0;0.021108605;1002.9286;  4.0000266E-01;2426.2944;3;-43.778008;0.0;4.3134384;0;-0.73781234;  1.0067268E+04;  0.0000000E+00;  2.0519199E-05;  1.0000000E+04;  0.0000000E+00;  9.9913125E+03;-0.85241109;0.0;0.11459874;4434.9131
  4.7940722E-01;  9.9999998E-03;  1.8006530E-01;1797;-0.19841991;0.0;0.023500238;1002.9478;  4.0000257E-01;2442.1951;3;-42.320103;0.0;4.7008624;0;-0.73172885;  1.0068070E+04;  0.0000000E+00;  2.7253094E-05;  1.0000000E+04;  0.0000000E+00;  9.9908936E+03;-0.84304684;0.0;0.11131801;4647.8037
  4.7940269E-01;  9.9999998E-03;  2.0007437E-01;1798;-0.19668941;0.0;0.025828104;1002.9623;  4.0000248E-01;2454.1455;3;-41.053654;0.0;5.08604;0;-0.72407639;  1.0068881E+04;  0.0000000E+00;  8.3677631E-05;  1.0000000E+04;  0.0000000E+00;  9.9903750E+03;-0.83323681;0.0;0.1091604;4910.5352
  4.7940105E-01;  9.9999998E-03;  2.2008388E-01;1799;-0.19410366;0.0;0.027998149;1002.9732;  4.0000254E-01;2463.2314;3;-40.661819;0.0;5.5117555;0;-0.71485823;  1.0069663E+04;  0.0000000E+00;  2.9026810E-04;  1.0000000E+04;  0.0000000E+00;  9.9898213E+03;-0.82339281;0.0;0.10853457;5188.8687
  4.7940385E-01;  9.9999998E-03;  2.4009396E-01;1800;-0.1902142;0.0;0.03003074;1002.9853;  4.0000239E-01;2473.2065;3;-42.114738;0.0;6.3020635;0;-0.70446575;  1.0070372E+04;  0.0000000E+00;  7.3804631E-04;  1.0000000E+04;  0.0000000E+00;  9.9893555E+03;-0.81402165;0.0;0.10955593;5419.4536
  4.7941259E-01;  9.9999998E-03;  2.6010552E-01;1801;-0.1847502;0.0;0.032009829;1002.9987;  4.0000269E-01;2484.3667;3;-46.397755;0.0;7.5522747;0;-0.69273996;  1.0070979E+04;  0.0000000E+00;  1.3580321E-03;  1.0000000E+04;  0.0000000E+00;  9.9890156E+03;-0.80555964;0.0;0.1128197;5583.9092
  4.7942823E-01;  9.9999998E-03;  2.8011924E-01;1802;-0.17759246;0.0;0.03379513;1002.9933;  4.0000245E-01;2479.9224;3;-53.738235;0.0;9.2361526;0;-0.68161476;  1.0071474E+04;  0.0000000E+00;  1.6567764E-03;  1.0000000E+04;  0.0000000E+00;  9.9884160E+03;-0.79831153;0.0;0.11669677;5875.5669
  4.7945145E-01;  9.9999998E-03;  3.0013302E-01;1803;-0.16878723;0.0;0.03527385;1002.9778;  4.0000251E-01;2466.9846;3;-63.102604;0.0;11.568027;0;-0.67828751;  1.0071869E+04;  0.0000000E+00;  6.2548340E-04;  1.0000000E+04;  0.0000000E+00;  9.9877051E+03;-0.79251307;0.0;0.11422559;6230.5684
  4.9934345E-01;  9.9999998E-03;  1.6006455E-01;1827;-0.21749164;0.0;0.021908753;1003.1692;  4.0000594E-01;2625.5945;3;-45.89048;0.0;3.7607684;0;-0.77554667;  1.0072819E+04;  0.0000000E+00;  5.0258011E-05;  1.0000000E+04;  0.0000000E+00;  9.9904170E+03;-0.89466101;0.0;0.11911437;4896.8862
  4.9933648E-01;  9.9999998E-03;  1.8007372E-01;1828;-0.21608956;0.0;0.024357894;1003.1989;  4.0000612E-01;2650.1863;3;-44.283649;0.0;4.0879374;0;-0.76992881;  1.0073748E+04;  0.0000000E+00;  6.6278822E-05;  1.0000000E+04;  0.0000000E+00;  9.9900811E+03;-0.88490051;0.0;0.11497173;5073.2397
  4.9933094E-01;  9.9999998E-03;  2.0008309E-01;1829;-0.21414797;0.0;0.026713764;1003.2236;  4.0000615E-01;2670.7288;3;-42.880836;0.0;4.4415393;0;-0.76281512;  1.0074752E+04;  0.0000000E+00;  1.4804408E-04;  1.0000000E+04;  0.0000000E+00;  9.9895801E+03;-0.87515533;0.0;0.11234023;5327.2764
  4.9932837E-01;  9.9999998E-03;  2.2009280E-01;1830;-0.21128786;0.0;0.028910683;1003.2471;  4.0000606E-01;2690.0862;3;-42.413197;0.0;4.845397;0;-0.75426489;  1.0075792E+04;  0.0000000E+00;  4.2243444E-04;  1.0000000E+04;  0.0000000E+00;  9.9890088E+03;-0.86592072;0.0;0.11165585;5612.4395
  4.9933064E-01;  9.9999998E-03;  2.4010332E-01;1831;-0.20703979;0.0;0.030962106;1003.2759;  4.0000612E-01;2713.9866;3;-43.964031;0.0;5.6234775;0;-0.74489951;  1.0076815E+04;  0.0000000E+00;  9.9588826E-04;  1.0000000E+04;  0.0000000E+00;  9.9885713E+03;-0.85768014;0.0;0.11278065;5831.4771
  4.9933934E-01;  9.9999998E-03;  2.6011640E-01;1832;-0.20106775;0.0;0.033163618;1003.3081;  4.0000609E-01;2740.6526;3;-48.580601;0.0;6.9272861;0;-0.73366821;  1.0077767E+04;  0.0000000E+00;  1.7593831E-03;  1.0000000E+04;  0.0000000E+00;  9.9882734E+03;-0.85077697;0.0;0.11710875;5976.0781
  4.9935555E-01;  9.9999998E-03;  2.8013286E-01;1833;-0.19329666;0.0;0.03518296;1003.3097;  4.0000606E-01;2742.0352;3;-56.5485;0.0;8.6573133;0;-0.72222722;  1.0078618E+04;  0.0000000E+00;  2.0368332E-03;  1.0000000E+04;  0.0000000E+00;  9.9874482E+03;-0.84537321;0.0;0.12314598;6376.1055
  4.9938014E-01;  9.9999998E-03;  3.0014905E-01;1834;-0.1837348;0.0;0.036788724;1003.2967;  4.0000600E-01;2731.27;3;-66.743385;0.0;11.04262;0;-0.72007936;  1.0079362E+04;  0.0000000E+00;  4.8736110E-04;  1.0000000E+04;  0.0000000E+00;  9.9864424E+03;-0.84153652;0.0;0.12145714;6878.7549
  5.1926702E-01;  9.9999998E-03;  1.6007525E-01;1858;-0.23643148;0.0;0.022726906;1003.3795;  4.0001661E-01;2799.8074;3;-47.96022;0.0;2.9720571;0;-0.80189276;  1.0077587E+04;  0.0000000E+00;  1.0052326E-04;  1.0000000E+04;  0.0000000E+00;  9.9893262E+03;-0.92534405;0.0;0.12345126;5453.6465
  5.1925886E-01;  9.9999998E-03;  1.8008496E-01;1859;-0.23483606;0.0;0.025180267;1003.4205;  4.0001652E-01;2833.7815;3;-46.207039;0.0;3.1995718;0;-0.79719418;  1.0078633E+04;  0.0000000E+00;  1.2731546E-04;  1.0000000E+04;  0.0000000E+00;  9.9891025E+03;-0.91538912;0.0;0.11819494;5574.7217
  5.1925212E-01;  9.9999998E-03;  2.0009440E-01;1860;-0.23268311;0.0;0.027469121;1003.457;  4.0001649E-01;2864.0027;3;-44.662086;0.0;3.4756801;0;-0.79109514;  1.0079828E+04;  0.0000000E+00;  2.5185093E-04;  1.0000000E+04;  0.0000000E+00;  9.9886436E+03;-0.90604115;0.0;0.11494598;5808.4751
  5.1924843E-01;  9.9999998E-03;  2.2010390E-01;1861;-0.22956152;0.0;0.029572494;1003.4941;  4.0001649E-01;2894.8164;3;-44.118671;0.0;3.8407631;0;-0.78385031;  1.0081134E+04;  0.0000000E+00;  6.4809807E-04;  1.0000000E+04;  0.0000000E+00;  9.9880986E+03;-0.89788169;0.0;0.11403139;6087.6147
  5.1924962E-01;  9.9999998E-03;  2.4011423E-01;1862;-0.22498442;0.0;0.031503826;1003.545;  4.0001652E-01;2936.8892;3;-45.770004;0.0;4.5917811;0;-0.77679002;  1.0082493E+04;  0.0000000E+00;  1.4396961E-03;  1.0000000E+04;  0.0000000E+00;  9.9877646E+03;-0.89136183;0.0;0.11457184;6253.7324
  5.1925766E-01;  9.9999998E-03;  2.6012847E-01;1863;-0.21854818;0.0;0.033922471;1003.6083;  4.0001640E-01;2989.4304;3;-50.744061;0.0;5.9412646;0;-0.76774907;  1.0083829E+04;  0.0000000E+00;  2.4313643E-03;  1.0000000E+04;  0.0000000E+00;  9.9876885E+03;-0.88671732;0.0;0.11896823;6287.2612
  5.1927346E-01;  9.9999998E-03;  2.8014848E-01;1864;-0.21025375;0.0;0.036347888;1003.6217;  4.0001658E-01;3000.4919;3;-59.396496;0.0;7.7559152;0;-0.75613236;  1.0085100E+04;  0.0000000E+00;  2.6495773E-03;  1.0000000E+04;  0.0000000E+00;  9.9866865E+03;-0.88392353;0.0;0.12779117;6772.5659
  5.1929802E-01;  9.9999998E-03;  3.0016786E-01;1865;-0.20010747;0.0;0.038195271;1003.6085;  4.0001655E-01;2989.5293;3;-70.532494;0.0;10.210315;0;-0.75474894;  1.0086250E+04;  0.0000000E+00;  3.3264130E-04;  1.0000000E+04;  0.0000000E+00;  9.9852813E+03;-0.88278699;0.0;0.12803802;7474.2383
  5.3918403E-01;  9.9999998E-03;  1.6008979E-01;1889;-0.25634912;0.0;0.023688845;1003.5379;  4.0004462E-01;2931.0571;3;-49.963436;0.0;1.9108591;0;-0.80788678;  1.0080757E+04;  0.0000000E+00;  1.5676091E-04;  1.0000000E+04;  0.0000000E+00;  9.9878975E+03;-0.93635726;0.0;0.1284705;6170.2729
  5.3917480E-01;  9.9999998E-03;  1.8010031E-01;1890;-0.25453949;0.0;0.026127791;1003.5884;  4.0004438E-01;2972.9321;3;-48.069916;0.0;1.9886999;0;-0.80423176;  1.0081883E+04;  0.0000000E+00;  1.9074480E-04;  1.0000000E+04;  0.0000000E+00;  9.9877959E+03;-0.92629296;0.0;0.12206118;6233.0288
  5.3916675E-01;  9.9999998E-03;  2.0010991E-01;1891;-0.25216728;0.0;0.028271323;1003.6342;  4.0004453E-01;3010.8567;3;-46.388329;0.0;2.1380458;0;-0.79924458;  1.0083218E+04;  0.0000000E+00;  3.9627095E-04;  1.0000000E+04;  0.0000000E+00;  9.9873809E+03;-0.91743338;0.0;0.11818881;6447.7202
  5.3916156E-01;  9.9999998E-03;  2.2011884E-01;1892;-0.24882261;0.0;0.030123107;1003.6836;  4.0004453E-01;3051.7441;3;-45.775162;0.0;2.4613416;0;-0.7935915;  1.0084746E+04;  0.0000000E+00;  1.0289440E-03;  1.0000000E+04;  0.0000000E+00;  9.9868555E+03;-0.91043854;0.0;0.11684704;6714.4746
  5.3916126E-01;  9.9999998E-03;  2.4012822E-01;1893;-0.24397016;0.0;0.03177993;1003.7595;  4.0004444E-01;3114.6555;3;-47.545113;0.0;3.1519339;0;-0.78987724;  1.0086389E+04;  0.0000000E+00;  2.2203801E-03;  1.0000000E+04;  0.0000000E+00;  9.9867383E+03;-0.90572721;0.0;0.11584999;6777.6973
  5.3916752E-01;  9.9999998E-03;  2.6014289E-01;1894;-0.23721036;0.0;0.034309849;1003.866;  4.0004447E-01;3202.8499;3;-52.914745;0.0;4.5492482;0;-0.78534687;  1.0088077E+04;  0.0000000E+00;  3.5888120E-03;  1.0000000E+04;  0.0000000E+00;  9.9871738E+03;-0.9034465;0.0;0.1180996;6561.0132
  5.3918123E-01;  9.9999998E-03;  2.8016692E-01;1895;-0.22860284;0.0;0.037314035;1003.9006;  4.0004444E-01;3231.491;3;-62.325249;0.0;6.4817648;0;-0.77394927;  1.0089730E+04;  0.0000000E+00;  3.6639508E-03;  1.0000000E+04;  0.0000000E+00;  9.9862168E+03;-0.90339446;0.0;0.12944517;7023.8296
  5.3920305E-01;  9.9999998E-03;  3.0019036E-01;1896;-0.21827632;0.0;0.039548144;1003.8859;  4.0004447E-01;3219.3433;3;-74.589035;0.0;9.0554037;0;-0.77249098;  1.0091265E+04;  0.0000000E+00;  2.4376431E-04;  1.0000000E+04;  0.0000000E+00;  9.9843848E+03;-0.90507364;0.0;0.13258266;7933.5161
  5.5909616E-01;  9.9999998E-03;  1.6010924E-01;1920;-0.27685994;0.0;0.024888171;1003.6592;  4.0011987E-01;3031.4905;3;-51.843109;0.0;0.50757277;0;-0.78242821;  1.0081331E+04;  0.0000000E+00;  1.6752044E-04;  1.0000000E+04;  0.0000000E+00;  9.9859336E+03;-0.91811466;0.0;0.13568644;7139.6782
  5.5908591E-01;  9.9999998E-03;  1.8012106E-01;1921;-0.27477008;0.0;0.027357157;1003.7128;  4.0011963E-01;3075.9331;3;-49.822807;0.0;0.41820523;0;-0.77921671;  1.0082441E+04;  0.0000000E+00;  2.0839182E-04;  1.0000000E+04;  0.0000000E+00;  9.9859053E+03;-0.90771246;0.0;0.12849574;7167.7988
  5.5907667E-01;  9.9999998E-03;  2.0013125E-01;1922;-0.27215406;0.0;0.029362051;1003.7601;  4.0011972E-01;3115.1416;3;-48.012157;0.0;0.4108803;0;-0.77471066;  1.0083817E+04;  0.0000000E+00;  5.8224268E-04;  1.0000000E+04;  0.0000000E+00;  9.9854902E+03;-0.8989287;0.0;0.12421807;7383.1089
  5.5906999E-01;  9.9999998E-03;  2.2013982E-01;1923;-0.26860508;0.0;0.030887078;1003.8143;  4.0011978E-01;3159.9792;3;-47.374825;0.0;0.61042267;0;-0.77008098;  1.0085420E+04;  0.0000000E+00;  1.6648610E-03;  1.0000000E+04;  0.0000000E+00;  9.9849834E+03;-0.89243364;0.0;0.12235265;7642.3667
  5.5906749E-01;  9.9999998E-03;  2.4014765E-01;1924;-0.26354736;0.0;0.032101214;1003.912;  4.0011960E-01;3241.0627;3;-49.25264;0.0;1.2275792;0;-0.76986653;  1.0087188E+04;  0.0000000E+00;  3.5593407E-03;  1.0000000E+04;  0.0000000E+00;  9.9851787E+03;-0.8885572;0.0;0.11869066;7553.3438
  5.5907065E-01;  9.9999998E-03;  2.6016188E-01;1925;-0.25669393;0.0;0.034514662;1004.069;  4.0011957E-01;3371.1318;3;-55.059429;0.0;2.6305809;0;-0.77185285;  1.0089043E+04;  0.0000000E+00;  5.5234279E-03;  1.0000000E+04;  0.0000000E+00;  9.9864561E+03;-0.88743049;0.0;0.11557762;6925.3579
  5.5908000E-01;  9.9999998E-03;  2.8018996E-01;1926;-0.24811606;0.0;0.03820492;1004.1364;  4.0011957E-01;3426.8335;3;-65.304543;0.0;4.7872224;0;-0.76134789;  1.0090912E+04;  0.0000000E+00;  5.2772062E-03;  1.0000000E+04;  0.0000000E+00;  9.9859316E+03;-0.88884723;0.0;0.12749931;7172.5874
  5.5909526E-01;  9.9999998E-03;  3.0021805E-01;1927;-0.23822802;0.0;0.040962487;1004.12;  4.0011954E-01;3413.3032;3;-78.921654;0.0;7.5603027;0;-0.75843287;  1.0092677E+04;  0.0000000E+00;  3.2890087E-04;  1.0000000E+04;  0.0000000E+00;  9.9838369E+03;-0.89214808;0.0;0.13371523;8210.291
  5.7900679E-01;  9.9999998E-03;  1.6013381E-01;1951;-0.29708347;0.0;0.026407447;1003.8594;  4.0031919E-01;3197.3999;3;-53.461189;0.0;-1.0659237;0;-0.71180797;  1.0078048E+04;  0.0000000E+00;  5.5722590E-05;  1.0000000E+04;  0.0000000E+00;  9.9831992E+03;-0.8590067;0.0;0.14719875;8473.6865
  5.7899594E-01;  9.9999998E-03;  1.8014795E-01;1952;-0.2946251;0.0;0.028968321;1003.9042;  4.0031934E-01;3234.5342;3;-51.340591;0.0;-1.4411598;0;-0.7074613;  1.0079015E+04;  0.0000000E+00;  1.2048725E-04;  1.0000000E+04;  0.0000000E+00;  9.9831416E+03;-0.84739065;0.0;0.13992935;8514.6348
  5.7898587E-01;  9.9999998E-03;  2.0015959E-01;1953;-0.29166064;0.0;0.030973619;1003.9396;  4.0031922E-01;3263.8662;3;-49.417545;0.0;-1.6938663;0;-0.70172518;  1.0080223E+04;  0.0000000E+00;  8.0297794E-04;  1.0000000E+04;  0.0000000E+00;  9.9826611E+03;-0.83724874;0.0;0.13552354;8760.5898
  5.7897782E-01;  9.9999998E-03;  2.2016856E-01;1954;-0.28779542;0.0;0.032302462;1003.9847;  4.0031907E-01;3301.1982;3;-48.722622;0.0;-1.6053923;0;-0.69603074;  1.0081627E+04;  0.0000000E+00;  2.6480418E-03;  1.0000000E+04;  0.0000000E+00;  9.9821621E+03;-0.82897174;0.0;0.13294104;9014.4561
  5.7897258E-01;  9.9999998E-03;  2.4017516E-01;1955;-0.28278038;0.0;0.03285338;1004.0906;  4.0031895E-01;3388.9971;3;-50.772747;0.0;-1.1924118;0;-0.69744152;  1.0083171E+04;  0.0000000E+00;  5.7069045E-03;  1.0000000E+04;  0.0000000E+00;  9.9827383E+03;-0.82285887;0.0;0.12541734;8739.1973
  5.7897168E-01;  9.9999998E-03;  2.6018894E-01;1956;-0.2760624;0.0;0.034967836;1004.2906;  4.0031892E-01;3554.7185;3;-57.031784;0.0;0.24830699;0;-0.70570815;  1.0084812E+04;  0.0000000E+00;  8.6184097E-03;  1.0000000E+04;  0.0000000E+00;  9.9850830E+03;-0.81937772;0.0;0.11366956;7591.4219
  5.7897449E-01;  9.9999998E-03;  2.8022069E-01;1957;-0.26790297;0.0;0.039293002;1004.3936;  4.0031886E-01;3639.9497;3;-68.194489;0.0;2.6462209;0;-0.69639361;  1.0086511E+04;  0.0000000E+00;  7.8080026E-03;  1.0000000E+04;  0.0000000E+00;  9.9854287E+03;-0.81874353;0.0;0.12234995;7407.4541
  5.7897902E-01;  9.9999998E-03;  3.0025327E-01;1958;-0.25912607;0.0;0.042676166;1004.3769;  4.0031865E-01;3626.123;3;-83.383743;0.0;5.7663546;0;-0.68952632;  1.0088162E+04;  0.0000000E+00;  8.4249879E-04;  1.0000000E+04;  0.0000000E+00;  9.9834404E+03;-0.82048333;0.0;0.13095699;8386.8184
  5.9892130E-01;  9.9999998E-03;  1.6016285E-01;1982;-0.31584033;0.0;0.027999753;1004.4937;  4.0082639E-01;3722.8926;3;-54.767506;0.0;-3.0805132;0;-0.57516122;  1.0069109E+04;  0.0000000E+00; -2.4865477E-04;  1.0000000E+04;  0.0000000E+00;  9.9794639E+03;-0.74024314;0.0;0.1650819;10271.747
  5.9890974E-01;  9.9999998E-03;  1.8017951E-01;1983;-0.31292716;0.0;0.030780487;1004.5131;  4.0082607E-01;3738.9907;3;-52.388668;0.0;-3.5801146;0;-0.56714571;  1.0069704E+04;  0.0000000E+00; -1.3447730E-04;  1.0000000E+04;  0.0000000E+00;  9.9792813E+03;-0.72542572;0.0;0.15828;10372.76
  5.9889895E-01;  9.9999998E-03;  2.0019357E-01;1984;-0.3095884;0.0;0.032821592;1004.5193;  4.0082592E-01;3744.1262;3;-50.374756;0.0;-4.0201631;0;-0.55729842;  1.0070419E+04;  0.0000000E+00;  1.0420217E-03;  1.0000000E+04;  0.0000000E+00;  9.9787119E+03;-0.71073997;0.0;0.15344155;10660.742
  5.9888965E-01;  9.9999998E-03;  2.2020449E-01;1985;-0.3055149;0.0;0.033963341;1004.5356;  4.0082586E-01;3757.5579;3;-49.741066;0.0;-4.2586765;0;-0.54736108;  1.0071184E+04;  0.0000000E+00;  4.1103470E-03;  1.0000000E+04;  0.0000000E+00;  9.9782832E+03;-0.69626534;0.0;0.14890426;10878.741
  5.9888250E-01;  9.9999998E-03;  2.4021292E-01;1986;-0.30034021;0.0;0.034460094;1004.6258;  4.0082550E-01;3832.3198;3;-52.032005;0.0;-4.097146;0;-0.54604667;  1.0071985E+04;  0.0000000E+00;  9.0404693E-03;  1.0000000E+04;  0.0000000E+00;  9.9792900E+03;-0.68271571;0.0;0.13666905;10392.183
  5.9887755E-01;  9.9999998E-03;  2.6022956E-01;1987;-0.29379314;0.0;0.036547232;1004.8295;  4.0082514E-01;4001.1023;3;-58.681286;0.0;-2.6712325;0;-0.55504209;  1.0072858E+04;  0.0000000E+00;  1.3478282E-02;  1.0000000E+04;  0.0000000E+00;  9.9824609E+03;-0.67138332;0.0;0.11634126;8842.9854
  5.9887248E-01;  9.9999998E-03;  2.8026426E-01;1988;-0.28644636;0.0;0.041181561;1004.9473;  4.0082479E-01;4098.6782;3;-70.742821;0.0;0.086700886;0;-0.54568136;  1.0073834E+04;  0.0000000E+00;  1.1843403E-02;  1.0000000E+04;  0.0000000E+00;  9.9838242E+03;-0.66325712;0.0;0.11757578;8158.7666
  5.9886414E-01;  9.9999998E-03;  3.0029997E-01;1989;-0.2792713;0.0;0.045138709;1004.9279;  4.0082443E-01;4082.5801;3;-87.499001;0.0;3.6222122;0;-0.53099686;  1.0074852E+04;  0.0000000E+00;  2.1590609E-03;  1.0000000E+04;  0.0000000E+00;  9.9824238E+03;-0.65828174;0.0;0.12728488;8839.0303
  6.1884511E-01;  9.9999998E-03;  1.6019528E-01;2013;-0.33195555;0.0;0.029196188;1006.2971;  4.0199083E-01;5216.917;3;-55.596504;0.0;-5.4529405;0;-0.33946335;  1.0051903E+04;  0.0000000E+00; -7.6207251E-04;  1.0000000E+04;  0.0000000E+00;  9.9746309E+03;-0.52998006;0.0;0.19051673;12573.497
  6.1883247E-01;  9.9999998E-03;  1.8021458E-01;2014;-0.32874113;0.0;0.032176483;1006.2753;  4.0199009E-01;5198.8442;3;-53.0979;0.0;-6.1600037;0;-0.32513344;  1.0051837E+04;  0.0000000E+00; -5.3007435E-04;  1.0000000E+04;  0.0000000E+00;  9.9742910E+03;-0.50905645;0.0;0.18392302;12748.465
  6.1882019E-01;  9.9999998E-03;  2.0023179E-01;2015;-0.32523474;0.0;0.034367353;1006.2346;  4.0198967E-01;5165.0679;3;-51.005405;0.0;-6.9107447;0;-0.30849046;  1.0051649E+04;  0.0000000E+00;  1.4359889E-03;  1.0000000E+04;  0.0000000E+00;  9.9737070E+03;-0.48574492;0.0;0.17725447;13043.385
  6.1880964E-01;  9.9999998E-03;  2.2024763E-01;2016;-0.32094321;0.0;0.03589667;1006.2048;  4.0198928E-01;5140.3779;3;-50.381371;0.0;-7.451478;0;-0.29167348;  1.0051285E+04;  0.0000000E+00;  6.3594286E-03;  1.0000000E+04;  0.0000000E+00;  9.9735039E+03;-0.46018025;0.0;0.16850676;13149.342
  6.1879981E-01;  9.9999998E-03;  2.4026214E-01;2017;-0.31579888;0.0;0.03691677;1006.2552;  4.0198857E-01;5182.2524;3;-52.875225;0.0;-7.3301716;0;-0.28435209;  1.0050797E+04;  0.0000000E+00;  1.3970581E-02;  1.0000000E+04;  0.0000000E+00;  9.9750000E+03;-0.4339467;0.0;0.1495946;12422.954
  6.1879176E-01;  9.9999998E-03;  2.6028779E-01;2018;-0.30939499;0.0;0.0400097;1006.3987;  4.0198785E-01;5301.1597;3;-60.083832;0.0;-6.0356126;0;-0.28414088;  1.0050344E+04;  0.0000000E+00;  2.0386005E-02;  1.0000000E+04;  0.0000000E+00;  9.9783066E+03;-0.40934101;0.0;0.12520011;10803.203
  6.1878264E-01;  9.9999998E-03;  2.8032839E-01;2019;-0.30233282;0.0;0.04478354;1006.4419;  4.0198699E-01;5336.9111;3;-72.991066;0.0;-2.9357102;0;-0.2684665;  1.0050030E+04;  0.0000000E+00;  1.7714977E-02;  1.0000000E+04;  0.0000000E+00;  9.9794707E+03;-0.38814011;0.0;0.11967361;10219.529
  6.1876363E-01;  9.9999998E-03;  3.0036405E-01;2020;-0.29638097;0.0;0.049113426;1006.4078;  4.0198606E-01;5308.5674;3;-91.011513;0.0;1.5630406;0;-0.2405263;  1.0049851E+04;  0.0000000E+00;  4.4256588E-03;  1.0000000E+04;  0.0000000E+00;  9.9790195E+03;-0.37075514;0.0;0.13022883;10418.976
  6.3878167E-01;  9.9999998E-03;  1.6022971E-01;2044;-0.34469485;0.0;0.029751064;1009.9479;  4.0413868E-01;8241.3877;3;-55.967102;0.0;-8.1697359;0;0.0331503;  1.0023701E+04;  0.0000000E+00; -1.2869484E-03;  1.0000000E+04;  0.0000000E+00;  9.9688018E+03;-0.18987632;0.0;0.22302662;15314.295
  6.3876826E-01;  9.9999998E-03;  1.8025284E-01;2045;-0.34123117;0.0;0.032968786;1009.8759;  4.0413803E-01;8181.7363;3;-53.358833;0.0;-9.1877079;0;0.054258645;  1.0022706E+04;  0.0000000E+00; -7.3799910E-04;  1.0000000E+04;  0.0000000E+00;  9.9684072E+03;-0.16083252;0.0;0.21509117;15515.397
  6.3875395E-01;  9.9999998E-03;  2.0027500E-01;2046;-0.33770254;0.0;0.035752639;1009.7818;  4.0413710E-01;8103.8164;3;-51.27813;0.0;-10.195779;0;0.077287346;  1.0021306E+04;  0.0000000E+00;  2.4157262E-03;  1.0000000E+04;  0.0000000E+00;  9.9680000E+03;-0.12661867;0.0;0.20390601;15722.611
  6.3874084E-01;  9.9999998E-03;  2.2029948E-01;2047;-0.33366442;0.0;0.038452629;1009.7006;  4.0413639E-01;8036.4624;3;-50.699223;0.0;-10.884504;0;0.099987186;  1.0019469E+04;  0.0000000E+00;  9.7107524E-03;  1.0000000E+04;  0.0000000E+00;  9.9682578E+03;-0.087744482;0.0;0.18773167;15602.563
  6.3873011E-01;  9.9999998E-03;  2.4033216E-01;2048;-0.32854033;0.0;0.041762155;1009.6677;  4.0413535E-01;8009.3037;3;-53.434647;0.0;-10.968059;0;0.11775281;  1.0017369E+04;  0.0000000E+00;  2.0275516E-02;  1.0000000E+04;  0.0000000E+00;  9.9697334E+03;-0.046567313;0.0;0.16432013;14885.017
  6.3872164E-01;  9.9999998E-03;  2.6037562E-01;2049;-0.32201767;0.0;0.04676412;1009.6353;  4.0413442E-01;7982.3423;3;-61.106869;0.0;-9.5536137;0;0.13983603;  1.0015235E+04;  0.0000000E+00;  2.8304843E-02;  1.0000000E+04;  0.0000000E+00;  9.9712246E+03;-0.006094222;0.0;0.14593025;14150.542
  6.3871104E-01;  9.9999998E-03;  2.8041759E-01;2050;-0.314845;0.0;0.050906211;1009.5363;  4.0413329E-01;7900.3716;3;-74.618439;0.0;-6.106328;0;0.16764161;  1.0013241E+04;  0.0000000E+00;  2.3763496E-02;  1.0000000E+04;  0.0000000E+00;  9.9712695E+03;0.031399403;0.0;0.13624221;14119.09
  6.3868970E-01;  9.9999998E-03;  3.0044967E-01;2051;-0.30875921;0.0;0.055328194;1009.4529;  4.0413141E-01;7831.3389;3;-93.374672;0.0;-0.40376562;0;0.21807283;  1.0011438E+04;  0.0000000E+00;  6.7139179E-03;  1.0000000E+04;  0.0000000E+00;  9.9715049E+03;0.065116689;0.0;0.15295614;13954.859
  6.5873575E-01;  9.9999998E-03;  1.6026902E-01;2075;-0.35353398;0.0;0.029847296;1014.387;  4.0686929E-01;11918.868;3;-55.964191;0.0;-11.357698;0;0.56485999;  9.9832012E+03;  0.0000000E+00; -1.3382999E-03;  1.0000000E+04;  0.0000000E+00;  9.9623633E+03;0.30483592;0.0;0.26002407;18304.664
  6.5872246E-01;  9.9999998E-03;  1.8029857E-01;2076;-0.34980777;0.0;0.034008395;1014.2735;  4.0686852E-01;11824.851;3;-53.388588;0.0;-12.688597;0;0.58829212;  9.9812119E+03;  0.0000000E+00; -1.5251507E-04;  1.0000000E+04;  0.0000000E+00;  9.9621553E+03;0.34044865;0.0;0.24784344;18413.84
  6.5870851E-01;  9.9999998E-03;  2.0033188E-01;2077;-0.345824;0.0;0.038565375;1014.1391;  4.0686810E-01;11713.451;3;-51.228958;0.0;-13.951205;0;0.61181104;  9.9785723E+03;  0.0000000E+00;  4.4145440E-03;  1.0000000E+04;  0.0000000E+00;  9.9621807E+03;0.38299283;0.0;0.22881821;18408.559
  6.5869677E-01;  9.9999998E-03;  2.2037713E-01;2078;-0.34114128;0.0;0.044543367;1014.0043;  4.0686750E-01;11601.854;3;-50.681335;0.0;-14.829816;0;0.63658231;  9.9753271E+03;  0.0000000E+00;  1.3852640E-02;  1.0000000E+04;  0.0000000E+00;  9.9627949E+03;0.43172419;0.0;0.20485811;18115.26
  6.5868932E-01;  9.9999998E-03;  2.4043903E-01;2079;-0.33519486;0.0;0.052370403;1013.8292;  4.0686709E-01;11456.777;3;-53.499271;0.0;-14.787131;0;0.67143011;  9.9716797E+03;  0.0000000E+00;  2.6338903E-02;  1.0000000E+04;  0.0000000E+00;  9.9629814E+03;0.48423108;0.0;0.187199;18021.738
  6.5868163E-01;  9.9999998E-03;  2.6049292E-01;2080;-0.32838586;0.0;0.057518143;1013.5674;  4.0686697E-01;11239.903;3;-61.524853;0.0;-12.890092;0;0.71706372;  9.9679160E+03;  0.0000000E+00;  3.4178298E-02;  1.0000000E+04;  0.0000000E+00;  9.9615762E+03;0.53755605;0.0;0.17950766;18708.982
  6.5867054E-01;  9.9999998E-03;  2.8052482E-01;2081;-0.32117838;0.0;0.059649095;1013.3437;  4.0686643E-01;11054.534;3;-75.475639;0.0;-9.2864933;0;0.75597495;  9.9642314E+03;  0.0000000E+00;  2.6329499E-02;  1.0000000E+04;  0.0000000E+00;  9.9608574E+03;0.58949947;0.0;0.16647549;19053.213
  6.5865237E-01;  9.9999998E-03;  3.0054957E-01;2082;-0.31349251;0.0;0.063302703;1013.2112;  4.0686467E-01;10944.814;3;-93.516106;0.0;-1.6727966;0;0.82165933;  9.9607441E+03;  0.0000000E+00;  6.0297800E-03;  1.0000000E+04;  0.0000000E+00;  9.9618125E+03;0.63838822;0.0;0.18327108;18518.357
  6.7871869E-01;  9.9999998E-03;  1.6032781E-01;2106;-0.35642487;0.0;0.032972295;1016.9758;  4.0907699E-01;14063.304;3;-55.705368;0.0;-15.267271;0;1.2367833;  9.9324043E+03;  0.0000000E+00; -5.4471917E-04;  1.0000000E+04;  0.0000000E+00;  9.9559199E+03;0.93979925;0.0;0.29698396;21252.771
  6.7870659E-01;  9.9999998E-03;  1.8036716E-01;2107;-0.35208398;0.0;0.03913182;1016.8504;  4.0907708E-01;13959.411;3;-52.997356;0.0;-16.52528;0;1.2521722;  9.9296484E+03;  0.0000000E+00;  1.4273558E-03;  1.0000000E+04;  0.0000000E+00;  9.9562275E+03;0.97507954;0.0;0.27709275;21109.26
  6.7869443E-01;  9.9999998E-03;  2.0041560E-01;2108;-0.34743381;0.0;0.046596039;1016.708;  4.0907726E-01;13841.496;3;-50.703655;0.0;-17.642885;0;1.2646846;  9.9261748E+03;  0.0000000E+00;  6.9826711E-03;  1.0000000E+04;  0.0000000E+00;  9.9569219E+03;1.0168418;0.0;0.2478428;20782.305
  6.7868716E-01;  9.9999998E-03;  2.2048491E-01;2109;-0.34143224;0.0;0.056829263;1016.5377;  4.0907753E-01;13700.372;3;-49.974731;0.0;-18.378653;0;1.2831117;  9.9220508E+03;  0.0000000E+00;  1.7074600E-02;  1.0000000E+04;  0.0000000E+00;  9.9576982E+03;1.0647326;0.0;0.21837914;20408.902
  6.7868614E-01;  9.9999998E-03;  2.4056616E-01;2110;-0.33375475;0.0;0.066475235;1016.2368;  4.0907851E-01;13451.109;3;-52.488892;0.0;-18.433764;0;1.3251098;  9.9174707E+03;  0.0000000E+00;  2.8876878E-02;  1.0000000E+04;  0.0000000E+00;  9.9563457E+03;1.1173841;0.0;0.20772576;21071.344
  6.7867947E-01;  9.9999998E-03;  2.6060864E-01;2111;-0.326628;0.0;0.068372495;1015.8688;  4.0907970E-01;13146.246;3;-60.187531;0.0;-16.656605;0;1.3710612;  9.9126621E+03;  0.0000000E+00;  3.3513345E-02;  1.0000000E+04;  0.0000000E+00;  9.9538828E+03;1.1728554;0.0;0.19820587;22279.4
  6.7867225E-01;  9.9999998E-03;  2.8062457E-01;2112;-0.31761363;0.0;0.067829072;1015.6231;  4.0908006E-01;12942.708;3;-73.57373;0.0;-12.249053;0;1.4058666;  9.9078223E+03;  0.0000000E+00;  2.1262873E-02;  1.0000000E+04;  0.0000000E+00;  9.9538818E+03;1.2295825;0.0;0.17628407;22271.752
  6.7867565E-01;  9.9999998E-03;  3.0064067E-01;2113;-0.30331099;0.0;0.071217291;1015.4947;  4.0907967E-01;12836.347;3;-87.66494;0.0;-0.97673035;0;1.4818208;  9.9032266E+03;  0.0000000E+00;  1.5159821E-03;  1.0000000E+04;  0.0000000E+00;  9.9559727E+03;1.2839652;0.0;0.19785556;21151.305
  6.9875300E-01;  9.9999998E-03;  1.6042109E-01;2137;-0.34857586;0.0;0.045211963;1016.9203;  4.1030008E-01;14017.105;3;-54.57169;0.0;-18.948481;0;1.9716752;  9.8776689E+03;  0.0000000E+00;  6.7934016E-04;  1.0000000E+04;  0.0000000E+00;  9.9501816E+03;1.6430925;0.0;0.3285827;23835.311
  6.9874531E-01;  9.9999998E-03;  1.8047410E-01;2138;-0.34230468;0.0;0.054953068;1016.8228;  4.1030085E-01;13936.324;3;-51.216568;0.0;-19.629511;0;1.9653732;  9.8746475E+03;  0.0000000E+00;  3.0475506E-03;  1.0000000E+04;  0.0000000E+00;  9.9512969E+03;1.6666052;0.0;0.29876789;23302.762
  6.9873887E-01;  9.9999998E-03;  2.0053855E-01;2139;-0.33535424;0.0;0.066221356;1016.7109;  4.1030157E-01;13843.593;3;-47.990322;0.0;-20.209877;0;1.9542297;  9.8710840E+03;  0.0000000E+00;  8.4005166E-03;  1.0000000E+04;  0.0000000E+00;  9.9526719E+03;1.6934087;0.0;0.26082098;22645.328
  6.9874024E-01;  9.9999998E-03;  2.2061898E-01;2140;-0.32645407;0.0;0.077218138;1016.5385;  4.1030252E-01;13700.793;3;-46.498039;0.0;-21.35738;0;1.9555765;  9.8670400E+03;  0.0000000E+00;  1.7028820E-02;  1.0000000E+04;  0.0000000E+00;  9.9533311E+03;1.7240025;0.0;0.23157401;22329.279
  6.9874567E-01;  9.9999998E-03;  2.4068742E-01;2141;-0.31841964;0.0;0.080752343;1016.2165;  4.1030437E-01;13434.055;3;-49.27594;0.0;-22.335705;0;1.9774274;  9.8626221E+03;  0.0000000E+00;  2.5678232E-02;  1.0000000E+04;  0.0000000E+00;  9.9514014E+03;1.7588189;0.0;0.21860848;23281.307
  6.9874072E-01;  9.9999998E-03;  2.6070273E-01;2142;-0.31088829;0.0;0.076522805;1015.9081;  4.1030616E-01;13178.575;3;-55.22068;0.0;-20.256031;0;1.9892685;  9.8579639E+03;  0.0000000E+00;  2.5630629E-02;  1.0000000E+04;  0.0000000E+00;  9.9499756E+03;1.7977455;0.0;0.19152313;23995.787
  6.9876891E-01;  9.9999998E-03;  2.8070241E-01;2143;-0.28934333;0.0;0.073379613;1015.7656;  4.1030717E-01;13060.465;3;-61.323357;0.0;-16.167568;0;1.9978898;  9.8532432E+03;  0.0000000E+00;  1.4288290E-02;  1.0000000E+04;  0.0000000E+00;  9.9518574E+03;1.8399051;0.0;0.15798467;23059.256
  6.9887984E-01;  9.9999998E-03;  3.0071399E-01;2144;-0.24484511;0.0;0.076271951;1015.6907;  4.1030815E-01;12998.443;3;-63.059395;0.0;-3.8941729;0;2.057936;  9.8489141E+03;  0.0000000E+00;  1.1834979E-02;  1.0000000E+04;  0.0000000E+00;  9.9546064E+03;1.8796794;0.0;0.17825645;21617.176
  7.1891969E-01;  9.9999998E-03;  1.6055584E-01;2168;-0.30832842;0.0;0.07763952;1015.5228;  4.1084203E-01;12859.054;3;-46.232777;0.0;-18.814486;0;2.6407251;  9.8288965E+03;  0.0000000E+00;  1.3392083E-03;  1.0000000E+04;  0.0000000E+00;  9.9457480E+03;2.2898281;0.0;0.35089698;25803.225
  7.1891475E-01;  9.9999998E-03;  1.8061671E-01;2169;-0.30024263;0.0;0.087868482;1015.4877;  4.1084304E-01;12829.922;3;-41.812622;0.0;-20.944397;0;2.6019149;  9.8262275E+03;  0.0000000E+00;  3.2958265E-03;  1.0000000E+04;  0.0000000E+00;  9.9477256E+03;2.289413;0.0;0.31250185;24850.525
  7.1891350E-01;  9.9999998E-03;  2.0068084E-01;2170;-0.29123199;0.0;0.093402281;1015.4404;  4.1084394E-01;12790.717;3;-38.199547;0.0;-25.426765;0;2.5564916;  9.8234111E+03;  0.0000000E+00;  7.1846200E-03;  1.0000000E+04;  0.0000000E+00;  9.9496230E+03;2.28672;0.0;0.26977167;23941.252
  7.1892059E-01;  9.9999998E-03;  2.2073661E-01;2171;-0.28149691;0.0;0.09317214;1015.3353;  4.1084492E-01;12703.716;3;-36.281853;0.0;-28.077148;0;2.5191209;  9.8205488E+03;  0.0000000E+00;  1.3064300E-02;  1.0000000E+04;  0.0000000E+00;  9.9504150E+03;2.2827256;0.0;0.23639543;23567.586
  7.1895134E-01;  9.9999998E-03;  2.4077109E-01;2172;-0.26507294;0.0;0.088251039;1015.1267;  4.1084665E-01;12530.899;3;-35.128204;0.0;-28.036427;0;2.4918077;  9.8176572E+03;  0.0000000E+00;  1.9057248E-02;  1.0000000E+04;  0.0000000E+00;  9.9491904E+03;2.279918;0.0;0.21188973;24188.363
  7.1902043E-01;  9.9999998E-03;  2.6076442E-01;2173;-0.23482628;0.0;0.079984426;1015.0056;  4.1084865E-01;12430.563;3;-34.534851;0.0;-25.661137;0;2.445049;  9.8147402E+03;  0.0000000E+00;  2.3406966E-02;  1.0000000E+04;  0.0000000E+00;  9.9496572E+03;2.2799466;0.0;0.16510248;23992.504
  7.1912658E-01;  9.9999998E-03;  2.8075650E-01;2174;-0.19397949;0.0;0.076974981;1015.0622;  4.1084921E-01;12477.471;3;-34.24984;0.0;-19.373718;0;2.4090793;  9.8119727E+03;  0.0000000E+00;  2.6852777E-02;  1.0000000E+04;  0.0000000E+00;  9.9534639E+03;2.2812529;0.0;0.12782654;22110.912
  7.1924716E-01;  9.9999998E-03;  3.0076829E-01;2175;-0.15416345;0.0;0.08003673;1015.0836;  4.1084942E-01;12495.146;3;-34.440395;0.0;-6.8855829;0;2.4404864;  9.8097002E+03;  0.0000000E+00;  2.1506403E-02;  1.0000000E+04;  0.0000000E+00;  9.9560938E+03;2.2800713;0.0;0.16041511;20721.053
  7.3929751E-01;  9.9999998E-03;  1.6058038E-01;2199;-0.19980128;0.0;0.074237555;1014.2062;  4.1105813E-01;11767.999;3;-27.568943;0.0;-24.538355;0;3.1038043;  9.7960840E+03;  0.0000000E+00;  1.0757078E-03;  1.0000000E+04;  0.0000000E+00;  9.9428369E+03;2.7401271;0.0;0.36367726;27080.307
  7.3929745E-01;  9.9999998E-03;  1.8063995E-01;2200;-0.19272935;0.0;0.084691912;1014.254;  4.1105875E-01;11807.498;3;-24.271166;0.0;-25.574511;0;3.0287056;  9.7942178E+03;  0.0000000E+00;  2.1045320E-03;  1.0000000E+04;  0.0000000E+00;  9.9456201E+03;2.709727;0.0;0.31897846;25736.357
  7.3930073E-01;  9.9999998E-03;  2.0070186E-01;2201;-0.18503316;0.0;0.091035545;1014.3226;  4.1105971E-01;11864.378;3;-21.299692;0.0;-30.390125;0;2.9383564;  9.7927393E+03;  0.0000000E+00;  4.1742516E-03;  1.0000000E+04;  0.0000000E+00;  9.9484395E+03;2.6704211;0.0;0.26793516;24385.32
  7.3931497E-01;  9.9999998E-03;  2.2075179E-01;2202;-0.17467362;0.0;0.089615524;1014.3805;  4.1106045E-01;11912.271;3;-19.13648;0.0;-32.813679;0;2.8451884;  9.7917969E+03;  0.0000000E+00;  7.6978318E-03;  1.0000000E+04;  0.0000000E+00;  9.9504971E+03;2.6232419;0.0;0.22194648;23407.803
  7.3934877E-01;  9.9999998E-03;  2.4078256E-01;2203;-0.15917148;0.0;0.085131116;1014.4031;  4.1106156E-01;11931.032;3;-17.952051;0.0;-32.110165;0;2.7521074;  9.7913926E+03;  0.0000000E+00;  1.2522175E-02;  1.0000000E+04;  0.0000000E+00;  9.9512930E+03;2.5711353;0.0;0.18097201;23051.709
  7.3940247E-01;  9.9999998E-03;  2.6078433E-01;2204;-0.13821192;0.0;0.07975518;1014.5109;  4.1106260E-01;12020.301;3;-17.472956;0.0;-29.444572;0;2.6496289;  9.7913916E+03;  0.0000000E+00;  1.7592238E-02;  1.0000000E+04;  0.0000000E+00;  9.9533418E+03;2.517621;0.0;0.13200785;22082.859
  7.3947203E-01;  9.9999998E-03;  2.8079173E-01;2205;-0.11322436;0.0;0.077653676;1014.6566;  4.1106254E-01;12141.067;3;-17.540476;0.0;-22.279398;0;2.5556829;  9.7916807E+03;  0.0000000E+00;  1.8317003E-02;  1.0000000E+04;  0.0000000E+00;  9.9558613E+03;2.465806;0.0;0.089876778;20864.893
  7.3954862E-01;  9.9999998E-03;  3.0080625E-01;2206;-0.089427337;0.0;0.083621427;1014.7935;  4.1106221E-01;12254.43;3;-18.013214;0.0;-5.8174009;0;2.5786772;  9.7921270E+03;  0.0000000E+00;  2.7784624E-03;  1.0000000E+04;  0.0000000E+00;  9.9580596E+03;2.4191489;0.0;0.15952815;19644.059
  7.5959772E-01;  9.9999998E-03;  1.6057941E-01;2230;-0.11714961;0.0;0.064264312;1013.6423;  4.1113916E-01;11300.257;3;-16.764246;0.0;-30.206676;0;3.3017037;  9.7829873E+03;  0.0000000E+00;  4.5670464E-04;  1.0000000E+04;  0.0000000E+00;  9.9412764E+03;2.931942;0.0;0.36976177;27770.826
  7.5960207E-01;  9.9999998E-03;  1.8063377E-01;2231;-0.11140146;0.0;0.072983854;1013.7599;  4.1113985E-01;11397.717;3;-14.598642;0.0;-31.369982;0;3.2000885;  9.7820449E+03;  0.0000000E+00;  7.1535335E-04;  1.0000000E+04;  0.0000000E+00;  9.9444902E+03;2.8758554;0.0;0.32423308;26216.545
  7.5960845E-01;  9.9999998E-03;  2.0069183E-01;2232;-0.10564937;0.0;0.081452817;1013.9291;  4.1114056E-01;11537.834;3;-12.81348;0.0;-32.980774;0;3.0752325;  9.7819707E+03;  0.0000000E+00;  1.3586566E-03;  1.0000000E+04;  0.0000000E+00;  9.9478408E+03;2.8056371;0.0;0.26959535;24610.834
  7.5962096E-01;  9.9999998E-03;  2.2074379E-01;2233;-0.098717973;0.0;0.082906656;1014.1291;  4.1114110E-01;11703.428;3;-11.562737;0.0;-36.670212;0;2.9392645;  9.7829512E+03;  0.0000000E+00;  2.6358035E-03;  1.0000000E+04;  0.0000000E+00;  9.9507373E+03;2.7221699;0.0;0.21709463;23233.002
  7.5964320E-01;  9.9999998E-03;  2.4077763E-01;2234;-0.089605875;0.0;0.079928473;1014.3459;  4.1114148E-01;11883.141;3;-10.943423;0.0;-36.840755;0;2.7941699;  9.7849102E+03;  0.0000000E+00;  4.5242612E-03;  1.0000000E+04;  0.0000000E+00;  9.9529541E+03;2.6294751;0.0;0.1646947;22195.615
  7.5967485E-01;  9.9999998E-03;  2.6079181E-01;2235;-0.078205459;0.0;0.078440927;1014.6331;  4.1114181E-01;12120.915;3;-10.974785;0.0;-32.763603;0;2.6513743;  9.7875791E+03;  0.0000000E+00;  5.9802467E-03;  1.0000000E+04;  0.0000000E+00;  9.9558389E+03;2.5335729;0.0;0.11780152;20820.186
  7.5971192E-01;  9.9999998E-03;  2.8081620E-01;2236;-0.065563709;0.0;0.076271787;1014.8157;  4.1114151E-01;12272.189;3;-11.5488;0.0;-24.968309;0;2.4977839;  9.7905420E+03;  0.0000000E+00;  2.8991972E-03;  1.0000000E+04;  0.0000000E+00;  9.9563877E+03;2.441354;0.0;0.056429818;20621.439
  7.5975382E-01;  9.9999998E-03;  3.0083376E-01;2237;-0.05315575;0.0;0.087501653;1015.0577;  4.1114077E-01;12472.639;3;-12.30762;0.0;-2.4001939;0;2.5504036;  9.7933184E+03;  0.0000000E+00; -1.1467115E-02;  1.0000000E+04;  0.0000000E+00;  9.9583086E+03;2.3607047;0.0;0.18969899;19450.682
  7.7981812E-01;  9.9999998E-03;  1.6057210E-01;2261;-0.059593894;0.0;0.056233522;1013.7802;  4.1116780E-01;11413.739;3;-11.248035;0.0;-33.833145;0;3.30755;  9.7849355E+03;  0.0000000E+00;  5.6907877E-05;  1.0000000E+04;  0.0000000E+00;  9.9406201E+03;2.9341662;0.0;0.37338379;28065.33
  7.7982312E-01;  9.9999998E-03;  1.8062252E-01;2262;-0.056225266;0.0;0.063768543;1013.9355;  4.1116843E-01;11542.394;3;-10.269985;0.0;-35.33593;0;3.1953981;  9.7846816E+03;  0.0000000E+00;  1.1260154E-05;  1.0000000E+04;  0.0000000E+00;  9.9438848E+03;2.8643734;0.0;0.33102471;26489.012
  7.7982891E-01;  9.9999998E-03;  2.0067714E-01;2263;-0.053166948;0.0;0.071548715;1014.1599;  4.1116890E-01;11728.119;3;-9.5461922;0.0;-36.97393;0;3.0546968;  9.7856055E+03;  0.0000000E+00;  4.0598035E-05;  1.0000000E+04;  0.0000000E+00;  9.9472998E+03;2.7777104;0.0;0.27698645;24853.934
  7.7983689E-01;  9.9999998E-03;  2.2073217E-01;2264;-0.050000142;0.0;0.076437406;1014.4407;  4.1116911E-01;11960.742;3;-9.144701;0.0;-38.973221;0;2.8973498;  9.7878887E+03;  0.0000000E+00;  1.9878331E-04;  1.0000000E+04;  0.0000000E+00;  9.9504570E+03;2.6748641;0.0;0.22248583;23355.172
  7.7984774E-01;  9.9999998E-03;  2.4077281E-01;2265;-0.04638996;0.0;0.076425463;1014.7609;  4.1116920E-01;12225.95;3;-9.1375504;0.0;-39.860058;0;2.7283731;  9.7914160E+03;  0.0000000E+00;  4.1165247E-04;  1.0000000E+04;  0.0000000E+00;  9.9531260E+03;2.5605528;0.0;0.16782033;22102.824
  7.7986044E-01;  9.9999998E-03;  2.6080042E-01;2266;-0.042319424;0.0;0.079247072;1015.1142;  4.1116923E-01;12518.606;3;-9.5392866;0.0;-35.465599;0;2.5798028;  9.7957842E+03;  0.0000000E+00;  1.5648846E-04;  1.0000000E+04;  0.0000000E+00;  9.9555898E+03;2.442234;0.0;0.13756867;20926.869
  7.7987325E-01;  9.9999998E-03;  2.8083262E-01;2267;-0.038023874;0.0;0.075484656;1015.3347;  4.1116893E-01;12701.172;3;-10.263236;0.0;-27.384092;0;2.3808129;  9.8004512E+03;  0.0000000E+00; -2.0276126E-03;  1.0000000E+04;  0.0000000E+00;  9.9551621E+03;2.328588;0.0;0.052224964;21254.039
  7.7988875E-01;  9.9999998E-03;  3.0085272E-01;2268;-0.033268914;0.0;0.090109378;1015.648;  4.1116789E-01;12960.752;3;-11.032804;0.0;-1.4057268;0;2.4571483;  9.8047793E+03;  0.0000000E+00; -7.7887774E-03;  1.0000000E+04;  0.0000000E+00;  9.9569229E+03;2.2288129;0.0;0.22833546;20102.709
  7.9999983E-01;  9.9999998E-03;  1.6056354E-01;2292;-0.011768376;0.0;0.051886644;1014.2909;  4.1117555E-01;11835.657;3;-6.5946002;0.0;-35.063965;0;3.2295692;  9.7944775E+03;  0.0000000E+00; -3.3497217E-05;  1.0000000E+04;  0.0000000E+00;  9.9404756E+03;2.8520048;0.0;0.37756446;28126.32
  8.0000424E-01;  9.9999998E-03;  1.8061231E-01;2293;-0.010709015;0.0;0.059175972;1014.4461;  4.1117612E-01;11964.201;3;-6.5483437;0.0;-36.678951;0;3.122539;  9.7944307E+03;  0.0000000E+00; -6.8262707E-05;  1.0000000E+04;  0.0000000E+00;  9.9435244E+03;2.783201;0.0;0.33933818;26652.807
  8.0000830E-01;  9.9999998E-03;  2.0066668E-01;2294;-0.010104255;0.0;0.067198709;1014.6752;  4.1117659E-01;12153.858;3;-6.5884895;0.0;-38.410809;0;2.9849112;  9.7956826E+03;  0.0000000E+00; -9.1837988E-05;  1.0000000E+04;  0.0000000E+00;  9.9467090E+03;2.6967444;0.0;0.28816676;25134.693
  8.0001146E-01;  9.9999998E-03;  2.2072692E-01;2295;-0.010023752;0.0;0.073883779;1014.969;  4.1117677E-01;12397.224;3;-6.7128921;0.0;-40.372379;0;2.8277335;  9.7984326E+03;  0.0000000E+00; -1.1039947E-04;  1.0000000E+04;  0.0000000E+00;  9.9496504E+03;2.5925665;0.0;0.23516695;23744.338
  8.0001235E-01;  9.9999998E-03;  2.4077369E-01;2296;-0.010701233;0.0;0.07617937;1015.3042;  4.1117665E-01;12674.849;3;-6.9453154;0.0;-41.035229;0;2.659925;  9.8025352E+03;  0.0000000E+00; -1.4970181E-04;  1.0000000E+04;  0.0000000E+00;  9.9520479E+03;2.4753547;0.0;0.1845703;22626.951
  8.0000955E-01;  9.9999998E-03;  2.6080734E-01;2297;-0.012179298;0.0;0.079602093;1015.6595;  4.1117659E-01;12969.157;3;-7.2948117;0.0;-37.388855;0;2.5109246;  9.8075410E+03;  0.0000000E+00; -2.4821892E-04;  1.0000000E+04;  0.0000000E+00;  9.9539072E+03;2.3530064;0.0;0.15791813;21749.221
  8.0000395E-01;  9.9999998E-03;  2.8084084E-01;2298;-0.013850507;0.0;0.075108394;1015.9093;  4.1117644E-01;13175.993;3;-7.7405748;0.0;-28.498116;0;2.2938168;  9.8128750E+03;  0.0000000E+00; -3.9876113E-04;  1.0000000E+04;  0.0000000E+00;  9.9533945E+03;2.2345686;0.0;0.059248112;22138.176
  7.9999846E-01;  9.9999998E-03;  3.0086255E-01;2299;-0.014820497;0.0;0.091191411;1016.2579;  4.1117534E-01;13464.676;3;-8.1895628;0.0;-1.5196216;0;2.3802388;  9.8178936E+03;  0.0000000E+00; -4.4685579E-04;  1.0000000E+04;  0.0000000E+00;  9.9551582E+03;2.1288581;0.0;0.25138062;20967.264
  8.2017839E-01;  9.9999998E-03;  1.6055560E-01;2323;0.038148392;0.0;0.051345013;1014.8699;  4.1115955E-01;12313.673;3;-0.060078099;0.0;-34.14307;0;3.1401882;  9.8061582E+03;  0.0000000E+00;  8.4966914E-06;  1.0000000E+04;  0.0000000E+00;  9.9406309E+03;2.7571743;0.0;0.38301387;28032.535
  8.2018334E-01;  9.9999998E-03;  1.8060473E-01;2324;0.037848108;0.0;0.059089407;1014.9931;  4.1116032E-01;12415.646;3;-0.50154936;0.0;-35.726234;0;3.0491395;  9.8057930E+03;  0.0000000E+00;  6.3569263E-05;  1.0000000E+04;  0.0000000E+00;  9.9433740E+03;2.7017243;0.0;0.34741509;26707.707
  8.2018721E-01;  9.9999998E-03;  2.0066079E-01;2325;0.037145119;0.0;0.067913949;1015.1874;  4.1116059E-01;12576.554;3;-0.82486171;0.0;-37.450909;0;2.9273131;  9.8067100E+03;  0.0000000E+00;  1.7793989E-04;  1.0000000E+04;  0.0000000E+00;  9.9462246E+03;2.6288133;0.0;0.29849985;25353.803
  8.2018745E-01;  9.9999998E-03;  2.2072871E-01;2326;0.035374366;0.0;0.0766415;1015.4403;  4.1116089E-01;12786.03;3;-0.99764532;0.0;-39.489811;0;2.7867508;  9.8091377E+03;  0.0000000E+00;  3.4112114E-04;  1.0000000E+04;  0.0000000E+00;  9.9486865E+03;2.5369573;0.0;0.24979343;24194.863
  8.2018042E-01;  9.9999998E-03;  2.4077934E-01;2327;0.031579979;0.0;0.078402884;1015.7263;  4.1116112E-01;13022.752;3;-1.0246671;0.0;-41.394966;0;2.6337097;  9.8129561E+03;  0.0000000E+00;  5.2264112E-04;  1.0000000E+04;  0.0000000E+00;  9.9504102E+03;2.4302108;0.0;0.20349891;23409.078
  8.2016492E-01;  9.9999998E-03;  2.6081043E-01;2328;0.025603773;0.0;0.079098724;1016.0548;  4.1116112E-01;13294.914;3;-0.93570644;0.0;-38.616852;0;2.4809844;  9.8177148E+03;  0.0000000E+00;  6.9129275E-04;  1.0000000E+04;  0.0000000E+00;  9.9520068E+03;2.3164089;0.0;0.16457553;22677.885
  8.2014447E-01;  9.9999998E-03;  2.8084117E-01;2329;0.018640075;0.0;0.07487008;1016.3176;  4.1116083E-01;13512.487;3;-0.7954554;0.0;-28.745884;0;2.2688725;  9.8228613E+03;  0.0000000E+00;  6.8614190E-04;  1.0000000E+04;  0.0000000E+00;  9.9519473E+03;2.2045014;0.0;0.064371049;22842.15
  8.2011956E-01;  9.9999998E-03;  3.0086353E-01;2330;0.011950233;0.0;0.091263071;1016.6688;  4.1115969E-01;13803.309;3;-0.68146843;0.0;-1.9016395;0;2.3598614;  9.8278125E+03;  0.0000000E+00;  1.6270948E-04;  1.0000000E+04;  0.0000000E+00;  9.9538291E+03;2.10268;0.0;0.2571815;21614.838
  8.4036845E-01;  9.9999998E-03;  1.6054747E-01;2354;0.094080858;0.0;0.053506561;1015.0814;  4.1097718E-01;12486.726;3;8.7949638;0.0;-31.698898;0;3.0506461;  9.8184775E+03;  0.0000000E+00;  5.3262807E-05;  1.0000000E+04;  0.0000000E+00;  9.9410654E+03;2.6621256;0.0;0.38852054;27782.451
  8.4037602E-01;  9.9999998E-03;  1.8059768E-01;2355;0.093663022;0.0;0.061919078;1015.1531;  4.1097784E-01;12546.043;3;8.2881575;0.0;-33.214718;0;2.9802642;  9.8173906E+03;  0.0000000E+00;  1.7767157E-04;  1.0000000E+04;  0.0000000E+00;  9.9435430E+03;2.6272922;0.0;0.35297209;26591.691
  8.4038234E-01;  9.9999998E-03;  2.0065543E-01;2356;0.093041837;0.0;0.071412466;1015.2894;  4.1097826E-01;12658.956;3;8.1126604;0.0;-34.979912;0;2.8796825;  9.8174600E+03;  0.0000000E+00;  4.7090789E-04;  1.0000000E+04;  0.0000000E+00;  9.9461104E+03;2.5755186;0.0;0.30416396;25376.207
  8.4038264E-01;  9.9999998E-03;  2.2072732E-01;2357;0.090754636;0.0;0.080538489;1015.476;  4.1097862E-01;12813.421;3;8.2881861;0.0;-37.924755;0;2.7612944;  9.8189932E+03;  0.0000000E+00;  9.7694597E-04;  1.0000000E+04;  0.0000000E+00;  9.9481943E+03;2.5037127;0.0;0.25758183;24402.293
  8.4036970E-01;  9.9999998E-03;  2.4077754E-01;2358;0.084585465;0.0;0.079955608;1015.6943;  4.1097909E-01;12994.24;3;8.7766361;0.0;-41.049725;0;2.6245942;  9.8219111E+03;  0.0000000E+00;  1.6043700E-03;  1.0000000E+04;  0.0000000E+00;  9.9494932E+03;2.4149132;0.0;0.20968099;23823.953
  8.4034359E-01;  9.9999998E-03;  2.6080346E-01;2359;0.074514151;0.0;0.078108907;1015.9894;  4.1097921E-01;13238.526;3;9.4901171;0.0;-38.33749;0;2.4732499;  9.8258115E+03;  0.0000000E+00;  2.0349922E-03;  1.0000000E+04;  0.0000000E+00;  9.9513008E+03;2.3166318;0.0;0.15661807;23005.725
  8.4030920E-01;  9.9999998E-03;  2.8083149E-01;2360;0.061882097;0.0;0.074715078;1016.2448;  4.1097918E-01;13449.946;3;10.297166;0.0;-27.858644;0;2.2785697;  9.8301729E+03;  0.0000000E+00;  1.3462128E-03;  1.0000000E+04;  0.0000000E+00;  9.9518838E+03;2.2177269;0.0;0.060842767;22841.449
  8.4026492E-01;  9.9999998E-03;  3.0085418E-01;2361;0.048565544;0.0;0.090613328;1016.5719;  4.1097811E-01;13720.784;3;11.02621;0.0;-2.0472171;0;2.3720899;  9.8344873E+03;  0.0000000E+00; -2.1233140E-03;  1.0000000E+04;  0.0000000E+00;  9.9539346E+03;2.1261594;0.0;0.24593048;21542.949
  8.6056495E-01;  9.9999998E-03;  1.6053684E-01;2385;0.15359272;0.0;0.056748062;1014.996;  4.1061908E-01;12413.172;3;18.996901;0.0;-28.448097;0;2.9248371;  9.8331826E+03;  0.0000000E+00;  6.8668196E-05;  1.0000000E+04;  0.0000000E+00;  9.9418799E+03;2.5325999;0.0;0.39223707;27333.014
  8.6057717E-01;  9.9999998E-03;  1.8058784E-01;2386;0.15404694;0.0;0.065705694;1015.01;  4.1061983E-01;12424.814;3;18.676453;0.0;-29.904537;0;2.8751781;  9.8311553E+03;  0.0000000E+00;  2.4754528E-04;  1.0000000E+04;  0.0000000E+00;  9.9441719E+03;2.5205641;0.0;0.35461405;26236.539
  8.6058831E-01;  9.9999998E-03;  2.0064624E-01;2387;0.15454194;0.0;0.075530961;1015.0784;  4.1062039E-01;12481.452;3;18.87241;0.0;-31.723328;0;2.7965519;  9.8300850E+03;  0.0000000E+00;  7.8380294E-04;  1.0000000E+04;  0.0000000E+00;  9.9465625E+03;2.4925117;0.0;0.3040401;25109.225
  8.6059111E-01;  9.9999998E-03;  2.2071765E-01;2388;0.15251896;0.0;0.083059914;1015.1891;  4.1062069E-01;12573.025;3;19.471716;0.0;-36.66584;0;2.7001834;  9.8303506E+03;  0.0000000E+00;  1.8855617E-03;  1.0000000E+04;  0.0000000E+00;  9.9484541E+03;2.4440515;0.0;0.2561318;24232.602
  8.6057389E-01;  9.9999998E-03;  2.4076524E-01;2389;0.1444851;0.0;0.080723591;1015.3337;  4.1062132E-01;12692.823;3;20.628082;0.0;-39.156528;0;2.5818679;  9.8319609E+03;  0.0000000E+00;  3.3930226E-03;  1.0000000E+04;  0.0000000E+00;  9.9496299E+03;2.3770506;0.0;0.2048173;23715.482
  8.6053813E-01;  9.9999998E-03;  2.6078692E-01;2390;0.13017447;0.0;0.077771299;1015.5817;  4.1062170E-01;12898.078;3;21.914759;0.0;-36.197029;0;2.4431801;  9.8345928E+03;  0.0000000E+00;  4.6135001E-03;  1.0000000E+04;  0.0000000E+00;  9.9517871E+03;2.2983296;0.0;0.14485039;22730.285
  8.6049032E-01;  9.9999998E-03;  2.8081319E-01;2391;0.11141825;0.0;0.074688889;1015.8061;  4.1062179E-01;13083.799;3;23.256386;0.0;-26.296423;0;2.2688589;  9.8377891E+03;  0.0000000E+00;  3.9902460E-03;  1.0000000E+04;  0.0000000E+00;  9.9529287E+03;2.2164197;0.0;0.052439276;22281.752
  8.6042619E-01;  9.9999998E-03;  3.0083600E-01;2392;0.090759501;0.0;0.089419127;1016.0875;  4.1062120E-01;13316.689;3;24.46953;0.0;-2.2176492;0;2.3614767;  9.8410889E+03;  0.0000000E+00; -1.2676545E-03;  1.0000000E+04;  0.0000000E+00;  9.9550938E+03;2.1391833;0.0;0.22229342;20953.176
  8.8075459E-01;  9.9999998E-03;  1.6052145E-01;2416;0.21229513;0.0;0.059566725;1014.8071;  4.1010529E-01;12253.147;3;29.543676;0.0;-24.994644;0;2.7147195;  9.8529395E+03;  0.0000000E+00;  4.4435004E-05;  1.0000000E+04;  0.0000000E+00;  9.9431797E+03;2.3217993;0.0;0.39292023;26642.49
  8.8077229E-01;  9.9999998E-03;  1.8057230E-01;2417;0.2140702;0.0;0.068799466;1014.7646;  4.1010615E-01;12218.024;3;29.448479;0.0;-26.385866;0;2.6842103;  9.8499307E+03;  0.0000000E+00;  2.7142637E-04;  1.0000000E+04;  0.0000000E+00;  9.9453604E+03;2.3317034;0.0;0.352507;25606.305
  8.8078940E-01;  9.9999998E-03;  2.0063008E-01;2418;0.21607316;0.0;0.078678787;1014.7627;  4.1010675E-01;12216.344;3;29.985399;0.0;-28.251341;0;2.6271377;  9.8475918E+03;  0.0000000E+00;  1.1361368E-03;  1.0000000E+04;  0.0000000E+00;  9.9476553E+03;2.3275449;0.0;0.29959264;24528.527
  8.8079560E-01;  9.9999998E-03;  2.2069821E-01;2419;0.21430165;0.0;0.083948351;1014.7926;  4.1010720E-01;12241.104;3;30.786263;0.0;-34.501156;0;2.5531225;  9.8463564E+03;  0.0000000E+00;  3.1084686E-03;  1.0000000E+04;  0.0000000E+00;  9.9494707E+03;2.304213;0.0;0.24890947;23686.303
  8.8077497E-01;  9.9999998E-03;  2.4074283E-01;2420;0.20443934;0.0;0.081054352;1014.8566;  4.1010809E-01;12294.082;3;32.464382;0.0;-36.045399;0;2.457298;  9.8463506E+03;  0.0000000E+00;  5.9344340E-03;  1.0000000E+04;  0.0000000E+00;  9.9506934E+03;2.2623041;0.0;0.19499387;23149.014
  8.8072985E-01;  9.9999998E-03;  2.6076233E-01;2421;0.18582767;0.0;0.077912807;1015.0348;  4.1010869E-01;12441.57;3;34.288456;0.0;-33.199089;0;2.3418951;  9.8474043E+03;  0.0000000E+00;  8.4948400E-03;  1.0000000E+04;  0.0000000E+00;  9.9530811E+03;2.2072456;0.0;0.1346496;22047.449
  8.8066953E-01;  9.9999998E-03;  2.8078789E-01;2422;0.16092701;0.0;0.075058959;1015.1999;  4.1010901E-01;12578.21;3;36.015121;0.0;-23.961533;0;2.1952195;  9.8491328E+03;  0.0000000E+00;  8.8300211E-03;  1.0000000E+04;  0.0000000E+00;  9.9545117E+03;2.1464715;0.0;0.048748009;21441.641
  8.8058710E-01;  9.9999998E-03;  3.0081093E-01;2423;0.13307832;0.0;0.088117734;1015.4154;  4.1010892E-01;12756.584;3;37.403896;0.0;-2.5888908;0;2.2858505;  9.8511709E+03;  0.0000000E+00;  3.5913561E-03;  1.0000000E+04;  0.0000000E+00;  9.9566377E+03;2.0873287;0.0;0.19852194;20167.879
  9.0092474E-01;  9.9999998E-03;  1.6049992E-01;2447;0.26682836;0.0;0.060960371;1014.6417;  4.0946448E-01;12111.259;3;40.11924;0.0;-21.73633;0;2.396244;  9.8788613E+03;  0.0000000E+00; -1.6962647E-05;  1.0000000E+04;  0.0000000E+00;  9.9449971E+03;2.0057895;0.0;0.39045444;25697.164
  9.0094769E-01;  9.9999998E-03;  1.8054953E-01;2448;0.2698285;0.0;0.070198394;1014.5494;  4.0946513E-01;12035.028;3;40.11842;0.0;-23.019476;0;2.3835649;  9.8749668E+03;  0.0000000E+00;  2.0619588E-04;  1.0000000E+04;  0.0000000E+00;  9.9470967E+03;2.0355995;0.0;0.34796554;24705.256
  9.0097028E-01;  9.9999998E-03;  2.0060536E-01;2449;0.2730386;0.0;0.079730831;1014.4785;  4.0946576E-01;11976.351;3;40.712479;0.0;-25.065062;0;2.3486269;  9.8713447E+03;  0.0000000E+00;  1.3524676E-03;  1.0000000E+04;  0.0000000E+00;  9.9493359E+03;2.0553212;0.0;0.29330572;23659.303
  9.0097785E-01;  9.9999998E-03;  2.2066738E-01;2450;0.27071935;0.0;0.083397053;1014.4254;  4.0946627E-01;11932.37;3;41.387371;0.0;-31.346077;0;2.2998297;  9.8684531E+03;  0.0000000E+00;  4.2141974E-03;  1.0000000E+04;  0.0000000E+00;  9.9511953E+03;2.059685;0.0;0.24014466;22798.502
  9.0095282E-01;  9.9999998E-03;  2.4071009E-01;2451;0.25801951;0.0;0.080435172;1014.3997;  4.0946725E-01;11911.177;3;42.862354;0.0;-32.65099;0;2.2319264;  9.8665752E+03;  0.0000000E+00;  8.4905103E-03;  1.0000000E+04;  0.0000000E+00;  9.9525313E+03;2.0475206;0.0;0.18440577;22199.32
  9.0090108E-01;  9.9999998E-03;  2.6073119E-01;2452;0.23624311;0.0;0.078221262;1014.4778;  4.0946820E-01;11975.681;3;45.343899;0.0;-29.538568;0;2.1497445;  9.8657363E+03;  0.0000000E+00;  1.2566305E-02;  1.0000000E+04;  0.0000000E+00;  9.9548408E+03;2.0217285;0.0;0.12801611;21130.264
  9.0082985E-01;  9.9999998E-03;  2.8075719E-01;2453;0.20587371;0.0;0.076133288;1014.5496;  4.0946883E-01;12035.161;3;47.744774;0.0;-21.184305;0;2.0461142;  9.8657314E+03;  0.0000000E+00;  1.4327897E-02;  1.0000000E+04;  0.0000000E+00;  9.9561846E+03;1.9877548;0.0;0.058359377;20539.514
  9.0073347E-01;  9.9999998E-03;  3.0078024E-01;2454;0.17201728;0.0;0.08721374;1014.6843;  4.0946916E-01;12146.615;3;49.012878;0.0;-2.3596075;0;2.1367652;  9.8662529E+03;  0.0000000E+00;  9.8557342E-03;  1.0000000E+04;  0.0000000E+00;  9.9582119E+03;1.9517077;0.0;0.18505754;19349.896
  9.2104965E-01;  9.9999998E-03;  1.6047230E-01;2478;0.31213304;0.0;0.060544834;1014.4845;  4.0873006E-01;11974.676;3;50.889751;0.0;-18.875422;0;1.9890996;  9.9091172E+03;  0.0000000E+00; -6.1084262E-05;  1.0000000E+04;  0.0000000E+00;  9.9472842E+03;1.6035266;0.0;0.38557303;24514.232
  9.2108172E-01;  9.9999998E-03;  1.8051998E-01;2479;0.31687859;0.0;0.069639407;1014.356;  4.0873033E-01;11868.327;3;50.782825;0.0;-19.980469;0;1.9925854;  9.9045908E+03;  0.0000000E+00;  5.9968053E-05;  1.0000000E+04;  0.0000000E+00;  9.9493066E+03;1.6501162;0.0;0.34246925;23564.096
  9.2111421E-01;  9.9999998E-03;  2.0057251E-01;2480;0.32165354;0.0;0.078456029;1014.2237;  4.0873075E-01;11759.02;3;51.010269;0.0;-22.318806;0;1.980196;  9.8998301E+03;  0.0000000E+00;  1.2239775E-03;  1.0000000E+04;  0.0000000E+00;  9.9514980E+03;1.6930882;0.0;0.28710786;22544.824
  9.2112470E-01;  9.9999998E-03;  2.2062565E-01;2481;0.31818503;0.0;0.080816507;1014.0931;  4.0873143E-01;11651.1;3;50.778931;0.0;-27.481567;0;1.9589431;  9.8952598E+03;  0.0000000E+00;  4.5353379E-03;  1.0000000E+04;  0.0000000E+00;  9.9535000E+03;1.7276675;0.0;0.23127565;21615.686
  9.2109495E-01;  9.9999998E-03;  2.4066891E-01;2482;0.30276433;0.0;0.079380661;1013.9703;  4.0873253E-01;11549.602;3;52.142529;0.0;-28.907021;0;1.9266652;  9.8913428E+03;  0.0000000E+00;  9.8721404E-03;  1.0000000E+04;  0.0000000E+00;  9.9549766E+03;1.7502357;0.0;0.17642953;20942.846
  9.2103875E-01;  9.9999998E-03;  2.6069421E-01;2483;0.27760193;0.0;0.078585923;1013.9258;  4.0873364E-01;11512.763;3;54.903526;0.0;-25.661737;0;1.8862085;  9.8883604E+03;  0.0000000E+00;  1.5374965E-02;  1.0000000E+04;  0.0000000E+00;  9.9570176E+03;1.7597306;0.0;0.126478;19997.029
  9.2095989E-01;  9.9999998E-03;  2.8072223E-01;2484;0.2440576;0.0;0.077593647;1013.8715;  4.0873471E-01;11467.853;3;58.600124;0.0;-17.506166;0;1.8327147;  9.8863555E+03;  0.0000000E+00;  1.8672843E-02;  1.0000000E+04;  0.0000000E+00;  9.9578643E+03;1.7586194;0.0;0.074095234;19618.422
  9.2085630E-01;  9.9999998E-03;  3.0074480E-01;2485;0.20631367;0.0;0.086461656;1013.9119;  4.0873539E-01;11501.397;3;59.779163;0.0;-0.82612401;0;1.9260504;  9.8851357E+03;  0.0000000E+00;  1.4545558E-02;  1.0000000E+04;  0.0000000E+00;  9.9597754E+03;1.7510427;0.0;0.17500769;18520.885
  9.4109750E-01;  9.9999998E-03;  1.6044113E-01;2509;0.33918956;0.0;0.058921609;1014.2085;  4.0793803E-01;11737.81;3;61.834969;0.0;-16.466627;0;1.5488453;  9.9396025E+03;  0.0000000E+00; -1.1414331E-05;  1.0000000E+04;  0.0000000E+00;  9.9499355E+03;1.1697091;0.0;0.37913626;23126.613
  9.4113469E-01;  9.9999998E-03;  1.8048726E-01;2510;0.34513557;0.0;0.068029612;1014.0615;  4.0793815E-01;11616.268;3;61.458046;0.0;-17.329359;0;1.5655708;  9.9347842E+03;  0.0000000E+00; -4.3883596E-05;  1.0000000E+04;  0.0000000E+00;  9.9518779E+03;1.2287049;0.0;0.3368659;22220.951
  9.4117671E-01;  9.9999998E-03;  2.0053700E-01;2511;0.35177857;0.0;0.076963067;1013.8842;  4.0793851E-01;11469.808;3;61.328327;0.0;-19.140305;0;1.574398;  9.9292041E+03;  0.0000000E+00;  8.3655998E-04;  1.0000000E+04;  0.0000000E+00;  9.9539971E+03;1.2920769;0.0;0.2823211;21238.768
  9.4120991E-01;  9.9999998E-03;  2.2058383E-01;2512;0.35240668;0.0;0.078609571;1013.6822;  4.0793893E-01;11302.967;3;60.364227;0.0;-23.876768;0;1.5814626;  9.9232129E+03;  0.0000000E+00;  3.9391899E-03;  1.0000000E+04;  0.0000000E+00;  9.9560449E+03;1.3557475;0.0;0.22571518;20291.498
  9.4119829E-01;  9.9999998E-03;  2.4062158E-01;2513;0.33824101;0.0;0.077412903;1013.4811;  4.0793958E-01;11136.739;3;60.809052;0.0;-24.634022;0;1.5828649;  9.9173535E+03;  0.0000000E+00;  9.3627796E-03;  1.0000000E+04;  0.0000000E+00;  9.9579229E+03;1.4142945;0.0;0.16857041;19425.064
  9.4114035E-01;  9.9999998E-03;  2.6065311E-01;2514;0.30993953;0.0;0.079308301;1013.3021;  4.0794095E-01;10988.949;3;62.997093;0.0;-20.957586;0;1.5944812;  9.9122012E+03;  0.0000000E+00;  1.5897237E-02;  1.0000000E+04;  0.0000000E+00;  9.9594795E+03;1.4624076;0.0;0.13207358;18689.748
  9.4105673E-01;  9.9999998E-03;  2.8068393E-01;2515;0.27442899;0.0;0.07915201;1013.1036;  4.0794212E-01;10825.02;3;67.87925;0.0;-13.800117;0;1.592667;  9.9080732E+03;  0.0000000E+00;  2.0930897E-02;  1.0000000E+04;  0.0000000E+00;  9.9595996E+03;1.4979998;0.0;0.094667204;18636.49
  9.4095135E-01;  9.9999998E-03;  3.0070597E-01;2516;0.23589805;0.0;0.085269168;1013.0368;  4.0794322E-01;10769.92;3;70.192543;0.0;0.42622611;0;1.6845831;  9.9049629E+03;  0.0000000E+00;  1.5961902E-02;  1.0000000E+04;  0.0000000E+00;  9.9612793E+03;1.522454;0.0;0.16212904;17695.096
  9.6110886E-01;  9.9999998E-03;  1.6040993E-01;2540;0.35164726;0.0;0.057706293;1013.6851;  4.0712297E-01;11294.107;3;70.337395;0.0;-13.906166;0;1.1368401;  9.9662324E+03;  0.0000000E+00;  1.2032874E-04;  1.0000000E+04;  0.0000000E+00;  9.9528379E+03;0.76550859;0.0;0.37133157;21564.719
  9.6114826E-01;  9.9999998E-03;  1.8045460E-01;2541;0.35853198;0.0;0.066910468;1013.5356;  4.0712318E-01;11170.712;3;69.993851;0.0;-14.532668;0;1.162316;  9.9614287E+03;  0.0000000E+00; -1.4535908E-05;  1.0000000E+04;  0.0000000E+00;  9.9547070E+03;0.83151203;0.0;0.33080396;20702.531
  9.6119314E-01;  9.9999998E-03;  2.0050137E-01;2542;0.36641949;0.0;0.076263115;1013.3322;  4.0712327E-01;11002.845;3;70.059349;0.0;-15.377937;0;1.1881244;  9.9554053E+03;  0.0000000E+00;  4.4757666E-04;  1.0000000E+04;  0.0000000E+00;  9.9567520E+03;0.90981615;0.0;0.27830824;19765.541
  9.6123642E-01;  9.9999998E-03;  2.2054873E-01;2543;0.37077186;0.0;0.079378799;1013.0706;  4.0712354E-01;10786.871;3;69.370186;0.0;-20.019182;0;1.2227441;  9.9484160E+03;  0.0000000E+00;  3.2202050E-03;  1.0000000E+04;  0.0000000E+00;  9.9586084E+03;0.99741238;0.0;0.22533177;18907.436
  9.6125519E-01;  9.9999998E-03;  2.4057920E-01;2544;0.36359075;0.0;0.077166922;1012.7983;  4.0712398E-01;10562.157;3;69.451317;0.0;-19.94817;0;1.2552979;  9.9410215E+03;  0.0000000E+00;  1.1103579E-02;  1.0000000E+04;  0.0000000E+00;  9.9606367E+03;1.0876285;0.0;0.16766942;17973.268
  9.6121418E-01;  9.9999998E-03;  2.6060921E-01;2545;0.33681375;0.0;0.079739764;1012.5244;  4.0712506E-01;10336.104;3;71.132507;0.0;-16.046892;0;1.3093683;  9.9339473E+03;  0.0000000E+00;  2.3033613E-02;  1.0000000E+04;  0.0000000E+00;  9.9622568E+03;1.1721666;0.0;0.13720164;17197.217
  9.6113032E-01;  9.9999998E-03;  2.8064278E-01;2546;0.30086198;0.0;0.080237657;1012.1834;  4.0712637E-01;10054.782;3;77.41127;0.0;-10.537735;0;1.3599912;  9.9278057E+03;  0.0000000E+00;  3.1246871E-02;  1.0000000E+04;  0.0000000E+00;  9.9615693E+03;1.243868;0.0;0.11612324;17493.479
  9.6102637E-01;  9.9999998E-03;  3.0066401E-01;2547;0.26271537;0.0;0.083738945;1012.0137;  4.0712765E-01;9914.7471;3;81.191078;0.0;1.6437758;0;1.4491315;  9.9228438E+03;  0.0000000E+00;  1.3677067E-02;  1.0000000E+04;  0.0000000E+00;  9.9630674E+03;1.3000927;0.0;0.14903884;16686.219
  9.8110491E-01;  9.9999998E-03;  1.6038115E-01;2571;0.35548532;0.0;0.057444662;1012.87;  4.0631625E-01;10607.136;3;74.338318;0.0;-10.822024;0;0.7958914;  9.9866611E+03;  0.0000000E+00;  2.1003741E-04;  1.0000000E+04;  0.0000000E+00;  9.9559268E+03;0.43448591;0.0;0.36140552;19852.539
  9.8114568E-01;  9.9999998E-03;  1.8042365E-01;2572;0.36301067;0.0;0.066586554;1012.7281;  4.0631622E-01;10490.187;3;74.204605;0.0;-11.118939;0;0.82488823;  9.9820420E+03;  0.0000000E+00;  6.3610467E-05;  1.0000000E+04;  0.0000000E+00;  9.9577461E+03;0.50210434;0.0;0.32278386;19026.908
  9.8119241E-01;  9.9999998E-03;  2.0046622E-01;2573;0.37168249;0.0;0.075712956;1012.5152;  4.0631616E-01;10314.675;3;74.568588;0.0;-11.190779;0;0.86095762;  9.9759043E+03;  0.0000000E+00;  5.7691749E-04;  1.0000000E+04;  0.0000000E+00;  9.9597051E+03;0.58811486;0.0;0.27284274;18137.107
  9.8124117E-01;  9.9999998E-03;  2.2051291E-01;2574;0.37903386;0.0;0.081220344;1012.218;  4.0631649E-01;10069.702;3;75.071625;0.0;-14.456399;0;0.91632813;  9.9683877E+03;  0.0000000E+00;  7.8463405E-03;  1.0000000E+04;  0.0000000E+00;  9.9613740E+03;0.6909278;0.0;0.22540031;17370.654
  9.8127586E-01;  9.9999998E-03;  2.4054238E-01;2575;0.37886789;0.0;0.078951299;1011.8777;  4.0631676E-01;9789.2744;3;77.168602;0.0;-15.311059;0;0.9785803;  9.9600146E+03;  0.0000000E+00;  2.9143844E-02;  1.0000000E+04;  0.0000000E+00;  9.9630488E+03;0.80401009;0.0;0.1745702;16600.127
  9.8126620E-01;  9.9999998E-03;  2.6056439E-01;2576;0.35973176;0.0;0.07913252;1011.558;  4.0631738E-01;9525.7793;3;79.673714;0.0;-11.633657;0;1.0535421;  9.9515254E+03;  0.0000000E+00;  5.6174431E-02;  1.0000000E+04;  0.0000000E+00;  9.9651973E+03;0.91686481;0.0;0.13667732;15593.046
  9.8119318E-01;  9.9999998E-03;  2.8059837E-01;2577;0.32566276;0.0;0.080093555;1011.1199;  4.0631852E-01;9164.7676;3;87.228279;0.0;-7.3442178;0;1.1433305;  9.9437676E+03;  0.0000000E+00;  6.9837667E-02;  1.0000000E+04;  0.0000000E+00;  9.9641992E+03;1.0179437;0.0;0.12538676;16004.852
  9.8109466E-01;  9.9999998E-03;  3.0061883E-01;2578;0.28876099;0.0;0.082137942;1010.866;  4.0631995E-01;8955.5654;3;93.177391;0.0;3.8285074;0;1.2384098;  9.9372871E+03;  0.0000000E+00;  8.2510291E-03;  1.0000000E+04;  0.0000000E+00;  9.9655420E+03;1.1002115;0.0;0.13819824;15295.438
  1.0010942E+00;  9.9999998E-03;  1.6035452E-01;2602;0.3558729;0.0;0.056948781;1011.8134;  4.0554386E-01;9718.8271;3;76.182823;0.0;-8.1757164;0;0.54029578;  1.0000570E+04;  0.0000000E+00;  1.3368600E-04;  1.0000000E+04;  0.0000000E+00;  9.9591504E+03;0.19227786;0.0;0.34801793;18013.592
  1.0011363E+00;  9.9999998E-03;  1.8039341E-01;2603;0.36383477;0.0;0.065578714;1011.6823;  4.0554377E-01;9610.9043;3;76.213577;0.0;-8.1557989;0;0.56816435;  9.9962002E+03;  0.0000000E+00; -3.9096031E-04;  1.0000000E+04;  0.0000000E+00;  9.9609336E+03;0.25721344;0.0;0.31095091;17220.898
  1.0011845E+00;  9.9999998E-03;  2.0043278E-01;2604;0.37314504;0.0;0.07435482;1011.4713;  4.0554368E-01;9437.2686;3;76.84481;0.0;-7.8682747;0;0.60738039;  9.9901953E+03;  0.0000000E+00; -5.9871463E-04;  1.0000000E+04;  0.0000000E+00;  9.9627764E+03;0.34351006;0.0;0.26387036;16398.676
  1.0012364E+00;  9.9999998E-03;  2.2047396E-01;2605;0.38231745;0.0;0.08088138;1011.1651;  4.0554377E-01;9185.3711;3;78.685249;0.0;-8.8843994;0;0.67200649;  9.9826514E+03;  0.0000000E+00;  1.4992383E-02;  1.0000000E+04;  0.0000000E+00;  9.9642959E+03;0.45107958;0.0;0.22092694;15706.953
  1.0012813E+00;  9.9999998E-03;  2.4050361E-01;2606;0.3862513;0.0;0.080038771;1010.7886;  4.0554383E-01;8875.6201;3;82.202644;0.0;-10.360871;0;0.75478661;  9.9739150E+03;  0.0000000E+00;  6.1963730E-02;  1.0000000E+04;  0.0000000E+00;  9.9656025E+03;0.57508272;0.0;0.17970386;15104.401
  1.0012981E+00;  9.9999998E-03;  2.6051974E-01;2607;0.37869281;0.0;0.078047656;1010.4439;  4.0554425E-01;8591.9834;3;88.960144;0.0;-7.6233468;0;0.84134865;  9.9646211E+03;  0.0000000E+00;  1.1373284E-01;  1.0000000E+04;  0.0000000E+00;  9.9680791E+03;0.70523649;0.0;0.13611218;13975.809
  1.0012505E+00;  9.9999998E-03;  2.8055099E-01;2608;0.34934482;0.0;0.078610972;1009.9775;  4.0554526E-01;8208.3711;3;97.627922;0.0;-3.8421218;0;0.94795513;  9.9558301E+03;  0.0000000E+00;  1.3204882E-01;  1.0000000E+04;  0.0000000E+00;  9.9675771E+03;0.82442963;0.0;0.12352549;14146.137
  1.0011666E+00;  9.9999998E-03;  3.0057120E-01;2609;0.31524298;0.0;0.08006794;1009.6718;  4.0554637E-01;7956.8877;3;105.89536;0.0;6.7693877;0;1.0489314;  9.9484219E+03;  0.0000000E+00; -1.2201058E-02;  1.0000000E+04;  0.0000000E+00;  9.9688281E+03;0.92187387;0.0;0.12705754;13484.361
  1.0210797E+00;  9.9999998E-03;  1.6032889E-01;2633;0.35450158;0.0;0.056165207;1010.6207;  4.0482658E-01;8716.5332;3;77.158058;0.0;-5.7237663;0;0.36113915;  1.0009044E+04;  0.0000000E+00; -3.1117574E-04;  1.0000000E+04;  0.0000000E+00;  9.9624678E+03;0.031234322;0.0;0.32990482;16080.897
  1.0211232E+00;  9.9999998E-03;  1.8036561E-01;2634;0.36296943;0.0;0.064636081;1010.4982;  4.0482643E-01;8615.9043;3;77.244705;0.0;-5.5845633;0;0.3848981;  1.0004917E+04;  0.0000000E+00; -5.9865271E-03;  1.0000000E+04;  0.0000000E+00;  9.9641738E+03;0.09056922;0.0;0.29432887;15341.092
  1.0211735E+00;  9.9999998E-03;  2.0040187E-01;2635;0.3729392;0.0;0.072664894;1010.2973;  4.0482634E-01;8450.9922;3;78.305534;0.0;-5.393291;0;0.42167187;  9.9993174E+03;  0.0000000E+00; -1.8596919E-02;  1.0000000E+04;  0.0000000E+00;  9.9658027E+03;0.17047973;0.0;0.25119215;14632.733
  1.0212283E+00;  9.9999998E-03;  2.2043607E-01;2636;0.38315713;0.0;0.078471921;1010.0027;  4.0482616E-01;8209.1797;3;81.015099;0.0;-5.1946392;0;0.48534399;  9.9922363E+03;  0.0000000E+00; -4.9828608E-03;  1.0000000E+04;  0.0000000E+00;  9.9670723E+03;0.27257803;0.0;0.21276595;14061.833
  1.0212809E+00;  9.9999998E-03;  2.4046226E-01;2637;0.39022833;0.0;0.078752846;1009.6298;  4.0482631E-01;7902.998;3;86.376228;0.0;-5.4940019;0;0.57402468;  9.9837891E+03;  0.0000000E+00;  6.6798002E-02;  1.0000000E+04;  0.0000000E+00;  9.9681641E+03;0.39504284;0.0;0.17898183;13560.525
  1.0213159E+00;  9.9999998E-03;  2.6047546E-01;2638;0.39037442;0.0;0.076765478;1009.2852;  4.0482649E-01;7620.2212;3;96.503731;0.0;-3.2258739;0;0.67112672;  9.9743516E+03;  0.0000000E+00;  1.4631455E-01;  1.0000000E+04;  0.0000000E+00;  9.9707871E+03;0.53048205;0.0;0.1406447;12397.321
  1.0213075E+00;  9.9999998E-03;  2.8050190E-01;2639;0.37271959;0.0;0.075204059;1008.8464;  4.0482679E-01;7260.1064;3;108.33704;0.0;-0.48713249;0;0.76589692;  9.9649678E+03;  0.0000000E+00;  1.5262969E-01;  1.0000000E+04;  0.0000000E+00;  9.9714668E+03;0.65830863;0.0;0.1075883;12053.466
  1.0212501E+00;  9.9999998E-03;  3.0052236E-01;2640;0.34296474;0.0;0.077442475;1008.5246;  4.0482742E-01;6996.1108;3;119.469;0.0;10.068304;0;0.87692225;  9.9571318E+03;  0.0000000E+00; -5.1412888E-02;  1.0000000E+04;  0.0000000E+00;  9.9728584E+03;0.75810945;0.0;0.11881278;11325.414
  1.0410614E+00;  9.9999998E-03;  1.6030434E-01;2664;0.35210392;0.0;0.054867767;1009.4037;  4.0417859E-01;7692.833;3;77.959503;0.0;-4.1007562;0;0.23848754;  1.0013631E+04;  0.0000000E+00; -3.4192312E-03;  1.0000000E+04;  0.0000000E+00;  9.9657988E+03;-0.06806168;0.0;0.30654922;14106.787
  1.0411075E+00;  9.9999998E-03;  1.8033825E-01;2665;0.36127931;0.0;0.062526591;1009.2872;  4.0417850E-01;7597.3916;3;78.237419;0.0;-3.8736429;0;0.2569243;  1.0009796E+04;  0.0000000E+00; -3.0261321E-02;  1.0000000E+04;  0.0000000E+00;  9.9673320E+03;-0.01618319;0.0;0.2731075;13466.424
  1.0411606E+00;  9.9999998E-03;  2.0036919E-01;2666;0.37192377;0.0;0.069417872;1009.1045;  4.0417814E-01;7447.9175;3;79.325371;0.0;-3.4072225;0;0.28738657;  1.0004881E+04;  0.0000000E+00; -8.6064138E-02;  1.0000000E+04;  0.0000000E+00;  9.9686328E+03;0.05213061;0.0;0.23525596;12923.023
  1.0412197E+00;  9.9999998E-03;  2.2039892E-01;2667;0.38288027;0.0;0.074212477;1008.8385;  4.0417802E-01;7230.2734;3;82.536415;0.0;-3.0390077;0;0.3431972;  9.9987578E+03;  0.0000000E+00; -1.1011471E-01;  1.0000000E+04;  0.0000000E+00;  9.9695068E+03;0.14037707;0.0;0.20282012;12538.65
  1.0412785E+00;  9.9999998E-03;  2.4042109E-01;2668;0.3915928;0.0;0.074745744;1008.5008;  4.0417799E-01;6953.9287;3;89.646416;0.0;-2.3643811;0;0.42463207;  9.9912373E+03;  0.0000000E+00; -4.0973280E-02;  1.0000000E+04;  0.0000000E+00;  9.9703613E+03;0.25032681;0.0;0.17430526;12134.705
  1.0413285E+00;  9.9999998E-03;  2.6043370E-01;2669;0.39658514;0.0;0.073746525;1008.1757;  4.0417781E-01;6687.8398;3;102.44624;0.0;-0.23981513;0;0.52321529;  9.9822793E+03;  0.0000000E+00;  4.8443016E-02;  1.0000000E+04;  0.0000000E+00;  9.9728955E+03;0.37965927;0.0;0.143556;11026.254
  1.0413666E+00;  9.9999998E-03;  2.8045458E-01;2670;0.39395192;0.0;0.071604803;1007.7773;  4.0417770E-01;6361.9941;3;118.92596;0.0;2.8472145;0;0.61248225;  9.9722139E+03;  0.0000000E+00;  9.0102816E-04;  1.0000000E+04;  0.0000000E+00;  9.9750996E+03;0.51516944;0.0;0.097312808;10052.008
  1.0413551E+00;  9.9999998E-03;  3.0047289E-01;2671;0.37256271;0.0;0.07408376;1007.4547;  4.0417781E-01;6098.0332;3;134.29016;0.0;14.293606;0;0.72095001;  9.9632988E+03;  0.0000000E+00; -6.6583864E-03;  1.0000000E+04;  0.0000000E+00;  9.9776074E+03;0.61339355;0.0;0.10755645;8880.1533
  1.0610410E+00;  9.9999998E-03;  1.6027968E-01;2695;0.34880903;0.0;0.05267382;1008.2479;  4.0360805E-01;6718.3623;3;78.374084;0.0;-2.9541972;0;0.1525505;  1.0015710E+04;  0.0000000E+00; -1.6793275E-02;  1.0000000E+04;  0.0000000E+00;  9.9690361E+03;-0.12617765;0.0;0.27872816;12166.113
  1.0610901E+00;  9.9999998E-03;  1.8030971E-01;2696;0.3587952;0.0;0.059324719;1008.1362;  4.0360790E-01;6627.2979;3;78.937202;0.0;-2.5530043;0;0.16589752;  1.0012292E+04;  0.0000000E+00; -9.7107202E-02;  1.0000000E+04;  0.0000000E+00;  9.9702432E+03;-0.082964309;0.0;0.24886182;11687.441
  1.0611470E+00;  9.9999998E-03;  2.0033641E-01;2697;0.37038511;0.0;0.065159217;1007.9797;  4.0360776E-01;6499.7129;3;80.566154;0.0;-2.0042675;0;0.18874416;  1.0008361E+04;  0.0000000E+00; -2.4564560E-01;  1.0000000E+04;  0.0000000E+00;  9.9710801E+03;-0.029535519;0.0;0.21827967;11387.916
  1.0612117E+00;  9.9999998E-03;  2.2036244E-01;2698;0.38218242;0.0;0.068898648;1007.7573;  4.0360740E-01;6318.4253;3;84.545456;0.0;-1.4038798;0;0.23323482;  1.0003600E+04;  0.0000000E+00; -3.6315101E-01;  1.0000000E+04;  0.0000000E+00;  9.9714600E+03;0.039675198;0.0;0.19355962;11273.631
  1.0612762E+00;  9.9999998E-03;  2.4038239E-01;2699;0.39176014;0.0;0.069157198;1007.4727;  4.0360716E-01;6086.5557;3;93.138855;0.0;-0.23326358;0;0.29908603;  9.9974951E+03;  0.0000000E+00; -3.4932169E-01;  1.0000000E+04;  0.0000000E+00;  9.9719463E+03;0.12966819;0.0;0.16941786;11034.176
  1.0613427E+00;  9.9999998E-03;  2.6039502E-01;2700;0.40004459;0.0;0.06862779;1007.1765;  4.0360680E-01;5845.1758;3;107.94276;0.0;2.0876858;0;0.38574678;  9.9893252E+03;  0.0000000E+00; -3.0997249E-01;  1.0000000E+04;  0.0000000E+00;  9.9742715E+03;0.24515566;0.0;0.1405911;10040.181
  1.0614084E+00;  9.9999998E-03;  2.8041470E-01;2701;0.40465134;0.0;0.068402819;1006.7579;  4.0360662E-01;5504.0898;3;128.70892;0.0;4.9879351;0;0.4897956;  9.9785000E+03;  0.0000000E+00; -3.4721249E-01;  1.0000000E+04;  0.0000000E+00;  9.9768447E+03;0.3815372;0.0;0.10825839;8979.7734
  1.0614562E+00;  9.9999998E-03;  3.0043098E-01;2702;0.40136749;0.0;0.06931404;1006.3059;  4.0360653E-01;5135.9502;3;152.55695;0.0;12.890582;0;0.60065293;  9.9658613E+03;  0.0000000E+00;  4.4884494E-01;  1.0000000E+04;  0.0000000E+00;  9.9805801E+03;0.51189941;0.0;0.088753499;7511.1851
  1.0810196E+00;  9.9999998E-03;  1.6025509E-01;2726;0.34501278;0.0;0.049950738;1007.1979;  4.0311837E-01;5829.5352;3;78.654045;0.0;-1.8277231;0;0.089623123;  1.0016181E+04;  0.0000000E+00; -6.1721489E-02;  1.0000000E+04;  0.0000000E+00;  9.9719961E+03;-0.15901886;0.0;0.24864198;10351.404
  1.0810717E+00;  9.9999998E-03;  1.8027925E-01;2727;0.35584527;0.0;0.055175669;1007.0967;  4.0311801E-01;5747.4683;3;79.570938;0.0;-1.389724;0;0.098596454;  1.0013409E+04;  0.0000000E+00; -2.4337164E-01;  1.0000000E+04;  0.0000000E+00;  9.9727637E+03;-0.12548538;0.0;0.22408183;10102.308
  1.0811342E+00;  9.9999998E-03;  2.0030296E-01;2728;0.36846572;0.0;0.059663955;1006.9753;  4.0311790E-01;5649.0684;3;82.068153;0.0;-0.83676416;0;0.11371464;  1.0010708E+04;  0.0000000E+00; -5.3834152E-01;  1.0000000E+04;  0.0000000E+00;  9.9730781E+03;-0.088211328;0.0;0.20192596;10165.169
  1.0812045E+00;  9.9999998E-03;  2.2032727E-01;2729;0.38104367;0.0;0.062604532;1006.8057;  4.0311739E-01;5511.6558;3;87.39415;0.0;-0.0668988;0;0.14599067;  1.0007531E+04;  0.0000000E+00; -8.0156863E-01;  1.0000000E+04;  0.0000000E+00;  9.9729170E+03;-0.039566889;0.0;0.18555756;10482.892
  1.0812742E+00;  9.9999998E-03;  2.4034384E-01;2730;0.39083797;0.0;0.062126409;1006.5979;  4.0311715E-01;5343.1646;3;97.69989;0.0;1.1888757;0;0.18970685;  1.0003032E+04;  0.0000000E+00; -8.8495541E-01;  1.0000000E+04;  0.0000000E+00;  9.9733174E+03;0.027645128;0.0;0.16206172;10424.256
  1.0813509E+00;  9.9999998E-03;  2.6035708E-01;2731;0.40011576;0.0;0.062103488;1006.3442;  4.0311667E-01;5137.5981;3;114.49304;0.0;3.9019859;0;0.25525492;  9.9956621E+03;  0.0000000E+00; -9.0143394E-01;  1.0000000E+04;  0.0000000E+00;  9.9756855E+03;0.12437424;0.0;0.13088067;9575.6895
  1.0814322E+00;  9.9999998E-03;  2.8037745E-01;2732;0.40906394;0.0;0.063531354;1005.8762;  4.0311661E-01;4758.4668;3;138.67273;0.0;7.7423711;0;0.36884561;  9.9838027E+03;  0.0000000E+00; -6.9182879E-01;  1.0000000E+04;  0.0000000E+00;  9.9782959E+03;0.26040867;0.0;0.10843693;8256.9238
  1.0814974E+00;  9.9999998E-03;  3.0039251E-01;2733;0.41046825;0.0;0.064535715;1005.3021;  4.0311643E-01;4293.4644;3;165.70583;0.0;13.576559;0;0.48339745;  9.9680498E+03;  0.0000000E+00;  1.5508801E+00;  1.0000000E+04;  0.0000000E+00;  9.9827256E+03;0.4006463;0.0;0.082751155;8714.7305
  1.1009983E+00;  9.9999998E-03;  1.6022755E-01;2756;0.34091598;0.0;0.046126049;1006.2699;  4.0270743E-01;5039.7456;3;78.907166;0.0;-0.94153243;0;0.042454988;  1.0015604E+04;  0.0000000E+00; -1.7803761E-01;  1.0000000E+04;  0.0000000E+00;  9.9745205E+03;-0.17687845;0.0;0.21933344;8754.7471
  1.1010550E+00;  9.9999998E-03;  1.8024836E-01;2757;0.35277247;0.0;0.050062452;1006.189;  4.0270701E-01;4974.5615;3;80.642921;0.0;-0.45309976;0;0.047393292;  1.0013730E+04;  0.0000000E+00; -5.1496166E-01;  1.0000000E+04;  0.0000000E+00;  9.9748027E+03;-0.15385734;0.0;0.20125063;8835.3848
  1.1011233E+00;  9.9999998E-03;  2.0027022E-01;2758;0.36633199;0.0;0.0534807;1006.111;  4.0270686E-01;4911.6558;3;84.330383;0.0;0.1959427;0;0.055740207;  1.0012365E+04;  0.0000000E+00; -9.9285400E-01;  1.0000000E+04;  0.0000000E+00;  9.9746338E+03;-0.13186958;0.0;0.18760979;9434.8359
  1.1011978E+00;  9.9999998E-03;  2.2029097E-01;2759;0.37897924;0.0;0.055059299;1006.0056;  4.0270656E-01;4826.895;3;91.496552;0.0;1.1545081;0;0.073831953;  1.0010694E+04;  0.0000000E+00; -1.4122527E+00;  1.0000000E+04;  0.0000000E+00;  9.9742490E+03;-0.10195006;0.0;0.17578201;10258.853
  1.1012716E+00;  9.9999998E-03;  2.4030463E-01;2760;0.38856959;0.0;0.054359399;1005.887;  4.0270615E-01;4731.3149;3;103.89332;0.0;2.8737695;0;0.093893915;  1.0007508E+04;  0.0000000E+00; -1.5665029E+00;  1.0000000E+04;  0.0000000E+00;  9.9751035E+03;-0.055291768;0.0;0.14918569;10310.795
  1.1013509E+00;  9.9999998E-03;  2.6031956E-01;2761;0.39801821;0.0;0.055801928;1005.6798;  4.0270564E-01;4564.7378;3;123.32846;0.0;6.2279477;0;0.14692056;  1.0000681E+04;  0.0000000E+00; -1.4783766E+00;  1.0000000E+04;  0.0000000E+00;  9.9778408E+03;0.02423957;0.0;0.122681;9305.0908
  1.1014372E+00;  9.9999998E-03;  2.8034276E-01;2762;0.40850994;0.0;0.058521293;1005.1326;  4.0270573E-01;4124.8374;3;149.98454;0.0;10.234327;0;0.268879;  9.9876650E+03;  0.0000000E+00; -5.5070800E-01;  1.0000000E+04;  0.0000000E+00;  9.9800264E+03;0.15849502;0.0;0.11038396;6879.0054
  1.1209793E+00;  9.9999998E-03;  1.6019909E-01;2785;0.33682874;0.0;0.041235734;1005.47;  4.0237060E-01;4353.353;3;79.422012;0.0;-0.1192142;0;0.0068100691;  1.0014463E+04;  0.0000000E+00; -4.3385333E-01;  1.0000000E+04;  0.0000000E+00;  9.9764854E+03;-0.1869767;0.0;0.19378677;7490.415
  1.1210415E+00;  9.9999998E-03;  1.8021789E-01;2786;0.34983039;0.0;0.044210535;1005.4226;  4.0237021E-01;4315.4419;3;82.229073;0.0;0.35953194;0;0.0076083541;  1.0013654E+04;  0.0000000E+00; -9.6750695E-01;  1.0000000E+04;  0.0000000E+00;  9.9763691E+03;-0.17450677;0.0;0.18211512;8068.3086
  1.1211146E+00;  9.9999998E-03;  2.0023786E-01;2787;0.36398432;0.0;0.046688471;1005.3925;  4.0236992E-01;4291.3569;3;87.768105;0.0;1.2012709;0;0.010111123;  1.0013486E+04;  0.0000000E+00; -1.6202090E+00;  1.0000000E+04;  0.0000000E+00;  9.9759658E+03;-0.16461721;0.0;0.17472833;9285.4473
  1.1211923E+00;  9.9999998E-03;  2.2025564E-01;2788;0.37593251;0.0;0.047132201;1005.351;  4.0236953E-01;4258.061;3;97.074875;0.0;2.257448;0;0.013714135;  1.0012830E+04;  0.0000000E+00; -2.1295648E+00;  1.0000000E+04;  0.0000000E+00;  9.9758213E+03;-0.14834304;0.0;0.16205718;10423.983
  1.1212677E+00;  9.9999998E-03;  2.4026839E-01;2789;0.38508385;0.0;0.046964951;1005.303;  4.0236935E-01;4219.7456;3;112.10403;0.0;4.5361676;0;0.016589232;  1.0010157E+04;  0.0000000E+00; -2.2060115E+00;  1.0000000E+04;  0.0000000E+00;  9.9775635E+03;-0.11486126;0.0;0.13145049;10219.197
  1.1213475E+00;  9.9999998E-03;  2.6028880E-01;2790;0.39511064;0.0;0.050246671;1005.0549;  4.0236908E-01;4022.1643;3;134.43069;0.0;8.1373968;0;0.077579282;  1.0002938E+04;  0.0000000E+00; -1.7176044E+00;  1.0000000E+04;  0.0000000E+00;  9.9798730E+03;-0.04047662;0.0;0.1180559;8476.6553
  1.1214252E+00;  9.9999998E-03;  2.8031239E-01;2791;0.40451989;0.0;0.053509343;1004.4871;  4.0236896E-01;3570.2195;3;162.31952;0.0;12.318892;0;0.19396324;  9.9896738E+03;  0.0000000E+00;  5.2948064E-01;  1.0000000E+04;  0.0000000E+00;  9.9818730E+03;0.084313586;0.0;0.10964966;5650.3706
  1.1409647E+00;  9.9999998E-03;  1.6017170E-01;2813;0.33338705;0.0;0.035746116;1004.8077;  4.0210021E-01;3777.125;3;80.632278;0.0;0.49963853;0;-0.021337956;  1.0013279E+04;  0.0000000E+00; -9.1108918E-01;  1.0000000E+04;  0.0000000E+00;  9.9779199E+03;-0.19521332;0.0;0.17387536;6752.8105
  1.1410321E+00;  9.9999998E-03;  1.8018982E-01;2814;0.34726337;0.0;0.038238738;1004.8015;  4.0210018E-01;3772.0691;3;85.059494;0.0;1.1915834;0;-0.024000481;  1.0013498E+04;  0.0000000E+00; -1.6396763E+00;  1.0000000E+04;  0.0000000E+00;  9.9775947E+03;-0.19135177;0.0;0.16735129;7954.7158
  1.1411097E+00;  9.9999998E-03;  2.0020966E-01;2815;0.36135432;0.0;0.039941035;1004.8064;  4.0209976E-01;3775.6934;3;92.748512;0.0;1.9667215;0;-0.025732681;  1.0014008E+04;  0.0000000E+00; -2.3933010E+00;  1.0000000E+04;  0.0000000E+00;  9.9772109E+03;-0.1879459;0.0;0.16221322;9576.3818
  1.1411892E+00;  9.9999998E-03;  2.2022632E-01;2816;0.37208903;0.0;0.039566878;1004.7961;  4.0209946E-01;3767.4199;3;104.69586;0.0;3.0755377;0;-0.03658551;  1.0013391E+04;  0.0000000E+00; -2.8277113E+00;  1.0000000E+04;  0.0000000E+00;  9.9776455E+03;-0.17799306;0.0;0.14140755;10510.649
  1.1412632E+00;  9.9999998E-03;  2.4024202E-01;2817;0.38135287;0.0;0.041249704;1004.7371;  4.0209916E-01;3720.772;3;123.07276;0.0;5.9945102;0;-0.028035782;  1.0010062E+04;  0.0000000E+00; -2.5269382E+00;  1.0000000E+04;  0.0000000E+00;  9.9798145E+03;-0.14402987;0.0;0.11599409;9414.7227
  1.1413405E+00;  9.9999998E-03;  2.6026714E-01;2818;0.39164412;0.0;0.045606151;1004.3643;  4.0209916E-01;3427.8743;3;147.70212;0.0;9.6433125;0;0.055586014;  1.0001471E+04;  0.0000000E+00; -1.0921184E+00;  1.0000000E+04;  0.0000000E+00;  9.9810010E+03;-0.060436774;0.0;0.11602279;6107.874
  1.1609554E+00;  9.9999998E-03;  1.6014792E-01;2840;0.33071727;0.0;0.030331062;1004.2933;  4.0188840E-01;3317.4214;3;83.428139;0.0;1.0980151;0;-0.04570365;  1.0012519E+04;  0.0000000E+00; -1.6570650E+00;  1.0000000E+04;  0.0000000E+00;  9.9789854E+03;-0.20557427;0.0;0.15987062;6717.3818
  1.1610284E+00;  9.9999998E-03;  1.8016763E-01;2841;0.3449131;0.0;0.032474723;1004.313;  4.0188807E-01;3332.3923;3;89.845665;0.0;1.7546577;0;-0.049210429;  1.0013308E+04;  0.0000000E+00; -2.5019817E+00;  1.0000000E+04;  0.0000000E+00;  9.9786094E+03;-0.2051973;0.0;0.15598688;8331.752
  1.1611104E+00;  9.9999998E-03;  2.0018871E-01;2842;0.35826585;0.0;0.033375271;1004.3033;  4.0188786E-01;3324.6763;3;100.08237;0.0;2.4130387;0;-0.053760201;  1.0013367E+04;  0.0000000E+00; -3.1865606E+00;  1.0000000E+04;  0.0000000E+00;  9.9783857E+03;-0.20015961;0.0;0.14639941;9789.8945
  1.1611881E+00;  9.9999998E-03;  2.2020553E-01;2843;0.36788845;0.0;0.033245116;1004.2658;  4.0188766E-01;3295.4253;3;115.07878;0.0;3.7763641;0;-0.070358656;  1.0011567E+04;  0.0000000E+00; -3.2118840E+00;  1.0000000E+04;  0.0000000E+00;  9.9794551E+03;-0.18659936;0.0;0.1162407;9709.2139
  1.1612611E+00;  9.9999998E-03;  2.4022801E-01;2844;0.37775218;0.0;0.037118044;1004.0487;  4.0188757E-01;3127.5107;3;136.46454;0.0;7.0121126;0;-0.026074581;  1.0006138E+04;  0.0000000E+00; -2.0850737E+00;  1.0000000E+04;  0.0000000E+00;  9.9805684E+03;-0.13397187;0.0;0.10789729;7148.4268
  1.1613231E+00;  9.9999998E-03;  2.6025015E-01;2845;0.38594854;0.0;0.041506901;1003.6844;  4.0188754E-01;2845.9307;3;161.92445;0.0;10.84128;0;0.060476121;  9.9975527E+03;  0.0000000E+00;  9.8416728E-01;  1.0000000E+04;  0.0000000E+00;  9.9819004E+03;-0.052707706;0.0;0.11318383;4930.8198
  1.1809542E+00;  9.9999998E-03;  1.6013214E-01;2866;0.32852015;0.0;0.02534383;1003.908;  4.0172526E-01;2956.7935;3;88.673157;0.0;1.3580784;0;-0.067036211;  1.0012155E+04;  0.0000000E+00; -2.6110203E+00;  1.0000000E+04;  0.0000000E+00;  9.9797852E+03;-0.21733974;0.0;0.15030353;7143.1953
  1.1810349E+00;  9.9999998E-03;  1.8015586E-01;2867;0.34247482;0.0;0.027058253;1003.8781;  4.0172532E-01;2933.7864;3;97.402641;0.0;1.7231119;0;-0.066202193;  1.0012139E+04;  0.0000000E+00; -3.4075420E+00;  1.0000000E+04;  0.0000000E+00;  9.9792324E+03;-0.21107845;0.0;0.14487626;8639.2617
  1.1811157E+00;  9.9999998E-03;  2.0017743E-01;2868;0.35471165;0.0;0.027971577;1003.7819;  4.0172514E-01;2860.8257;3;110.67712;0.0;2.5097609;0;-0.065657139;  1.0010298E+04;  0.0000000E+00; -3.6554310E+00;  1.0000000E+04;  0.0000000E+00;  9.9791660E+03;-0.19334668;0.0;0.12768954;9104.8281
  1.1811879E+00;  9.9999998E-03;  2.2019666E-01;2869;0.36386272;0.0;0.029683704;1003.6284;  4.0172505E-01;2744.446;3;128.44553;0.0;4.5255637;0;-0.057535924;  1.0006330E+04;  0.0000000E+00; -2.7125163E+00;  1.0000000E+04;  0.0000000E+00;  9.9800830E+03;-0.16183022;0.0;0.10429429;7238.7075
  1.1812505E+00;  9.9999998E-03;  2.4022028E-01;2870;0.37311628;0.0;0.034589101;1003.308;  4.0172496E-01;2501.8894;3;151.78004;0.0;8.0374374;0;0.02159211;  9.9996357E+03;  0.0000000E+00; -2.0061620E-02;  1.0000000E+04;  0.0000000E+00;  9.9803926E+03;-0.092586458;0.0;0.11417857;3986.0293
  1.2009674E+00;  9.9999998E-03;  1.6012934E-01;2890;0.32658395;0.0;0.021132987;1003.5306;  4.0160283E-01;2602.165;3;96.58284;0.0;0.9102149;0;-0.076848432;  1.0010544E+04;  0.0000000E+00; -3.5821691E+00;  1.0000000E+04;  0.0000000E+00;  9.9799902E+03;-0.21997672;0.0;0.14312829;7407.084
  1.2010477E+00;  9.9999998E-03;  1.8015255E-01;2891;0.33955547;0.0;0.022642987;1003.3777;  4.0160272E-01;2489.1509;3;108.21577;0.0;1.3416001;0;-0.063076928;  1.0008146E+04;  0.0000000E+00; -3.9256256E+00;  1.0000000E+04;  0.0000000E+00;  9.9793535E+03;-0.19599432;0.0;0.13291739;7983.3789
  1.2011222E+00;  9.9999998E-03;  2.0017542E-01;2892;0.35096076;0.0;0.025091894;1003.1231;  4.0160277E-01;2301.3423;3;124.31079;0.0;2.8218551;0;-0.030593708;  1.0003408E+04;  0.0000000E+00; -3.0660403E+00;  1.0000000E+04;  0.0000000E+00;  9.9790176E+03;-0.15074345;0.0;0.12014975;6641.7402
  1.2011794E+00;  9.9999998E-03;  2.2019391E-01;2893;0.35889864;0.0;0.028243206;1002.9247;  4.0160286E-01;2154.9082;3;144.24106;0.0;5.5843244;0;0.0044371411;  9.9986963E+03;  0.0000000E+00; -3.9328223E-01;  1.0000000E+04;  0.0000000E+00;  9.9797754E+03;-0.10707767;0.0;0.11151481;3540.8569
  1.2209840E+00;  9.9999998E-03;  1.6013180E-01;2913;0.32366711;0.0;0.017642738;1003.0428;  4.0151262E-01;2172.3682;3;108.31192;0.0;0.34747186;0;-0.063059375;  1.0005513E+04;  0.0000000E+00; -3.9382875E+00;  1.0000000E+04;  0.0000000E+00;  9.9798018E+03;-0.1974586;0.0;0.13439922;6506.5454
  1.2210531E+00;  9.9999998E-03;  1.8015361E-01;2914;0.33534381;0.0;0.020384375;1002.7861;  4.0151262E-01;1988.8079;3;123.03567;0.0;1.7027905;0;-0.02210702;  1.0001058E+04;  0.0000000E+00; -3.0870018E+00;  1.0000000E+04;  0.0000000E+00;  9.9791357E+03;-0.14984778;0.0;0.12774076;5442.2251
  1.2211134E+00;  9.9999998E-03;  2.0017546E-01;2915;0.34515837;0.0;0.024183242;1002.481;  4.0151283E-01;1770.8582;3;140.88455;0.0;4.0737524;0;0.038323671;  9.9955332E+03;  0.0000000E+00; -4.1729712E-01;  1.0000000E+04;  0.0000000E+00;  9.9785781E+03;-0.090395421;0.0;0.12871909;3065.2769
  1.2211409E+00;  9.9999998E-03;  2.2018164E-01;2916;0.34688187;0.0;0.026133606;1002.6967;  4.0151253E-01;1924.6914;3;159.2811;0.0;7.2209158;0;-0.0056730434;  9.9965400E+03;  0.0000000E+00;  3.4743073E+00;  1.0000000E+04;  0.0000000E+00;  9.9818643E+03;-0.11695429;0.0;0.11128125;5670.0508
  1.2409823E+00;  9.9999998E-03;  1.6013135E-01;2934;0.31812826;0.0;0.015661424;1002.5855;  4.0144747E-01;1777.8263;3;124.16371;0.0;1.2057824;0;-0.026911184;  9.9992959E+03;  0.0000000E+00; -2.4524937E+00;  1.0000000E+04;  0.0000000E+00;  9.9801338E+03;-0.15391192;0.0;0.12700073;3728.7739
  1.2410339E+00;  9.9999998E-03;  1.8014988E-01;2935;0.32723737;0.0;0.019375717;1002.4235;  4.0144765E-01;1666.2566;3;139.85884;0.0;3.3432174;0;0.015719302;  9.9963750E+03;  0.0000000E+00; -2.2081751E-02;  1.0000000E+04;  0.0000000E+00;  9.9798281E+03;-0.11446936;0.0;0.13018866;2356.3384
  1.2609527E+00;  9.9999998E-03;  1.6012479E-01;2952;0.30727389;0.0;0.014087535;1002.5072;  4.0140152E-01;1651.5956;3;140.15962;0.0;2.436317;0;-0.035121128;  9.9986133E+03;  0.0000000E+00;  9.1472548E-01;  1.0000000E+04;  0.0000000E+00;  9.9815518E+03;-0.15539697;0.0;0.12027584;2020.9398
