Pos.x;Pos.y;Pos.z;Idp;Vel.x;Vel.y;Vel.z;Rhop;Mass;Press;Type;Acec.x;Acec.y;Acec.z;CellOffSpring;GradVel;Qfxx;Qfxy;Qfxz;Qfyy;Qfyz;Qfzz;StrainDot.x;StrainDot.y;StrainDot.z;VonMises3D
 -2.2000000E-01;  9.9999998E-03; -3.8000000E-01;0;0.0;0.0;0.0;1000.0;  4.0000001E-01;0.0;0;0.0;0.0;0.0;0;0.0;  1.0000000E+04;  0.0000000E+00;  0.0000000E+00;  1.0000000E+04;  0.0000000E+00;  1.0000000E+04;0.0;0.0;0.0;0.0
 -2.2000000E-01;  9.9999998E-03; -3.6000001E-01;1;0.0;0.0;0.0;1000.0;  4.0000001E-01;0.0;0;0.0;0.0;0.0;0;0.0;  1.0000000E+04;  0.0000000E+00;  0.0000000E+00;  1.0000000E+04;  0.0000000E+00;  1.0000000E+04;0.0;0.0;0.0;0.0
 -2.0000000E-01;  9.9999998E-03; -4.0000001E-01;39;0.0;0.0;0.0;1000.0;  4.0000001E-01;0.0;0;0.0;0.0;0.0;0;0.0;  1.0000000E+04;  0.0000000E+00;  0.0000000E+00;  1.0000000E+04;  0.0000000E+00;  1.0000000E+04;0.0;0.0;0.0;0.0
 -2.0000000E-01;  9.9999998E-03; -3.8000000E-01;40;0.0;0.0;0.0;1000.0;  4.0000001E-01;0.0;0;0.0;0.0;0.0;0;0.0;  1.0000000E+04;  0.0000000E+00;  0.0000000E+00;  1.0000000E+04;  0.0000000E+00;  1.0000000E+04;0.0;0.0;0.0;0.0
 -2.0000000E-01;  9.9999998E-03; -3.6000001E-01;41;0.0;0.0;0.0;1000.0;  4.0000001E-01;0.0;0;0.0;0.0;0.0;0;0.0;  1.0000000E+04;  0.0000000E+00;  0.0000000E+00;  1.0000000E+04;  0.0000000E+00;  1.0000000E+04;0.0;0.0;0.0;0.0
 -1.8000001E-01;  9.9999998E-03; -4.0000001E-01;80;0.0;0.0;0.0;1000.0;  4.0000001E-01;0.0;0;0.0;0.0;0.0;0;0.0;  1.0000000E+04;  0.0000000E+00;  0.0000000E+00;  1.0000000E+04;  0.0000000E+00;  1.0000000E+04;0.0;0.0;0.0;0.0
 -1.8000001E-01;  9.9999998E-03; -3.8000000E-01;81;0.0;0.0;0.0;1000.0;  4.0000001E-01;0.0;0;0.0;0.0;0.0;0;0.0;  1.0000000E+04;  0.0000000E+00;  0.0000000E+00;  1.0000000E+04;  0.0000000E+00;  1.0000000E+04;0.0;0.0;0.0;0.0
 -1.8000001E-01;  9.9999998E-03; -3.6000001E-01;82;0.0;0.0;0.0;1000.0;  4.0000001E-01;0.0;0;0.0;0.0;0.0;0;0.0;  1.0000000E+04;  0.0000000E+00;  0.0000000E+00;  1.0000000E+04;  0.0000000E+00;  1.0000000E+04;0.0;0.0;0.0;0.0
 -1.6000000E-01;  9.9999998E-03; -4.0000001E-01;121;0.0;0.0;0.0;1000.0;  4.0000001E-01;0.0;0;0.0;0.0;0.0;0;0.0;  1.0000000E+04;  0.0000000E+00;  0.0000000E+00;  1.0000000E+04;  0.0000000E+00;  1.0000000E+04;0.0;0.0;0.0;0.0
 -1.6000000E-01;  9.9999998E-03; -3.8000000E-01;122;0.0;0.0;0.0;1000.0;  4.0000001E-01;0.0;0;0.0;0.0;0.0;0;0.0;  1.0000000E+04;  0.0000000E+00;  0.0000000E+00;  1.0000000E+04;  0.0000000E+00;  1.0000000E+04;0.0;0.0;0.0;0.0
 -1.6000000E-01;  9.9999998E-03; -3.6000001E-01;123;0.0;0.0;0.0;1000.0;  4.0000001E-01;0.0;0;0.0;0.0;0.0;0;0.0;  1.0000000E+04;  0.0000000E+00;  0.0000000E+00;  1.0000000E+04;  0.0000000E+00;  1.0000000E+04;0.0;0.0;0.0;0.0
 -1.4000000E-01;  9.9999998E-03; -4.0000001E-01;162;0.0;0.0;0.0;1000.0;  4.0000001E-01;0.0;0;0.0;0.0;0.0;0;0.0;  1.0000000E+04;  0.0000000E+00;  0.0000000E+00;  1.0000000E+04;  0.0000000E+00;  1.0000000E+04;0.0;0.0;0.0;0.0
 -1.4000000E-01;  9.9999998E-03; -3.8000000E-01;163;0.0;0.0;0.0;1000.0;  4.0000001E-01;0.0;0;0.0;0.0;0.0;0;0.0;  1.0000000E+04;  0.0000000E+00;  0.0000000E+00;  1.0000000E+04;  0.0000000E+00;  1.0000000E+04;0.0;0.0;0.0;0.0
 -1.4000000E-01;  9.9999998E-03; -3.6000001E-01;164;0.0;0.0;0.0;1000.0;  4.0000001E-01;0.0;0;0.0;0.0;0.0;0;-4.5431185e-07;  1.0000000E+04;  0.0000000E+00;  0.0000000E+00;  1.0000000E+04;  0.0000000E+00;  1.0000000E+04;-3.5853171e-07;0.0;-9.578013e-08;0.00098026241
 -1.2000000E-01;  9.9999998E-03; -4.0000001E-01;203;0.0;0.0;0.0;1000.0;  4.0000001E-01;0.0;0;0.0;0.0;0.0;0;-3.5965606e-19;  1.0000000E+04;  0.0000000E+00;  0.0000000E+00;  1.0000000E+04;  0.0000000E+00;  1.0000000E+04;-2.5332923e-19;0.0;-1.0632684e-19;2.4728373e-16
 -1.2000000E-01;  9.9999998E-03; -3.8000000E-01;204;0.0;0.0;0.0;1000.0;  4.0000001E-01;0.0;0;0.0;0.0;0.0;0;-2.3931184e-06;  1.0000000E+04;  0.0000000E+00;  0.0000000E+00;  1.0000000E+04;  0.0000000E+00;  1.0000000E+04;-1.6933064e-06;0.0;-6.9981184e-07;0.0072433511
 -1.2000000E-01;  9.9999998E-03; -3.6000001E-01;205;0.0;0.0;0.0;1000.0;  4.0000001E-01;0.0;0;0.0;0.0;0.0;0;-1.6148457e-05;  1.0000000E+04;  0.0000000E+00;  0.0000000E+00;  1.0000000E+04;  0.0000000E+00;  1.0000000E+04;-1.2200117e-05;0.0;-3.9483402e-06;0.040652096
 -1.0000000E-01;  9.9999998E-03; -4.0000001E-01;244;0.0;0.0;0.0;1000.0;  4.0000001E-01;0.0;0;0.0;0.0;0.0;0;-4.3885366e-06;  1.0000000E+04;  0.0000000E+00;  0.0000000E+00;  1.0000000E+04;  0.0000000E+00;  1.0000000E+04;-2.9088023e-06;0.0;-1.4797342e-06;0.015425052
 -1.0000000E-01;  9.9999998E-03; -3.8000000E-01;245;0.0;0.0;0.0;1000.0;  4.0000001E-01;0.0;0;0.0;0.0;0.0;0;-3.1904518e-05;  1.0000000E+04;  0.0000000E+00;  0.0000000E+00;  1.0000000E+04;  0.0000000E+00;  1.0000000E+04;-2.1413041e-05;0.0;-1.0491476e-05;0.10928561
 -1.0000000E-01;  9.9999998E-03; -3.6000001E-01;246;0.0;0.0;0.0;1000.0;  4.0000001E-01;0.0;0;0.0;0.0;0.0;0;-0.00010043436;  1.0000000E+04;  0.0000000E+00;  0.0000000E+00;  1.0000000E+04;  0.0000000E+00;  1.0000000E+04;-7.302672e-05;0.0;-2.7407645e-05;0.28447694
 -7.9999998E-02;  9.9999998E-03; -4.0000001E-01;285;0.0;0.0;0.0;1000.0;  4.0000001E-01;0.0;0;0.0;0.0;0.0;0;-3.6940684e-05;  1.0000000E+04;  0.0000000E+00;  0.0000000E+00;  1.0000000E+04;  0.0000000E+00;  1.0000000E+04;-2.3149183e-05;0.0;-1.3791503e-05;0.14465784
 -7.9999998E-02;  9.9999998E-03; -3.8000000E-01;286;0.0;0.0;0.0;1000.0001;  4.0000001E-01;0.098762624;0;0.0;0.0;0.0;0;-0.00014018375;  1.0000000E+04;  0.0000000E+00;  0.0000000E+00;  1.0000000E+04;  0.0000000E+00;  1.0000000E+04;-8.9986963e-05;0.0;-5.0196781e-05;0.52689093
 -7.9999998E-02;  9.9999998E-03; -3.6000001E-01;287;0.0;0.0;0.0;1000.0003;  4.0000001E-01;0.29628786;0;0.0;0.0;0.0;0;-0.00033678918;  1.0000000E+04;  0.0000000E+00;  0.0000000E+00;  1.0000000E+04;  0.0000000E+00;  1.0000000E+04;-0.00023674162;0.0;-0.00010004757;1.0466586
 -5.9999999E-02;  9.9999998E-03; -4.0000001E-01;326;0.0;0.0;0.0;1000.0001;  4.0000001E-01;0.098762624;0;0.0;0.0;0.0;0;-0.00013159926;  1.0000000E+04;  0.0000000E+00;  0.0000000E+00;  1.0000000E+04;  0.0000000E+00;  1.0000000E+04;-7.8329795e-05;0.0;-5.3269458e-05;0.56325936
 -5.9999999E-02;  9.9999998E-03; -3.8000000E-01;327;0.0;0.0;0.0;1000.0004;  4.0000001E-01;0.3950505;0;0.0;0.0;0.0;0;-0.00038437959;  1.0000000E+04;  0.0000000E+00;  0.0000000E+00;  1.0000000E+04;  0.0000000E+00;  1.0000000E+04;-0.00023618601;0.0;-0.00014819356;1.5693644
 -5.9999999E-02;  9.9999998E-03; -3.6000001E-01;328;0.0;0.0;0.0;1000.001;  4.0000001E-01;0.79010099;0;0.0;0.0;0.0;0;-0.00080773997;  1.0000000E+04;  0.0000000E+00;  0.0000000E+00;  1.0000000E+04;  0.0000000E+00;  1.0000000E+04;-0.00054884003;0.0;-0.00025889993;2.7349997
 -3.9999999E-02;  9.9999998E-03; -4.0000001E-01;367;0.0;0.0;0.0;1000.0003;  4.0000001E-01;0.29628786;0;0.0;0.0;0.0;0;-0.00031114015;  1.0000000E+04;  0.0000000E+00;  0.0000000E+00;  1.0000000E+04;  0.0000000E+00;  1.0000000E+04;-0.00017526846;0.0;-0.00013587168;1.4510192
 -3.9999999E-02;  9.9999998E-03; -3.8000000E-01;368;0.0;0.0;0.0;1000.0009;  4.0000001E-01;0.69133836;0;0.0;0.0;0.0;0;-0.00079589325;  1.0000000E+04;  0.0000000E+00;  0.0000000E+00;  1.0000000E+04;  0.0000000E+00;  1.0000000E+04;-0.00046641755;0.0;-0.00032947573;3.5266194
 -3.9999999E-02;  9.9999998E-03; -3.6000001E-01;369;0.0;0.0;0.0;1000.002;  4.0000001E-01;1.580202;0;0.0;0.0;0.0;0;-0.0015503147;  1.0000000E+04;  0.0000000E+00;  0.0000000E+00;  1.0000000E+04;  0.0000000E+00;  1.0000000E+04;-0.0010147386;0.0;-0.00053557614;5.7231946
 -2.0000000E-02;  9.9999998E-03; -4.0000001E-01;408;0.0;0.0;0.0;1000.0006;  4.0000001E-01;0.49381313;0;0.0;0.0;0.0;0;-0.00057166727;  1.0000000E+04;  0.0000000E+00;  0.0000000E+00;  1.0000000E+04;  0.0000000E+00;  1.0000000E+04;-0.00030314759;0.0;-0.00026851968;2.9033048
 -2.0000000E-02;  9.9999998E-03; -3.8000000E-01;409;0.0;0.0;0.0;1000.0017;  4.0000001E-01;1.3826767;0;0.0;0.0;0.0;0;-0.0013595442;  1.0000000E+04;  0.0000000E+00;  0.0000000E+00;  1.0000000E+04;  0.0000000E+00;  1.0000000E+04;-0.00075684133;0.0;-0.0006027029;6.5360942
 -2.0000000E-02;  9.9999998E-03; -3.6000001E-01;410;0.0;0.0;0.0;1000.0031;  4.0000001E-01;2.5678282;0;0.0;0.0;0.0;0;-0.002530328;  1.0000000E+04;  0.0000000E+00;  0.0000000E+00;  1.0000000E+04;  0.0000000E+00;  1.0000000E+04;-0.0015902068;0.0;-0.00094012119;10.185718
  0.0000000E+00;  9.9999998E-03; -4.0000001E-01;449;0.0;0.0;0.0;1000.0011;  4.0000001E-01;0.88886362;0;0.0;0.0;0.0;0;-0.00088274654;  1.0000000E+04;  0.0000000E+00;  0.0000000E+00;  1.0000000E+04;  0.0000000E+00;  1.0000000E+04;-0.0004394089;0.0;-0.00044333763;4.8687029
  0.0000000E+00;  9.9999998E-03; -3.8000000E-01;450;0.0;0.0;0.0;1000.0025;  4.0000001E-01;2.0740151;0;0.0;0.0;0.0;0;-0.0020163534;  1.0000000E+04;  0.0000000E+00;  0.0000000E+00;  1.0000000E+04;  0.0000000E+00;  1.0000000E+04;-0.0010651745;0.0;-0.00095117884;10.484281
  0.0000000E+00;  9.9999998E-03; -3.6000001E-01;451;0.0;0.0;0.0;1000.0046;  4.0000001E-01;3.7529798;0;0.0;0.0;0.0;0;-0.0036483174;  1.0000000E+04;  0.0000000E+00;  0.0000000E+00;  1.0000000E+04;  0.0000000E+00;  1.0000000E+04;-0.0022003148;0.0;-0.0014480025;15.955817
  2.0000000E-02;  9.9999998E-03; -4.0000001E-01;461;0.0;0.0;0.0;1000.0015;  4.0000001E-01;1.1851515;0;0.0;0.0;0.0;0;-0.0012039247;  1.0000000E+04;  0.0000000E+00;  0.0000000E+00;  1.0000000E+04;  0.0000000E+00;  1.0000000E+04;-0.00056464114;0.0;-0.00063928351;7.1605849
  2.0000000E-02;  9.9999998E-03; -3.8000000E-01;462;0.0;0.0;0.0;1000.0034;  4.0000001E-01;2.8641162;0;0.0;0.0;0.0;0;-0.0026926037;  1.0000000E+04;  0.0000000E+00;  0.0000000E+00;  1.0000000E+04;  0.0000000E+00;  1.0000000E+04;-0.0013570774;0.0;-0.0013355264;15.024758
  2.0000000E-02;  9.9999998E-03; -3.6000001E-01;463;0.0;0.0;0.0;1000.006;  4.0000001E-01;5.0368938;0;0.0;0.0;0.0;0;-0.0047868006;  1.0000000E+04;  0.0000000E+00;  0.0000000E+00;  1.0000000E+04;  0.0000000E+00;  1.0000000E+04;-0.0027852417;0.0;-0.0020015589;22.525793
  3.9999999E-02;  9.9999998E-03; -4.0000001E-01;471;0.0;0.0;0.0;1000.002;  4.0000001E-01;1.580202;0;0.0;0.0;0.0;0;-0.001508088;  1.0000000E+04;  0.0000000E+00;  0.0000000E+00;  1.0000000E+04;  0.0000000E+00;  1.0000000E+04;-0.0006761619;0.0;-0.00083192607;9.5535936
  3.9999999E-02;  9.9999998E-03; -3.8000000E-01;472;0.0;0.0;0.0;1000.0043;  4.0000001E-01;3.5554545;0;0.0;0.0;0.0;0;-0.0033415216;  1.0000000E+04;  0.0000000E+00;  0.0000000E+00;  1.0000000E+04;  0.0000000E+00;  1.0000000E+04;-0.001630562;0.0;-0.0017109595;19.748829
  3.9999999E-02;  9.9999998E-03; -3.6000001E-01;473;0.0;0.0;0.0;1000.0077;  4.0000001E-01;6.4195704;0;0.0;0.0;0.0;0;-0.0058802231;  1.0000000E+04;  0.0000000E+00;  0.0000000E+00;  1.0000000E+04;  0.0000000E+00;  1.0000000E+04;-0.0033454122;0.0;-0.0025348109;29.291227
  5.9999999E-02;  9.9999998E-03; -4.0000001E-01;481;0.0;0.0;0.0;1000.0024;  4.0000001E-01;1.9752525;0;0.0;0.0;0.0;0;-0.0017983823;  1.0000000E+04;  0.0000000E+00;  0.0000000E+00;  1.0000000E+04;  0.0000000E+00;  1.0000000E+04;-0.0007927324;0.0;-0.0010056498;11.909204
  5.9999999E-02;  9.9999998E-03; -3.8000000E-01;482;0.0;0.0;0.0;1000.0053;  4.0000001E-01;4.4443183;0;0.0;0.0;0.0;0;-0.0039732167;  1.0000000E+04;  0.0000000E+00;  0.0000000E+00;  1.0000000E+04;  0.0000000E+00;  1.0000000E+04;-0.0019240133;0.0;-0.0020492033;24.413128
  5.9999999E-02;  9.9999998E-03; -3.6000001E-01;483;0.0;0.0;0.0;1000.0093;  4.0000001E-01;7.7034845;0;0.0;0.0;0.0;0;-0.0069595147;  1.0000000E+04;  0.0000000E+00;  0.0000000E+00;  1.0000000E+04;  0.0000000E+00;  1.0000000E+04;-0.0039514485;0.0;-0.0030080664;35.911953
  7.9999998E-02;  9.9999998E-03; -4.0000001E-01;491;0.0;0.0;0.0;1000.0029;  4.0000001E-01;2.3703029;0;0.0;0.0;0.0;0;-0.0021130622;  1.0000000E+04;  0.0000000E+00;  0.0000000E+00;  1.0000000E+04;  0.0000000E+00;  1.0000000E+04;-0.0009529519;0.0;-0.0011601102;14.258532
  7.9999998E-02;  9.9999998E-03; -3.8000000E-01;492;0.0;0.0;0.0;1000.0064;  4.0000001E-01;5.3331819;0;0.0;0.0;0.0;0;-0.0046692388;  1.0000000E+04;  0.0000000E+00;  0.0000000E+00;  1.0000000E+04;  0.0000000E+00;  1.0000000E+04;-0.00231927;0.0;-0.002349969;29.07275
  7.9999998E-02;  9.9999998E-03; -3.6000001E-01;493;0.0;0.0;0.0;1000.0113;  4.0000001E-01;9.3824492;0;0.0;0.0;0.0;0;-0.0081780218;  1.0000000E+04;  0.0000000E+00;  0.0000000E+00;  1.0000000E+04;  0.0000000E+00;  1.0000000E+04;-0.0047529922;0.0;-0.0034250291;42.58131
  1.0000000E-01;  9.9999998E-03; -4.0000001E-01;501;0.0;0.0;0.0;1000.0037;  4.0000001E-01;3.0616415;0;0.0;0.0;0.0;0;-0.0025270074;  1.0000000E+04;  0.0000000E+00;  0.0000000E+00;  1.0000000E+04;  0.0000000E+00;  1.0000000E+04;-0.0012163634;0.0;-0.0013106441;17.535994
  1.0000000E-01;  9.9999998E-03; -3.8000000E-01;502;0.0;0.0;0.0;1000.0079;  4.0000001E-01;6.6170959;0;0.0;0.0;0.0;0;-0.0055880998;  1.0000000E+04;  0.0000000E+00;  0.0000000E+00;  1.0000000E+04;  0.0000000E+00;  1.0000000E+04;-0.0029444401;0.0;-0.0026436597;34.150887
  1.0000000E-01;  9.9999998E-03; -3.6000001E-01;503;0.0;0.0;0.0;1000.014;  4.0000001E-01;11.555227;0;0.0;0.0;0.0;0;-0.0098170079;  1.0000000E+04;  0.0000000E+00;  0.0000000E+00;  1.0000000E+04;  0.0000000E+00;  1.0000000E+04;-0.0059815194;0.0;-0.0038354888;50.518402
  1.2000000E-01;  9.9999998E-03; -4.0000001E-01;511;0.0;0.0;0.0;1000.0047;  4.0000001E-01;3.8517423;0;0.0;0.0;0.0;0;-0.0031615116;  1.0000000E+04;  0.0000000E+00;  0.0000000E+00;  1.0000000E+04;  0.0000000E+00;  1.0000000E+04;-0.001669061;0.0;-0.0014924506;31.660688
  1.2000000E-01;  9.9999998E-03; -3.8000000E-01;512;0.0;0.0;0.0;1000.0103;  4.0000001E-01;8.4935856;0;0.0;0.0;0.0;0;-0.0069816853;  1.0000000E+04;  0.0000000E+00;  0.0000000E+00;  1.0000000E+04;  0.0000000E+00;  1.0000000E+04;-0.0039784289;0.0;-0.0030032564;43.556091
  1.2000000E-01;  9.9999998E-03; -3.6000001E-01;513;0.0;0.0;0.0;1000.0179;  4.0000001E-01;14.913157;0;0.0;0.0;0.0;0;-0.012300517;  1.0000000E+04;  0.0000000E+00;  0.0000000E+00;  1.0000000E+04;  0.0000000E+00;  1.0000000E+04;-0.0079503786;0.0;-0.0043501393;63.052464
  1.4000000E-01;  9.9999998E-03; -4.0000001E-01;521;0.0;0.0;0.0;1000.0063;  4.0000001E-01;5.2344189;0;0.0;0.0;0.0;0;-0.0042310115;  1.0000000E+04;  0.0000000E+00;  0.0000000E+00;  1.0000000E+04;  0.0000000E+00;  1.0000000E+04;-0.002440992;0.0;-0.0017900197;90.334808
  1.4000000E-01;  9.9999998E-03; -3.8000000E-01;522;0.0;0.0;0.0;1000.014;  4.0000001E-01;11.65399;0;0.0;0.0;0.0;0;-0.009246733;  1.0000000E+04;  0.0000000E+00;  0.0000000E+00;  1.0000000E+04;  0.0000000E+00;  1.0000000E+04;-0.0056673139;0.0;-0.0035794189;83.941048
  1.4000000E-01;  9.9999998E-03; -3.6000001E-01;523;0.0;0.0;0.0;1000.0245;  4.0000001E-01;20.3451;0;0.0;0.0;0.0;0;-0.016233344;  1.0000000E+04;  0.0000000E+00;  0.0000000E+00;  1.0000000E+04;  0.0000000E+00;  1.0000000E+04;-0.011060813;0.0;-0.0051725297;85.727539
  1.6000000E-01;  9.9999998E-03; -4.0000001E-01;531;0.0;0.0;0.0;1000.0094;  4.0000001E-01;7.8022475;0;0.0;0.0;0.0;0;-0.0061047897;  1.0000000E+04;  0.0000000E+00;  0.0000000E+00;  1.0000000E+04;  0.0000000E+00;  1.0000000E+04;-0.0037032692;0.0;-0.0024015203;257.76114
  1.6000000E-01;  9.9999998E-03; -3.8000000E-01;532;0.0;0.0;0.0;1000.02;  4.0000001E-01;16.592121;0;0.0;0.0;0.0;0;-0.01290514;  1.0000000E+04;  0.0000000E+00;  0.0000000E+00;  1.0000000E+04;  0.0000000E+00;  1.0000000E+04;-0.0082483599;0.0;-0.0046567805;218.42909
  1.6000000E-01;  9.9999998E-03; -3.6000001E-01;533;0.0;0.0;0.0;1000.0344;  4.0000001E-01;28.443636;0;0.0;0.0;0.0;0;-0.022275807;  1.0000000E+04;  0.0000000E+00;  0.0000000E+00;  1.0000000E+04;  0.0000000E+00;  1.0000000E+04;-0.015631959;0.0;-0.006643848;120.51923
  1.8000001E-01;  9.9999998E-03; -4.0000001E-01;541;0.0;0.0;0.0;1000.0146;  4.0000001E-01;12.147802;0;0.0;0.0;0.0;0;-0.0093149012;  1.0000000E+04;  0.0000000E+00;  0.0000000E+00;  1.0000000E+04;  0.0000000E+00;  1.0000000E+04;-0.0055530155;0.0;-0.0037618859;639.89484
  1.8000001E-01;  9.9999998E-03; -3.8000000E-01;542;0.0;0.0;0.0;1000.0291;  4.0000001E-01;24.09808;0;0.0;0.0;0.0;0;-0.018363189;  1.0000000E+04;  0.0000000E+00;  0.0000000E+00;  1.0000000E+04;  0.0000000E+00;  1.0000000E+04;-0.011625778;0.0;-0.006737411;521.89374
  1.8000001E-01;  9.9999998E-03; -3.6000001E-01;543;0.0;0.0;0.0;1000.0485;  4.0000001E-01;40.196388;0;0.0;0.0;0.0;0;-0.030655168;  1.0000000E+04;  0.0000000E+00;  0.0000000E+00;  1.0000000E+04;  0.0000000E+00;  1.0000000E+04;-0.021356909;0.0;-0.0092982594;157.72136
  2.0000000E-01;  9.9999998E-03; -3.8000000E-01;551;0.0;0.0;0.0;1000.0421;  4.0000001E-01;34.863205;0;0.0;0.0;0.0;0;-0.025834583;  1.0000000E+04;  0.0000000E+00;  0.0000000E+00;  1.0000000E+04;  0.0000000E+00;  1.0000000E+04;-0.015230289;0.0;-0.010604295;1020.3674
  2.0000000E-01;  9.9999998E-03; -3.6000001E-01;552;0.0;0.0;0.0;1000.0665;  4.0000001E-01;55.109543;0;0.0;0.0;0.0;0;-0.041080154;  1.0000000E+04;  0.0000000E+00;  0.0000000E+00;  1.0000000E+04;  0.0000000E+00;  1.0000000E+04;-0.027194904;0.0;-0.01388525;213.19179
 -2.2000000E-01;  9.9999998E-03; -3.4000000E-01;2;0.0;0.0;0.0;1000.0;  4.0000001E-01;0.0;0;0.0;0.0;0.0;0;0.0;  1.0000000E+04;  0.0000000E+00;  0.0000000E+00;  1.0000000E+04;  0.0000000E+00;  1.0000000E+04;0.0;0.0;0.0;0.0
 -2.2000000E-01;  9.9999998E-03; -3.1999999E-01;3;0.0;0.0;0.0;1000.0;  4.0000001E-01;0.0;0;0.0;0.0;0.0;0;0.0;  1.0000000E+04;  0.0000000E+00;  0.0000000E+00;  1.0000000E+04;  0.0000000E+00;  1.0000000E+04;0.0;0.0;0.0;0.0
 -2.2000000E-01;  9.9999998E-03; -3.0000001E-01;4;0.0;0.0;0.0;1000.0;  4.0000001E-01;0.0;0;0.0;0.0;0.0;0;0.0;  1.0000000E+04;  0.0000000E+00;  0.0000000E+00;  1.0000000E+04;  0.0000000E+00;  1.0000000E+04;0.0;0.0;0.0;0.0
 -2.2000000E-01;  9.9999998E-03; -2.8000000E-01;5;0.0;0.0;0.0;1000.0;  4.0000001E-01;0.0;0;0.0;0.0;0.0;0;0.0;  1.0000000E+04;  0.0000000E+00;  0.0000000E+00;  1.0000000E+04;  0.0000000E+00;  1.0000000E+04;0.0;0.0;0.0;0.0
 -2.2000000E-01;  9.9999998E-03; -2.5999999E-01;6;0.0;0.0;0.0;1000.0;  4.0000001E-01;0.0;0;0.0;0.0;0.0;0;0.0;  1.0000000E+04;  0.0000000E+00;  0.0000000E+00;  1.0000000E+04;  0.0000000E+00;  1.0000000E+04;0.0;0.0;0.0;0.0
 -2.2000000E-01;  9.9999998E-03; -2.3999999E-01;7;0.0;0.0;0.0;1000.0;  4.0000001E-01;0.0;0;0.0;0.0;0.0;0;0.0;  1.0000000E+04;  0.0000000E+00;  0.0000000E+00;  1.0000000E+04;  0.0000000E+00;  1.0000000E+04;0.0;0.0;0.0;0.0
 -2.2000000E-01;  9.9999998E-03; -2.2000000E-01;8;0.0;0.0;0.0;1000.0;  4.0000001E-01;0.0;0;0.0;0.0;0.0;0;0.0;  1.0000000E+04;  0.0000000E+00;  0.0000000E+00;  1.0000000E+04;  0.0000000E+00;  1.0000000E+04;0.0;0.0;0.0;0.0
 -2.2000000E-01;  9.9999998E-03; -2.0000000E-01;9;0.0;0.0;0.0;1000.0;  4.0000001E-01;0.0;0;0.0;0.0;0.0;0;0.0;  1.0000000E+04;  0.0000000E+00;  0.0000000E+00;  1.0000000E+04;  0.0000000E+00;  1.0000000E+04;0.0;0.0;0.0;0.0
 -2.0000000E-01;  9.9999998E-03; -3.4000000E-01;42;0.0;0.0;0.0;1000.0;  4.0000001E-01;0.0;0;0.0;0.0;0.0;0;0.0;  1.0000000E+04;  0.0000000E+00;  0.0000000E+00;  1.0000000E+04;  0.0000000E+00;  1.0000000E+04;0.0;0.0;0.0;0.0
 -2.0000000E-01;  9.9999998E-03; -3.1999999E-01;43;0.0;0.0;0.0;1000.0;  4.0000001E-01;0.0;0;0.0;0.0;0.0;0;0.0;  1.0000000E+04;  0.0000000E+00;  0.0000000E+00;  1.0000000E+04;  0.0000000E+00;  1.0000000E+04;0.0;0.0;0.0;0.0
 -2.0000000E-01;  9.9999998E-03; -3.0000001E-01;44;0.0;0.0;0.0;1000.0;  4.0000001E-01;0.0;0;0.0;0.0;0.0;0;0.0;  1.0000000E+04;  0.0000000E+00;  0.0000000E+00;  1.0000000E+04;  0.0000000E+00;  1.0000000E+04;0.0;0.0;0.0;0.0
 -2.0000000E-01;  9.9999998E-03; -2.8000000E-01;45;0.0;0.0;0.0;1000.0;  4.0000001E-01;0.0;0;0.0;0.0;0.0;0;0.0;  1.0000000E+04;  0.0000000E+00;  0.0000000E+00;  1.0000000E+04;  0.0000000E+00;  1.0000000E+04;0.0;0.0;0.0;0.0
 -2.0000000E-01;  9.9999998E-03; -2.5999999E-01;46;0.0;0.0;0.0;1000.0;  4.0000001E-01;0.0;0;0.0;0.0;0.0;0;0.0;  1.0000000E+04;  0.0000000E+00;  0.0000000E+00;  1.0000000E+04;  0.0000000E+00;  1.0000000E+04;0.0;0.0;0.0;0.0
 -2.0000000E-01;  9.9999998E-03; -2.3999999E-01;47;0.0;0.0;0.0;1000.0;  4.0000001E-01;0.0;0;0.0;0.0;0.0;0;0.0;  1.0000000E+04;  0.0000000E+00;  0.0000000E+00;  1.0000000E+04;  0.0000000E+00;  1.0000000E+04;0.0;0.0;0.0;0.0
 -2.0000000E-01;  9.9999998E-03; -2.2000000E-01;48;0.0;0.0;0.0;1000.0;  4.0000001E-01;0.0;0;0.0;0.0;0.0;0;0.0;  1.0000000E+04;  0.0000000E+00;  0.0000000E+00;  1.0000000E+04;  0.0000000E+00;  1.0000000E+04;0.0;0.0;0.0;0.0
 -2.0000000E-01;  9.9999998E-03; -2.0000000E-01;49;0.0;0.0;0.0;1000.0;  4.0000001E-01;0.0;0;0.0;0.0;0.0;0;0.0;  1.0000000E+04;  0.0000000E+00;  0.0000000E+00;  1.0000000E+04;  0.0000000E+00;  1.0000000E+04;0.0;0.0;0.0;0.0
 -1.8000001E-01;  9.9999998E-03; -3.4000000E-01;83;0.0;0.0;0.0;1000.0;  4.0000001E-01;0.0;0;0.0;0.0;0.0;0;0.0;  1.0000000E+04;  0.0000000E+00;  0.0000000E+00;  1.0000000E+04;  0.0000000E+00;  1.0000000E+04;0.0;0.0;0.0;0.0
 -1.8000001E-01;  9.9999998E-03; -3.1999999E-01;84;0.0;0.0;0.0;1000.0;  4.0000001E-01;0.0;0;0.0;0.0;0.0;0;0.0;  1.0000000E+04;  0.0000000E+00;  0.0000000E+00;  1.0000000E+04;  0.0000000E+00;  1.0000000E+04;0.0;0.0;0.0;0.0
 -1.8000001E-01;  9.9999998E-03; -3.0000001E-01;85;0.0;0.0;0.0;1000.0;  4.0000001E-01;0.0;0;0.0;0.0;0.0;0;0.0;  1.0000000E+04;  0.0000000E+00;  0.0000000E+00;  1.0000000E+04;  0.0000000E+00;  1.0000000E+04;0.0;0.0;0.0;0.0
 -1.8000001E-01;  9.9999998E-03; -2.8000000E-01;86;0.0;0.0;0.0;1000.0;  4.0000001E-01;0.0;0;0.0;0.0;0.0;0;0.0;  1.0000000E+04;  0.0000000E+00;  0.0000000E+00;  1.0000000E+04;  0.0000000E+00;  1.0000000E+04;0.0;0.0;0.0;0.0
 -1.8000001E-01;  9.9999998E-03; -2.5999999E-01;87;0.0;0.0;0.0;1000.0;  4.0000001E-01;0.0;0;0.0;0.0;0.0;0;0.0;  1.0000000E+04;  0.0000000E+00;  0.0000000E+00;  1.0000000E+04;  0.0000000E+00;  1.0000000E+04;0.0;0.0;0.0;0.0
 -1.8000001E-01;  9.9999998E-03; -2.3999999E-01;88;0.0;0.0;0.0;1000.0;  4.0000001E-01;0.0;0;0.0;0.0;0.0;0;0.0;  1.0000000E+04;  0.0000000E+00;  0.0000000E+00;  1.0000000E+04;  0.0000000E+00;  1.0000000E+04;0.0;0.0;0.0;0.0
 -1.8000001E-01;  9.9999998E-03; -2.2000000E-01;89;0.0;0.0;0.0;1000.0;  4.0000001E-01;0.0;0;0.0;0.0;0.0;0;0.0;  1.0000000E+04;  0.0000000E+00;  0.0000000E+00;  1.0000000E+04;  0.0000000E+00;  1.0000000E+04;0.0;0.0;0.0;0.0
 -1.8000001E-01;  9.9999998E-03; -2.0000000E-01;90;0.0;0.0;0.0;1000.0;  4.0000001E-01;0.0;0;0.0;0.0;0.0;0;0.0;  1.0000000E+04;  0.0000000E+00;  0.0000000E+00;  1.0000000E+04;  0.0000000E+00;  1.0000000E+04;0.0;0.0;0.0;0.0
 -1.6000000E-01;  9.9999998E-03; -3.4000000E-01;124;0.0;0.0;0.0;1000.0;  4.0000001E-01;0.0;0;0.0;0.0;0.0;0;0.0;  1.0000000E+04;  0.0000000E+00;  0.0000000E+00;  1.0000000E+04;  0.0000000E+00;  1.0000000E+04;0.0;0.0;0.0;0.0
 -1.6000000E-01;  9.9999998E-03; -3.1999999E-01;125;0.0;0.0;0.0;1000.0;  4.0000001E-01;0.0;0;0.0;0.0;0.0;0;-8.1387761e-08;  1.0000000E+04;  0.0000000E+00;  0.0000000E+00;  1.0000000E+04;  0.0000000E+00;  1.0000000E+04;-7.489416e-08;0.0;-6.4935985e-09;6.2293009e-05
 -1.6000000E-01;  9.9999998E-03; -3.0000001E-01;126;0.0;0.0;0.0;1000.0;  4.0000001E-01;0.0;0;0.0;0.0;0.0;0;-5.172115e-07;  1.0000000E+04;  0.0000000E+00;  0.0000000E+00;  1.0000000E+04;  0.0000000E+00;  1.0000000E+04;-4.9529604e-07;0.0;-2.1915472e-08;0.00019379935
 -1.6000000E-01;  9.9999998E-03; -2.8000000E-01;127;0.0;0.0;0.0;1000.0;  4.0000001E-01;0.0;0;0.0;0.0;0.0;0;-1.2203881e-06;  1.0000000E+04;  0.0000000E+00;  0.0000000E+00;  1.0000000E+04;  0.0000000E+00;  1.0000000E+04;-1.2006968e-06;0.0;-1.9691191e-08;0.00010940347
 -1.6000000E-01;  9.9999998E-03; -2.5999999E-01;128;0.0;0.0;0.0;1000.0;  4.0000001E-01;0.0;0;0.0;0.0;0.0;0;-1.8177628e-06;  1.0000000E+04;  0.0000000E+00;  0.0000000E+00;  1.0000000E+04;  0.0000000E+00;  1.0000000E+04;-1.815841e-06;0.0;-1.9218831e-09;0.00014150598
 -1.6000000E-01;  9.9999998E-03; -2.3999999E-01;129;0.0;0.0;0.0;1000.0;  4.0000001E-01;0.0;0;0.0;0.0;0.0;0;-2.1442709e-06;  1.0000000E+04;  0.0000000E+00;  0.0000000E+00;  1.0000000E+04;  0.0000000E+00;  1.0000000E+04;-2.1498197e-06;0.0;5.5488609e-09;0.0002489636
 -1.6000000E-01;  9.9999998E-03; -2.2000000E-01;130;0.0;0.0;0.0;1000.0;  4.0000001E-01;0.0;0;0.0;0.0;0.0;0;-2.3652453e-06;  1.0000000E+04;  0.0000000E+00;  0.0000000E+00;  1.0000000E+04;  0.0000000E+00;  1.0000000E+04;-2.3717571e-06;0.0;6.5117192e-09;0.00027861685
 -1.6000000E-01;  9.9999998E-03; -2.0000000E-01;131;0.0;0.0;0.0;1000.0;  4.0000001E-01;0.0;0;0.0;0.0;0.0;0;-2.5310048e-06;  1.0000000E+04;  0.0000000E+00;  0.0000000E+00;  1.0000000E+04;  0.0000000E+00;  1.0000000E+04;-2.5376394e-06;0.0;6.6346009e-09;0.00029504296
 -1.4000000E-01;  9.9999998E-03; -3.4000000E-01;165;0.0;0.0;0.0;1000.0;  4.0000001E-01;0.0;0;0.0;0.0;0.0;0;-3.9092761e-06;  1.0000000E+04;  0.0000000E+00;  0.0000000E+00;  1.0000000E+04;  0.0000000E+00;  1.0000000E+04;-3.3032095e-06;0.0;-6.0606675e-07;0.0061116195
 -1.4000000E-01;  9.9999998E-03; -3.1999999E-01;166;0.0;0.0;0.0;1000.0;  4.0000001E-01;0.0;0;0.0;0.0;0.0;0;-1.2682374e-05;  1.0000000E+04;  0.0000000E+00;  0.0000000E+00;  1.0000000E+04;  0.0000000E+00;  1.0000000E+04;-1.1372882e-05;0.0;-1.3094919e-06;0.012954175
 -1.4000000E-01;  9.9999998E-03; -3.0000001E-01;167;0.0;0.0;0.0;1000.0;  4.0000001E-01;0.0;0;0.0;0.0;0.0;0;-2.695989e-05;  1.0000000E+04;  0.0000000E+00;  0.0000000E+00;  1.0000000E+04;  0.0000000E+00;  1.0000000E+04;-2.5269999e-05;0.0;-1.6898912e-06;0.015718317
 -1.4000000E-01;  9.9999998E-03; -2.8000000E-01;168;0.0;0.0;0.0;1000.0;  4.0000001E-01;0.0;0;0.0;0.0;0.0;0;-4.4477063e-05;  1.0000000E+04;  0.0000000E+00;  0.0000000E+00;  1.0000000E+04;  0.0000000E+00;  1.0000000E+04;-4.3027641e-05;0.0;-1.4494217e-06;0.011510523
 -1.4000000E-01;  9.9999998E-03; -2.5999999E-01;169;0.0;0.0;0.0;1000.0;  4.0000001E-01;0.0;0;0.0;0.0;0.0;0;-6.1616047e-05;  1.0000000E+04;  0.0000000E+00;  0.0000000E+00;  1.0000000E+04;  0.0000000E+00;  1.0000000E+04;-6.0934741e-05;0.0;-6.8130271e-07;0.0018547762
 -1.4000000E-01;  9.9999998E-03; -2.3999999E-01;170;0.0;0.0;0.0;1000.0;  4.0000001E-01;0.0;0;0.0;0.0;0.0;0;-7.5452037e-05;  1.0000000E+04;  0.0000000E+00;  0.0000000E+00;  1.0000000E+04;  0.0000000E+00;  1.0000000E+04;-7.5640652e-05;0.0;1.8861542e-07;0.0085592521
 -1.4000000E-01;  9.9999998E-03; -2.2000000E-01;171;0.0;0.0;0.0;1000.0;  4.0000001E-01;0.0;0;0.0;0.0;0.0;0;-8.5074797e-05;  1.0000000E+04;  0.0000000E+00;  0.0000000E+00;  1.0000000E+04;  0.0000000E+00;  1.0000000E+04;-8.5770916e-05;0.0;6.9612122e-07;0.014782293
 -1.4000000E-01;  9.9999998E-03; -2.0000000E-01;172;0.0;0.0;0.0;1000.0;  4.0000001E-01;0.0;0;0.0;0.0;0.0;0;-9.1493566e-05;  1.0000000E+04;  0.0000000E+00;  0.0000000E+00;  1.0000000E+04;  0.0000000E+00;  1.0000000E+04;-9.228423e-05;0.0;7.9066518e-07;0.016378568
 -1.2000000E-01;  9.9999998E-03; -3.4000000E-01;206;0.0;0.0;0.0;1000.0;  4.0000001E-01;0.0;0;0.0;0.0;0.0;0;-4.8286121e-05;  1.0000000E+04;  0.0000000E+00;  0.0000000E+00;  1.0000000E+04;  0.0000000E+00;  1.0000000E+04;-3.9621911e-05;0.0;-8.6642085e-06;0.088437989
 -1.2000000E-01;  9.9999998E-03; -3.1999999E-01;207;0.0;0.0;0.0;1000.0;  4.0000001E-01;0.0;0;0.0;0.0;0.0;0;-0.00010205659;  1.0000000E+04;  0.0000000E+00;  0.0000000E+00;  1.0000000E+04;  0.0000000E+00;  1.0000000E+04;-8.9751236e-05;0.0;-1.2305353e-05;0.12259824
 -1.2000000E-01;  9.9999998E-03; -3.0000001E-01;208;0.0;0.0;0.0;1000.0002;  4.0000001E-01;0.19752525;0;0.0;0.0;0.0;0;-0.00017540576;  1.0000000E+04;  0.0000000E+00;  0.0000000E+00;  1.0000000E+04;  0.0000000E+00;  1.0000000E+04;-0.00016229291;0.0;-1.3112853e-05;0.12446126
 -1.2000000E-01;  9.9999998E-03; -2.8000000E-01;209;0.0;0.0;0.0;1000.0002;  4.0000001E-01;0.19752525;0;0.0;0.0;0.0;0;-0.0002595204;  1.0000000E+04;  0.0000000E+00;  0.0000000E+00;  1.0000000E+04;  0.0000000E+00;  1.0000000E+04;-0.00024898679;0.0;-1.0533608e-05;0.089618243
 -1.2000000E-01;  9.9999998E-03; -2.5999999E-01;210;0.0;0.0;0.0;1000.0003;  4.0000001E-01;0.29628786;0;0.0;0.0;0.0;0;-0.00034160769;  1.0000000E+04;  0.0000000E+00;  0.0000000E+00;  1.0000000E+04;  0.0000000E+00;  1.0000000E+04;-0.00033628521;0.0;-5.3224926e-06;0.027210707
 -1.2000000E-01;  9.9999998E-03; -2.3999999E-01;211;0.0;0.0;0.0;1000.0004;  4.0000001E-01;0.3950505;0;0.0;0.0;0.0;0;-0.00041125464;  1.0000000E+04;  0.0000000E+00;  0.0000000E+00;  1.0000000E+04;  0.0000000E+00;  1.0000000E+04;-0.00041180273;0.0;5.4809084e-07;0.04108467
 -1.2000000E-01;  9.9999998E-03; -2.2000000E-01;212;0.0;0.0;0.0;1000.0005;  4.0000001E-01;0.3950505;0;0.0;0.0;0.0;0;-0.00046450031;  1.0000000E+04;  0.0000000E+00;  0.0000000E+00;  1.0000000E+04;  0.0000000E+00;  1.0000000E+04;-0.00046943937;0.0;4.9390601e-06;0.092340104
 -1.2000000E-01;  9.9999998E-03; -2.0000000E-01;213;0.0;0.0;0.0;1000.0005;  4.0000001E-01;0.49381313;0;0.0;0.0;0.0;0;-0.00050262077;  1.0000000E+04;  0.0000000E+00;  0.0000000E+00;  1.0000000E+04;  0.0000000E+00;  1.0000000E+04;-0.00050958677;0.0;6.9660264e-06;0.11740958
 -1.0000000E-01;  9.9999998E-03; -3.4000000E-01;247;0.0;0.0;0.0;1000.0002;  4.0000001E-01;0.19752525;0;0.0;0.0;0.0;0;-0.00021947574;  1.0000000E+04;  0.0000000E+00;  0.0000000E+00;  1.0000000E+04;  0.0000000E+00;  1.0000000E+04;-0.00017542235;0.0;-4.4053384e-05;0.45248181
 -1.0000000E-01;  9.9999998E-03; -3.1999999E-01;248;0.0;0.0;0.0;1000.0004;  4.0000001E-01;0.3950505;0;0.0;0.0;0.0;0;-0.00039375501;  1.0000000E+04;  0.0000000E+00;  0.0000000E+00;  1.0000000E+04;  0.0000000E+00;  1.0000000E+04;-0.0003403053;0.0;-5.3449716e-05;0.53777939
 -1.0000000E-01;  9.9999998E-03; -3.0000001E-01;249;0.0;0.0;0.0;1000.0007;  4.0000001E-01;0.59257573;0;0.0;0.0;0.0;0;-0.00061683333;  1.0000000E+04;  0.0000000E+00;  0.0000000E+00;  1.0000000E+04;  0.0000000E+00;  1.0000000E+04;-0.00056441955;0.0;-5.2413776e-05;0.50733566
 -1.0000000E-01;  9.9999998E-03; -2.8000000E-01;250;0.0;0.0;0.0;1000.001;  4.0000001E-01;0.88886362;0;0.0;0.0;0.0;0;-0.00086518237;  1.0000000E+04;  0.0000000E+00;  0.0000000E+00;  1.0000000E+04;  0.0000000E+00;  1.0000000E+04;-0.0008247213;0.0;-4.0461095e-05;0.35831362
 -1.0000000E-01;  9.9999998E-03; -2.5999999E-01;251;0.0;0.0;0.0;1000.0013;  4.0000001E-01;1.0863888;0;0.0;0.0;0.0;0;-0.0011055184;  1.0000000E+04;  0.0000000E+00;  0.0000000E+00;  1.0000000E+04;  0.0000000E+00;  1.0000000E+04;-0.0010852574;0.0;-2.0261094e-05;0.12222729
 -1.0000000E-01;  9.9999998E-03; -2.3999999E-01;252;0.0;0.0;0.0;1000.0016;  4.0000001E-01;1.2839141;0;0.0;0.0;0.0;0;-0.0013119276;  1.0000000E+04;  0.0000000E+00;  0.0000000E+00;  1.0000000E+04;  0.0000000E+00;  1.0000000E+04;-0.0013138915;0.0;1.9638751e-06;0.13233244
 -1.0000000E-01;  9.9999998E-03; -2.2000000E-01;253;0.0;0.0;0.0;1000.0017;  4.0000001E-01;1.3826767;0;0.0;0.0;0.0;0;-0.0014746749;  1.0000000E+04;  0.0000000E+00;  0.0000000E+00;  1.0000000E+04;  0.0000000E+00;  1.0000000E+04;-0.0014940216;0.0;1.9346733e-05;0.33170149
 -1.0000000E-01;  9.9999998E-03; -2.0000000E-01;254;0.0;0.0;0.0;1000.002;  4.0000001E-01;1.580202;0;0.0;0.0;0.0;0;-0.0015959495;  1.0000000E+04;  0.0000000E+00;  0.0000000E+00;  1.0000000E+04;  0.0000000E+00;  1.0000000E+04;-0.0016246635;0.0;2.8713925e-05;0.44280818
 -7.9999998E-02;  9.9999998E-03; -3.4000000E-01;288;0.0;0.0;0.0;1000.0008;  4.0000001E-01;0.69133836;0;0.0;0.0;0.0;0;-0.00063853501;  1.0000000E+04;  0.0000000E+00;  0.0000000E+00;  1.0000000E+04;  0.0000000E+00;  1.0000000E+04;-0.00049844006;0.0;-0.00014009497;1.4523811
 -7.9999998E-02;  9.9999998E-03; -3.1999999E-01;289;0.0;0.0;0.0;1000.0013;  4.0000001E-01;1.0863888;0;0.0;0.0;0.0;0;-0.0010549924;  1.0000000E+04;  0.0000000E+00;  0.0000000E+00;  1.0000000E+04;  0.0000000E+00;  1.0000000E+04;-0.00089756196;0.0;-0.00015743043;1.6035653
 -7.9999998E-02;  9.9999998E-03; -3.0000001E-01;290;0.0;0.0;0.0;1000.002;  4.0000001E-01;1.580202;0;0.0;0.0;0.0;0;-0.0015719584;  1.0000000E+04;  0.0000000E+00;  0.0000000E+00;  1.0000000E+04;  0.0000000E+00;  1.0000000E+04;-0.0014242105;0.0;-0.00014774788;1.4550662
 -7.9999998E-02;  9.9999998E-03; -2.8000000E-01;291;0.0;0.0;0.0;1000.0026;  4.0000001E-01;2.1727777;0;0.0;0.0;0.0;0;-0.0021370857;  1.0000000E+04;  0.0000000E+00;  0.0000000E+00;  1.0000000E+04;  0.0000000E+00;  1.0000000E+04;-0.00202594;0.0;-0.00011114572;1.0131934
 -7.9999998E-02;  9.9999998E-03; -2.5999999E-01;292;0.0;0.0;0.0;1000.0033;  4.0000001E-01;2.7653534;0;0.0;0.0;0.0;0;-0.0026791047;  1.0000000E+04;  0.0000000E+00;  0.0000000E+00;  1.0000000E+04;  0.0000000E+00;  1.0000000E+04;-0.0026245832;0.0;-5.4521461e-05;0.3590467
 -7.9999998E-02;  9.9999998E-03; -2.3999999E-01;293;0.0;0.0;0.0;1000.0038;  4.0000001E-01;3.160404;0;0.0;0.0;0.0;0;-0.0031448542;  1.0000000E+04;  0.0000000E+00;  0.0000000E+00;  1.0000000E+04;  0.0000000E+00;  1.0000000E+04;-0.0031515381;0.0;6.6839361e-06;0.33698475
 -7.9999998E-02;  9.9999998E-03; -2.2000000E-01;294;0.0;0.0;0.0;1000.0042;  4.0000001E-01;3.4566917;0;0.0;0.0;0.0;0;-0.0035161271;  1.0000000E+04;  0.0000000E+00;  0.0000000E+00;  1.0000000E+04;  0.0000000E+00;  1.0000000E+04;-0.0035714216;0.0;5.5294469e-05;0.89005548
 -7.9999998E-02;  9.9999998E-03; -2.0000000E-01;295;0.0;0.0;0.0;1000.0046;  4.0000001E-01;3.7529798;0;0.0;0.0;0.0;0;-0.0037980492;  1.0000000E+04;  0.0000000E+00;  0.0000000E+00;  1.0000000E+04;  0.0000000E+00;  1.0000000E+04;-0.0038809399;0.0;8.28907e-05;1.2119306
 -5.9999999E-02;  9.9999998E-03; -3.4000000E-01;329;0.0;0.0;0.0;1000.0017;  4.0000001E-01;1.3826767;0;0.0;0.0;0.0;0;-0.0014164073;  1.0000000E+04;  0.0000000E+00;  0.0000000E+00;  1.0000000E+04;  0.0000000E+00;  1.0000000E+04;-0.0010791172;0.0;-0.00033729011;3.535419
 -5.9999999E-02;  9.9999998E-03; -3.1999999E-01;330;0.0;0.0;0.0;1000.0027;  4.0000001E-01;2.2715404;0;0.0;0.0;0.0;0;-0.0022299734;  1.0000000E+04;  0.0000000E+00;  0.0000000E+00;  1.0000000E+04;  0.0000000E+00;  1.0000000E+04;-0.0018664015;0.0;-0.00036357186;3.7518659
 -5.9999999E-02;  9.9999998E-03; -3.0000001E-01;331;0.0;0.0;0.0;1000.004;  4.0000001E-01;3.3579292;0;0.0;0.0;0.0;0;-0.0032217365;  1.0000000E+04;  0.0000000E+00;  0.0000000E+00;  1.0000000E+04;  0.0000000E+00;  1.0000000E+04;-0.0028891885;0.0;-0.00033254802;3.3304241
 -5.9999999E-02;  9.9999998E-03; -2.8000000E-01;332;0.0;0.0;0.0;1000.0053;  4.0000001E-01;4.4443183;0;0.0;0.0;0.0;0;-0.0042914511;  1.0000000E+04;  0.0000000E+00;  0.0000000E+00;  1.0000000E+04;  0.0000000E+00;  1.0000000E+04;-0.0040461109;0.0;-0.00024534037;2.29408
 -5.9999999E-02;  9.9999998E-03; -2.5999999E-01;333;0.0;0.0;0.0;1000.0065;  4.0000001E-01;5.3331819;0;0.0;0.0;0.0;0;-0.0053058588;  1.0000000E+04;  0.0000000E+00;  0.0000000E+00;  1.0000000E+04;  0.0000000E+00;  1.0000000E+04;-0.0051887324;0.0;-0.00011712638;0.82069314
 -5.9999999E-02;  9.9999998E-03; -2.3999999E-01;334;0.0;0.0;0.0;1000.0076;  4.0000001E-01;6.2220454;0;0.0;0.0;0.0;0;-0.0061720102;  1.0000000E+04;  0.0000000E+00;  0.0000000E+00;  1.0000000E+04;  0.0000000E+00;  1.0000000E+04;-0.0061910395;0.0;1.9029212e-05;0.72396976
 -5.9999999E-02;  9.9999998E-03; -2.2000000E-01;335;0.0;0.0;0.0;1000.0085;  4.0000001E-01;7.0121465;0;0.0;0.0;0.0;0;-0.0068636849;  1.0000000E+04;  0.0000000E+00;  0.0000000E+00;  1.0000000E+04;  0.0000000E+00;  1.0000000E+04;-0.006991006;0.0;0.00012732102;1.9526708
 -5.9999999E-02;  9.9999998E-03; -2.0000000E-01;336;0.0;0.0;0.0;1000.009;  4.0000001E-01;7.5059595;0;0.0;0.0;0.0;0;-0.0073935157;  1.0000000E+04;  0.0000000E+00;  0.0000000E+00;  1.0000000E+04;  0.0000000E+00;  1.0000000E+04;-0.0075837001;0.0;0.00019018429;2.6802111
 -3.9999999E-02;  9.9999998E-03; -3.4000000E-01;370;0.0;0.0;0.0;1000.0032;  4.0000001E-01;2.6665909;0;0.0;0.0;0.0;0;-0.0025921531;  1.0000000E+04;  0.0000000E+00;  0.0000000E+00;  1.0000000E+04;  0.0000000E+00;  1.0000000E+04;-0.001921739;0.0;-0.00067041413;7.1161761
 -3.9999999E-02;  9.9999998E-03; -3.1999999E-01;371;0.0;0.0;0.0;1000.0048;  4.0000001E-01;3.950505;0;0.0;0.0;0.0;0;-0.0039569675;  1.0000000E+04;  0.0000000E+00;  0.0000000E+00;  1.0000000E+04;  0.0000000E+00;  1.0000000E+04;-0.0032507868;0.0;-0.00070618076;7.392622
 -3.9999999E-02;  9.9999998E-03; -3.0000001E-01;372;0.0;0.0;0.0;1000.0068;  4.0000001E-01;5.6294694;0;0.0;0.0;0.0;0;-0.0055992575;  1.0000000E+04;  0.0000000E+00;  0.0000000E+00;  1.0000000E+04;  0.0000000E+00;  1.0000000E+04;-0.0049635423;0.0;-0.00063571543;6.479454
 -3.9999999E-02;  9.9999998E-03; -2.8000000E-01;373;0.0;0.0;0.0;1000.009;  4.0000001E-01;7.407197;0;0.0;0.0;0.0;0;-0.0073459866;  1.0000000E+04;  0.0000000E+00;  0.0000000E+00;  1.0000000E+04;  0.0000000E+00;  1.0000000E+04;-0.0068853777;0.0;-0.00046060898;4.4148297
 -3.9999999E-02;  9.9999998E-03; -2.5999999E-01;374;0.0;0.0;0.0;1000.011;  4.0000001E-01;9.1849241;0;0.0;0.0;0.0;0;-0.0089761727;  1.0000000E+04;  0.0000000E+00;  0.0000000E+00;  1.0000000E+04;  0.0000000E+00;  1.0000000E+04;-0.008764335;0.0;-0.00021183785;1.5602258
 -3.9999999E-02;  9.9999998E-03; -2.3999999E-01;375;0.0;0.0;0.0;1000.0126;  4.0000001E-01;10.468838;0;0.0;0.0;0.0;0;-0.010352756;  1.0000000E+04;  0.0000000E+00;  0.0000000E+00;  1.0000000E+04;  0.0000000E+00;  1.0000000E+04;-0.01039912;0.0;4.6363944e-05;1.3719838
 -3.9999999E-02;  9.9999998E-03; -2.2000000E-01;376;0.0;0.0;0.0;1000.0141;  4.0000001E-01;11.65399;0;0.0;0.0;0.0;0;-0.011448941;  1.0000000E+04;  0.0000000E+00;  0.0000000E+00;  1.0000000E+04;  0.0000000E+00;  1.0000000E+04;-0.011698704;0.0;0.00024976258;3.682375
 -3.9999999E-02;  9.9999998E-03; -2.0000000E-01;377;0.0;0.0;0.0;1000.0151;  4.0000001E-01;12.444091;0;0.0;0.0;0.0;0;-0.012291526;  1.0000000E+04;  0.0000000E+00;  0.0000000E+00;  1.0000000E+04;  0.0000000E+00;  1.0000000E+04;-0.012660021;0.0;0.00036849413;5.0536394
 -2.0000000E-02;  9.9999998E-03; -3.4000000E-01;411;0.0;0.0;0.0;1000.0051;  4.0000001E-01;4.2467928;0;0.0;0.0;0.0;0;-0.0041025532;  1.0000000E+04;  0.0000000E+00;  0.0000000E+00;  1.0000000E+04;  0.0000000E+00;  1.0000000E+04;-0.0029515761;0.0;-0.0011509772;12.398314
 -2.0000000E-02;  9.9999998E-03; -3.1999999E-01;412;0.0;0.0;0.0;1000.0077;  4.0000001E-01;6.4195704;0;0.0;0.0;0.0;0;-0.0061286702;  1.0000000E+04;  0.0000000E+00;  0.0000000E+00;  1.0000000E+04;  0.0000000E+00;  1.0000000E+04;-0.0049318019;0.0;-0.0011968684;12.734079
 -2.0000000E-02;  9.9999998E-03; -3.0000001E-01;413;0.0;0.0;0.0;1000.0107;  4.0000001E-01;8.8886366;0;0.0;0.0;0.0;0;-0.0085306391;  1.0000000E+04;  0.0000000E+00;  0.0000000E+00;  1.0000000E+04;  0.0000000E+00;  1.0000000E+04;-0.0074655898;0.0;-0.0010650497;11.06358
 -2.0000000E-02;  9.9999998E-03; -2.8000000E-01;414;0.0;0.0;0.0;1000.0137;  4.0000001E-01;11.357701;0;0.0;0.0;0.0;0;-0.011037335;  1.0000000E+04;  0.0000000E+00;  0.0000000E+00;  1.0000000E+04;  0.0000000E+00;  1.0000000E+04;-0.010281594;0.0;-0.0007557408;7.4268579
 -2.0000000E-02;  9.9999998E-03; -2.5999999E-01;415;0.0;0.0;0.0;1000.0166;  4.0000001E-01;13.728004;0;0.0;0.0;0.0;0;-0.013326643;  1.0000000E+04;  0.0000000E+00;  0.0000000E+00;  1.0000000E+04;  0.0000000E+00;  1.0000000E+04;-0.01299673;0.0;-0.00032991296;2.5306695
 -2.0000000E-02;  9.9999998E-03; -2.3999999E-01;416;0.0;0.0;0.0;1000.0189;  4.0000001E-01;15.703258;0;0.0;0.0;0.0;0;-0.015236451;  1.0000000E+04;  0.0000000E+00;  0.0000000E+00;  1.0000000E+04;  0.0000000E+00;  1.0000000E+04;-0.015334736;0.0;9.8284385e-05;2.3552032
 -2.0000000E-02;  9.9999998E-03; -2.2000000E-01;417;0.0;0.0;0.0;1000.0208;  4.0000001E-01;17.283459;0;0.0;0.0;0.0;0;-0.016750535;  1.0000000E+04;  0.0000000E+00;  0.0000000E+00;  1.0000000E+04;  0.0000000E+00;  1.0000000E+04;-0.017180501;0.0;0.00042996492;6.1424351
 -2.0000000E-02;  9.9999998E-03; -2.0000000E-01;418;0.0;0.0;0.0;1000.0222;  4.0000001E-01;18.369848;0;0.0;0.0;0.0;0;-0.017914077;  1.0000000E+04;  0.0000000E+00;  0.0000000E+00;  1.0000000E+04;  0.0000000E+00;  1.0000000E+04;-0.018536756;0.0;0.0006226789;8.3747225
  0.0000000E+00;  9.9999998E-03; -3.4000000E-01;452;0.0;0.0;0.0;1000.0073;  4.0000001E-01;6.0245199;0;0.0;0.0;0.0;0;-0.0057909638;  1.0000000E+04;  0.0000000E+00;  0.0000000E+00;  1.0000000E+04;  0.0000000E+00;  1.0000000E+04;-0.0040406394;0.0;-0.0017503243;19.190931
  0.0000000E+00;  9.9999998E-03; -3.1999999E-01;453;0.0;0.0;0.0;1000.0107;  4.0000001E-01;8.8886366;0;0.0;0.0;0.0;0;-0.0085050613;  1.0000000E+04;  0.0000000E+00;  0.0000000E+00;  1.0000000E+04;  0.0000000E+00;  1.0000000E+04;-0.0067002848;0.0;-0.001804776;19.569363
  0.0000000E+00;  9.9999998E-03; -3.0000001E-01;454;0.0;0.0;0.0;1000.0146;  4.0000001E-01;12.04904;0;0.0;0.0;0.0;0;-0.01164284;  1.0000000E+04;  0.0000000E+00;  0.0000000E+00;  1.0000000E+04;  0.0000000E+00;  1.0000000E+04;-0.010060838;0.0;-0.0015820011;16.788525
  2.0000000E-02;  9.9999998E-03; -3.4000000E-01;464;0.0;0.0;0.0;1000.0096;  4.0000001E-01;7.90101;0;0.0;0.0;0.0;0;-0.0074811471;  1.0000000E+04;  0.0000000E+00;  0.0000000E+00;  1.0000000E+04;  0.0000000E+00;  1.0000000E+04;-0.005084719;0.0;-0.002396428;26.855265
  2.0000000E-02;  9.9999998E-03; -3.1999999E-01;465;0.0;0.0;0.0;1000.0139;  4.0000001E-01;11.456465;0;0.0;0.0;0.0;0;-0.010828727;  1.0000000E+04;  0.0000000E+00;  0.0000000E+00;  1.0000000E+04;  0.0000000E+00;  1.0000000E+04;-0.0083785737;0.0;-0.0024501532;27.185226
  3.9999999E-02;  9.9999998E-03; -3.4000000E-01;474;0.0;0.0;0.0;1000.0119;  4.0000001E-01;9.8762627;0;0.0;0.0;0.0;0;-0.0090951007;  1.0000000E+04;  0.0000000E+00;  0.0000000E+00;  1.0000000E+04;  0.0000000E+00;  1.0000000E+04;-0.0060905814;0.0;-0.0030045197;34.602203
  3.9999999E-02;  9.9999998E-03; -3.1999999E-01;475;0.0;0.0;0.0;1000.017;  4.0000001E-01;14.123055;0;0.0;0.0;0.0;0;-0.013025682;  1.0000000E+04;  0.0000000E+00;  0.0000000E+00;  1.0000000E+04;  0.0000000E+00;  1.0000000E+04;-0.009990667;0.0;-0.0030350159;34.648781
  5.9999999E-02;  9.9999998E-03; -3.4000000E-01;484;0.0;0.0;0.0;1000.0144;  4.0000001E-01;11.950277;0;0.0;0.0;0.0;0;-0.010709643;  1.0000000E+04;  0.0000000E+00;  0.0000000E+00;  1.0000000E+04;  0.0000000E+00;  1.0000000E+04;-0.0071807983;0.0;-0.0035288455;42.031208
  5.9999999E-02;  9.9999998E-03; -3.1999999E-01;485;0.0;0.0;0.0;1000.0204;  4.0000001E-01;16.888409;0;0.0;0.0;0.0;0;-0.015261028;  1.0000000E+04;  0.0000000E+00;  0.0000000E+00;  1.0000000E+04;  0.0000000E+00;  1.0000000E+04;-0.011742393;0.0;-0.0035186359;41.595463
  7.9999998E-02;  9.9999998E-03; -3.4000000E-01;494;0.0;0.0;0.0;1000.0173;  4.0000001E-01;14.32058;0;0.0;0.0;0.0;0;-0.012573313;  1.0000000E+04;  0.0000000E+00;  0.0000000E+00;  1.0000000E+04;  0.0000000E+00;  1.0000000E+04;-0.0085925702;0.0;-0.0039807432;49.478928
  7.9999998E-02;  9.9999998E-03; -3.1999999E-01;495;0.0;0.0;0.0;1000.0247;  4.0000001E-01;20.443863;0;0.0;0.0;0.0;0;-0.017875154;  1.0000000E+04;  0.0000000E+00;  0.0000000E+00;  1.0000000E+04;  0.0000000E+00;  1.0000000E+04;-0.013955645;0.0;-0.0039195083;48.38784
  1.0000000E-01;  9.9999998E-03; -3.4000000E-01;504;0.0;0.0;0.0;1000.0214;  4.0000001E-01;17.777273;0;0.0;0.0;0.0;0;-0.015112374;  1.0000000E+04;  0.0000000E+00;  0.0000000E+00;  1.0000000E+04;  0.0000000E+00;  1.0000000E+04;-0.010685544;0.0;-0.0044268295;60.567417
  1.0000000E-01;  9.9999998E-03; -3.1999999E-01;505;0.0;0.0;0.0;1000.0304;  4.0000001E-01;25.184469;0;0.0;0.0;0.0;0;-0.0214191;  1.0000000E+04;  0.0000000E+00;  0.0000000E+00;  1.0000000E+04;  0.0000000E+00;  1.0000000E+04;-0.017109839;0.0;-0.0043092612;60.264465
  1.2000000E-01;  9.9999998E-03; -3.4000000E-01;514;0.0;0.0;0.0;1000.0277;  4.0000001E-01;22.91293;0;0.0;0.0;0.0;0;-0.018932465;  1.0000000E+04;  0.0000000E+00;  0.0000000E+00;  1.0000000E+04;  0.0000000E+00;  1.0000000E+04;-0.013930779;0.0;-0.0050016865;95.613091
  1.2000000E-01;  9.9999998E-03; -3.1999999E-01;515;0.0;0.0;0.0;1000.0388;  4.0000001E-01;32.097855;0;0.0;0.0;0.0;0;-0.026631717;  1.0000000E+04;  0.0000000E+00;  0.0000000E+00;  1.0000000E+04;  0.0000000E+00;  1.0000000E+04;-0.02180827;0.0;-0.0048234467;113.05856
  1.4000000E-01;  9.9999998E-03; -3.4000000E-01;524;0.0;0.0;0.0;1000.0374;  4.0000001E-01;30.912701;0;0.0;0.0;0.0;0;-0.024839725;  1.0000000E+04;  0.0000000E+00;  0.0000000E+00;  1.0000000E+04;  0.0000000E+00;  1.0000000E+04;-0.018901261;0.0;-0.0059384638;203.73621
  1.4000000E-01;  9.9999998E-03; -3.1999999E-01;525;0.0;0.0;0.0;1000.0514;  4.0000001E-01;42.566692;0;0.0;0.0;0.0;0;-0.034423392;  1.0000000E+04;  0.0000000E+00;  0.0000000E+00;  1.0000000E+04;  0.0000000E+00;  1.0000000E+04;-0.028734522;0.0;-0.0056888708;283.75717
  1.6000000E-01;  9.9999998E-03; -3.4000000E-01;534;0.0;0.0;0.0;1000.0517;  4.0000001E-01;42.86298;0;0.0;0.0;0.0;0;-0.033654481;  1.0000000E+04;  0.0000000E+00;  0.0000000E+00;  1.0000000E+04;  0.0000000E+00;  1.0000000E+04;-0.026035765;0.0;-0.0076187151;443.83612
  1.6000000E-01;  9.9999998E-03; -3.1999999E-01;535;0.0;0.0;0.0;1000.0698;  4.0000001E-01;57.874897;0;0.0;0.0;0.0;0;-0.045670025;  1.0000000E+04;  0.0000000E+00;  0.0000000E+00;  1.0000000E+04;  0.0000000E+00;  1.0000000E+04;-0.038392637;0.0;-0.0072773872;666.32501
  1.8000001E-01;  9.9999998E-03; -3.4000000E-01;544;0.0;0.0;0.0;1000.0718;  4.0000001E-01;59.553864;0;0.0;0.0;0.0;0;-0.045573346;  1.0000000E+04;  0.0000000E+00;  0.0000000E+00;  1.0000000E+04;  0.0000000E+00;  1.0000000E+04;-0.034938943;0.0;-0.010634405;843.2019
  1.8000001E-01;  9.9999998E-03; -3.1999999E-01;545;0.0;0.0;0.0;1000.095;  4.0000001E-01;78.713814;0;0.0;0.0;0.0;0;-0.06061307;  1.0000000E+04;  0.0000000E+00;  0.0000000E+00;  1.0000000E+04;  0.0000000E+00;  1.0000000E+04;-0.050424326;0.0;-0.010188744;1336.137
  2.0000000E-01;  9.9999998E-03; -3.4000000E-01;553;0.0;0.0;0.0;1000.0968;  4.0000001E-01;80.195251;0;0.0;0.0;0.0;0;-0.059905946;  1.0000000E+04;  0.0000000E+00;  0.0000000E+00;  1.0000000E+04;  0.0000000E+00;  1.0000000E+04;-0.044117529;0.0;-0.015788415;1311.2362
  2.0000000E-01;  9.9999998E-03; -3.1999999E-01;554;0.0;0.0;0.0;1000.1262;  4.0000001E-01;104.58962;0;0.0;0.0;0.0;0;-0.078511894;  1.0000000E+04;  0.0000000E+00;  0.0000000E+00;  1.0000000E+04;  0.0000000E+00;  1.0000000E+04;-0.063232206;0.0;-0.015279688;2206.8198
 -2.2000000E-01;  9.9999998E-03; -1.8000001E-01;10;0.0;0.0;0.0;1000.0;  4.0000001E-01;0.0;0;0.0;0.0;0.0;0;0.0;  1.0000000E+04;  0.0000000E+00;  0.0000000E+00;  1.0000000E+04;  0.0000000E+00;  1.0000000E+04;0.0;0.0;0.0;0.0
 -2.2000000E-01;  9.9999998E-03; -1.6000000E-01;11;0.0;0.0;0.0;1000.0;  4.0000001E-01;0.0;0;0.0;0.0;0.0;0;0.0;  1.0000000E+04;  0.0000000E+00;  0.0000000E+00;  1.0000000E+04;  0.0000000E+00;  1.0000000E+04;0.0;0.0;0.0;0.0
 -2.2000000E-01;  9.9999998E-03; -1.4000000E-01;12;0.0;0.0;0.0;1000.0;  4.0000001E-01;0.0;0;0.0;0.0;0.0;0;0.0;  1.0000000E+04;  0.0000000E+00;  0.0000000E+00;  1.0000000E+04;  0.0000000E+00;  1.0000000E+04;0.0;0.0;0.0;0.0
 -2.2000000E-01;  9.9999998E-03; -1.2000000E-01;13;0.0;0.0;0.0;1000.0;  4.0000001E-01;0.0;0;0.0;0.0;0.0;0;0.0;  1.0000000E+04;  0.0000000E+00;  0.0000000E+00;  1.0000000E+04;  0.0000000E+00;  1.0000000E+04;0.0;0.0;0.0;0.0
 -2.2000000E-01;  9.9999998E-03; -1.0000000E-01;14;0.0;0.0;0.0;1000.0;  4.0000001E-01;0.0;0;0.0;0.0;0.0;0;0.0;  1.0000000E+04;  0.0000000E+00;  0.0000000E+00;  1.0000000E+04;  0.0000000E+00;  1.0000000E+04;0.0;0.0;0.0;0.0
 -2.2000000E-01;  9.9999998E-03; -7.9999998E-02;15;0.0;0.0;0.0;1000.0;  4.0000001E-01;0.0;0;0.0;0.0;0.0;0;0.0;  1.0000000E+04;  0.0000000E+00;  0.0000000E+00;  1.0000000E+04;  0.0000000E+00;  1.0000000E+04;0.0;0.0;0.0;0.0
 -2.2000000E-01;  9.9999998E-03; -5.9999999E-02;16;0.0;0.0;0.0;1000.0;  4.0000001E-01;0.0;0;0.0;0.0;0.0;0;0.0;  1.0000000E+04;  0.0000000E+00;  0.0000000E+00;  1.0000000E+04;  0.0000000E+00;  1.0000000E+04;0.0;0.0;0.0;0.0
 -2.2000000E-01;  9.9999998E-03; -3.9999999E-02;17;0.0;0.0;0.0;1000.0;  4.0000001E-01;0.0;0;0.0;0.0;0.0;0;0.0;  1.0000000E+04;  0.0000000E+00;  0.0000000E+00;  1.0000000E+04;  0.0000000E+00;  1.0000000E+04;0.0;0.0;0.0;0.0
 -2.2000000E-01;  9.9999998E-03; -2.0000000E-02;18;0.0;0.0;0.0;1000.0;  4.0000001E-01;0.0;0;0.0;0.0;0.0;0;0.0;  1.0000000E+04;  0.0000000E+00;  0.0000000E+00;  1.0000000E+04;  0.0000000E+00;  1.0000000E+04;0.0;0.0;0.0;0.0
 -2.0000000E-01;  9.9999998E-03; -1.8000001E-01;50;0.0;0.0;0.0;1000.0;  4.0000001E-01;0.0;0;0.0;0.0;0.0;0;0.0;  1.0000000E+04;  0.0000000E+00;  0.0000000E+00;  1.0000000E+04;  0.0000000E+00;  1.0000000E+04;0.0;0.0;0.0;0.0
 -2.0000000E-01;  9.9999998E-03; -1.6000000E-01;51;0.0;0.0;0.0;1000.0;  4.0000001E-01;0.0;0;0.0;0.0;0.0;0;0.0;  1.0000000E+04;  0.0000000E+00;  0.0000000E+00;  1.0000000E+04;  0.0000000E+00;  1.0000000E+04;0.0;0.0;0.0;0.0
 -2.0000000E-01;  9.9999998E-03; -1.4000000E-01;52;0.0;0.0;0.0;1000.0;  4.0000001E-01;0.0;0;0.0;0.0;0.0;0;0.0;  1.0000000E+04;  0.0000000E+00;  0.0000000E+00;  1.0000000E+04;  0.0000000E+00;  1.0000000E+04;0.0;0.0;0.0;0.0
 -2.0000000E-01;  9.9999998E-03; -1.2000000E-01;53;0.0;0.0;0.0;1000.0;  4.0000001E-01;0.0;0;0.0;0.0;0.0;0;0.0;  1.0000000E+04;  0.0000000E+00;  0.0000000E+00;  1.0000000E+04;  0.0000000E+00;  1.0000000E+04;0.0;0.0;0.0;0.0
 -2.0000000E-01;  9.9999998E-03; -1.0000000E-01;54;0.0;0.0;0.0;1000.0;  4.0000001E-01;0.0;0;0.0;0.0;0.0;0;0.0;  1.0000000E+04;  0.0000000E+00;  0.0000000E+00;  1.0000000E+04;  0.0000000E+00;  1.0000000E+04;0.0;0.0;0.0;0.0
 -2.0000000E-01;  9.9999998E-03; -7.9999998E-02;55;0.0;0.0;0.0;1000.0;  4.0000001E-01;0.0;0;0.0;0.0;0.0;0;0.0;  1.0000000E+04;  0.0000000E+00;  0.0000000E+00;  1.0000000E+04;  0.0000000E+00;  1.0000000E+04;0.0;0.0;0.0;0.0
 -2.0000000E-01;  9.9999998E-03; -5.9999999E-02;56;0.0;0.0;0.0;1000.0;  4.0000001E-01;0.0;0;0.0;0.0;0.0;0;0.0;  1.0000000E+04;  0.0000000E+00;  0.0000000E+00;  1.0000000E+04;  0.0000000E+00;  1.0000000E+04;0.0;0.0;0.0;0.0
 -2.0000000E-01;  9.9999998E-03; -3.9999999E-02;57;0.0;0.0;0.0;1000.0;  4.0000001E-01;0.0;0;0.0;0.0;0.0;0;0.0;  1.0000000E+04;  0.0000000E+00;  0.0000000E+00;  1.0000000E+04;  0.0000000E+00;  1.0000000E+04;0.0;0.0;0.0;0.0
 -2.0000000E-01;  9.9999998E-03; -2.0000000E-02;58;0.0;0.0;0.0;1000.0;  4.0000001E-01;0.0;0;0.0;0.0;0.0;0;0.0;  1.0000000E+04;  0.0000000E+00;  0.0000000E+00;  1.0000000E+04;  0.0000000E+00;  1.0000000E+04;0.0;0.0;0.0;0.0
 -1.8000001E-01;  9.9999998E-03; -1.8000001E-01;91;0.0;0.0;0.0;1000.0;  4.0000001E-01;0.0;0;0.0;0.0;0.0;0;0.0;  1.0000000E+04;  0.0000000E+00;  0.0000000E+00;  1.0000000E+04;  0.0000000E+00;  1.0000000E+04;0.0;0.0;0.0;0.0
 -1.8000001E-01;  9.9999998E-03; -1.6000000E-01;92;0.0;0.0;0.0;1000.0;  4.0000001E-01;0.0;0;0.0;0.0;0.0;0;0.0;  1.0000000E+04;  0.0000000E+00;  0.0000000E+00;  1.0000000E+04;  0.0000000E+00;  1.0000000E+04;0.0;0.0;0.0;0.0
 -1.8000001E-01;  9.9999998E-03; -1.4000000E-01;93;0.0;0.0;0.0;1000.0;  4.0000001E-01;0.0;0;0.0;0.0;0.0;0;0.0;  1.0000000E+04;  0.0000000E+00;  0.0000000E+00;  1.0000000E+04;  0.0000000E+00;  1.0000000E+04;0.0;0.0;0.0;0.0
 -1.8000001E-01;  9.9999998E-03; -1.2000000E-01;94;0.0;0.0;0.0;1000.0;  4.0000001E-01;0.0;0;0.0;0.0;0.0;0;0.0;  1.0000000E+04;  0.0000000E+00;  0.0000000E+00;  1.0000000E+04;  0.0000000E+00;  1.0000000E+04;0.0;0.0;0.0;0.0
 -1.8000001E-01;  9.9999998E-03; -1.0000000E-01;95;0.0;0.0;0.0;1000.0;  4.0000001E-01;0.0;0;0.0;0.0;0.0;0;0.0;  1.0000000E+04;  0.0000000E+00;  0.0000000E+00;  1.0000000E+04;  0.0000000E+00;  1.0000000E+04;0.0;0.0;0.0;0.0
 -1.8000001E-01;  9.9999998E-03; -7.9999998E-02;96;0.0;0.0;0.0;1000.0;  4.0000001E-01;0.0;0;0.0;0.0;0.0;0;0.0;  1.0000000E+04;  0.0000000E+00;  0.0000000E+00;  1.0000000E+04;  0.0000000E+00;  1.0000000E+04;0.0;0.0;0.0;0.0
 -1.8000001E-01;  9.9999998E-03; -5.9999999E-02;97;0.0;0.0;0.0;1000.0;  4.0000001E-01;0.0;0;0.0;0.0;0.0;0;0.0;  1.0000000E+04;  0.0000000E+00;  0.0000000E+00;  1.0000000E+04;  0.0000000E+00;  1.0000000E+04;0.0;0.0;0.0;0.0
 -1.8000001E-01;  9.9999998E-03; -3.9999999E-02;98;0.0;0.0;0.0;1000.0;  4.0000001E-01;0.0;0;0.0;0.0;0.0;0;0.0;  1.0000000E+04;  0.0000000E+00;  0.0000000E+00;  1.0000000E+04;  0.0000000E+00;  1.0000000E+04;0.0;0.0;0.0;0.0
 -1.8000001E-01;  9.9999998E-03; -2.0000000E-02;99;0.0;0.0;0.0;1000.0;  4.0000001E-01;0.0;0;0.0;0.0;0.0;0;0.0;  1.0000000E+04;  0.0000000E+00;  0.0000000E+00;  1.0000000E+04;  0.0000000E+00;  1.0000000E+04;0.0;0.0;0.0;0.0
 -1.6000000E-01;  9.9999998E-03; -1.8000001E-01;132;0.0;0.0;0.0;1000.0;  4.0000001E-01;0.0;0;0.0;0.0;0.0;0;-2.6479397e-06;  1.0000000E+04;  0.0000000E+00;  0.0000000E+00;  1.0000000E+04;  0.0000000E+00;  1.0000000E+04;-2.6541281e-06;0.0;6.1883925e-09;0.00030139505
 -1.6000000E-01;  9.9999998E-03; -1.6000000E-01;133;0.0;0.0;0.0;1000.0;  4.0000001E-01;0.0;0;0.0;0.0;0.0;0;-2.7246199e-06;  1.0000000E+04;  0.0000000E+00;  0.0000000E+00;  1.0000000E+04;  0.0000000E+00;  1.0000000E+04;-2.7300264e-06;0.0;5.4065299e-09;0.00030077959
 -1.6000000E-01;  9.9999998E-03; -1.4000000E-01;134;0.0;0.0;0.0;1000.0;  4.0000001E-01;0.0;0;0.0;0.0;0.0;0;-2.7701396e-06;  1.0000000E+04;  0.0000000E+00;  0.0000000E+00;  1.0000000E+04;  0.0000000E+00;  1.0000000E+04;-2.7746498e-06;0.0;4.5100763e-09;0.00029630773
 -1.6000000E-01;  9.9999998E-03; -1.2000000E-01;135;0.0;0.0;0.0;1000.0;  4.0000001E-01;0.0;0;0.0;0.0;0.0;0;-2.7931312e-06;  1.0000000E+04;  0.0000000E+00;  0.0000000E+00;  1.0000000E+04;  0.0000000E+00;  1.0000000E+04;-2.7967806e-06;0.0;3.6492651e-09;0.00029025631
 -1.6000000E-01;  9.9999998E-03; -1.0000000E-01;136;0.0;0.0;0.0;1000.0;  4.0000001E-01;0.0;0;0.0;0.0;0.0;0;-2.8011718e-06;  1.0000000E+04;  0.0000000E+00;  0.0000000E+00;  1.0000000E+04;  0.0000000E+00;  1.0000000E+04;-2.804019e-06;0.0;2.847131e-09;0.00028349151
 -1.6000000E-01;  9.9999998E-03; -7.9999998E-02;137;0.0;0.0;0.0;1000.0;  4.0000001E-01;0.0;0;0.0;0.0;0.0;0;-2.8003249e-06;  1.0000000E+04;  0.0000000E+00;  0.0000000E+00;  1.0000000E+04;  0.0000000E+00;  1.0000000E+04;-2.8024738e-06;0.0;2.1489128e-09;0.00027697181
 -1.6000000E-01;  9.9999998E-03; -5.9999999E-02;138;0.0;0.0;0.0;1000.0;  4.0000001E-01;0.0;0;0.0;0.0;0.0;0;-2.7952633e-06;  1.0000000E+04;  0.0000000E+00;  0.0000000E+00;  1.0000000E+04;  0.0000000E+00;  1.0000000E+04;-2.7968463e-06;0.0;1.5829383e-09;0.00027133941
 -1.6000000E-01;  9.9999998E-03; -3.9999999E-02;139;0.0;0.0;0.0;1000.0;  4.0000001E-01;0.0;0;0.0;0.0;0.0;0;-2.7893943e-06;  1.0000000E+04;  0.0000000E+00;  0.0000000E+00;  1.0000000E+04;  0.0000000E+00;  1.0000000E+04;-2.7905573e-06;0.0;1.1630373e-09;0.00026698314
 -1.6000000E-01;  9.9999998E-03; -2.0000000E-02;140;0.0;0.0;0.0;1000.0;  4.0000001E-01;0.0;0;0.0;0.0;0.0;0;-2.7849967e-06;  1.0000000E+04;  0.0000000E+00;  0.0000000E+00;  1.0000000E+04;  0.0000000E+00;  1.0000000E+04;-2.7859037e-06;0.0;9.0692459e-10;0.00026426438
 -1.4000000E-01;  9.9999998E-03; -1.8000001E-01;173;0.0;0.0;0.0;1000.0;  4.0000001E-01;0.0;0;0.0;0.0;0.0;0;-9.6056654e-05;  1.0000000E+04;  0.0000000E+00;  0.0000000E+00;  1.0000000E+04;  0.0000000E+00;  1.0000000E+04;-9.6810079e-05;0.0;7.5342246e-07;0.016444176
 -1.4000000E-01;  9.9999998E-03; -1.6000000E-01;174;0.0;0.0;0.0;1000.0;  4.0000001E-01;0.0;0;0.0;0.0;0.0;0;-9.9182056e-05;  1.0000000E+04;  0.0000000E+00;  0.0000000E+00;  1.0000000E+04;  0.0000000E+00;  1.0000000E+04;-9.9853947e-05;0.0;6.7189302e-07;0.015930472
 -1.4000000E-01;  9.9999998E-03; -1.4000000E-01;175;0.0;0.0;0.0;1000.0;  4.0000001E-01;0.0;0;0.0;0.0;0.0;0;-0.00010116132;  1.0000000E+04;  0.0000000E+00;  0.0000000E+00;  1.0000000E+04;  0.0000000E+00;  1.0000000E+04;-0.00010173149;0.0;5.7016558e-07;0.015108684
 -1.4000000E-01;  9.9999998E-03; -1.2000000E-01;176;0.0;0.0;0.0;1000.0;  4.0000001E-01;0.0;0;0.0;0.0;0.0;0;-0.00010228396;  1.0000000E+04;  0.0000000E+00;  0.0000000E+00;  1.0000000E+04;  0.0000000E+00;  1.0000000E+04;-0.00010274923;0.0;4.6526503e-07;0.014180238
 -1.4000000E-01;  9.9999998E-03; -1.0000000E-01;177;0.0;0.0;0.0;1000.0;  4.0000001E-01;0.0;0;0.0;0.0;0.0;0;-0.00010281233;  1.0000000E+04;  0.0000000E+00;  0.0000000E+00;  1.0000000E+04;  0.0000000E+00;  1.0000000E+04;-0.00010317951;0.0;3.6718302e-07;0.01327003
 -1.4000000E-01;  9.9999998E-03; -7.9999998E-02;178;0.0;0.0;0.0;1000.0;  4.0000001E-01;0.0;0;0.0;0.0;0.0;0;-0.00010296678;  1.0000000E+04;  0.0000000E+00;  0.0000000E+00;  1.0000000E+04;  0.0000000E+00;  1.0000000E+04;-0.00010324826;0.0;2.8147676e-07;0.012451682
 -1.4000000E-01;  9.9999998E-03; -5.9999999E-02;179;0.0;0.0;0.0;1000.0;  4.0000001E-01;0.0;0;0.0;0.0;0.0;0;-0.00010292111;  1.0000000E+04;  0.0000000E+00;  0.0000000E+00;  1.0000000E+04;  0.0000000E+00;  1.0000000E+04;-0.00010313253;0.0;2.1141693e-07;0.011770487
 -1.4000000E-01;  9.9999998E-03; -3.9999999E-02;180;0.0;0.0;0.0;1000.0;  4.0000001E-01;0.0;0;0.0;0.0;0.0;0;-0.00010280263;  1.0000000E+04;  0.0000000E+00;  0.0000000E+00;  1.0000000E+04;  0.0000000E+00;  1.0000000E+04;-0.00010296233;0.0;1.5969903e-07;0.011261782
 -1.4000000E-01;  9.9999998E-03; -2.0000000E-02;181;0.0;0.0;0.0;1000.0;  4.0000001E-01;0.0;0;0.0;0.0;0.0;0;-0.00010269824;  1.0000000E+04;  0.0000000E+00;  0.0000000E+00;  1.0000000E+04;  0.0000000E+00;  1.0000000E+04;-0.00010282624;0.0;1.2799967e-07;0.010947772
 -1.2000000E-01;  9.9999998E-03; -1.8000001E-01;214;0.0;0.0;0.0;1000.0006;  4.0000001E-01;0.49381313;0;0.0;0.0;0.0;0;-0.00052908232;  1.0000000E+04;  0.0000000E+00;  0.0000000E+00;  1.0000000E+04;  0.0000000E+00;  1.0000000E+04;-0.00053613534;0.0;7.0530291e-06;0.12111121
 -1.2000000E-01;  9.9999998E-03; -1.6000000E-01;215;0.0;0.0;0.0;1000.0006;  4.0000001E-01;0.49381313;0;0.0;0.0;0.0;0;-0.00054734573;  1.0000000E+04;  0.0000000E+00;  0.0000000E+00;  1.0000000E+04;  0.0000000E+00;  1.0000000E+04;-0.00055373355;0.0;6.387851e-06;0.11627541
 -1.2000000E-01;  9.9999998E-03; -1.4000000E-01;216;0.0;0.0;0.0;1000.0006;  4.0000001E-01;0.49381313;0;0.0;0.0;0.0;0;-0.00055930373;  1.0000000E+04;  0.0000000E+00;  0.0000000E+00;  1.0000000E+04;  0.0000000E+00;  1.0000000E+04;-0.00056479214;0.0;5.4884258e-06;0.10847935
 -1.2000000E-01;  9.9999998E-03; -1.2000000E-01;217;0.0;0.0;0.0;1000.0006;  4.0000001E-01;0.49381313;0;0.0;0.0;0.0;0;-0.00056645664;  1.0000000E+04;  0.0000000E+00;  0.0000000E+00;  1.0000000E+04;  0.0000000E+00;  1.0000000E+04;-0.00057098089;0.0;4.5242637e-06;0.099595465
 -1.2000000E-01;  9.9999998E-03; -1.0000000E-01;218;0.0;0.0;0.0;1000.0006;  4.0000001E-01;0.49381313;0;0.0;0.0;0.0;0;-0.00057019643;  1.0000000E+04;  0.0000000E+00;  0.0000000E+00;  1.0000000E+04;  0.0000000E+00;  1.0000000E+04;-0.00057380088;0.0;3.6044667e-06;0.09086509
 -1.2000000E-01;  9.9999998E-03; -7.9999998E-02;219;0.0;0.0;0.0;1000.0006;  4.0000001E-01;0.49381313;0;0.0;0.0;0.0;0;-0.00057171594;  1.0000000E+04;  0.0000000E+00;  0.0000000E+00;  1.0000000E+04;  0.0000000E+00;  1.0000000E+04;-0.0005745095;0.0;2.7935441e-06;0.083040342
 -1.2000000E-01;  9.9999998E-03; -5.9999999E-02;220;0.0;0.0;0.0;1000.0006;  4.0000001E-01;0.49381313;0;0.0;0.0;0.0;0;-0.00057197001;  1.0000000E+04;  0.0000000E+00;  0.0000000E+00;  1.0000000E+04;  0.0000000E+00;  1.0000000E+04;-0.0005741003;0.0;2.130304e-06;0.076577455
 -1.2000000E-01;  9.9999998E-03; -3.9999999E-02;221;0.0;0.0;0.0;1000.0006;  4.0000001E-01;0.49381313;0;0.0;0.0;0.0;0;-0.00057166989;  1.0000000E+04;  0.0000000E+00;  0.0000000E+00;  1.0000000E+04;  0.0000000E+00;  1.0000000E+04;-0.0005733096;0.0;1.6396992e-06;0.071768448
 -1.2000000E-01;  9.9999998E-03; -2.0000000E-02;222;0.0;0.0;0.0;1000.0006;  4.0000001E-01;0.49381313;0;0.0;0.0;0.0;0;-0.00057130249;  1.0000000E+04;  0.0000000E+00;  0.0000000E+00;  1.0000000E+04;  0.0000000E+00;  1.0000000E+04;-0.00057264132;0.0;1.3388434e-06;0.068808988
 -1.0000000E-01;  9.9999998E-03; -1.8000001E-01;255;0.0;0.0;0.0;1000.002;  4.0000001E-01;1.580202;0;0.0;0.0;0.0;0;-0.0016828324;  1.0000000E+04;  0.0000000E+00;  0.0000000E+00;  1.0000000E+04;  0.0000000E+00;  1.0000000E+04;-0.0017137495;0.0;3.0917108e-05;0.47559875
 -1.0000000E-01;  9.9999998E-03; -1.6000000E-01;256;0.0;0.0;0.0;1000.002;  4.0000001E-01;1.6789646;0;0.0;0.0;0.0;0;-0.0017431121;  1.0000000E+04;  0.0000000E+00;  0.0000000E+00;  1.0000000E+04;  0.0000000E+00;  1.0000000E+04;-0.0017718109;0.0;2.8698802e-05;0.4597865
 -1.0000000E-01;  9.9999998E-03; -1.4000000E-01;257;0.0;0.0;0.0;1000.0021;  4.0000001E-01;1.6789646;0;0.0;0.0;0.0;0;-0.001783272;  1.0000000E+04;  0.0000000E+00;  0.0000000E+00;  1.0000000E+04;  0.0000000E+00;  1.0000000E+04;-0.0018081946;0.0;2.4922567e-05;0.42605063
 -1.0000000E-01;  9.9999998E-03; -1.2000000E-01;258;0.0;0.0;0.0;1000.0021;  4.0000001E-01;1.6789646;0;0.0;0.0;0.0;0;-0.0018080799;  1.0000000E+04;  0.0000000E+00;  0.0000000E+00;  1.0000000E+04;  0.0000000E+00;  1.0000000E+04;-0.0018288054;0.0;2.0725494e-05;0.38662377
 -1.0000000E-01;  9.9999998E-03; -1.0000000E-01;259;0.0;0.0;0.0;1000.0022;  4.0000001E-01;1.7777272;0;0.0;0.0;0.0;0;-0.0018218021;  1.0000000E+04;  0.0000000E+00;  0.0000000E+00;  1.0000000E+04;  0.0000000E+00;  1.0000000E+04;-0.0018384483;0.0;1.664624e-05;0.34741256
 -1.0000000E-01;  9.9999998E-03; -7.9999998E-02;260;0.0;0.0;0.0;1000.0022;  4.0000001E-01;1.7777272;0;0.0;0.0;0.0;0;-0.0018281513;  1.0000000E+04;  0.0000000E+00;  0.0000000E+00;  1.0000000E+04;  0.0000000E+00;  1.0000000E+04;-0.001841169;0.0;1.3017714e-05;0.31211767
 -1.0000000E-01;  9.9999998E-03; -5.9999999E-02;261;0.0;0.0;0.0;1000.0022;  4.0000001E-01;1.7777272;0;0.0;0.0;0.0;0;-0.0018301327;  1.0000000E+04;  0.0000000E+00;  0.0000000E+00;  1.0000000E+04;  0.0000000E+00;  1.0000000E+04;-0.0018401715;0.0;1.003882e-05;0.28295371
 -1.0000000E-01;  9.9999998E-03; -3.9999999E-02;262;0.0;0.0;0.0;1000.0022;  4.0000001E-01;1.7777272;0;0.0;0.0;0.0;0;-0.0018300079;  1.0000000E+04;  0.0000000E+00;  0.0000000E+00;  1.0000000E+04;  0.0000000E+00;  1.0000000E+04;-0.0018378411;0.0;7.8332905e-06;0.26128283
 -1.0000000E-01;  9.9999998E-03; -2.0000000E-02;263;0.0;0.0;0.0;1000.0022;  4.0000001E-01;1.7777272;0;0.0;0.0;0.0;0;-0.0018293324;  1.0000000E+04;  0.0000000E+00;  0.0000000E+00;  1.0000000E+04;  0.0000000E+00;  1.0000000E+04;-0.0018358122;0.0;6.4797982e-06;0.24795857
 -7.9999998E-02;  9.9999998E-03; -1.8000001E-01;296;0.0;0.0;0.0;1000.0048;  4.0000001E-01;3.950505;0;0.0;0.0;0.0;0;-0.0040044608;  1.0000000E+04;  0.0000000E+00;  0.0000000E+00;  1.0000000E+04;  0.0000000E+00;  1.0000000E+04;-0.0040956195;0.0;9.1158734e-05;1.3229433
 -7.9999998E-02;  9.9999998E-03; -1.6000000E-01;297;0.0;0.0;0.0;1000.0051;  4.0000001E-01;4.1480303;0;0.0;0.0;0.0;0;-0.0041500865;  1.0000000E+04;  0.0000000E+00;  0.0000000E+00;  1.0000000E+04;  0.0000000E+00;  1.0000000E+04;-0.0042367638;0.0;8.667705e-05;1.2946981
 -7.9999998E-02;  9.9999998E-03; -1.4000000E-01;298;0.0;0.0;0.0;1000.0051;  4.0000001E-01;4.1480303;0;0.0;0.0;0.0;0;-0.0042481641;  1.0000000E+04;  0.0000000E+00;  0.0000000E+00;  1.0000000E+04;  0.0000000E+00;  1.0000000E+04;-0.004324202;0.0;7.6037875e-05;1.1979761
 -7.9999998E-02;  9.9999998E-03; -1.2000000E-01;299;0.0;0.0;0.0;1000.0053;  4.0000001E-01;4.4443183;0;0.0;0.0;0.0;0;-0.0043098996;  1.0000000E+04;  0.0000000E+00;  0.0000000E+00;  1.0000000E+04;  0.0000000E+00;  1.0000000E+04;-0.0043736054;0.0;6.3705666e-05;1.0805323
 -7.9999998E-02;  9.9999998E-03; -1.0000000E-01;300;0.0;0.0;0.0;1000.0054;  4.0000001E-01;4.4443183;0;0.0;0.0;0.0;0;-0.0043451381;  1.0000000E+04;  0.0000000E+00;  0.0000000E+00;  1.0000000E+04;  0.0000000E+00;  1.0000000E+04;-0.0043966514;0.0;5.1513118e-05;0.96214849
 -7.9999998E-02;  9.9999998E-03; -7.9999998E-02;301;0.0;0.0;0.0;1000.0054;  4.0000001E-01;4.4443183;0;0.0;0.0;0.0;0;-0.0043625059;  1.0000000E+04;  0.0000000E+00;  0.0000000E+00;  1.0000000E+04;  0.0000000E+00;  1.0000000E+04;-0.0044030761;0.0;4.0570463e-05;0.85489589
 -7.9999998E-02;  9.9999998E-03; -5.9999999E-02;302;0.0;0.0;0.0;1000.0054;  4.0000001E-01;4.4443183;0;0.0;0.0;0.0;0;-0.004369026;  1.0000000E+04;  0.0000000E+00;  0.0000000E+00;  1.0000000E+04;  0.0000000E+00;  1.0000000E+04;-0.004400576;0.0;3.1549916e-05;0.76606876
 -7.9999998E-02;  9.9999998E-03; -3.9999999E-02;303;0.0;0.0;0.0;1000.0054;  4.0000001E-01;4.5430808;0;0.0;0.0;0.0;0;-0.0043700403;  1.0000000E+04;  0.0000000E+00;  0.0000000E+00;  1.0000000E+04;  0.0000000E+00;  1.0000000E+04;-0.0043949005;0.0;2.4860039e-05;0.70003897
 -7.9999998E-02;  9.9999998E-03; -2.0000000E-02;304;0.0;0.0;0.0;1000.0054;  4.0000001E-01;4.5430808;0;0.0;0.0;0.0;0;-0.004369223;  1.0000000E+04;  0.0000000E+00;  0.0000000E+00;  1.0000000E+04;  0.0000000E+00;  1.0000000E+04;-0.0043899752;0.0;2.0752132e-05;0.65944952
 -5.9999999E-02;  9.9999998E-03; -1.8000001E-01;337;0.0;0.0;0.0;1000.0095;  4.0000001E-01;7.8022475;0;0.0;0.0;0.0;0;-0.0077864705;  1.0000000E+04;  0.0000000E+00;  0.0000000E+00;  1.0000000E+04;  0.0000000E+00;  1.0000000E+04;-0.0079971189;0.0;0.00021064852;2.9442897
 -5.9999999E-02;  9.9999998E-03; -1.6000000E-01;338;0.0;0.0;0.0;1000.0099;  4.0000001E-01;8.197298;0;0.0;0.0;0.0;0;-0.008067417;  1.0000000E+04;  0.0000000E+00;  0.0000000E+00;  1.0000000E+04;  0.0000000E+00;  1.0000000E+04;-0.0082699303;0.0;0.0002025135;2.8963196
 -5.9999999E-02;  9.9999998E-03; -1.4000000E-01;339;0.0;0.0;0.0;1000.0101;  4.0000001E-01;8.3948231;0;0.0;0.0;0.0;0;-0.0082585225;  1.0000000E+04;  0.0000000E+00;  0.0000000E+00;  1.0000000E+04;  0.0000000E+00;  1.0000000E+04;-0.0084379595;0.0;0.00017943697;2.683691
 -5.9999999E-02;  9.9999998E-03; -1.2000000E-01;340;0.0;0.0;0.0;1000.0104;  4.0000001E-01;8.5923481;0;0.0;0.0;0.0;0;-0.0083800824;  1.0000000E+04;  0.0000000E+00;  0.0000000E+00;  1.0000000E+04;  0.0000000E+00;  1.0000000E+04;-0.0085313227;0.0;0.00015124008;2.4116559
 -5.9999999E-02;  9.9999998E-03; -1.0000000E-01;341;0.0;0.0;0.0;1000.0104;  4.0000001E-01;8.6911106;0;0.0;0.0;0.0;0;-0.0084506115;  1.0000000E+04;  0.0000000E+00;  0.0000000E+00;  1.0000000E+04;  0.0000000E+00;  1.0000000E+04;-0.0085735656;0.0;0.00012295437;2.1342025
 -5.9999999E-02;  9.9999998E-03; -7.9999998E-02;342;0.0;0.0;0.0;1000.0104;  4.0000001E-01;8.6911106;0;0.0;0.0;0.0;0;-0.0084864553;  1.0000000E+04;  0.0000000E+00;  0.0000000E+00;  1.0000000E+04;  0.0000000E+00;  1.0000000E+04;-0.0085838167;0.0;9.7361444e-05;1.8812644
 -5.9999999E-02;  9.9999998E-03; -5.9999999E-02;343;0.0;0.0;0.0;1000.0105;  4.0000001E-01;8.6911106;0;0.0;0.0;0.0;0;-0.0085009858;  1.0000000E+04;  0.0000000E+00;  0.0000000E+00;  1.0000000E+04;  0.0000000E+00;  1.0000000E+04;-0.0085771624;0.0;7.6176839e-05;1.6711937
 -5.9999999E-02;  9.9999998E-03; -3.9999999E-02;344;0.0;0.0;0.0;1000.0105;  4.0000001E-01;8.6911106;0;0.0;0.0;0.0;0;-0.0085043833;  1.0000000E+04;  0.0000000E+00;  0.0000000E+00;  1.0000000E+04;  0.0000000E+00;  1.0000000E+04;-0.0085648196;0.0;6.0435908e-05;1.5148895
 -5.9999999E-02;  9.9999998E-03; -2.0000000E-02;345;0.0;0.0;0.0;1000.0105;  4.0000001E-01;8.6911106;0;0.0;0.0;0.0;0;-0.0085036932;  1.0000000E+04;  0.0000000E+00;  0.0000000E+00;  1.0000000E+04;  0.0000000E+00;  1.0000000E+04;-0.0085544568;0.0;5.0763203e-05;1.4187915
 -3.9999999E-02;  9.9999998E-03; -1.8000001E-01;378;0.0;0.0;0.0;1000.0158;  4.0000001E-01;13.135429;0;0.0;0.0;0.0;0;-0.012920977;  1.0000000E+04;  0.0000000E+00;  0.0000000E+00;  1.0000000E+04;  0.0000000E+00;  1.0000000E+04;-0.013329281;0.0;0.00040830518;5.557621
 -3.9999999E-02;  9.9999998E-03; -1.6000000E-01;379;0.0;0.0;0.0;1000.0165;  4.0000001E-01;13.728004;0;0.0;0.0;0.0;0;-0.013374873;  1.0000000E+04;  0.0000000E+00;  0.0000000E+00;  1.0000000E+04;  0.0000000E+00;  1.0000000E+04;-0.013768965;0.0;0.00039409331;5.4704466
 -3.9999999E-02;  9.9999998E-03; -1.4000000E-01;380;0.0;0.0;0.0;1000.0168;  4.0000001E-01;13.92553;0;0.0;0.0;0.0;0;-0.013685637;  1.0000000E+04;  0.0000000E+00;  0.0000000E+00;  1.0000000E+04;  0.0000000E+00;  1.0000000E+04;-0.014036965;0.0;0.00035132768;5.069262
 -3.9999999E-02;  9.9999998E-03; -1.2000000E-01;381;0.0;0.0;0.0;1000.0172;  4.0000001E-01;14.221818;0;0.0;0.0;0.0;0;-0.01388426;  1.0000000E+04;  0.0000000E+00;  0.0000000E+00;  1.0000000E+04;  0.0000000E+00;  1.0000000E+04;-0.014181693;0.0;0.00029743309;4.5418386
 -3.9999999E-02;  9.9999998E-03; -1.0000000E-01;382;0.0;0.0;0.0;1000.0174;  4.0000001E-01;14.419343;0;0.0;0.0;0.0;0;-0.014000161;  1.0000000E+04;  0.0000000E+00;  0.0000000E+00;  1.0000000E+04;  0.0000000E+00;  1.0000000E+04;-0.014242915;0.0;0.00024275457;3.9992638
 -3.9999999E-02;  9.9999998E-03; -7.9999998E-02;383;0.0;0.0;0.0;1000.0175;  4.0000001E-01;14.518106;0;0.0;0.0;0.0;0;-0.014059693;  1.0000000E+04;  0.0000000E+00;  0.0000000E+00;  1.0000000E+04;  0.0000000E+00;  1.0000000E+04;-0.014252646;0.0;0.00019295374;3.5022399
 -3.9999999E-02;  9.9999998E-03; -5.9999999E-02;384;0.0;0.0;0.0;1000.0175;  4.0000001E-01;14.518106;0;0.0;0.0;0.0;0;-0.014084431;  1.0000000E+04;  0.0000000E+00;  0.0000000E+00;  1.0000000E+04;  0.0000000E+00;  1.0000000E+04;-0.014236013;0.0;0.0001515819;3.0884683
 -3.9999999E-02;  9.9999998E-03; -3.9999999E-02;385;0.0;0.0;0.0;1000.0175;  4.0000001E-01;14.518106;0;0.0;0.0;0.0;0;-0.014090821;  1.0000000E+04;  0.0000000E+00;  0.0000000E+00;  1.0000000E+04;  0.0000000E+00;  1.0000000E+04;-0.014211607;0.0;0.0001207856;2.780308
 -3.9999999E-02;  9.9999998E-03; -2.0000000E-02;386;0.0;0.0;0.0;1000.0176;  4.0000001E-01;14.518106;0;0.0;0.0;0.0;0;-0.014090247;  1.0000000E+04;  0.0000000E+00;  0.0000000E+00;  1.0000000E+04;  0.0000000E+00;  1.0000000E+04;-0.014192093;0.0;0.0001018468;2.5908029
 -2.0000000E-02;  9.9999998E-03; -1.8000001E-01;419;0.0;0.0;0.0;1000.0234;  4.0000001E-01;19.456238;0;0.0;0.0;0.0;0;-0.018785477;  1.0000000E+04;  0.0000000E+00;  0.0000000E+00;  1.0000000E+04;  0.0000000E+00;  1.0000000E+04;-0.019472741;0.0;0.00068726478;9.1862478
 -2.0000000E-02;  9.9999998E-03; -1.6000000E-01;420;0.0;0.0;0.0;1000.0241;  4.0000001E-01;19.95005;0;0.0;0.0;0.0;0;-0.019416269;  1.0000000E+04;  0.0000000E+00;  0.0000000E+00;  1.0000000E+04;  0.0000000E+00;  1.0000000E+04;-0.020079779;0.0;0.00066351023;9.0244131
 -2.0000000E-02;  9.9999998E-03; -1.4000000E-01;421;0.0;0.0;0.0;1000.0245;  4.0000001E-01;20.3451;0;0.0;0.0;0.0;0;-0.019848926;  1.0000000E+04;  0.0000000E+00;  0.0000000E+00;  1.0000000E+04;  0.0000000E+00;  1.0000000E+04;-0.020441951;0.0;0.00059302512;8.3474827
 -2.0000000E-02;  9.9999998E-03; -1.2000000E-01;422;0.0;0.0;0.0;1000.025;  4.0000001E-01;20.641388;0;0.0;0.0;0.0;0;-0.020125015;  1.0000000E+04;  0.0000000E+00;  0.0000000E+00;  1.0000000E+04;  0.0000000E+00;  1.0000000E+04;-0.020628598;0.0;0.000503583;7.457478
 -2.0000000E-02;  9.9999998E-03; -1.0000000E-01;423;0.0;0.0;0.0;1000.0253;  4.0000001E-01;20.937675;0;0.0;0.0;0.0;0;-0.020285459;  1.0000000E+04;  0.0000000E+00;  0.0000000E+00;  1.0000000E+04;  0.0000000E+00;  1.0000000E+04;-0.020697534;0.0;0.00041207572;6.5368085
 -2.0000000E-02;  9.9999998E-03; -7.9999998E-02;424;0.0;0.0;0.0;1000.0254;  4.0000001E-01;21.036438;0;0.0;0.0;0.0;0;-0.020367308;  1.0000000E+04;  0.0000000E+00;  0.0000000E+00;  1.0000000E+04;  0.0000000E+00;  1.0000000E+04;-0.020695625;0.0;0.00032831734;5.6908054
 -2.0000000E-02;  9.9999998E-03; -5.9999999E-02;425;0.0;0.0;0.0;1000.0255;  4.0000001E-01;21.135202;0;0.0;0.0;0.0;0;-0.020400807;  1.0000000E+04;  0.0000000E+00;  0.0000000E+00;  1.0000000E+04;  0.0000000E+00;  1.0000000E+04;-0.020659339;0.0;0.00025853197;4.9853287
 -2.0000000E-02;  9.9999998E-03; -3.9999999E-02;426;0.0;0.0;0.0;1000.0255;  4.0000001E-01;21.135202;0;0.0;0.0;0.0;0;-0.020408971;  1.0000000E+04;  0.0000000E+00;  0.0000000E+00;  1.0000000E+04;  0.0000000E+00;  1.0000000E+04;-0.020615477;0.0;0.00020650614;4.4595575
 -2.0000000E-02;  9.9999998E-03; -2.0000000E-02;427;0.0;0.0;0.0;1000.0256;  4.0000001E-01;21.233965;0;0.0;0.0;0.0;0;-0.020407684;  1.0000000E+04;  0.0000000E+00;  0.0000000E+00;  1.0000000E+04;  0.0000000E+00;  1.0000000E+04;-0.020582173;0.0;0.00017448937;4.1361842
 -2.2000000E-01;  9.9999998E-03;  0.0000000E+00;19;0.0;0.0;0.0;1000.0;  4.0000001E-01;0.0;0;0.0;0.0;0.0;0;0.0;  1.0000000E+04;  0.0000000E+00;  0.0000000E+00;  1.0000000E+04;  0.0000000E+00;  1.0000000E+04;0.0;0.0;0.0;0.0
 -2.2000000E-01;  9.9999998E-03;  2.0000000E-02;20;0.0;0.0;0.0;1000.0;  4.0000001E-01;0.0;0;0.0;0.0;0.0;0;0.0;  1.0000000E+04;  0.0000000E+00;  0.0000000E+00;  1.0000000E+04;  0.0000000E+00;  1.0000000E+04;0.0;0.0;0.0;0.0
 -2.2000000E-01;  9.9999998E-03;  3.9999999E-02;21;0.0;0.0;0.0;1000.0;  4.0000001E-01;0.0;0;0.0;0.0;0.0;0;0.0;  1.0000000E+04;  0.0000000E+00;  0.0000000E+00;  1.0000000E+04;  0.0000000E+00;  1.0000000E+04;0.0;0.0;0.0;0.0
 -2.2000000E-01;  9.9999998E-03;  5.9999999E-02;22;0.0;0.0;0.0;1000.0;  4.0000001E-01;0.0;0;0.0;0.0;0.0;0;0.0;  1.0000000E+04;  0.0000000E+00;  0.0000000E+00;  1.0000000E+04;  0.0000000E+00;  1.0000000E+04;0.0;0.0;0.0;0.0
 -2.2000000E-01;  9.9999998E-03;  7.9999998E-02;23;0.0;0.0;0.0;1000.0;  4.0000001E-01;0.0;0;0.0;0.0;0.0;0;0.0;  1.0000000E+04;  0.0000000E+00;  0.0000000E+00;  1.0000000E+04;  0.0000000E+00;  1.0000000E+04;0.0;0.0;0.0;0.0
 -2.2000000E-01;  9.9999998E-03;  1.0000000E-01;24;0.0;0.0;0.0;1000.0;  4.0000001E-01;0.0;0;0.0;0.0;0.0;0;0.0;  1.0000000E+04;  0.0000000E+00;  0.0000000E+00;  1.0000000E+04;  0.0000000E+00;  1.0000000E+04;0.0;0.0;0.0;0.0
 -2.2000000E-01;  9.9999998E-03;  1.2000000E-01;25;0.0;0.0;0.0;1000.0;  4.0000001E-01;0.0;0;0.0;0.0;0.0;0;0.0;  1.0000000E+04;  0.0000000E+00;  0.0000000E+00;  1.0000000E+04;  0.0000000E+00;  1.0000000E+04;0.0;0.0;0.0;0.0
 -2.2000000E-01;  9.9999998E-03;  1.4000000E-01;26;0.0;0.0;0.0;1000.0;  4.0000001E-01;0.0;0;0.0;0.0;0.0;0;0.0;  1.0000000E+04;  0.0000000E+00;  0.0000000E+00;  1.0000000E+04;  0.0000000E+00;  1.0000000E+04;0.0;0.0;0.0;0.0
 -2.0000000E-01;  9.9999998E-03;  0.0000000E+00;59;0.0;0.0;0.0;1000.0;  4.0000001E-01;0.0;0;0.0;0.0;0.0;0;0.0;  1.0000000E+04;  0.0000000E+00;  0.0000000E+00;  1.0000000E+04;  0.0000000E+00;  1.0000000E+04;0.0;0.0;0.0;0.0
 -2.0000000E-01;  9.9999998E-03;  2.0000000E-02;60;0.0;0.0;0.0;1000.0;  4.0000001E-01;0.0;0;0.0;0.0;0.0;0;0.0;  1.0000000E+04;  0.0000000E+00;  0.0000000E+00;  1.0000000E+04;  0.0000000E+00;  1.0000000E+04;0.0;0.0;0.0;0.0
 -2.0000000E-01;  9.9999998E-03;  3.9999999E-02;61;0.0;0.0;0.0;1000.0;  4.0000001E-01;0.0;0;0.0;0.0;0.0;0;0.0;  1.0000000E+04;  0.0000000E+00;  0.0000000E+00;  1.0000000E+04;  0.0000000E+00;  1.0000000E+04;0.0;0.0;0.0;0.0
 -2.0000000E-01;  9.9999998E-03;  5.9999999E-02;62;0.0;0.0;0.0;1000.0;  4.0000001E-01;0.0;0;0.0;0.0;0.0;0;0.0;  1.0000000E+04;  0.0000000E+00;  0.0000000E+00;  1.0000000E+04;  0.0000000E+00;  1.0000000E+04;0.0;0.0;0.0;0.0
 -2.0000000E-01;  9.9999998E-03;  7.9999998E-02;63;0.0;0.0;0.0;1000.0;  4.0000001E-01;0.0;0;0.0;0.0;0.0;0;0.0;  1.0000000E+04;  0.0000000E+00;  0.0000000E+00;  1.0000000E+04;  0.0000000E+00;  1.0000000E+04;0.0;0.0;0.0;0.0
 -2.0000000E-01;  9.9999998E-03;  1.0000000E-01;64;0.0;0.0;0.0;1000.0;  4.0000001E-01;0.0;0;0.0;0.0;0.0;0;0.0;  1.0000000E+04;  0.0000000E+00;  0.0000000E+00;  1.0000000E+04;  0.0000000E+00;  1.0000000E+04;0.0;0.0;0.0;0.0
 -2.0000000E-01;  9.9999998E-03;  1.2000000E-01;65;0.0;0.0;0.0;1000.0;  4.0000001E-01;0.0;0;0.0;0.0;0.0;0;0.0;  1.0000000E+04;  0.0000000E+00;  0.0000000E+00;  1.0000000E+04;  0.0000000E+00;  1.0000000E+04;0.0;0.0;0.0;0.0
 -2.0000000E-01;  9.9999998E-03;  1.4000000E-01;66;0.0;0.0;0.0;1000.0;  4.0000001E-01;0.0;0;0.0;0.0;0.0;0;0.0;  1.0000000E+04;  0.0000000E+00;  0.0000000E+00;  1.0000000E+04;  0.0000000E+00;  1.0000000E+04;0.0;0.0;0.0;0.0
 -1.8000001E-01;  9.9999998E-03;  0.0000000E+00;100;0.0;0.0;0.0;1000.0;  4.0000001E-01;0.0;0;0.0;0.0;0.0;0;0.0;  1.0000000E+04;  0.0000000E+00;  0.0000000E+00;  1.0000000E+04;  0.0000000E+00;  1.0000000E+04;0.0;0.0;0.0;0.0
 -1.8000001E-01;  9.9999998E-03;  2.0000000E-02;101;0.0;0.0;0.0;1000.0;  4.0000001E-01;0.0;0;0.0;0.0;0.0;0;0.0;  1.0000000E+04;  0.0000000E+00;  0.0000000E+00;  1.0000000E+04;  0.0000000E+00;  1.0000000E+04;0.0;0.0;0.0;0.0
 -1.8000001E-01;  9.9999998E-03;  3.9999999E-02;102;0.0;0.0;0.0;1000.0;  4.0000001E-01;0.0;0;0.0;0.0;0.0;0;0.0;  1.0000000E+04;  0.0000000E+00;  0.0000000E+00;  1.0000000E+04;  0.0000000E+00;  1.0000000E+04;0.0;0.0;0.0;0.0
 -1.8000001E-01;  9.9999998E-03;  5.9999999E-02;103;0.0;0.0;0.0;1000.0;  4.0000001E-01;0.0;0;0.0;0.0;0.0;0;0.0;  1.0000000E+04;  0.0000000E+00;  0.0000000E+00;  1.0000000E+04;  0.0000000E+00;  1.0000000E+04;0.0;0.0;0.0;0.0
 -1.8000001E-01;  9.9999998E-03;  7.9999998E-02;104;0.0;0.0;0.0;1000.0;  4.0000001E-01;0.0;0;0.0;0.0;0.0;0;0.0;  1.0000000E+04;  0.0000000E+00;  0.0000000E+00;  1.0000000E+04;  0.0000000E+00;  1.0000000E+04;0.0;0.0;0.0;0.0
 -1.8000001E-01;  9.9999998E-03;  1.0000000E-01;105;0.0;0.0;0.0;1000.0;  4.0000001E-01;0.0;0;0.0;0.0;0.0;0;0.0;  1.0000000E+04;  0.0000000E+00;  0.0000000E+00;  1.0000000E+04;  0.0000000E+00;  1.0000000E+04;0.0;0.0;0.0;0.0
 -1.8000001E-01;  9.9999998E-03;  1.2000000E-01;106;0.0;0.0;0.0;1000.0;  4.0000001E-01;0.0;0;0.0;0.0;0.0;0;0.0;  1.0000000E+04;  0.0000000E+00;  0.0000000E+00;  1.0000000E+04;  0.0000000E+00;  1.0000000E+04;0.0;0.0;0.0;0.0
 -1.8000001E-01;  9.9999998E-03;  1.4000000E-01;107;0.0;0.0;0.0;1000.0;  4.0000001E-01;0.0;0;0.0;0.0;0.0;0;0.0;  1.0000000E+04;  0.0000000E+00;  0.0000000E+00;  1.0000000E+04;  0.0000000E+00;  1.0000000E+04;0.0;0.0;0.0;0.0
 -1.6000000E-01;  9.9999998E-03;  0.0000000E+00;141;0.0;0.0;0.0;1000.0;  4.0000001E-01;0.0;0;0.0;0.0;0.0;0;-2.7833919e-06;  1.0000000E+04;  0.0000000E+00;  0.0000000E+00;  1.0000000E+04;  0.0000000E+00;  1.0000000E+04;-2.7842125e-06;0.0;8.2056972e-10;0.00026333815
 -1.6000000E-01;  9.9999998E-03;  2.0000000E-02;142;0.0;0.0;0.0;1000.0;  4.0000001E-01;0.0;0;0.0;0.0;0.0;0;-2.7849969e-06;  1.0000000E+04;  0.0000000E+00;  0.0000000E+00;  1.0000000E+04;  0.0000000E+00;  1.0000000E+04;-2.7859039e-06;0.0;9.0691682e-10;0.00026426441
 -1.6000000E-01;  9.9999998E-03;  3.9999999E-02;143;0.0;0.0;0.0;1000.0;  4.0000001E-01;0.0;0;0.0;0.0;0.0;0;-2.7893934e-06;  1.0000000E+04;  0.0000000E+00;  0.0000000E+00;  1.0000000E+04;  0.0000000E+00;  1.0000000E+04;-2.7905564e-06;0.0;1.1630354e-09;0.00026698312
 -1.6000000E-01;  9.9999998E-03;  5.9999999E-02;144;0.0;0.0;0.0;1000.0;  4.0000001E-01;0.0;0;0.0;0.0;0.0;0;-2.7952622e-06;  1.0000000E+04;  0.0000000E+00;  0.0000000E+00;  1.0000000E+04;  0.0000000E+00;  1.0000000E+04;-2.7968451e-06;0.0;1.5829413e-09;0.00027133941
 -1.6000000E-01;  9.9999998E-03;  7.9999998E-02;145;0.0;0.0;0.0;1000.0;  4.0000001E-01;0.0;0;0.0;0.0;0.0;0;-2.8003251e-06;  1.0000000E+04;  0.0000000E+00;  0.0000000E+00;  1.0000000E+04;  0.0000000E+00;  1.0000000E+04;-2.802474e-06;0.0;2.1489202e-09;0.00027697184
 -1.6000000E-01;  9.9999998E-03;  1.0000000E-01;146;0.0;0.0;0.0;1000.0;  4.0000001E-01;0.0;0;0.0;0.0;0.0;0;-2.8011714e-06;  1.0000000E+04;  0.0000000E+00;  0.0000000E+00;  1.0000000E+04;  0.0000000E+00;  1.0000000E+04;-2.8040185e-06;0.0;2.8471359e-09;0.00028349154
 -1.6000000E-01;  9.9999998E-03;  1.2000000E-01;147;0.0;0.0;0.0;1000.0;  4.0000001E-01;0.0;0;0.0;0.0;0.0;0;-2.7931314e-06;  1.0000000E+04;  0.0000000E+00;  0.0000000E+00;  1.0000000E+04;  0.0000000E+00;  1.0000000E+04;-2.7967808e-06;0.0;3.649262e-09;0.0002902564
 -1.6000000E-01;  9.9999998E-03;  1.4000000E-01;148;0.0;0.0;0.0;1000.0;  4.0000001E-01;0.0;0;0.0;0.0;0.0;0;-2.7701399e-06;  1.0000000E+04;  0.0000000E+00;  0.0000000E+00;  1.0000000E+04;  0.0000000E+00;  1.0000000E+04;-2.7746498e-06;0.0;4.5100661e-09;0.00029630767
 -1.4000000E-01;  9.9999998E-03;  0.0000000E+00;182;0.0;0.0;0.0;1000.0;  4.0000001E-01;0.0;0;0.0;0.0;0.0;0;-0.00010265805;  1.0000000E+04;  0.0000000E+00;  0.0000000E+00;  1.0000000E+04;  0.0000000E+00;  1.0000000E+04;-0.00010277535;0.0;1.1730125e-07;0.010841395
 -1.4000000E-01;  9.9999998E-03;  2.0000000E-02;183;0.0;0.0;0.0;1000.0;  4.0000001E-01;0.0;0;0.0;0.0;0.0;0;-0.00010269824;  1.0000000E+04;  0.0000000E+00;  0.0000000E+00;  1.0000000E+04;  0.0000000E+00;  1.0000000E+04;-0.00010282624;0.0;1.2799944e-07;0.010947774
 -1.4000000E-01;  9.9999998E-03;  3.9999999E-02;184;0.0;0.0;0.0;1000.0;  4.0000001E-01;0.0;0;0.0;0.0;0.0;0;-0.00010280263;  1.0000000E+04;  0.0000000E+00;  0.0000000E+00;  1.0000000E+04;  0.0000000E+00;  1.0000000E+04;-0.00010296233;0.0;1.5969887e-07;0.01126178
 -1.4000000E-01;  9.9999998E-03;  5.9999999E-02;185;0.0;0.0;0.0;1000.0;  4.0000001E-01;0.0;0;0.0;0.0;0.0;0;-0.00010292108;  1.0000000E+04;  0.0000000E+00;  0.0000000E+00;  1.0000000E+04;  0.0000000E+00;  1.0000000E+04;-0.0001031325;0.0;2.1141715e-07;0.011770487
 -1.4000000E-01;  9.9999998E-03;  7.9999998E-02;186;0.0;0.0;0.0;1000.0;  4.0000001E-01;0.0;0;0.0;0.0;0.0;0;-0.00010296677;  1.0000000E+04;  0.0000000E+00;  0.0000000E+00;  1.0000000E+04;  0.0000000E+00;  1.0000000E+04;-0.00010324825;0.0;2.8147721e-07;0.012451686
 -1.4000000E-01;  9.9999998E-03;  1.0000000E-01;187;0.0;0.0;0.0;1000.0;  4.0000001E-01;0.0;0;0.0;0.0;0.0;0;-0.00010281232;  1.0000000E+04;  0.0000000E+00;  0.0000000E+00;  1.0000000E+04;  0.0000000E+00;  1.0000000E+04;-0.0001031795;0.0;3.6718336e-07;0.013270031
 -1.4000000E-01;  9.9999998E-03;  1.2000000E-01;188;0.0;0.0;0.0;1000.0;  4.0000001E-01;0.0;0;0.0;0.0;0.0;0;-0.00010228399;  1.0000000E+04;  0.0000000E+00;  0.0000000E+00;  1.0000000E+04;  0.0000000E+00;  1.0000000E+04;-0.00010274925;0.0;4.652648e-07;0.014180238
 -1.4000000E-01;  9.9999998E-03;  1.4000000E-01;189;0.0;0.0;0.0;1000.0;  4.0000001E-01;0.0;0;0.0;0.0;0.0;0;-0.00010116133;  1.0000000E+04;  0.0000000E+00;  0.0000000E+00;  1.0000000E+04;  0.0000000E+00;  1.0000000E+04;-0.00010173149;0.0;5.7016513e-07;0.015108684
 -1.2000000E-01;  9.9999998E-03;  0.0000000E+00;223;0.0;0.0;0.0;1000.0006;  4.0000001E-01;0.49381313;0;0.0;0.0;0.0;0;-0.00057114928;  1.0000000E+04;  0.0000000E+00;  0.0000000E+00;  1.0000000E+04;  0.0000000E+00;  1.0000000E+04;-0.00057238684;0.0;1.237558e-06;0.067810968
 -1.2000000E-01;  9.9999998E-03;  2.0000000E-02;224;0.0;0.0;0.0;1000.0006;  4.0000001E-01;0.49381313;0;0.0;0.0;0.0;0;-0.00057130243;  1.0000000E+04;  0.0000000E+00;  0.0000000E+00;  1.0000000E+04;  0.0000000E+00;  1.0000000E+04;-0.00057264126;0.0;1.3388421e-06;0.068808995
 -1.2000000E-01;  9.9999998E-03;  3.9999999E-02;225;0.0;0.0;0.0;1000.0006;  4.0000001E-01;0.49381313;0;0.0;0.0;0.0;0;-0.00057167001;  1.0000000E+04;  0.0000000E+00;  0.0000000E+00;  1.0000000E+04;  0.0000000E+00;  1.0000000E+04;-0.00057330972;0.0;1.6396983e-06;0.071768463
 -1.2000000E-01;  9.9999998E-03;  5.9999999E-02;226;0.0;0.0;0.0;1000.0006;  4.0000001E-01;0.49381313;0;0.0;0.0;0.0;0;-0.0005719699;  1.0000000E+04;  0.0000000E+00;  0.0000000E+00;  1.0000000E+04;  0.0000000E+00;  1.0000000E+04;-0.00057410018;0.0;2.130304e-06;0.07657747
 -1.2000000E-01;  9.9999998E-03;  7.9999998E-02;227;0.0;0.0;0.0;1000.0006;  4.0000001E-01;0.49381313;0;0.0;0.0;0.0;0;-0.00057171588;  1.0000000E+04;  0.0000000E+00;  0.0000000E+00;  1.0000000E+04;  0.0000000E+00;  1.0000000E+04;-0.00057450944;0.0;2.7935457e-06;0.083040357
 -1.2000000E-01;  9.9999998E-03;  1.0000000E-01;228;0.0;0.0;0.0;1000.0006;  4.0000001E-01;0.49381313;0;0.0;0.0;0.0;0;-0.00057019654;  1.0000000E+04;  0.0000000E+00;  0.0000000E+00;  1.0000000E+04;  0.0000000E+00;  1.0000000E+04;-0.00057380099;0.0;3.6044682e-06;0.09086509
 -1.2000000E-01;  9.9999998E-03;  1.2000000E-01;229;0.0;0.0;0.0;1000.0006;  4.0000001E-01;0.49381313;0;0.0;0.0;0.0;0;-0.00056645658;  1.0000000E+04;  0.0000000E+00;  0.0000000E+00;  1.0000000E+04;  0.0000000E+00;  1.0000000E+04;-0.00057098083;0.0;4.5242632e-06;0.099595465
 -1.2000000E-01;  9.9999998E-03;  1.4000000E-01;230;0.0;0.0;0.0;1000.0006;  4.0000001E-01;0.49381313;0;0.0;0.0;0.0;0;-0.00055930385;  1.0000000E+04;  0.0000000E+00;  0.0000000E+00;  1.0000000E+04;  0.0000000E+00;  1.0000000E+04;-0.00056479225;0.0;5.4884254e-06;0.10847936
 -1.0000000E-01;  9.9999998E-03;  0.0000000E+00;264;0.0;0.0;0.0;1000.0022;  4.0000001E-01;1.7777272;0;0.0;0.0;0.0;0;-0.001829009;  1.0000000E+04;  0.0000000E+00;  0.0000000E+00;  1.0000000E+04;  0.0000000E+00;  1.0000000E+04;-0.0018350328;0.0;6.0238294e-06;0.24346638
 -1.0000000E-01;  9.9999998E-03;  2.0000000E-02;265;0.0;0.0;0.0;1000.0022;  4.0000001E-01;1.7777272;0;0.0;0.0;0.0;0;-0.0018293323;  1.0000000E+04;  0.0000000E+00;  0.0000000E+00;  1.0000000E+04;  0.0000000E+00;  1.0000000E+04;-0.0018358121;0.0;6.4797969e-06;0.24795859
 -1.0000000E-01;  9.9999998E-03;  3.9999999E-02;266;0.0;0.0;0.0;1000.0022;  4.0000001E-01;1.7777272;0;0.0;0.0;0.0;0;-0.0018300076;  1.0000000E+04;  0.0000000E+00;  0.0000000E+00;  1.0000000E+04;  0.0000000E+00;  1.0000000E+04;-0.0018378409;0.0;7.833286e-06;0.26128289
 -1.0000000E-01;  9.9999998E-03;  5.9999999E-02;267;0.0;0.0;0.0;1000.0022;  4.0000001E-01;1.7777272;0;0.0;0.0;0.0;0;-0.0018301322;  1.0000000E+04;  0.0000000E+00;  0.0000000E+00;  1.0000000E+04;  0.0000000E+00;  1.0000000E+04;-0.0018401711;0.0;1.0038822e-05;0.28295377
 -1.0000000E-01;  9.9999998E-03;  7.9999998E-02;268;0.0;0.0;0.0;1000.0022;  4.0000001E-01;1.7777272;0;0.0;0.0;0.0;0;-0.0018281516;  1.0000000E+04;  0.0000000E+00;  0.0000000E+00;  1.0000000E+04;  0.0000000E+00;  1.0000000E+04;-0.0018411693;0.0;1.3017719e-05;0.3121177
 -1.0000000E-01;  9.9999998E-03;  1.0000000E-01;269;0.0;0.0;0.0;1000.0022;  4.0000001E-01;1.7777272;0;0.0;0.0;0.0;0;-0.0018218019;  1.0000000E+04;  0.0000000E+00;  0.0000000E+00;  1.0000000E+04;  0.0000000E+00;  1.0000000E+04;-0.0018384481;0.0;1.6646243e-05;0.34741256
 -1.0000000E-01;  9.9999998E-03;  1.2000000E-01;270;0.0;0.0;0.0;1000.0021;  4.0000001E-01;1.6789646;0;0.0;0.0;0.0;0;-0.0018080794;  1.0000000E+04;  0.0000000E+00;  0.0000000E+00;  1.0000000E+04;  0.0000000E+00;  1.0000000E+04;-0.001828805;0.0;2.0725491e-05;0.38662368
 -1.0000000E-01;  9.9999998E-03;  1.4000000E-01;271;0.0;0.0;0.0;1000.0021;  4.0000001E-01;1.6789646;0;0.0;0.0;0.0;0;-0.0017832721;  1.0000000E+04;  0.0000000E+00;  0.0000000E+00;  1.0000000E+04;  0.0000000E+00;  1.0000000E+04;-0.0018081947;0.0;2.4922569e-05;0.42605069
 -7.9999998E-02;  9.9999998E-03;  0.0000000E+00;305;0.0;0.0;0.0;1000.0054;  4.0000001E-01;4.5430808;0;0.0;0.0;0.0;0;-0.0043687182;  1.0000000E+04;  0.0000000E+00;  0.0000000E+00;  1.0000000E+04;  0.0000000E+00;  1.0000000E+04;-0.0043880856;0.0;1.9367391e-05;0.64576191
 -7.9999998E-02;  9.9999998E-03;  2.0000000E-02;306;0.0;0.0;0.0;1000.0054;  4.0000001E-01;4.5430808;0;0.0;0.0;0.0;0;-0.0043692226;  1.0000000E+04;  0.0000000E+00;  0.0000000E+00;  1.0000000E+04;  0.0000000E+00;  1.0000000E+04;-0.0043899748;0.0;2.075213e-05;0.65944952
 -7.9999998E-02;  9.9999998E-03;  3.9999999E-02;307;0.0;0.0;0.0;1000.0054;  4.0000001E-01;4.5430808;0;0.0;0.0;0.0;0;-0.0043700403;  1.0000000E+04;  0.0000000E+00;  0.0000000E+00;  1.0000000E+04;  0.0000000E+00;  1.0000000E+04;-0.0043949001;0.0;2.4860024e-05;0.70003909
 -7.9999998E-02;  9.9999998E-03;  5.9999999E-02;308;0.0;0.0;0.0;1000.0054;  4.0000001E-01;4.4443183;0;0.0;0.0;0.0;0;-0.004369027;  1.0000000E+04;  0.0000000E+00;  0.0000000E+00;  1.0000000E+04;  0.0000000E+00;  1.0000000E+04;-0.0044005769;0.0;3.1549916e-05;0.76606888
 -7.9999998E-02;  9.9999998E-03;  7.9999998E-02;309;0.0;0.0;0.0;1000.0054;  4.0000001E-01;4.4443183;0;0.0;0.0;0.0;0;-0.0043625063;  1.0000000E+04;  0.0000000E+00;  0.0000000E+00;  1.0000000E+04;  0.0000000E+00;  1.0000000E+04;-0.0044030766;0.0;4.0570474e-05;0.85489607
 -7.9999998E-02;  9.9999998E-03;  1.0000000E-01;310;0.0;0.0;0.0;1000.0054;  4.0000001E-01;4.4443183;0;0.0;0.0;0.0;0;-0.00434514;  1.0000000E+04;  0.0000000E+00;  0.0000000E+00;  1.0000000E+04;  0.0000000E+00;  1.0000000E+04;-0.0043966533;0.0;5.1513143e-05;0.96214867
 -7.9999998E-02;  9.9999998E-03;  1.2000000E-01;311;0.0;0.0;0.0;1000.0053;  4.0000001E-01;4.4443183;0;0.0;0.0;0.0;0;-0.004309901;  1.0000000E+04;  0.0000000E+00;  0.0000000E+00;  1.0000000E+04;  0.0000000E+00;  1.0000000E+04;-0.0043736068;0.0;6.3705709e-05;1.0805323
 -7.9999998E-02;  9.9999998E-03;  1.4000000E-01;312;0.0;0.0;0.0;1000.0051;  4.0000001E-01;4.1480303;0;0.0;0.0;0.0;0;-0.0042481655;  1.0000000E+04;  0.0000000E+00;  0.0000000E+00;  1.0000000E+04;  0.0000000E+00;  1.0000000E+04;-0.0043242034;0.0;7.603789e-05;1.1979761
 -5.9999999E-02;  9.9999998E-03;  0.0000000E+00;346;0.0;0.0;0.0;1000.0105;  4.0000001E-01;8.6911106;0;0.0;0.0;0.0;0;-0.0085030161;  1.0000000E+04;  0.0000000E+00;  0.0000000E+00;  1.0000000E+04;  0.0000000E+00;  1.0000000E+04;-0.0085505173;0.0;4.7501318e-05;1.3863801
 -5.9999999E-02;  9.9999998E-03;  2.0000000E-02;347;0.0;0.0;0.0;1000.0105;  4.0000001E-01;8.6911106;0;0.0;0.0;0.0;0;-0.0085036932;  1.0000000E+04;  0.0000000E+00;  0.0000000E+00;  1.0000000E+04;  0.0000000E+00;  1.0000000E+04;-0.0085544568;0.0;5.0763181e-05;1.4187915
 -5.9999999E-02;  9.9999998E-03;  3.9999999E-02;348;0.0;0.0;0.0;1000.0105;  4.0000001E-01;8.6911106;0;0.0;0.0;0.0;0;-0.0085043833;  1.0000000E+04;  0.0000000E+00;  0.0000000E+00;  1.0000000E+04;  0.0000000E+00;  1.0000000E+04;-0.0085648196;0.0;6.0435905e-05;1.5148896
 -5.9999999E-02;  9.9999998E-03;  5.9999999E-02;349;0.0;0.0;0.0;1000.0105;  4.0000001E-01;8.6911106;0;0.0;0.0;0.0;0;-0.0085009839;  1.0000000E+04;  0.0000000E+00;  0.0000000E+00;  1.0000000E+04;  0.0000000E+00;  1.0000000E+04;-0.0085771605;0.0;7.617681e-05;1.6711941
 -5.9999999E-02;  9.9999998E-03;  7.9999998E-02;350;0.0;0.0;0.0;1000.0104;  4.0000001E-01;8.6911106;0;0.0;0.0;0.0;0;-0.0084864544;  1.0000000E+04;  0.0000000E+00;  0.0000000E+00;  1.0000000E+04;  0.0000000E+00;  1.0000000E+04;-0.0085838158;0.0;9.7361437e-05;1.8812644
 -5.9999999E-02;  9.9999998E-03;  1.0000000E-01;351;0.0;0.0;0.0;1000.0104;  4.0000001E-01;8.6911106;0;0.0;0.0;0.0;0;-0.0084506152;  1.0000000E+04;  0.0000000E+00;  0.0000000E+00;  1.0000000E+04;  0.0000000E+00;  1.0000000E+04;-0.0085735694;0.0;0.00012295437;2.1342032
 -5.9999999E-02;  9.9999998E-03;  1.2000000E-01;352;0.0;0.0;0.0;1000.0104;  4.0000001E-01;8.5923481;0;0.0;0.0;0.0;0;-0.0083800834;  1.0000000E+04;  0.0000000E+00;  0.0000000E+00;  1.0000000E+04;  0.0000000E+00;  1.0000000E+04;-0.0085313236;0.0;0.00015124014;2.4116559
 -5.9999999E-02;  9.9999998E-03;  1.4000000E-01;353;0.0;0.0;0.0;1000.0101;  4.0000001E-01;8.3948231;0;0.0;0.0;0.0;0;-0.0082585253;  1.0000000E+04;  0.0000000E+00;  0.0000000E+00;  1.0000000E+04;  0.0000000E+00;  1.0000000E+04;-0.0084379623;0.0;0.00017943699;2.6836913
 -3.9999999E-02;  9.9999998E-03;  0.0000000E+00;387;0.0;0.0;0.0;1000.0176;  4.0000001E-01;14.518106;0;0.0;0.0;0.0;0;-0.014089325;  1.0000000E+04;  0.0000000E+00;  0.0000000E+00;  1.0000000E+04;  0.0000000E+00;  1.0000000E+04;-0.014184783;0.0;9.5459e-05;2.5268898
 -3.9999999E-02;  9.9999998E-03;  2.0000000E-02;388;0.0;0.0;0.0;1000.0176;  4.0000001E-01;14.518106;0;0.0;0.0;0.0;0;-0.01409024;  1.0000000E+04;  0.0000000E+00;  0.0000000E+00;  1.0000000E+04;  0.0000000E+00;  1.0000000E+04;-0.014192087;0.0;0.00010184676;2.5908029
 -3.9999999E-02;  9.9999998E-03;  3.9999999E-02;389;0.0;0.0;0.0;1000.0175;  4.0000001E-01;14.518106;0;0.0;0.0;0.0;0;-0.01409082;  1.0000000E+04;  0.0000000E+00;  0.0000000E+00;  1.0000000E+04;  0.0000000E+00;  1.0000000E+04;-0.014211605;0.0;0.00012078555;2.7803085
 -3.9999999E-02;  9.9999998E-03;  5.9999999E-02;390;0.0;0.0;0.0;1000.0175;  4.0000001E-01;14.518106;0;0.0;0.0;0.0;0;-0.014084429;  1.0000000E+04;  0.0000000E+00;  0.0000000E+00;  1.0000000E+04;  0.0000000E+00;  1.0000000E+04;-0.014236012;0.0;0.0001515818;3.088469
 -3.9999999E-02;  9.9999998E-03;  7.9999998E-02;391;0.0;0.0;0.0;1000.0175;  4.0000001E-01;14.518106;0;0.0;0.0;0.0;0;-0.014059692;  1.0000000E+04;  0.0000000E+00;  0.0000000E+00;  1.0000000E+04;  0.0000000E+00;  1.0000000E+04;-0.014252645;0.0;0.00019295372;3.5022404
 -3.9999999E-02;  9.9999998E-03;  1.0000000E-01;392;0.0;0.0;0.0;1000.0174;  4.0000001E-01;14.419343;0;0.0;0.0;0.0;0;-0.014000161;  1.0000000E+04;  0.0000000E+00;  0.0000000E+00;  1.0000000E+04;  0.0000000E+00;  1.0000000E+04;-0.014242915;0.0;0.00024275458;3.9992638
 -3.9999999E-02;  9.9999998E-03;  1.2000000E-01;393;0.0;0.0;0.0;1000.0172;  4.0000001E-01;14.221818;0;0.0;0.0;0.0;0;-0.01388426;  1.0000000E+04;  0.0000000E+00;  0.0000000E+00;  1.0000000E+04;  0.0000000E+00;  1.0000000E+04;-0.014181693;0.0;0.00029743303;4.5418386
 -3.9999999E-02;  9.9999998E-03;  1.4000000E-01;394;0.0;0.0;0.0;1000.0168;  4.0000001E-01;13.92553;0;0.0;0.0;0.0;0;-0.013685638;  1.0000000E+04;  0.0000000E+00;  0.0000000E+00;  1.0000000E+04;  0.0000000E+00;  1.0000000E+04;-0.014036966;0.0;0.00035132759;5.0692635
 -2.0000000E-02;  9.9999998E-03;  0.0000000E+00;428;0.0;0.0;0.0;1000.0256;  4.0000001E-01;21.233965;0;0.0;0.0;0.0;0;-0.020406263;  1.0000000E+04;  0.0000000E+00;  0.0000000E+00;  1.0000000E+04;  0.0000000E+00;  1.0000000E+04;-0.020569952;0.0;0.00016368857;4.0271316
 -2.0000000E-02;  9.9999998E-03;  2.0000000E-02;429;0.0;0.0;0.0;1000.0256;  4.0000001E-01;21.233965;0;0.0;0.0;0.0;0;-0.020407686;  1.0000000E+04;  0.0000000E+00;  0.0000000E+00;  1.0000000E+04;  0.0000000E+00;  1.0000000E+04;-0.020582175;0.0;0.00017448925;4.1361842
 -2.0000000E-02;  9.9999998E-03;  3.9999999E-02;430;0.0;0.0;0.0;1000.0255;  4.0000001E-01;21.135202;0;0.0;0.0;0.0;0;-0.020408969;  1.0000000E+04;  0.0000000E+00;  0.0000000E+00;  1.0000000E+04;  0.0000000E+00;  1.0000000E+04;-0.020615475;0.0;0.00020650604;4.4595585
 -2.0000000E-02;  9.9999998E-03;  5.9999999E-02;431;0.0;0.0;0.0;1000.0255;  4.0000001E-01;21.135202;0;0.0;0.0;0.0;0;-0.020400807;  1.0000000E+04;  0.0000000E+00;  0.0000000E+00;  1.0000000E+04;  0.0000000E+00;  1.0000000E+04;-0.020659339;0.0;0.00025853195;4.9853292
 -2.0000000E-02;  9.9999998E-03;  7.9999998E-02;432;0.0;0.0;0.0;1000.0254;  4.0000001E-01;21.036438;0;0.0;0.0;0.0;0;-0.020367311;  1.0000000E+04;  0.0000000E+00;  0.0000000E+00;  1.0000000E+04;  0.0000000E+00;  1.0000000E+04;-0.020695629;0.0;0.00032831737;5.6908059
 -2.0000000E-02;  9.9999998E-03;  1.0000000E-01;433;0.0;0.0;0.0;1000.0253;  4.0000001E-01;20.937675;0;0.0;0.0;0.0;0;-0.020285457;  1.0000000E+04;  0.0000000E+00;  0.0000000E+00;  1.0000000E+04;  0.0000000E+00;  1.0000000E+04;-0.020697532;0.0;0.00041207561;6.5368094
 -2.0000000E-02;  9.9999998E-03;  1.2000000E-01;434;0.0;0.0;0.0;1000.025;  4.0000001E-01;20.641388;0;0.0;0.0;0.0;0;-0.020125007;  1.0000000E+04;  0.0000000E+00;  0.0000000E+00;  1.0000000E+04;  0.0000000E+00;  1.0000000E+04;-0.02062859;0.0;0.000503583;7.457479
 -2.0000000E-02;  9.9999998E-03;  1.4000000E-01;435;0.0;0.0;0.0;1000.0245;  4.0000001E-01;20.3451;0;0.0;0.0;0.0;0;-0.019848926;  1.0000000E+04;  0.0000000E+00;  0.0000000E+00;  1.0000000E+04;  0.0000000E+00;  1.0000000E+04;-0.020441951;0.0;0.00059302495;8.3474846
 -2.2000000E-01;  9.9999998E-03;  1.6000000E-01;27;0.0;0.0;0.0;1000.0;  4.0000001E-01;0.0;0;0.0;0.0;0.0;0;0.0;  1.0000000E+04;  0.0000000E+00;  0.0000000E+00;  1.0000000E+04;  0.0000000E+00;  1.0000000E+04;0.0;0.0;0.0;0.0
 -2.2000000E-01;  9.9999998E-03;  1.8000001E-01;28;0.0;0.0;0.0;1000.0;  4.0000001E-01;0.0;0;0.0;0.0;0.0;0;0.0;  1.0000000E+04;  0.0000000E+00;  0.0000000E+00;  1.0000000E+04;  0.0000000E+00;  1.0000000E+04;0.0;0.0;0.0;0.0
 -2.2000000E-01;  9.9999998E-03;  2.0000000E-01;29;0.0;0.0;0.0;1000.0;  4.0000001E-01;0.0;0;0.0;0.0;0.0;0;0.0;  1.0000000E+04;  0.0000000E+00;  0.0000000E+00;  1.0000000E+04;  0.0000000E+00;  1.0000000E+04;0.0;0.0;0.0;0.0
 -2.2000000E-01;  9.9999998E-03;  2.2000000E-01;30;0.0;0.0;0.0;1000.0;  4.0000001E-01;0.0;0;0.0;0.0;0.0;0;0.0;  1.0000000E+04;  0.0000000E+00;  0.0000000E+00;  1.0000000E+04;  0.0000000E+00;  1.0000000E+04;0.0;0.0;0.0;0.0
 -2.2000000E-01;  9.9999998E-03;  2.3999999E-01;31;0.0;0.0;0.0;1000.0;  4.0000001E-01;0.0;0;0.0;0.0;0.0;0;0.0;  1.0000000E+04;  0.0000000E+00;  0.0000000E+00;  1.0000000E+04;  0.0000000E+00;  1.0000000E+04;0.0;0.0;0.0;0.0
 -2.2000000E-01;  9.9999998E-03;  2.5999999E-01;32;0.0;0.0;0.0;1000.0;  4.0000001E-01;0.0;0;0.0;0.0;0.0;0;0.0;  1.0000000E+04;  0.0000000E+00;  0.0000000E+00;  1.0000000E+04;  0.0000000E+00;  1.0000000E+04;0.0;0.0;0.0;0.0
 -2.2000000E-01;  9.9999998E-03;  2.8000000E-01;33;0.0;0.0;0.0;1000.0;  4.0000001E-01;0.0;0;0.0;0.0;0.0;0;0.0;  1.0000000E+04;  0.0000000E+00;  0.0000000E+00;  1.0000000E+04;  0.0000000E+00;  1.0000000E+04;0.0;0.0;0.0;0.0
 -2.2000000E-01;  9.9999998E-03;  3.0000001E-01;34;0.0;0.0;0.0;1000.0;  4.0000001E-01;0.0;0;0.0;0.0;0.0;0;0.0;  1.0000000E+04;  0.0000000E+00;  0.0000000E+00;  1.0000000E+04;  0.0000000E+00;  1.0000000E+04;0.0;0.0;0.0;0.0
 -2.2000000E-01;  9.9999998E-03;  3.1999999E-01;35;0.0;0.0;0.0;1000.0;  4.0000001E-01;0.0;0;0.0;0.0;0.0;0;0.0;  1.0000000E+04;  0.0000000E+00;  0.0000000E+00;  1.0000000E+04;  0.0000000E+00;  1.0000000E+04;0.0;0.0;0.0;0.0
 -2.0000000E-01;  9.9999998E-03;  1.6000000E-01;67;0.0;0.0;0.0;1000.0;  4.0000001E-01;0.0;0;0.0;0.0;0.0;0;0.0;  1.0000000E+04;  0.0000000E+00;  0.0000000E+00;  1.0000000E+04;  0.0000000E+00;  1.0000000E+04;0.0;0.0;0.0;0.0
 -2.0000000E-01;  9.9999998E-03;  1.8000001E-01;68;0.0;0.0;0.0;1000.0;  4.0000001E-01;0.0;0;0.0;0.0;0.0;0;0.0;  1.0000000E+04;  0.0000000E+00;  0.0000000E+00;  1.0000000E+04;  0.0000000E+00;  1.0000000E+04;0.0;0.0;0.0;0.0
 -2.0000000E-01;  9.9999998E-03;  2.0000000E-01;69;0.0;0.0;0.0;1000.0;  4.0000001E-01;0.0;0;0.0;0.0;0.0;0;0.0;  1.0000000E+04;  0.0000000E+00;  0.0000000E+00;  1.0000000E+04;  0.0000000E+00;  1.0000000E+04;0.0;0.0;0.0;0.0
 -2.0000000E-01;  9.9999998E-03;  2.2000000E-01;70;0.0;0.0;0.0;1000.0;  4.0000001E-01;0.0;0;0.0;0.0;0.0;0;0.0;  1.0000000E+04;  0.0000000E+00;  0.0000000E+00;  1.0000000E+04;  0.0000000E+00;  1.0000000E+04;0.0;0.0;0.0;0.0
 -2.0000000E-01;  9.9999998E-03;  2.3999999E-01;71;0.0;0.0;0.0;1000.0;  4.0000001E-01;0.0;0;0.0;0.0;0.0;0;0.0;  1.0000000E+04;  0.0000000E+00;  0.0000000E+00;  1.0000000E+04;  0.0000000E+00;  1.0000000E+04;0.0;0.0;0.0;0.0
 -2.0000000E-01;  9.9999998E-03;  2.5999999E-01;72;0.0;0.0;0.0;1000.0;  4.0000001E-01;0.0;0;0.0;0.0;0.0;0;0.0;  1.0000000E+04;  0.0000000E+00;  0.0000000E+00;  1.0000000E+04;  0.0000000E+00;  1.0000000E+04;0.0;0.0;0.0;0.0
 -2.0000000E-01;  9.9999998E-03;  2.8000000E-01;73;0.0;0.0;0.0;1000.0;  4.0000001E-01;0.0;0;0.0;0.0;0.0;0;0.0;  1.0000000E+04;  0.0000000E+00;  0.0000000E+00;  1.0000000E+04;  0.0000000E+00;  1.0000000E+04;0.0;0.0;0.0;0.0
 -2.0000000E-01;  9.9999998E-03;  3.0000001E-01;74;0.0;0.0;0.0;1000.0;  4.0000001E-01;0.0;0;0.0;0.0;0.0;0;0.0;  1.0000000E+04;  0.0000000E+00;  0.0000000E+00;  1.0000000E+04;  0.0000000E+00;  1.0000000E+04;0.0;0.0;0.0;0.0
 -2.0000000E-01;  9.9999998E-03;  3.1999999E-01;75;0.0;0.0;0.0;1000.0;  4.0000001E-01;0.0;0;0.0;0.0;0.0;0;0.0;  1.0000000E+04;  0.0000000E+00;  0.0000000E+00;  1.0000000E+04;  0.0000000E+00;  1.0000000E+04;0.0;0.0;0.0;0.0
 -1.8000001E-01;  9.9999998E-03;  1.6000000E-01;108;0.0;0.0;0.0;1000.0;  4.0000001E-01;0.0;0;0.0;0.0;0.0;0;0.0;  1.0000000E+04;  0.0000000E+00;  0.0000000E+00;  1.0000000E+04;  0.0000000E+00;  1.0000000E+04;0.0;0.0;0.0;0.0
 -1.8000001E-01;  9.9999998E-03;  1.8000001E-01;109;0.0;0.0;0.0;1000.0;  4.0000001E-01;0.0;0;0.0;0.0;0.0;0;0.0;  1.0000000E+04;  0.0000000E+00;  0.0000000E+00;  1.0000000E+04;  0.0000000E+00;  1.0000000E+04;0.0;0.0;0.0;0.0
 -1.8000001E-01;  9.9999998E-03;  2.0000000E-01;110;0.0;0.0;0.0;1000.0;  4.0000001E-01;0.0;0;0.0;0.0;0.0;0;0.0;  1.0000000E+04;  0.0000000E+00;  0.0000000E+00;  1.0000000E+04;  0.0000000E+00;  1.0000000E+04;0.0;0.0;0.0;0.0
 -1.8000001E-01;  9.9999998E-03;  2.2000000E-01;111;0.0;0.0;0.0;1000.0;  4.0000001E-01;0.0;0;0.0;0.0;0.0;0;0.0;  1.0000000E+04;  0.0000000E+00;  0.0000000E+00;  1.0000000E+04;  0.0000000E+00;  1.0000000E+04;0.0;0.0;0.0;0.0
 -1.8000001E-01;  9.9999998E-03;  2.3999999E-01;112;0.0;0.0;0.0;1000.0;  4.0000001E-01;0.0;0;0.0;0.0;0.0;0;0.0;  1.0000000E+04;  0.0000000E+00;  0.0000000E+00;  1.0000000E+04;  0.0000000E+00;  1.0000000E+04;0.0;0.0;0.0;0.0
 -1.8000001E-01;  9.9999998E-03;  2.5999999E-01;113;0.0;0.0;0.0;1000.0;  4.0000001E-01;0.0;0;0.0;0.0;0.0;0;0.0;  1.0000000E+04;  0.0000000E+00;  0.0000000E+00;  1.0000000E+04;  0.0000000E+00;  1.0000000E+04;0.0;0.0;0.0;0.0
 -1.8000001E-01;  9.9999998E-03;  2.8000000E-01;114;0.0;0.0;0.0;1000.0;  4.0000001E-01;0.0;0;0.0;0.0;0.0;0;0.0;  1.0000000E+04;  0.0000000E+00;  0.0000000E+00;  1.0000000E+04;  0.0000000E+00;  1.0000000E+04;0.0;0.0;0.0;0.0
 -1.8000001E-01;  9.9999998E-03;  3.0000001E-01;115;0.0;0.0;0.0;1000.0;  4.0000001E-01;0.0;0;0.0;0.0;0.0;0;0.0;  1.0000000E+04;  0.0000000E+00;  0.0000000E+00;  1.0000000E+04;  0.0000000E+00;  1.0000000E+04;0.0;0.0;0.0;0.0
 -1.8000001E-01;  9.9999998E-03;  3.1999999E-01;116;0.0;0.0;0.0;1000.0;  4.0000001E-01;0.0;0;0.0;0.0;0.0;0;0.0;  1.0000000E+04;  0.0000000E+00;  0.0000000E+00;  1.0000000E+04;  0.0000000E+00;  1.0000000E+04;0.0;0.0;0.0;0.0
 -1.6000000E-01;  9.9999998E-03;  1.6000000E-01;149;0.0;0.0;0.0;1000.0;  4.0000001E-01;0.0;0;0.0;0.0;0.0;0;-2.7246199e-06;  1.0000000E+04;  0.0000000E+00;  0.0000000E+00;  1.0000000E+04;  0.0000000E+00;  1.0000000E+04;-2.7300264e-06;0.0;5.4065241e-09;0.00030077956
 -1.6000000E-01;  9.9999998E-03;  1.8000001E-01;150;0.0;0.0;0.0;1000.0;  4.0000001E-01;0.0;0;0.0;0.0;0.0;0;-2.6479404e-06;  1.0000000E+04;  0.0000000E+00;  0.0000000E+00;  1.0000000E+04;  0.0000000E+00;  1.0000000E+04;-2.6541288e-06;0.0;6.1883978e-09;0.00030139516
 -1.6000000E-01;  9.9999998E-03;  2.0000000E-01;151;0.0;0.0;0.0;1000.0;  4.0000001E-01;0.0;0;0.0;0.0;0.0;0;-2.5310053e-06;  1.0000000E+04;  0.0000000E+00;  0.0000000E+00;  1.0000000E+04;  0.0000000E+00;  1.0000000E+04;-2.5376398e-06;0.0;6.6346129e-09;0.00029504305
 -1.6000000E-01;  9.9999998E-03;  2.2000000E-01;152;0.0;0.0;0.0;1000.0;  4.0000001E-01;0.0;0;0.0;0.0;0.0;0;-2.3652447e-06;  1.0000000E+04;  0.0000000E+00;  0.0000000E+00;  1.0000000E+04;  0.0000000E+00;  1.0000000E+04;-2.3717564e-06;0.0;6.5117178e-09;0.00027861688
 -1.6000000E-01;  9.9999998E-03;  2.3999999E-01;153;0.0;0.0;0.0;1000.0;  4.0000001E-01;0.0;0;0.0;0.0;0.0;0;-2.1442702e-06;  1.0000000E+04;  0.0000000E+00;  0.0000000E+00;  1.0000000E+04;  0.0000000E+00;  1.0000000E+04;-2.149819e-06;0.0;5.5488565e-09;0.0002489636
 -1.6000000E-01;  9.9999998E-03;  2.5999999E-01;154;0.0;0.0;0.0;1000.0;  4.0000001E-01;0.0;0;0.0;0.0;0.0;0;-1.8177633e-06;  1.0000000E+04;  0.0000000E+00;  0.0000000E+00;  1.0000000E+04;  0.0000000E+00;  1.0000000E+04;-1.8158414e-06;0.0;-1.9218849e-09;0.00014150598
 -1.6000000E-01;  9.9999998E-03;  2.8000000E-01;155;0.0;0.0;0.0;1000.0;  4.0000001E-01;0.0;0;0.0;0.0;0.0;0;-1.2203884e-06;  1.0000000E+04;  0.0000000E+00;  0.0000000E+00;  1.0000000E+04;  0.0000000E+00;  1.0000000E+04;-1.2006972e-06;0.0;-1.96912e-08;0.00010940344
 -1.6000000E-01;  9.9999998E-03;  3.0000001E-01;156;0.0;0.0;0.0;1000.0;  4.0000001E-01;0.0;0;0.0;0.0;0.0;0;-5.1721162e-07;  1.0000000E+04;  0.0000000E+00;  0.0000000E+00;  1.0000000E+04;  0.0000000E+00;  1.0000000E+04;-4.9529615e-07;0.0;-2.191547e-08;0.00019379931
 -1.6000000E-01;  9.9999998E-03;  3.1999999E-01;157;0.0;0.0;0.0;1000.0;  4.0000001E-01;0.0;0;0.0;0.0;0.0;0;-8.1387761e-08;  1.0000000E+04;  0.0000000E+00;  0.0000000E+00;  1.0000000E+04;  0.0000000E+00;  1.0000000E+04;-7.4894167e-08;0.0;-6.4935963e-09;6.2292966e-05
 -1.4000000E-01;  9.9999998E-03;  1.6000000E-01;190;0.0;0.0;0.0;1000.0;  4.0000001E-01;0.0;0;0.0;0.0;0.0;0;-9.9182049e-05;  1.0000000E+04;  0.0000000E+00;  0.0000000E+00;  1.0000000E+04;  0.0000000E+00;  1.0000000E+04;-9.985394e-05;0.0;6.7189296e-07;0.01593047
 -1.4000000E-01;  9.9999998E-03;  1.8000001E-01;191;0.0;0.0;0.0;1000.0;  4.0000001E-01;0.0;0;0.0;0.0;0.0;0;-9.6056698e-05;  1.0000000E+04;  0.0000000E+00;  0.0000000E+00;  1.0000000E+04;  0.0000000E+00;  1.0000000E+04;-9.6810123e-05;0.0;7.534228e-07;0.01644418
 -1.4000000E-01;  9.9999998E-03;  2.0000000E-01;192;0.0;0.0;0.0;1000.0;  4.0000001E-01;0.0;0;0.0;0.0;0.0;0;-9.1493566e-05;  1.0000000E+04;  0.0000000E+00;  0.0000000E+00;  1.0000000E+04;  0.0000000E+00;  1.0000000E+04;-9.228423e-05;0.0;7.9066581e-07;0.016378574
 -1.4000000E-01;  9.9999998E-03;  2.2000000E-01;193;0.0;0.0;0.0;1000.0;  4.0000001E-01;0.0;0;0.0;0.0;0.0;0;-8.5074789e-05;  1.0000000E+04;  0.0000000E+00;  0.0000000E+00;  1.0000000E+04;  0.0000000E+00;  1.0000000E+04;-8.5770909e-05;0.0;6.9612167e-07;0.014782296
 -1.4000000E-01;  9.9999998E-03;  2.3999999E-01;194;0.0;0.0;0.0;1000.0;  4.0000001E-01;0.0;0;0.0;0.0;0.0;0;-7.5452037e-05;  1.0000000E+04;  0.0000000E+00;  0.0000000E+00;  1.0000000E+04;  0.0000000E+00;  1.0000000E+04;-7.5640652e-05;0.0;1.8861523e-07;0.008559254
 -1.4000000E-01;  9.9999998E-03;  2.5999999E-01;195;0.0;0.0;0.0;1000.0;  4.0000001E-01;0.0;0;0.0;0.0;0.0;0;-6.1616047e-05;  1.0000000E+04;  0.0000000E+00;  0.0000000E+00;  1.0000000E+04;  0.0000000E+00;  1.0000000E+04;-6.0934741e-05;0.0;-6.8130305e-07;0.0018547769
 -1.4000000E-01;  9.9999998E-03;  2.8000000E-01;196;0.0;0.0;0.0;1000.0;  4.0000001E-01;0.0;0;0.0;0.0;0.0;0;-4.4477074e-05;  1.0000000E+04;  0.0000000E+00;  0.0000000E+00;  1.0000000E+04;  0.0000000E+00;  1.0000000E+04;-4.3027652e-05;0.0;-1.4494219e-06;0.011510526
 -1.4000000E-01;  9.9999998E-03;  3.0000001E-01;197;0.0;0.0;0.0;1000.0;  4.0000001E-01;0.0;0;0.0;0.0;0.0;0;-2.6959891e-05;  1.0000000E+04;  0.0000000E+00;  0.0000000E+00;  1.0000000E+04;  0.0000000E+00;  1.0000000E+04;-2.5270001e-05;0.0;-1.6898911e-06;0.015718317
 -1.4000000E-01;  9.9999998E-03;  3.1999999E-01;198;0.0;0.0;0.0;1000.0;  4.0000001E-01;0.0;0;0.0;0.0;0.0;0;-1.2682372e-05;  1.0000000E+04;  0.0000000E+00;  0.0000000E+00;  1.0000000E+04;  0.0000000E+00;  1.0000000E+04;-1.1372881e-05;0.0;-1.3094914e-06;0.012954169
 -1.2000000E-01;  9.9999998E-03;  1.6000000E-01;231;0.0;0.0;0.0;1000.0006;  4.0000001E-01;0.49381313;0;0.0;0.0;0.0;0;-0.00054734579;  1.0000000E+04;  0.0000000E+00;  0.0000000E+00;  1.0000000E+04;  0.0000000E+00;  1.0000000E+04;-0.00055373361;0.0;6.3878501e-06;0.11627543
 -1.2000000E-01;  9.9999998E-03;  1.8000001E-01;232;0.0;0.0;0.0;1000.0006;  4.0000001E-01;0.49381313;0;0.0;0.0;0.0;0;-0.00052908243;  1.0000000E+04;  0.0000000E+00;  0.0000000E+00;  1.0000000E+04;  0.0000000E+00;  1.0000000E+04;-0.00053613546;0.0;7.0530286e-06;0.12111126
 -1.2000000E-01;  9.9999998E-03;  2.0000000E-01;233;0.0;0.0;0.0;1000.0005;  4.0000001E-01;0.49381313;0;0.0;0.0;0.0;0;-0.000502621;  1.0000000E+04;  0.0000000E+00;  0.0000000E+00;  1.0000000E+04;  0.0000000E+00;  1.0000000E+04;-0.000509587;0.0;6.9660241e-06;0.11740962
 -1.2000000E-01;  9.9999998E-03;  2.2000000E-01;234;0.0;0.0;0.0;1000.0005;  4.0000001E-01;0.3950505;0;0.0;0.0;0.0;0;-0.00046450036;  1.0000000E+04;  0.0000000E+00;  0.0000000E+00;  1.0000000E+04;  0.0000000E+00;  1.0000000E+04;-0.00046943943;0.0;4.9390615e-06;0.092340149
 -1.2000000E-01;  9.9999998E-03;  2.3999999E-01;235;0.0;0.0;0.0;1000.0004;  4.0000001E-01;0.3950505;0;0.0;0.0;0.0;0;-0.00041125464;  1.0000000E+04;  0.0000000E+00;  0.0000000E+00;  1.0000000E+04;  0.0000000E+00;  1.0000000E+04;-0.00041180273;0.0;5.4809306e-07;0.041084692
 -1.2000000E-01;  9.9999998E-03;  2.5999999E-01;236;0.0;0.0;0.0;1000.0003;  4.0000001E-01;0.29628786;0;0.0;0.0;0.0;0;-0.00034160778;  1.0000000E+04;  0.0000000E+00;  0.0000000E+00;  1.0000000E+04;  0.0000000E+00;  1.0000000E+04;-0.0003362853;0.0;-5.3224931e-06;0.027210707
 -1.2000000E-01;  9.9999998E-03;  2.8000000E-01;237;0.0;0.0;0.0;1000.0002;  4.0000001E-01;0.19752525;0;0.0;0.0;0.0;0;-0.00025952043;  1.0000000E+04;  0.0000000E+00;  0.0000000E+00;  1.0000000E+04;  0.0000000E+00;  1.0000000E+04;-0.00024898682;0.0;-1.0533611e-05;0.089618243
 -1.2000000E-01;  9.9999998E-03;  3.0000001E-01;238;0.0;0.0;0.0;1000.0002;  4.0000001E-01;0.19752525;0;0.0;0.0;0.0;0;-0.00017540579;  1.0000000E+04;  0.0000000E+00;  0.0000000E+00;  1.0000000E+04;  0.0000000E+00;  1.0000000E+04;-0.00016229294;0.0;-1.3112853e-05;0.12446126
 -1.2000000E-01;  9.9999998E-03;  3.1999999E-01;239;0.0;0.0;0.0;1000.0;  4.0000001E-01;0.0;0;0.0;0.0;0.0;0;-0.00010205661;  1.0000000E+04;  0.0000000E+00;  0.0000000E+00;  1.0000000E+04;  0.0000000E+00;  1.0000000E+04;-8.9751251e-05;0.0;-1.2305354e-05;0.12259823
 -1.0000000E-01;  9.9999998E-03;  1.6000000E-01;272;0.0;0.0;0.0;1000.002;  4.0000001E-01;1.6789646;0;0.0;0.0;0.0;0;-0.0017431112;  1.0000000E+04;  0.0000000E+00;  0.0000000E+00;  1.0000000E+04;  0.0000000E+00;  1.0000000E+04;-0.00177181;0.0;2.8698791e-05;0.45978662
 -1.0000000E-01;  9.9999998E-03;  1.8000001E-01;273;0.0;0.0;0.0;1000.002;  4.0000001E-01;1.580202;0;0.0;0.0;0.0;0;-0.0016828319;  1.0000000E+04;  0.0000000E+00;  0.0000000E+00;  1.0000000E+04;  0.0000000E+00;  1.0000000E+04;-0.001713749;0.0;3.0917097e-05;0.47559881
 -1.0000000E-01;  9.9999998E-03;  2.0000000E-01;274;0.0;0.0;0.0;1000.002;  4.0000001E-01;1.580202;0;0.0;0.0;0.0;0;-0.0015959492;  1.0000000E+04;  0.0000000E+00;  0.0000000E+00;  1.0000000E+04;  0.0000000E+00;  1.0000000E+04;-0.0016246631;0.0;2.8713921e-05;0.4428083
 -1.0000000E-01;  9.9999998E-03;  2.2000000E-01;275;0.0;0.0;0.0;1000.0017;  4.0000001E-01;1.3826767;0;0.0;0.0;0.0;0;-0.001474675;  1.0000000E+04;  0.0000000E+00;  0.0000000E+00;  1.0000000E+04;  0.0000000E+00;  1.0000000E+04;-0.0014940217;0.0;1.9346737e-05;0.33170167
 -1.0000000E-01;  9.9999998E-03;  2.3999999E-01;276;0.0;0.0;0.0;1000.0016;  4.0000001E-01;1.2839141;0;0.0;0.0;0.0;0;-0.0013119277;  1.0000000E+04;  0.0000000E+00;  0.0000000E+00;  1.0000000E+04;  0.0000000E+00;  1.0000000E+04;-0.0013138916;0.0;1.9638771e-06;0.13233255
 -1.0000000E-01;  9.9999998E-03;  2.5999999E-01;277;0.0;0.0;0.0;1000.0013;  4.0000001E-01;1.0863888;0;0.0;0.0;0.0;0;-0.0011055184;  1.0000000E+04;  0.0000000E+00;  0.0000000E+00;  1.0000000E+04;  0.0000000E+00;  1.0000000E+04;-0.0010852574;0.0;-2.0261081e-05;0.12222728
 -1.0000000E-01;  9.9999998E-03;  2.8000000E-01;278;0.0;0.0;0.0;1000.001;  4.0000001E-01;0.88886362;0;0.0;0.0;0.0;0;-0.00086518249;  1.0000000E+04;  0.0000000E+00;  0.0000000E+00;  1.0000000E+04;  0.0000000E+00;  1.0000000E+04;-0.00082472136;0.0;-4.0461106e-05;0.35831374
 -1.0000000E-01;  9.9999998E-03;  3.0000001E-01;279;0.0;0.0;0.0;1000.0007;  4.0000001E-01;0.59257573;0;0.0;0.0;0.0;0;-0.00061683339;  1.0000000E+04;  0.0000000E+00;  0.0000000E+00;  1.0000000E+04;  0.0000000E+00;  1.0000000E+04;-0.00056441961;0.0;-5.2413794e-05;0.50733578
 -1.0000000E-01;  9.9999998E-03;  3.1999999E-01;280;0.0;0.0;0.0;1000.0004;  4.0000001E-01;0.3950505;0;0.0;0.0;0.0;0;-0.00039375512;  1.0000000E+04;  0.0000000E+00;  0.0000000E+00;  1.0000000E+04;  0.0000000E+00;  1.0000000E+04;-0.00034030539;0.0;-5.3449738e-05;0.53777939
 -7.9999998E-02;  9.9999998E-03;  1.6000000E-01;313;0.0;0.0;0.0;1000.0051;  4.0000001E-01;4.1480303;0;0.0;0.0;0.0;0;-0.004150087;  1.0000000E+04;  0.0000000E+00;  0.0000000E+00;  1.0000000E+04;  0.0000000E+00;  1.0000000E+04;-0.0042367643;0.0;8.6677057e-05;1.2946982
 -7.9999998E-02;  9.9999998E-03;  1.8000001E-01;314;0.0;0.0;0.0;1000.0048;  4.0000001E-01;3.950505;0;0.0;0.0;0.0;0;-0.0040044608;  1.0000000E+04;  0.0000000E+00;  0.0000000E+00;  1.0000000E+04;  0.0000000E+00;  1.0000000E+04;-0.0040956195;0.0;9.1158734e-05;1.3229436
 -7.9999998E-02;  9.9999998E-03;  2.0000000E-01;315;0.0;0.0;0.0;1000.0046;  4.0000001E-01;3.7529798;0;0.0;0.0;0.0;0;-0.0037980503;  1.0000000E+04;  0.0000000E+00;  0.0000000E+00;  1.0000000E+04;  0.0000000E+00;  1.0000000E+04;-0.0038809411;0.0;8.289067e-05;1.2119306
 -7.9999998E-02;  9.9999998E-03;  2.2000000E-01;316;0.0;0.0;0.0;1000.0042;  4.0000001E-01;3.4566917;0;0.0;0.0;0.0;0;-0.0035161262;  1.0000000E+04;  0.0000000E+00;  0.0000000E+00;  1.0000000E+04;  0.0000000E+00;  1.0000000E+04;-0.0035714207;0.0;5.5294466e-05;0.89005589
 -7.9999998E-02;  9.9999998E-03;  2.3999999E-01;317;0.0;0.0;0.0;1000.0038;  4.0000001E-01;3.160404;0;0.0;0.0;0.0;0;-0.0031448549;  1.0000000E+04;  0.0000000E+00;  0.0000000E+00;  1.0000000E+04;  0.0000000E+00;  1.0000000E+04;-0.0031515388;0.0;6.6839507e-06;0.33698508
 -7.9999998E-02;  9.9999998E-03;  2.5999999E-01;318;0.0;0.0;0.0;1000.0033;  4.0000001E-01;2.7653534;0;0.0;0.0;0.0;0;-0.0026791058;  1.0000000E+04;  0.0000000E+00;  0.0000000E+00;  1.0000000E+04;  0.0000000E+00;  1.0000000E+04;-0.0026245844;0.0;-5.4521453e-05;0.35904655
 -7.9999998E-02;  9.9999998E-03;  2.8000000E-01;319;0.0;0.0;0.0;1000.0026;  4.0000001E-01;2.1727777;0;0.0;0.0;0.0;0;-0.0021370854;  1.0000000E+04;  0.0000000E+00;  0.0000000E+00;  1.0000000E+04;  0.0000000E+00;  1.0000000E+04;-0.0020259398;0.0;-0.00011114572;1.0131936
 -7.9999998E-02;  9.9999998E-03;  3.0000001E-01;320;0.0;0.0;0.0;1000.002;  4.0000001E-01;1.580202;0;0.0;0.0;0.0;0;-0.0015719585;  1.0000000E+04;  0.0000000E+00;  0.0000000E+00;  1.0000000E+04;  0.0000000E+00;  1.0000000E+04;-0.0014242107;0.0;-0.00014774785;1.4550661
 -7.9999998E-02;  9.9999998E-03;  3.1999999E-01;321;0.0;0.0;0.0;1000.0013;  4.0000001E-01;1.0863888;0;0.0;0.0;0.0;0;-0.0010549927;  1.0000000E+04;  0.0000000E+00;  0.0000000E+00;  1.0000000E+04;  0.0000000E+00;  1.0000000E+04;-0.00089756225;0.0;-0.0001574304;1.6035653
 -5.9999999E-02;  9.9999998E-03;  1.6000000E-01;354;0.0;0.0;0.0;1000.0099;  4.0000001E-01;8.197298;0;0.0;0.0;0.0;0;-0.0080674188;  1.0000000E+04;  0.0000000E+00;  0.0000000E+00;  1.0000000E+04;  0.0000000E+00;  1.0000000E+04;-0.0082699321;0.0;0.00020251358;2.8963199
 -5.9999999E-02;  9.9999998E-03;  1.8000001E-01;355;0.0;0.0;0.0;1000.0095;  4.0000001E-01;7.8022475;0;0.0;0.0;0.0;0;-0.0077864695;  1.0000000E+04;  0.0000000E+00;  0.0000000E+00;  1.0000000E+04;  0.0000000E+00;  1.0000000E+04;-0.0079971179;0.0;0.0002106485;2.9442902
 -5.9999999E-02;  9.9999998E-03;  2.0000000E-01;356;0.0;0.0;0.0;1000.009;  4.0000001E-01;7.5059595;0;0.0;0.0;0.0;0;-0.0073935157;  1.0000000E+04;  0.0000000E+00;  0.0000000E+00;  1.0000000E+04;  0.0000000E+00;  1.0000000E+04;-0.0075836997;0.0;0.00019018419;2.6802118
 -5.9999999E-02;  9.9999998E-03;  2.2000000E-01;357;0.0;0.0;0.0;1000.0085;  4.0000001E-01;7.0121465;0;0.0;0.0;0.0;0;-0.0068636844;  1.0000000E+04;  0.0000000E+00;  0.0000000E+00;  1.0000000E+04;  0.0000000E+00;  1.0000000E+04;-0.0069910055;0.0;0.00012732107;1.9526715
 -5.9999999E-02;  9.9999998E-03;  2.3999999E-01;358;0.0;0.0;0.0;1000.0076;  4.0000001E-01;6.2220454;0;0.0;0.0;0.0;0;-0.0061720111;  1.0000000E+04;  0.0000000E+00;  0.0000000E+00;  1.0000000E+04;  0.0000000E+00;  1.0000000E+04;-0.0061910404;0.0;1.9029219e-05;0.72397059
 -5.9999999E-02;  9.9999998E-03;  2.5999999E-01;359;0.0;0.0;0.0;1000.0065;  4.0000001E-01;5.3331819;0;0.0;0.0;0.0;0;-0.0053058579;  1.0000000E+04;  0.0000000E+00;  0.0000000E+00;  1.0000000E+04;  0.0000000E+00;  1.0000000E+04;-0.0051887315;0.0;-0.00011712631;0.82069278
 -5.9999999E-02;  9.9999998E-03;  2.8000000E-01;360;0.0;0.0;0.0;1000.0053;  4.0000001E-01;4.4443183;0;0.0;0.0;0.0;0;-0.0042914525;  1.0000000E+04;  0.0000000E+00;  0.0000000E+00;  1.0000000E+04;  0.0000000E+00;  1.0000000E+04;-0.0040461118;0.0;-0.00024534043;2.2940805
 -5.9999999E-02;  9.9999998E-03;  3.0000001E-01;361;0.0;0.0;0.0;1000.004;  4.0000001E-01;3.3579292;0;0.0;0.0;0.0;0;-0.0032217361;  1.0000000E+04;  0.0000000E+00;  0.0000000E+00;  1.0000000E+04;  0.0000000E+00;  1.0000000E+04;-0.002889188;0.0;-0.00033254811;3.3304243
 -5.9999999E-02;  9.9999998E-03;  3.1999999E-01;362;0.0;0.0;0.0;1000.0027;  4.0000001E-01;2.2715404;0;0.0;0.0;0.0;0;-0.0022299748;  1.0000000E+04;  0.0000000E+00;  0.0000000E+00;  1.0000000E+04;  0.0000000E+00;  1.0000000E+04;-0.0018664028;0.0;-0.00036357195;3.7518661
 -3.9999999E-02;  9.9999998E-03;  1.6000000E-01;395;0.0;0.0;0.0;1000.0165;  4.0000001E-01;13.728004;0;0.0;0.0;0.0;0;-0.013374871;  1.0000000E+04;  0.0000000E+00;  0.0000000E+00;  1.0000000E+04;  0.0000000E+00;  1.0000000E+04;-0.013768964;0.0;0.00039409325;5.4704471
 -3.9999999E-02;  9.9999998E-03;  1.8000001E-01;396;0.0;0.0;0.0;1000.0158;  4.0000001E-01;13.135429;0;0.0;0.0;0.0;0;-0.012920976;  1.0000000E+04;  0.0000000E+00;  0.0000000E+00;  1.0000000E+04;  0.0000000E+00;  1.0000000E+04;-0.013329281;0.0;0.00040830544;5.557621
 -3.9999999E-02;  9.9999998E-03;  2.0000000E-01;397;0.0;0.0;0.0;1000.0151;  4.0000001E-01;12.444091;0;0.0;0.0;0.0;0;-0.012291524;  1.0000000E+04;  0.0000000E+00;  0.0000000E+00;  1.0000000E+04;  0.0000000E+00;  1.0000000E+04;-0.012660018;0.0;0.00036849431;5.0536408
 -3.9999999E-02;  9.9999998E-03;  2.2000000E-01;398;0.0;0.0;0.0;1000.0141;  4.0000001E-01;11.65399;0;0.0;0.0;0.0;0;-0.01144894;  1.0000000E+04;  0.0000000E+00;  0.0000000E+00;  1.0000000E+04;  0.0000000E+00;  1.0000000E+04;-0.011698703;0.0;0.00024976267;3.6823771
 -3.9999999E-02;  9.9999998E-03;  2.3999999E-01;399;0.0;0.0;0.0;1000.0126;  4.0000001E-01;10.468838;0;0.0;0.0;0.0;0;-0.010352753;  1.0000000E+04;  0.0000000E+00;  0.0000000E+00;  1.0000000E+04;  0.0000000E+00;  1.0000000E+04;-0.010399117;0.0;4.6363977e-05;1.3719851
 -3.9999999E-02;  9.9999998E-03;  2.5999999E-01;400;0.0;0.0;0.0;1000.011;  4.0000001E-01;9.1849241;0;0.0;0.0;0.0;0;-0.0089761736;  1.0000000E+04;  0.0000000E+00;  0.0000000E+00;  1.0000000E+04;  0.0000000E+00;  1.0000000E+04;-0.0087643359;0.0;-0.00021183782;1.5602256
 -3.9999999E-02;  9.9999998E-03;  2.8000000E-01;401;0.0;0.0;0.0;1000.009;  4.0000001E-01;7.407197;0;0.0;0.0;0.0;0;-0.0073459879;  1.0000000E+04;  0.0000000E+00;  0.0000000E+00;  1.0000000E+04;  0.0000000E+00;  1.0000000E+04;-0.0068853791;0.0;-0.00046060895;4.4148297
 -3.9999999E-02;  9.9999998E-03;  3.0000001E-01;402;0.0;0.0;0.0;1000.0068;  4.0000001E-01;5.6294694;0;0.0;0.0;0.0;0;-0.0055992599;  1.0000000E+04;  0.0000000E+00;  0.0000000E+00;  1.0000000E+04;  0.0000000E+00;  1.0000000E+04;-0.0049635442;0.0;-0.00063571549;6.4794564
 -3.9999999E-02;  9.9999998E-03;  3.1999999E-01;403;0.0;0.0;0.0;1000.0048;  4.0000001E-01;3.950505;0;0.0;0.0;0.0;0;-0.0039569684;  1.0000000E+04;  0.0000000E+00;  0.0000000E+00;  1.0000000E+04;  0.0000000E+00;  1.0000000E+04;-0.0032507877;0.0;-0.00070618058;7.3926244
 -2.0000000E-02;  9.9999998E-03;  1.6000000E-01;436;0.0;0.0;0.0;1000.0241;  4.0000001E-01;19.95005;0;0.0;0.0;0.0;0;-0.019416258;  1.0000000E+04;  0.0000000E+00;  0.0000000E+00;  1.0000000E+04;  0.0000000E+00;  1.0000000E+04;-0.020079767;0.0;0.00066351029;9.0244141
 -2.0000000E-02;  9.9999998E-03;  1.8000001E-01;437;0.0;0.0;0.0;1000.0234;  4.0000001E-01;19.456238;0;0.0;0.0;0.0;0;-0.018785471;  1.0000000E+04;  0.0000000E+00;  0.0000000E+00;  1.0000000E+04;  0.0000000E+00;  1.0000000E+04;-0.019472737;0.0;0.00068726495;9.1862516
 -2.0000000E-02;  9.9999998E-03;  2.0000000E-01;438;0.0;0.0;0.0;1000.0222;  4.0000001E-01;18.369848;0;0.0;0.0;0.0;0;-0.017914079;  1.0000000E+04;  0.0000000E+00;  0.0000000E+00;  1.0000000E+04;  0.0000000E+00;  1.0000000E+04;-0.018536758;0.0;0.00062267901;8.3747253
 -2.0000000E-02;  9.9999998E-03;  2.2000000E-01;439;0.0;0.0;0.0;1000.0208;  4.0000001E-01;17.283459;0;0.0;0.0;0.0;0;-0.016750541;  1.0000000E+04;  0.0000000E+00;  0.0000000E+00;  1.0000000E+04;  0.0000000E+00;  1.0000000E+04;-0.017180506;0.0;0.00042996518;6.1424389
 -2.0000000E-02;  9.9999998E-03;  2.3999999E-01;440;0.0;0.0;0.0;1000.0189;  4.0000001E-01;15.703258;0;0.0;0.0;0.0;0;-0.01523645;  1.0000000E+04;  0.0000000E+00;  0.0000000E+00;  1.0000000E+04;  0.0000000E+00;  1.0000000E+04;-0.015334735;0.0;9.8284654e-05;2.355206
 -2.0000000E-02;  9.9999998E-03;  2.5999999E-01;441;0.0;0.0;0.0;1000.0166;  4.0000001E-01;13.728004;0;0.0;0.0;0.0;0;-0.013326647;  1.0000000E+04;  0.0000000E+00;  0.0000000E+00;  1.0000000E+04;  0.0000000E+00;  1.0000000E+04;-0.012996734;0.0;-0.00032991293;2.5306678
 -2.0000000E-02;  9.9999998E-03;  2.8000000E-01;442;0.0;0.0;0.0;1000.0137;  4.0000001E-01;11.357701;0;0.0;0.0;0.0;0;-0.011037345;  1.0000000E+04;  0.0000000E+00;  0.0000000E+00;  1.0000000E+04;  0.0000000E+00;  1.0000000E+04;-0.010281604;0.0;-0.00075574114;7.4268579
 -2.0000000E-02;  9.9999998E-03;  3.0000001E-01;443;0.0;0.0;0.0;1000.0107;  4.0000001E-01;8.8886366;0;0.0;0.0;0.0;0;-0.0085306428;  1.0000000E+04;  0.0000000E+00;  0.0000000E+00;  1.0000000E+04;  0.0000000E+00;  1.0000000E+04;-0.0074655926;0.0;-0.0010650498;11.063583
 -2.0000000E-02;  9.9999998E-03;  3.1999999E-01;444;0.0;0.0;0.0;1000.0077;  4.0000001E-01;6.4195704;0;0.0;0.0;0.0;0;-0.0061286711;  1.0000000E+04;  0.0000000E+00;  0.0000000E+00;  1.0000000E+04;  0.0000000E+00;  1.0000000E+04;-0.0049318024;0.0;-0.0011968686;12.734084
  0.0000000E+00;  9.9999998E-03;  3.0000001E-01;455;0.0;0.0;0.0;1000.0146;  4.0000001E-01;12.04904;0;0.0;0.0;0.0;0;-0.011642843;  1.0000000E+04;  0.0000000E+00;  0.0000000E+00;  1.0000000E+04;  0.0000000E+00;  1.0000000E+04;-0.010060842;0.0;-0.0015820011;16.788534
  0.0000000E+00;  9.9999998E-03;  3.1999999E-01;456;0.0;0.0;0.0;1000.0107;  4.0000001E-01;8.8886366;0;0.0;0.0;0.0;0;-0.0085050622;  1.0000000E+04;  0.0000000E+00;  0.0000000E+00;  1.0000000E+04;  0.0000000E+00;  1.0000000E+04;-0.0067002866;0.0;-0.0018047753;19.569366
  2.0000000E-02;  9.9999998E-03;  3.1999999E-01;466;0.0;0.0;0.0;1000.0139;  4.0000001E-01;11.456465;0;0.0;0.0;0.0;0;-0.010828731;  1.0000000E+04;  0.0000000E+00;  0.0000000E+00;  1.0000000E+04;  0.0000000E+00;  1.0000000E+04;-0.0083785765;0.0;-0.0024501539;27.185228
  3.9999999E-02;  9.9999998E-03;  3.1999999E-01;476;0.0;0.0;0.0;1000.017;  4.0000001E-01;14.123055;0;0.0;0.0;0.0;0;-0.013025687;  1.0000000E+04;  0.0000000E+00;  0.0000000E+00;  1.0000000E+04;  0.0000000E+00;  1.0000000E+04;-0.0099906716;0.0;-0.0030350154;34.648781
  5.9999999E-02;  9.9999998E-03;  3.1999999E-01;486;0.0;0.0;0.0;1000.0204;  4.0000001E-01;16.888409;0;0.0;0.0;0.0;0;-0.015261031;  1.0000000E+04;  0.0000000E+00;  0.0000000E+00;  1.0000000E+04;  0.0000000E+00;  1.0000000E+04;-0.011742395;0.0;-0.0035186356;41.595463
  7.9999998E-02;  9.9999998E-03;  3.1999999E-01;496;0.0;0.0;0.0;1000.0247;  4.0000001E-01;20.443863;0;0.0;0.0;0.0;0;-0.017875152;  1.0000000E+04;  0.0000000E+00;  0.0000000E+00;  1.0000000E+04;  0.0000000E+00;  1.0000000E+04;-0.013955644;0.0;-0.0039195078;48.387844
  1.0000000E-01;  9.9999998E-03;  3.1999999E-01;506;0.0;0.0;0.0;1000.0304;  4.0000001E-01;25.184469;0;0.0;0.0;0.0;0;-0.021419104;  1.0000000E+04;  0.0000000E+00;  0.0000000E+00;  1.0000000E+04;  0.0000000E+00;  1.0000000E+04;-0.017109843;0.0;-0.0043092612;60.264473
  1.2000000E-01;  9.9999998E-03;  3.1999999E-01;516;0.0;0.0;0.0;1000.0388;  4.0000001E-01;32.097855;0;0.0;0.0;0.0;0;-0.026631724;  1.0000000E+04;  0.0000000E+00;  0.0000000E+00;  1.0000000E+04;  0.0000000E+00;  1.0000000E+04;-0.02180828;0.0;-0.0048234449;113.05856
  1.4000000E-01;  9.9999998E-03;  3.1999999E-01;526;0.0;0.0;0.0;1000.0514;  4.0000001E-01;42.566692;0;0.0;0.0;0.0;0;-0.034423396;  1.0000000E+04;  0.0000000E+00;  0.0000000E+00;  1.0000000E+04;  0.0000000E+00;  1.0000000E+04;-0.028734529;0.0;-0.0056888685;283.75717
  1.6000000E-01;  9.9999998E-03;  3.1999999E-01;536;0.0;0.0;0.0;1000.0698;  4.0000001E-01;57.874897;0;0.0;0.0;0.0;0;-0.045670033;  1.0000000E+04;  0.0000000E+00;  0.0000000E+00;  1.0000000E+04;  0.0000000E+00;  1.0000000E+04;-0.038392644;0.0;-0.0072773886;666.32513
  1.8000001E-01;  9.9999998E-03;  3.1999999E-01;546;0.0;0.0;0.0;1000.095;  4.0000001E-01;78.713814;0;0.0;0.0;0.0;0;-0.060613066;  1.0000000E+04;  0.0000000E+00;  0.0000000E+00;  1.0000000E+04;  0.0000000E+00;  1.0000000E+04;-0.050424326;0.0;-0.010188742;1336.1372
  2.0000000E-01;  9.9999998E-03;  3.1999999E-01;555;0.0;0.0;0.0;1000.1262;  4.0000001E-01;104.58962;0;0.0;0.0;0.0;0;-0.078511909;  1.0000000E+04;  0.0000000E+00;  0.0000000E+00;  1.0000000E+04;  0.0000000E+00;  1.0000000E+04;-0.063232221;0.0;-0.015279684;2206.8203
 -2.2000000E-01;  9.9999998E-03;  3.4000000E-01;36;0.0;0.0;0.0;1000.0;  4.0000001E-01;0.0;0;0.0;0.0;0.0;0;0.0;  1.0000000E+04;  0.0000000E+00;  0.0000000E+00;  1.0000000E+04;  0.0000000E+00;  1.0000000E+04;0.0;0.0;0.0;0.0
 -2.2000000E-01;  9.9999998E-03;  3.6000001E-01;37;0.0;0.0;0.0;1000.0;  4.0000001E-01;0.0;0;0.0;0.0;0.0;0;0.0;  1.0000000E+04;  0.0000000E+00;  0.0000000E+00;  1.0000000E+04;  0.0000000E+00;  1.0000000E+04;0.0;0.0;0.0;0.0
 -2.2000000E-01;  9.9999998E-03;  3.8000000E-01;38;0.0;0.0;0.0;1000.0;  4.0000001E-01;0.0;0;0.0;0.0;0.0;0;0.0;  1.0000000E+04;  0.0000000E+00;  0.0000000E+00;  1.0000000E+04;  0.0000000E+00;  1.0000000E+04;0.0;0.0;0.0;0.0
 -2.0000000E-01;  9.9999998E-03;  3.4000000E-01;76;0.0;0.0;0.0;1000.0;  4.0000001E-01;0.0;0;0.0;0.0;0.0;0;0.0;  1.0000000E+04;  0.0000000E+00;  0.0000000E+00;  1.0000000E+04;  0.0000000E+00;  1.0000000E+04;0.0;0.0;0.0;0.0
 -2.0000000E-01;  9.9999998E-03;  3.6000001E-01;77;0.0;0.0;0.0;1000.0;  4.0000001E-01;0.0;0;0.0;0.0;0.0;0;0.0;  1.0000000E+04;  0.0000000E+00;  0.0000000E+00;  1.0000000E+04;  0.0000000E+00;  1.0000000E+04;0.0;0.0;0.0;0.0
 -2.0000000E-01;  9.9999998E-03;  3.8000000E-01;78;0.0;0.0;0.0;1000.0;  4.0000001E-01;0.0;0;0.0;0.0;0.0;0;0.0;  1.0000000E+04;  0.0000000E+00;  0.0000000E+00;  1.0000000E+04;  0.0000000E+00;  1.0000000E+04;0.0;0.0;0.0;0.0
 -2.0000000E-01;  9.9999998E-03;  4.0000001E-01;79;0.0;0.0;0.0;1000.0;  4.0000001E-01;0.0;0;0.0;0.0;0.0;0;0.0;  1.0000000E+04;  0.0000000E+00;  0.0000000E+00;  1.0000000E+04;  0.0000000E+00;  1.0000000E+04;0.0;0.0;0.0;0.0
 -1.8000001E-01;  9.9999998E-03;  3.4000000E-01;117;0.0;0.0;0.0;1000.0;  4.0000001E-01;0.0;0;0.0;0.0;0.0;0;0.0;  1.0000000E+04;  0.0000000E+00;  0.0000000E+00;  1.0000000E+04;  0.0000000E+00;  1.0000000E+04;0.0;0.0;0.0;0.0
 -1.8000001E-01;  9.9999998E-03;  3.6000001E-01;118;0.0;0.0;0.0;1000.0;  4.0000001E-01;0.0;0;0.0;0.0;0.0;0;0.0;  1.0000000E+04;  0.0000000E+00;  0.0000000E+00;  1.0000000E+04;  0.0000000E+00;  1.0000000E+04;0.0;0.0;0.0;0.0
 -1.8000001E-01;  9.9999998E-03;  3.8000000E-01;119;0.0;0.0;0.0;1000.0;  4.0000001E-01;0.0;0;0.0;0.0;0.0;0;0.0;  1.0000000E+04;  0.0000000E+00;  0.0000000E+00;  1.0000000E+04;  0.0000000E+00;  1.0000000E+04;0.0;0.0;0.0;0.0
 -1.8000001E-01;  9.9999998E-03;  4.0000001E-01;120;0.0;0.0;0.0;1000.0;  4.0000001E-01;0.0;0;0.0;0.0;0.0;0;0.0;  1.0000000E+04;  0.0000000E+00;  0.0000000E+00;  1.0000000E+04;  0.0000000E+00;  1.0000000E+04;0.0;0.0;0.0;0.0
 -1.6000000E-01;  9.9999998E-03;  3.4000000E-01;158;0.0;0.0;0.0;1000.0;  4.0000001E-01;0.0;0;0.0;0.0;0.0;0;0.0;  1.0000000E+04;  0.0000000E+00;  0.0000000E+00;  1.0000000E+04;  0.0000000E+00;  1.0000000E+04;0.0;0.0;0.0;0.0
 -1.6000000E-01;  9.9999998E-03;  3.6000001E-01;159;0.0;0.0;0.0;1000.0;  4.0000001E-01;0.0;0;0.0;0.0;0.0;0;0.0;  1.0000000E+04;  0.0000000E+00;  0.0000000E+00;  1.0000000E+04;  0.0000000E+00;  1.0000000E+04;0.0;0.0;0.0;0.0
 -1.6000000E-01;  9.9999998E-03;  3.8000000E-01;160;0.0;0.0;0.0;1000.0;  4.0000001E-01;0.0;0;0.0;0.0;0.0;0;0.0;  1.0000000E+04;  0.0000000E+00;  0.0000000E+00;  1.0000000E+04;  0.0000000E+00;  1.0000000E+04;0.0;0.0;0.0;0.0
 -1.6000000E-01;  9.9999998E-03;  4.0000001E-01;161;0.0;0.0;0.0;1000.0;  4.0000001E-01;0.0;0;0.0;0.0;0.0;0;0.0;  1.0000000E+04;  0.0000000E+00;  0.0000000E+00;  1.0000000E+04;  0.0000000E+00;  1.0000000E+04;0.0;0.0;0.0;0.0
 -1.4000000E-01;  9.9999998E-03;  3.4000000E-01;199;0.0;0.0;0.0;1000.0;  4.0000001E-01;0.0;0;0.0;0.0;0.0;0;-3.9092752e-06;  1.0000000E+04;  0.0000000E+00;  0.0000000E+00;  1.0000000E+04;  0.0000000E+00;  1.0000000E+04;-3.303209e-06;0.0;-6.0606618e-07;0.0061116163
 -1.4000000E-01;  9.9999998E-03;  3.6000001E-01;200;0.0;0.0;0.0;1000.0;  4.0000001E-01;0.0;0;0.0;0.0;0.0;0;-4.5431173e-07;  1.0000000E+04;  0.0000000E+00;  0.0000000E+00;  1.0000000E+04;  0.0000000E+00;  1.0000000E+04;-3.5853168e-07;0.0;-9.5780059e-08;0.00098026206
 -1.4000000E-01;  9.9999998E-03;  3.8000000E-01;201;0.0;0.0;0.0;1000.0;  4.0000001E-01;0.0;0;0.0;0.0;0.0;0;0.0;  1.0000000E+04;  0.0000000E+00;  0.0000000E+00;  1.0000000E+04;  0.0000000E+00;  1.0000000E+04;0.0;0.0;0.0;0.0
 -1.4000000E-01;  9.9999998E-03;  4.0000001E-01;202;0.0;0.0;0.0;1000.0;  4.0000001E-01;0.0;0;0.0;0.0;0.0;0;0.0;  1.0000000E+04;  0.0000000E+00;  0.0000000E+00;  1.0000000E+04;  0.0000000E+00;  1.0000000E+04;0.0;0.0;0.0;0.0
 -1.2000000E-01;  9.9999998E-03;  3.4000000E-01;240;0.0;0.0;0.0;1000.0;  4.0000001E-01;0.0;0;0.0;0.0;0.0;0;-4.8286118e-05;  1.0000000E+04;  0.0000000E+00;  0.0000000E+00;  1.0000000E+04;  0.0000000E+00;  1.0000000E+04;-3.9621911e-05;0.0;-8.6642058e-06;0.08843796
 -1.2000000E-01;  9.9999998E-03;  3.6000001E-01;241;0.0;0.0;0.0;1000.0;  4.0000001E-01;0.0;0;0.0;0.0;0.0;0;-1.6148455e-05;  1.0000000E+04;  0.0000000E+00;  0.0000000E+00;  1.0000000E+04;  0.0000000E+00;  1.0000000E+04;-1.2200117e-05;0.0;-3.9483375e-06;0.040652081
 -1.2000000E-01;  9.9999998E-03;  3.8000000E-01;242;0.0;0.0;0.0;1000.0;  4.0000001E-01;0.0;0;0.0;0.0;0.0;0;-2.3931179e-06;  1.0000000E+04;  0.0000000E+00;  0.0000000E+00;  1.0000000E+04;  0.0000000E+00;  1.0000000E+04;-1.6933062e-06;0.0;-6.9981172e-07;0.0072433506
 -1.2000000E-01;  9.9999998E-03;  4.0000001E-01;243;0.0;0.0;0.0;1000.0;  4.0000001E-01;0.0;0;0.0;0.0;0.0;0;-3.5965601e-19;  1.0000000E+04;  0.0000000E+00;  0.0000000E+00;  1.0000000E+04;  0.0000000E+00;  1.0000000E+04;-2.5332923e-19;0.0;-1.0632678e-19;2.4728357e-16
 -1.0000000E-01;  9.9999998E-03;  3.4000000E-01;281;0.0;0.0;0.0;1000.0002;  4.0000001E-01;0.19752525;0;0.0;0.0;0.0;0;-0.00021947577;  1.0000000E+04;  0.0000000E+00;  0.0000000E+00;  1.0000000E+04;  0.0000000E+00;  1.0000000E+04;-0.00017542239;0.0;-4.4053373e-05;0.45248175
 -1.0000000E-01;  9.9999998E-03;  3.6000001E-01;282;0.0;0.0;0.0;1000.0;  4.0000001E-01;0.0;0;0.0;0.0;0.0;0;-0.00010043438;  1.0000000E+04;  0.0000000E+00;  0.0000000E+00;  1.0000000E+04;  0.0000000E+00;  1.0000000E+04;-7.3026749e-05;0.0;-2.740763e-05;0.28447688
 -1.0000000E-01;  9.9999998E-03;  3.8000000E-01;283;0.0;0.0;0.0;1000.0;  4.0000001E-01;0.0;0;0.0;0.0;0.0;0;-3.1904518e-05;  1.0000000E+04;  0.0000000E+00;  0.0000000E+00;  1.0000000E+04;  0.0000000E+00;  1.0000000E+04;-2.1413043e-05;0.0;-1.0491475e-05;0.1092856
 -1.0000000E-01;  9.9999998E-03;  4.0000001E-01;284;0.0;0.0;0.0;1000.0;  4.0000001E-01;0.0;0;0.0;0.0;0.0;0;-4.3885361e-06;  1.0000000E+04;  0.0000000E+00;  0.0000000E+00;  1.0000000E+04;  0.0000000E+00;  1.0000000E+04;-2.9088023e-06;0.0;-1.4797338e-06;0.015425052
 -7.9999998E-02;  9.9999998E-03;  3.4000000E-01;322;0.0;0.0;0.0;1000.0008;  4.0000001E-01;0.69133836;0;0.0;0.0;0.0;0;-0.00063853507;  1.0000000E+04;  0.0000000E+00;  0.0000000E+00;  1.0000000E+04;  0.0000000E+00;  1.0000000E+04;-0.00049844012;0.0;-0.00014009497;1.452381
 -7.9999998E-02;  9.9999998E-03;  3.6000001E-01;323;0.0;0.0;0.0;1000.0003;  4.0000001E-01;0.29628786;0;0.0;0.0;0.0;0;-0.00033678906;  1.0000000E+04;  0.0000000E+00;  0.0000000E+00;  1.0000000E+04;  0.0000000E+00;  1.0000000E+04;-0.00023674153;0.0;-0.00010004752;1.0466584
 -7.9999998E-02;  9.9999998E-03;  3.8000000E-01;324;0.0;0.0;0.0;1000.0001;  4.0000001E-01;0.098762624;0;0.0;0.0;0.0;0;-0.00014018374;  1.0000000E+04;  0.0000000E+00;  0.0000000E+00;  1.0000000E+04;  0.0000000E+00;  1.0000000E+04;-8.9986963e-05;0.0;-5.019677e-05;0.52689093
 -7.9999998E-02;  9.9999998E-03;  4.0000001E-01;325;0.0;0.0;0.0;1000.0;  4.0000001E-01;0.0;0;0.0;0.0;0.0;0;-3.6940699e-05;  1.0000000E+04;  0.0000000E+00;  0.0000000E+00;  1.0000000E+04;  0.0000000E+00;  1.0000000E+04;-2.3149194e-05;0.0;-1.3791504e-05;0.14465784
 -5.9999999E-02;  9.9999998E-03;  3.4000000E-01;363;0.0;0.0;0.0;1000.0017;  4.0000001E-01;1.3826767;0;0.0;0.0;0.0;0;-0.0014164073;  1.0000000E+04;  0.0000000E+00;  0.0000000E+00;  1.0000000E+04;  0.0000000E+00;  1.0000000E+04;-0.0010791172;0.0;-0.00033729011;3.5354185
 -5.9999999E-02;  9.9999998E-03;  3.6000001E-01;364;0.0;0.0;0.0;1000.001;  4.0000001E-01;0.79010099;0;0.0;0.0;0.0;0;-0.00080773991;  1.0000000E+04;  0.0000000E+00;  0.0000000E+00;  1.0000000E+04;  0.0000000E+00;  1.0000000E+04;-0.00054884009;0.0;-0.00025889979;2.7349992
 -5.9999999E-02;  9.9999998E-03;  3.8000000E-01;365;0.0;0.0;0.0;1000.0004;  4.0000001E-01;0.3950505;0;0.0;0.0;0.0;0;-0.0003843795;  1.0000000E+04;  0.0000000E+00;  0.0000000E+00;  1.0000000E+04;  0.0000000E+00;  1.0000000E+04;-0.00023618601;0.0;-0.00014819349;1.5693641
 -5.9999999E-02;  9.9999998E-03;  4.0000001E-01;366;0.0;0.0;0.0;1000.0001;  4.0000001E-01;0.098762624;0;0.0;0.0;0.0;0;-0.00013159928;  1.0000000E+04;  0.0000000E+00;  0.0000000E+00;  1.0000000E+04;  0.0000000E+00;  1.0000000E+04;-7.8329824e-05;0.0;-5.3269458e-05;0.5632593
 -3.9999999E-02;  9.9999998E-03;  3.4000000E-01;404;0.0;0.0;0.0;1000.0032;  4.0000001E-01;2.6665909;0;0.0;0.0;0.0;0;-0.0025921531;  1.0000000E+04;  0.0000000E+00;  0.0000000E+00;  1.0000000E+04;  0.0000000E+00;  1.0000000E+04;-0.0019217388;0.0;-0.00067041424;7.1161771
 -3.9999999E-02;  9.9999998E-03;  3.6000001E-01;405;0.0;0.0;0.0;1000.002;  4.0000001E-01;1.580202;0;0.0;0.0;0.0;0;-0.0015503147;  1.0000000E+04;  0.0000000E+00;  0.0000000E+00;  1.0000000E+04;  0.0000000E+00;  1.0000000E+04;-0.0010147387;0.0;-0.00053557608;5.7231941
 -3.9999999E-02;  9.9999998E-03;  3.8000000E-01;406;0.0;0.0;0.0;1000.0009;  4.0000001E-01;0.69133836;0;0.0;0.0;0.0;0;-0.0007958932;  1.0000000E+04;  0.0000000E+00;  0.0000000E+00;  1.0000000E+04;  0.0000000E+00;  1.0000000E+04;-0.00046641749;0.0;-0.0003294757;3.5266185
 -3.9999999E-02;  9.9999998E-03;  4.0000001E-01;407;0.0;0.0;0.0;1000.0003;  4.0000001E-01;0.29628786;0;0.0;0.0;0.0;0;-0.0003111402;  1.0000000E+04;  0.0000000E+00;  0.0000000E+00;  1.0000000E+04;  0.0000000E+00;  1.0000000E+04;-0.00017526853;0.0;-0.00013587167;1.451019
 -2.0000000E-02;  9.9999998E-03;  3.4000000E-01;445;0.0;0.0;0.0;1000.0051;  4.0000001E-01;4.2467928;0;0.0;0.0;0.0;0;-0.0041025542;  1.0000000E+04;  0.0000000E+00;  0.0000000E+00;  1.0000000E+04;  0.0000000E+00;  1.0000000E+04;-0.0029515766;0.0;-0.0011509773;12.398315
 -2.0000000E-02;  9.9999998E-03;  3.6000001E-01;446;0.0;0.0;0.0;1000.0031;  4.0000001E-01;2.5678282;0;0.0;0.0;0.0;0;-0.0025303282;  1.0000000E+04;  0.0000000E+00;  0.0000000E+00;  1.0000000E+04;  0.0000000E+00;  1.0000000E+04;-0.0015902072;0.0;-0.00094012095;10.185719
 -2.0000000E-02;  9.9999998E-03;  3.8000000E-01;447;0.0;0.0;0.0;1000.0017;  4.0000001E-01;1.3826767;0;0.0;0.0;0.0;0;-0.001359544;  1.0000000E+04;  0.0000000E+00;  0.0000000E+00;  1.0000000E+04;  0.0000000E+00;  1.0000000E+04;-0.00075684121;0.0;-0.00060270273;6.5360942
 -2.0000000E-02;  9.9999998E-03;  4.0000001E-01;448;0.0;0.0;0.0;1000.0006;  4.0000001E-01;0.49381313;0;0.0;0.0;0.0;0;-0.00057166733;  1.0000000E+04;  0.0000000E+00;  0.0000000E+00;  1.0000000E+04;  0.0000000E+00;  1.0000000E+04;-0.00030314774;0.0;-0.00026851962;2.9033048
  0.0000000E+00;  9.9999998E-03;  3.4000000E-01;457;0.0;0.0;0.0;1000.0073;  4.0000001E-01;6.0245199;0;0.0;0.0;0.0;0;-0.0057909656;  1.0000000E+04;  0.0000000E+00;  0.0000000E+00;  1.0000000E+04;  0.0000000E+00;  1.0000000E+04;-0.0040406417;0.0;-0.001750324;19.190935
  0.0000000E+00;  9.9999998E-03;  3.6000001E-01;458;0.0;0.0;0.0;1000.0046;  4.0000001E-01;3.7529798;0;0.0;0.0;0.0;0;-0.0036483174;  1.0000000E+04;  0.0000000E+00;  0.0000000E+00;  1.0000000E+04;  0.0000000E+00;  1.0000000E+04;-0.0022003148;0.0;-0.0014480026;15.955819
  0.0000000E+00;  9.9999998E-03;  3.8000000E-01;459;0.0;0.0;0.0;1000.0025;  4.0000001E-01;2.0740151;0;0.0;0.0;0.0;0;-0.0020163527;  1.0000000E+04;  0.0000000E+00;  0.0000000E+00;  1.0000000E+04;  0.0000000E+00;  1.0000000E+04;-0.001065174;0.0;-0.00095117878;10.48428
  0.0000000E+00;  9.9999998E-03;  4.0000001E-01;460;0.0;0.0;0.0;1000.0011;  4.0000001E-01;0.88886362;0;0.0;0.0;0.0;0;-0.00088274665;  1.0000000E+04;  0.0000000E+00;  0.0000000E+00;  1.0000000E+04;  0.0000000E+00;  1.0000000E+04;-0.00043940902;0.0;-0.0004433376;4.8687029
  2.0000000E-02;  9.9999998E-03;  3.4000000E-01;467;0.0;0.0;0.0;1000.0096;  4.0000001E-01;7.90101;0;0.0;0.0;0.0;0;-0.0074811475;  1.0000000E+04;  0.0000000E+00;  0.0000000E+00;  1.0000000E+04;  0.0000000E+00;  1.0000000E+04;-0.0050847195;0.0;-0.0023964283;26.855268
  2.0000000E-02;  9.9999998E-03;  3.6000001E-01;468;0.0;0.0;0.0;1000.006;  4.0000001E-01;5.0368938;0;0.0;0.0;0.0;0;-0.0047868015;  1.0000000E+04;  0.0000000E+00;  0.0000000E+00;  1.0000000E+04;  0.0000000E+00;  1.0000000E+04;-0.0027852424;0.0;-0.0020015589;22.525801
  2.0000000E-02;  9.9999998E-03;  3.8000000E-01;469;0.0;0.0;0.0;1000.0034;  4.0000001E-01;2.8641162;0;0.0;0.0;0.0;0;-0.0026926037;  1.0000000E+04;  0.0000000E+00;  0.0000000E+00;  1.0000000E+04;  0.0000000E+00;  1.0000000E+04;-0.0013570773;0.0;-0.0013355265;15.024758
  2.0000000E-02;  9.9999998E-03;  4.0000001E-01;470;0.0;0.0;0.0;1000.0015;  4.0000001E-01;1.1851515;0;0.0;0.0;0.0;0;-0.0012039247;  1.0000000E+04;  0.0000000E+00;  0.0000000E+00;  1.0000000E+04;  0.0000000E+00;  1.0000000E+04;-0.0005646412;0.0;-0.00063928345;7.1605849
  3.9999999E-02;  9.9999998E-03;  3.4000000E-01;477;0.0;0.0;0.0;1000.0119;  4.0000001E-01;9.8762627;0;0.0;0.0;0.0;0;-0.0090951016;  1.0000000E+04;  0.0000000E+00;  0.0000000E+00;  1.0000000E+04;  0.0000000E+00;  1.0000000E+04;-0.0060905819;0.0;-0.0030045197;34.602215
  3.9999999E-02;  9.9999998E-03;  3.6000001E-01;478;0.0;0.0;0.0;1000.0077;  4.0000001E-01;6.4195704;0;0.0;0.0;0.0;0;-0.0058802241;  1.0000000E+04;  0.0000000E+00;  0.0000000E+00;  1.0000000E+04;  0.0000000E+00;  1.0000000E+04;-0.0033454124;0.0;-0.0025348116;29.291229
  3.9999999E-02;  9.9999998E-03;  3.8000000E-01;479;0.0;0.0;0.0;1000.0043;  4.0000001E-01;3.5554545;0;0.0;0.0;0.0;0;-0.0033415207;  1.0000000E+04;  0.0000000E+00;  0.0000000E+00;  1.0000000E+04;  0.0000000E+00;  1.0000000E+04;-0.0016305617;0.0;-0.001710959;19.748833
  3.9999999E-02;  9.9999998E-03;  4.0000001E-01;480;0.0;0.0;0.0;1000.002;  4.0000001E-01;1.580202;0;0.0;0.0;0.0;0;-0.0015080883;  1.0000000E+04;  0.0000000E+00;  0.0000000E+00;  1.0000000E+04;  0.0000000E+00;  1.0000000E+04;-0.00067616213;0.0;-0.00083192613;9.5535946
  5.9999999E-02;  9.9999998E-03;  3.4000000E-01;487;0.0;0.0;0.0;1000.0144;  4.0000001E-01;11.950277;0;0.0;0.0;0.0;0;-0.010709647;  1.0000000E+04;  0.0000000E+00;  0.0000000E+00;  1.0000000E+04;  0.0000000E+00;  1.0000000E+04;-0.0071808016;0.0;-0.0035288455;42.031212
  5.9999999E-02;  9.9999998E-03;  3.6000001E-01;488;0.0;0.0;0.0;1000.0093;  4.0000001E-01;7.7034845;0;0.0;0.0;0.0;0;-0.0069595147;  1.0000000E+04;  0.0000000E+00;  0.0000000E+00;  1.0000000E+04;  0.0000000E+00;  1.0000000E+04;-0.0039514476;0.0;-0.0030080669;35.911953
  5.9999999E-02;  9.9999998E-03;  3.8000000E-01;489;0.0;0.0;0.0;1000.0053;  4.0000001E-01;4.4443183;0;0.0;0.0;0.0;0;-0.0039732167;  1.0000000E+04;  0.0000000E+00;  0.0000000E+00;  1.0000000E+04;  0.0000000E+00;  1.0000000E+04;-0.0019240135;0.0;-0.0020492033;24.413132
  5.9999999E-02;  9.9999998E-03;  4.0000001E-01;490;0.0;0.0;0.0;1000.0024;  4.0000001E-01;1.9752525;0;0.0;0.0;0.0;0;-0.0017983826;  1.0000000E+04;  0.0000000E+00;  0.0000000E+00;  1.0000000E+04;  0.0000000E+00;  1.0000000E+04;-0.00079273258;0.0;-0.00100565;11.909206
  7.9999998E-02;  9.9999998E-03;  3.4000000E-01;497;0.0;0.0;0.0;1000.0173;  4.0000001E-01;14.32058;0;0.0;0.0;0.0;0;-0.012573313;  1.0000000E+04;  0.0000000E+00;  0.0000000E+00;  1.0000000E+04;  0.0000000E+00;  1.0000000E+04;-0.0085925702;0.0;-0.0039807432;49.478935
  7.9999998E-02;  9.9999998E-03;  3.6000001E-01;498;0.0;0.0;0.0;1000.0113;  4.0000001E-01;9.3824492;0;0.0;0.0;0.0;0;-0.0081780208;  1.0000000E+04;  0.0000000E+00;  0.0000000E+00;  1.0000000E+04;  0.0000000E+00;  1.0000000E+04;-0.0047529927;0.0;-0.0034250279;42.58131
  7.9999998E-02;  9.9999998E-03;  3.8000000E-01;499;0.0;0.0;0.0;1000.0064;  4.0000001E-01;5.3331819;0;0.0;0.0;0.0;0;-0.0046692407;  1.0000000E+04;  0.0000000E+00;  0.0000000E+00;  1.0000000E+04;  0.0000000E+00;  1.0000000E+04;-0.0023192707;0.0;-0.0023499699;29.072752
  7.9999998E-02;  9.9999998E-03;  4.0000001E-01;500;0.0;0.0;0.0;1000.0029;  4.0000001E-01;2.3703029;0;0.0;0.0;0.0;0;-0.002113062;  1.0000000E+04;  0.0000000E+00;  0.0000000E+00;  1.0000000E+04;  0.0000000E+00;  1.0000000E+04;-0.00095295196;0.0;-0.00116011;14.258534
  1.0000000E-01;  9.9999998E-03;  3.4000000E-01;507;0.0;0.0;0.0;1000.0214;  4.0000001E-01;17.777273;0;0.0;0.0;0.0;0;-0.015112376;  1.0000000E+04;  0.0000000E+00;  0.0000000E+00;  1.0000000E+04;  0.0000000E+00;  1.0000000E+04;-0.010685546;0.0;-0.00442683;60.567417
  1.0000000E-01;  9.9999998E-03;  3.6000001E-01;508;0.0;0.0;0.0;1000.014;  4.0000001E-01;11.555227;0;0.0;0.0;0.0;0;-0.0098170089;  1.0000000E+04;  0.0000000E+00;  0.0000000E+00;  1.0000000E+04;  0.0000000E+00;  1.0000000E+04;-0.0059815207;0.0;-0.0038354881;50.518398
  1.0000000E-01;  9.9999998E-03;  3.8000000E-01;509;0.0;0.0;0.0;1000.0079;  4.0000001E-01;6.6170959;0;0.0;0.0;0.0;0;-0.0055881022;  1.0000000E+04;  0.0000000E+00;  0.0000000E+00;  1.0000000E+04;  0.0000000E+00;  1.0000000E+04;-0.0029444415;0.0;-0.0026436604;34.15089
  1.0000000E-01;  9.9999998E-03;  4.0000001E-01;510;0.0;0.0;0.0;1000.0037;  4.0000001E-01;3.0616415;0;0.0;0.0;0.0;0;-0.0025270078;  1.0000000E+04;  0.0000000E+00;  0.0000000E+00;  1.0000000E+04;  0.0000000E+00;  1.0000000E+04;-0.0012163634;0.0;-0.0013106443;17.535994
  1.2000000E-01;  9.9999998E-03;  3.4000000E-01;517;0.0;0.0;0.0;1000.0277;  4.0000001E-01;22.91293;0;0.0;0.0;0.0;0;-0.018932465;  1.0000000E+04;  0.0000000E+00;  0.0000000E+00;  1.0000000E+04;  0.0000000E+00;  1.0000000E+04;-0.013930779;0.0;-0.0050016865;95.613106
  1.2000000E-01;  9.9999998E-03;  3.6000001E-01;518;0.0;0.0;0.0;1000.0179;  4.0000001E-01;14.913157;0;0.0;0.0;0.0;0;-0.01230052;  1.0000000E+04;  0.0000000E+00;  0.0000000E+00;  1.0000000E+04;  0.0000000E+00;  1.0000000E+04;-0.0079503814;0.0;-0.0043501388;63.052467
  1.2000000E-01;  9.9999998E-03;  3.8000000E-01;519;0.0;0.0;0.0;1000.0103;  4.0000001E-01;8.4935856;0;0.0;0.0;0.0;0;-0.0069816844;  1.0000000E+04;  0.0000000E+00;  0.0000000E+00;  1.0000000E+04;  0.0000000E+00;  1.0000000E+04;-0.0039784289;0.0;-0.0030032555;43.556099
  1.2000000E-01;  9.9999998E-03;  4.0000001E-01;520;0.0;0.0;0.0;1000.0047;  4.0000001E-01;3.8517423;0;0.0;0.0;0.0;0;-0.0031615118;  1.0000000E+04;  0.0000000E+00;  0.0000000E+00;  1.0000000E+04;  0.0000000E+00;  1.0000000E+04;-0.0016690613;0.0;-0.0014924505;31.66069
  1.4000000E-01;  9.9999998E-03;  3.4000000E-01;527;0.0;0.0;0.0;1000.0374;  4.0000001E-01;30.912701;0;0.0;0.0;0.0;0;-0.024839716;  1.0000000E+04;  0.0000000E+00;  0.0000000E+00;  1.0000000E+04;  0.0000000E+00;  1.0000000E+04;-0.018901255;0.0;-0.0059384615;203.73624
  1.4000000E-01;  9.9999998E-03;  3.6000001E-01;528;0.0;0.0;0.0;1000.0245;  4.0000001E-01;20.3451;0;0.0;0.0;0.0;0;-0.016233342;  1.0000000E+04;  0.0000000E+00;  0.0000000E+00;  1.0000000E+04;  0.0000000E+00;  1.0000000E+04;-0.011060813;0.0;-0.0051725293;85.727539
  1.4000000E-01;  9.9999998E-03;  3.8000000E-01;529;0.0;0.0;0.0;1000.014;  4.0000001E-01;11.65399;0;0.0;0.0;0.0;0;-0.0092467349;  1.0000000E+04;  0.0000000E+00;  0.0000000E+00;  1.0000000E+04;  0.0000000E+00;  1.0000000E+04;-0.0056673158;0.0;-0.0035794186;83.94104
  1.4000000E-01;  9.9999998E-03;  4.0000001E-01;530;0.0;0.0;0.0;1000.0063;  4.0000001E-01;5.2344189;0;0.0;0.0;0.0;0;-0.004231012;  1.0000000E+04;  0.0000000E+00;  0.0000000E+00;  1.0000000E+04;  0.0000000E+00;  1.0000000E+04;-0.0024409925;0.0;-0.0017900196;90.334808
  1.6000000E-01;  9.9999998E-03;  3.4000000E-01;537;0.0;0.0;0.0;1000.0517;  4.0000001E-01;42.86298;0;0.0;0.0;0.0;0;-0.033654474;  1.0000000E+04;  0.0000000E+00;  0.0000000E+00;  1.0000000E+04;  0.0000000E+00;  1.0000000E+04;-0.02603576;0.0;-0.0076187146;443.83627
  1.6000000E-01;  9.9999998E-03;  3.6000001E-01;538;0.0;0.0;0.0;1000.0344;  4.0000001E-01;28.443636;0;0.0;0.0;0.0;0;-0.022275811;  1.0000000E+04;  0.0000000E+00;  0.0000000E+00;  1.0000000E+04;  0.0000000E+00;  1.0000000E+04;-0.015631963;0.0;-0.006643848;120.51926
  1.6000000E-01;  9.9999998E-03;  3.8000000E-01;539;0.0;0.0;0.0;1000.02;  4.0000001E-01;16.592121;0;0.0;0.0;0.0;0;-0.012905139;  1.0000000E+04;  0.0000000E+00;  0.0000000E+00;  1.0000000E+04;  0.0000000E+00;  1.0000000E+04;-0.0082483599;0.0;-0.0046567791;218.42911
  1.6000000E-01;  9.9999998E-03;  4.0000001E-01;540;0.0;0.0;0.0;1000.0094;  4.0000001E-01;7.8022475;0;0.0;0.0;0.0;0;-0.0061047897;  1.0000000E+04;  0.0000000E+00;  0.0000000E+00;  1.0000000E+04;  0.0000000E+00;  1.0000000E+04;-0.0037032696;0.0;-0.00240152;257.76111
  1.8000001E-01;  9.9999998E-03;  3.4000000E-01;547;0.0;0.0;0.0;1000.0718;  4.0000001E-01;59.553864;0;0.0;0.0;0.0;0;-0.045573354;  1.0000000E+04;  0.0000000E+00;  0.0000000E+00;  1.0000000E+04;  0.0000000E+00;  1.0000000E+04;-0.034938946;0.0;-0.010634406;843.20203
  1.8000001E-01;  9.9999998E-03;  3.6000001E-01;548;0.0;0.0;0.0;1000.0485;  4.0000001E-01;40.196388;0;0.0;0.0;0.0;0;-0.030655172;  1.0000000E+04;  0.0000000E+00;  0.0000000E+00;  1.0000000E+04;  0.0000000E+00;  1.0000000E+04;-0.02135691;0.0;-0.0092982603;157.72137
  1.8000001E-01;  9.9999998E-03;  3.8000000E-01;549;0.0;0.0;0.0;1000.0291;  4.0000001E-01;24.09808;0;0.0;0.0;0.0;0;-0.018363191;  1.0000000E+04;  0.0000000E+00;  0.0000000E+00;  1.0000000E+04;  0.0000000E+00;  1.0000000E+04;-0.01162578;0.0;-0.0067374106;521.89362
  1.8000001E-01;  9.9999998E-03;  4.0000001E-01;550;0.0;0.0;0.0;1000.0146;  4.0000001E-01;12.147802;0;0.0;0.0;0.0;0;-0.0093149012;  1.0000000E+04;  0.0000000E+00;  0.0000000E+00;  1.0000000E+04;  0.0000000E+00;  1.0000000E+04;-0.0055530155;0.0;-0.0037618855;639.89496
  2.0000000E-01;  9.9999998E-03;  3.4000000E-01;556;0.0;0.0;0.0;1000.0968;  4.0000001E-01;80.195251;0;0.0;0.0;0.0;0;-0.059905931;  1.0000000E+04;  0.0000000E+00;  0.0000000E+00;  1.0000000E+04;  0.0000000E+00;  1.0000000E+04;-0.044117518;0.0;-0.015788412;1311.2365
  2.0000000E-01;  9.9999998E-03;  3.6000001E-01;557;0.0;0.0;0.0;1000.0665;  4.0000001E-01;55.109543;0;0.0;0.0;0.0;0;-0.041080154;  1.0000000E+04;  0.0000000E+00;  0.0000000E+00;  1.0000000E+04;  0.0000000E+00;  1.0000000E+04;-0.027194906;0.0;-0.013885249;213.19177
  2.0000000E-01;  9.9999998E-03;  3.8000000E-01;558;0.0;0.0;0.0;1000.0421;  4.0000001E-01;34.863205;0;0.0;0.0;0.0;0;-0.025834586;  1.0000000E+04;  0.0000000E+00;  0.0000000E+00;  1.0000000E+04;  0.0000000E+00;  1.0000000E+04;-0.015230292;0.0;-0.010604295;1020.3676
  1.9200000E+00;  9.9999998E-03; -3.6000001E-01;559;0.0;0.0;0.0;1000.0;  4.0000001E-01;0.0;0;0.0;0.0;0.0;0;0.0;  1.0000000E+04;  0.0000000E+00;  0.0000000E+00;  1.0000000E+04;  0.0000000E+00;  1.0000000E+04;0.0;0.0;0.0;0.0
  1.9200000E+00;  9.9999998E-03; -3.4000000E-01;560;0.0;0.0;0.0;1000.0;  4.0000001E-01;0.0;0;0.0;0.0;0.0;0;0.0;  1.0000000E+04;  0.0000000E+00;  0.0000000E+00;  1.0000000E+04;  0.0000000E+00;  1.0000000E+04;0.0;0.0;0.0;0.0
  1.9200000E+00;  9.9999998E-03; -3.1999999E-01;561;0.0;0.0;0.0;1000.0;  4.0000001E-01;0.0;0;0.0;0.0;0.0;0;0.0;  1.0000000E+04;  0.0000000E+00;  0.0000000E+00;  1.0000000E+04;  0.0000000E+00;  1.0000000E+04;0.0;0.0;0.0;0.0
  1.9400001E+00;  9.9999998E-03; -3.8000000E-01;562;0.0;0.0;0.0;1000.0;  4.0000001E-01;0.0;0;0.0;0.0;0.0;0;0.0;  1.0000000E+04;  0.0000000E+00;  0.0000000E+00;  1.0000000E+04;  0.0000000E+00;  1.0000000E+04;0.0;0.0;0.0;0.0
  1.9400001E+00;  9.9999998E-03; -3.6000001E-01;563;0.0;0.0;0.0;1000.0;  4.0000001E-01;0.0;0;0.0;0.0;0.0;0;0.0;  1.0000000E+04;  0.0000000E+00;  0.0000000E+00;  1.0000000E+04;  0.0000000E+00;  1.0000000E+04;0.0;0.0;0.0;0.0
  1.9400001E+00;  9.9999998E-03; -3.4000000E-01;564;0.0;0.0;0.0;1000.0;  4.0000001E-01;0.0;0;0.0;0.0;0.0;0;0.0;  1.0000000E+04;  0.0000000E+00;  0.0000000E+00;  1.0000000E+04;  0.0000000E+00;  1.0000000E+04;0.0;0.0;0.0;0.0
  1.9400001E+00;  9.9999998E-03; -3.1999999E-01;565;0.0;0.0;0.0;1000.0;  4.0000001E-01;0.0;0;0.0;0.0;0.0;0;0.0;  1.0000000E+04;  0.0000000E+00;  0.0000000E+00;  1.0000000E+04;  0.0000000E+00;  1.0000000E+04;0.0;0.0;0.0;0.0
  1.9400001E+00;  9.9999998E-03; -3.0000001E-01;566;0.0;0.0;0.0;1000.0;  4.0000001E-01;0.0;0;0.0;0.0;0.0;0;0.0;  1.0000000E+04;  0.0000000E+00;  0.0000000E+00;  1.0000000E+04;  0.0000000E+00;  1.0000000E+04;0.0;0.0;0.0;0.0
  1.9400001E+00;  9.9999998E-03; -2.8000000E-01;567;0.0;0.0;0.0;1000.0;  4.0000001E-01;0.0;0;0.0;0.0;0.0;0;0.0;  1.0000000E+04;  0.0000000E+00;  0.0000000E+00;  1.0000000E+04;  0.0000000E+00;  1.0000000E+04;0.0;0.0;0.0;0.0
  1.9400001E+00;  9.9999998E-03; -2.5999999E-01;568;0.0;0.0;0.0;1000.0;  4.0000001E-01;0.0;0;0.0;0.0;0.0;0;0.0;  1.0000000E+04;  0.0000000E+00;  0.0000000E+00;  1.0000000E+04;  0.0000000E+00;  1.0000000E+04;0.0;0.0;0.0;0.0
  1.9400001E+00;  9.9999998E-03; -2.3999999E-01;569;0.0;0.0;0.0;1000.0;  4.0000001E-01;0.0;0;0.0;0.0;0.0;0;0.0;  1.0000000E+04;  0.0000000E+00;  0.0000000E+00;  1.0000000E+04;  0.0000000E+00;  1.0000000E+04;0.0;0.0;0.0;0.0
  1.9400001E+00;  9.9999998E-03; -2.2000000E-01;570;0.0;0.0;0.0;1000.0;  4.0000001E-01;0.0;0;0.0;0.0;0.0;0;0.0;  1.0000000E+04;  0.0000000E+00;  0.0000000E+00;  1.0000000E+04;  0.0000000E+00;  1.0000000E+04;0.0;0.0;0.0;0.0
  1.9600000E+00;  9.9999998E-03; -3.8000000E-01;571;0.0;0.0;0.0;1000.0;  4.0000001E-01;0.0;0;0.0;0.0;0.0;0;0.0;  1.0000000E+04;  0.0000000E+00;  0.0000000E+00;  1.0000000E+04;  0.0000000E+00;  1.0000000E+04;0.0;0.0;0.0;0.0
  1.9600000E+00;  9.9999998E-03; -3.6000001E-01;572;0.0;0.0;0.0;1000.0;  4.0000001E-01;0.0;0;0.0;0.0;0.0;0;0.0;  1.0000000E+04;  0.0000000E+00;  0.0000000E+00;  1.0000000E+04;  0.0000000E+00;  1.0000000E+04;0.0;0.0;0.0;0.0
  1.9600000E+00;  9.9999998E-03; -3.4000000E-01;573;0.0;0.0;0.0;1000.0;  4.0000001E-01;0.0;0;0.0;0.0;0.0;0;0.0;  1.0000000E+04;  0.0000000E+00;  0.0000000E+00;  1.0000000E+04;  0.0000000E+00;  1.0000000E+04;0.0;0.0;0.0;0.0
  1.9600000E+00;  9.9999998E-03; -3.1999999E-01;574;0.0;0.0;0.0;1000.0;  4.0000001E-01;0.0;0;0.0;0.0;0.0;0;0.0;  1.0000000E+04;  0.0000000E+00;  0.0000000E+00;  1.0000000E+04;  0.0000000E+00;  1.0000000E+04;0.0;0.0;0.0;0.0
  1.9600000E+00;  9.9999998E-03; -3.0000001E-01;575;0.0;0.0;0.0;1000.0;  4.0000001E-01;0.0;0;0.0;0.0;0.0;0;0.0;  1.0000000E+04;  0.0000000E+00;  0.0000000E+00;  1.0000000E+04;  0.0000000E+00;  1.0000000E+04;0.0;0.0;0.0;0.0
  1.9600000E+00;  9.9999998E-03; -2.8000000E-01;576;0.0;0.0;0.0;1000.0;  4.0000001E-01;0.0;0;0.0;0.0;0.0;0;0.0;  1.0000000E+04;  0.0000000E+00;  0.0000000E+00;  1.0000000E+04;  0.0000000E+00;  1.0000000E+04;0.0;0.0;0.0;0.0
  1.9600000E+00;  9.9999998E-03; -2.5999999E-01;577;0.0;0.0;0.0;1000.0;  4.0000001E-01;0.0;0;0.0;0.0;0.0;0;0.0;  1.0000000E+04;  0.0000000E+00;  0.0000000E+00;  1.0000000E+04;  0.0000000E+00;  1.0000000E+04;0.0;0.0;0.0;0.0
  1.9600000E+00;  9.9999998E-03; -2.3999999E-01;578;0.0;0.0;0.0;1000.0;  4.0000001E-01;0.0;0;0.0;0.0;0.0;0;0.0;  1.0000000E+04;  0.0000000E+00;  0.0000000E+00;  1.0000000E+04;  0.0000000E+00;  1.0000000E+04;0.0;0.0;0.0;0.0
  1.9600000E+00;  9.9999998E-03; -2.2000000E-01;579;0.0;0.0;0.0;1000.0;  4.0000001E-01;0.0;0;0.0;0.0;0.0;0;0.0;  1.0000000E+04;  0.0000000E+00;  0.0000000E+00;  1.0000000E+04;  0.0000000E+00;  1.0000000E+04;0.0;0.0;0.0;0.0
  1.9600000E+00;  9.9999998E-03; -2.0000000E-01;580;0.0;0.0;0.0;1000.0;  4.0000001E-01;0.0;0;0.0;0.0;0.0;0;0.0;  1.0000000E+04;  0.0000000E+00;  0.0000000E+00;  1.0000000E+04;  0.0000000E+00;  1.0000000E+04;0.0;0.0;0.0;0.0
  1.9600000E+00;  9.9999998E-03; -1.8000001E-01;581;0.0;0.0;0.0;1000.0;  4.0000001E-01;0.0;0;0.0;0.0;0.0;0;0.0;  1.0000000E+04;  0.0000000E+00;  0.0000000E+00;  1.0000000E+04;  0.0000000E+00;  1.0000000E+04;0.0;0.0;0.0;0.0
  1.9600000E+00;  9.9999998E-03; -1.6000000E-01;582;0.0;0.0;0.0;1000.0;  4.0000001E-01;0.0;0;0.0;0.0;0.0;0;0.0;  1.0000000E+04;  0.0000000E+00;  0.0000000E+00;  1.0000000E+04;  0.0000000E+00;  1.0000000E+04;0.0;0.0;0.0;0.0
  1.9600000E+00;  9.9999998E-03; -1.4000000E-01;583;0.0;0.0;0.0;1000.0;  4.0000001E-01;0.0;0;0.0;0.0;0.0;0;0.0;  1.0000000E+04;  0.0000000E+00;  0.0000000E+00;  1.0000000E+04;  0.0000000E+00;  1.0000000E+04;0.0;0.0;0.0;0.0
  1.9600000E+00;  9.9999998E-03; -1.2000000E-01;584;0.0;0.0;0.0;1000.0;  4.0000001E-01;0.0;0;0.0;0.0;0.0;0;0.0;  1.0000000E+04;  0.0000000E+00;  0.0000000E+00;  1.0000000E+04;  0.0000000E+00;  1.0000000E+04;0.0;0.0;0.0;0.0
  1.9800000E+00;  9.9999998E-03; -3.8000000E-01;585;0.0;0.0;0.0;1000.0;  4.0000001E-01;0.0;0;0.0;0.0;0.0;0;0.0;  1.0000000E+04;  0.0000000E+00;  0.0000000E+00;  1.0000000E+04;  0.0000000E+00;  1.0000000E+04;0.0;0.0;0.0;0.0
  1.9800000E+00;  9.9999998E-03; -3.6000001E-01;586;0.0;0.0;0.0;1000.0;  4.0000001E-01;0.0;0;0.0;0.0;0.0;0;0.0;  1.0000000E+04;  0.0000000E+00;  0.0000000E+00;  1.0000000E+04;  0.0000000E+00;  1.0000000E+04;0.0;0.0;0.0;0.0
  1.9800000E+00;  9.9999998E-03; -3.4000000E-01;587;0.0;0.0;0.0;1000.0;  4.0000001E-01;0.0;0;0.0;0.0;0.0;0;0.0;  1.0000000E+04;  0.0000000E+00;  0.0000000E+00;  1.0000000E+04;  0.0000000E+00;  1.0000000E+04;0.0;0.0;0.0;0.0
  1.9800000E+00;  9.9999998E-03; -3.1999999E-01;588;0.0;0.0;0.0;1000.0;  4.0000001E-01;0.0;0;0.0;0.0;0.0;0;0.0;  1.0000000E+04;  0.0000000E+00;  0.0000000E+00;  1.0000000E+04;  0.0000000E+00;  1.0000000E+04;0.0;0.0;0.0;0.0
  1.9800000E+00;  9.9999998E-03; -3.0000001E-01;589;0.0;0.0;0.0;1000.0;  4.0000001E-01;0.0;0;0.0;0.0;0.0;0;0.0;  1.0000000E+04;  0.0000000E+00;  0.0000000E+00;  1.0000000E+04;  0.0000000E+00;  1.0000000E+04;0.0;0.0;0.0;0.0
  1.9800000E+00;  9.9999998E-03; -2.8000000E-01;590;0.0;0.0;0.0;1000.0;  4.0000001E-01;0.0;0;0.0;0.0;0.0;0;0.0;  1.0000000E+04;  0.0000000E+00;  0.0000000E+00;  1.0000000E+04;  0.0000000E+00;  1.0000000E+04;0.0;0.0;0.0;0.0
  1.9800000E+00;  9.9999998E-03; -2.5999999E-01;591;0.0;0.0;0.0;1000.0;  4.0000001E-01;0.0;0;0.0;0.0;0.0;0;0.0;  1.0000000E+04;  0.0000000E+00;  0.0000000E+00;  1.0000000E+04;  0.0000000E+00;  1.0000000E+04;0.0;0.0;0.0;0.0
  1.9800000E+00;  9.9999998E-03; -2.3999999E-01;592;0.0;0.0;0.0;1000.0;  4.0000001E-01;0.0;0;0.0;0.0;0.0;0;0.0;  1.0000000E+04;  0.0000000E+00;  0.0000000E+00;  1.0000000E+04;  0.0000000E+00;  1.0000000E+04;0.0;0.0;0.0;0.0
  1.9800000E+00;  9.9999998E-03; -2.2000000E-01;593;0.0;0.0;0.0;1000.0;  4.0000001E-01;0.0;0;0.0;0.0;0.0;0;0.0;  1.0000000E+04;  0.0000000E+00;  0.0000000E+00;  1.0000000E+04;  0.0000000E+00;  1.0000000E+04;0.0;0.0;0.0;0.0
  1.9800000E+00;  9.9999998E-03; -2.0000000E-01;594;0.0;0.0;0.0;1000.0;  4.0000001E-01;0.0;0;0.0;0.0;0.0;0;0.0;  1.0000000E+04;  0.0000000E+00;  0.0000000E+00;  1.0000000E+04;  0.0000000E+00;  1.0000000E+04;0.0;0.0;0.0;0.0
  1.9800000E+00;  9.9999998E-03; -1.8000001E-01;595;0.0;0.0;0.0;1000.0;  4.0000001E-01;0.0;0;0.0;0.0;0.0;0;0.0;  1.0000000E+04;  0.0000000E+00;  0.0000000E+00;  1.0000000E+04;  0.0000000E+00;  1.0000000E+04;0.0;0.0;0.0;0.0
  1.9800000E+00;  9.9999998E-03; -1.6000000E-01;596;0.0;0.0;0.0;1000.0;  4.0000001E-01;0.0;0;0.0;0.0;0.0;0;0.0;  1.0000000E+04;  0.0000000E+00;  0.0000000E+00;  1.0000000E+04;  0.0000000E+00;  1.0000000E+04;0.0;0.0;0.0;0.0
  1.9800000E+00;  9.9999998E-03; -1.4000000E-01;597;0.0;0.0;0.0;1000.0;  4.0000001E-01;0.0;0;0.0;0.0;0.0;0;0.0;  1.0000000E+04;  0.0000000E+00;  0.0000000E+00;  1.0000000E+04;  0.0000000E+00;  1.0000000E+04;0.0;0.0;0.0;0.0
  1.9800000E+00;  9.9999998E-03; -1.2000000E-01;598;0.0;0.0;0.0;1000.0;  4.0000001E-01;0.0;0;0.0;0.0;0.0;0;0.0;  1.0000000E+04;  0.0000000E+00;  0.0000000E+00;  1.0000000E+04;  0.0000000E+00;  1.0000000E+04;0.0;0.0;0.0;0.0
  1.9800000E+00;  9.9999998E-03; -1.0000000E-01;599;0.0;0.0;0.0;1000.0;  4.0000001E-01;0.0;0;0.0;0.0;0.0;0;0.0;  1.0000000E+04;  0.0000000E+00;  0.0000000E+00;  1.0000000E+04;  0.0000000E+00;  1.0000000E+04;0.0;0.0;0.0;0.0
  1.9800000E+00;  9.9999998E-03; -7.9999998E-02;600;0.0;0.0;0.0;1000.0;  4.0000001E-01;0.0;0;0.0;0.0;0.0;0;0.0;  1.0000000E+04;  0.0000000E+00;  0.0000000E+00;  1.0000000E+04;  0.0000000E+00;  1.0000000E+04;0.0;0.0;0.0;0.0
  1.9800000E+00;  9.9999998E-03; -5.9999999E-02;601;0.0;0.0;0.0;1000.0;  4.0000001E-01;0.0;0;0.0;0.0;0.0;0;0.0;  1.0000000E+04;  0.0000000E+00;  0.0000000E+00;  1.0000000E+04;  0.0000000E+00;  1.0000000E+04;0.0;0.0;0.0;0.0
  1.9800000E+00;  9.9999998E-03; -3.9999999E-02;602;0.0;0.0;0.0;1000.0;  4.0000001E-01;0.0;0;0.0;0.0;0.0;0;0.0;  1.0000000E+04;  0.0000000E+00;  0.0000000E+00;  1.0000000E+04;  0.0000000E+00;  1.0000000E+04;0.0;0.0;0.0;0.0
  1.9800000E+00;  9.9999998E-03; -2.0000000E-02;603;0.0;0.0;0.0;1000.0;  4.0000001E-01;0.0;0;0.0;0.0;0.0;0;0.0;  1.0000000E+04;  0.0000000E+00;  0.0000000E+00;  1.0000000E+04;  0.0000000E+00;  1.0000000E+04;0.0;0.0;0.0;0.0
  2.0000000E+00;  9.9999998E-03; -3.8000000E-01;604;0.0;0.0;0.0;1000.0;  4.0000001E-01;0.0;0;0.0;0.0;0.0;0;0.0;  1.0000000E+04;  0.0000000E+00;  0.0000000E+00;  1.0000000E+04;  0.0000000E+00;  1.0000000E+04;0.0;0.0;0.0;0.0
  2.0000000E+00;  9.9999998E-03; -3.6000001E-01;605;0.0;0.0;0.0;1000.0;  4.0000001E-01;0.0;0;0.0;0.0;0.0;0;0.0;  1.0000000E+04;  0.0000000E+00;  0.0000000E+00;  1.0000000E+04;  0.0000000E+00;  1.0000000E+04;0.0;0.0;0.0;0.0
  2.0000000E+00;  9.9999998E-03; -3.4000000E-01;606;0.0;0.0;0.0;1000.0;  4.0000001E-01;0.0;0;0.0;0.0;0.0;0;0.0;  1.0000000E+04;  0.0000000E+00;  0.0000000E+00;  1.0000000E+04;  0.0000000E+00;  1.0000000E+04;0.0;0.0;0.0;0.0
  2.0000000E+00;  9.9999998E-03; -3.1999999E-01;607;0.0;0.0;0.0;1000.0;  4.0000001E-01;0.0;0;0.0;0.0;0.0;0;0.0;  1.0000000E+04;  0.0000000E+00;  0.0000000E+00;  1.0000000E+04;  0.0000000E+00;  1.0000000E+04;0.0;0.0;0.0;0.0
  2.0000000E+00;  9.9999998E-03; -3.0000001E-01;608;0.0;0.0;0.0;1000.0;  4.0000001E-01;0.0;0;0.0;0.0;0.0;0;0.0;  1.0000000E+04;  0.0000000E+00;  0.0000000E+00;  1.0000000E+04;  0.0000000E+00;  1.0000000E+04;0.0;0.0;0.0;0.0
  2.0000000E+00;  9.9999998E-03; -2.8000000E-01;609;0.0;0.0;0.0;1000.0;  4.0000001E-01;0.0;0;0.0;0.0;0.0;0;0.0;  1.0000000E+04;  0.0000000E+00;  0.0000000E+00;  1.0000000E+04;  0.0000000E+00;  1.0000000E+04;0.0;0.0;0.0;0.0
  2.0000000E+00;  9.9999998E-03; -2.5999999E-01;610;0.0;0.0;0.0;1000.0;  4.0000001E-01;0.0;0;0.0;0.0;0.0;0;0.0;  1.0000000E+04;  0.0000000E+00;  0.0000000E+00;  1.0000000E+04;  0.0000000E+00;  1.0000000E+04;0.0;0.0;0.0;0.0
  2.0000000E+00;  9.9999998E-03; -2.3999999E-01;611;0.0;0.0;0.0;1000.0;  4.0000001E-01;0.0;0;0.0;0.0;0.0;0;0.0;  1.0000000E+04;  0.0000000E+00;  0.0000000E+00;  1.0000000E+04;  0.0000000E+00;  1.0000000E+04;0.0;0.0;0.0;0.0
  2.0000000E+00;  9.9999998E-03; -2.2000000E-01;612;0.0;0.0;0.0;1000.0;  4.0000001E-01;0.0;0;0.0;0.0;0.0;0;0.0;  1.0000000E+04;  0.0000000E+00;  0.0000000E+00;  1.0000000E+04;  0.0000000E+00;  1.0000000E+04;0.0;0.0;0.0;0.0
  2.0000000E+00;  9.9999998E-03; -2.0000000E-01;613;0.0;0.0;0.0;1000.0;  4.0000001E-01;0.0;0;0.0;0.0;0.0;0;0.0;  1.0000000E+04;  0.0000000E+00;  0.0000000E+00;  1.0000000E+04;  0.0000000E+00;  1.0000000E+04;0.0;0.0;0.0;0.0
  2.0000000E+00;  9.9999998E-03; -1.8000001E-01;614;0.0;0.0;0.0;1000.0;  4.0000001E-01;0.0;0;0.0;0.0;0.0;0;0.0;  1.0000000E+04;  0.0000000E+00;  0.0000000E+00;  1.0000000E+04;  0.0000000E+00;  1.0000000E+04;0.0;0.0;0.0;0.0
  2.0000000E+00;  9.9999998E-03; -1.6000000E-01;615;0.0;0.0;0.0;1000.0;  4.0000001E-01;0.0;0;0.0;0.0;0.0;0;0.0;  1.0000000E+04;  0.0000000E+00;  0.0000000E+00;  1.0000000E+04;  0.0000000E+00;  1.0000000E+04;0.0;0.0;0.0;0.0
  2.0000000E+00;  9.9999998E-03; -1.4000000E-01;616;0.0;0.0;0.0;1000.0;  4.0000001E-01;0.0;0;0.0;0.0;0.0;0;0.0;  1.0000000E+04;  0.0000000E+00;  0.0000000E+00;  1.0000000E+04;  0.0000000E+00;  1.0000000E+04;0.0;0.0;0.0;0.0
  2.0000000E+00;  9.9999998E-03; -1.2000000E-01;617;0.0;0.0;0.0;1000.0;  4.0000001E-01;0.0;0;0.0;0.0;0.0;0;0.0;  1.0000000E+04;  0.0000000E+00;  0.0000000E+00;  1.0000000E+04;  0.0000000E+00;  1.0000000E+04;0.0;0.0;0.0;0.0
  2.0000000E+00;  9.9999998E-03; -1.0000000E-01;618;0.0;0.0;0.0;1000.0;  4.0000001E-01;0.0;0;0.0;0.0;0.0;0;0.0;  1.0000000E+04;  0.0000000E+00;  0.0000000E+00;  1.0000000E+04;  0.0000000E+00;  1.0000000E+04;0.0;0.0;0.0;0.0
  2.0000000E+00;  9.9999998E-03; -7.9999998E-02;619;0.0;0.0;0.0;1000.0;  4.0000001E-01;0.0;0;0.0;0.0;0.0;0;0.0;  1.0000000E+04;  0.0000000E+00;  0.0000000E+00;  1.0000000E+04;  0.0000000E+00;  1.0000000E+04;0.0;0.0;0.0;0.0
  2.0000000E+00;  9.9999998E-03; -5.9999999E-02;620;0.0;0.0;0.0;1000.0;  4.0000001E-01;0.0;0;0.0;0.0;0.0;0;0.0;  1.0000000E+04;  0.0000000E+00;  0.0000000E+00;  1.0000000E+04;  0.0000000E+00;  1.0000000E+04;0.0;0.0;0.0;0.0
  2.0000000E+00;  9.9999998E-03; -3.9999999E-02;621;0.0;0.0;0.0;1000.0;  4.0000001E-01;0.0;0;0.0;0.0;0.0;0;0.0;  1.0000000E+04;  0.0000000E+00;  0.0000000E+00;  1.0000000E+04;  0.0000000E+00;  1.0000000E+04;0.0;0.0;0.0;0.0
  2.0000000E+00;  9.9999998E-03; -2.0000000E-02;622;0.0;0.0;0.0;1000.0;  4.0000001E-01;0.0;0;0.0;0.0;0.0;0;0.0;  1.0000000E+04;  0.0000000E+00;  0.0000000E+00;  1.0000000E+04;  0.0000000E+00;  1.0000000E+04;0.0;0.0;0.0;0.0
  2.0000000E+00;  9.9999998E-03;  0.0000000E+00;623;0.0;0.0;0.0;1000.0;  4.0000001E-01;0.0;0;0.0;0.0;0.0;0;0.0;  1.0000000E+04;  0.0000000E+00;  0.0000000E+00;  1.0000000E+04;  0.0000000E+00;  1.0000000E+04;0.0;0.0;0.0;0.0
  2.0000000E+00;  9.9999998E-03;  2.0000000E-02;624;0.0;0.0;0.0;1000.0;  4.0000001E-01;0.0;0;0.0;0.0;0.0;0;0.0;  1.0000000E+04;  0.0000000E+00;  0.0000000E+00;  1.0000000E+04;  0.0000000E+00;  1.0000000E+04;0.0;0.0;0.0;0.0
  2.0000000E+00;  9.9999998E-03;  3.9999999E-02;625;0.0;0.0;0.0;1000.0;  4.0000001E-01;0.0;0;0.0;0.0;0.0;0;0.0;  1.0000000E+04;  0.0000000E+00;  0.0000000E+00;  1.0000000E+04;  0.0000000E+00;  1.0000000E+04;0.0;0.0;0.0;0.0
  2.0000000E+00;  9.9999998E-03;  5.9999999E-02;626;0.0;0.0;0.0;1000.0;  4.0000001E-01;0.0;0;0.0;0.0;0.0;0;0.0;  1.0000000E+04;  0.0000000E+00;  0.0000000E+00;  1.0000000E+04;  0.0000000E+00;  1.0000000E+04;0.0;0.0;0.0;0.0
  2.0000000E+00;  9.9999998E-03;  7.9999998E-02;627;0.0;0.0;0.0;1000.0;  4.0000001E-01;0.0;0;0.0;0.0;0.0;0;0.0;  1.0000000E+04;  0.0000000E+00;  0.0000000E+00;  1.0000000E+04;  0.0000000E+00;  1.0000000E+04;0.0;0.0;0.0;0.0
  2.0200000E+00;  9.9999998E-03; -4.0000001E-01;628;0.0;0.0;0.0;1000.0;  4.0000001E-01;0.0;0;0.0;0.0;0.0;0;0.0;  1.0000000E+04;  0.0000000E+00;  0.0000000E+00;  1.0000000E+04;  0.0000000E+00;  1.0000000E+04;0.0;0.0;0.0;0.0
  2.0200000E+00;  9.9999998E-03; -3.8000000E-01;629;0.0;0.0;0.0;1000.0;  4.0000001E-01;0.0;0;0.0;0.0;0.0;0;0.0;  1.0000000E+04;  0.0000000E+00;  0.0000000E+00;  1.0000000E+04;  0.0000000E+00;  1.0000000E+04;0.0;0.0;0.0;0.0
  2.0200000E+00;  9.9999998E-03; -3.6000001E-01;630;0.0;0.0;0.0;1000.0;  4.0000001E-01;0.0;0;0.0;0.0;0.0;0;0.0;  1.0000000E+04;  0.0000000E+00;  0.0000000E+00;  1.0000000E+04;  0.0000000E+00;  1.0000000E+04;0.0;0.0;0.0;0.0
  2.0200000E+00;  9.9999998E-03; -3.4000000E-01;631;0.0;0.0;0.0;1000.0;  4.0000001E-01;0.0;0;0.0;0.0;0.0;0;0.0;  1.0000000E+04;  0.0000000E+00;  0.0000000E+00;  1.0000000E+04;  0.0000000E+00;  1.0000000E+04;0.0;0.0;0.0;0.0
  2.0200000E+00;  9.9999998E-03; -3.1999999E-01;632;0.0;0.0;0.0;1000.0;  4.0000001E-01;0.0;0;0.0;0.0;0.0;0;0.0;  1.0000000E+04;  0.0000000E+00;  0.0000000E+00;  1.0000000E+04;  0.0000000E+00;  1.0000000E+04;0.0;0.0;0.0;0.0
  2.0200000E+00;  9.9999998E-03; -3.0000001E-01;633;0.0;0.0;0.0;1000.0;  4.0000001E-01;0.0;0;0.0;0.0;0.0;0;0.0;  1.0000000E+04;  0.0000000E+00;  0.0000000E+00;  1.0000000E+04;  0.0000000E+00;  1.0000000E+04;0.0;0.0;0.0;0.0
  2.0200000E+00;  9.9999998E-03; -2.8000000E-01;634;0.0;0.0;0.0;1000.0;  4.0000001E-01;0.0;0;0.0;0.0;0.0;0;0.0;  1.0000000E+04;  0.0000000E+00;  0.0000000E+00;  1.0000000E+04;  0.0000000E+00;  1.0000000E+04;0.0;0.0;0.0;0.0
  2.0200000E+00;  9.9999998E-03; -2.5999999E-01;635;0.0;0.0;0.0;1000.0;  4.0000001E-01;0.0;0;0.0;0.0;0.0;0;0.0;  1.0000000E+04;  0.0000000E+00;  0.0000000E+00;  1.0000000E+04;  0.0000000E+00;  1.0000000E+04;0.0;0.0;0.0;0.0
  2.0200000E+00;  9.9999998E-03; -2.3999999E-01;636;0.0;0.0;0.0;1000.0;  4.0000001E-01;0.0;0;0.0;0.0;0.0;0;0.0;  1.0000000E+04;  0.0000000E+00;  0.0000000E+00;  1.0000000E+04;  0.0000000E+00;  1.0000000E+04;0.0;0.0;0.0;0.0
  2.0200000E+00;  9.9999998E-03; -2.2000000E-01;637;0.0;0.0;0.0;1000.0;  4.0000001E-01;0.0;0;0.0;0.0;0.0;0;0.0;  1.0000000E+04;  0.0000000E+00;  0.0000000E+00;  1.0000000E+04;  0.0000000E+00;  1.0000000E+04;0.0;0.0;0.0;0.0
  2.0200000E+00;  9.9999998E-03; -2.0000000E-01;638;0.0;0.0;0.0;1000.0;  4.0000001E-01;0.0;0;0.0;0.0;0.0;0;0.0;  1.0000000E+04;  0.0000000E+00;  0.0000000E+00;  1.0000000E+04;  0.0000000E+00;  1.0000000E+04;0.0;0.0;0.0;0.0
  2.0200000E+00;  9.9999998E-03; -1.8000001E-01;639;0.0;0.0;0.0;1000.0;  4.0000001E-01;0.0;0;0.0;0.0;0.0;0;0.0;  1.0000000E+04;  0.0000000E+00;  0.0000000E+00;  1.0000000E+04;  0.0000000E+00;  1.0000000E+04;0.0;0.0;0.0;0.0
  2.0200000E+00;  9.9999998E-03; -1.6000000E-01;640;0.0;0.0;0.0;1000.0;  4.0000001E-01;0.0;0;0.0;0.0;0.0;0;0.0;  1.0000000E+04;  0.0000000E+00;  0.0000000E+00;  1.0000000E+04;  0.0000000E+00;  1.0000000E+04;0.0;0.0;0.0;0.0
  2.0200000E+00;  9.9999998E-03; -1.4000000E-01;641;0.0;0.0;0.0;1000.0;  4.0000001E-01;0.0;0;0.0;0.0;0.0;0;0.0;  1.0000000E+04;  0.0000000E+00;  0.0000000E+00;  1.0000000E+04;  0.0000000E+00;  1.0000000E+04;0.0;0.0;0.0;0.0
  2.0200000E+00;  9.9999998E-03; -1.2000000E-01;642;0.0;0.0;0.0;1000.0;  4.0000001E-01;0.0;0;0.0;0.0;0.0;0;0.0;  1.0000000E+04;  0.0000000E+00;  0.0000000E+00;  1.0000000E+04;  0.0000000E+00;  1.0000000E+04;0.0;0.0;0.0;0.0
  2.0200000E+00;  9.9999998E-03; -1.0000000E-01;643;0.0;0.0;0.0;1000.0;  4.0000001E-01;0.0;0;0.0;0.0;0.0;0;0.0;  1.0000000E+04;  0.0000000E+00;  0.0000000E+00;  1.0000000E+04;  0.0000000E+00;  1.0000000E+04;0.0;0.0;0.0;0.0
  2.0200000E+00;  9.9999998E-03; -7.9999998E-02;644;0.0;0.0;0.0;1000.0;  4.0000001E-01;0.0;0;0.0;0.0;0.0;0;0.0;  1.0000000E+04;  0.0000000E+00;  0.0000000E+00;  1.0000000E+04;  0.0000000E+00;  1.0000000E+04;0.0;0.0;0.0;0.0
  2.0200000E+00;  9.9999998E-03; -5.9999999E-02;645;0.0;0.0;0.0;1000.0;  4.0000001E-01;0.0;0;0.0;0.0;0.0;0;0.0;  1.0000000E+04;  0.0000000E+00;  0.0000000E+00;  1.0000000E+04;  0.0000000E+00;  1.0000000E+04;0.0;0.0;0.0;0.0
  2.0200000E+00;  9.9999998E-03; -3.9999999E-02;646;0.0;0.0;0.0;1000.0;  4.0000001E-01;0.0;0;0.0;0.0;0.0;0;0.0;  1.0000000E+04;  0.0000000E+00;  0.0000000E+00;  1.0000000E+04;  0.0000000E+00;  1.0000000E+04;0.0;0.0;0.0;0.0
  2.0200000E+00;  9.9999998E-03; -2.0000000E-02;647;0.0;0.0;0.0;1000.0;  4.0000001E-01;0.0;0;0.0;0.0;0.0;0;0.0;  1.0000000E+04;  0.0000000E+00;  0.0000000E+00;  1.0000000E+04;  0.0000000E+00;  1.0000000E+04;0.0;0.0;0.0;0.0
  2.0200000E+00;  9.9999998E-03;  0.0000000E+00;648;0.0;0.0;0.0;1000.0;  4.0000001E-01;0.0;0;0.0;0.0;0.0;0;0.0;  1.0000000E+04;  0.0000000E+00;  0.0000000E+00;  1.0000000E+04;  0.0000000E+00;  1.0000000E+04;0.0;0.0;0.0;0.0
  2.0200000E+00;  9.9999998E-03;  2.0000000E-02;649;0.0;0.0;0.0;1000.0;  4.0000001E-01;0.0;0;0.0;0.0;0.0;0;0.0;  1.0000000E+04;  0.0000000E+00;  0.0000000E+00;  1.0000000E+04;  0.0000000E+00;  1.0000000E+04;0.0;0.0;0.0;0.0
  2.0200000E+00;  9.9999998E-03;  3.9999999E-02;650;0.0;0.0;0.0;1000.0;  4.0000001E-01;0.0;0;0.0;0.0;0.0;0;0.0;  1.0000000E+04;  0.0000000E+00;  0.0000000E+00;  1.0000000E+04;  0.0000000E+00;  1.0000000E+04;0.0;0.0;0.0;0.0
  2.0200000E+00;  9.9999998E-03;  5.9999999E-02;651;0.0;0.0;0.0;1000.0;  4.0000001E-01;0.0;0;0.0;0.0;0.0;0;0.0;  1.0000000E+04;  0.0000000E+00;  0.0000000E+00;  1.0000000E+04;  0.0000000E+00;  1.0000000E+04;0.0;0.0;0.0;0.0
  2.0200000E+00;  9.9999998E-03;  7.9999998E-02;652;0.0;0.0;0.0;1000.0;  4.0000001E-01;0.0;0;0.0;0.0;0.0;0;0.0;  1.0000000E+04;  0.0000000E+00;  0.0000000E+00;  1.0000000E+04;  0.0000000E+00;  1.0000000E+04;0.0;0.0;0.0;0.0
  2.0200000E+00;  9.9999998E-03;  1.0000000E-01;653;0.0;0.0;0.0;1000.0;  4.0000001E-01;0.0;0;0.0;0.0;0.0;0;0.0;  1.0000000E+04;  0.0000000E+00;  0.0000000E+00;  1.0000000E+04;  0.0000000E+00;  1.0000000E+04;0.0;0.0;0.0;0.0
  2.0200000E+00;  9.9999998E-03;  1.2000000E-01;654;0.0;0.0;0.0;1000.0;  4.0000001E-01;0.0;0;0.0;0.0;0.0;0;0.0;  1.0000000E+04;  0.0000000E+00;  0.0000000E+00;  1.0000000E+04;  0.0000000E+00;  1.0000000E+04;0.0;0.0;0.0;0.0
  2.0200000E+00;  9.9999998E-03;  1.4000000E-01;655;0.0;0.0;0.0;1000.0;  4.0000001E-01;0.0;0;0.0;0.0;0.0;0;0.0;  1.0000000E+04;  0.0000000E+00;  0.0000000E+00;  1.0000000E+04;  0.0000000E+00;  1.0000000E+04;0.0;0.0;0.0;0.0
  2.0200000E+00;  9.9999998E-03;  1.6000000E-01;656;0.0;0.0;0.0;1000.0;  4.0000001E-01;0.0;0;0.0;0.0;0.0;0;0.0;  1.0000000E+04;  0.0000000E+00;  0.0000000E+00;  1.0000000E+04;  0.0000000E+00;  1.0000000E+04;0.0;0.0;0.0;0.0
  2.0200000E+00;  9.9999998E-03;  1.8000001E-01;657;0.0;0.0;0.0;1000.0;  4.0000001E-01;0.0;0;0.0;0.0;0.0;0;0.0;  1.0000000E+04;  0.0000000E+00;  0.0000000E+00;  1.0000000E+04;  0.0000000E+00;  1.0000000E+04;0.0;0.0;0.0;0.0
  2.0400000E+00;  9.9999998E-03; -4.0000001E-01;658;0.0;0.0;0.0;1000.0;  4.0000001E-01;0.0;0;0.0;0.0;0.0;0;0.0;  1.0000000E+04;  0.0000000E+00;  0.0000000E+00;  1.0000000E+04;  0.0000000E+00;  1.0000000E+04;0.0;0.0;0.0;0.0
  2.0400000E+00;  9.9999998E-03; -3.8000000E-01;659;0.0;0.0;0.0;1000.0;  4.0000001E-01;0.0;0;0.0;0.0;0.0;0;0.0;  1.0000000E+04;  0.0000000E+00;  0.0000000E+00;  1.0000000E+04;  0.0000000E+00;  1.0000000E+04;0.0;0.0;0.0;0.0
  2.0400000E+00;  9.9999998E-03; -3.6000001E-01;660;0.0;0.0;0.0;1000.0;  4.0000001E-01;0.0;0;0.0;0.0;0.0;0;0.0;  1.0000000E+04;  0.0000000E+00;  0.0000000E+00;  1.0000000E+04;  0.0000000E+00;  1.0000000E+04;0.0;0.0;0.0;0.0
  2.0400000E+00;  9.9999998E-03; -3.4000000E-01;661;0.0;0.0;0.0;1000.0;  4.0000001E-01;0.0;0;0.0;0.0;0.0;0;0.0;  1.0000000E+04;  0.0000000E+00;  0.0000000E+00;  1.0000000E+04;  0.0000000E+00;  1.0000000E+04;0.0;0.0;0.0;0.0
  2.0400000E+00;  9.9999998E-03; -3.1999999E-01;662;0.0;0.0;0.0;1000.0;  4.0000001E-01;0.0;0;0.0;0.0;0.0;0;0.0;  1.0000000E+04;  0.0000000E+00;  0.0000000E+00;  1.0000000E+04;  0.0000000E+00;  1.0000000E+04;0.0;0.0;0.0;0.0
  2.0400000E+00;  9.9999998E-03; -3.0000001E-01;663;0.0;0.0;0.0;1000.0;  4.0000001E-01;0.0;0;0.0;0.0;0.0;0;0.0;  1.0000000E+04;  0.0000000E+00;  0.0000000E+00;  1.0000000E+04;  0.0000000E+00;  1.0000000E+04;0.0;0.0;0.0;0.0
  2.0400000E+00;  9.9999998E-03; -2.8000000E-01;664;0.0;0.0;0.0;1000.0;  4.0000001E-01;0.0;0;0.0;0.0;0.0;0;0.0;  1.0000000E+04;  0.0000000E+00;  0.0000000E+00;  1.0000000E+04;  0.0000000E+00;  1.0000000E+04;0.0;0.0;0.0;0.0
  2.0400000E+00;  9.9999998E-03; -2.5999999E-01;665;0.0;0.0;0.0;1000.0;  4.0000001E-01;0.0;0;0.0;0.0;0.0;0;0.0;  1.0000000E+04;  0.0000000E+00;  0.0000000E+00;  1.0000000E+04;  0.0000000E+00;  1.0000000E+04;0.0;0.0;0.0;0.0
  2.0400000E+00;  9.9999998E-03; -2.3999999E-01;666;0.0;0.0;0.0;1000.0;  4.0000001E-01;0.0;0;0.0;0.0;0.0;0;0.0;  1.0000000E+04;  0.0000000E+00;  0.0000000E+00;  1.0000000E+04;  0.0000000E+00;  1.0000000E+04;0.0;0.0;0.0;0.0
  2.0400000E+00;  9.9999998E-03; -2.2000000E-01;667;0.0;0.0;0.0;1000.0;  4.0000001E-01;0.0;0;0.0;0.0;0.0;0;0.0;  1.0000000E+04;  0.0000000E+00;  0.0000000E+00;  1.0000000E+04;  0.0000000E+00;  1.0000000E+04;0.0;0.0;0.0;0.0
  2.0400000E+00;  9.9999998E-03; -2.0000000E-01;668;0.0;0.0;0.0;1000.0;  4.0000001E-01;0.0;0;0.0;0.0;0.0;0;0.0;  1.0000000E+04;  0.0000000E+00;  0.0000000E+00;  1.0000000E+04;  0.0000000E+00;  1.0000000E+04;0.0;0.0;0.0;0.0
  2.0400000E+00;  9.9999998E-03; -1.8000001E-01;669;0.0;0.0;0.0;1000.0;  4.0000001E-01;0.0;0;0.0;0.0;0.0;0;0.0;  1.0000000E+04;  0.0000000E+00;  0.0000000E+00;  1.0000000E+04;  0.0000000E+00;  1.0000000E+04;0.0;0.0;0.0;0.0
  2.0400000E+00;  9.9999998E-03; -1.6000000E-01;670;0.0;0.0;0.0;1000.0;  4.0000001E-01;0.0;0;0.0;0.0;0.0;0;0.0;  1.0000000E+04;  0.0000000E+00;  0.0000000E+00;  1.0000000E+04;  0.0000000E+00;  1.0000000E+04;0.0;0.0;0.0;0.0
  2.0400000E+00;  9.9999998E-03; -1.4000000E-01;671;0.0;0.0;0.0;1000.0;  4.0000001E-01;0.0;0;0.0;0.0;0.0;0;0.0;  1.0000000E+04;  0.0000000E+00;  0.0000000E+00;  1.0000000E+04;  0.0000000E+00;  1.0000000E+04;0.0;0.0;0.0;0.0
  2.0400000E+00;  9.9999998E-03; -1.2000000E-01;672;0.0;0.0;0.0;1000.0;  4.0000001E-01;0.0;0;0.0;0.0;0.0;0;0.0;  1.0000000E+04;  0.0000000E+00;  0.0000000E+00;  1.0000000E+04;  0.0000000E+00;  1.0000000E+04;0.0;0.0;0.0;0.0
  2.0400000E+00;  9.9999998E-03; -1.0000000E-01;673;0.0;0.0;0.0;1000.0;  4.0000001E-01;0.0;0;0.0;0.0;0.0;0;0.0;  1.0000000E+04;  0.0000000E+00;  0.0000000E+00;  1.0000000E+04;  0.0000000E+00;  1.0000000E+04;0.0;0.0;0.0;0.0
  2.0400000E+00;  9.9999998E-03; -7.9999998E-02;674;0.0;0.0;0.0;1000.0;  4.0000001E-01;0.0;0;0.0;0.0;0.0;0;0.0;  1.0000000E+04;  0.0000000E+00;  0.0000000E+00;  1.0000000E+04;  0.0000000E+00;  1.0000000E+04;0.0;0.0;0.0;0.0
  2.0400000E+00;  9.9999998E-03; -5.9999999E-02;675;0.0;0.0;0.0;1000.0;  4.0000001E-01;0.0;0;0.0;0.0;0.0;0;0.0;  1.0000000E+04;  0.0000000E+00;  0.0000000E+00;  1.0000000E+04;  0.0000000E+00;  1.0000000E+04;0.0;0.0;0.0;0.0
  2.0400000E+00;  9.9999998E-03; -3.9999999E-02;676;0.0;0.0;0.0;1000.0;  4.0000001E-01;0.0;0;0.0;0.0;0.0;0;0.0;  1.0000000E+04;  0.0000000E+00;  0.0000000E+00;  1.0000000E+04;  0.0000000E+00;  1.0000000E+04;0.0;0.0;0.0;0.0
  2.0400000E+00;  9.9999998E-03; -2.0000000E-02;677;0.0;0.0;0.0;1000.0;  4.0000001E-01;0.0;0;0.0;0.0;0.0;0;0.0;  1.0000000E+04;  0.0000000E+00;  0.0000000E+00;  1.0000000E+04;  0.0000000E+00;  1.0000000E+04;0.0;0.0;0.0;0.0
  2.0400000E+00;  9.9999998E-03;  0.0000000E+00;678;0.0;0.0;0.0;1000.0;  4.0000001E-01;0.0;0;0.0;0.0;0.0;0;0.0;  1.0000000E+04;  0.0000000E+00;  0.0000000E+00;  1.0000000E+04;  0.0000000E+00;  1.0000000E+04;0.0;0.0;0.0;0.0
  2.0400000E+00;  9.9999998E-03;  2.0000000E-02;679;0.0;0.0;0.0;1000.0;  4.0000001E-01;0.0;0;0.0;0.0;0.0;0;0.0;  1.0000000E+04;  0.0000000E+00;  0.0000000E+00;  1.0000000E+04;  0.0000000E+00;  1.0000000E+04;0.0;0.0;0.0;0.0
  2.0400000E+00;  9.9999998E-03;  3.9999999E-02;680;0.0;0.0;0.0;1000.0;  4.0000001E-01;0.0;0;0.0;0.0;0.0;0;0.0;  1.0000000E+04;  0.0000000E+00;  0.0000000E+00;  1.0000000E+04;  0.0000000E+00;  1.0000000E+04;0.0;0.0;0.0;0.0
  2.0400000E+00;  9.9999998E-03;  5.9999999E-02;681;0.0;0.0;0.0;1000.0;  4.0000001E-01;0.0;0;0.0;0.0;0.0;0;0.0;  1.0000000E+04;  0.0000000E+00;  0.0000000E+00;  1.0000000E+04;  0.0000000E+00;  1.0000000E+04;0.0;0.0;0.0;0.0
  2.0400000E+00;  9.9999998E-03;  7.9999998E-02;682;0.0;0.0;0.0;1000.0;  4.0000001E-01;0.0;0;0.0;0.0;0.0;0;0.0;  1.0000000E+04;  0.0000000E+00;  0.0000000E+00;  1.0000000E+04;  0.0000000E+00;  1.0000000E+04;0.0;0.0;0.0;0.0
  2.0400000E+00;  9.9999998E-03;  1.0000000E-01;683;0.0;0.0;0.0;1000.0;  4.0000001E-01;0.0;0;0.0;0.0;0.0;0;0.0;  1.0000000E+04;  0.0000000E+00;  0.0000000E+00;  1.0000000E+04;  0.0000000E+00;  1.0000000E+04;0.0;0.0;0.0;0.0
  2.0400000E+00;  9.9999998E-03;  1.2000000E-01;684;0.0;0.0;0.0;1000.0;  4.0000001E-01;0.0;0;0.0;0.0;0.0;0;0.0;  1.0000000E+04;  0.0000000E+00;  0.0000000E+00;  1.0000000E+04;  0.0000000E+00;  1.0000000E+04;0.0;0.0;0.0;0.0
  2.0400000E+00;  9.9999998E-03;  1.4000000E-01;685;0.0;0.0;0.0;1000.0;  4.0000001E-01;0.0;0;0.0;0.0;0.0;0;0.0;  1.0000000E+04;  0.0000000E+00;  0.0000000E+00;  1.0000000E+04;  0.0000000E+00;  1.0000000E+04;0.0;0.0;0.0;0.0
  2.0400000E+00;  9.9999998E-03;  1.6000000E-01;686;0.0;0.0;0.0;1000.0;  4.0000001E-01;0.0;0;0.0;0.0;0.0;0;0.0;  1.0000000E+04;  0.0000000E+00;  0.0000000E+00;  1.0000000E+04;  0.0000000E+00;  1.0000000E+04;0.0;0.0;0.0;0.0
  2.0400000E+00;  9.9999998E-03;  1.8000001E-01;687;0.0;0.0;0.0;1000.0;  4.0000001E-01;0.0;0;0.0;0.0;0.0;0;0.0;  1.0000000E+04;  0.0000000E+00;  0.0000000E+00;  1.0000000E+04;  0.0000000E+00;  1.0000000E+04;0.0;0.0;0.0;0.0
  2.0400000E+00;  9.9999998E-03;  2.0000000E-01;688;0.0;0.0;0.0;1000.0;  4.0000001E-01;0.0;0;0.0;0.0;0.0;0;0.0;  1.0000000E+04;  0.0000000E+00;  0.0000000E+00;  1.0000000E+04;  0.0000000E+00;  1.0000000E+04;0.0;0.0;0.0;0.0
  2.0400000E+00;  9.9999998E-03;  2.2000000E-01;689;0.0;0.0;0.0;1000.0;  4.0000001E-01;0.0;0;0.0;0.0;0.0;0;0.0;  1.0000000E+04;  0.0000000E+00;  0.0000000E+00;  1.0000000E+04;  0.0000000E+00;  1.0000000E+04;0.0;0.0;0.0;0.0
  2.0400000E+00;  9.9999998E-03;  2.3999999E-01;690;0.0;0.0;0.0;1000.0;  4.0000001E-01;0.0;0;0.0;0.0;0.0;0;0.0;  1.0000000E+04;  0.0000000E+00;  0.0000000E+00;  1.0000000E+04;  0.0000000E+00;  1.0000000E+04;0.0;0.0;0.0;0.0
  2.0400000E+00;  9.9999998E-03;  2.5999999E-01;691;0.0;0.0;0.0;1000.0;  4.0000001E-01;0.0;0;0.0;0.0;0.0;0;0.0;  1.0000000E+04;  0.0000000E+00;  0.0000000E+00;  1.0000000E+04;  0.0000000E+00;  1.0000000E+04;0.0;0.0;0.0;0.0
  2.0400000E+00;  9.9999998E-03;  2.8000000E-01;692;0.0;0.0;0.0;1000.0;  4.0000001E-01;0.0;0;0.0;0.0;0.0;0;0.0;  1.0000000E+04;  0.0000000E+00;  0.0000000E+00;  1.0000000E+04;  0.0000000E+00;  1.0000000E+04;0.0;0.0;0.0;0.0
  2.0599999E+00;  9.9999998E-03; -4.0000001E-01;693;0.0;0.0;0.0;1000.0;  4.0000001E-01;0.0;0;0.0;0.0;0.0;0;0.0;  1.0000000E+04;  0.0000000E+00;  0.0000000E+00;  1.0000000E+04;  0.0000000E+00;  1.0000000E+04;0.0;0.0;0.0;0.0
  2.0599999E+00;  9.9999998E-03; -3.8000000E-01;694;0.0;0.0;0.0;1000.0;  4.0000001E-01;0.0;0;0.0;0.0;0.0;0;0.0;  1.0000000E+04;  0.0000000E+00;  0.0000000E+00;  1.0000000E+04;  0.0000000E+00;  1.0000000E+04;0.0;0.0;0.0;0.0
  2.0599999E+00;  9.9999998E-03; -3.6000001E-01;695;0.0;0.0;0.0;1000.0;  4.0000001E-01;0.0;0;0.0;0.0;0.0;0;0.0;  1.0000000E+04;  0.0000000E+00;  0.0000000E+00;  1.0000000E+04;  0.0000000E+00;  1.0000000E+04;0.0;0.0;0.0;0.0
  2.0599999E+00;  9.9999998E-03; -3.4000000E-01;696;0.0;0.0;0.0;1000.0;  4.0000001E-01;0.0;0;0.0;0.0;0.0;0;0.0;  1.0000000E+04;  0.0000000E+00;  0.0000000E+00;  1.0000000E+04;  0.0000000E+00;  1.0000000E+04;0.0;0.0;0.0;0.0
  2.0599999E+00;  9.9999998E-03; -3.1999999E-01;697;0.0;0.0;0.0;1000.0;  4.0000001E-01;0.0;0;0.0;0.0;0.0;0;0.0;  1.0000000E+04;  0.0000000E+00;  0.0000000E+00;  1.0000000E+04;  0.0000000E+00;  1.0000000E+04;0.0;0.0;0.0;0.0
  2.0599999E+00;  9.9999998E-03; -3.0000001E-01;698;0.0;0.0;0.0;1000.0;  4.0000001E-01;0.0;0;0.0;0.0;0.0;0;0.0;  1.0000000E+04;  0.0000000E+00;  0.0000000E+00;  1.0000000E+04;  0.0000000E+00;  1.0000000E+04;0.0;0.0;0.0;0.0
  2.0599999E+00;  9.9999998E-03; -2.8000000E-01;699;0.0;0.0;0.0;1000.0;  4.0000001E-01;0.0;0;0.0;0.0;0.0;0;0.0;  1.0000000E+04;  0.0000000E+00;  0.0000000E+00;  1.0000000E+04;  0.0000000E+00;  1.0000000E+04;0.0;0.0;0.0;0.0
  2.0599999E+00;  9.9999998E-03; -2.5999999E-01;700;0.0;0.0;0.0;1000.0;  4.0000001E-01;0.0;0;0.0;0.0;0.0;0;0.0;  1.0000000E+04;  0.0000000E+00;  0.0000000E+00;  1.0000000E+04;  0.0000000E+00;  1.0000000E+04;0.0;0.0;0.0;0.0
  2.0599999E+00;  9.9999998E-03; -2.3999999E-01;701;0.0;0.0;0.0;1000.0;  4.0000001E-01;0.0;0;0.0;0.0;0.0;0;0.0;  1.0000000E+04;  0.0000000E+00;  0.0000000E+00;  1.0000000E+04;  0.0000000E+00;  1.0000000E+04;0.0;0.0;0.0;0.0
  2.0599999E+00;  9.9999998E-03; -2.2000000E-01;702;0.0;0.0;0.0;1000.0;  4.0000001E-01;0.0;0;0.0;0.0;0.0;0;0.0;  1.0000000E+04;  0.0000000E+00;  0.0000000E+00;  1.0000000E+04;  0.0000000E+00;  1.0000000E+04;0.0;0.0;0.0;0.0
  2.0599999E+00;  9.9999998E-03; -2.0000000E-01;703;0.0;0.0;0.0;1000.0;  4.0000001E-01;0.0;0;0.0;0.0;0.0;0;0.0;  1.0000000E+04;  0.0000000E+00;  0.0000000E+00;  1.0000000E+04;  0.0000000E+00;  1.0000000E+04;0.0;0.0;0.0;0.0
  2.0599999E+00;  9.9999998E-03; -1.8000001E-01;704;0.0;0.0;0.0;1000.0;  4.0000001E-01;0.0;0;0.0;0.0;0.0;0;0.0;  1.0000000E+04;  0.0000000E+00;  0.0000000E+00;  1.0000000E+04;  0.0000000E+00;  1.0000000E+04;0.0;0.0;0.0;0.0
  2.0599999E+00;  9.9999998E-03; -1.6000000E-01;705;0.0;0.0;0.0;1000.0;  4.0000001E-01;0.0;0;0.0;0.0;0.0;0;0.0;  1.0000000E+04;  0.0000000E+00;  0.0000000E+00;  1.0000000E+04;  0.0000000E+00;  1.0000000E+04;0.0;0.0;0.0;0.0
  2.0599999E+00;  9.9999998E-03; -1.4000000E-01;706;0.0;0.0;0.0;1000.0;  4.0000001E-01;0.0;0;0.0;0.0;0.0;0;0.0;  1.0000000E+04;  0.0000000E+00;  0.0000000E+00;  1.0000000E+04;  0.0000000E+00;  1.0000000E+04;0.0;0.0;0.0;0.0
  2.0599999E+00;  9.9999998E-03; -1.2000000E-01;707;0.0;0.0;0.0;1000.0;  4.0000001E-01;0.0;0;0.0;0.0;0.0;0;0.0;  1.0000000E+04;  0.0000000E+00;  0.0000000E+00;  1.0000000E+04;  0.0000000E+00;  1.0000000E+04;0.0;0.0;0.0;0.0
  2.0599999E+00;  9.9999998E-03; -1.0000000E-01;708;0.0;0.0;0.0;1000.0;  4.0000001E-01;0.0;0;0.0;0.0;0.0;0;0.0;  1.0000000E+04;  0.0000000E+00;  0.0000000E+00;  1.0000000E+04;  0.0000000E+00;  1.0000000E+04;0.0;0.0;0.0;0.0
  2.0599999E+00;  9.9999998E-03; -7.9999998E-02;709;0.0;0.0;0.0;1000.0;  4.0000001E-01;0.0;0;0.0;0.0;0.0;0;0.0;  1.0000000E+04;  0.0000000E+00;  0.0000000E+00;  1.0000000E+04;  0.0000000E+00;  1.0000000E+04;0.0;0.0;0.0;0.0
  2.0599999E+00;  9.9999998E-03; -5.9999999E-02;710;0.0;0.0;0.0;1000.0;  4.0000001E-01;0.0;0;0.0;0.0;0.0;0;0.0;  1.0000000E+04;  0.0000000E+00;  0.0000000E+00;  1.0000000E+04;  0.0000000E+00;  1.0000000E+04;0.0;0.0;0.0;0.0
  2.0599999E+00;  9.9999998E-03; -3.9999999E-02;711;0.0;0.0;0.0;1000.0;  4.0000001E-01;0.0;0;0.0;0.0;0.0;0;0.0;  1.0000000E+04;  0.0000000E+00;  0.0000000E+00;  1.0000000E+04;  0.0000000E+00;  1.0000000E+04;0.0;0.0;0.0;0.0
  2.0599999E+00;  9.9999998E-03; -2.0000000E-02;712;0.0;0.0;0.0;1000.0;  4.0000001E-01;0.0;0;0.0;0.0;0.0;0;0.0;  1.0000000E+04;  0.0000000E+00;  0.0000000E+00;  1.0000000E+04;  0.0000000E+00;  1.0000000E+04;0.0;0.0;0.0;0.0
  2.0599999E+00;  9.9999998E-03;  0.0000000E+00;713;0.0;0.0;0.0;1000.0;  4.0000001E-01;0.0;0;0.0;0.0;0.0;0;0.0;  1.0000000E+04;  0.0000000E+00;  0.0000000E+00;  1.0000000E+04;  0.0000000E+00;  1.0000000E+04;0.0;0.0;0.0;0.0
  2.0599999E+00;  9.9999998E-03;  2.0000000E-02;714;0.0;0.0;0.0;1000.0;  4.0000001E-01;0.0;0;0.0;0.0;0.0;0;0.0;  1.0000000E+04;  0.0000000E+00;  0.0000000E+00;  1.0000000E+04;  0.0000000E+00;  1.0000000E+04;0.0;0.0;0.0;0.0
  2.0599999E+00;  9.9999998E-03;  3.9999999E-02;715;0.0;0.0;0.0;1000.0;  4.0000001E-01;0.0;0;0.0;0.0;0.0;0;0.0;  1.0000000E+04;  0.0000000E+00;  0.0000000E+00;  1.0000000E+04;  0.0000000E+00;  1.0000000E+04;0.0;0.0;0.0;0.0
  2.0599999E+00;  9.9999998E-03;  5.9999999E-02;716;0.0;0.0;0.0;1000.0;  4.0000001E-01;0.0;0;0.0;0.0;0.0;0;0.0;  1.0000000E+04;  0.0000000E+00;  0.0000000E+00;  1.0000000E+04;  0.0000000E+00;  1.0000000E+04;0.0;0.0;0.0;0.0
  2.0599999E+00;  9.9999998E-03;  7.9999998E-02;717;0.0;0.0;0.0;1000.0;  4.0000001E-01;0.0;0;0.0;0.0;0.0;0;0.0;  1.0000000E+04;  0.0000000E+00;  0.0000000E+00;  1.0000000E+04;  0.0000000E+00;  1.0000000E+04;0.0;0.0;0.0;0.0
  2.0599999E+00;  9.9999998E-03;  1.0000000E-01;718;0.0;0.0;0.0;1000.0;  4.0000001E-01;0.0;0;0.0;0.0;0.0;0;0.0;  1.0000000E+04;  0.0000000E+00;  0.0000000E+00;  1.0000000E+04;  0.0000000E+00;  1.0000000E+04;0.0;0.0;0.0;0.0
  2.0599999E+00;  9.9999998E-03;  1.2000000E-01;719;0.0;0.0;0.0;1000.0;  4.0000001E-01;0.0;0;0.0;0.0;0.0;0;0.0;  1.0000000E+04;  0.0000000E+00;  0.0000000E+00;  1.0000000E+04;  0.0000000E+00;  1.0000000E+04;0.0;0.0;0.0;0.0
  2.0599999E+00;  9.9999998E-03;  1.4000000E-01;720;0.0;0.0;0.0;1000.0;  4.0000001E-01;0.0;0;0.0;0.0;0.0;0;0.0;  1.0000000E+04;  0.0000000E+00;  0.0000000E+00;  1.0000000E+04;  0.0000000E+00;  1.0000000E+04;0.0;0.0;0.0;0.0
  2.0599999E+00;  9.9999998E-03;  1.6000000E-01;721;0.0;0.0;0.0;1000.0;  4.0000001E-01;0.0;0;0.0;0.0;0.0;0;0.0;  1.0000000E+04;  0.0000000E+00;  0.0000000E+00;  1.0000000E+04;  0.0000000E+00;  1.0000000E+04;0.0;0.0;0.0;0.0
  2.0599999E+00;  9.9999998E-03;  1.8000001E-01;722;0.0;0.0;0.0;1000.0;  4.0000001E-01;0.0;0;0.0;0.0;0.0;0;0.0;  1.0000000E+04;  0.0000000E+00;  0.0000000E+00;  1.0000000E+04;  0.0000000E+00;  1.0000000E+04;0.0;0.0;0.0;0.0
  2.0599999E+00;  9.9999998E-03;  2.0000000E-01;723;0.0;0.0;0.0;1000.0;  4.0000001E-01;0.0;0;0.0;0.0;0.0;0;0.0;  1.0000000E+04;  0.0000000E+00;  0.0000000E+00;  1.0000000E+04;  0.0000000E+00;  1.0000000E+04;0.0;0.0;0.0;0.0
  2.0599999E+00;  9.9999998E-03;  2.2000000E-01;724;0.0;0.0;0.0;1000.0;  4.0000001E-01;0.0;0;0.0;0.0;0.0;0;0.0;  1.0000000E+04;  0.0000000E+00;  0.0000000E+00;  1.0000000E+04;  0.0000000E+00;  1.0000000E+04;0.0;0.0;0.0;0.0
  2.0599999E+00;  9.9999998E-03;  2.3999999E-01;725;0.0;0.0;0.0;1000.0;  4.0000001E-01;0.0;0;0.0;0.0;0.0;0;0.0;  1.0000000E+04;  0.0000000E+00;  0.0000000E+00;  1.0000000E+04;  0.0000000E+00;  1.0000000E+04;0.0;0.0;0.0;0.0
  2.0599999E+00;  9.9999998E-03;  2.5999999E-01;726;0.0;0.0;0.0;1000.0;  4.0000001E-01;0.0;0;0.0;0.0;0.0;0;0.0;  1.0000000E+04;  0.0000000E+00;  0.0000000E+00;  1.0000000E+04;  0.0000000E+00;  1.0000000E+04;0.0;0.0;0.0;0.0
  2.0599999E+00;  9.9999998E-03;  2.8000000E-01;727;0.0;0.0;0.0;1000.0;  4.0000001E-01;0.0;0;0.0;0.0;0.0;0;0.0;  1.0000000E+04;  0.0000000E+00;  0.0000000E+00;  1.0000000E+04;  0.0000000E+00;  1.0000000E+04;0.0;0.0;0.0;0.0
  2.0599999E+00;  9.9999998E-03;  3.0000001E-01;728;0.0;0.0;0.0;1000.0;  4.0000001E-01;0.0;0;0.0;0.0;0.0;0;0.0;  1.0000000E+04;  0.0000000E+00;  0.0000000E+00;  1.0000000E+04;  0.0000000E+00;  1.0000000E+04;0.0;0.0;0.0;0.0
  2.0599999E+00;  9.9999998E-03;  3.1999999E-01;729;0.0;0.0;0.0;1000.0;  4.0000001E-01;0.0;0;0.0;0.0;0.0;0;0.0;  1.0000000E+04;  0.0000000E+00;  0.0000000E+00;  1.0000000E+04;  0.0000000E+00;  1.0000000E+04;0.0;0.0;0.0;0.0
  2.0599999E+00;  9.9999998E-03;  3.4000000E-01;730;0.0;0.0;0.0;1000.0;  4.0000001E-01;0.0;0;0.0;0.0;0.0;0;0.0;  1.0000000E+04;  0.0000000E+00;  0.0000000E+00;  1.0000000E+04;  0.0000000E+00;  1.0000000E+04;0.0;0.0;0.0;0.0
  2.0599999E+00;  9.9999998E-03;  3.6000001E-01;731;0.0;0.0;0.0;1000.0;  4.0000001E-01;0.0;0;0.0;0.0;0.0;0;0.0;  1.0000000E+04;  0.0000000E+00;  0.0000000E+00;  1.0000000E+04;  0.0000000E+00;  1.0000000E+04;0.0;0.0;0.0;0.0
  2.0599999E+00;  9.9999998E-03;  3.8000000E-01;732;0.0;0.0;0.0;1000.0;  4.0000001E-01;0.0;0;0.0;0.0;0.0;0;0.0;  1.0000000E+04;  0.0000000E+00;  0.0000000E+00;  1.0000000E+04;  0.0000000E+00;  1.0000000E+04;0.0;0.0;0.0;0.0
  2.0799999E+00;  9.9999998E-03; -4.0000001E-01;733;0.0;0.0;0.0;1000.0;  4.0000001E-01;0.0;0;0.0;0.0;0.0;0;0.0;  1.0000000E+04;  0.0000000E+00;  0.0000000E+00;  1.0000000E+04;  0.0000000E+00;  1.0000000E+04;0.0;0.0;0.0;0.0
  2.0799999E+00;  9.9999998E-03; -3.8000000E-01;734;0.0;0.0;0.0;1000.0;  4.0000001E-01;0.0;0;0.0;0.0;0.0;0;0.0;  1.0000000E+04;  0.0000000E+00;  0.0000000E+00;  1.0000000E+04;  0.0000000E+00;  1.0000000E+04;0.0;0.0;0.0;0.0
  2.0799999E+00;  9.9999998E-03; -3.6000001E-01;735;0.0;0.0;0.0;1000.0;  4.0000001E-01;0.0;0;0.0;0.0;0.0;0;0.0;  1.0000000E+04;  0.0000000E+00;  0.0000000E+00;  1.0000000E+04;  0.0000000E+00;  1.0000000E+04;0.0;0.0;0.0;0.0
  2.0799999E+00;  9.9999998E-03; -3.4000000E-01;736;0.0;0.0;0.0;1000.0;  4.0000001E-01;0.0;0;0.0;0.0;0.0;0;0.0;  1.0000000E+04;  0.0000000E+00;  0.0000000E+00;  1.0000000E+04;  0.0000000E+00;  1.0000000E+04;0.0;0.0;0.0;0.0
  2.0799999E+00;  9.9999998E-03; -3.1999999E-01;737;0.0;0.0;0.0;1000.0;  4.0000001E-01;0.0;0;0.0;0.0;0.0;0;0.0;  1.0000000E+04;  0.0000000E+00;  0.0000000E+00;  1.0000000E+04;  0.0000000E+00;  1.0000000E+04;0.0;0.0;0.0;0.0
  2.0799999E+00;  9.9999998E-03; -3.0000001E-01;738;0.0;0.0;0.0;1000.0;  4.0000001E-01;0.0;0;0.0;0.0;0.0;0;0.0;  1.0000000E+04;  0.0000000E+00;  0.0000000E+00;  1.0000000E+04;  0.0000000E+00;  1.0000000E+04;0.0;0.0;0.0;0.0
  2.0799999E+00;  9.9999998E-03; -2.8000000E-01;739;0.0;0.0;0.0;1000.0;  4.0000001E-01;0.0;0;0.0;0.0;0.0;0;0.0;  1.0000000E+04;  0.0000000E+00;  0.0000000E+00;  1.0000000E+04;  0.0000000E+00;  1.0000000E+04;0.0;0.0;0.0;0.0
  2.0799999E+00;  9.9999998E-03; -2.5999999E-01;740;0.0;0.0;0.0;1000.0;  4.0000001E-01;0.0;0;0.0;0.0;0.0;0;0.0;  1.0000000E+04;  0.0000000E+00;  0.0000000E+00;  1.0000000E+04;  0.0000000E+00;  1.0000000E+04;0.0;0.0;0.0;0.0
  2.0799999E+00;  9.9999998E-03; -2.3999999E-01;741;0.0;0.0;0.0;1000.0;  4.0000001E-01;0.0;0;0.0;0.0;0.0;0;0.0;  1.0000000E+04;  0.0000000E+00;  0.0000000E+00;  1.0000000E+04;  0.0000000E+00;  1.0000000E+04;0.0;0.0;0.0;0.0
  2.0799999E+00;  9.9999998E-03; -2.2000000E-01;742;0.0;0.0;0.0;1000.0;  4.0000001E-01;0.0;0;0.0;0.0;0.0;0;0.0;  1.0000000E+04;  0.0000000E+00;  0.0000000E+00;  1.0000000E+04;  0.0000000E+00;  1.0000000E+04;0.0;0.0;0.0;0.0
  2.0799999E+00;  9.9999998E-03; -2.0000000E-01;743;0.0;0.0;0.0;1000.0;  4.0000001E-01;0.0;0;0.0;0.0;0.0;0;0.0;  1.0000000E+04;  0.0000000E+00;  0.0000000E+00;  1.0000000E+04;  0.0000000E+00;  1.0000000E+04;0.0;0.0;0.0;0.0
  2.0799999E+00;  9.9999998E-03; -1.8000001E-01;744;0.0;0.0;0.0;1000.0;  4.0000001E-01;0.0;0;0.0;0.0;0.0;0;0.0;  1.0000000E+04;  0.0000000E+00;  0.0000000E+00;  1.0000000E+04;  0.0000000E+00;  1.0000000E+04;0.0;0.0;0.0;0.0
  2.0799999E+00;  9.9999998E-03; -1.6000000E-01;745;0.0;0.0;0.0;1000.0;  4.0000001E-01;0.0;0;0.0;0.0;0.0;0;0.0;  1.0000000E+04;  0.0000000E+00;  0.0000000E+00;  1.0000000E+04;  0.0000000E+00;  1.0000000E+04;0.0;0.0;0.0;0.0
  2.0799999E+00;  9.9999998E-03; -1.4000000E-01;746;0.0;0.0;0.0;1000.0;  4.0000001E-01;0.0;0;0.0;0.0;0.0;0;0.0;  1.0000000E+04;  0.0000000E+00;  0.0000000E+00;  1.0000000E+04;  0.0000000E+00;  1.0000000E+04;0.0;0.0;0.0;0.0
  2.0799999E+00;  9.9999998E-03; -1.2000000E-01;747;0.0;0.0;0.0;1000.0;  4.0000001E-01;0.0;0;0.0;0.0;0.0;0;0.0;  1.0000000E+04;  0.0000000E+00;  0.0000000E+00;  1.0000000E+04;  0.0000000E+00;  1.0000000E+04;0.0;0.0;0.0;0.0
  2.0799999E+00;  9.9999998E-03; -1.0000000E-01;748;0.0;0.0;0.0;1000.0;  4.0000001E-01;0.0;0;0.0;0.0;0.0;0;0.0;  1.0000000E+04;  0.0000000E+00;  0.0000000E+00;  1.0000000E+04;  0.0000000E+00;  1.0000000E+04;0.0;0.0;0.0;0.0
  2.0799999E+00;  9.9999998E-03; -7.9999998E-02;749;0.0;0.0;0.0;1000.0;  4.0000001E-01;0.0;0;0.0;0.0;0.0;0;0.0;  1.0000000E+04;  0.0000000E+00;  0.0000000E+00;  1.0000000E+04;  0.0000000E+00;  1.0000000E+04;0.0;0.0;0.0;0.0
  2.0799999E+00;  9.9999998E-03; -5.9999999E-02;750;0.0;0.0;0.0;1000.0;  4.0000001E-01;0.0;0;0.0;0.0;0.0;0;0.0;  1.0000000E+04;  0.0000000E+00;  0.0000000E+00;  1.0000000E+04;  0.0000000E+00;  1.0000000E+04;0.0;0.0;0.0;0.0
  2.0799999E+00;  9.9999998E-03; -3.9999999E-02;751;0.0;0.0;0.0;1000.0;  4.0000001E-01;0.0;0;0.0;0.0;0.0;0;0.0;  1.0000000E+04;  0.0000000E+00;  0.0000000E+00;  1.0000000E+04;  0.0000000E+00;  1.0000000E+04;0.0;0.0;0.0;0.0
  2.0799999E+00;  9.9999998E-03; -2.0000000E-02;752;0.0;0.0;0.0;1000.0;  4.0000001E-01;0.0;0;0.0;0.0;0.0;0;0.0;  1.0000000E+04;  0.0000000E+00;  0.0000000E+00;  1.0000000E+04;  0.0000000E+00;  1.0000000E+04;0.0;0.0;0.0;0.0
  2.0799999E+00;  9.9999998E-03;  0.0000000E+00;753;0.0;0.0;0.0;1000.0;  4.0000001E-01;0.0;0;0.0;0.0;0.0;0;0.0;  1.0000000E+04;  0.0000000E+00;  0.0000000E+00;  1.0000000E+04;  0.0000000E+00;  1.0000000E+04;0.0;0.0;0.0;0.0
  2.0799999E+00;  9.9999998E-03;  2.0000000E-02;754;0.0;0.0;0.0;1000.0;  4.0000001E-01;0.0;0;0.0;0.0;0.0;0;0.0;  1.0000000E+04;  0.0000000E+00;  0.0000000E+00;  1.0000000E+04;  0.0000000E+00;  1.0000000E+04;0.0;0.0;0.0;0.0
  2.0799999E+00;  9.9999998E-03;  3.9999999E-02;755;0.0;0.0;0.0;1000.0;  4.0000001E-01;0.0;0;0.0;0.0;0.0;0;0.0;  1.0000000E+04;  0.0000000E+00;  0.0000000E+00;  1.0000000E+04;  0.0000000E+00;  1.0000000E+04;0.0;0.0;0.0;0.0
  2.0799999E+00;  9.9999998E-03;  5.9999999E-02;756;0.0;0.0;0.0;1000.0;  4.0000001E-01;0.0;0;0.0;0.0;0.0;0;0.0;  1.0000000E+04;  0.0000000E+00;  0.0000000E+00;  1.0000000E+04;  0.0000000E+00;  1.0000000E+04;0.0;0.0;0.0;0.0
  2.0799999E+00;  9.9999998E-03;  7.9999998E-02;757;0.0;0.0;0.0;1000.0;  4.0000001E-01;0.0;0;0.0;0.0;0.0;0;0.0;  1.0000000E+04;  0.0000000E+00;  0.0000000E+00;  1.0000000E+04;  0.0000000E+00;  1.0000000E+04;0.0;0.0;0.0;0.0
  2.0799999E+00;  9.9999998E-03;  1.0000000E-01;758;0.0;0.0;0.0;1000.0;  4.0000001E-01;0.0;0;0.0;0.0;0.0;0;0.0;  1.0000000E+04;  0.0000000E+00;  0.0000000E+00;  1.0000000E+04;  0.0000000E+00;  1.0000000E+04;0.0;0.0;0.0;0.0
  2.0799999E+00;  9.9999998E-03;  1.2000000E-01;759;0.0;0.0;0.0;1000.0;  4.0000001E-01;0.0;0;0.0;0.0;0.0;0;0.0;  1.0000000E+04;  0.0000000E+00;  0.0000000E+00;  1.0000000E+04;  0.0000000E+00;  1.0000000E+04;0.0;0.0;0.0;0.0
  2.0799999E+00;  9.9999998E-03;  1.4000000E-01;760;0.0;0.0;0.0;1000.0;  4.0000001E-01;0.0;0;0.0;0.0;0.0;0;0.0;  1.0000000E+04;  0.0000000E+00;  0.0000000E+00;  1.0000000E+04;  0.0000000E+00;  1.0000000E+04;0.0;0.0;0.0;0.0
  2.0799999E+00;  9.9999998E-03;  1.6000000E-01;761;0.0;0.0;0.0;1000.0;  4.0000001E-01;0.0;0;0.0;0.0;0.0;0;0.0;  1.0000000E+04;  0.0000000E+00;  0.0000000E+00;  1.0000000E+04;  0.0000000E+00;  1.0000000E+04;0.0;0.0;0.0;0.0
  2.0799999E+00;  9.9999998E-03;  1.8000001E-01;762;0.0;0.0;0.0;1000.0;  4.0000001E-01;0.0;0;0.0;0.0;0.0;0;0.0;  1.0000000E+04;  0.0000000E+00;  0.0000000E+00;  1.0000000E+04;  0.0000000E+00;  1.0000000E+04;0.0;0.0;0.0;0.0
  2.0799999E+00;  9.9999998E-03;  2.0000000E-01;763;0.0;0.0;0.0;1000.0;  4.0000001E-01;0.0;0;0.0;0.0;0.0;0;0.0;  1.0000000E+04;  0.0000000E+00;  0.0000000E+00;  1.0000000E+04;  0.0000000E+00;  1.0000000E+04;0.0;0.0;0.0;0.0
  2.0799999E+00;  9.9999998E-03;  2.2000000E-01;764;0.0;0.0;0.0;1000.0;  4.0000001E-01;0.0;0;0.0;0.0;0.0;0;0.0;  1.0000000E+04;  0.0000000E+00;  0.0000000E+00;  1.0000000E+04;  0.0000000E+00;  1.0000000E+04;0.0;0.0;0.0;0.0
  2.0799999E+00;  9.9999998E-03;  2.3999999E-01;765;0.0;0.0;0.0;1000.0;  4.0000001E-01;0.0;0;0.0;0.0;0.0;0;0.0;  1.0000000E+04;  0.0000000E+00;  0.0000000E+00;  1.0000000E+04;  0.0000000E+00;  1.0000000E+04;0.0;0.0;0.0;0.0
  2.0799999E+00;  9.9999998E-03;  2.5999999E-01;766;0.0;0.0;0.0;1000.0;  4.0000001E-01;0.0;0;0.0;0.0;0.0;0;0.0;  1.0000000E+04;  0.0000000E+00;  0.0000000E+00;  1.0000000E+04;  0.0000000E+00;  1.0000000E+04;0.0;0.0;0.0;0.0
  2.0799999E+00;  9.9999998E-03;  2.8000000E-01;767;0.0;0.0;0.0;1000.0;  4.0000001E-01;0.0;0;0.0;0.0;0.0;0;0.0;  1.0000000E+04;  0.0000000E+00;  0.0000000E+00;  1.0000000E+04;  0.0000000E+00;  1.0000000E+04;0.0;0.0;0.0;0.0
  2.0799999E+00;  9.9999998E-03;  3.0000001E-01;768;0.0;0.0;0.0;1000.0;  4.0000001E-01;0.0;0;0.0;0.0;0.0;0;0.0;  1.0000000E+04;  0.0000000E+00;  0.0000000E+00;  1.0000000E+04;  0.0000000E+00;  1.0000000E+04;0.0;0.0;0.0;0.0
  2.0799999E+00;  9.9999998E-03;  3.1999999E-01;769;0.0;0.0;0.0;1000.0;  4.0000001E-01;0.0;0;0.0;0.0;0.0;0;0.0;  1.0000000E+04;  0.0000000E+00;  0.0000000E+00;  1.0000000E+04;  0.0000000E+00;  1.0000000E+04;0.0;0.0;0.0;0.0
  2.0799999E+00;  9.9999998E-03;  3.4000000E-01;770;0.0;0.0;0.0;1000.0;  4.0000001E-01;0.0;0;0.0;0.0;0.0;0;0.0;  1.0000000E+04;  0.0000000E+00;  0.0000000E+00;  1.0000000E+04;  0.0000000E+00;  1.0000000E+04;0.0;0.0;0.0;0.0
  2.0799999E+00;  9.9999998E-03;  3.6000001E-01;771;0.0;0.0;0.0;1000.0;  4.0000001E-01;0.0;0;0.0;0.0;0.0;0;0.0;  1.0000000E+04;  0.0000000E+00;  0.0000000E+00;  1.0000000E+04;  0.0000000E+00;  1.0000000E+04;0.0;0.0;0.0;0.0
  2.0799999E+00;  9.9999998E-03;  3.8000000E-01;772;0.0;0.0;0.0;1000.0;  4.0000001E-01;0.0;0;0.0;0.0;0.0;0;0.0;  1.0000000E+04;  0.0000000E+00;  0.0000000E+00;  1.0000000E+04;  0.0000000E+00;  1.0000000E+04;0.0;0.0;0.0;0.0
  2.0799999E+00;  9.9999998E-03;  4.0000001E-01;773;0.0;0.0;0.0;1000.0;  4.0000001E-01;0.0;0;0.0;0.0;0.0;0;0.0;  1.0000000E+04;  0.0000000E+00;  0.0000000E+00;  1.0000000E+04;  0.0000000E+00;  1.0000000E+04;0.0;0.0;0.0;0.0
  2.0999999E+00;  9.9999998E-03; -4.0000001E-01;774;0.0;0.0;0.0;1000.0;  4.0000001E-01;0.0;0;0.0;0.0;0.0;0;0.0;  1.0000000E+04;  0.0000000E+00;  0.0000000E+00;  1.0000000E+04;  0.0000000E+00;  1.0000000E+04;0.0;0.0;0.0;0.0
  2.0999999E+00;  9.9999998E-03; -3.8000000E-01;775;0.0;0.0;0.0;1000.0;  4.0000001E-01;0.0;0;0.0;0.0;0.0;0;0.0;  1.0000000E+04;  0.0000000E+00;  0.0000000E+00;  1.0000000E+04;  0.0000000E+00;  1.0000000E+04;0.0;0.0;0.0;0.0
  2.0999999E+00;  9.9999998E-03; -3.6000001E-01;776;0.0;0.0;0.0;1000.0;  4.0000001E-01;0.0;0;0.0;0.0;0.0;0;0.0;  1.0000000E+04;  0.0000000E+00;  0.0000000E+00;  1.0000000E+04;  0.0000000E+00;  1.0000000E+04;0.0;0.0;0.0;0.0
  2.0999999E+00;  9.9999998E-03; -3.4000000E-01;777;0.0;0.0;0.0;1000.0;  4.0000001E-01;0.0;0;0.0;0.0;0.0;0;0.0;  1.0000000E+04;  0.0000000E+00;  0.0000000E+00;  1.0000000E+04;  0.0000000E+00;  1.0000000E+04;0.0;0.0;0.0;0.0
  2.0999999E+00;  9.9999998E-03; -3.1999999E-01;778;0.0;0.0;0.0;1000.0;  4.0000001E-01;0.0;0;0.0;0.0;0.0;0;0.0;  1.0000000E+04;  0.0000000E+00;  0.0000000E+00;  1.0000000E+04;  0.0000000E+00;  1.0000000E+04;0.0;0.0;0.0;0.0
  2.0999999E+00;  9.9999998E-03; -3.0000001E-01;779;0.0;0.0;0.0;1000.0;  4.0000001E-01;0.0;0;0.0;0.0;0.0;0;0.0;  1.0000000E+04;  0.0000000E+00;  0.0000000E+00;  1.0000000E+04;  0.0000000E+00;  1.0000000E+04;0.0;0.0;0.0;0.0
  2.0999999E+00;  9.9999998E-03; -2.8000000E-01;780;0.0;0.0;0.0;1000.0;  4.0000001E-01;0.0;0;0.0;0.0;0.0;0;0.0;  1.0000000E+04;  0.0000000E+00;  0.0000000E+00;  1.0000000E+04;  0.0000000E+00;  1.0000000E+04;0.0;0.0;0.0;0.0
  2.0999999E+00;  9.9999998E-03; -2.5999999E-01;781;0.0;0.0;0.0;1000.0;  4.0000001E-01;0.0;0;0.0;0.0;0.0;0;0.0;  1.0000000E+04;  0.0000000E+00;  0.0000000E+00;  1.0000000E+04;  0.0000000E+00;  1.0000000E+04;0.0;0.0;0.0;0.0
  2.0999999E+00;  9.9999998E-03; -2.3999999E-01;782;0.0;0.0;0.0;1000.0;  4.0000001E-01;0.0;0;0.0;0.0;0.0;0;0.0;  1.0000000E+04;  0.0000000E+00;  0.0000000E+00;  1.0000000E+04;  0.0000000E+00;  1.0000000E+04;0.0;0.0;0.0;0.0
  2.0999999E+00;  9.9999998E-03; -2.2000000E-01;783;0.0;0.0;0.0;1000.0;  4.0000001E-01;0.0;0;0.0;0.0;0.0;0;0.0;  1.0000000E+04;  0.0000000E+00;  0.0000000E+00;  1.0000000E+04;  0.0000000E+00;  1.0000000E+04;0.0;0.0;0.0;0.0
  2.0999999E+00;  9.9999998E-03; -2.0000000E-01;784;0.0;0.0;0.0;1000.0;  4.0000001E-01;0.0;0;0.0;0.0;0.0;0;0.0;  1.0000000E+04;  0.0000000E+00;  0.0000000E+00;  1.0000000E+04;  0.0000000E+00;  1.0000000E+04;0.0;0.0;0.0;0.0
  2.0999999E+00;  9.9999998E-03; -1.8000001E-01;785;0.0;0.0;0.0;1000.0;  4.0000001E-01;0.0;0;0.0;0.0;0.0;0;0.0;  1.0000000E+04;  0.0000000E+00;  0.0000000E+00;  1.0000000E+04;  0.0000000E+00;  1.0000000E+04;0.0;0.0;0.0;0.0
  2.0999999E+00;  9.9999998E-03; -1.6000000E-01;786;0.0;0.0;0.0;1000.0;  4.0000001E-01;0.0;0;0.0;0.0;0.0;0;0.0;  1.0000000E+04;  0.0000000E+00;  0.0000000E+00;  1.0000000E+04;  0.0000000E+00;  1.0000000E+04;0.0;0.0;0.0;0.0
  2.0999999E+00;  9.9999998E-03; -1.4000000E-01;787;0.0;0.0;0.0;1000.0;  4.0000001E-01;0.0;0;0.0;0.0;0.0;0;0.0;  1.0000000E+04;  0.0000000E+00;  0.0000000E+00;  1.0000000E+04;  0.0000000E+00;  1.0000000E+04;0.0;0.0;0.0;0.0
  2.0999999E+00;  9.9999998E-03; -1.2000000E-01;788;0.0;0.0;0.0;1000.0;  4.0000001E-01;0.0;0;0.0;0.0;0.0;0;0.0;  1.0000000E+04;  0.0000000E+00;  0.0000000E+00;  1.0000000E+04;  0.0000000E+00;  1.0000000E+04;0.0;0.0;0.0;0.0
  2.0999999E+00;  9.9999998E-03; -1.0000000E-01;789;0.0;0.0;0.0;1000.0;  4.0000001E-01;0.0;0;0.0;0.0;0.0;0;0.0;  1.0000000E+04;  0.0000000E+00;  0.0000000E+00;  1.0000000E+04;  0.0000000E+00;  1.0000000E+04;0.0;0.0;0.0;0.0
  2.0999999E+00;  9.9999998E-03; -7.9999998E-02;790;0.0;0.0;0.0;1000.0;  4.0000001E-01;0.0;0;0.0;0.0;0.0;0;0.0;  1.0000000E+04;  0.0000000E+00;  0.0000000E+00;  1.0000000E+04;  0.0000000E+00;  1.0000000E+04;0.0;0.0;0.0;0.0
  2.0999999E+00;  9.9999998E-03; -5.9999999E-02;791;0.0;0.0;0.0;1000.0;  4.0000001E-01;0.0;0;0.0;0.0;0.0;0;0.0;  1.0000000E+04;  0.0000000E+00;  0.0000000E+00;  1.0000000E+04;  0.0000000E+00;  1.0000000E+04;0.0;0.0;0.0;0.0
  2.0999999E+00;  9.9999998E-03; -3.9999999E-02;792;0.0;0.0;0.0;1000.0;  4.0000001E-01;0.0;0;0.0;0.0;0.0;0;0.0;  1.0000000E+04;  0.0000000E+00;  0.0000000E+00;  1.0000000E+04;  0.0000000E+00;  1.0000000E+04;0.0;0.0;0.0;0.0
  2.0999999E+00;  9.9999998E-03; -2.0000000E-02;793;0.0;0.0;0.0;1000.0;  4.0000001E-01;0.0;0;0.0;0.0;0.0;0;0.0;  1.0000000E+04;  0.0000000E+00;  0.0000000E+00;  1.0000000E+04;  0.0000000E+00;  1.0000000E+04;0.0;0.0;0.0;0.0
  2.0999999E+00;  9.9999998E-03;  0.0000000E+00;794;0.0;0.0;0.0;1000.0;  4.0000001E-01;0.0;0;0.0;0.0;0.0;0;0.0;  1.0000000E+04;  0.0000000E+00;  0.0000000E+00;  1.0000000E+04;  0.0000000E+00;  1.0000000E+04;0.0;0.0;0.0;0.0
  2.0999999E+00;  9.9999998E-03;  2.0000000E-02;795;0.0;0.0;0.0;1000.0;  4.0000001E-01;0.0;0;0.0;0.0;0.0;0;0.0;  1.0000000E+04;  0.0000000E+00;  0.0000000E+00;  1.0000000E+04;  0.0000000E+00;  1.0000000E+04;0.0;0.0;0.0;0.0
  2.0999999E+00;  9.9999998E-03;  3.9999999E-02;796;0.0;0.0;0.0;1000.0;  4.0000001E-01;0.0;0;0.0;0.0;0.0;0;0.0;  1.0000000E+04;  0.0000000E+00;  0.0000000E+00;  1.0000000E+04;  0.0000000E+00;  1.0000000E+04;0.0;0.0;0.0;0.0
  2.0999999E+00;  9.9999998E-03;  5.9999999E-02;797;0.0;0.0;0.0;1000.0;  4.0000001E-01;0.0;0;0.0;0.0;0.0;0;0.0;  1.0000000E+04;  0.0000000E+00;  0.0000000E+00;  1.0000000E+04;  0.0000000E+00;  1.0000000E+04;0.0;0.0;0.0;0.0
  2.0999999E+00;  9.9999998E-03;  7.9999998E-02;798;0.0;0.0;0.0;1000.0;  4.0000001E-01;0.0;0;0.0;0.0;0.0;0;0.0;  1.0000000E+04;  0.0000000E+00;  0.0000000E+00;  1.0000000E+04;  0.0000000E+00;  1.0000000E+04;0.0;0.0;0.0;0.0
  2.0999999E+00;  9.9999998E-03;  1.0000000E-01;799;0.0;0.0;0.0;1000.0;  4.0000001E-01;0.0;0;0.0;0.0;0.0;0;0.0;  1.0000000E+04;  0.0000000E+00;  0.0000000E+00;  1.0000000E+04;  0.0000000E+00;  1.0000000E+04;0.0;0.0;0.0;0.0
  2.0999999E+00;  9.9999998E-03;  1.2000000E-01;800;0.0;0.0;0.0;1000.0;  4.0000001E-01;0.0;0;0.0;0.0;0.0;0;0.0;  1.0000000E+04;  0.0000000E+00;  0.0000000E+00;  1.0000000E+04;  0.0000000E+00;  1.0000000E+04;0.0;0.0;0.0;0.0
  2.0999999E+00;  9.9999998E-03;  1.4000000E-01;801;0.0;0.0;0.0;1000.0;  4.0000001E-01;0.0;0;0.0;0.0;0.0;0;0.0;  1.0000000E+04;  0.0000000E+00;  0.0000000E+00;  1.0000000E+04;  0.0000000E+00;  1.0000000E+04;0.0;0.0;0.0;0.0
  2.0999999E+00;  9.9999998E-03;  1.6000000E-01;802;0.0;0.0;0.0;1000.0;  4.0000001E-01;0.0;0;0.0;0.0;0.0;0;0.0;  1.0000000E+04;  0.0000000E+00;  0.0000000E+00;  1.0000000E+04;  0.0000000E+00;  1.0000000E+04;0.0;0.0;0.0;0.0
  2.0999999E+00;  9.9999998E-03;  1.8000001E-01;803;0.0;0.0;0.0;1000.0;  4.0000001E-01;0.0;0;0.0;0.0;0.0;0;0.0;  1.0000000E+04;  0.0000000E+00;  0.0000000E+00;  1.0000000E+04;  0.0000000E+00;  1.0000000E+04;0.0;0.0;0.0;0.0
  2.0999999E+00;  9.9999998E-03;  2.0000000E-01;804;0.0;0.0;0.0;1000.0;  4.0000001E-01;0.0;0;0.0;0.0;0.0;0;0.0;  1.0000000E+04;  0.0000000E+00;  0.0000000E+00;  1.0000000E+04;  0.0000000E+00;  1.0000000E+04;0.0;0.0;0.0;0.0
  2.0999999E+00;  9.9999998E-03;  2.2000000E-01;805;0.0;0.0;0.0;1000.0;  4.0000001E-01;0.0;0;0.0;0.0;0.0;0;0.0;  1.0000000E+04;  0.0000000E+00;  0.0000000E+00;  1.0000000E+04;  0.0000000E+00;  1.0000000E+04;0.0;0.0;0.0;0.0
  2.0999999E+00;  9.9999998E-03;  2.3999999E-01;806;0.0;0.0;0.0;1000.0;  4.0000001E-01;0.0;0;0.0;0.0;0.0;0;0.0;  1.0000000E+04;  0.0000000E+00;  0.0000000E+00;  1.0000000E+04;  0.0000000E+00;  1.0000000E+04;0.0;0.0;0.0;0.0
  2.0999999E+00;  9.9999998E-03;  2.5999999E-01;807;0.0;0.0;0.0;1000.0;  4.0000001E-01;0.0;0;0.0;0.0;0.0;0;0.0;  1.0000000E+04;  0.0000000E+00;  0.0000000E+00;  1.0000000E+04;  0.0000000E+00;  1.0000000E+04;0.0;0.0;0.0;0.0
  2.0999999E+00;  9.9999998E-03;  2.8000000E-01;808;0.0;0.0;0.0;1000.0;  4.0000001E-01;0.0;0;0.0;0.0;0.0;0;0.0;  1.0000000E+04;  0.0000000E+00;  0.0000000E+00;  1.0000000E+04;  0.0000000E+00;  1.0000000E+04;0.0;0.0;0.0;0.0
  2.0999999E+00;  9.9999998E-03;  3.0000001E-01;809;0.0;0.0;0.0;1000.0;  4.0000001E-01;0.0;0;0.0;0.0;0.0;0;0.0;  1.0000000E+04;  0.0000000E+00;  0.0000000E+00;  1.0000000E+04;  0.0000000E+00;  1.0000000E+04;0.0;0.0;0.0;0.0
  2.0999999E+00;  9.9999998E-03;  3.1999999E-01;810;0.0;0.0;0.0;1000.0;  4.0000001E-01;0.0;0;0.0;0.0;0.0;0;0.0;  1.0000000E+04;  0.0000000E+00;  0.0000000E+00;  1.0000000E+04;  0.0000000E+00;  1.0000000E+04;0.0;0.0;0.0;0.0
  2.0999999E+00;  9.9999998E-03;  3.4000000E-01;811;0.0;0.0;0.0;1000.0;  4.0000001E-01;0.0;0;0.0;0.0;0.0;0;0.0;  1.0000000E+04;  0.0000000E+00;  0.0000000E+00;  1.0000000E+04;  0.0000000E+00;  1.0000000E+04;0.0;0.0;0.0;0.0
  2.0999999E+00;  9.9999998E-03;  3.6000001E-01;812;0.0;0.0;0.0;1000.0;  4.0000001E-01;0.0;0;0.0;0.0;0.0;0;0.0;  1.0000000E+04;  0.0000000E+00;  0.0000000E+00;  1.0000000E+04;  0.0000000E+00;  1.0000000E+04;0.0;0.0;0.0;0.0
  2.0999999E+00;  9.9999998E-03;  3.8000000E-01;813;0.0;0.0;0.0;1000.0;  4.0000001E-01;0.0;0;0.0;0.0;0.0;0;0.0;  1.0000000E+04;  0.0000000E+00;  0.0000000E+00;  1.0000000E+04;  0.0000000E+00;  1.0000000E+04;0.0;0.0;0.0;0.0
  2.0999999E+00;  9.9999998E-03;  4.0000001E-01;814;0.0;0.0;0.0;1000.0;  4.0000001E-01;0.0;0;0.0;0.0;0.0;0;0.0;  1.0000000E+04;  0.0000000E+00;  0.0000000E+00;  1.0000000E+04;  0.0000000E+00;  1.0000000E+04;0.0;0.0;0.0;0.0
  2.1199999E+00;  9.9999998E-03; -4.1999999E-01;815;0.0;0.0;0.0;1000.0;  4.0000001E-01;0.0;0;0.0;0.0;0.0;0;0.0;  1.0000000E+04;  0.0000000E+00;  0.0000000E+00;  1.0000000E+04;  0.0000000E+00;  1.0000000E+04;0.0;0.0;0.0;0.0
  2.1199999E+00;  9.9999998E-03; -4.0000001E-01;816;0.0;0.0;0.0;1000.0;  4.0000001E-01;0.0;0;0.0;0.0;0.0;0;0.0;  1.0000000E+04;  0.0000000E+00;  0.0000000E+00;  1.0000000E+04;  0.0000000E+00;  1.0000000E+04;0.0;0.0;0.0;0.0
  2.1199999E+00;  9.9999998E-03; -3.8000000E-01;817;0.0;0.0;0.0;1000.0;  4.0000001E-01;0.0;0;0.0;0.0;0.0;0;0.0;  1.0000000E+04;  0.0000000E+00;  0.0000000E+00;  1.0000000E+04;  0.0000000E+00;  1.0000000E+04;0.0;0.0;0.0;0.0
  2.1199999E+00;  9.9999998E-03; -3.6000001E-01;818;0.0;0.0;0.0;1000.0;  4.0000001E-01;0.0;0;0.0;0.0;0.0;0;0.0;  1.0000000E+04;  0.0000000E+00;  0.0000000E+00;  1.0000000E+04;  0.0000000E+00;  1.0000000E+04;0.0;0.0;0.0;0.0
  2.1199999E+00;  9.9999998E-03; -3.4000000E-01;819;0.0;0.0;0.0;1000.0;  4.0000001E-01;0.0;0;0.0;0.0;0.0;0;0.0;  1.0000000E+04;  0.0000000E+00;  0.0000000E+00;  1.0000000E+04;  0.0000000E+00;  1.0000000E+04;0.0;0.0;0.0;0.0
  2.1199999E+00;  9.9999998E-03; -3.1999999E-01;820;0.0;0.0;0.0;1000.0;  4.0000001E-01;0.0;0;0.0;0.0;0.0;0;0.0;  1.0000000E+04;  0.0000000E+00;  0.0000000E+00;  1.0000000E+04;  0.0000000E+00;  1.0000000E+04;0.0;0.0;0.0;0.0
  2.1199999E+00;  9.9999998E-03; -3.0000001E-01;821;0.0;0.0;0.0;1000.0;  4.0000001E-01;0.0;0;0.0;0.0;0.0;0;0.0;  1.0000000E+04;  0.0000000E+00;  0.0000000E+00;  1.0000000E+04;  0.0000000E+00;  1.0000000E+04;0.0;0.0;0.0;0.0
  2.1199999E+00;  9.9999998E-03; -2.8000000E-01;822;0.0;0.0;0.0;1000.0;  4.0000001E-01;0.0;0;0.0;0.0;0.0;0;0.0;  1.0000000E+04;  0.0000000E+00;  0.0000000E+00;  1.0000000E+04;  0.0000000E+00;  1.0000000E+04;0.0;0.0;0.0;0.0
  2.1199999E+00;  9.9999998E-03; -2.5999999E-01;823;0.0;0.0;0.0;1000.0;  4.0000001E-01;0.0;0;0.0;0.0;0.0;0;0.0;  1.0000000E+04;  0.0000000E+00;  0.0000000E+00;  1.0000000E+04;  0.0000000E+00;  1.0000000E+04;0.0;0.0;0.0;0.0
  2.1199999E+00;  9.9999998E-03; -2.3999999E-01;824;0.0;0.0;0.0;1000.0;  4.0000001E-01;0.0;0;0.0;0.0;0.0;0;0.0;  1.0000000E+04;  0.0000000E+00;  0.0000000E+00;  1.0000000E+04;  0.0000000E+00;  1.0000000E+04;0.0;0.0;0.0;0.0
  2.1199999E+00;  9.9999998E-03; -2.2000000E-01;825;0.0;0.0;0.0;1000.0;  4.0000001E-01;0.0;0;0.0;0.0;0.0;0;0.0;  1.0000000E+04;  0.0000000E+00;  0.0000000E+00;  1.0000000E+04;  0.0000000E+00;  1.0000000E+04;0.0;0.0;0.0;0.0
  2.1199999E+00;  9.9999998E-03; -2.0000000E-01;826;0.0;0.0;0.0;1000.0;  4.0000001E-01;0.0;0;0.0;0.0;0.0;0;0.0;  1.0000000E+04;  0.0000000E+00;  0.0000000E+00;  1.0000000E+04;  0.0000000E+00;  1.0000000E+04;0.0;0.0;0.0;0.0
  2.1199999E+00;  9.9999998E-03; -1.8000001E-01;827;0.0;0.0;0.0;1000.0;  4.0000001E-01;0.0;0;0.0;0.0;0.0;0;0.0;  1.0000000E+04;  0.0000000E+00;  0.0000000E+00;  1.0000000E+04;  0.0000000E+00;  1.0000000E+04;0.0;0.0;0.0;0.0
  2.1199999E+00;  9.9999998E-03; -1.6000000E-01;828;0.0;0.0;0.0;1000.0;  4.0000001E-01;0.0;0;0.0;0.0;0.0;0;0.0;  1.0000000E+04;  0.0000000E+00;  0.0000000E+00;  1.0000000E+04;  0.0000000E+00;  1.0000000E+04;0.0;0.0;0.0;0.0
  2.1199999E+00;  9.9999998E-03; -1.4000000E-01;829;0.0;0.0;0.0;1000.0;  4.0000001E-01;0.0;0;0.0;0.0;0.0;0;0.0;  1.0000000E+04;  0.0000000E+00;  0.0000000E+00;  1.0000000E+04;  0.0000000E+00;  1.0000000E+04;0.0;0.0;0.0;0.0
  2.1199999E+00;  9.9999998E-03; -1.2000000E-01;830;0.0;0.0;0.0;1000.0;  4.0000001E-01;0.0;0;0.0;0.0;0.0;0;0.0;  1.0000000E+04;  0.0000000E+00;  0.0000000E+00;  1.0000000E+04;  0.0000000E+00;  1.0000000E+04;0.0;0.0;0.0;0.0
  2.1199999E+00;  9.9999998E-03; -1.0000000E-01;831;0.0;0.0;0.0;1000.0;  4.0000001E-01;0.0;0;0.0;0.0;0.0;0;0.0;  1.0000000E+04;  0.0000000E+00;  0.0000000E+00;  1.0000000E+04;  0.0000000E+00;  1.0000000E+04;0.0;0.0;0.0;0.0
  2.1199999E+00;  9.9999998E-03; -7.9999998E-02;832;0.0;0.0;0.0;1000.0;  4.0000001E-01;0.0;0;0.0;0.0;0.0;0;0.0;  1.0000000E+04;  0.0000000E+00;  0.0000000E+00;  1.0000000E+04;  0.0000000E+00;  1.0000000E+04;0.0;0.0;0.0;0.0
  2.1199999E+00;  9.9999998E-03; -5.9999999E-02;833;0.0;0.0;0.0;1000.0;  4.0000001E-01;0.0;0;0.0;0.0;0.0;0;0.0;  1.0000000E+04;  0.0000000E+00;  0.0000000E+00;  1.0000000E+04;  0.0000000E+00;  1.0000000E+04;0.0;0.0;0.0;0.0
  2.1199999E+00;  9.9999998E-03; -3.9999999E-02;834;0.0;0.0;0.0;1000.0;  4.0000001E-01;0.0;0;0.0;0.0;0.0;0;0.0;  1.0000000E+04;  0.0000000E+00;  0.0000000E+00;  1.0000000E+04;  0.0000000E+00;  1.0000000E+04;0.0;0.0;0.0;0.0
  2.1199999E+00;  9.9999998E-03; -2.0000000E-02;835;0.0;0.0;0.0;1000.0;  4.0000001E-01;0.0;0;0.0;0.0;0.0;0;0.0;  1.0000000E+04;  0.0000000E+00;  0.0000000E+00;  1.0000000E+04;  0.0000000E+00;  1.0000000E+04;0.0;0.0;0.0;0.0
  2.1199999E+00;  9.9999998E-03;  0.0000000E+00;836;0.0;0.0;0.0;1000.0;  4.0000001E-01;0.0;0;0.0;0.0;0.0;0;0.0;  1.0000000E+04;  0.0000000E+00;  0.0000000E+00;  1.0000000E+04;  0.0000000E+00;  1.0000000E+04;0.0;0.0;0.0;0.0
  2.1199999E+00;  9.9999998E-03;  2.0000000E-02;837;0.0;0.0;0.0;1000.0;  4.0000001E-01;0.0;0;0.0;0.0;0.0;0;0.0;  1.0000000E+04;  0.0000000E+00;  0.0000000E+00;  1.0000000E+04;  0.0000000E+00;  1.0000000E+04;0.0;0.0;0.0;0.0
  2.1199999E+00;  9.9999998E-03;  3.9999999E-02;838;0.0;0.0;0.0;1000.0;  4.0000001E-01;0.0;0;0.0;0.0;0.0;0;0.0;  1.0000000E+04;  0.0000000E+00;  0.0000000E+00;  1.0000000E+04;  0.0000000E+00;  1.0000000E+04;0.0;0.0;0.0;0.0
  2.1199999E+00;  9.9999998E-03;  5.9999999E-02;839;0.0;0.0;0.0;1000.0;  4.0000001E-01;0.0;0;0.0;0.0;0.0;0;0.0;  1.0000000E+04;  0.0000000E+00;  0.0000000E+00;  1.0000000E+04;  0.0000000E+00;  1.0000000E+04;0.0;0.0;0.0;0.0
  2.1199999E+00;  9.9999998E-03;  7.9999998E-02;840;0.0;0.0;0.0;1000.0;  4.0000001E-01;0.0;0;0.0;0.0;0.0;0;0.0;  1.0000000E+04;  0.0000000E+00;  0.0000000E+00;  1.0000000E+04;  0.0000000E+00;  1.0000000E+04;0.0;0.0;0.0;0.0
  2.1199999E+00;  9.9999998E-03;  1.0000000E-01;841;0.0;0.0;0.0;1000.0;  4.0000001E-01;0.0;0;0.0;0.0;0.0;0;0.0;  1.0000000E+04;  0.0000000E+00;  0.0000000E+00;  1.0000000E+04;  0.0000000E+00;  1.0000000E+04;0.0;0.0;0.0;0.0
  2.1199999E+00;  9.9999998E-03;  1.2000000E-01;842;0.0;0.0;0.0;1000.0;  4.0000001E-01;0.0;0;0.0;0.0;0.0;0;0.0;  1.0000000E+04;  0.0000000E+00;  0.0000000E+00;  1.0000000E+04;  0.0000000E+00;  1.0000000E+04;0.0;0.0;0.0;0.0
  2.1199999E+00;  9.9999998E-03;  1.4000000E-01;843;0.0;0.0;0.0;1000.0;  4.0000001E-01;0.0;0;0.0;0.0;0.0;0;0.0;  1.0000000E+04;  0.0000000E+00;  0.0000000E+00;  1.0000000E+04;  0.0000000E+00;  1.0000000E+04;0.0;0.0;0.0;0.0
  2.1199999E+00;  9.9999998E-03;  1.6000000E-01;844;0.0;0.0;0.0;1000.0;  4.0000001E-01;0.0;0;0.0;0.0;0.0;0;0.0;  1.0000000E+04;  0.0000000E+00;  0.0000000E+00;  1.0000000E+04;  0.0000000E+00;  1.0000000E+04;0.0;0.0;0.0;0.0
  2.1199999E+00;  9.9999998E-03;  1.8000001E-01;845;0.0;0.0;0.0;1000.0;  4.0000001E-01;0.0;0;0.0;0.0;0.0;0;0.0;  1.0000000E+04;  0.0000000E+00;  0.0000000E+00;  1.0000000E+04;  0.0000000E+00;  1.0000000E+04;0.0;0.0;0.0;0.0
  2.1199999E+00;  9.9999998E-03;  2.0000000E-01;846;0.0;0.0;0.0;1000.0;  4.0000001E-01;0.0;0;0.0;0.0;0.0;0;0.0;  1.0000000E+04;  0.0000000E+00;  0.0000000E+00;  1.0000000E+04;  0.0000000E+00;  1.0000000E+04;0.0;0.0;0.0;0.0
  2.1199999E+00;  9.9999998E-03;  2.2000000E-01;847;0.0;0.0;0.0;1000.0;  4.0000001E-01;0.0;0;0.0;0.0;0.0;0;0.0;  1.0000000E+04;  0.0000000E+00;  0.0000000E+00;  1.0000000E+04;  0.0000000E+00;  1.0000000E+04;0.0;0.0;0.0;0.0
  2.1199999E+00;  9.9999998E-03;  2.3999999E-01;848;0.0;0.0;0.0;1000.0;  4.0000001E-01;0.0;0;0.0;0.0;0.0;0;0.0;  1.0000000E+04;  0.0000000E+00;  0.0000000E+00;  1.0000000E+04;  0.0000000E+00;  1.0000000E+04;0.0;0.0;0.0;0.0
  2.1199999E+00;  9.9999998E-03;  2.5999999E-01;849;0.0;0.0;0.0;1000.0;  4.0000001E-01;0.0;0;0.0;0.0;0.0;0;0.0;  1.0000000E+04;  0.0000000E+00;  0.0000000E+00;  1.0000000E+04;  0.0000000E+00;  1.0000000E+04;0.0;0.0;0.0;0.0
  2.1199999E+00;  9.9999998E-03;  2.8000000E-01;850;0.0;0.0;0.0;1000.0;  4.0000001E-01;0.0;0;0.0;0.0;0.0;0;0.0;  1.0000000E+04;  0.0000000E+00;  0.0000000E+00;  1.0000000E+04;  0.0000000E+00;  1.0000000E+04;0.0;0.0;0.0;0.0
  2.1199999E+00;  9.9999998E-03;  3.0000001E-01;851;0.0;0.0;0.0;1000.0;  4.0000001E-01;0.0;0;0.0;0.0;0.0;0;0.0;  1.0000000E+04;  0.0000000E+00;  0.0000000E+00;  1.0000000E+04;  0.0000000E+00;  1.0000000E+04;0.0;0.0;0.0;0.0
  2.1199999E+00;  9.9999998E-03;  3.1999999E-01;852;0.0;0.0;0.0;1000.0;  4.0000001E-01;0.0;0;0.0;0.0;0.0;0;0.0;  1.0000000E+04;  0.0000000E+00;  0.0000000E+00;  1.0000000E+04;  0.0000000E+00;  1.0000000E+04;0.0;0.0;0.0;0.0
  2.1199999E+00;  9.9999998E-03;  3.4000000E-01;853;0.0;0.0;0.0;1000.0;  4.0000001E-01;0.0;0;0.0;0.0;0.0;0;0.0;  1.0000000E+04;  0.0000000E+00;  0.0000000E+00;  1.0000000E+04;  0.0000000E+00;  1.0000000E+04;0.0;0.0;0.0;0.0
  2.1199999E+00;  9.9999998E-03;  3.6000001E-01;854;0.0;0.0;0.0;1000.0;  4.0000001E-01;0.0;0;0.0;0.0;0.0;0;0.0;  1.0000000E+04;  0.0000000E+00;  0.0000000E+00;  1.0000000E+04;  0.0000000E+00;  1.0000000E+04;0.0;0.0;0.0;0.0
  2.1199999E+00;  9.9999998E-03;  3.8000000E-01;855;0.0;0.0;0.0;1000.0;  4.0000001E-01;0.0;0;0.0;0.0;0.0;0;0.0;  1.0000000E+04;  0.0000000E+00;  0.0000000E+00;  1.0000000E+04;  0.0000000E+00;  1.0000000E+04;0.0;0.0;0.0;0.0
  2.1199999E+00;  9.9999998E-03;  4.0000001E-01;856;0.0;0.0;0.0;1000.0;  4.0000001E-01;0.0;0;0.0;0.0;0.0;0;0.0;  1.0000000E+04;  0.0000000E+00;  0.0000000E+00;  1.0000000E+04;  0.0000000E+00;  1.0000000E+04;0.0;0.0;0.0;0.0
  2.1400001E+00;  9.9999998E-03; -3.8000000E-01;857;0.0;0.0;0.0;1000.0;  4.0000001E-01;0.0;0;0.0;0.0;0.0;0;0.0;  1.0000000E+04;  0.0000000E+00;  0.0000000E+00;  1.0000000E+04;  0.0000000E+00;  1.0000000E+04;0.0;0.0;0.0;0.0
  2.1400001E+00;  9.9999998E-03; -3.6000001E-01;858;0.0;0.0;0.0;1000.0;  4.0000001E-01;0.0;0;0.0;0.0;0.0;0;0.0;  1.0000000E+04;  0.0000000E+00;  0.0000000E+00;  1.0000000E+04;  0.0000000E+00;  1.0000000E+04;0.0;0.0;0.0;0.0
  2.1400001E+00;  9.9999998E-03; -3.4000000E-01;859;0.0;0.0;0.0;1000.0;  4.0000001E-01;0.0;0;0.0;0.0;0.0;0;0.0;  1.0000000E+04;  0.0000000E+00;  0.0000000E+00;  1.0000000E+04;  0.0000000E+00;  1.0000000E+04;0.0;0.0;0.0;0.0
  2.1400001E+00;  9.9999998E-03; -3.1999999E-01;860;0.0;0.0;0.0;1000.0;  4.0000001E-01;0.0;0;0.0;0.0;0.0;0;0.0;  1.0000000E+04;  0.0000000E+00;  0.0000000E+00;  1.0000000E+04;  0.0000000E+00;  1.0000000E+04;0.0;0.0;0.0;0.0
  2.1400001E+00;  9.9999998E-03; -3.0000001E-01;861;0.0;0.0;0.0;1000.0;  4.0000001E-01;0.0;0;0.0;0.0;0.0;0;0.0;  1.0000000E+04;  0.0000000E+00;  0.0000000E+00;  1.0000000E+04;  0.0000000E+00;  1.0000000E+04;0.0;0.0;0.0;0.0
  2.1400001E+00;  9.9999998E-03; -2.8000000E-01;862;0.0;0.0;0.0;1000.0;  4.0000001E-01;0.0;0;0.0;0.0;0.0;0;0.0;  1.0000000E+04;  0.0000000E+00;  0.0000000E+00;  1.0000000E+04;  0.0000000E+00;  1.0000000E+04;0.0;0.0;0.0;0.0
  2.1400001E+00;  9.9999998E-03; -2.5999999E-01;863;0.0;0.0;0.0;1000.0;  4.0000001E-01;0.0;0;0.0;0.0;0.0;0;0.0;  1.0000000E+04;  0.0000000E+00;  0.0000000E+00;  1.0000000E+04;  0.0000000E+00;  1.0000000E+04;0.0;0.0;0.0;0.0
  2.1400001E+00;  9.9999998E-03; -2.3999999E-01;864;0.0;0.0;0.0;1000.0;  4.0000001E-01;0.0;0;0.0;0.0;0.0;0;0.0;  1.0000000E+04;  0.0000000E+00;  0.0000000E+00;  1.0000000E+04;  0.0000000E+00;  1.0000000E+04;0.0;0.0;0.0;0.0
  2.1400001E+00;  9.9999998E-03; -2.2000000E-01;865;0.0;0.0;0.0;1000.0;  4.0000001E-01;0.0;0;0.0;0.0;0.0;0;0.0;  1.0000000E+04;  0.0000000E+00;  0.0000000E+00;  1.0000000E+04;  0.0000000E+00;  1.0000000E+04;0.0;0.0;0.0;0.0
  2.1400001E+00;  9.9999998E-03; -2.0000000E-01;866;0.0;0.0;0.0;1000.0;  4.0000001E-01;0.0;0;0.0;0.0;0.0;0;0.0;  1.0000000E+04;  0.0000000E+00;  0.0000000E+00;  1.0000000E+04;  0.0000000E+00;  1.0000000E+04;0.0;0.0;0.0;0.0
  2.1400001E+00;  9.9999998E-03; -1.8000001E-01;867;0.0;0.0;0.0;1000.0;  4.0000001E-01;0.0;0;0.0;0.0;0.0;0;0.0;  1.0000000E+04;  0.0000000E+00;  0.0000000E+00;  1.0000000E+04;  0.0000000E+00;  1.0000000E+04;0.0;0.0;0.0;0.0
  2.1400001E+00;  9.9999998E-03; -1.6000000E-01;868;0.0;0.0;0.0;1000.0;  4.0000001E-01;0.0;0;0.0;0.0;0.0;0;0.0;  1.0000000E+04;  0.0000000E+00;  0.0000000E+00;  1.0000000E+04;  0.0000000E+00;  1.0000000E+04;0.0;0.0;0.0;0.0
  2.1400001E+00;  9.9999998E-03; -1.4000000E-01;869;0.0;0.0;0.0;1000.0;  4.0000001E-01;0.0;0;0.0;0.0;0.0;0;0.0;  1.0000000E+04;  0.0000000E+00;  0.0000000E+00;  1.0000000E+04;  0.0000000E+00;  1.0000000E+04;0.0;0.0;0.0;0.0
  2.1400001E+00;  9.9999998E-03; -1.2000000E-01;870;0.0;0.0;0.0;1000.0;  4.0000001E-01;0.0;0;0.0;0.0;0.0;0;0.0;  1.0000000E+04;  0.0000000E+00;  0.0000000E+00;  1.0000000E+04;  0.0000000E+00;  1.0000000E+04;0.0;0.0;0.0;0.0
  2.1400001E+00;  9.9999998E-03; -1.0000000E-01;871;0.0;0.0;0.0;1000.0;  4.0000001E-01;0.0;0;0.0;0.0;0.0;0;0.0;  1.0000000E+04;  0.0000000E+00;  0.0000000E+00;  1.0000000E+04;  0.0000000E+00;  1.0000000E+04;0.0;0.0;0.0;0.0
  2.1400001E+00;  9.9999998E-03; -7.9999998E-02;872;0.0;0.0;0.0;1000.0;  4.0000001E-01;0.0;0;0.0;0.0;0.0;0;0.0;  1.0000000E+04;  0.0000000E+00;  0.0000000E+00;  1.0000000E+04;  0.0000000E+00;  1.0000000E+04;0.0;0.0;0.0;0.0
  2.1400001E+00;  9.9999998E-03; -5.9999999E-02;873;0.0;0.0;0.0;1000.0;  4.0000001E-01;0.0;0;0.0;0.0;0.0;0;0.0;  1.0000000E+04;  0.0000000E+00;  0.0000000E+00;  1.0000000E+04;  0.0000000E+00;  1.0000000E+04;0.0;0.0;0.0;0.0
  2.1400001E+00;  9.9999998E-03; -3.9999999E-02;874;0.0;0.0;0.0;1000.0;  4.0000001E-01;0.0;0;0.0;0.0;0.0;0;0.0;  1.0000000E+04;  0.0000000E+00;  0.0000000E+00;  1.0000000E+04;  0.0000000E+00;  1.0000000E+04;0.0;0.0;0.0;0.0
  2.1400001E+00;  9.9999998E-03; -2.0000000E-02;875;0.0;0.0;0.0;1000.0;  4.0000001E-01;0.0;0;0.0;0.0;0.0;0;0.0;  1.0000000E+04;  0.0000000E+00;  0.0000000E+00;  1.0000000E+04;  0.0000000E+00;  1.0000000E+04;0.0;0.0;0.0;0.0
  2.1400001E+00;  9.9999998E-03;  0.0000000E+00;876;0.0;0.0;0.0;1000.0;  4.0000001E-01;0.0;0;0.0;0.0;0.0;0;0.0;  1.0000000E+04;  0.0000000E+00;  0.0000000E+00;  1.0000000E+04;  0.0000000E+00;  1.0000000E+04;0.0;0.0;0.0;0.0
  2.1400001E+00;  9.9999998E-03;  2.0000000E-02;877;0.0;0.0;0.0;1000.0;  4.0000001E-01;0.0;0;0.0;0.0;0.0;0;0.0;  1.0000000E+04;  0.0000000E+00;  0.0000000E+00;  1.0000000E+04;  0.0000000E+00;  1.0000000E+04;0.0;0.0;0.0;0.0
  2.1400001E+00;  9.9999998E-03;  3.9999999E-02;878;0.0;0.0;0.0;1000.0;  4.0000001E-01;0.0;0;0.0;0.0;0.0;0;0.0;  1.0000000E+04;  0.0000000E+00;  0.0000000E+00;  1.0000000E+04;  0.0000000E+00;  1.0000000E+04;0.0;0.0;0.0;0.0
  2.1400001E+00;  9.9999998E-03;  5.9999999E-02;879;0.0;0.0;0.0;1000.0;  4.0000001E-01;0.0;0;0.0;0.0;0.0;0;0.0;  1.0000000E+04;  0.0000000E+00;  0.0000000E+00;  1.0000000E+04;  0.0000000E+00;  1.0000000E+04;0.0;0.0;0.0;0.0
  2.1400001E+00;  9.9999998E-03;  7.9999998E-02;880;0.0;0.0;0.0;1000.0;  4.0000001E-01;0.0;0;0.0;0.0;0.0;0;0.0;  1.0000000E+04;  0.0000000E+00;  0.0000000E+00;  1.0000000E+04;  0.0000000E+00;  1.0000000E+04;0.0;0.0;0.0;0.0
  2.1400001E+00;  9.9999998E-03;  1.0000000E-01;881;0.0;0.0;0.0;1000.0;  4.0000001E-01;0.0;0;0.0;0.0;0.0;0;0.0;  1.0000000E+04;  0.0000000E+00;  0.0000000E+00;  1.0000000E+04;  0.0000000E+00;  1.0000000E+04;0.0;0.0;0.0;0.0
  2.1400001E+00;  9.9999998E-03;  1.2000000E-01;882;0.0;0.0;0.0;1000.0;  4.0000001E-01;0.0;0;0.0;0.0;0.0;0;0.0;  1.0000000E+04;  0.0000000E+00;  0.0000000E+00;  1.0000000E+04;  0.0000000E+00;  1.0000000E+04;0.0;0.0;0.0;0.0
  2.1400001E+00;  9.9999998E-03;  1.4000000E-01;883;0.0;0.0;0.0;1000.0;  4.0000001E-01;0.0;0;0.0;0.0;0.0;0;0.0;  1.0000000E+04;  0.0000000E+00;  0.0000000E+00;  1.0000000E+04;  0.0000000E+00;  1.0000000E+04;0.0;0.0;0.0;0.0
  2.1400001E+00;  9.9999998E-03;  1.6000000E-01;884;0.0;0.0;0.0;1000.0;  4.0000001E-01;0.0;0;0.0;0.0;0.0;0;0.0;  1.0000000E+04;  0.0000000E+00;  0.0000000E+00;  1.0000000E+04;  0.0000000E+00;  1.0000000E+04;0.0;0.0;0.0;0.0
  2.1400001E+00;  9.9999998E-03;  1.8000001E-01;885;0.0;0.0;0.0;1000.0;  4.0000001E-01;0.0;0;0.0;0.0;0.0;0;0.0;  1.0000000E+04;  0.0000000E+00;  0.0000000E+00;  1.0000000E+04;  0.0000000E+00;  1.0000000E+04;0.0;0.0;0.0;0.0
  2.1400001E+00;  9.9999998E-03;  2.0000000E-01;886;0.0;0.0;0.0;1000.0;  4.0000001E-01;0.0;0;0.0;0.0;0.0;0;0.0;  1.0000000E+04;  0.0000000E+00;  0.0000000E+00;  1.0000000E+04;  0.0000000E+00;  1.0000000E+04;0.0;0.0;0.0;0.0
  2.1400001E+00;  9.9999998E-03;  2.2000000E-01;887;0.0;0.0;0.0;1000.0;  4.0000001E-01;0.0;0;0.0;0.0;0.0;0;0.0;  1.0000000E+04;  0.0000000E+00;  0.0000000E+00;  1.0000000E+04;  0.0000000E+00;  1.0000000E+04;0.0;0.0;0.0;0.0
  2.1400001E+00;  9.9999998E-03;  2.3999999E-01;888;0.0;0.0;0.0;1000.0;  4.0000001E-01;0.0;0;0.0;0.0;0.0;0;0.0;  1.0000000E+04;  0.0000000E+00;  0.0000000E+00;  1.0000000E+04;  0.0000000E+00;  1.0000000E+04;0.0;0.0;0.0;0.0
  2.1400001E+00;  9.9999998E-03;  2.5999999E-01;889;0.0;0.0;0.0;1000.0;  4.0000001E-01;0.0;0;0.0;0.0;0.0;0;0.0;  1.0000000E+04;  0.0000000E+00;  0.0000000E+00;  1.0000000E+04;  0.0000000E+00;  1.0000000E+04;0.0;0.0;0.0;0.0
  2.1400001E+00;  9.9999998E-03;  2.8000000E-01;890;0.0;0.0;0.0;1000.0;  4.0000001E-01;0.0;0;0.0;0.0;0.0;0;0.0;  1.0000000E+04;  0.0000000E+00;  0.0000000E+00;  1.0000000E+04;  0.0000000E+00;  1.0000000E+04;0.0;0.0;0.0;0.0
  2.1400001E+00;  9.9999998E-03;  3.0000001E-01;891;0.0;0.0;0.0;1000.0;  4.0000001E-01;0.0;0;0.0;0.0;0.0;0;0.0;  1.0000000E+04;  0.0000000E+00;  0.0000000E+00;  1.0000000E+04;  0.0000000E+00;  1.0000000E+04;0.0;0.0;0.0;0.0
  2.1400001E+00;  9.9999998E-03;  3.1999999E-01;892;0.0;0.0;0.0;1000.0;  4.0000001E-01;0.0;0;0.0;0.0;0.0;0;0.0;  1.0000000E+04;  0.0000000E+00;  0.0000000E+00;  1.0000000E+04;  0.0000000E+00;  1.0000000E+04;0.0;0.0;0.0;0.0
  2.1400001E+00;  9.9999998E-03;  3.4000000E-01;893;0.0;0.0;0.0;1000.0;  4.0000001E-01;0.0;0;0.0;0.0;0.0;0;0.0;  1.0000000E+04;  0.0000000E+00;  0.0000000E+00;  1.0000000E+04;  0.0000000E+00;  1.0000000E+04;0.0;0.0;0.0;0.0
  2.1400001E+00;  9.9999998E-03;  3.6000001E-01;894;0.0;0.0;0.0;1000.0;  4.0000001E-01;0.0;0;0.0;0.0;0.0;0;0.0;  1.0000000E+04;  0.0000000E+00;  0.0000000E+00;  1.0000000E+04;  0.0000000E+00;  1.0000000E+04;0.0;0.0;0.0;0.0
  2.1400001E+00;  9.9999998E-03;  3.8000000E-01;895;0.0;0.0;0.0;1000.0;  4.0000001E-01;0.0;0;0.0;0.0;0.0;0;0.0;  1.0000000E+04;  0.0000000E+00;  0.0000000E+00;  1.0000000E+04;  0.0000000E+00;  1.0000000E+04;0.0;0.0;0.0;0.0
  2.1400001E+00;  9.9999998E-03;  4.0000001E-01;896;0.0;0.0;0.0;1000.0;  4.0000001E-01;0.0;0;0.0;0.0;0.0;0;0.0;  1.0000000E+04;  0.0000000E+00;  0.0000000E+00;  1.0000000E+04;  0.0000000E+00;  1.0000000E+04;0.0;0.0;0.0;0.0
  2.1600001E+00;  9.9999998E-03; -2.8000000E-01;897;0.0;0.0;0.0;1000.0;  4.0000001E-01;0.0;0;0.0;0.0;0.0;0;0.0;  1.0000000E+04;  0.0000000E+00;  0.0000000E+00;  1.0000000E+04;  0.0000000E+00;  1.0000000E+04;0.0;0.0;0.0;0.0
  2.1600001E+00;  9.9999998E-03; -2.5999999E-01;898;0.0;0.0;0.0;1000.0;  4.0000001E-01;0.0;0;0.0;0.0;0.0;0;0.0;  1.0000000E+04;  0.0000000E+00;  0.0000000E+00;  1.0000000E+04;  0.0000000E+00;  1.0000000E+04;0.0;0.0;0.0;0.0
  2.1600001E+00;  9.9999998E-03; -2.3999999E-01;899;0.0;0.0;0.0;1000.0;  4.0000001E-01;0.0;0;0.0;0.0;0.0;0;0.0;  1.0000000E+04;  0.0000000E+00;  0.0000000E+00;  1.0000000E+04;  0.0000000E+00;  1.0000000E+04;0.0;0.0;0.0;0.0
  2.1600001E+00;  9.9999998E-03; -2.2000000E-01;900;0.0;0.0;0.0;1000.0;  4.0000001E-01;0.0;0;0.0;0.0;0.0;0;0.0;  1.0000000E+04;  0.0000000E+00;  0.0000000E+00;  1.0000000E+04;  0.0000000E+00;  1.0000000E+04;0.0;0.0;0.0;0.0
  2.1600001E+00;  9.9999998E-03; -2.0000000E-01;901;0.0;0.0;0.0;1000.0;  4.0000001E-01;0.0;0;0.0;0.0;0.0;0;0.0;  1.0000000E+04;  0.0000000E+00;  0.0000000E+00;  1.0000000E+04;  0.0000000E+00;  1.0000000E+04;0.0;0.0;0.0;0.0
  2.1600001E+00;  9.9999998E-03; -1.8000001E-01;902;0.0;0.0;0.0;1000.0;  4.0000001E-01;0.0;0;0.0;0.0;0.0;0;0.0;  1.0000000E+04;  0.0000000E+00;  0.0000000E+00;  1.0000000E+04;  0.0000000E+00;  1.0000000E+04;0.0;0.0;0.0;0.0
  2.1600001E+00;  9.9999998E-03; -1.6000000E-01;903;0.0;0.0;0.0;1000.0;  4.0000001E-01;0.0;0;0.0;0.0;0.0;0;0.0;  1.0000000E+04;  0.0000000E+00;  0.0000000E+00;  1.0000000E+04;  0.0000000E+00;  1.0000000E+04;0.0;0.0;0.0;0.0
  2.1600001E+00;  9.9999998E-03; -1.4000000E-01;904;0.0;0.0;0.0;1000.0;  4.0000001E-01;0.0;0;0.0;0.0;0.0;0;0.0;  1.0000000E+04;  0.0000000E+00;  0.0000000E+00;  1.0000000E+04;  0.0000000E+00;  1.0000000E+04;0.0;0.0;0.0;0.0
  2.1600001E+00;  9.9999998E-03; -1.2000000E-01;905;0.0;0.0;0.0;1000.0;  4.0000001E-01;0.0;0;0.0;0.0;0.0;0;0.0;  1.0000000E+04;  0.0000000E+00;  0.0000000E+00;  1.0000000E+04;  0.0000000E+00;  1.0000000E+04;0.0;0.0;0.0;0.0
  2.1600001E+00;  9.9999998E-03; -1.0000000E-01;906;0.0;0.0;0.0;1000.0;  4.0000001E-01;0.0;0;0.0;0.0;0.0;0;0.0;  1.0000000E+04;  0.0000000E+00;  0.0000000E+00;  1.0000000E+04;  0.0000000E+00;  1.0000000E+04;0.0;0.0;0.0;0.0
  2.1600001E+00;  9.9999998E-03; -7.9999998E-02;907;0.0;0.0;0.0;1000.0;  4.0000001E-01;0.0;0;0.0;0.0;0.0;0;0.0;  1.0000000E+04;  0.0000000E+00;  0.0000000E+00;  1.0000000E+04;  0.0000000E+00;  1.0000000E+04;0.0;0.0;0.0;0.0
  2.1600001E+00;  9.9999998E-03; -5.9999999E-02;908;0.0;0.0;0.0;1000.0;  4.0000001E-01;0.0;0;0.0;0.0;0.0;0;0.0;  1.0000000E+04;  0.0000000E+00;  0.0000000E+00;  1.0000000E+04;  0.0000000E+00;  1.0000000E+04;0.0;0.0;0.0;0.0
  2.1600001E+00;  9.9999998E-03; -3.9999999E-02;909;0.0;0.0;0.0;1000.0;  4.0000001E-01;0.0;0;0.0;0.0;0.0;0;0.0;  1.0000000E+04;  0.0000000E+00;  0.0000000E+00;  1.0000000E+04;  0.0000000E+00;  1.0000000E+04;0.0;0.0;0.0;0.0
  2.1600001E+00;  9.9999998E-03; -2.0000000E-02;910;0.0;0.0;0.0;1000.0;  4.0000001E-01;0.0;0;0.0;0.0;0.0;0;0.0;  1.0000000E+04;  0.0000000E+00;  0.0000000E+00;  1.0000000E+04;  0.0000000E+00;  1.0000000E+04;0.0;0.0;0.0;0.0
  2.1600001E+00;  9.9999998E-03;  0.0000000E+00;911;0.0;0.0;0.0;1000.0;  4.0000001E-01;0.0;0;0.0;0.0;0.0;0;0.0;  1.0000000E+04;  0.0000000E+00;  0.0000000E+00;  1.0000000E+04;  0.0000000E+00;  1.0000000E+04;0.0;0.0;0.0;0.0
  2.1600001E+00;  9.9999998E-03;  2.0000000E-02;912;0.0;0.0;0.0;1000.0;  4.0000001E-01;0.0;0;0.0;0.0;0.0;0;0.0;  1.0000000E+04;  0.0000000E+00;  0.0000000E+00;  1.0000000E+04;  0.0000000E+00;  1.0000000E+04;0.0;0.0;0.0;0.0
  2.1600001E+00;  9.9999998E-03;  3.9999999E-02;913;0.0;0.0;0.0;1000.0;  4.0000001E-01;0.0;0;0.0;0.0;0.0;0;0.0;  1.0000000E+04;  0.0000000E+00;  0.0000000E+00;  1.0000000E+04;  0.0000000E+00;  1.0000000E+04;0.0;0.0;0.0;0.0
  2.1600001E+00;  9.9999998E-03;  5.9999999E-02;914;0.0;0.0;0.0;1000.0;  4.0000001E-01;0.0;0;0.0;0.0;0.0;0;0.0;  1.0000000E+04;  0.0000000E+00;  0.0000000E+00;  1.0000000E+04;  0.0000000E+00;  1.0000000E+04;0.0;0.0;0.0;0.0
  2.1600001E+00;  9.9999998E-03;  7.9999998E-02;915;0.0;0.0;0.0;1000.0;  4.0000001E-01;0.0;0;0.0;0.0;0.0;0;0.0;  1.0000000E+04;  0.0000000E+00;  0.0000000E+00;  1.0000000E+04;  0.0000000E+00;  1.0000000E+04;0.0;0.0;0.0;0.0
  2.1600001E+00;  9.9999998E-03;  1.0000000E-01;916;0.0;0.0;0.0;1000.0;  4.0000001E-01;0.0;0;0.0;0.0;0.0;0;0.0;  1.0000000E+04;  0.0000000E+00;  0.0000000E+00;  1.0000000E+04;  0.0000000E+00;  1.0000000E+04;0.0;0.0;0.0;0.0
  2.1600001E+00;  9.9999998E-03;  1.2000000E-01;917;0.0;0.0;0.0;1000.0;  4.0000001E-01;0.0;0;0.0;0.0;0.0;0;0.0;  1.0000000E+04;  0.0000000E+00;  0.0000000E+00;  1.0000000E+04;  0.0000000E+00;  1.0000000E+04;0.0;0.0;0.0;0.0
  2.1600001E+00;  9.9999998E-03;  1.4000000E-01;918;0.0;0.0;0.0;1000.0;  4.0000001E-01;0.0;0;0.0;0.0;0.0;0;0.0;  1.0000000E+04;  0.0000000E+00;  0.0000000E+00;  1.0000000E+04;  0.0000000E+00;  1.0000000E+04;0.0;0.0;0.0;0.0
  2.1600001E+00;  9.9999998E-03;  1.6000000E-01;919;0.0;0.0;0.0;1000.0;  4.0000001E-01;0.0;0;0.0;0.0;0.0;0;0.0;  1.0000000E+04;  0.0000000E+00;  0.0000000E+00;  1.0000000E+04;  0.0000000E+00;  1.0000000E+04;0.0;0.0;0.0;0.0
  2.1600001E+00;  9.9999998E-03;  1.8000001E-01;920;0.0;0.0;0.0;1000.0;  4.0000001E-01;0.0;0;0.0;0.0;0.0;0;0.0;  1.0000000E+04;  0.0000000E+00;  0.0000000E+00;  1.0000000E+04;  0.0000000E+00;  1.0000000E+04;0.0;0.0;0.0;0.0
  2.1600001E+00;  9.9999998E-03;  2.0000000E-01;921;0.0;0.0;0.0;1000.0;  4.0000001E-01;0.0;0;0.0;0.0;0.0;0;0.0;  1.0000000E+04;  0.0000000E+00;  0.0000000E+00;  1.0000000E+04;  0.0000000E+00;  1.0000000E+04;0.0;0.0;0.0;0.0
  2.1600001E+00;  9.9999998E-03;  2.2000000E-01;922;0.0;0.0;0.0;1000.0;  4.0000001E-01;0.0;0;0.0;0.0;0.0;0;0.0;  1.0000000E+04;  0.0000000E+00;  0.0000000E+00;  1.0000000E+04;  0.0000000E+00;  1.0000000E+04;0.0;0.0;0.0;0.0
  2.1600001E+00;  9.9999998E-03;  2.3999999E-01;923;0.0;0.0;0.0;1000.0;  4.0000001E-01;0.0;0;0.0;0.0;0.0;0;0.0;  1.0000000E+04;  0.0000000E+00;  0.0000000E+00;  1.0000000E+04;  0.0000000E+00;  1.0000000E+04;0.0;0.0;0.0;0.0
  2.1600001E+00;  9.9999998E-03;  2.5999999E-01;924;0.0;0.0;0.0;1000.0;  4.0000001E-01;0.0;0;0.0;0.0;0.0;0;0.0;  1.0000000E+04;  0.0000000E+00;  0.0000000E+00;  1.0000000E+04;  0.0000000E+00;  1.0000000E+04;0.0;0.0;0.0;0.0
  2.1600001E+00;  9.9999998E-03;  2.8000000E-01;925;0.0;0.0;0.0;1000.0;  4.0000001E-01;0.0;0;0.0;0.0;0.0;0;0.0;  1.0000000E+04;  0.0000000E+00;  0.0000000E+00;  1.0000000E+04;  0.0000000E+00;  1.0000000E+04;0.0;0.0;0.0;0.0
  2.1600001E+00;  9.9999998E-03;  3.0000001E-01;926;0.0;0.0;0.0;1000.0;  4.0000001E-01;0.0;0;0.0;0.0;0.0;0;0.0;  1.0000000E+04;  0.0000000E+00;  0.0000000E+00;  1.0000000E+04;  0.0000000E+00;  1.0000000E+04;0.0;0.0;0.0;0.0
  2.1600001E+00;  9.9999998E-03;  3.1999999E-01;927;0.0;0.0;0.0;1000.0;  4.0000001E-01;0.0;0;0.0;0.0;0.0;0;0.0;  1.0000000E+04;  0.0000000E+00;  0.0000000E+00;  1.0000000E+04;  0.0000000E+00;  1.0000000E+04;0.0;0.0;0.0;0.0
  2.1600001E+00;  9.9999998E-03;  3.4000000E-01;928;0.0;0.0;0.0;1000.0;  4.0000001E-01;0.0;0;0.0;0.0;0.0;0;0.0;  1.0000000E+04;  0.0000000E+00;  0.0000000E+00;  1.0000000E+04;  0.0000000E+00;  1.0000000E+04;0.0;0.0;0.0;0.0
  2.1600001E+00;  9.9999998E-03;  3.6000001E-01;929;0.0;0.0;0.0;1000.0;  4.0000001E-01;0.0;0;0.0;0.0;0.0;0;0.0;  1.0000000E+04;  0.0000000E+00;  0.0000000E+00;  1.0000000E+04;  0.0000000E+00;  1.0000000E+04;0.0;0.0;0.0;0.0
  2.1600001E+00;  9.9999998E-03;  3.8000000E-01;930;0.0;0.0;0.0;1000.0;  4.0000001E-01;0.0;0;0.0;0.0;0.0;0;0.0;  1.0000000E+04;  0.0000000E+00;  0.0000000E+00;  1.0000000E+04;  0.0000000E+00;  1.0000000E+04;0.0;0.0;0.0;0.0
  2.1600001E+00;  9.9999998E-03;  4.0000001E-01;931;0.0;0.0;0.0;1000.0;  4.0000001E-01;0.0;0;0.0;0.0;0.0;0;0.0;  1.0000000E+04;  0.0000000E+00;  0.0000000E+00;  1.0000000E+04;  0.0000000E+00;  1.0000000E+04;0.0;0.0;0.0;0.0
  2.1800001E+00;  9.9999998E-03; -1.8000001E-01;932;0.0;0.0;0.0;1000.0;  4.0000001E-01;0.0;0;0.0;0.0;0.0;0;0.0;  1.0000000E+04;  0.0000000E+00;  0.0000000E+00;  1.0000000E+04;  0.0000000E+00;  1.0000000E+04;0.0;0.0;0.0;0.0
  2.1800001E+00;  9.9999998E-03; -1.6000000E-01;933;0.0;0.0;0.0;1000.0;  4.0000001E-01;0.0;0;0.0;0.0;0.0;0;0.0;  1.0000000E+04;  0.0000000E+00;  0.0000000E+00;  1.0000000E+04;  0.0000000E+00;  1.0000000E+04;0.0;0.0;0.0;0.0
  2.1800001E+00;  9.9999998E-03; -1.4000000E-01;934;0.0;0.0;0.0;1000.0;  4.0000001E-01;0.0;0;0.0;0.0;0.0;0;0.0;  1.0000000E+04;  0.0000000E+00;  0.0000000E+00;  1.0000000E+04;  0.0000000E+00;  1.0000000E+04;0.0;0.0;0.0;0.0
  2.1800001E+00;  9.9999998E-03; -1.2000000E-01;935;0.0;0.0;0.0;1000.0;  4.0000001E-01;0.0;0;0.0;0.0;0.0;0;0.0;  1.0000000E+04;  0.0000000E+00;  0.0000000E+00;  1.0000000E+04;  0.0000000E+00;  1.0000000E+04;0.0;0.0;0.0;0.0
  2.1800001E+00;  9.9999998E-03; -1.0000000E-01;936;0.0;0.0;0.0;1000.0;  4.0000001E-01;0.0;0;0.0;0.0;0.0;0;0.0;  1.0000000E+04;  0.0000000E+00;  0.0000000E+00;  1.0000000E+04;  0.0000000E+00;  1.0000000E+04;0.0;0.0;0.0;0.0
  2.1800001E+00;  9.9999998E-03; -7.9999998E-02;937;0.0;0.0;0.0;1000.0;  4.0000001E-01;0.0;0;0.0;0.0;0.0;0;0.0;  1.0000000E+04;  0.0000000E+00;  0.0000000E+00;  1.0000000E+04;  0.0000000E+00;  1.0000000E+04;0.0;0.0;0.0;0.0
  2.1800001E+00;  9.9999998E-03; -5.9999999E-02;938;0.0;0.0;0.0;1000.0;  4.0000001E-01;0.0;0;0.0;0.0;0.0;0;0.0;  1.0000000E+04;  0.0000000E+00;  0.0000000E+00;  1.0000000E+04;  0.0000000E+00;  1.0000000E+04;0.0;0.0;0.0;0.0
  2.1800001E+00;  9.9999998E-03; -3.9999999E-02;939;0.0;0.0;0.0;1000.0;  4.0000001E-01;0.0;0;0.0;0.0;0.0;0;0.0;  1.0000000E+04;  0.0000000E+00;  0.0000000E+00;  1.0000000E+04;  0.0000000E+00;  1.0000000E+04;0.0;0.0;0.0;0.0
  2.1800001E+00;  9.9999998E-03; -2.0000000E-02;940;0.0;0.0;0.0;1000.0;  4.0000001E-01;0.0;0;0.0;0.0;0.0;0;0.0;  1.0000000E+04;  0.0000000E+00;  0.0000000E+00;  1.0000000E+04;  0.0000000E+00;  1.0000000E+04;0.0;0.0;0.0;0.0
  2.1800001E+00;  9.9999998E-03;  0.0000000E+00;941;0.0;0.0;0.0;1000.0;  4.0000001E-01;0.0;0;0.0;0.0;0.0;0;0.0;  1.0000000E+04;  0.0000000E+00;  0.0000000E+00;  1.0000000E+04;  0.0000000E+00;  1.0000000E+04;0.0;0.0;0.0;0.0
  2.1800001E+00;  9.9999998E-03;  2.0000000E-02;942;0.0;0.0;0.0;1000.0;  4.0000001E-01;0.0;0;0.0;0.0;0.0;0;0.0;  1.0000000E+04;  0.0000000E+00;  0.0000000E+00;  1.0000000E+04;  0.0000000E+00;  1.0000000E+04;0.0;0.0;0.0;0.0
  2.1800001E+00;  9.9999998E-03;  3.9999999E-02;943;0.0;0.0;0.0;1000.0;  4.0000001E-01;0.0;0;0.0;0.0;0.0;0;0.0;  1.0000000E+04;  0.0000000E+00;  0.0000000E+00;  1.0000000E+04;  0.0000000E+00;  1.0000000E+04;0.0;0.0;0.0;0.0
  2.1800001E+00;  9.9999998E-03;  5.9999999E-02;944;0.0;0.0;0.0;1000.0;  4.0000001E-01;0.0;0;0.0;0.0;0.0;0;0.0;  1.0000000E+04;  0.0000000E+00;  0.0000000E+00;  1.0000000E+04;  0.0000000E+00;  1.0000000E+04;0.0;0.0;0.0;0.0
  2.1800001E+00;  9.9999998E-03;  7.9999998E-02;945;0.0;0.0;0.0;1000.0;  4.0000001E-01;0.0;0;0.0;0.0;0.0;0;0.0;  1.0000000E+04;  0.0000000E+00;  0.0000000E+00;  1.0000000E+04;  0.0000000E+00;  1.0000000E+04;0.0;0.0;0.0;0.0
  2.1800001E+00;  9.9999998E-03;  1.0000000E-01;946;0.0;0.0;0.0;1000.0;  4.0000001E-01;0.0;0;0.0;0.0;0.0;0;0.0;  1.0000000E+04;  0.0000000E+00;  0.0000000E+00;  1.0000000E+04;  0.0000000E+00;  1.0000000E+04;0.0;0.0;0.0;0.0
  2.1800001E+00;  9.9999998E-03;  1.2000000E-01;947;0.0;0.0;0.0;1000.0;  4.0000001E-01;0.0;0;0.0;0.0;0.0;0;0.0;  1.0000000E+04;  0.0000000E+00;  0.0000000E+00;  1.0000000E+04;  0.0000000E+00;  1.0000000E+04;0.0;0.0;0.0;0.0
  2.1800001E+00;  9.9999998E-03;  1.4000000E-01;948;0.0;0.0;0.0;1000.0;  4.0000001E-01;0.0;0;0.0;0.0;0.0;0;0.0;  1.0000000E+04;  0.0000000E+00;  0.0000000E+00;  1.0000000E+04;  0.0000000E+00;  1.0000000E+04;0.0;0.0;0.0;0.0
  2.1800001E+00;  9.9999998E-03;  1.6000000E-01;949;0.0;0.0;0.0;1000.0;  4.0000001E-01;0.0;0;0.0;0.0;0.0;0;0.0;  1.0000000E+04;  0.0000000E+00;  0.0000000E+00;  1.0000000E+04;  0.0000000E+00;  1.0000000E+04;0.0;0.0;0.0;0.0
  2.1800001E+00;  9.9999998E-03;  1.8000001E-01;950;0.0;0.0;0.0;1000.0;  4.0000001E-01;0.0;0;0.0;0.0;0.0;0;0.0;  1.0000000E+04;  0.0000000E+00;  0.0000000E+00;  1.0000000E+04;  0.0000000E+00;  1.0000000E+04;0.0;0.0;0.0;0.0
  2.1800001E+00;  9.9999998E-03;  2.0000000E-01;951;0.0;0.0;0.0;1000.0;  4.0000001E-01;0.0;0;0.0;0.0;0.0;0;0.0;  1.0000000E+04;  0.0000000E+00;  0.0000000E+00;  1.0000000E+04;  0.0000000E+00;  1.0000000E+04;0.0;0.0;0.0;0.0
  2.1800001E+00;  9.9999998E-03;  2.2000000E-01;952;0.0;0.0;0.0;1000.0;  4.0000001E-01;0.0;0;0.0;0.0;0.0;0;0.0;  1.0000000E+04;  0.0000000E+00;  0.0000000E+00;  1.0000000E+04;  0.0000000E+00;  1.0000000E+04;0.0;0.0;0.0;0.0
  2.1800001E+00;  9.9999998E-03;  2.3999999E-01;953;0.0;0.0;0.0;1000.0;  4.0000001E-01;0.0;0;0.0;0.0;0.0;0;0.0;  1.0000000E+04;  0.0000000E+00;  0.0000000E+00;  1.0000000E+04;  0.0000000E+00;  1.0000000E+04;0.0;0.0;0.0;0.0
  2.1800001E+00;  9.9999998E-03;  2.5999999E-01;954;0.0;0.0;0.0;1000.0;  4.0000001E-01;0.0;0;0.0;0.0;0.0;0;0.0;  1.0000000E+04;  0.0000000E+00;  0.0000000E+00;  1.0000000E+04;  0.0000000E+00;  1.0000000E+04;0.0;0.0;0.0;0.0
  2.1800001E+00;  9.9999998E-03;  2.8000000E-01;955;0.0;0.0;0.0;1000.0;  4.0000001E-01;0.0;0;0.0;0.0;0.0;0;0.0;  1.0000000E+04;  0.0000000E+00;  0.0000000E+00;  1.0000000E+04;  0.0000000E+00;  1.0000000E+04;0.0;0.0;0.0;0.0
  2.1800001E+00;  9.9999998E-03;  3.0000001E-01;956;0.0;0.0;0.0;1000.0;  4.0000001E-01;0.0;0;0.0;0.0;0.0;0;0.0;  1.0000000E+04;  0.0000000E+00;  0.0000000E+00;  1.0000000E+04;  0.0000000E+00;  1.0000000E+04;0.0;0.0;0.0;0.0
  2.1800001E+00;  9.9999998E-03;  3.1999999E-01;957;0.0;0.0;0.0;1000.0;  4.0000001E-01;0.0;0;0.0;0.0;0.0;0;0.0;  1.0000000E+04;  0.0000000E+00;  0.0000000E+00;  1.0000000E+04;  0.0000000E+00;  1.0000000E+04;0.0;0.0;0.0;0.0
  2.1800001E+00;  9.9999998E-03;  3.4000000E-01;958;0.0;0.0;0.0;1000.0;  4.0000001E-01;0.0;0;0.0;0.0;0.0;0;0.0;  1.0000000E+04;  0.0000000E+00;  0.0000000E+00;  1.0000000E+04;  0.0000000E+00;  1.0000000E+04;0.0;0.0;0.0;0.0
  2.1800001E+00;  9.9999998E-03;  3.6000001E-01;959;0.0;0.0;0.0;1000.0;  4.0000001E-01;0.0;0;0.0;0.0;0.0;0;0.0;  1.0000000E+04;  0.0000000E+00;  0.0000000E+00;  1.0000000E+04;  0.0000000E+00;  1.0000000E+04;0.0;0.0;0.0;0.0
  2.1800001E+00;  9.9999998E-03;  3.8000000E-01;960;0.0;0.0;0.0;1000.0;  4.0000001E-01;0.0;0;0.0;0.0;0.0;0;0.0;  1.0000000E+04;  0.0000000E+00;  0.0000000E+00;  1.0000000E+04;  0.0000000E+00;  1.0000000E+04;0.0;0.0;0.0;0.0
  2.1800001E+00;  9.9999998E-03;  4.0000001E-01;961;0.0;0.0;0.0;1000.0;  4.0000001E-01;0.0;0;0.0;0.0;0.0;0;0.0;  1.0000000E+04;  0.0000000E+00;  0.0000000E+00;  1.0000000E+04;  0.0000000E+00;  1.0000000E+04;0.0;0.0;0.0;0.0
  2.2000000E+00;  9.9999998E-03; -7.9999998E-02;962;0.0;0.0;0.0;1000.0;  4.0000001E-01;0.0;0;0.0;0.0;0.0;0;0.0;  1.0000000E+04;  0.0000000E+00;  0.0000000E+00;  1.0000000E+04;  0.0000000E+00;  1.0000000E+04;0.0;0.0;0.0;0.0
  2.2000000E+00;  9.9999998E-03; -5.9999999E-02;963;0.0;0.0;0.0;1000.0;  4.0000001E-01;0.0;0;0.0;0.0;0.0;0;0.0;  1.0000000E+04;  0.0000000E+00;  0.0000000E+00;  1.0000000E+04;  0.0000000E+00;  1.0000000E+04;0.0;0.0;0.0;0.0
  2.2000000E+00;  9.9999998E-03; -3.9999999E-02;964;0.0;0.0;0.0;1000.0;  4.0000001E-01;0.0;0;0.0;0.0;0.0;0;0.0;  1.0000000E+04;  0.0000000E+00;  0.0000000E+00;  1.0000000E+04;  0.0000000E+00;  1.0000000E+04;0.0;0.0;0.0;0.0
  2.2000000E+00;  9.9999998E-03; -2.0000000E-02;965;0.0;0.0;0.0;1000.0;  4.0000001E-01;0.0;0;0.0;0.0;0.0;0;0.0;  1.0000000E+04;  0.0000000E+00;  0.0000000E+00;  1.0000000E+04;  0.0000000E+00;  1.0000000E+04;0.0;0.0;0.0;0.0
  2.2000000E+00;  9.9999998E-03;  0.0000000E+00;966;0.0;0.0;0.0;1000.0;  4.0000001E-01;0.0;0;0.0;0.0;0.0;0;0.0;  1.0000000E+04;  0.0000000E+00;  0.0000000E+00;  1.0000000E+04;  0.0000000E+00;  1.0000000E+04;0.0;0.0;0.0;0.0
  2.2000000E+00;  9.9999998E-03;  2.0000000E-02;967;0.0;0.0;0.0;1000.0;  4.0000001E-01;0.0;0;0.0;0.0;0.0;0;0.0;  1.0000000E+04;  0.0000000E+00;  0.0000000E+00;  1.0000000E+04;  0.0000000E+00;  1.0000000E+04;0.0;0.0;0.0;0.0
  2.2000000E+00;  9.9999998E-03;  3.9999999E-02;968;0.0;0.0;0.0;1000.0;  4.0000001E-01;0.0;0;0.0;0.0;0.0;0;0.0;  1.0000000E+04;  0.0000000E+00;  0.0000000E+00;  1.0000000E+04;  0.0000000E+00;  1.0000000E+04;0.0;0.0;0.0;0.0
  2.2000000E+00;  9.9999998E-03;  5.9999999E-02;969;0.0;0.0;0.0;1000.0;  4.0000001E-01;0.0;0;0.0;0.0;0.0;0;0.0;  1.0000000E+04;  0.0000000E+00;  0.0000000E+00;  1.0000000E+04;  0.0000000E+00;  1.0000000E+04;0.0;0.0;0.0;0.0
  2.2000000E+00;  9.9999998E-03;  7.9999998E-02;970;0.0;0.0;0.0;1000.0;  4.0000001E-01;0.0;0;0.0;0.0;0.0;0;0.0;  1.0000000E+04;  0.0000000E+00;  0.0000000E+00;  1.0000000E+04;  0.0000000E+00;  1.0000000E+04;0.0;0.0;0.0;0.0
  2.2000000E+00;  9.9999998E-03;  1.0000000E-01;971;0.0;0.0;0.0;1000.0;  4.0000001E-01;0.0;0;0.0;0.0;0.0;0;0.0;  1.0000000E+04;  0.0000000E+00;  0.0000000E+00;  1.0000000E+04;  0.0000000E+00;  1.0000000E+04;0.0;0.0;0.0;0.0
  2.2000000E+00;  9.9999998E-03;  1.2000000E-01;972;0.0;0.0;0.0;1000.0;  4.0000001E-01;0.0;0;0.0;0.0;0.0;0;0.0;  1.0000000E+04;  0.0000000E+00;  0.0000000E+00;  1.0000000E+04;  0.0000000E+00;  1.0000000E+04;0.0;0.0;0.0;0.0
  2.2000000E+00;  9.9999998E-03;  1.4000000E-01;973;0.0;0.0;0.0;1000.0;  4.0000001E-01;0.0;0;0.0;0.0;0.0;0;0.0;  1.0000000E+04;  0.0000000E+00;  0.0000000E+00;  1.0000000E+04;  0.0000000E+00;  1.0000000E+04;0.0;0.0;0.0;0.0
  2.2000000E+00;  9.9999998E-03;  1.6000000E-01;974;0.0;0.0;0.0;1000.0;  4.0000001E-01;0.0;0;0.0;0.0;0.0;0;0.0;  1.0000000E+04;  0.0000000E+00;  0.0000000E+00;  1.0000000E+04;  0.0000000E+00;  1.0000000E+04;0.0;0.0;0.0;0.0
  2.2000000E+00;  9.9999998E-03;  1.8000001E-01;975;0.0;0.0;0.0;1000.0;  4.0000001E-01;0.0;0;0.0;0.0;0.0;0;0.0;  1.0000000E+04;  0.0000000E+00;  0.0000000E+00;  1.0000000E+04;  0.0000000E+00;  1.0000000E+04;0.0;0.0;0.0;0.0
  2.2000000E+00;  9.9999998E-03;  2.0000000E-01;976;0.0;0.0;0.0;1000.0;  4.0000001E-01;0.0;0;0.0;0.0;0.0;0;0.0;  1.0000000E+04;  0.0000000E+00;  0.0000000E+00;  1.0000000E+04;  0.0000000E+00;  1.0000000E+04;0.0;0.0;0.0;0.0
  2.2000000E+00;  9.9999998E-03;  2.2000000E-01;977;0.0;0.0;0.0;1000.0;  4.0000001E-01;0.0;0;0.0;0.0;0.0;0;0.0;  1.0000000E+04;  0.0000000E+00;  0.0000000E+00;  1.0000000E+04;  0.0000000E+00;  1.0000000E+04;0.0;0.0;0.0;0.0
  2.2000000E+00;  9.9999998E-03;  2.3999999E-01;978;0.0;0.0;0.0;1000.0;  4.0000001E-01;0.0;0;0.0;0.0;0.0;0;0.0;  1.0000000E+04;  0.0000000E+00;  0.0000000E+00;  1.0000000E+04;  0.0000000E+00;  1.0000000E+04;0.0;0.0;0.0;0.0
  2.2000000E+00;  9.9999998E-03;  2.5999999E-01;979;0.0;0.0;0.0;1000.0;  4.0000001E-01;0.0;0;0.0;0.0;0.0;0;0.0;  1.0000000E+04;  0.0000000E+00;  0.0000000E+00;  1.0000000E+04;  0.0000000E+00;  1.0000000E+04;0.0;0.0;0.0;0.0
  2.2000000E+00;  9.9999998E-03;  2.8000000E-01;980;0.0;0.0;0.0;1000.0;  4.0000001E-01;0.0;0;0.0;0.0;0.0;0;0.0;  1.0000000E+04;  0.0000000E+00;  0.0000000E+00;  1.0000000E+04;  0.0000000E+00;  1.0000000E+04;0.0;0.0;0.0;0.0
  2.2000000E+00;  9.9999998E-03;  3.0000001E-01;981;0.0;0.0;0.0;1000.0;  4.0000001E-01;0.0;0;0.0;0.0;0.0;0;0.0;  1.0000000E+04;  0.0000000E+00;  0.0000000E+00;  1.0000000E+04;  0.0000000E+00;  1.0000000E+04;0.0;0.0;0.0;0.0
  2.2000000E+00;  9.9999998E-03;  3.1999999E-01;982;0.0;0.0;0.0;1000.0;  4.0000001E-01;0.0;0;0.0;0.0;0.0;0;0.0;  1.0000000E+04;  0.0000000E+00;  0.0000000E+00;  1.0000000E+04;  0.0000000E+00;  1.0000000E+04;0.0;0.0;0.0;0.0
  2.2000000E+00;  9.9999998E-03;  3.4000000E-01;983;0.0;0.0;0.0;1000.0;  4.0000001E-01;0.0;0;0.0;0.0;0.0;0;0.0;  1.0000000E+04;  0.0000000E+00;  0.0000000E+00;  1.0000000E+04;  0.0000000E+00;  1.0000000E+04;0.0;0.0;0.0;0.0
  2.2000000E+00;  9.9999998E-03;  3.6000001E-01;984;0.0;0.0;0.0;1000.0;  4.0000001E-01;0.0;0;0.0;0.0;0.0;0;0.0;  1.0000000E+04;  0.0000000E+00;  0.0000000E+00;  1.0000000E+04;  0.0000000E+00;  1.0000000E+04;0.0;0.0;0.0;0.0
  2.2000000E+00;  9.9999998E-03;  3.8000000E-01;985;0.0;0.0;0.0;1000.0;  4.0000001E-01;0.0;0;0.0;0.0;0.0;0;0.0;  1.0000000E+04;  0.0000000E+00;  0.0000000E+00;  1.0000000E+04;  0.0000000E+00;  1.0000000E+04;0.0;0.0;0.0;0.0
  2.2200000E+00;  9.9999998E-03;  2.0000000E-02;986;0.0;0.0;0.0;1000.0;  4.0000001E-01;0.0;0;0.0;0.0;0.0;0;0.0;  1.0000000E+04;  0.0000000E+00;  0.0000000E+00;  1.0000000E+04;  0.0000000E+00;  1.0000000E+04;0.0;0.0;0.0;0.0
  2.2200000E+00;  9.9999998E-03;  3.9999999E-02;987;0.0;0.0;0.0;1000.0;  4.0000001E-01;0.0;0;0.0;0.0;0.0;0;0.0;  1.0000000E+04;  0.0000000E+00;  0.0000000E+00;  1.0000000E+04;  0.0000000E+00;  1.0000000E+04;0.0;0.0;0.0;0.0
  2.2200000E+00;  9.9999998E-03;  5.9999999E-02;988;0.0;0.0;0.0;1000.0;  4.0000001E-01;0.0;0;0.0;0.0;0.0;0;0.0;  1.0000000E+04;  0.0000000E+00;  0.0000000E+00;  1.0000000E+04;  0.0000000E+00;  1.0000000E+04;0.0;0.0;0.0;0.0
  2.2200000E+00;  9.9999998E-03;  7.9999998E-02;989;0.0;0.0;0.0;1000.0;  4.0000001E-01;0.0;0;0.0;0.0;0.0;0;0.0;  1.0000000E+04;  0.0000000E+00;  0.0000000E+00;  1.0000000E+04;  0.0000000E+00;  1.0000000E+04;0.0;0.0;0.0;0.0
  2.2200000E+00;  9.9999998E-03;  1.0000000E-01;990;0.0;0.0;0.0;1000.0;  4.0000001E-01;0.0;0;0.0;0.0;0.0;0;0.0;  1.0000000E+04;  0.0000000E+00;  0.0000000E+00;  1.0000000E+04;  0.0000000E+00;  1.0000000E+04;0.0;0.0;0.0;0.0
  2.2200000E+00;  9.9999998E-03;  1.2000000E-01;991;0.0;0.0;0.0;1000.0;  4.0000001E-01;0.0;0;0.0;0.0;0.0;0;0.0;  1.0000000E+04;  0.0000000E+00;  0.0000000E+00;  1.0000000E+04;  0.0000000E+00;  1.0000000E+04;0.0;0.0;0.0;0.0
  2.2200000E+00;  9.9999998E-03;  1.4000000E-01;992;0.0;0.0;0.0;1000.0;  4.0000001E-01;0.0;0;0.0;0.0;0.0;0;0.0;  1.0000000E+04;  0.0000000E+00;  0.0000000E+00;  1.0000000E+04;  0.0000000E+00;  1.0000000E+04;0.0;0.0;0.0;0.0
  2.2200000E+00;  9.9999998E-03;  1.6000000E-01;993;0.0;0.0;0.0;1000.0;  4.0000001E-01;0.0;0;0.0;0.0;0.0;0;0.0;  1.0000000E+04;  0.0000000E+00;  0.0000000E+00;  1.0000000E+04;  0.0000000E+00;  1.0000000E+04;0.0;0.0;0.0;0.0
  2.2200000E+00;  9.9999998E-03;  1.8000001E-01;994;0.0;0.0;0.0;1000.0;  4.0000001E-01;0.0;0;0.0;0.0;0.0;0;0.0;  1.0000000E+04;  0.0000000E+00;  0.0000000E+00;  1.0000000E+04;  0.0000000E+00;  1.0000000E+04;0.0;0.0;0.0;0.0
  2.2200000E+00;  9.9999998E-03;  2.0000000E-01;995;0.0;0.0;0.0;1000.0;  4.0000001E-01;0.0;0;0.0;0.0;0.0;0;0.0;  1.0000000E+04;  0.0000000E+00;  0.0000000E+00;  1.0000000E+04;  0.0000000E+00;  1.0000000E+04;0.0;0.0;0.0;0.0
  2.2200000E+00;  9.9999998E-03;  2.2000000E-01;996;0.0;0.0;0.0;1000.0;  4.0000001E-01;0.0;0;0.0;0.0;0.0;0;0.0;  1.0000000E+04;  0.0000000E+00;  0.0000000E+00;  1.0000000E+04;  0.0000000E+00;  1.0000000E+04;0.0;0.0;0.0;0.0
  2.2200000E+00;  9.9999998E-03;  2.3999999E-01;997;0.0;0.0;0.0;1000.0;  4.0000001E-01;0.0;0;0.0;0.0;0.0;0;0.0;  1.0000000E+04;  0.0000000E+00;  0.0000000E+00;  1.0000000E+04;  0.0000000E+00;  1.0000000E+04;0.0;0.0;0.0;0.0
  2.2200000E+00;  9.9999998E-03;  2.5999999E-01;998;0.0;0.0;0.0;1000.0;  4.0000001E-01;0.0;0;0.0;0.0;0.0;0;0.0;  1.0000000E+04;  0.0000000E+00;  0.0000000E+00;  1.0000000E+04;  0.0000000E+00;  1.0000000E+04;0.0;0.0;0.0;0.0
  2.2200000E+00;  9.9999998E-03;  2.8000000E-01;999;0.0;0.0;0.0;1000.0;  4.0000001E-01;0.0;0;0.0;0.0;0.0;0;0.0;  1.0000000E+04;  0.0000000E+00;  0.0000000E+00;  1.0000000E+04;  0.0000000E+00;  1.0000000E+04;0.0;0.0;0.0;0.0
  2.2200000E+00;  9.9999998E-03;  3.0000001E-01;1000;0.0;0.0;0.0;1000.0;  4.0000001E-01;0.0;0;0.0;0.0;0.0;0;0.0;  1.0000000E+04;  0.0000000E+00;  0.0000000E+00;  1.0000000E+04;  0.0000000E+00;  1.0000000E+04;0.0;0.0;0.0;0.0
  2.2200000E+00;  9.9999998E-03;  3.1999999E-01;1001;0.0;0.0;0.0;1000.0;  4.0000001E-01;0.0;0;0.0;0.0;0.0;0;0.0;  1.0000000E+04;  0.0000000E+00;  0.0000000E+00;  1.0000000E+04;  0.0000000E+00;  1.0000000E+04;0.0;0.0;0.0;0.0
  2.2200000E+00;  9.9999998E-03;  3.4000000E-01;1002;0.0;0.0;0.0;1000.0;  4.0000001E-01;0.0;0;0.0;0.0;0.0;0;0.0;  1.0000000E+04;  0.0000000E+00;  0.0000000E+00;  1.0000000E+04;  0.0000000E+00;  1.0000000E+04;0.0;0.0;0.0;0.0
  2.2200000E+00;  9.9999998E-03;  3.6000001E-01;1003;0.0;0.0;0.0;1000.0;  4.0000001E-01;0.0;0;0.0;0.0;0.0;0;0.0;  1.0000000E+04;  0.0000000E+00;  0.0000000E+00;  1.0000000E+04;  0.0000000E+00;  1.0000000E+04;0.0;0.0;0.0;0.0
  2.2200000E+00;  9.9999998E-03;  3.8000000E-01;1004;0.0;0.0;0.0;1000.0;  4.0000001E-01;0.0;0;0.0;0.0;0.0;0;0.0;  1.0000000E+04;  0.0000000E+00;  0.0000000E+00;  1.0000000E+04;  0.0000000E+00;  1.0000000E+04;0.0;0.0;0.0;0.0
  2.2400000E+00;  9.9999998E-03;  1.2000000E-01;1005;0.0;0.0;0.0;1000.0;  4.0000001E-01;0.0;0;0.0;0.0;0.0;0;0.0;  1.0000000E+04;  0.0000000E+00;  0.0000000E+00;  1.0000000E+04;  0.0000000E+00;  1.0000000E+04;0.0;0.0;0.0;0.0
  2.2400000E+00;  9.9999998E-03;  1.4000000E-01;1006;0.0;0.0;0.0;1000.0;  4.0000001E-01;0.0;0;0.0;0.0;0.0;0;0.0;  1.0000000E+04;  0.0000000E+00;  0.0000000E+00;  1.0000000E+04;  0.0000000E+00;  1.0000000E+04;0.0;0.0;0.0;0.0
  2.2400000E+00;  9.9999998E-03;  1.6000000E-01;1007;0.0;0.0;0.0;1000.0;  4.0000001E-01;0.0;0;0.0;0.0;0.0;0;0.0;  1.0000000E+04;  0.0000000E+00;  0.0000000E+00;  1.0000000E+04;  0.0000000E+00;  1.0000000E+04;0.0;0.0;0.0;0.0
  2.2400000E+00;  9.9999998E-03;  1.8000001E-01;1008;0.0;0.0;0.0;1000.0;  4.0000001E-01;0.0;0;0.0;0.0;0.0;0;0.0;  1.0000000E+04;  0.0000000E+00;  0.0000000E+00;  1.0000000E+04;  0.0000000E+00;  1.0000000E+04;0.0;0.0;0.0;0.0
  2.2400000E+00;  9.9999998E-03;  2.0000000E-01;1009;0.0;0.0;0.0;1000.0;  4.0000001E-01;0.0;0;0.0;0.0;0.0;0;0.0;  1.0000000E+04;  0.0000000E+00;  0.0000000E+00;  1.0000000E+04;  0.0000000E+00;  1.0000000E+04;0.0;0.0;0.0;0.0
  2.2400000E+00;  9.9999998E-03;  2.2000000E-01;1010;0.0;0.0;0.0;1000.0;  4.0000001E-01;0.0;0;0.0;0.0;0.0;0;0.0;  1.0000000E+04;  0.0000000E+00;  0.0000000E+00;  1.0000000E+04;  0.0000000E+00;  1.0000000E+04;0.0;0.0;0.0;0.0
  2.2400000E+00;  9.9999998E-03;  2.3999999E-01;1011;0.0;0.0;0.0;1000.0;  4.0000001E-01;0.0;0;0.0;0.0;0.0;0;0.0;  1.0000000E+04;  0.0000000E+00;  0.0000000E+00;  1.0000000E+04;  0.0000000E+00;  1.0000000E+04;0.0;0.0;0.0;0.0
  2.2400000E+00;  9.9999998E-03;  2.5999999E-01;1012;0.0;0.0;0.0;1000.0;  4.0000001E-01;0.0;0;0.0;0.0;0.0;0;0.0;  1.0000000E+04;  0.0000000E+00;  0.0000000E+00;  1.0000000E+04;  0.0000000E+00;  1.0000000E+04;0.0;0.0;0.0;0.0
  2.2400000E+00;  9.9999998E-03;  2.8000000E-01;1013;0.0;0.0;0.0;1000.0;  4.0000001E-01;0.0;0;0.0;0.0;0.0;0;0.0;  1.0000000E+04;  0.0000000E+00;  0.0000000E+00;  1.0000000E+04;  0.0000000E+00;  1.0000000E+04;0.0;0.0;0.0;0.0
  2.2400000E+00;  9.9999998E-03;  3.0000001E-01;1014;0.0;0.0;0.0;1000.0;  4.0000001E-01;0.0;0;0.0;0.0;0.0;0;0.0;  1.0000000E+04;  0.0000000E+00;  0.0000000E+00;  1.0000000E+04;  0.0000000E+00;  1.0000000E+04;0.0;0.0;0.0;0.0
  2.2400000E+00;  9.9999998E-03;  3.1999999E-01;1015;0.0;0.0;0.0;1000.0;  4.0000001E-01;0.0;0;0.0;0.0;0.0;0;0.0;  1.0000000E+04;  0.0000000E+00;  0.0000000E+00;  1.0000000E+04;  0.0000000E+00;  1.0000000E+04;0.0;0.0;0.0;0.0
  2.2400000E+00;  9.9999998E-03;  3.4000000E-01;1016;0.0;0.0;0.0;1000.0;  4.0000001E-01;0.0;0;0.0;0.0;0.0;0;0.0;  1.0000000E+04;  0.0000000E+00;  0.0000000E+00;  1.0000000E+04;  0.0000000E+00;  1.0000000E+04;0.0;0.0;0.0;0.0
  2.2400000E+00;  9.9999998E-03;  3.6000001E-01;1017;0.0;0.0;0.0;1000.0;  4.0000001E-01;0.0;0;0.0;0.0;0.0;0;0.0;  1.0000000E+04;  0.0000000E+00;  0.0000000E+00;  1.0000000E+04;  0.0000000E+00;  1.0000000E+04;0.0;0.0;0.0;0.0
  2.2400000E+00;  9.9999998E-03;  3.8000000E-01;1018;0.0;0.0;0.0;1000.0;  4.0000001E-01;0.0;0;0.0;0.0;0.0;0;0.0;  1.0000000E+04;  0.0000000E+00;  0.0000000E+00;  1.0000000E+04;  0.0000000E+00;  1.0000000E+04;0.0;0.0;0.0;0.0
  2.2600000E+00;  9.9999998E-03;  2.2000000E-01;1019;0.0;0.0;0.0;1000.0;  4.0000001E-01;0.0;0;0.0;0.0;0.0;0;0.0;  1.0000000E+04;  0.0000000E+00;  0.0000000E+00;  1.0000000E+04;  0.0000000E+00;  1.0000000E+04;0.0;0.0;0.0;0.0
  2.2600000E+00;  9.9999998E-03;  2.3999999E-01;1020;0.0;0.0;0.0;1000.0;  4.0000001E-01;0.0;0;0.0;0.0;0.0;0;0.0;  1.0000000E+04;  0.0000000E+00;  0.0000000E+00;  1.0000000E+04;  0.0000000E+00;  1.0000000E+04;0.0;0.0;0.0;0.0
  2.2600000E+00;  9.9999998E-03;  2.5999999E-01;1021;0.0;0.0;0.0;1000.0;  4.0000001E-01;0.0;0;0.0;0.0;0.0;0;0.0;  1.0000000E+04;  0.0000000E+00;  0.0000000E+00;  1.0000000E+04;  0.0000000E+00;  1.0000000E+04;0.0;0.0;0.0;0.0
  2.2600000E+00;  9.9999998E-03;  2.8000000E-01;1022;0.0;0.0;0.0;1000.0;  4.0000001E-01;0.0;0;0.0;0.0;0.0;0;0.0;  1.0000000E+04;  0.0000000E+00;  0.0000000E+00;  1.0000000E+04;  0.0000000E+00;  1.0000000E+04;0.0;0.0;0.0;0.0
  2.2600000E+00;  9.9999998E-03;  3.0000001E-01;1023;0.0;0.0;0.0;1000.0;  4.0000001E-01;0.0;0;0.0;0.0;0.0;0;0.0;  1.0000000E+04;  0.0000000E+00;  0.0000000E+00;  1.0000000E+04;  0.0000000E+00;  1.0000000E+04;0.0;0.0;0.0;0.0
  2.2600000E+00;  9.9999998E-03;  3.1999999E-01;1024;0.0;0.0;0.0;1000.0;  4.0000001E-01;0.0;0;0.0;0.0;0.0;0;0.0;  1.0000000E+04;  0.0000000E+00;  0.0000000E+00;  1.0000000E+04;  0.0000000E+00;  1.0000000E+04;0.0;0.0;0.0;0.0
  2.2600000E+00;  9.9999998E-03;  3.4000000E-01;1025;0.0;0.0;0.0;1000.0;  4.0000001E-01;0.0;0;0.0;0.0;0.0;0;0.0;  1.0000000E+04;  0.0000000E+00;  0.0000000E+00;  1.0000000E+04;  0.0000000E+00;  1.0000000E+04;0.0;0.0;0.0;0.0
  2.2600000E+00;  9.9999998E-03;  3.6000001E-01;1026;0.0;0.0;0.0;1000.0;  4.0000001E-01;0.0;0;0.0;0.0;0.0;0;0.0;  1.0000000E+04;  0.0000000E+00;  0.0000000E+00;  1.0000000E+04;  0.0000000E+00;  1.0000000E+04;0.0;0.0;0.0;0.0
  2.2600000E+00;  9.9999998E-03;  3.8000000E-01;1027;0.0;0.0;0.0;1000.0;  4.0000001E-01;0.0;0;0.0;0.0;0.0;0;0.0;  1.0000000E+04;  0.0000000E+00;  0.0000000E+00;  1.0000000E+04;  0.0000000E+00;  1.0000000E+04;0.0;0.0;0.0;0.0
  2.2800000E+00;  9.9999998E-03;  3.1999999E-01;1028;0.0;0.0;0.0;1000.0;  4.0000001E-01;0.0;0;0.0;0.0;0.0;0;0.0;  1.0000000E+04;  0.0000000E+00;  0.0000000E+00;  1.0000000E+04;  0.0000000E+00;  1.0000000E+04;0.0;0.0;0.0;0.0
  2.2800000E+00;  9.9999998E-03;  3.4000000E-01;1029;0.0;0.0;0.0;1000.0;  4.0000001E-01;0.0;0;0.0;0.0;0.0;0;0.0;  1.0000000E+04;  0.0000000E+00;  0.0000000E+00;  1.0000000E+04;  0.0000000E+00;  1.0000000E+04;0.0;0.0;0.0;0.0
  2.2800000E+00;  9.9999998E-03;  3.6000001E-01;1030;0.0;0.0;0.0;1000.0;  4.0000001E-01;0.0;0;0.0;0.0;0.0;0;0.0;  1.0000000E+04;  0.0000000E+00;  0.0000000E+00;  1.0000000E+04;  0.0000000E+00;  1.0000000E+04;0.0;0.0;0.0;0.0
 -8.2231162E-07;  9.9999998E-03; -2.8000033E-01;1031;-0.00073425355;0.0;-0.00028142484;1000.0186;  4.0000001E-01;15.406969;3;-0.65923071;0.0;-0.25357395;0;-0.014787836;  1.0000345E+04;  0.0000000E+00; -5.3350266E-08;  1.0000000E+04;  0.0000000E+00;  1.0000027E+04;-0.013716105;0.0;-0.0010717309;10.804324
 -9.9790634E-07;  9.9999998E-03; -2.6000029E-01;1032;-0.00089317083;0.0;-0.00027076568;1000.0221;  4.0000001E-01;18.271086;3;-0.77523232;0.0;-0.23553103;0;-0.017645447;  1.0000435E+04;  0.0000000E+00; -1.7353640E-08;  1.0000000E+04;  0.0000000E+00;  1.0000011E+04;-0.017199211;0.0;-0.00044623602;3.5391176
 -1.1459506E-06;  9.9999998E-03; -2.4000028E-01;1033;-0.0010272053;0.0;-0.00024427852;1000.0251;  4.0000001E-01;20.838913;3;-0.87109661;0.0;-0.20750755;0;-0.019995565;  1.0000508E+04;  0.0000000E+00;  4.2445100E-10;  1.0000000E+04;  0.0000000E+00;  9.9999961E+03;-0.020175582;0.0;0.00018001758;3.6801293
 -1.2610280E-06;  9.9999998E-03; -2.2000024E-01;1034;-0.0011313347;0.0;-0.00021048899;1000.0275;  4.0000001E-01;22.814167;3;-0.94711256;0.0;-0.17623118;0;-0.021845907;  1.0000566E+04;  0.0000000E+00;  4.8577027E-09;  1.0000000E+04;  0.0000000E+00;  9.9999844E+03;-0.022503443;0.0;0.00065753667;9.1899586
 -1.3465647E-06;  9.9999998E-03; -2.0000020E-01;1035;-0.0012079341;0.0;-0.00017355185;1000.0292;  4.0000001E-01;24.196842;3;-1.005224;0.0;-0.14453024;0;-0.023260141;  1.0000607E+04;  0.0000000E+00;  3.4315253E-10;  1.0000000E+04;  0.0000000E+00;  9.9999785E+03;-0.024192546;0.0;0.0009324046;12.40074
  1.9999167E-02;  9.9999998E-03; -3.0000043E-01;1060;-0.00073071284;0.0;-0.00037225091;1000.0184;  4.0000001E-01;15.308207;3;-0.64734793;0.0;-0.33211899;0;-0.01443304;  1.0000318E+04;  0.0000000E+00; -7.9402270E-08;  1.0000000E+04;  0.0000000E+00;  1.0000051E+04;-0.012486027;0.0;-0.0019470139;21.223072
  1.9998843E-02;  9.9999998E-03; -2.8000039E-01;1061;-0.0010230073;0.0;-0.00034781167;1000.0234;  4.0000001E-01;19.357473;3;-0.85988498;0.0;-0.29111719;0;-0.018255334;  1.0000432E+04;  0.0000000E+00; -2.7683436E-08;  1.0000000E+04;  0.0000000E+00;  1.0000034E+04;-0.016881494;0.0;-0.0013738408;14.251427
  1.9998565E-02;  9.9999998E-03; -2.6000038E-01;1062;-0.0012723713;0.0;-0.00034368172;1000.0275;  4.0000001E-01;22.814167;3;-1.0229349;0.0;-0.27499801;0;-0.021556545;  1.0000537E+04;  0.0000000E+00;  1.8995134E-08;  1.0000000E+04;  0.0000000E+00;  1.0000014E+04;-0.021022143;0.0;-0.00053440192;4.3418841
  1.9998342E-02;  9.9999998E-03; -2.4000037E-01;1063;-0.0014734468;0.0;-0.00031766531;1000.0309;  4.0000001E-01;25.579519;3;-1.1490719;0.0;-0.24641782;0;-0.024234317;  1.0000625E+04;  0.0000000E+00;  3.7228194E-08;  1.0000000E+04;  0.0000000E+00;  9.9999932E+03;-0.024520177;0.0;0.00028586033;5.2867966
  1.9998174E-02;  9.9999998E-03; -2.2000031E-01;1064;-0.0016244351;0.0;-0.00027852194;1000.0336;  4.0000001E-01;27.851061;3;-1.2453778;0.0;-0.21241829;0;-0.026310995;  1.0000694E+04;  0.0000000E+00;  2.9703214E-08;  1.0000000E+04;  0.0000000E+00;  9.9999785E+03;-0.027214067;0.0;0.0009030716;12.537357
  1.9998053E-02;  9.9999998E-03; -2.0000027E-01;1065;-0.0017318096;0.0;-0.00023199676;1000.0355;  4.0000001E-01;29.431261;3;-1.3175359;0.0;-0.17591569;0;-0.027874637;  1.0000744E+04;  0.0000000E+00;  1.5695175E-08;  1.0000000E+04;  0.0000000E+00;  9.9999688E+03;-0.029128421;0.0;0.0012537836;16.69993
  3.9998822E-02;  9.9999998E-03; -3.0000049E-01;1091;-0.0010237822;0.0;-0.00041516684;1000.0225;  4.0000001E-01;18.567373;3;-0.86751008;0.0;-0.34922314;0;-0.017193394;  1.0000387E+04;  0.0000000E+00; -8.9704351E-08;  1.0000000E+04;  0.0000000E+00;  1.0000063E+04;-0.014814741;0.0;-0.0023786535;26.723175
  3.9998367E-02;  9.9999998E-03; -2.8000048E-01;1092;-0.0014294714;0.0;-0.00039937149;1000.0281;  4.0000001E-01;23.30798;3;-1.1359539;0.0;-0.31032085;0;-0.02156263;  1.0000520E+04;  0.0000000E+00; -4.1962419E-08;  1.0000000E+04;  0.0000000E+00;  1.0000043E+04;-0.019944753;0.0;-0.0016178766;17.32601
  3.9997980E-02;  9.9999998E-03; -2.6000047E-01;1093;-0.0017766587;0.0;-0.00038944854;1000.033;  4.0000001E-01;27.258484;3;-1.3380711;0.0;-0.2855649;0;-0.025292682;  1.0000644E+04;  0.0000000E+00;  1.8593347E-08;  1.0000000E+04;  0.0000000E+00;  1.0000016E+04;-0.024712238;0.0;-0.00058044272;4.7662287
  3.9997663E-02;  9.9999998E-03; -2.4000043E-01;1094;-0.0020572492;0.0;-0.00036015676;1000.0369;  4.0000001E-01;30.517651;3;-1.4933977;0.0;-0.25471961;0;-0.028256485;  1.0000746E+04;  0.0000000E+00;  4.1108375E-08;  1.0000000E+04;  0.0000000E+00;  9.9999902E+03;-0.028665189;0.0;0.00040870294;7.165647
  3.9997432E-02;  9.9999998E-03; -2.2000037E-01;1095;-0.0022644231;0.0;-0.00031915706;1000.0397;  4.0000001E-01;32.887955;3;-1.610616;0.0;-0.22179201;0;-0.030498199;  1.0000825E+04;  0.0000000E+00;  3.9548393E-08;  1.0000000E+04;  0.0000000E+00;  9.9999717E+03;-0.03163882;0.0;0.0011406209;16.002565
  3.9997268E-02;  9.9999998E-03; -2.0000032E-01;1096;-0.002408758;0.0;-0.00026741848;1000.0418;  4.0000001E-01;34.66568;3;-1.698257;0.0;-0.18492542;0;-0.032140903;  1.0000877E+04;  0.0000000E+00;  2.2738970E-08;  1.0000000E+04;  0.0000000E+00;  9.9999609E+03;-0.03368865;0.0;0.0015477445;20.963917
  5.9998386E-02;  9.9999998E-03; -3.0000055E-01;1122;-0.0013886979;0.0;-0.00045014496;1000.0268;  4.0000001E-01;22.22159;3;-1.1374426;0.0;-0.3573041;0;-0.02006967;  1.0000462E+04;  0.0000000E+00; -3.9824972E-06;  1.0000000E+04;  0.0000000E+00;  1.0000076E+04;-0.017351443;0.0;-0.0027182265;31.654751
  5.9997771E-02;  9.9999998E-03; -2.8000054E-01;1123;-0.0019297014;0.0;-0.00042903863;1000.0336;  4.0000001E-01;27.851061;3;-1.4685879;0.0;-0.30950451;0;-0.025054218;  1.0000619E+04;  0.0000000E+00; -1.1349617E-06;  1.0000000E+04;  0.0000000E+00;  1.0000049E+04;-0.023263112;0.0;-0.0017911062;19.884447
  5.9997257E-02;  9.9999998E-03; -2.6000053E-01;1124;-0.0023847753;0.0;-0.00041831075;1000.0391;  4.0000001E-01;32.394142;3;-1.7074498;0.0;-0.28253603;0;-0.029257962;  1.0000763E+04;  0.0000000E+00; -7.0839789E-08;  1.0000000E+04;  0.0000000E+00;  1.0000017E+04;-0.02867691;0.0;-0.00058105134;4.7277794
  5.9996843E-02;  9.9999998E-03; -2.4000047E-01;1125;-0.0027489758;0.0;-0.00038696628;1000.0434;  4.0000001E-01;35.949596;3;-1.8883212;0.0;-0.25145674;0;-0.032524534;  1.0000881E+04;  0.0000000E+00; -1.6463829E-08;  1.0000000E+04;  0.0000000E+00;  9.9999863E+03;-0.033068538;0.0;0.00054400379;9.3512974
  5.9996542E-02;  9.9999998E-03; -2.2000042E-01;1126;-0.0030152833;0.0;-0.00034271457;1000.0466;  4.0000001E-01;38.616184;3;-2.0252628;0.0;-0.21872658;0;-0.034918796;  1.0000969E+04;  0.0000000E+00;  9.3249461E-09;  1.0000000E+04;  0.0000000E+00;  9.9999648E+03;-0.036276333;0.0;0.001357538;19.555838
  5.9996333E-02;  9.9999998E-03; -2.0000035E-01;1127;-0.003196846;0.0;-0.0002872078;1000.0488;  4.0000001E-01;40.492676;3;-2.1273856;0.0;-0.18285123;0;-0.03660674;  1.0001025E+04;  0.0000000E+00;  1.3196926E-08;  1.0000000E+04;  0.0000000E+00;  9.9999512E+03;-0.038401823;0.0;0.0017950821;25.10305
  7.9997852E-02;  9.9999998E-03; -3.0000061E-01;1153;-0.0018256654;0.0;-0.0004868035;1000.0324;  4.0000001E-01;26.863434;3;-1.4577141;0.0;-0.36617756;0;-0.02349266;  1.0000560E+04;  0.0000000E+00; -4.1582857E-04;  1.0000000E+04;  0.0000000E+00;  1.0000085E+04;-0.020520687;0.0;-0.0029719728;36.152576
  7.9997048E-02;  9.9999998E-03; -2.8000057E-01;1154;-0.0025214248;0.0;-0.00044848688;1000.04;  4.0000001E-01;33.184242;3;-1.8591231;0.0;-0.30111861;0;-0.029177986;  1.0000747E+04;  0.0000000E+00; -2.3282296E-04;  1.0000000E+04;  0.0000000E+00;  1.0000055E+04;-0.027280778;0.0;-0.0018972078;21.963287
  7.9996392E-02;  9.9999998E-03; -2.6000056E-01;1155;-0.0030946364;0.0;-0.00043357859;1000.0463;  4.0000001E-01;38.319897;3;-2.1362033;0.0;-0.27067661;0;-0.033904042;  1.0000910E+04;  0.0000000E+00; -8.0667676E-05;  1.0000000E+04;  0.0000000E+00;  1.0000016E+04;-0.033363387;0.0;-0.00054065639;4.2218637
  7.9995871E-02;  9.9999998E-03; -2.4000052E-01;1156;-0.0035452913;0.0;-0.00039958124;1000.0513;  4.0000001E-01;42.46793;3;-2.3407307;0.0;-0.24003386;0;-0.037504889;  1.0001043E+04;  0.0000000E+00; -8.7976014E-06;  1.0000000E+04;  0.0000000E+00;  9.9999824E+03;-0.038192518;0.0;0.00068763038;11.898161
  7.9995498E-02;  9.9999998E-03; -2.2000045E-01;1157;-0.0038696672;0.0;-0.00035251351;1000.0549;  4.0000001E-01;45.430805;3;-2.4960389;0.0;-0.20798567;0;-0.040064823;  1.0001137E+04;  0.0000000E+00; -7.6319274E-08;  1.0000000E+04;  0.0000000E+00;  9.9999580E+03;-0.041615855;0.0;0.0015510314;23.280067
  7.9995245E-02;  9.9999998E-03; -2.0000038E-01;1158;-0.0040854779;0.0;-0.00029412613;1000.057;  4.0000001E-01;47.208534;3;-2.6109247;0.0;-0.17359236;0;-0.041784834;  1.0001196E+04;  0.0000000E+00; -2.2876243E-08;  1.0000000E+04;  0.0000000E+00;  9.9999463E+03;-0.043779783;0.0;0.0019949495;29.223925
  9.9997193E-02;  9.9999998E-03; -3.0000070E-01;1184;-0.0023505697;0.0;-0.00053259282;1000.0397;  4.0000001E-01;32.887955;3;-1.8405538;0.0;-0.381567;0;-0.028285019;  1.0000701E+04;  0.0000000E+00; -3.7847210E-03;  1.0000000E+04;  0.0000000E+00;  1.0000095E+04;-0.025112782;0.0;-0.0031722379;44.653111
  9.9996172E-02;  9.9999998E-03; -2.8000063E-01;1185;-0.0032220008;0.0;-0.00046303365;1000.0488;  4.0000001E-01;40.492676;3;-2.3205271;0.0;-0.28908634;0;-0.034672413;  1.0000914E+04;  0.0000000E+00; -2.3953200E-03;  1.0000000E+04;  0.0000000E+00;  1.0000061E+04;-0.032714695;0.0;-0.0019577197;26.53248
  9.9995352E-02;  9.9999998E-03; -2.6000059E-01;1186;-0.0039221686;0.0;-0.00043821716;1000.056;  4.0000001E-01;46.418434;3;-2.6365485;0.0;-0.25199926;0;-0.039825417;  1.0001104E+04;  0.0000000E+00; -1.1033146E-03;  1.0000000E+04;  0.0000000E+00;  1.0000016E+04;-0.039357442;0.0;-0.00046797574;6.4147873
  9.9994719E-02;  9.9999998E-03; -2.4000055E-01;1187;-0.0044610724;0.0;-0.00040013233;1000.0612;  4.0000001E-01;50.665226;3;-2.8631673;0.0;-0.22155744;0;-0.043663032;  1.0001249E+04;  0.0000000E+00; -3.0314317E-04;  1.0000000E+04;  0.0000000E+00;  9.9999775E+03;-0.044502329;0.0;0.00083929684;15.036366
  9.9994272E-02;  9.9999998E-03; -2.2000048E-01;1188;-0.0048406501;0.0;-0.00035197922;1000.0649;  4.0000001E-01;53.82563;3;-3.0339677;0.0;-0.19195992;0;-0.046333428;  1.0001346E+04;  0.0000000E+00; -3.3632256E-05;  1.0000000E+04;  0.0000000E+00;  9.9999521E+03;-0.048060659;0.0;0.0017272298;27.389874
  9.9993981E-02;  9.9999998E-03; -2.0000041E-01;1189;-0.0050864983;0.0;-0.00029221628;1000.0673;  4.0000001E-01;55.800884;3;-3.1593494;0.0;-0.15996104;0;-0.048059467;  1.0001411E+04;  0.0000000E+00; -8.9361244E-08;  1.0000000E+04;  0.0000000E+00;  9.9999385E+03;-0.050220352;0.0;0.0021608851;33.606529
  1.1999636E-01;  9.9999998E-03; -3.0000082E-01;1215;-0.0029905161;0.0;-0.00059796625;1000.0515;  4.0000001E-01;42.665455;3;-2.3019602;0.0;-0.41217089;0;-0.035741076;  1.0000924E+04;  0.0000000E+00; -1.6403517E-02;  1.0000000E+04;  0.0000000E+00;  1.0000106E+04;-0.032373879;0.0;-0.0033671972;94.485741
  1.1999509E-01;  9.9999998E-03; -2.8000069E-01;1216;-0.0040603406;0.0;-0.00048214209;1000.0613;  4.0000001E-01;50.763988;3;-2.8678269;0.0;-0.27979326;0;-0.042658303;  1.0001164E+04;  0.0000000E+00; -1.1224679E-02;  1.0000000E+04;  0.0000000E+00;  1.0000063E+04;-0.040654894;0.0;-0.0020034094;62.205013
  1.1999409E-01;  9.9999998E-03; -2.6000065E-01;1217;-0.0048958627;0.0;-0.0004396041;1000.069;  4.0000001E-01;57.183559;3;-3.2208765;0.0;-0.23072124;0;-0.047820091;  1.0001361E+04;  0.0000000E+00; -5.6360951E-03;  1.0000000E+04;  0.0000000E+00;  1.0000013E+04;-0.047456454;0.0;-0.00036363688;28.659826
  1.1999334E-01;  9.9999998E-03; -2.4000058E-01;1218;-0.005525386;0.0;-0.00039410125;1000.0739;  4.0000001E-01;61.232826;3;-3.4675617;0.0;-0.19799674;0;-0.051515758;  1.0001508E+04;  0.0000000E+00; -1.9524521E-03;  1.0000000E+04;  0.0000000E+00;  9.9999707E+03;-0.052536801;0.0;0.0010210417;21.505184
  1.1999283E-01;  9.9999998E-03; -2.2000051E-01;1219;-0.0059565944;0.0;-0.0003471883;1000.0775;  4.0000001E-01;64.195709;3;-3.6487613;0.0;-0.17298353;0;-0.054045781;  1.0001611E+04;  0.0000000E+00; -3.8769920E-04;  1.0000000E+04;  0.0000000E+00;  9.9999424E+03;-0.055964228;0.0;0.0019184444;32.558914
  1.1999250E-01;  9.9999998E-03; -2.0000042E-01;1220;-0.006227979;0.0;-0.0002880308;1000.0801;  4.0000001E-01;66.368484;3;-3.7812128;0.0;-0.1451574;0;-0.055653051;  1.0001669E+04;  0.0000000E+00; -2.6932934E-05;  1.0000000E+04;  0.0000000E+00;  9.9999277E+03;-0.057981573;0.0;0.002328523;38.842583
  1.3999531E-01;  9.9999998E-03; -3.0000100E-01;1246;-0.0037831031;0.0;-0.00069688435;1000.07;  4.0000001E-01;57.97366;3;-2.8634901;0.0;-0.46772003;0;-0.047608238;  1.0001280E+04;  0.0000000E+00; -4.9355030E-02;  1.0000000E+04;  0.0000000E+00;  1.0000120E+04;-0.044001836;0.0;-0.0036064007;255.81015
  1.3999374E-01;  9.9999998E-03; -2.8000081E-01;1247;-0.0050721564;0.0;-0.00051973079;1000.0801;  4.0000001E-01;66.368484;3;-3.5159404;0.0;-0.28273153;0;-0.054498434;  1.0001533E+04;  0.0000000E+00; -3.4672286E-02;  1.0000000E+04;  0.0000000E+00;  1.0000070E+04;-0.052432187;0.0;-0.0020662486;178.30722
  1.3999256E-01;  9.9999998E-03; -2.6000071E-01;1248;-0.0060488787;0.0;-0.00045300295;1000.0863;  4.0000001E-01;71.504143;3;-3.8983359;0.0;-0.21686625;0;-0.058758672;  1.0001720E+04;  0.0000000E+00; -1.8069522E-02;  1.0000000E+04;  0.0000000E+00;  1.0000010E+04;-0.058552444;0.0;-0.00020622765;92.039299
  1.3999169E-01;  9.9999998E-03; -2.4000062E-01;1249;-0.0067721033;0.0;-0.0003949494;1000.0905;  4.0000001E-01;74.960831;3;-4.1597176;0.0;-0.17841411;0;-0.061542057;  1.0001851E+04;  0.0000000E+00; -6.8205618E-03;  1.0000000E+04;  0.0000000E+00;  9.9999600E+03;-0.062838241;0.0;0.0012961844;43.12941
  1.3999109E-01;  9.9999998E-03; -2.2000055E-01;1250;-0.007252852;0.0;-0.00034977699;1000.0933;  4.0000001E-01;77.331131;3;-4.3464804;0.0;-0.15904677;0;-0.063432544;  1.0001938E+04;  0.0000000E+00; -1.6799025E-03;  1.0000000E+04;  0.0000000E+00;  9.9999287E+03;-0.065640219;0.0;0.0022076748;40.922176
  1.3999073E-01;  9.9999998E-03; -2.0000046E-01;1251;-0.0075448509;0.0;-0.00029208988;1000.0952;  4.0000001E-01;78.812576;3;-4.4825706;0.0;-0.13544838;0;-0.064656816;  1.0001988E+04;  0.0000000E+00; -2.0939473E-04;  1.0000000E+04;  0.0000000E+00;  9.9999150E+03;-0.06723579;0.0;0.0025789717;46.199589
  1.5999395E-01;  9.9999998E-03; -3.0000120E-01;1277;-0.0047865841;0.0;-0.00081583642;1000.0981;  4.0000001E-01;81.281639;3;-3.5609059;0.0;-0.53365088;0;-0.065719463;  1.0001828E+04;  0.0000000E+00; -1.1657450E-01;  1.0000000E+04;  0.0000000E+00;  1.0000136E+04;-0.061762411;0.0;-0.0039570499;596.86462
  1.5999208E-01;  9.9999998E-03; -2.8000093E-01;1278;-0.0062960987;0.0;-0.00058345532;1000.1069;  4.0000001E-01;88.590073;3;-4.2792435;0.0;-0.30194902;0;-0.071309239;  1.0002060E+04;  0.0000000E+00; -8.1243195E-02;  1.0000000E+04;  0.0000000E+00;  1.0000073E+04;-0.069144487;0.0;-0.0021647513;415.29132
  1.5999068E-01;  9.9999998E-03; -2.6000080E-01;1279;-0.0074189031;0.0;-0.00049039832;1000.1098;  4.0000001E-01;90.960373;3;-4.6780581;0.0;-0.22036862;0;-0.073190995;  1.0002200E+04;  0.0000000E+00; -4.2537302E-02;  1.0000000E+04;  0.0000000E+00;  9.9999980E+03;-0.073259577;0.0;6.858469e-05;217.34996
  1.5998968E-01;  9.9999998E-03; -2.4000071E-01;1280;-0.0082334513;0.0;-0.00042380404;1000.1114;  4.0000001E-01;92.244293;3;-4.945663;0.0;-0.17550683;0;-0.073967069;  1.0002286E+04;  0.0000000E+00; -1.6563004E-02;  1.0000000E+04;  0.0000000E+00;  9.9999385E+03;-0.075757116;0.0;0.001790048;92.223297
  1.5998903E-01;  9.9999998E-03; -2.2000062E-01;1281;-0.008762422;0.0;-0.00037788198;1000.1124;  4.0000001E-01;93.133156;3;-5.1339221;0.0;-0.15923709;0;-0.074560136;  1.0002344E+04;  0.0000000E+00; -4.4920933E-03;  1.0000000E+04;  0.0000000E+00;  9.9999033E+03;-0.077304408;0.0;0.0027442749;57.229477
  1.5998864E-01;  9.9999998E-03; -2.0000052E-01;1282;-0.0090695387;0.0;-0.00032092939;1000.1135;  4.0000001E-01;94.022018;3;-5.2681284;0.0;-0.14126648;0;-0.075062871;  1.0002373E+04;  0.0000000E+00; -7.1354839E-04;  1.0000000E+04;  0.0000000E+00;  9.9998926E+03;-0.07811743;0.0;0.0030545595;57.951302
  1.7999215E-01;  9.9999998E-03; -3.0000138E-01;1308;-0.0060988427;0.0;-0.00088171638;1000.1378;  4.0000001E-01;114.16959;3;-4.4633098;0.0;-0.54242516;0;-0.090853564;  1.0002589E+04;  0.0000000E+00; -2.2213538E-01;  1.0000000E+04;  0.0000000E+00;  1.0000166E+04;-0.086136132;0.0;-0.0047174348;1137.7822
  1.7999001E-01;  9.9999998E-03; -2.8000110E-01;1309;-0.0077802865;0.0;-0.00066015357;1000.1414;  4.0000001E-01;117.13247;3;-5.1795921;0.0;-0.32427263;0;-0.092944026;  1.0002753E+04;  0.0000000E+00; -1.5139800E-01;  1.0000000E+04;  0.0000000E+00;  1.0000076E+04;-0.090625584;0.0;-0.0023184395;775.10211
  1.7998841E-01;  9.9999998E-03; -2.6000097E-01;1310;-0.009039077;0.0;-0.00056090526;1000.1389;  4.0000001E-01;115.05846;3;-5.5719161;0.0;-0.23962045;0;-0.090749934;  1.0002805E+04;  0.0000000E+00; -7.8129441E-02;  1.0000000E+04;  0.0000000E+00;  9.9999766E+03;-0.09134987;0.0;0.00059993425;400.61023
  1.7998727E-01;  9.9999998E-03; -2.4000086E-01;1311;-0.0099405153;0.0;-0.00049846043;1000.136;  4.0000001E-01;112.68816;3;-5.829268;0.0;-0.20156443;0;-0.088493399;  1.0002821E+04;  0.0000000E+00; -3.0544236E-02;  1.0000000E+04;  0.0000000E+00;  9.9998994E+03;-0.091209888;0.0;0.0027164919;166.27803
  1.7998655E-01;  9.9999998E-03; -2.2000076E-01;1312;-0.010517596;0.0;-0.00044791002;1000.1347;  4.0000001E-01;111.60177;3;-6.0164194;0.0;-0.1860885;0;-0.087260664;  1.0002832E+04;  0.0000000E+00; -8.6279875E-03;  1.0000000E+04;  0.0000000E+00;  9.9998643E+03;-0.091009662;0.0;0.0037489971;85.667274
  1.7998615E-01;  9.9999998E-03; -2.0000064E-01;1313;-0.010830496;0.0;-0.00039289353;1000.1344;  4.0000001E-01;111.30548;3;-6.1431894;0.0;-0.1738769;0;-0.0867927;  1.0002830E+04;  0.0000000E+00; -1.5337025E-03;  1.0000000E+04;  0.0000000E+00;  9.9998564E+03;-0.090748727;0.0;0.0039560306;77.337318
  1.9998977E-01;  9.9999998E-03; -3.0000150E-01;1339;-0.0078148786;0.0;-0.00088324299;1000.1854;  4.0000001E-01;153.57588;3;-5.6377811;0.0;-0.47910404;0;-0.12055773;  1.0003490E+04;  0.0000000E+00; -3.3611840E-01;  1.0000000E+04;  0.0000000E+00;  1.0000216E+04;-0.11403733;0.0;-0.0065204082;1727.2916
  1.9998740E-01;  9.9999998E-03; -2.8000131E-01;1340;-0.0096002258;0.0;-0.00073597627;1000.1815;  4.0000001E-01;150.31671;3;-6.2576346;0.0;-0.3389883;0;-0.11705916;  1.0003555E+04;  0.0000000E+00; -2.2516754E-01;  1.0000000E+04;  0.0000000E+00;  1.0000077E+04;-0.11445051;0.0;-0.0026086527;1156.277
  1.9998564E-01;  9.9999998E-03; -2.6000118E-01;1341;-0.010960436;0.0;-0.00066172431;1000.1716;  4.0000001E-01;142.11942;3;-6.5987253;0.0;-0.27264643;0;-0.10982279;  1.0003504E+04;  0.0000000E+00; -1.1400735E-01;  1.0000000E+04;  0.0000000E+00;  9.9999297E+03;-0.11141729;0.0;0.0015945025;587.28381
  1.9998437E-01;  9.9999998E-03; -2.4000108E-01;1342;-0.011936258;0.0;-0.00062149664;1000.1639;  4.0000001E-01;135.79861;3;-6.8287482;0.0;-0.25268197;0;-0.10419419;  1.0003446E+04;  0.0000000E+00; -4.4161160E-02;  1.0000000E+04;  0.0000000E+00;  9.9998359E+03;-0.10856868;0.0;0.0043744911;243.91124
  1.9998360E-01;  9.9999998E-03; -2.2000098E-01;1343;-0.012544935;0.0;-0.00058558077;1000.1598;  4.0000001E-01;132.34192;3;-6.9967446;0.0;-0.25176024;0;-0.1010823;  1.0003405E+04;  0.0000000E+00; -1.2610342E-02;  1.0000000E+04;  0.0000000E+00;  9.9997920E+03;-0.10658568;0.0;0.0055033793;125.57231
  1.9998319E-01;  9.9999998E-03; -2.0000085E-01;1344;-0.012856717;0.0;-0.00052608486;1000.1584;  4.0000001E-01;131.25552;3;-7.1111727;0.0;-0.24501343;0;-0.0996641;  1.0003372E+04;  0.0000000E+00; -2.3460614E-03;  1.0000000E+04;  0.0000000E+00;  9.9997930E+03;-0.105183;0.0;0.0055188951;107.94335
  2.1998690E-01;  9.9999998E-03; -3.0000234E-01;1370;-0.0098016812;0.0;-0.0013286459;1000.2267;  4.0000001E-01;187.84651;3;-6.9580059;0.0;-0.70611572;0;-0.14490397;  1.0004333E+04;  0.0000000E+00; -4.0607321E-01;  1.0000000E+04;  0.0000000E+00;  1.0000195E+04;-0.13833717;0.0;-0.0065668081;2094.2007
  2.1998419E-01;  9.9999998E-03; -2.8000179E-01;1371;-0.011789781;0.0;-0.0010001113;1000.2199;  4.0000001E-01;182.21704;3;-7.5230761;0.0;-0.45662308;0;-0.13902612;  1.0004356E+04;  0.0000000E+00; -2.6662722E-01;  1.0000000E+04;  0.0000000E+00;  1.0000039E+04;-0.13683897;0.0;-0.0021871496;1374.1207
  2.1998225E-01;  9.9999998E-03; -2.6000157E-01;1372;-0.013230002;0.0;-0.0008838537;1000.2046;  4.0000001E-01;169.47667;3;-7.7715788;0.0;-0.37234688;0;-0.12799749;  1.0004245E+04;  0.0000000E+00; -1.3259098E-01;  1.0000000E+04;  0.0000000E+00;  9.9998447E+03;-0.13157269;0.0;0.0035752016;688.97729
  2.1998090E-01;  9.9999998E-03; -2.4000143E-01;1373;-0.014266632;0.0;-0.00083260512;1000.1932;  4.0000001E-01;160.09421;3;-7.9503579;0.0;-0.35539246;0;-0.11988802;  1.0004143E+04;  0.0000000E+00; -5.0492872E-02;  1.0000000E+04;  0.0000000E+00;  9.9997236E+03;-0.12701587;0.0;0.007127848;296.90448
  2.1998009E-01;  9.9999998E-03; -2.2000131E-01;1374;-0.014886063;0.0;-0.00080256956;1000.1876;  4.0000001E-01;155.35361;3;-8.0848694;0.0;-0.36233634;0;-0.11549076;  1.0004065E+04;  0.0000000E+00; -1.4275513E-02;  1.0000000E+04;  0.0000000E+00;  9.9996855E+03;-0.12376409;0.0;0.0082733277;175.78076
  2.1997970E-01;  9.9999998E-03; -2.0000115E-01;1375;-0.01517937;0.0;-0.00073791842;1000.1853;  4.0000001E-01;153.47711;3;-8.1762466;0.0;-0.36351988;0;-0.11346379;  1.0004003E+04;  0.0000000E+00; -2.6495215E-03;  1.0000000E+04;  0.0000000E+00;  9.9997031E+03;-0.12141421;0.0;0.0079504168;152.99997
  2.3998313E-01;  9.9999998E-03; -3.0000490E-01;1401;-0.012304781;0.0;-0.0030678036;1000.2435;  4.0000001E-01;201.77203;3;-8.5321455;0.0;-1.8350258;0;-0.15082563;  1.0005100E+04;  0.0000000E+00; -3.9779288E-01;  1.0000000E+04;  0.0000000E+00;  9.9997744E+03;-0.15774794;0.0;0.0069222981;2061.1555
  2.3998018E-01;  9.9999998E-03; -2.8000334E-01;1402;-0.014428083;0.0;-0.0020491919;1000.2474;  4.0000001E-01;205.0312;3;-8.986537;0.0;-1.0843172;0;-0.15204026;  1.0005134E+04;  0.0000000E+00; -2.5337851E-01;  1.0000000E+04;  0.0000000E+00;  9.9998135E+03;-0.15638907;0.0;0.0043488131;1315.0562
  2.3997813E-01;  9.9999998E-03; -2.6000252E-01;1403;-0.015920099;0.0;-0.0015221172;1000.2344;  4.0000001E-01;194.16731;3;-9.1108694;0.0;-0.72074604;0;-0.142855;  1.0005026E+04;  0.0000000E+00; -1.2285713E-01;  1.0000000E+04;  0.0000000E+00;  9.9996641E+03;-0.15107693;0.0;0.0082219206;658.87262
  2.3997670E-01;  9.9999998E-03; -2.4000208E-01;1404;-0.016984737;0.0;-0.0012702454;1000.2234;  4.0000001E-01;185.08116;3;-9.2082825;0.0;-0.58601236;0;-0.13476489;  1.0004911E+04;  0.0000000E+00; -4.5517221E-02;  1.0000000E+04;  0.0000000E+00;  9.9995557E+03;-0.14620392;0.0;0.011439022;324.92966
  2.3997591E-01;  9.9999998E-03; -2.2000183E-01;1405;-0.017581832;0.0;-0.001164968;1000.2174;  4.0000001E-01;180.14302;3;-9.2852507;0.0;-0.55640393;0;-0.13021448;  1.0004816E+04;  0.0000000E+00; -1.2467635E-02;  1.0000000E+04;  0.0000000E+00;  9.9995342E+03;-0.14242801;0.0;0.012213534;241.56947
  2.3997557E-01;  9.9999998E-03; -2.0000158E-01;1406;-0.017836228;0.0;-0.0010572489;1000.2151;  4.0000001E-01;178.26654;3;-9.3437452;0.0;-0.54365706;0;-0.12811847;  1.0004734E+04;  0.0000000E+00; -2.1956486E-03;  1.0000000E+04;  0.0000000E+00;  9.9995732E+03;-0.13945927;0.0;0.011340795;214.73714
  2.5997797E-01;  9.9999998E-03; -3.0000767E-01;1432;-0.015642835;0.0;-0.0047778105;1000.2527;  4.0000001E-01;209.37674;3;-10.581422;0.0;-2.8464808;0;-0.15123336;  1.0005905E+04;  0.0000000E+00; -3.0170801E-01;  1.0000000E+04;  0.0000000E+00;  9.9991494E+03;-0.17627719;0.0;0.025043828;1620.0637
  2.5997505E-01;  9.9999998E-03; -2.8000554E-01;1433;-0.017703971;0.0;-0.0034894638;1000.2667;  4.0000001E-01;220.93198;3;-10.747783;0.0;-1.911108;0;-0.15814118;  1.0005950E+04;  0.0000000E+00; -1.8955767E-01;  1.0000000E+04;  0.0000000E+00;  9.9993818E+03;-0.17506076;0.0;0.016919583;1031.1381
  2.5997302E-01;  9.9999998E-03; -2.6000401E-01;1434;-0.019170001;0.0;-0.0025288335;1000.2621;  4.0000001E-01;217.179;3;-10.676949;0.0;-1.2785659;0;-0.15469661;  1.0005872E+04;  0.0000000E+00; -8.9468762E-02;  1.0000000E+04;  0.0000000E+00;  9.9993711E+03;-0.1707602;0.0;0.016063578;559.20544
  2.5997165E-01;  9.9999998E-03; -2.4000314E-01;1435;-0.020159569;0.0;-0.0020016599;1000.2544;  4.0000001E-01;210.75943;3;-10.620141;0.0;-0.97861421;0;-0.14901938;  1.0005771E+04;  0.0000000E+00; -3.1837691E-02;  1.0000000E+04;  0.0000000E+00;  9.9993213E+03;-0.16644363;0.0;0.017424261;373.6283
  2.5997096E-01;  9.9999998E-03; -2.2000264E-01;1436;-0.020684846;0.0;-0.0017333983;1000.2503;  4.0000001E-01;207.40149;3;-10.608133;0.0;-0.86371803;0;-0.14546916;  1.0005673E+04;  0.0000000E+00; -8.1916610E-03;  1.0000000E+04;  0.0000000E+00;  9.9993369E+03;-0.16269648;0.0;0.017227327;329.60736
  2.5997069E-01;  9.9999998E-03; -2.0000219E-01;1437;-0.020874688;0.0;-0.0015159069;1000.249;  4.0000001E-01;206.21634;3;-10.623322;0.0;-0.80505657;0;-0.14379427;  1.0005571E+04;  0.0000000E+00; -1.2720472E-03;  1.0000000E+04;  0.0000000E+00;  9.9994082E+03;-0.15939116;0.0;0.015596893;293.28479
  2.7997151E-01;  9.9999998E-03; -3.0001003E-01;1463;-0.019717444;0.0;-0.0060412553;1000.2728;  4.0000001E-01;226.06763;3;-13.022393;0.0;-3.5108666;0;-0.15803742;  1.0006847E+04;  0.0000000E+00; -1.7629151E-01;  1.0000000E+04;  0.0000000E+00;  9.9986113E+03;-0.19613129;0.0;0.038093861;1133.618
  2.7996877E-01;  9.9999998E-03; -2.8000775E-01;1464;-0.021611178;0.0;-0.0048083663;1000.2896;  4.0000001E-01;239.89439;3;-12.782889;0.0;-2.5944548;0;-0.16551663;  1.0006889E+04;  0.0000000E+00; -1.0954142E-01;  1.0000000E+04;  0.0000000E+00;  9.9989053E+03;-0.19498557;0.0;0.029468935;778.15204
  2.7996686E-01;  9.9999998E-03; -2.6000577E-01;1465;-0.022954641;0.0;-0.0036765405;1000.2927;  4.0000001E-01;242.56099;3;-12.424995;0.0;-1.8773047;0;-0.16659898;  1.0006836E+04;  0.0000000E+00; -4.9977921E-02;  1.0000000E+04;  0.0000000E+00;  9.9990186E+03;-0.19181637;0.0;0.025217397;544.51727
  2.7996564E-01;  9.9999998E-03; -2.4000451E-01;1466;-0.023815488;0.0;-0.0029354836;1000.2894;  4.0000001E-01;239.79564;3;-12.174557;0.0;-1.4620504;0;-0.16396518;  1.0006750E+04;  0.0000000E+00; -1.6669413E-02;  1.0000000E+04;  0.0000000E+00;  9.9990420E+03;-0.18829212;0.0;0.024326935;475.70605
  2.7996510E-01;  9.9999998E-03; -2.2000366E-01;1467;-0.024235444;0.0;-0.0024671524;1000.2878;  4.0000001E-01;238.51172;3;-12.052818;0.0;-1.2600493;0;-0.16192231;  1.0006647E+04;  0.0000000E+00; -3.8046385E-03;  1.0000000E+04;  0.0000000E+00;  9.9991064E+03;-0.18479203;0.0;0.022869727;437.43463
  2.7996495E-01;  9.9999998E-03; -2.0000300E-01;1468;-0.024343202;0.0;-0.0021039755;1000.2874;  4.0000001E-01;238.0179;3;-12.021663;0.0;-1.1302967;0;-0.16085003;  1.0006529E+04;  0.0000000E+00; -4.5210629E-04;  1.0000000E+04;  0.0000000E+00;  9.9992148E+03;-0.18130957;0.0;0.020459527;386.38922
  2.9996398E-01;  9.9999998E-03; -3.0001220E-01;1494;-0.024258178;0.0;-0.0071255611;1000.3087;  4.0000001E-01;255.69638;3;-15.638369;0.0;-4.0493073;0;-0.17229539;  1.0007962E+04;  0.0000000E+00; -7.8727208E-02;  1.0000000E+04;  0.0000000E+00;  9.9982129E+03;-0.21828462;0.0;0.04598923;947.45782
  2.9996142E-01;  9.9999998E-03; -2.8000981E-01;1495;-0.025990477;0.0;-0.0059451745;1000.3246;  4.0000001E-01;268.93057;3;-14.959873;0.0;-3.1421154;0;-0.17872448;  1.0007991E+04;  0.0000000E+00; -4.7497895E-02;  1.0000000E+04;  0.0000000E+00;  9.9985010E+03;-0.21729878;0.0;0.038574293;762.2453
  2.9995966E-01;  9.9999998E-03; -2.6000762E-01;1496;-0.027204966;0.0;-0.0048036417;1000.3308;  4.0000001E-01;274.06622;3;-14.292238;0.0;-2.429096;0;-0.18158983;  1.0007953E+04;  0.0000000E+00; -2.0286597E-02;  1.0000000E+04;  0.0000000E+00;  9.9986680E+03;-0.21501343;0.0;0.033423603;653.80157
  2.9995862E-01;  9.9999998E-03; -2.4000603E-01;1497;-0.027947223;0.0;-0.0039410479;1000.3309;  4.0000001E-01;274.16498;3;-13.846488;0.0;-1.9607409;0;-0.18110126;  1.0007872E+04;  0.0000000E+00; -6.0019111E-03;  1.0000000E+04;  0.0000000E+00;  9.9987490E+03;-0.21215381;0.0;0.03105255;608.87665
  2.9995820E-01;  9.9999998E-03; -2.2000487E-01;1498;-0.028271105;0.0;-0.003299111;1000.3309;  4.0000001E-01;274.16498;3;-13.623038;0.0;-1.6821713;0;-0.18027912;  1.0007763E+04;  0.0000000E+00; -1.0709091E-03;  1.0000000E+04;  0.0000000E+00;  9.9988604E+03;-0.20890334;0.0;0.02862422;557.63708
  2.9995823E-01;  9.9999998E-03; -2.0000394E-01;1499;-0.028284905;0.0;-0.0027853905;1000.3312;  4.0000001E-01;274.46127;3;-13.539719;0.0;-1.4962178;0;-0.17968237;  1.0007630E+04;  0.0000000E+00; -6.7110057E-05;  1.0000000E+04;  0.0000000E+00;  9.9989990E+03;-0.20532137;0.0;0.025638996;491.2312
  3.1995562E-01;  9.9999998E-03; -3.0001447E-01;1525;-0.029090876;0.0;-0.0081847636;1000.3589;  4.0000001E-01;297.37421;3;-18.298857;0.0;-4.5618649;0;-0.19263498;  1.0009275E+04;  0.0000000E+00; -2.4830883E-02;  1.0000000E+04;  0.0000000E+00;  9.9979082E+03;-0.24317586;0.0;0.050540876;1011.4821
  3.1995308E-01;  9.9999998E-03; -2.8001186E-01;1526;-0.03074142;0.0;-0.0070125349;1000.3727;  4.0000001E-01;308.7319;3;-17.203693;0.0;-3.6199834;0;-0.19783467;  1.0009282E+04;  0.0000000E+00; -1.3796728E-02;  1.0000000E+04;  0.0000000E+00;  9.9981719E+03;-0.24234709;0.0;0.044512428;883.35291
  3.1995139E-01;  9.9999998E-03; -2.6000950E-01;1527;-0.031891786;0.0;-0.0058732117;1000.3791;  4.0000001E-01;314.06506;3;-16.241499;0.0;-2.9108222;0;-0.2008601;  1.0009240E+04;  0.0000000E+00; -5.1438147E-03;  1.0000000E+04;  0.0000000E+00;  9.9983467E+03;-0.2406341;0.0;0.039773997;800.95471
  3.1995046E-01;  9.9999998E-03; -2.4000765E-01;1528;-0.032565013;0.0;-0.0049472782;1000.3804;  4.0000001E-01;315.15146;3;-15.618404;0.0;-2.4306188;0;-0.20119676;  1.0009157E+04;  0.0000000E+00; -1.1584730E-03;  1.0000000E+04;  0.0000000E+00;  9.9984541E+03;-0.23823425;0.0;0.037037496;750.33765
  3.1995016E-01;  9.9999998E-03; -2.2000620E-01;1529;-0.032816846;0.0;-0.0041829306;1000.3813;  4.0000001E-01;315.94156;3;-15.303268;0.0;-2.1098413;0;-0.2009743;  1.0009038E+04;  0.0000000E+00; -1.0650053E-04;  1.0000000E+04;  0.0000000E+00;  9.9985918E+03;-0.23519441;0.0;0.034220111;686.22418
  3.1995034E-01;  9.9999998E-03; -2.0000499E-01;1530;-0.032744046;0.0;-0.0035421306;1000.3822;  4.0000001E-01;316.6329;3;-15.176476;0.0;-1.8863753;0;-0.20061159;  1.0008884E+04;  0.0000000E+00;  1.2170782E-06;  1.0000000E+04;  0.0000000E+00;  9.9987627E+03;-0.23157567;0.0;0.030964075;606.47144
  3.3994636E-01;  9.9999998E-03; -3.0001691E-01;1556;-0.034178466;0.0;-0.0092979735;1000.4205;  4.0000001E-01;348.43442;3;-20.962008;0.0;-5.1005139;0;-0.21725997;  1.0010779E+04;  0.0000000E+00; -3.9214408E-03;  1.0000000E+04;  0.0000000E+00;  9.9976348E+03;-0.270778;0.0;0.053518035;1139.0265
  3.3994365E-01;  9.9999998E-03; -2.8001407E-01;1557;-0.035879809;0.0;-0.0080972202;1000.4321;  4.0000001E-01;357.91565;3;-19.504284;0.0;-4.0938244;0;-0.22146034;  1.0010763E+04;  0.0000000E+00; -1.8201921E-03;  1.0000000E+04;  0.0000000E+00;  9.9978809E+03;-0.27009767;0.0;0.048637327;1026.0544
  3.3994186E-01;  9.9999998E-03; -2.6001146E-01;1558;-0.03706;0.0;-0.0069256132;1000.4376;  4.0000001E-01;362.5575;3;-18.280334;0.0;-3.3443413;0;-0.22399631;  1.0010716E+04;  0.0000000E+00; -4.5530323E-04;  1.0000000E+04;  0.0000000E+00;  9.9980430E+03;-0.26877996;0.0;0.044783644;951.30524
  3.3994097E-01;  9.9999998E-03; -2.4000937E-01;1559;-0.037716623;0.0;-0.0059605371;1000.4387;  4.0000001E-01;363.44635;3;-17.490696;0.0;-2.8564239;0;-0.22427858;  1.0010624E+04;  0.0000000E+00; -2.2184860E-05;  1.0000000E+04;  0.0000000E+00;  9.9981572E+03;-0.26673791;0.0;0.042459324;898.13879
  3.3994079E-01;  9.9999998E-03; -2.2000764E-01;1560;-0.037921209;0.0;-0.0051020491;1000.4399;  4.0000001E-01;364.43396;3;-17.092455;0.0;-2.5174625;0;-0.22420949;  1.0010490E+04;  0.0000000E+00;  6.6244806E-06;  1.0000000E+04;  0.0000000E+00;  9.9983105E+03;-0.26390633;0.0;0.039696835;824.60126
  3.3994114E-01;  9.9999998E-03; -2.0000617E-01;1561;-0.037769597;0.0;-0.004350225;1000.4408;  4.0000001E-01;365.22406;3;-16.930723;0.0;-2.2725556;0;-0.22390562;  1.0010313E+04;  0.0000000E+00;  1.0738423E-06;  1.0000000E+04;  0.0000000E+00;  9.9985000E+03;-0.26031175;0.0;0.036406122;732.40222
  3.5993588E-01;  9.9999998E-03; -3.0001968E-01;1587;-0.039654654;0.0;-0.010505795;1000.4911;  4.0000001E-01;406.90182;3;-23.698387;0.0;-5.6669011;0;-0.24471509;  1.0012483E+04;  0.0000000E+00; -3.3083254E-06;  1.0000000E+04;  0.0000000E+00;  9.9973438E+03;-0.30110019;0.0;0.0563851;1286.8452
  3.5993281E-01;  9.9999998E-03; -2.8001651E-01;1588;-0.041525759;0.0;-0.0092348391;1000.5015;  4.0000001E-01;415.49417;3;-21.917006;0.0;-4.5672417;0;-0.24850284;  1.0012463E+04;  0.0000000E+00;  6.3064086E-05;  1.0000000E+04;  0.0000000E+00;  9.9975752E+03;-0.3007018;0.0;0.052198965;1179.2969
  3.5993087E-01;  9.9999998E-03; -2.6001361E-01;1589;-0.042798325;0.0;-0.0080120396;1000.5061;  4.0000001E-01;419.34592;3;-20.431858;0.0;-3.757637;0;-0.2503798;  1.0012405E+04;  0.0000000E+00;  5.1487052E-05;  1.0000000E+04;  0.0000000E+00;  9.9977197E+03;-0.29975399;0.0;0.049374197;1111.9779
  3.5992995E-01;  9.9999998E-03; -2.4001123E-01;1590;-0.043477818;0.0;-0.0070012161;1000.5068;  4.0000001E-01;419.83972;3;-19.478106;0.0;-3.2466469;0;-0.25028563;  1.0012308E+04;  0.0000000E+00;  2.3761822E-05;  1.0000000E+04;  0.0000000E+00;  9.9978320E+03;-0.29803485;0.0;0.047749229;1058.6591
  3.5992989E-01;  9.9999998E-03; -2.2000921E-01;1591;-0.043641794;0.0;-0.0060656057;1000.5078;  4.0000001E-01;420.72858;3;-18.992378;0.0;-2.916574;0;-0.25015604;  1.0012154E+04;  0.0000000E+00;  7.1355848E-06;  1.0000000E+04;  0.0000000E+00;  9.9980039E+03;-0.2954016;0.0;0.045245543;975.95917
  3.5993046E-01;  9.9999998E-03; -2.0000744E-01;1592;-0.043411613;0.0;-0.0052033165;1000.5086;  4.0000001E-01;421.32117;3;-18.798748;0.0;-2.6638832;0;-0.249805;  1.0011951E+04;  0.0000000E+00;  9.6796668E-07;  1.0000000E+04;  0.0000000E+00;  9.9982236E+03;-0.2918359;0.0;0.042030901;870.11719
  3.7992382E-01;  9.9999998E-03; -3.0002290E-01;1618;-0.045715507;0.0;-0.01182538;1000.572;  4.0000001E-01;473.86279;3;-26.608356;0.0;-6.2617273;0;-0.27507275;  1.0014457E+04;  0.0000000E+00;  7.4362732E-05;  1.0000000E+04;  0.0000000E+00;  9.9969922E+03;-0.33484739;0.0;0.05977463;1465.7373
  3.7992030E-01;  9.9999998E-03; -2.8001928E-01;1619;-0.047803439;0.0;-0.010460934;1000.5823;  4.0000001E-01;482.35635;3;-24.482641;0.0;-5.0446725;0;-0.27870926;  1.0014435E+04;  0.0000000E+00;  9.4932519E-05;  1.0000000E+04;  0.0000000E+00;  9.9972197E+03;-0.33476102;0.0;0.05605175;1358.4664
  3.7991813E-01;  9.9999998E-03; -2.6001599E-01;1620;-0.04919368;0.0;-0.009170332;1000.5859;  4.0000001E-01;485.418;3;-22.713768;0.0;-4.1597004;0;-0.27990335;  1.0014370E+04;  0.0000000E+00;  6.4076310E-05;  1.0000000E+04;  0.0000000E+00;  9.9973545E+03;-0.33410117;0.0;0.054197825;1294.0618
  3.7991717E-01;  9.9999998E-03; -2.4001327E-01;1621;-0.049908295;0.0;-0.0081028193;1000.5858;  4.0000001E-01;485.31924;3;-21.577341;0.0;-3.6315935;0;-0.27932027;  1.0014249E+04;  0.0000000E+00;  2.8474276E-05;  1.0000000E+04;  0.0000000E+00;  9.9974717E+03;-0.33259743;0.0;0.053277154;1237.5077
  3.7991723E-01;  9.9999998E-03; -2.2001091E-01;1622;-0.050034761;0.0;-0.0070834737;1000.5864;  4.0000001E-01;485.81305;3;-20.997829;0.0;-3.303936;0;-0.2790004;  1.0014065E+04;  0.0000000E+00;  8.0027421E-06;  1.0000000E+04;  0.0000000E+00;  9.9976680E+03;-0.33006111;0.0;0.051060695;1142.9214
  3.7991804E-01;  9.9999998E-03; -2.0000881E-01;1623;-0.049725905;0.0;-0.0061044893;1000.5867;  4.0000001E-01;486.01059;3;-20.775404;0.0;-3.0535386;0;-0.27848721;  1.0013819E+04;  0.0000000E+00;  9.1821266E-07;  1.0000000E+04;  0.0000000E+00;  9.9979180E+03;-0.32643673;0.0;0.047949534;1020.6835
  3.9990976E-01;  9.9999998E-03; -3.0002660E-01;1649;-0.052470133;0.0;-0.013287858;1000.666;  4.0000001E-01;551.78632;3;-29.726542;0.0;-6.8895988;0;-0.30890206;  1.0016777E+04;  0.0000000E+00;  9.5512514E-05;  1.0000000E+04;  0.0000000E+00;  9.9965527E+03;-0.37286204;0.0;0.063959993;1685.0002
  3.9990574E-01;  9.9999998E-03; -2.8002250E-01;1650;-0.054793593;0.0;-0.011803598;1000.6762;  4.0000001E-01;560.18115;3;-27.213799;0.0;-5.5234742;0;-0.312343;  1.0016735E+04;  0.0000000E+00;  1.2243775E-04;  1.0000000E+04;  0.0000000E+00;  9.9967930E+03;-0.37289256;0.0;0.060549557;1572.0616
  3.9990336E-01;  9.9999998E-03; -2.6001871E-01;1651;-0.05631011;0.0;-0.010435675;1000.6786;  4.0000001E-01;562.25513;3;-25.125731;0.0;-4.5594325;0;-0.31268919;  1.0016647E+04;  0.0000000E+00;  8.1198203E-05;  1.0000000E+04;  0.0000000E+00;  9.9969365E+03;-0.37230861;0.0;0.059619423;1503.1627
  3.9990240E-01;  9.9999998E-03; -2.4001555E-01;1652;-0.057063837;0.0;-0.0092964098;1000.6774;  4.0000001E-01;561.16876;3;-23.782679;0.0;-4.016602;0;-0.31151596;  1.0016487E+04;  0.0000000E+00;  3.4945671E-05;  1.0000000E+04;  0.0000000E+00;  9.9970684E+03;-0.37081209;0.0;0.059296142;1437.5126
  3.9990261E-01;  9.9999998E-03; -2.2001278E-01;1653;-0.057159636;0.0;-0.0081748376;1000.6772;  4.0000001E-01;561.07001;3;-23.104479;0.0;-3.6914504;0;-0.310882;  1.0016254E+04;  0.0000000E+00;  9.2177170E-06;  1.0000000E+04;  0.0000000E+00;  9.9972979E+03;-0.36818108;0.0;0.05729907;1326.668
  3.9990368E-01;  9.9999998E-03; -2.0001030E-01;1654;-0.056772504;0.0;-0.0070654224;1000.6765;  4.0000001E-01;560.47742;3;-22.856821;0.0;-3.4448538;0;-0.31008244;  1.0015945E+04;  0.0000000E+00;  8.7878766E-07;  1.0000000E+04;  0.0000000E+00;  9.9975928E+03;-0.36433035;0.0;0.054247901;1184.1782
  4.1989341E-01;  9.9999998E-03; -3.0003098E-01;1680;-0.059993003;0.0;-0.014905634;1000.7759;  4.0000001E-01;642.84521;3;-33.065678;0.0;-7.5301962;0;-0.34684211;  1.0019502E+04;  0.0000000E+00;  1.1822862E-04;  1.0000000E+04;  0.0000000E+00;  9.9960283E+03;-0.41565344;0.0;0.068811312;1951.3257
  4.1988885E-01;  9.9999998E-03; -2.8002620E-01;1681;-0.062564023;0.0;-0.013297973;1000.7852;  4.0000001E-01;650.54865;3;-30.110399;0.0;-6.0064502;0;-0.34961045;  1.0019423E+04;  0.0000000E+00;  1.5741514E-04;  1.0000000E+04;  0.0000000E+00;  9.9962949E+03;-0.41552076;0.0;0.065910302;1823.9656
  4.1988623E-01;  9.9999998E-03; -2.6002178E-01;1682;-0.064213529;0.0;-0.011843038;1000.7866;  4.0000001E-01;651.73383;3;-27.662848;0.0;-4.9639273;0;-0.34886068;  1.0019277E+04;  0.0000000E+00;  1.0387522E-04;  1.0000000E+04;  0.0000000E+00;  9.9964658E+03;-0.41471741;0.0;0.06585671;1739.7074
  4.1988528E-01;  9.9999998E-03; -2.4001810E-01;1683;-0.065012127;0.0;-0.010605495;1000.7837;  4.0000001E-01;649.26477;3;-26.09045;0.0;-4.4078498;0;-0.34700644;  1.0019056E+04;  0.0000000E+00;  4.3789147E-05;  1.0000000E+04;  0.0000000E+00;  9.9966279E+03;-0.41293228;0.0;0.065925837;1657.891
  4.1988569E-01;  9.9999998E-03; -2.2001486E-01;1684;-0.065081865;0.0;-0.0093574375;1000.7816;  4.0000001E-01;647.58582;3;-25.306055;0.0;-4.0831299;0;-0.34591824;  1.0018741E+04;  0.0000000E+00;  1.1100573E-05;  1.0000000E+04;  0.0000000E+00;  9.9968994E+03;-0.40993014;0.0;0.064011909;1525.9415
  4.1988713E-01;  9.9999998E-03; -2.0001198E-01;1685;-0.064615637;0.0;-0.0080996659;1000.7791;  4.0000001E-01;645.51178;3;-25.038065;0.0;-3.837467;0;-0.34468612;  1.0018354E+04;  0.0000000E+00;  9.6793212E-07;  1.0000000E+04;  0.0000000E+00;  9.9972393E+03;-0.40561649;0.0;0.060930364;1359.1508
  4.3987435E-01;  9.9999998E-03; -3.0003610E-01;1711;-0.068364531;0.0;-0.016713146;1000.9033;  4.0000001E-01;748.3233;3;-36.628708;0.0;-8.1852865;0;-0.38922831;  1.0022681E+04;  0.0000000E+00;  1.3763928E-04;  1.0000000E+04;  0.0000000E+00;  9.9953984E+03;-0.463572;0.0;0.074343674;2267.9424
  4.3986923E-01;  9.9999998E-03; -2.8003055E-01;1712;-0.071192972;0.0;-0.014984906;1000.9118;  4.0000001E-01;755.43414;3;-33.170673;0.0;-6.4892011;0;-0.39060384;  1.0022528E+04;  0.0000000E+00;  2.0094273E-04;  1.0000000E+04;  0.0000000E+00;  9.9957188E+03;-0.46288878;0.0;0.072284952;2112.5767
  4.3986636E-01;  9.9999998E-03; -2.6002532E-01;1713;-0.072981149;0.0;-0.01342182;1000.9119;  4.0000001E-01;755.43414;3;-30.320677;0.0;-5.3841643;0;-0.38856134;  1.0022297E+04;  0.0000000E+00;  1.3433344E-04;  1.0000000E+04;  0.0000000E+00;  9.9959502E+03;-0.46146244;0.0;0.072901092;1997.0454
  4.3986547E-01;  9.9999998E-03; -2.4002096E-01;1714;-0.073829979;0.0;-0.012043733;1000.9059;  4.0000001E-01;750.49603;3;-28.491682;0.0;-4.8065739;0;-0.38590288;  1.0021972E+04;  0.0000000E+00;  5.6618661E-05;  1.0000000E+04;  0.0000000E+00;  9.9961572E+03;-0.45898962;0.0;0.073086739;1893.2377
  4.3986619E-01;  9.9999998E-03; -2.2001719E-01;1715;-0.073875748;0.0;-0.010644359;1000.9008;  4.0000001E-01;746.34802;3;-27.5956;0.0;-4.4783883;0;-0.38414147;  1.0021551E+04;  0.0000000E+00;  1.4469346E-05;  1.0000000E+04;  0.0000000E+00;  9.9964766E+03;-0.45525041;0.0;0.07110893;1736.9333
  4.3986809E-01;  9.9999998E-03; -2.0001391E-01;1716;-0.073325969;0.0;-0.0092233652;1000.8952;  4.0000001E-01;741.70618;3;-27.314095;0.0;-4.2261715;0;-0.38226989;  1.0021047E+04;  0.0000000E+00;  1.4489597E-06;  1.0000000E+04;  0.0000000E+00;  9.9968740E+03;-0.45016861;0.0;0.067898728;1543.0883
  4.5985204E-01;  9.9999998E-03; -3.0004224E-01;1742;-0.077686839;0.0;-0.018766642;1001.0505;  4.0000054E-01;870.29443;3;-40.422562;0.0;-8.8515091;0;-0.43586683;  1.0026326E+04;  0.0000000E+00;  1.4812064E-04;  1.0000000E+04;  0.0000000E+00;  9.9946689E+03;-0.51652706;0.0;0.080660209;2636.2808
  4.5984635E-01;  9.9999998E-03; -2.8003564E-01;1743;-0.08077921;0.0;-0.016915729;1001.0582;  4.0000066E-01;876.71399;3;-36.393913;0.0;-6.9676795;0;-0.43506324;  1.0026060E+04;  0.0000000E+00;  2.5638266E-04;  1.0000000E+04;  0.0000000E+00;  9.9950938E+03;-0.51476967;0.0;0.079706438;2427.1582
  4.5984331E-01;  9.9999998E-03; -2.6002932E-01;1744;-0.082706288;0.0;-0.015190345;1001.0567;  4.0000066E-01;875.43005;3;-33.090195;0.0;-5.8120012;0;-0.43171191;  1.0025700E+04;  0.0000000E+00;  1.7764649E-04;  1.0000000E+04;  0.0000000E+00;  9.9954248E+03;-0.51218736;0.0;0.080475442;2261.0544
  4.5984256E-01;  9.9999998E-03; -2.4002418E-01;1745;-0.083608307;0.0;-0.013618187;1001.046;  4.0000054E-01;866.6402;3;-30.978975;0.0;-5.2035999;0;-0.42800805;  1.0025229E+04;  0.0000000E+00;  7.7127137E-05;  1.0000000E+04;  0.0000000E+00;  9.9956777E+03;-0.50851423;0.0;0.080506183;2134.9348
  4.5984370E-01;  9.9999998E-03; -2.2001991E-01;1746;-0.083626434;0.0;-0.012051469;1001.0356;  4.0000063E-01;858.04785;3;-29.966745;0.0;-4.8675699;0;-0.4252052;  1.0024660E+04;  0.0000000E+00;  2.1255872E-05;  1.0000000E+04;  0.0000000E+00;  9.9960430E+03;-0.5035854;0.0;0.07838019;1955.1071
  4.5984623E-01;  9.9999998E-03; -2.0001626E-01;1747;-0.082981959;0.0;-0.010464998;1001.0256;  4.0000069E-01;849.75183;3;-29.677584;0.0;-4.5927844;0;-0.42239445;  1.0024011E+04;  0.0000000E+00;  3.0490148E-06;  1.0000000E+04;  0.0000000E+00;  9.9964922E+03;-0.49737683;0.0;0.07498239;1734.4093
  4.7982574E-01;  9.9999998E-03; -3.0004963E-01;1773;-0.088112436;0.0;-0.021138603;1001.2155;  4.0000179E-01;1006.9808;3;-44.470692;0.0;-9.522068;0;-0.48558879;  1.0030388E+04;  0.0000000E+00;  1.4489650E-04;  1.0000000E+04;  0.0000000E+00;  9.9938584E+03;-0.57331991;0.0;0.087731138;3044.7766
  4.7981957E-01;  9.9999998E-03; -2.8004169E-01;1774;-0.09145318;0.0;-0.019148929;1001.2242;  4.0000170E-01;1014.1905;3;-39.787064;0.0;-7.4373837;0;-0.48190996;  1.0029954E+04;  0.0000000E+00;  3.3248059E-04;  1.0000000E+04;  0.0000000E+00;  9.9944648E+03;-0.56985211;0.0;0.087942153;2744.2708
  4.7981650E-01;  9.9999998E-03; -2.6003391E-01;1775;-0.093504272;0.0;-0.017158659;1001.2203;  4.0000185E-01;1011.0301;3;-35.967709;0.0;-6.2335229;0;-0.47748286;  1.0029411E+04;  0.0000000E+00;  2.4443274E-04;  1.0000000E+04;  0.0000000E+00;  9.9949316E+03;-0.5654791;0.0;0.08799623;2511.4922
  4.7981611E-01;  9.9999998E-03; -2.4002790E-01;1776;-0.094450369;0.0;-0.015337654;1001.201;  4.0000173E-01;995.03058;3;-33.548386;0.0;-5.5828609;0;-0.47223279;  1.0028751E+04;  0.0000000E+00;  1.1249230E-04;  1.0000000E+04;  0.0000000E+00;  9.9952002E+03;-0.56002086;0.0;0.087788068;2375.0696
  4.7981787E-01;  9.9999998E-03; -2.2002320E-01;1777;-0.094424531;0.0;-0.013613911;1001.1827;  4.0000176E-01;979.91992;3;-32.415573;0.0;-5.2378836;0;-0.46781376;  1.0027991E+04;  0.0000000E+00;  3.5238794E-05;  1.0000000E+04;  0.0000000E+00;  9.9955957E+03;-0.55340773;0.0;0.085593969;2179.657
  4.7982118E-01;  9.9999998E-03; -2.0001931E-01;1778;-0.093666889;0.0;-0.011889686;1001.1665;  4.0000176E-01;966.38953;3;-32.129002;0.0;-4.9286251;0;-0.46367151;  1.0027169E+04;  0.0000000E+00;  7.6678925E-06;  1.0000000E+04;  0.0000000E+00;  9.9960898E+03;-0.54570276;0.0;0.082031257;1936.384
  4.9979448E-01;  9.9999998E-03; -3.0005863E-01;1804;-0.099870473;0.0;-0.023920981;1001.3926;  4.0000415E-01;1153.7405;3;-48.824936;0.0;-10.188381;0;-0.53542435;  1.0034651E+04;  0.0000000E+00;  1.2940710E-04;  1.0000000E+04;  0.0000000E+00;  9.9930215E+03;-0.63071692;0.0;0.095292583;3466.8611
  4.9978819E-01;  9.9999998E-03; -2.8004885E-01;1805;-0.10338228;0.0;-0.021749547;1001.4042;  4.0000424E-01;1163.3204;3;-43.373543;0.0;-7.9050002;0;-0.52852845;  1.0034005E+04;  0.0000000E+00;  4.4968998E-04;  1.0000000E+04;  0.0000000E+00;  9.9938994E+03;-0.62491572;0.0;0.096387289;3028.0854
  4.9978542E-01;  9.9999998E-03; -2.6003921E-01;1806;-0.10550456;0.0;-0.019345026;1001.3957;  4.0000418E-01;1156.3083;3;-38.956673;0.0;-6.6372542;0;-0.52339709;  1.0033234E+04;  0.0000000E+00;  3.5636316E-04;  1.0000000E+04;  0.0000000E+00;  9.9945059E+03;-0.61813986;0.0;0.094742782;2729.5964
  4.9978569E-01;  9.9999998E-03; -2.4003243E-01;1807;-0.10645737;0.0;-0.01724162;1001.3627;  4.0000424E-01;1128.9512;3;-36.201355;0.0;-5.926693;0;-0.51571095;  1.0032348E+04;  0.0000000E+00;  1.7645002E-04;  1.0000000E+04;  0.0000000E+00;  9.9947256E+03;-0.61035985;0.0;0.094648898;2616.3037
  4.9978828E-01;  9.9999998E-03; -2.2002749E-01;1808;-0.10635036;0.0;-0.01541445;1001.3335;  4.0000412E-01;1104.7545;3;-34.939457;0.0;-5.5718961;0;-0.5089376;  1.0031368E+04;  0.0000000E+00;  6.3154832E-05;  1.0000000E+04;  0.0000000E+00;  9.9951162E+03;-0.60163897;0.0;0.09270139;2421.678
  4.9979261E-01;  9.9999998E-03; -2.0002356E-01;1809;-0.1054522;0.0;-0.013615186;1001.309;  4.0000424E-01;1084.4094;3;-34.667622;0.0;-5.2206945;0;-0.50306875;  1.0030354E+04;  0.0000000E+00;  1.8779523E-05;  1.0000000E+04;  0.0000000E+00;  9.9956396E+03;-0.59214765;0.0;0.089078881;2163.3328
  5.1975703E-01;  9.9999998E-03; -3.0006969E-01;1835;-0.11326485;0.0;-0.027233969;1001.5749;  4.0001148E-01;1304.7462;3;-53.56493;0.0;-10.830651;0;-0.57967573;  1.0038722E+04;  0.0000000E+00;  1.1823946E-04;  1.0000000E+04;  0.0000000E+00;  9.9922305E+03;-0.68259192;0.0;0.10291617;3864.9546
  5.1975143E-01;  9.9999998E-03; -2.8005749E-01;1836;-0.1167458;0.0;-0.024806583;1001.5925;  4.0001145E-01;1319.363;3;-47.187759;0.0;-8.3815203;0;-0.56977391;  1.0037834E+04;  0.0000000E+00;  6.5105961E-04;  1.0000000E+04;  0.0000000E+00;  9.9934619E+03;-0.67408186;0.0;0.10430796;3248.6609
  5.1974964E-01;  9.9999998E-03; -2.6004568E-01;1837;-0.11881622;0.0;-0.021828527;1001.5748;  4.0001136E-01;1304.7462;3;-42.083359;0.0;-7.0511818;0;-0.56421411;  1.0036809E+04;  0.0000000E+00;  5.5819773E-04;  1.0000000E+04;  0.0000000E+00;  9.9941357E+03;-0.664545;0.0;0.10033092;2918.2927
  5.1975101E-01;  9.9999998E-03; -2.4003839E-01;1838;-0.1196907;0.0;-0.019470785;1001.5208;  4.0001151E-01;1259.9082;3;-38.946697;0.0;-6.2455039;0;-0.55276573;  1.0035682E+04;  0.0000000E+00;  2.9648189E-04;  1.0000000E+04;  0.0000000E+00;  9.9941895E+03;-0.65417612;0.0;0.10141038;2886.8108
  5.1975477E-01;  9.9999998E-03; -2.2003353E-01;1839;-0.11944266;0.0;-0.017622311;1001.4782;  4.0001145E-01;1224.6501;3;-37.534702;0.0;-5.8462925;0;-0.54304022;  1.0034483E+04;  0.0000000E+00;  1.1673236E-04;  1.0000000E+04;  0.0000000E+00;  9.9945332E+03;-0.64318705;0.0;0.10014682;2715.3357
  5.1976031E-01;  9.9999998E-03; -2.0002972E-01;1840;-0.11836674;0.0;-0.015825706;1001.4453;  4.0001148E-01;1197.3918;3;-37.290562;0.0;-5.44595;0;-0.53528488;  1.0033282E+04;  0.0000000E+00;  4.0476898E-05;  1.0000000E+04;  0.0000000E+00;  9.9950654E+03;-0.63185573;0.0;0.096570835;2448.9299
  5.3971231E-01;  9.9999998E-03; -3.0008346E-01;1866;-0.12857105;0.0;-0.031233869;1001.7534;  4.0003091E-01;1452.5905;3;-58.807415;0.0;-11.541248;0;-0.60994387;  1.0041956E+04;  0.0000000E+00;  1.4627262E-04;  1.0000000E+04;  0.0000000E+00;  9.9915732E+03;-0.71959805;0.0;0.10965422;4194.6929
  5.3970897E-01;  9.9999998E-03; -2.8006825E-01;1867;-0.13163473;0.0;-0.028444944;1001.778;  4.0003088E-01;1473.0342;3;-51.23822;0.0;-8.8507271;0;-0.59735823;  1.0040846E+04;  0.0000000E+00;  1.0128106E-03;  1.0000000E+04;  0.0000000E+00;  9.9931797E+03;-0.70855719;0.0;0.11119897;3392.998
  5.3970903E-01;  9.9999998E-03; -2.6005417E-01;1868;-0.13343698;0.0;-0.024764867;1001.7432;  4.0003091E-01;1444.1957;3;-45.31638;0.0;-7.383215;0;-0.59124082;  1.0039596E+04;  0.0000000E+00;  9.3511323E-04;  1.0000000E+04;  0.0000000E+00;  9.9937334E+03;-0.69647104;0.0;0.10523023;3121.5747
  5.3971219E-01;  9.9999998E-03; -2.4004681E-01;1869;-0.13408269;0.0;-0.022258513;1001.6621;  4.0003097E-01;1377.0376;3;-41.764862;0.0;-6.5015039;0;-0.57464188;  1.0038254E+04;  0.0000000E+00;  5.2717415E-04;  1.0000000E+04;  0.0000000E+00;  9.9934580E+03;-0.68379194;0.0;0.10915003;3249.0486
  5.3971750E-01;  9.9999998E-03; -2.2004233E-01;1870;-0.13362703;0.0;-0.020517381;1001.6052;  4.0003100E-01;1329.9282;3;-40.176376;0.0;-6.0414667;0;-0.56175518;  1.0036876E+04;  0.0000000E+00;  2.1754080E-04;  1.0000000E+04;  0.0000000E+00;  9.9936982E+03;-0.67087078;0.0;0.10911559;3125.2947
  5.3972441E-01;  9.9999998E-03; -2.0003870E-01;1871;-0.1323306;0.0;-0.018779926;1001.5654;  4.0003097E-01;1296.8429;3;-39.954216;0.0;-5.556087;0;-0.55248606;  1.0035525E+04;  0.0000000E+00;  7.5902506E-05;  1.0000000E+04;  0.0000000E+00;  9.9942451E+03;-0.65805876;0.0;0.10557273;2853.1279
  5.5966026E-01;  9.9999998E-03; -3.0010086E-01;1897;-0.14575246;0.0;-0.036104728;1001.9373;  4.0008318E-01;1604.9763;3;-64.524742;0.0;-12.311299;0;-0.61414397;  1.0043494E+04;  0.0000000E+00;  2.6378065E-04;  1.0000000E+04;  0.0000000E+00;  9.9910752E+03;-0.72918302;0.0;0.11503903;4441.6304
  5.5966121E-01;  9.9999998E-03; -2.8008232E-01;1898;-0.1478567;0.0;-0.032904714;1001.9675;  4.0008324E-01;1630.0618;3;-55.469784;0.0;-9.3491411;0;-0.59913182;  1.0042243E+04;  0.0000000E+00;  1.6463555E-03;  1.0000000E+04;  0.0000000E+00;  9.9929355E+03;-0.71672076;0.0;0.11758897;3510.188
  5.5966455E-01;  9.9999998E-03; -2.6006615E-01;1899;-0.1490871;0.0;-0.028459201;1001.907;  4.0008315E-01;1579.8907;3;-48.596577;0.0;-7.6660013;0;-0.59222186;  1.0040860E+04;  0.0000000E+00;  1.6234965E-03;  1.0000000E+04;  0.0000000E+00;  9.9931074E+03;-0.70328826;0.0;0.1110664;3428.3779
  5.5967009E-01;  9.9999998E-03; -2.4005896E-01;1900;-0.14930837;0.0;-0.025926735;1001.7958;  4.0008327E-01;1487.7461;3;-44.492832;0.0;-6.7399893;0;-0.56985182;  1.0039413E+04;  0.0000000E+00;  9.6057629E-04;  1.0000000E+04;  0.0000000E+00;  9.9923379E+03;-0.68950242;0.0;0.11965062;3794.155
  5.5967730E-01;  9.9999998E-03; -2.2005507E-01;1901;-0.14856866;0.0;-0.024431318;1001.7274;  4.0008342E-01;1431.1556;3;-42.820786;0.0;-6.1679978;0;-0.55436867;  1.0037949E+04;  0.0000000E+00;  4.0282495E-04;  1.0000000E+04;  0.0000000E+00;  9.9924316E+03;-0.67574245;0.0;0.12137378;3741.7817
  5.5968571E-01;  9.9999998E-03; -2.0005140E-01;1902;-0.14704978;0.0;-0.022723466;1001.6857;  4.0008327E-01;1396.5891;3;-42.627995;0.0;-5.6204576;0;-0.54468948;  1.0036542E+04;  0.0000000E+00;  1.2645006E-04;  1.0000000E+04;  0.0000000E+00;  9.9930000E+03;-0.66238326;0.0;0.11769379;3459.2249
  5.7960290E-01;  9.9999998E-03; -3.0012351E-01;1928;-0.16410136;0.0;-0.042141207;1002.1956;  4.0022191E-01;1818.9867;3;-70.465073;0.0;-13.194398;0;-0.5744434;  1.0042213E+04;  0.0000000E+00;  5.4152700E-04;  1.0000000E+04;  0.0000000E+00;  9.9905576E+03;-0.69472742;0.0;0.12028401;4681.481
  5.7961041E-01;  9.9999998E-03; -2.8010178E-01;1929;-0.16466907;0.0;-0.038579281;1002.2272;  4.0022200E-01;1845.1584;3;-59.687599;0.0;-9.9557209;0;-0.55755043;  1.0040996E+04;  0.0000000E+00;  2.7097671E-03;  1.0000000E+04;  0.0000000E+00;  9.9924072E+03;-0.6832239;0.0;0.12567344;3752.4973
  5.7961816E-01;  9.9999998E-03; -2.6008359E-01;1930;-0.1650162;0.0;-0.033468388;1002.1388;  4.0022209E-01;1771.9763;3;-51.761692;0.0;-8.0001068;0;-0.55002749;  1.0039672E+04;  0.0000000E+00;  2.8147707E-03;  1.0000000E+04;  0.0000000E+00;  9.9919697E+03;-0.67109227;0.0;0.12106479;3971.6101
  5.7962662E-01;  9.9999998E-03; -2.4007632E-01;1931;-0.16472462;0.0;-0.030878816;1002.0027;  4.0022212E-01;1659.1908;3;-47.14423;0.0;-6.8843069;0;-0.52390718;  1.0038310E+04;  0.0000000E+00;  1.7243936E-03;  1.0000000E+04;  0.0000000E+00;  9.9906191E+03;-0.65884727;0.0;0.13494012;4620.126
  5.7963592E-01;  9.9999998E-03; -2.2007267E-01;1932;-0.163653;0.0;-0.029472167;1001.9305;  4.0022209E-01;1599.3414;3;-45.303028;0.0;-6.2405987;0;-0.50833607;  1.0036947E+04;  0.0000000E+00;  7.2405121E-04;  1.0000000E+04;  0.0000000E+00;  9.9905342E+03;-0.64662194;0.0;0.13828585;4654.8218
  5.7964575E-01;  9.9999998E-03; -2.0006838E-01;1933;-0.16187979;0.0;-0.027845914;1001.895;  4.0022227E-01;1569.9105;3;-45.198025;0.0;-5.5465636;0;-0.50004375;  1.0035634E+04;  0.0000000E+00;  1.9422284E-04;  1.0000000E+04;  0.0000000E+00;  9.9911406E+03;-0.63462394;0.0;0.13458019;4355.0425
  5.9954524E-01;  9.9999998E-03; -3.0015391E-01;1959;-0.18205824;0.0;-0.049832318;1002.7518;  4.0057421E-01;2279.7971;3;-76.195374;0.0;-14.221534;0;-0.46441194;  1.0036819E+04;  0.0000000E+00;  1.0525199E-03;  1.0000000E+04;  0.0000000E+00;  9.9894531E+03;-0.59497601;0.0;0.13056406;5191.1411
  5.9956032E-01;  9.9999998E-03; -2.8012991E-01;1960;-0.18081141;0.0;-0.046104416;1002.78;  4.0057451E-01;2303.1045;3;-63.619244;0.0;-10.796813;0;-0.44758129;  1.0035885E+04;  0.0000000E+00;  4.3844096E-03;  1.0000000E+04;  0.0000000E+00;  9.9909434E+03;-0.58805168;0.0;0.14047039;4436.1685
  5.9957284E-01;  9.9999998E-03; -2.6010925E-01;1961;-0.18005691;0.0;-0.040586773;1002.6823;  4.0057459E-01;2222.1206;3;-54.451889;0.0;-8.7162066;0;-0.44259131;  1.0034892E+04;  0.0000000E+00;  4.7181370E-03;  1.0000000E+04;  0.0000000E+00;  9.9899932E+03;-0.58112442;0.0;0.13853312;4909.2402
  5.9958422E-01;  9.9999998E-03; -2.4010012E-01;1962;-0.17942454;0.0;-0.037274804;1002.5405;  4.0057486E-01;2104.6938;3;-49.467194;0.0;-7.0376811;0;-0.41991353;  1.0033883E+04;  0.0000000E+00;  2.9667874E-03;  1.0000000E+04;  0.0000000E+00;  9.9881768E+03;-0.57435387;0.0;0.15444036;5786.3335
  5.9959543E-01;  9.9999998E-03; -2.2009508E-01;1963;-0.17802775;0.0;-0.035780337;1002.4766;  4.0057504E-01;2051.7581;3;-47.61499;0.0;-6.071321;0;-0.40711477;  1.0032872E+04;  0.0000000E+00;  1.2468480E-03;  1.0000000E+04;  0.0000000E+00;  9.9879092E+03;-0.56739402;0.0;0.16027924;5910.2676
  5.9960657E-01;  9.9999998E-03; -2.0008919E-01;1964;-0.17602481;0.0;-0.033983968;1002.4585;  4.0057498E-01;2036.7465;3;-47.57;0.0;-5.2812037;0;-0.4030202;  1.0031865E+04;  0.0000000E+00;  2.8626024E-04;  1.0000000E+04;  0.0000000E+00;  9.9885469E+03;-0.55995876;0.0;0.15693854;5597.3921
  6.1949408E-01;  9.9999998E-03; -3.0019575E-01;1990;-0.19776896;0.0;-0.06011821;1004.0875;  4.0138176E-01;3386.2939;3;-81.145035;0.0;-15.916318;0;-0.24838817;  1.0026109E+04;  0.0000000E+00;  1.7736428E-03;  1.0000000E+04;  0.0000000E+00;  9.9865488E+03;-0.40701738;0.0;0.15862921;6546.4746
  6.1951518E-01;  9.9999998E-03; -2.8017116E-01;1991;-0.19492428;0.0;-0.056440365;1004.117;  4.0138230E-01;3410.7864;3;-66.808807;0.0;-12.31849;0;-0.23718426;  1.0025727E+04;  0.0000000E+00;  6.6032014E-03;  1.0000000E+04;  0.0000000E+00;  9.9874922E+03;-0.40878606;0.0;0.1716018;6060.6675
  6.1953074E-01;  9.9999998E-03; -2.6014617E-01;1992;-0.19401494;0.0;-0.049636859;1004.0629;  4.0138277E-01;3365.9492;3;-56.934532;0.0;-9.4696293;0;-0.25120592;  1.0025336E+04;  0.0000000E+00;  7.2906101E-03;  1.0000000E+04;  0.0000000E+00;  9.9868047E+03;-0.4111895;0.0;0.15998356;6420.8247
  6.1954457E-01;  9.9999998E-03; -2.4013148E-01;1993;-0.1927793;0.0;-0.045490704;1003.9541;  4.0138310E-01;3275.781;3;-51.655415;0.0;-6.9768896;0;-0.23674202;  1.0024957E+04;  0.0000000E+00;  4.7385651E-03;  1.0000000E+04;  0.0000000E+00;  9.9850146E+03;-0.41403612;0.0;0.17729411;7288.7295
  6.1955768E-01;  9.9999998E-03; -2.2012223E-01;1994;-0.19093324;0.0;-0.043323811;1003.9138;  4.0138340E-01;3242.4001;3;-49.580555;0.0;-5.7458572;0;-0.23087962;  1.0024565E+04;  0.0000000E+00;  2.0330676E-03;  1.0000000E+04;  0.0000000E+00;  9.9846006E+03;-0.4164151;0.0;0.18553548;7485.3125
  6.1957014E-01;  9.9999998E-03; -2.0011321E-01;1995;-0.18875849;0.0;-0.040990759;1003.9227;  4.0138352E-01;3249.8071;3;-49.564606;0.0;-4.8768516;0;-0.23346601;  1.0024108E+04;  0.0000000E+00;  4.3696372E-04;  1.0000000E+04;  0.0000000E+00;  9.9852207E+03;-0.41731271;0.0;0.1838467;7180.9844
  6.3945591E-01;  9.9999998E-03; -3.0025175E-01;2021;-0.20917803;0.0;-0.073421814;1006.6593;  4.0286544E-01;5516.9043;3;-84.710243;0.0;-18.022537;0;0.10072203;  1.0009469E+04;  0.0000000E+00;  2.3977237E-03;  1.0000000E+04;  0.0000000E+00;  9.9806279E+03;-0.11489534;0.0;0.21561737;9334.2939
  6.3947910E-01;  9.9999998E-03; -2.8022850E-01;2022;-0.2062491;0.0;-0.069863565;1006.7114;  4.0286633E-01;5560.1606;3;-69.198746;0.0;-14.79107;0;0.091826349;  1.0009856E+04;  0.0000000E+00;  8.5946647E-03;  1.0000000E+04;  0.0000000E+00;  9.9812324E+03;-0.12865259;0.0;0.22047894;9032.9541
  6.3949633E-01;  9.9999998E-03; -2.6020202E-01;2023;-0.20536427;0.0;-0.062543325;1006.7421;  4.0286690E-01;5585.542;3;-58.97411;0.0;-10.749153;0;0.052675277;  1.0010277E+04;  0.0000000E+00;  9.9014007E-03;  1.0000000E+04;  0.0000000E+00;  9.9814102E+03;-0.14343056;0.0;0.19610584;8986.7598
  6.3951057E-01;  9.9999998E-03; -2.4017558E-01;2024;-0.20398092;0.0;-0.056435451;1006.7437;  4.0286735E-01;5586.8257;3;-53.357208;0.0;-7.3984861;0;0.043374985;  1.0010725E+04;  0.0000000E+00;  6.7319409E-03;  1.0000000E+04;  0.0000000E+00;  9.9809902E+03;-0.15878829;0.0;0.20216328;9194.1768
  6.3952440E-01;  9.9999998E-03; -2.2015546E-01;2025;-0.20197842;0.0;-0.052017596;1006.7548;  4.0286776E-01;5596.0107;3;-51.14296;0.0;-5.4833407;0;0.036735907;  1.0011135E+04;  0.0000000E+00;  3.0411992E-03;  1.0000000E+04;  0.0000000E+00;  9.9807900E+03;-0.17337145;0.0;0.21010736;9289.0811
  6.3953853E-01;  9.9999998E-03; -2.0014116E-01;2026;-0.19940238;0.0;-0.048707865;1006.7974;  4.0286800E-01;5631.2676;3;-51.076641;0.0;-4.321559;0;0.026996017;  1.0011423E+04;  0.0000000E+00;  7.0752815E-04;  1.0000000E+04;  0.0000000E+00;  9.9813340E+03;-0.18546104;0.0;0.21245706;9020.7705
  6.5943515E-01;  9.9999998E-03; -3.0031717E-01;2052;-0.21503712;0.0;-0.089060247;1009.8348;  4.0473866E-01;8147.6699;3;-85.869598;0.0;-20.059628;0;0.57078165;  9.9875215E+03;  0.0000000E+00;  2.1470962E-03;  1.0000000E+04;  0.0000000E+00;  9.9728223E+03;0.27752349;0.0;0.29325816;13016.053
  6.5945745E-01;  9.9999998E-03; -2.8029567E-01;2053;-0.21294294;0.0;-0.085522234;1009.9363;  4.0473962E-01;8231.7129;3;-70.054146;0.0;-18.965496;0;0.52713335;  9.9887539E+03;  0.0000000E+00;  9.0144752E-03;  1.0000000E+04;  0.0000000E+00;  9.9735557E+03;0.25096795;0.0;0.2761654;12677.073
  6.5947604E-01;  9.9999998E-03; -2.6027581E-01;2054;-0.21230125;0.0;-0.078748509;1010.0282;  4.0473992E-01;8307.8564;3;-59.90184;0.0;-13.016078;0;0.46289271;  9.9900498E+03;  0.0000000E+00;  1.1300927E-02;  1.0000000E+04;  0.0000000E+00;  9.9740713E+03;0.2232084;0.0;0.23968431;12489.044
  6.5948999E-01;  9.9999998E-03; -2.4024019E-01;2055;-0.21083134;0.0;-0.072048821;1010.1848;  4.0473998E-01;8437.5254;3;-54.263733;0.0;-8.5861797;0;0.42666352;  9.9913721E+03;  0.0000000E+00;  8.1968429E-03;  1.0000000E+04;  0.0000000E+00;  9.9758555E+03;0.19506963;0.0;0.23159388;11622.479
  6.5950257E-01;  9.9999998E-03; -2.2020362E-01;2056;-0.20925717;0.0;-0.064072095;1010.2863;  4.0474015E-01;8521.667;3;-52.103806;0.0;-5.4181237;0;0.40041006;  9.9926318E+03;  0.0000000E+00;  3.9928472E-03;  1.0000000E+04;  0.0000000E+00;  9.9766104E+03;0.16810744;0.0;0.23230262;11258.34
  6.5951663E-01;  9.9999998E-03; -2.0017791E-01;2057;-0.20680334;0.0;-0.058171563;1010.371;  4.0474039E-01;8591.7861;3;-52.12339;0.0;-3.5478954;0;0.38332367;  9.9937080E+03;  0.0000000E+00;  1.1057900E-03;  1.0000000E+04;  0.0000000E+00;  9.9772021E+03;0.14439943;0.0;0.23892425;10963.97
  6.7944193E-01;  9.9999998E-03; -3.0037841E-01;2083;-0.21332097;0.0;-0.10471559;1012.0143;  4.0624112E-01;9953.1221;3;-83.577866;0.0;-21.31776;0;1.0993248;  9.9626602E+03;  0.0000000E+00;  7.0284883E-04;  1.0000000E+04;  0.0000000E+00;  9.9667090E+03;0.73371035;0.0;0.36561444;15858.869
  6.7945570E-01;  9.9999998E-03; -2.8035754E-01;2084;-0.2140628;0.0;-0.10027752;1012.1697;  4.0624163E-01;10081.803;3;-69.172005;0.0;-24.117125;0;1.0026;  9.9645703E+03;  0.0000000E+00;  6.9034994E-03;  1.0000000E+04;  0.0000000E+00;  9.9678496E+03;0.69799364;0.0;0.30460638;15367.605
  6.7947423E-01;  9.9999998E-03; -2.6034746E-01;2085;-0.21397372;0.0;-0.094738431;1012.267;  4.0624145E-01;10162.389;3;-59.811642;0.0;-15.986489;0;0.92707491;  9.9666045E+03;  0.0000000E+00;  1.0303882E-02;  1.0000000E+04;  0.0000000E+00;  9.9677520E+03;0.66052258;0.0;0.26655233;15492.491
  6.7948723E-01;  9.9999998E-03; -2.4031451E-01;2086;-0.21210834;0.0;-0.091302544;1012.5167;  4.0624085E-01;10369.284;3;-54.302254;0.0;-10.151582;0;0.88382137;  9.9686445E+03;  0.0000000E+00;  8.1998957E-03;  1.0000000E+04;  0.0000000E+00;  9.9706768E+03;0.62307572;0.0;0.26074564;14062.883
  6.7949694E-01;  9.9999998E-03; -2.2026548E-01;2087;-0.21116662;0.0;-0.081147015;1012.7082;  4.0624034E-01;10527.888;3;-52.414337;0.0;-5.6269164;0;0.83796394;  9.9705938E+03;  0.0000000E+00;  4.3722857E-03;  1.0000000E+04;  0.0000000E+00;  9.9725244E+03;0.58721805;0.0;0.25074586;13170.579
  6.7950922E-01;  9.9999998E-03; -2.0022681E-01;2088;-0.20930226;0.0;-0.072402991;1012.8336;  4.0624025E-01;10631.78;3;-52.495998;0.0;-2.9952276;0;0.81489122;  9.9723398E+03;  0.0000000E+00;  1.4654369E-03;  1.0000000E+04;  0.0000000E+00;  9.9732637E+03;0.55485398;0.0;0.26003721;12805.026
  6.9952238E-01;  9.9999998E-03; -3.0042478E-01;2114;-0.18398;0.0;-0.11605017;1012.7689;  4.0706661E-01;10577.942;3;-70.314354;0.0;-23.480234;0;1.5492487;  9.9391270E+03;  0.0000000E+00;  1.8432795E-03;  1.0000000E+04;  0.0000000E+00;  9.9645713E+03;1.1779449;0.0;0.37130377;16805.588
  6.9949800E-01;  9.9999998E-03; -2.8040546E-01;2115;-0.20174511;0.0;-0.11161955;1012.9091;  4.0706673E-01;10694.178;3;-65.307121;0.0;-27.106482;0;1.4406695;  9.9412314E+03;  0.0000000E+00;  4.3649822E-03;  1.0000000E+04;  0.0000000E+00;  9.9652578E+03;1.1432521;0.0;0.29741746;16557.84
  6.9950384E-01;  9.9999998E-03; -2.6040599E-01;2116;-0.20664231;0.0;-0.10841985;1012.9427;  4.0706626E-01;10722.026;3;-58.300335;0.0;-17.426428;0;1.3802894;  9.9435645E+03;  0.0000000E+00;  7.3972805E-03;  1.0000000E+04;  0.0000000E+00;  9.9636221E+03;1.1050504;0.0;0.27523896;17433.633
  6.9951397E-01;  9.9999998E-03; -2.4038091E-01;2117;-0.2044896;0.0;-0.11117935;1013.2161;  4.0706536E-01;10948.471;3;-52.868305;0.0;-13.082323;0;1.349293;  9.9459258E+03;  0.0000000E+00;  6.5627778E-03;  1.0000000E+04;  0.0000000E+00;  9.9666924E+03;1.0664892;0.0;0.28280383;15914.735
  6.9951910E-01;  9.9999998E-03; -2.2033206E-01;2118;-0.20387536;0.0;-0.10401956;1013.4504;  4.0706447E-01;11142.524;3;-50.918777;0.0;-8.2068586;0;1.295747;  9.9482129E+03;  0.0000000E+00;  3.8236540E-03;  1.0000000E+04;  0.0000000E+00;  9.9690547E+03;1.0292108;0.0;0.2665363;14777.442
  6.9952786E-01;  9.9999998E-03; -2.0028621E-01;2119;-0.20290928;0.0;-0.094069608;1013.6011;  4.0706387E-01;11267.449;3;-51.124321;0.0;-4.6958027;0;1.2689641;  9.9503418E+03;  0.0000000E+00;  1.5085671E-03;  1.0000000E+04;  0.0000000E+00;  9.9699219E+03;0.99450892;0.0;0.27445516;14353.38
  7.1966892E-01;  9.9999998E-03; -3.0045947E-01;2145;-0.12475396;0.0;-0.12498195;1012.7709;  4.0742832E-01;10579.332;3;-46.116135;0.0;-23.565975;0;1.8767926;  9.9218018E+03;  0.0000000E+00;  3.5700174E-03;  1.0000000E+04;  0.0000000E+00;  9.9642344E+03;1.5123627;0.0;0.36442983;16908.32
  7.1963608E-01;  9.9999998E-03; -2.8043836E-01;2146;-0.14516547;0.0;-0.12160386;1012.9014;  4.0742856E-01;10687.467;3;-46.039902;0.0;-28.354103;0;1.7907706;  9.9234805E+03;  0.0000000E+00;  5.6085074E-03;  1.0000000E+04;  0.0000000E+00;  9.9651436E+03;1.4924673;0.0;0.29830334;16530.172
  7.1961325E-01;  9.9999998E-03; -2.6044160E-01;2147;-0.16222525;0.0;-0.11877469;1012.8621;  4.0742829E-01;10654.878;3;-46.339756;0.0;-19.597916;0;1.7373533;  9.9254502E+03;  0.0000000E+00;  5.5883601E-03;  1.0000000E+04;  0.0000000E+00;  9.9624414E+03;1.467783;0.0;0.26957029;17942.162
  7.1960163E-01;  9.9999998E-03; -2.4042609E-01;2148;-0.17287096;0.0;-0.12583698;1013.0703;  4.0742701E-01;10827.3;3;-46.520271;0.0;-15.646603;0;1.729921;  9.9275547E+03;  0.0000000E+00;  4.3590511E-03;  1.0000000E+04;  0.0000000E+00;  9.9644893E+03;1.4408104;0.0;0.28911054;16916.324
  7.1959931E-01;  9.9999998E-03; -2.2038552E-01;2149;-0.17757745;0.0;-0.12615867;1013.2884;  4.0742618E-01;11008.017;3;-46.275002;0.0;-12.91995;0;1.6888365;  9.9296973E+03;  0.0000000E+00;  2.6075353E-03;  1.0000000E+04;  0.0000000E+00;  9.9666729E+03;1.4128118;0.0;0.2760247;15865.196
  7.1960586E-01;  9.9999998E-03; -2.0034119E-01;2150;-0.17811373;0.0;-0.12067534;1013.4368;  4.0742567E-01;11130.963;3;-46.793789;0.0;-10.945558;0;1.6666811;  9.9318389E+03;  0.0000000E+00;  1.1497928E-03;  1.0000000E+04;  0.0000000E+00;  9.9674785E+03;1.3841633;0.0;0.28251779;15474.017
  7.3979884E-01;  9.9999998E-03; -3.0048493E-01;2176;-0.074632548;0.0;-0.1329674;1012.6936;  4.0757057E-01;10514.952;3;-27.552074;0.0;-23.033325;0;2.0596082;  9.9135225E+03;  0.0000000E+00;  7.8191259E-04;  1.0000000E+04;  0.0000000E+00;  9.9640967E+03;1.6753827;0.0;0.38422555;16908.594
  7.3977625E-01;  9.9999998E-03; -2.8045788E-01;2177;-0.087839767;0.0;-0.1298977;1012.8547;  4.0757087E-01;10648.363;3;-27.356163;0.0;-31.829765;0;1.9819504;  9.9144375E+03;  0.0000000E+00;  3.6625378E-03;  1.0000000E+04;  0.0000000E+00;  9.9663604E+03;1.6764108;0.0;0.30553964;15864.608
  7.3975945E-01;  9.9999998E-03; -2.6045379E-01;2178;-0.099382631;0.0;-0.12199499;1012.7856;  4.0757081E-01;10591.188;3;-27.561531;0.0;-20.171474;0;1.9079312;  9.9155820E+03;  0.0000000E+00;  3.5754060E-03;  1.0000000E+04;  0.0000000E+00;  9.9638730E+03;1.6748383;0.0;0.23309287;17225.287
  7.3974830E-01;  9.9999998E-03; -2.4043722E-01;2179;-0.10821004;0.0;-0.12708266;1012.8947;  4.0756989E-01;10681.542;3;-28.179474;0.0;-14.430426;0;1.929791;  9.9169668E+03;  0.0000000E+00;  2.4666248E-03;  1.0000000E+04;  0.0000000E+00;  9.9646777E+03;1.6695499;0.0;0.260241;16806.098
  7.3974407E-01;  9.9999998E-03; -2.2039941E-01;2180;-0.11357173;0.0;-0.12831514;1013.0367;  4.0756911E-01;10799.152;3;-29.180668;0.0;-11.283882;0;1.9214276;  9.9185840E+03;  0.0000000E+00;  1.3809166E-03;  1.0000000E+04;  0.0000000E+00;  9.9658857E+03;1.6594139;0.0;0.26201364;16218.543
  7.3974687E-01;  9.9999998E-03; -2.0035733E-01;2181;-0.11552062;0.0;-0.12451403;1013.1432;  4.0756842E-01;10887.434;3;-30.512695;0.0;-9.8369751;0;1.9217256;  9.9204326E+03;  0.0000000E+00;  6.3379039E-04;  1.0000000E+04;  0.0000000E+00;  9.9661504E+03;1.6435481;0.0;0.2781775;16082.649
  7.5989562E-01;  9.9999998E-03; -3.0050290E-01;2207;-0.039720431;0.0;-0.13897341;1012.7962;  4.0762374E-01;10599.348;3;-16.127085;0.0;-22.466387;0;2.090724;  9.9135654E+03;  0.0000000E+00; -1.7835954E-03;  1.0000000E+04;  0.0000000E+00;  9.9635068E+03;1.6801863;0.0;0.41053775;17155.705
  7.5988209E-01;  9.9999998E-03; -2.8047070E-01;2208;-0.047017068;0.0;-0.13701338;1012.9778;  4.0762410E-01;10749.834;3;-15.708575;0.0;-35.389503;0;2.0379274;  9.9137070E+03;  0.0000000E+00;  7.1309315E-04;  1.0000000E+04;  0.0000000E+00;  9.9669355E+03;1.7000761;0.0;0.33785135;15512.182
  7.5987226E-01;  9.9999998E-03; -2.6045844E-01;2209;-0.053368978;0.0;-0.1231917;1012.9007;  4.0762424E-01;10685.947;3;-15.59079;0.0;-20.486578;0;1.9303844;  9.9140049E+03;  0.0000000E+00;  1.1653878E-03;  1.0000000E+04;  0.0000000E+00;  9.9651348E+03;1.7200431;0.0;0.21034132;16606.086
  7.5986463E-01;  9.9999998E-03; -2.4043910E-01;2210;-0.058781505;0.0;-0.12573493;1012.9293;  4.0762347E-01;10709.547;3;-15.861031;0.0;-13.282152;0;1.9756894;  9.9145898E+03;  0.0000000E+00;  8.2871597E-04;  1.0000000E+04;  0.0000000E+00;  9.9651367E+03;1.7359709;0.0;0.23971851;16579.447
  7.5986075E-01;  9.9999998E-03; -2.2040273E-01;2211;-0.062569156;0.0;-0.12653458;1013.0018;  4.0762293E-01;10769.682;3;-16.523161;0.0;-9.3236809;0;1.9954753;  9.9155742E+03;  0.0000000E+00;  4.5522716E-04;  1.0000000E+04;  0.0000000E+00;  9.9656113E+03;1.7443446;0.0;0.25113076;16341.925
  7.5986081E-01;  9.9999998E-03; -2.0036298E-01;2212;-0.064587973;0.0;-0.1235392;1013.0661;  4.0762225E-01;10822.904;3;-17.518181;0.0;-7.4939022;0;2.0162344;  9.9169805E+03;  0.0000000E+00;  2.2249008E-04;  1.0000000E+04;  0.0000000E+00;  9.9654863E+03;1.742775;0.0;0.27345955;16390.123
  7.7996391E-01;  9.9999998E-03; -3.0051446E-01;2238;-0.016535932;0.0;-0.14298829;1013.0576;  4.0764275E-01;10815.166;3;-9.3349609;0.0;-21.943224;0;2.0282495;  9.9188008E+03;  0.0000000E+00; -1.5917462E-03;  1.0000000E+04;  0.0000000E+00;  9.9624697E+03;1.5904531;0.0;0.43779626;17640.123
  7.7995825E-01;  9.9999998E-03; -2.8047904E-01;2239;-0.019142341;0.0;-0.14200062;1013.2454;  4.0764326E-01;10970.677;3;-8.7399569;0.0;-37.534649;0;1.9998266;  9.9183457E+03;  0.0000000E+00; -4.2843970E-04;  1.0000000E+04;  0.0000000E+00;  9.9666172E+03;1.6233959;0.0;0.3764306;15617.133
  7.7995431E-01;  9.9999998E-03; -2.6046070E-01;2240;-0.021372292;0.0;-0.12423837;1013.1743;  4.0764335E-01;10911.83;3;-8.3130388;0.0;-21.211264;0;1.8679184;  9.9180049E+03;  0.0000000E+00; -2.9043911E-06;  1.0000000E+04;  0.0000000E+00;  9.9655684E+03;1.6578428;0.0;0.2100756;16386.994
  7.7995032E-01;  9.9999998E-03; -2.4043874E-01;2241;-0.023686681;0.0;-0.12482132;1013.1577;  4.0764269E-01;10898.105;3;-8.1680584;0.0;-12.989664;0;1.9250678;  9.9179824E+03;  0.0000000E+00;  6.0590373E-05;  1.0000000E+04;  0.0000000E+00;  9.9652939E+03;1.6883103;0.0;0.23675749;16497.988
  7.7994740E-01;  9.9999998E-03; -2.2040251E-01;2242;-0.025729205;0.0;-0.12488236;1013.1883;  4.0764219E-01;10923.382;3;-8.3383856;0.0;-8.3423643;0;1.9601107;  9.9184316E+03;  0.0000000E+00;  4.2141372E-05;  1.0000000E+04;  0.0000000E+00;  9.9654697E+03;1.7099311;0.0;0.25017953;16405.797
  7.7994603E-01;  9.9999998E-03; -2.0036373E-01;2243;-0.027228383;0.0;-0.12170459;1013.2247;  4.0764156E-01;10953.596;3;-8.7897062;0.0;-5.6842937;0;1.9919941;  9.9194287E+03;  0.0000000E+00;  2.8737928E-05;  1.0000000E+04;  0.0000000E+00;  9.9652109E+03;1.7192615;0.0;0.27273265;16518.043
  8.0001748E-01;  9.9999998E-03; -3.0052021E-01;2269;0.0018324791;0.0;-0.14510894;1013.3664;  4.0764832E-01;11069.89;3;-3.532829;0.0;-21.62245;0;1.9358265;  9.9257266E+03;  0.0000000E+00; -3.6453601E-04;  1.0000000E+04;  0.0000000E+00;  9.9613213E+03;1.4763162;0.0;0.45951039;18185.936
  8.0001861E-01;  9.9999998E-03; -2.8048348E-01;2270;0.0030332741;0.0;-0.14479983;1013.5497;  4.0764880E-01;11221.733;3;-2.9329085;0.0;-38.363079;0;1.9261938;  9.9249326E+03;  0.0000000E+00; -2.2227287E-04;  1.0000000E+04;  0.0000000E+00;  9.9657148E+03;1.5153736;0.0;0.41082022;16020.365
  8.0001926E-01;  9.9999998E-03; -2.6046214E-01;2271;0.0040225876;0.0;-0.12566663;1013.4899;  4.0764877E-01;11172.271;3;-2.3754487;0.0;-22.648331;0;1.7834892;  9.9242471E+03;  0.0000000E+00; -1.0874006E-04;  1.0000000E+04;  0.0000000E+00;  9.9652324E+03;1.5559328;0.0;0.22755642;16530.42
  8.0001879E-01;  9.9999998E-03; -2.4043837E-01;2272;0.0043665897;0.0;-0.12500113;1013.4633;  4.0764821E-01;11150.155;3;-1.9537685;0.0;-13.320196;0;1.8408717;  9.9238867E+03;  0.0000000E+00; -4.5494879E-05;  1.0000000E+04;  0.0000000E+00;  9.9650977E+03;1.5925008;0.0;0.24837087;16579.029
  8.0001712E-01;  9.9999998E-03; -2.2040114E-01;2273;0.0039831307;0.0;-0.12418757;1013.4817;  4.0764782E-01;11165.458;3;-1.7143198;0.0;-7.9083433;0;1.8778882;  9.9240195E+03;  0.0000000E+00; -1.7902552E-05;  1.0000000E+04;  0.0000000E+00;  9.9653418E+03;1.6198801;0.0;0.25800815;16455.039
  8.0001509E-01;  9.9999998E-03; -2.0036159E-01;2274;0.003200829;0.0;-0.11997747;1013.5081;  4.0764716E-01;11187.277;3;-1.6571175;0.0;-4.8933601;0;1.9106827;  9.9247422E+03;  0.0000000E+00; -6.3553184E-06;  1.0000000E+04;  0.0000000E+00;  9.9651650E+03;1.6341826;0.0;0.27650008;16532.752
  8.2006943E-01;  9.9999998E-03; -3.0052033E-01;2300;0.021382105;0.0;-0.14547306;1013.618;  4.0763840E-01;11276.923;3;4.0037212;0.0;-21.560213;0;1.8523698;  9.9320391E+03;  0.0000000E+00;  9.7948883E-05;  1.0000000E+04;  0.0000000E+00;  9.9603955E+03;1.3809199;0.0;0.47144979;18618.648
  8.2007670E-01;  9.9999998E-03; -2.8048384E-01;2301;0.025979185;0.0;-0.14540306;1013.7927;  4.0763882E-01;11421.641;3;4.3984375;0.0;-38.314377;0;1.8517684;  9.9311709E+03;  0.0000000E+00;  1.5058003E-04;  1.0000000E+04;  0.0000000E+00;  9.9646992E+03;1.4195571;0.0;0.43221131;16489.266
  8.2008082E-01;  9.9999998E-03; -2.6046261E-01;2302;0.029534673;0.0;-0.12688088;1013.7413;  4.0763891E-01;11378.995;3;4.8395572;0.0;-23.475504;0;1.7118853;  9.9304287E+03;  0.0000000E+00;  1.5588809E-04;  1.0000000E+04;  0.0000000E+00;  9.9644385E+03;1.4588664;0.0;0.25301901;16881.418
  8.2008326E-01;  9.9999998E-03; -2.4043785E-01;2303;0.032063037;0.0;-0.12607007;1013.733;  4.0763843E-01;11372.184;3;5.2800703;0.0;-14.336739;0;1.7618051;  9.9300068E+03;  0.0000000E+00;  1.1938003E-04;  1.0000000E+04;  0.0000000E+00;  9.9647256E+03;1.4939803;0.0;0.26782477;16729.297
  8.2008284E-01;  9.9999998E-03; -2.2039883E-01;2304;0.033073429;0.0;-0.12428502;1013.7634;  4.0763780E-01;11397.257;3;5.6826162;0.0;-8.4849997;0;1.7901943;  9.9300605E+03;  0.0000000E+00;  6.9419912E-05;  1.0000000E+04;  0.0000000E+00;  9.9652813E+03;1.5199722;0.0;0.27022213;16458.992
  8.2008022E-01;  9.9999998E-03; -2.0035729E-01;2305;0.032807384;0.0;-0.11850176;1013.7952;  4.0763724E-01;11423.614;3;6.0251751;0.0;-5.0468836;0;1.8160629;  9.9306973E+03;  0.0000000E+00;  2.7894939E-05;  1.0000000E+04;  0.0000000E+00;  9.9653008E+03;1.5330179;0.0;0.28304505;16446.391
  8.4012622E-01;  9.9999998E-03; -3.0051357E-01;2331;0.044543002;0.0;-0.14393699;1013.5732;  4.0751442E-01;11237.945;3;14.042383;0.0;-21.583265;0;1.7774038;  9.9372139E+03;  0.0000000E+00; -5.7990756E-06;  1.0000000E+04;  0.0000000E+00;  9.9603799E+03;1.309695;0.0;0.46770883;18603.936
  8.4013891E-01;  9.9999998E-03; -2.8047797E-01;2332;0.052354261;0.0;-0.14377533;1013.7397;  4.0751487E-01;11375.827;3;14.078908;0.0;-37.598438;0;1.7783077;  9.9364922E+03;  0.0000000E+00;  5.0922536E-04;  1.0000000E+04;  0.0000000E+00;  9.9643770E+03;1.3427553;0.0;0.43555239;16623.992
  8.4014577E-01;  9.9999998E-03; -2.6045772E-01;2333;0.058182389;0.0;-0.12652028;1013.6951;  4.0751478E-01;11338.913;3;14.202592;0.0;-23.686451;0;1.6464496;  9.9359199E+03;  0.0000000E+00;  5.8355060E-04;  1.0000000E+04;  0.0000000E+00;  9.9640830E+03;1.3753629;0.0;0.27108675;17010.488
  8.4015054E-01;  9.9999998E-03; -2.4043302E-01;2334;0.062452812;0.0;-0.12616093;1013.7086;  4.0751421E-01;11350.066;3;14.411816;0.0;-15.291526;0;1.6876539;  9.9356553E+03;  0.0000000E+00;  4.2287892E-04;  1.0000000E+04;  0.0000000E+00;  9.9646387E+03;1.4033525;0.0;0.2843014;16727.732
  8.4015113E-01;  9.9999998E-03; -2.2039293E-01;2335;0.064519338;0.0;-0.12370661;1013.7592;  4.0751368E-01;11392.014;3;14.698088;0.0;-9.4388771;0;1.7036195;  9.9358408E+03;  0.0000000E+00;  2.2869512E-04;  1.0000000E+04;  0.0000000E+00;  9.9654736E+03;1.4223336;0.0;0.28128585;16330.685
  8.4014750E-01;  9.9999998E-03; -2.0035037E-01;2336;0.06433326;0.0;-0.11686037;1013.8052;  4.0751311E-01;11430.111;3;15.042905;0.0;-5.7557092;0;1.7186046;  9.9365635E+03;  0.0000000E+00;  9.0198868E-05;  1.0000000E+04;  0.0000000E+00;  9.9656768E+03;1.4289576;0.0;0.28964701;16233.242
  8.6018664E-01;  9.9999998E-03; -3.0050042E-01;2362;0.070286378;0.0;-0.14087512;1013.2551;  4.0727067E-01;10972.162;3;25.718754;0.0;-21.673504;0;1.6949329;  9.9420449E+03;  0.0000000E+00;  1.8375443E-04;  1.0000000E+04;  0.0000000E+00;  9.9612139E+03;1.2406687;0.0;0.45426431;18168.242
  8.6020440E-01;  9.9999998E-03; -2.8046593E-01;2363;0.081267722;0.0;-0.14044701;1013.4177;  4.0727106E-01;11106.756;3;25.346783;0.0;-36.646076;0;1.6913842;  9.9416191E+03;  0.0000000E+00;  1.1625226E-03;  1.0000000E+04;  0.0000000E+00;  9.9648379E+03;1.2648113;0.0;0.42657292;16374.445
  8.6021340E-01;  9.9999998E-03; -2.6044655E-01;2364;0.089174345;0.0;-0.12449945;1013.3833;  4.0727103E-01;11078.236;3;25.064398;0.0;-23.616831;0;1.566478;  9.9413711E+03;  0.0000000E+00;  1.2759155E-03;  1.0000000E+04;  0.0000000E+00;  9.9644238E+03;1.2871639;0.0;0.2793141;16796.07
  8.6021996E-01;  9.9999998E-03; -2.4042246E-01;2365;0.09487547;0.0;-0.12454534;1013.4168;  4.0727046E-01;11105.963;3;24.897518;0.0;-15.999646;0;1.5976459;  9.9414326E+03;  0.0000000E+00;  8.9850306E-04;  1.0000000E+04;  0.0000000E+00;  9.9650557E+03;1.3041751;0.0;0.29347074;16477.057
  8.6022127E-01;  9.9999998E-03; -2.2038254E-01;2366;0.097668312;0.0;-0.1218273;1013.4896;  4.0726984E-01;11166.255;3;24.872515;0.0;-10.391678;0;1.6003754;  9.9419121E+03;  0.0000000E+00;  4.6573248E-04;  1.0000000E+04;  0.0000000E+00;  9.9660313E+03;1.3122152;0.0;0.28816023;16015.806
  8.6021602E-01;  9.9999998E-03; -2.0034027E-01;2367;0.097127341;0.0;-0.11448964;1013.5543;  4.0726942E-01;11219.839;3;24.997156;0.0;-6.6469555;0;1.6027328;  9.9428730E+03;  0.0000000E+00;  1.7412595E-04;  1.0000000E+04;  0.0000000E+00;  9.9663555E+03;1.3088303;0.0;0.29390249;15860.504
  8.8024586E-01;  9.9999998E-03; -3.0048174E-01;2393;0.096068196;0.0;-0.13658477;1012.7443;  4.0692127E-01;10546.146;3;37.603027;0.0;-21.914694;0;1.5825113;  9.9476602E+03;  0.0000000E+00;  9.0729707E-04;  1.0000000E+04;  0.0000000E+00;  9.9626621E+03;1.1462667;0.0;0.43624461;17421.266
  8.8026804E-01;  9.9999998E-03; -2.8044847E-01;2394;0.1100326;0.0;-0.13584176;1012.9069;  4.0692142E-01;10680.697;3;36.861217;0.0;-35.667942;0;1.5710298;  9.9476123E+03;  0.0000000E+00;  2.1593005E-03;  1.0000000E+04;  0.0000000E+00;  9.9659189E+03;1.1595851;0.0;0.41144463;15815.627
  8.8027859E-01;  9.9999998E-03; -2.6042947E-01;2395;0.11974309;0.0;-0.12101986;1012.8903;  4.0692136E-01;10666.884;3;36.189705;0.0;-23.511827;0;1.4491553;  9.9478027E+03;  0.0000000E+00;  2.2216118E-03;  1.0000000E+04;  0.0000000E+00;  9.9654277E+03;1.1694446;0.0;0.27971083;16253.435
  8.8028681E-01;  9.9999998E-03; -2.4040607E-01;2396;0.12669794;0.0;-0.12115916;1012.9443;  4.0692079E-01;10711.669;3;35.622578;0.0;-16.452326;0;1.4680887;  9.9483047E+03;  0.0000000E+00;  1.5185599E-03;  1.0000000E+04;  0.0000000E+00;  9.9660156E+03;1.172909;0.0;0.29517972;15957.15
  8.8028842E-01;  9.9999998E-03; -2.2036749E-01;2397;0.12996553;0.0;-0.1183582;1013.0391;  4.0692019E-01;10790.094;3;35.21595;0.0;-11.121816;0;1.4571911;  9.9492070E+03;  0.0000000E+00;  7.5871847E-04;  1.0000000E+04;  0.0000000E+00;  9.9669971E+03;1.1674565;0.0;0.28973463;15492.939
  8.8028139E-01;  9.9999998E-03; -2.0032661E-01;2398;0.12886551;0.0;-0.11095679;1013.1248;  4.0691969E-01;10860.924;3;35.016315;0.0;-7.4303818;0;1.4464039;  9.9505176E+03;  0.0000000E+00;  2.6413813E-04;  1.0000000E+04;  0.0000000E+00;  9.9673975E+03;1.1520121;0.0;0.29439175;15308.635
  9.0029883E-01;  9.9999998E-03; -3.0045840E-01;2424;0.11944634;0.0;-0.13131055;1012.105;  4.0648481E-01;10013.02;3;48.491508;0.0;-22.39772;0;1.4308016;  9.9546006E+03;  0.0000000E+00;  1.8294406E-03;  1.0000000E+04;  0.0000000E+00;  9.9645371E+03;1.0138056;0.0;0.41699606;16453.984
  9.0032440E-01;  9.9999998E-03; -2.8042653E-01;2425;0.13598315;0.0;-0.13037793;1012.2722;  4.0648493E-01;10151.359;3;47.463024;0.0;-34.788696;0;1.4108167;  9.9550039E+03;  0.0000000E+00;  3.2207482E-03;  1.0000000E+04;  0.0000000E+00;  9.9674463E+03;1.0148933;0.0;0.39592335;15027.902
  9.0033537E-01;  9.9999998E-03; -2.6040712E-01;2426;0.14700881;0.0;-0.1163149;1012.2845;  4.0648484E-01;10161.514;3;46.478123;0.0;-23.571362;0;1.2852385;  9.9556934E+03;  0.0000000E+00;  3.1877097E-03;  1.0000000E+04;  0.0000000E+00;  9.9670156E+03;1.0106355;0.0;0.27460301;15420.903
  9.0034461E-01;  9.9999998E-03; -2.4038400E-01;2427;0.15484603;0.0;-0.11610362;1012.3606;  4.0648419E-01;10224.423;3;45.571686;0.0;-16.704926;0;1.2891436;  9.9567363E+03;  0.0000000E+00;  2.1142242E-03;  1.0000000E+04;  0.0000000E+00;  9.9675049E+03;0.99878615;0.0;0.29035735;15174.808
  9.0034676E-01;  9.9999998E-03; -2.2034734E-01;2428;0.1585107;0.0;-0.11291263;1012.4764;  4.0648368E-01;10320.171;3;44.821579;0.0;-11.532031;0;1.2638843;  9.9581514E+03;  0.0000000E+00;  1.0094072E-03;  1.0000000E+04;  0.0000000E+00;  9.9684004E+03;0.97833294;0.0;0.28555137;14759.57
  9.0033859E-01;  9.9999998E-03; -2.0030940E-01;2429;0.15711598;0.0;-0.10607614;1012.5832;  4.0648335E-01;10408.524;3;44.310547;0.0;-7.9360571;0;1.2407169;  9.9598730E+03;  0.0000000E+00;  3.1791386E-04;  1.0000000E+04;  0.0000000E+00;  9.9687939E+03;0.95007038;0.0;0.29064658;14579.022
  9.2034149E-01;  9.9999998E-03; -3.0043140E-01;2455;0.13862704;0.0;-0.12529153;1011.3679;  4.0598419E-01;9398.168;3;57.646999;0.0;-23.053444;0;1.2513373;  9.9624727E+03;  0.0000000E+00;  2.5425693E-03;  1.0000000E+04;  0.0000000E+00;  9.9667168E+03;0.85255963;0.0;0.3987776;15321.516
  9.2036855E-01;  9.9999998E-03; -2.8040096E-01;2456;0.15688746;0.0;-0.12410066;1011.5448;  4.0598416E-01;9544.4141;3;55.888973;0.0;-33.517414;0;1.2202582;  9.9633691E+03;  0.0000000E+00;  4.0430231E-03;  1.0000000E+04;  0.0000000E+00;  9.9693340E+03;0.84024394;0.0;0.38001433;14053.397
  9.2037994E-01;  9.9999998E-03; -2.6038092E-01;2457;0.16914782;0.0;-0.11075091;1011.5915;  4.0598395E-01;9582.9443;3;55.210609;0.0;-23.616289;0;1.0873754;  9.9646260E+03;  0.0000000E+00;  3.8470614E-03;  1.0000000E+04;  0.0000000E+00;  9.9690244E+03;0.82077235;0.0;0.26660308;14375.48
  9.2038906E-01;  9.9999998E-03; -2.4035743E-01;2458;0.17712682;0.0;-0.10957336;1011.6943;  4.0598351E-01;9667.9932;3;54.038494;0.0;-16.703743;0;1.0722795;  9.9662705E+03;  0.0000000E+00;  2.4590599E-03;  1.0000000E+04;  0.0000000E+00;  9.9694404E+03;0.79281282;0.0;0.27946663;14172.165
  9.2039168E-01;  9.9999998E-03; -2.2032282E-01;2459;0.18111742;0.0;-0.10564925;1011.8297;  4.0598291E-01;9779.9492;3;53.078762;0.0;-11.589874;0;1.0331662;  9.9682305E+03;  0.0000000E+00;  1.1007953E-03;  1.0000000E+04;  0.0000000E+00;  9.9701709E+03;0.75722021;0.0;0.27594596;13840.318
  9.2038101E-01;  9.9999998E-03; -2.0028922E-01;2460;0.17896368;0.0;-0.099981934;1011.9532;  4.0598258E-01;9882.0547;3;52.30283;0.0;-8.1155357;0;0.99992388;  9.9703633E+03;  0.0000000E+00;  3.0202136E-04;  1.0000000E+04;  0.0000000E+00;  9.9704980E+03;0.71706319;0.0;0.2828607;13692.69
  9.4037163E-01;  9.9999998E-03; -3.0040166E-01;2486;0.15283106;0.0;-0.11869743;1010.5385;  4.0544322E-01;8705.9932;3;65.237869;0.0;-24.326519;0;1.0663638;  9.9702451E+03;  0.0000000E+00;  2.8304746E-03;  1.0000000E+04;  0.0000000E+00;  9.9691729E+03;0.68628585;0.0;0.38007802;14035.977
  9.4039977E-01;  9.9999998E-03; -2.8037280E-01;2487;0.17185891;0.0;-0.1166212;1010.7283;  4.0544316E-01;8862.7637;3;61.772602;0.0;-31.776691;0;1.0152364;  9.9716787E+03;  0.0000000E+00;  4.5594811E-03;  1.0000000E+04;  0.0000000E+00;  9.9715176E+03;0.66001034;0.0;0.35522598;12930.637
  9.4041157E-01;  9.9999998E-03; -2.6035270E-01;2488;0.18523309;0.0;-0.10430013;1010.8082;  4.0544304E-01;8928.7402;3;61.508217;0.0;-22.821852;0;0.87962961;  9.9735244E+03;  0.0000000E+00;  4.0241969E-03;  1.0000000E+04;  0.0000000E+00;  9.9712783E+03;0.62528437;0.0;0.25434521;13199.622
  9.4041896E-01;  9.9999998E-03; -2.4032842E-01;2489;0.1926446;0.0;-0.10162471;1010.9393;  4.0544248E-01;9037.166;3;60.375595;0.0;-16.023447;0;0.84428334;  9.9757539E+03;  0.0000000E+00;  2.4203795E-03;  1.0000000E+04;  0.0000000E+00;  9.9716719E+03;0.58218765;0.0;0.26209566;13020.463
  9.4041276E-01;  9.9999998E-03; -2.2029753E-01;2490;0.19248185;0.0;-0.098399512;1011.0875;  4.0544218E-01;9159.4805;3;58.394402;0.0;-11.53094;0;0.79733491;  9.9782188E+03;  0.0000000E+00;  1.0202526E-03;  1.0000000E+04;  0.0000000E+00;  9.9721572E+03;0.53375643;0.0;0.26357844;12805.495
  9.4039351E-01;  9.9999998E-03; -2.0026754E-01;2491;0.18593515;0.0;-0.093513116;1011.225;  4.0544188E-01;9273.1348;3;56.31377;0.0;-8.3764095;0;0.75664127;  9.9806660E+03;  0.0000000E+00;  2.3711994E-04;  1.0000000E+04;  0.0000000E+00;  9.9724268E+03;0.48488432;0.0;0.27175698;12685.944
  9.6039295E-01;  9.9999998E-03; -3.0037007E-01;2517;0.16338114;0.0;-0.11153005;1009.6204;  4.0488580E-01;7939.5874;3;71.334091;0.0;-25.639181;0;0.89859366;  9.9768447E+03;  0.0000000E+00;  2.5475775E-03;  1.0000000E+04;  0.0000000E+00;  9.9718877E+03;0.53979927;0.0;0.35879439;12607.535
  9.6042097E-01;  9.9999998E-03; -2.8034300E-01;2518;0.18239129;0.0;-0.1084616;1009.8231;  4.0488565E-01;8106.9238;3;66.784538;0.0;-30.445131;0;0.82481527;  9.9788184E+03;  0.0000000E+00;  9.4874762E-03;  1.0000000E+04;  0.0000000E+00;  9.9739502E+03;0.50030088;0.0;0.32451442;11673.658
  9.6043193E-01;  9.9999998E-03; -2.6032311E-01;2519;0.19601049;0.0;-0.09692125;1009.9315;  4.0488553E-01;8196.4463;3;66.346352;0.0;-21.88205;0;0.68709767;  9.9812285E+03;  0.0000000E+00;  8.2448423E-03;  1.0000000E+04;  0.0000000E+00;  9.9737178E+03;0.45174795;0.0;0.23534971;11924.247
  9.6043175E-01;  9.9999998E-03; -2.4030061E-01;2520;0.19951358;0.0;-0.094402276;1010.0781;  4.0488508E-01;8317.3584;3;63.837051;0.0;-15.689373;0;0.64164251;  9.9839717E+03;  0.0000000E+00;  3.8900296E-03;  1.0000000E+04;  0.0000000E+00;  9.9738994E+03;0.396357;0.0;0.24528551;11848.115
  9.6041530E-01;  9.9999998E-03; -2.2027348E-01;2521;0.19426163;0.0;-0.092069484;1010.2379;  4.0488485E-01;8449.1992;3;59.807552;0.0;-11.563168;0;0.58885318;  9.9868115E+03;  0.0000000E+00;  9.9872181E-04;  1.0000000E+04;  0.0000000E+00;  9.9742305E+03;0.3390798;0.0;0.24977337;11707.644
  9.6039319E-01;  9.9999998E-03; -2.0024519E-01;2522;0.18667173;0.0;-0.086890243;1010.3847;  4.0488470E-01;8570.418;3;57.475311;0.0;-8.6753435;0;0.54316568;  9.9894580E+03;  0.0000000E+00;  1.6240936E-04;  1.0000000E+04;  0.0000000E+00;  9.9744941E+03;0.2853961;0.0;0.25776958;11596.625
  9.8041123E-01;  9.9999998E-03; -3.0033788E-01;2548;0.17283902;0.0;-0.10384832;1008.6328;  4.0433332E-01;7115.0513;3;77.395805;0.0;-26.554028;0;0.76110518;  9.9817354E+03;  0.0000000E+00;  1.5415817E-03;  1.0000000E+04;  0.0000000E+00;  9.9747168E+03;0.42613599;0.0;0.33496919;11108.418
  9.8043698E-01;  9.9999998E-03; -2.8031236E-01;2549;0.19097479;0.0;-0.1000654;1008.8473;  4.0433308E-01;7291.7905;3;71.634804;0.0;-29.293232;0;0.66934937;  9.9841738E+03;  0.0000000E+00;  2.7418567E-02;  1.0000000E+04;  0.0000000E+00;  9.9765557E+03;0.37634391;0.0;0.29300547;10317.242
  9.8044342E-01;  9.9999998E-03; -2.6029360E-01;2550;0.20221797;0.0;-0.089257494;1008.9716;  4.0433297E-01;7394.2617;3;70.087265;0.0;-20.832254;0;0.53075987;  9.9870645E+03;  0.0000000E+00;  2.6350968E-02;  1.0000000E+04;  0.0000000E+00;  9.9761563E+03;0.31716064;0.0;0.21359923;10632.49
  9.8043323E-01;  9.9999998E-03; -2.4027430E-01;2551;0.20036635;0.0;-0.087693125;1009.1227;  4.0433270E-01;7518.8501;3;64.69281;0.0;-15.05172;0;0.48238367;  9.9901885E+03;  0.0000000E+00;  1.3863161E-02;  1.0000000E+04;  0.0000000E+00;  9.9760420E+03;0.25337163;0.0;0.22901206;10690.048
  9.8041260E-01;  9.9999998E-03; -2.2024934E-01;2552;0.19397117;0.0;-0.085593693;1009.2932;  4.0433261E-01;7659.3613;3;60.343708;0.0;-11.323435;0;0.42461535;  9.9932588E+03;  0.0000000E+00;  3.7969903E-03;  1.0000000E+04;  0.0000000E+00;  9.9763477E+03;0.1913178;0.0;0.23329756;10567.138
  9.8038894E-01;  9.9999998E-03; -2.0022327E-01;2553;0.18588962;0.0;-0.080412135;1009.4438;  4.0433234E-01;7783.5649;3;57.929916;0.0;-8.8527308;0;0.37733567;  9.9960059E+03;  0.0000000E+00;  3.7520233E-04;  1.0000000E+04;  0.0000000E+00;  9.9765947E+03;0.13602543;0.0;0.24131024;10465.902
  1.0004318E+00;  9.9999998E-03; -3.0030620E-01;2579;0.18313177;0.0;-0.09597864;1007.6248;  4.0380380E-01;6273.0391;3;83.504562;0.0;-26.29174;0;0.65414464;  9.9850166E+03;  0.0000000E+00; -5.1962780E-03;  1.0000000E+04;  0.0000000E+00;  9.9776377E+03;0.34416622;0.0;0.30997846;9560.6787
  1.0004507E+00;  9.9999998E-03; -2.8028172E-01;2580;0.19863814;0.0;-0.09156809;1007.8473;  4.0380377E-01;6456.0332;3;76.748604;0.0;-28.41659;0;0.54825437;  9.9877900E+03;  0.0000000E+00;  5.5964306E-02;  1.0000000E+04;  0.0000000E+00;  9.9793047E+03;0.28880894;0.0;0.25944543;8886.0039
  1.0004481E+00;  9.9999998E-03; -2.6026526E-01;2581;0.20440815;0.0;-0.081517145;1007.9656;  4.0380353E-01;6553.3242;3;72.064606;0.0;-18.874811;0;0.41447696;  9.9910342E+03;  0.0000000E+00;  5.8542088E-02;  1.0000000E+04;  0.0000000E+00;  9.9784199E+03;0.22277494;0.0;0.19170202;9403.8555
  1.0004314E+00;  9.9999998E-03; -2.4024867E-01;2582;0.2001082;0.0;-0.080962256;1008.1176;  4.0380338E-01;6678.3809;3;65.191452;0.0;-14.193295;0;0.36599201;  9.9943887E+03;  0.0000000E+00;  3.1824090E-02;  1.0000000E+04;  0.0000000E+00;  9.9780869E+03;0.15466782;0.0;0.21132419;9554.7754
  1.0004072E+00;  9.9999998E-03; -2.2022517E-01;2583;0.19273412;0.0;-0.078897581;1008.2924;  4.0380335E-01;6822.2729;3;60.648815;0.0;-11.22043;0;0.30658418;  9.9975439E+03;  0.0000000E+00;  8.6274920E-03;  1.0000000E+04;  0.0000000E+00;  9.9784033E+03;0.091607019;0.0;0.21497715;9433.207
  1.0003825E+00;  9.9999998E-03; -2.0020282E-01;2584;0.18433543;0.0;-0.074429549;1008.4421;  4.0380314E-01;6945.3745;3;58.172337;0.0;-9.0893822;0;0.26055291;  1.0000280E+04;  0.0000000E+00;  6.1164895E-04;  1.0000000E+04;  0.0000000E+00;  9.9786318E+03;0.037331827;0.0;0.22322108;9343.3867
  1.0204589E+00;  9.9999998E-03; -3.0027595E-01;2610;0.19573006;0.0;-0.088058904;1006.6515;  4.0331143E-01;5459.0601;3;89.870598;0.0;-24.485308;0;0.57089078;  9.9871094E+03;  0.0000000E+00; -1.7130878E-02;  1.0000000E+04;  0.0000000E+00;  9.9806152E+03;0.28576851;0.0;0.28512225;7995.8833
  1.0204641E+00;  9.9999998E-03; -2.8025252E-01;2611;0.20584419;0.0;-0.082650155;1006.873;  4.0331155E-01;5640.8389;3;82.342484;0.0;-26.57765;0;0.44878322;  9.9901895E+03;  0.0000000E+00;  6.8763167E-02;  1.0000000E+04;  0.0000000E+00;  9.9819434E+03;0.22784176;0.0;0.22094145;7513.5303
  1.0204511E+00;  9.9999998E-03; -2.6023850E-01;2612;0.20539747;0.0;-0.074078165;1006.9743;  4.0331170E-01;5724.0117;3;73.560204;0.0;-17.269419;0;0.32898295;  9.9936865E+03;  0.0000000E+00;  7.7800021E-02;  1.0000000E+04;  0.0000000E+00;  9.9804561E+03;0.15772828;0.0;0.17125468;8261.4297
  1.0204289E+00;  9.9999998E-03; -2.4022396E-01;2613;0.19951491;0.0;-0.074117087;1007.1188;  4.0331158E-01;5842.6094;3;65.590782;0.0;-13.415201;0;0.28327477;  9.9970928E+03;  0.0000000E+00;  3.5259407E-02;  1.0000000E+04;  0.0000000E+00;  9.9799258E+03;0.089545339;0.0;0.19372943;8490.8057
  1.0204012E+00;  9.9999998E-03; -2.2020316E-01;2614;0.19131431;0.0;-0.072391845;1007.2885;  4.0331146E-01;5981.856;3;60.779217;0.0;-10.987875;0;0.22633223;  1.0000156E+04;  0.0000000E+00;  9.5222297E-04;  1.0000000E+04;  0.0000000E+00;  9.9802227E+03;0.029213976;0.0;0.19711825;8381.4922
  1.0203755E+00;  9.9999998E-03; -2.0018423E-01;2615;0.1825086;0.0;-0.068962149;1007.4329;  4.0331149E-01;6100.458;3;58.235359;0.0;-9.215127;0;0.18343349;  1.0002755E+04;  0.0000000E+00; -5.9241075E-03;  1.0000000E+04;  0.0000000E+00;  9.9804912E+03;-0.021425098;0.0;0.20485859;8280.0039
  1.0404967E+00;  9.9999998E-03; -3.0024764E-01;2641;0.21316445;0.0;-0.079425998;1005.736;  4.0286672E-01;4692.459;3;100.61401;0.0;-24.204779;0;0.4903532;  9.9880488E+03;  0.0000000E+00;  1.5618234E-02;  1.0000000E+04;  0.0000000E+00;  9.9835645E+03;0.25161552;0.0;0.23873767;6482.1001
  1.0404807E+00;  9.9999998E-03; -2.8022707E-01;2642;0.21367247;0.0;-0.073943883;1005.9523;  4.0286681E-01;4869.3779;3;88.701096;0.0;-23.623945;0;0.3685368;  9.9919326E+03;  0.0000000E+00;  6.7354841E-03;  1.0000000E+04;  0.0000000E+00;  9.9839736E+03;0.18234594;0.0;0.18619086;6399.1919
  1.0404550E+00;  9.9999998E-03; -2.6021427E-01;2643;0.20656879;0.0;-0.06725198;1006.0506;  4.0286693E-01;4949.8574;3;75.369843;0.0;-16.37985;0;0.26260567;  9.9957188E+03;  0.0000000E+00;  2.4409326E-02;  1.0000000E+04;  0.0000000E+00;  9.9821299E+03;0.10745315;0.0;0.15515251;7248.8477
  1.0404265E+00;  9.9999998E-03; -2.4020146E-01;2644;0.19898926;0.0;-0.067372397;1006.1797;  4.0286702E-01;5055.5015;3;66.414749;0.0;-12.841289;0;0.22181322;  9.9990000E+03;  0.0000000E+00; -2.2523217E-02;  1.0000000E+04;  0.0000000E+00;  9.9814111E+03;0.043388452;0.0;0.17842476;7555.5796
  1.0403957E+00;  9.9999998E-03; -2.2018334E-01;2645;0.18990776;0.0;-0.066049613;1006.3346;  4.0286702E-01;5182.2134;3;61.114162;0.0;-10.834902;0;0.17115527;  1.0001760E+04;  0.0000000E+00; -5.0593968E-02;  1.0000000E+04;  0.0000000E+00;  9.9817217E+03;-0.010347313;0.0;0.18150258;7451.6626
  1.0403677E+00;  9.9999998E-03; -2.0016631E-01;2646;0.18039909;0.0;-0.063161969;1006.4684;  4.0286699E-01;5291.7598;3;58.327053;0.0;-9.0657473;0;0.13301764;  1.0004042E+04;  0.0000000E+00; -3.6158126E-02;  1.0000000E+04;  0.0000000E+00;  9.9820938E+03;-0.054476559;0.0;0.1874942;7311.6377
  1.0605346E+00;  9.9999998E-03; -3.0022222E-01;2672;0.22909613;0.0;-0.0689786;1004.8618;  4.0247515E-01;3960.1902;3;111.26544;0.0;-23.794098;0;0.4006131;  9.9875254E+03;  0.0000000E+00;  2.4543871E-01;  1.0000000E+04;  0.0000000E+00;  9.9861709E+03;0.24573688;0.0;0.15487622;5287.2793
  1.0604993E+00;  9.9999998E-03; -2.8020653E-01;2673;0.22018121;0.0;-0.065849051;1005.0938;  4.0247524E-01;4149.0894;3;93.506783;0.0;-20.900578;0;0.30183697;  9.9932168E+03;  0.0000000E+00; -1.7493576E-01;  1.0000000E+04;  0.0000000E+00;  9.9850645E+03;0.14532331;0.0;0.15651368;5723.5854
  1.0604619E+00;  9.9999998E-03; -2.6019445E-01;2674;0.2086695;0.0;-0.061148912;1005.2151;  4.0247527E-01;4247.979;3;77.744453;0.0;-15.456816;0;0.20968994;  9.9975273E+03;  0.0000000E+00; -1.7630933E-01;  1.0000000E+04;  0.0000000E+00;  9.9831484E+03;0.063335799;0.0;0.14635415;6538.6084
  1.0604252E+00;  9.9999998E-03; -2.4018227E-01;2675;0.19862327;0.0;-0.061003216;1005.3369;  4.0247542E-01;4347.2578;3;67.779068;0.0;-12.16177;0;0.17270342;  1.0000638E+04;  0.0000000E+00; -1.9245309E-01;  1.0000000E+04;  0.0000000E+00;  9.9824561E+03;0.0049480102;0.0;0.16775541;6830.5728
  1.0603911E+00;  9.9999998E-03; -2.2016540E-01;2676;0.18865424;0.0;-0.059710871;1005.4724;  4.0247554E-01;4457.7031;3;61.753326;0.0;-10.36011;0;0.13039422;  1.0002900E+04;  0.0000000E+00; -1.8278305E-01;  1.0000000E+04;  0.0000000E+00;  9.9828750E+03;-0.038914859;0.0;0.16930908;6682.4893
  1.0603602E+00;  9.9999998E-03; -2.0014955E-01;2677;0.17821735;0.0;-0.057189163;1005.5879;  4.0247551E-01;4551.8325;3;58.427792;0.0;-8.9059944;0;0.09888038;  1.0004684E+04;  0.0000000E+00; -1.1463268E-01;  1.0000000E+04;  0.0000000E+00;  9.9833828E+03;-0.073797062;0.0;0.17267744;6470.5054
  1.0805564E+00;  9.9999998E-03; -3.0020198E-01;2703;0.23509213;0.0;-0.060777951;1004.0364;  4.0213898E-01;3269.0488;3;117.06242;0.0;-22.85746;0;0.34741318;  9.9862344E+03;  0.0000000E+00;  8.6713493E-01;  1.0000000E+04;  0.0000000E+00;  9.9877422E+03;0.24050882;0.0;0.10690437;5520.3525
  1.0805128E+00;  9.9999998E-03; -2.8018931E-01;2704;0.2237882;0.0;-0.058942396;1004.3325;  4.0213916E-01;3508.9197;3;97.978416;0.0;-19.286024;0;0.25142133;  9.9940410E+03;  0.0000000E+00; -3.7290734E-01;  1.0000000E+04;  0.0000000E+00;  9.9857979E+03;0.11435248;0.0;0.13706887;5272.8271
  1.0804682E+00;  9.9999998E-03; -2.6017696E-01;2705;0.210135;0.0;-0.055096608;1004.499;  4.0213904E-01;3643.8499;3;80.820404;0.0;-14.579855;0;0.16046785;  9.9991377E+03;  0.0000000E+00; -5.2157104E-01;  1.0000000E+04;  0.0000000E+00;  9.9840068E+03;0.023287965;0.0;0.13717988;6155.5327
  1.0804251E+00;  9.9999998E-03; -2.4016498E-01;2706;0.19824955;0.0;-0.05454009;1004.6151;  4.0213928E-01;3737.845;3;69.681503;0.0;-11.571925;0;0.12808549;  1.0002167E+04;  0.0000000E+00; -4.9458438E-01;  1.0000000E+04;  0.0000000E+00;  9.9832715E+03;-0.030108279;0.0;0.15819377;6390.186
  1.0803875E+00;  9.9999998E-03; -2.2014958E-01;2707;0.18751654;0.0;-0.05363689;1004.7229;  4.0213925E-01;3825.2698;3;62.959328;0.0;-9.9623966;0;0.098396115;  1.0003853E+04;  0.0000000E+00; -4.1951841E-01;  1.0000000E+04;  0.0000000E+00;  9.9837178E+03;-0.062675633;0.0;0.16107175;6158.6069
  1.0803535E+00;  9.9999998E-03; -2.0013404E-01;2708;0.17616956;0.0;-0.051142175;1004.8134;  4.0213943E-01;3898.5959;3;58.823326;0.0;-8.5431252;0;0.074719362;  1.0004998E+04;  0.0000000E+00; -2.6665762E-01;  1.0000000E+04;  0.0000000E+00;  9.9843662E+03;-0.086567931;0.0;0.16128729;5797.2876
  1.1005182E+00;  9.9999998E-03; -2.8017375E-01;2734;0.22486299;0.0;-0.052646618;1003.6921;  4.0185714E-01;2967.6995;3;103.13148;0.0;-18.017061;0;0.21267411;  9.9943184E+03;  0.0000000E+00; -3.0618963E-01;  1.0000000E+04;  0.0000000E+00;  9.9868027E+03;0.094444834;0.0;0.11822928;4466.4355
  1.1004715E+00;  9.9999998E-03; -2.6016060E-01;2735;0.2102866;0.0;-0.048818283;1003.9114;  4.0185708E-01;3143.9739;3;84.844643;0.0;-13.549854;0;0.11172038;  1.0000262E+04;  0.0000000E+00; -8.6941725E-01;  1.0000000E+04;  0.0000000E+00;  9.9852041E+03;-0.0088059017;0.0;0.12052628;5906.519
  1.1004267E+00;  9.9999998E-03; -2.4014935E-01;2736;0.19784164;0.0;-0.047749557;1004.0114;  4.0185723E-01;3224.4302;3;72.158943;0.0;-10.533706;0;0.085484058;  1.0003344E+04;  0.0000000E+00; -8.9357829E-01;  1.0000000E+04;  0.0000000E+00;  9.9841055E+03;-0.059105664;0.0;0.14458972;6285.6724
  1.1003853E+00;  9.9999998E-03; -2.2013514E-01;2737;0.1864911;0.0;-0.047246888;1004.0912;  4.0185735E-01;3288.6899;3;64.628128;0.0;-9.2902088;0;0.071259819;  1.0004615E+04;  0.0000000E+00; -7.5617468E-01;  1.0000000E+04;  0.0000000E+00;  9.9844082E+03;-0.082350604;0.0;0.15361042;5945.6567
  1.1003484E+00;  9.9999998E-03; -2.0012008E-01;2738;0.17441194;0.0;-0.045212485;1004.1524;  4.0185741E-01;3337.9009;3;59.550587;0.0;-8.10396;0;0.057651274;  1.0005127E+04;  0.0000000E+00; -5.0934970E-01;  1.0000000E+04;  0.0000000E+00;  9.9851035E+03;-0.095619582;0.0;0.15327086;5359.2529
  1.1205157E+00;  9.9999998E-03; -2.8016078E-01;2763;0.22308689;0.0;-0.04709639;1003.1506;  4.0162590E-01;2507.342;3;108.74509;0.0;-16.95862;0;0.18490568;  9.9939609E+03;  0.0000000E+00;  2.9761526E-01;  1.0000000E+04;  0.0000000E+00;  9.9878662E+03;0.086209908;0.0;0.098695762;3713.1812
  1.1204733E+00;  9.9999998E-03; -2.6014769E-01;2764;0.21019883;0.0;-0.043456346;1003.395;  4.0162596E-01;2701.8921;3;90.0755;0.0;-12.741095;0;0.08364439;  1.0000286E+04;  0.0000000E+00; -1.0071285E+00;  1.0000000E+04;  0.0000000E+00;  9.9863975E+03;-0.020009482;0.0;0.10365387;5322.4653
  1.1204290E+00;  9.9999998E-03; -2.4013574E-01;2765;0.19724067;0.0;-0.041112151;1003.5062;  4.0162602E-01;2790.4788;3;75.520836;0.0;-9.3183498;0;0.04715839;  1.0003725E+04;  0.0000000E+00; -1.2822629E+00;  1.0000000E+04;  0.0000000E+00;  9.9851631E+03;-0.075987831;0.0;0.12314622;6243.7988
  1.1203855E+00;  9.9999998E-03; -2.2012255E-01;2766;0.18561113;0.0;-0.040768102;1003.5676;  4.0162602E-01;2839.4094;3;66.85025;0.0;-8.2168446;0;0.047631294;  1.0004997E+04;  0.0000000E+00; -1.1574764E+00;  1.0000000E+04;  0.0000000E+00;  9.9851035E+03;-0.095546231;0.0;0.14317752;5973.5107
  1.1203452E+00;  9.9999998E-03; -2.0010768E-01;2767;0.17301837;0.0;-0.03921679;1003.6043;  4.0162620E-01;2868.6973;3;60.806229;0.0;-7.3466125;0;0.045002431;  1.0005105E+04;  0.0000000E+00; -8.4529918E-01;  1.0000000E+04;  0.0000000E+00;  9.9857178E+03;-0.10169756;0.0;0.14669999;5199.8608
  1.1404727E+00;  9.9999998E-03; -2.6013938E-01;2792;0.20965794;0.0;-0.039909627;1002.8973;  4.0144059E-01;2276.2698;3;96.651871;0.0;-12.411594;0;0.096780628;  9.9988418E+03;  0.0000000E+00; -6.2776184E-01;  1.0000000E+04;  0.0000000E+00;  9.9871494E+03;-0.0022782846;0.0;0.099058911;3905.532
  1.1404315E+00;  9.9999998E-03; -2.4012637E-01;2793;0.19679937;0.0;-0.036327466;1003.0507;  4.0144053E-01;2396.7817;3;80.433846;0.0;-8.6094408;0;0.032731004;  1.0002874E+04;  0.0000000E+00; -1.4754874E+00;  1.0000000E+04;  0.0000000E+00;  9.9861670E+03;-0.072249562;0.0;0.10498057;5756.0493
  1.1403888E+00;  9.9999998E-03; -2.2011383E-01;2794;0.18519439;0.0;-0.035349317;1003.117;  4.0144068E-01;2448.9316;3;69.78051;0.0;-6.9798379;0;0.033407599;  1.0004614E+04;  0.0000000E+00; -1.5601168E+00;  1.0000000E+04;  0.0000000E+00;  9.9857383E+03;-0.09744221;0.0;0.13084981;6018.0615
  1.1403452E+00;  9.9999998E-03; -2.0009835E-01;2795;0.17221312;0.0;-0.033858318;1003.157;  4.0144068E-01;2480.4805;3;62.774605;0.0;-6.4406877;0;0.036042042;  1.0004868E+04;  0.0000000E+00; -1.2528642E+00;  1.0000000E+04;  0.0000000E+00;  9.9862725E+03;-0.10413022;0.0;0.14017226;5251.3008
  1.1604674E+00;  9.9999998E-03; -2.6013336E-01;2819;0.20710047;0.0;-0.037217934;1002.44;  4.0129513E-01;1885.318;3;103.55869;0.0;-12.365329;0;0.12988882;  9.9963389E+03;  0.0000000E+00;  5.5829936E-01;  1.0000000E+04;  0.0000000E+00;  9.9877744E+03;0.032434721;0.0;0.097454101;3143.3521
  1.1604342E+00;  9.9999998E-03; -2.4012242E-01;2820;0.19718224;0.0;-0.034194164;1002.5806;  4.0129516E-01;1993.978;3;87.438278;0.0;-8.702424;0;0.069565944;  1.0000361E+04;  0.0000000E+00; -1.1968113E+00;  1.0000000E+04;  0.0000000E+00;  9.9865518E+03;-0.036483638;0.0;0.10604958;4388.8457
  1.1603943E+00;  9.9999998E-03; -2.2010913E-01;2821;0.18530087;0.0;-0.031616267;1002.6977;  4.0129516E-01;2084.6033;3;74.315086;0.0;-6.1316767;0;0.039592646;  1.0003001E+04;  0.0000000E+00; -1.7966100E+00;  1.0000000E+04;  0.0000000E+00;  9.9862471E+03;-0.080695108;0.0;0.12028775;5610.9424
  1.1603506E+00;  9.9999998E-03; -2.0009395E-01;2822;0.17245112;0.0;-0.029934378;1002.7712;  4.0129530E-01;2141.4348;3;65.627205;0.0;-5.4332576;0;0.036803424;  1.0004036E+04;  0.0000000E+00; -1.6722176E+00;  1.0000000E+04;  0.0000000E+00;  9.9866689E+03;-0.09787856;0.0;0.13468198;5294.2778
  1.1804322E+00;  9.9999998E-03; -2.4012019E-01;2846;0.19588394;0.0;-0.033169076;1002.1401;  4.0118343E-01;1619.2599;3;95.2714;0.0;-9.5987186;0;0.13404714;  9.9968799E+03;  0.0000000E+00; -1.1156728E-02;  1.0000000E+04;  0.0000000E+00;  9.9868145E+03;0.018635407;0.0;0.11541173;2600.2354
  1.1803993E+00;  9.9999998E-03; -2.2010829E-01;2847;0.18572587;0.0;-0.030107766;1002.2695;  4.0118343E-01;1717.1873;3;81.111237;0.0;-6.4181309;0;0.084659189;  9.9998516E+03;  0.0000000E+00; -1.5102234E+00;  1.0000000E+04;  0.0000000E+00;  9.9864219E+03;-0.036352303;0.0;0.1210115;4229.7437
  1.1803595E+00;  9.9999998E-03; -2.0009422E-01;2848;0.17370509;0.0;-0.02795447;1002.3912;  4.0118352E-01;1809.3639;3;70.358063;0.0;-4.9945269;0;0.062615752;  1.0001932E+04;  0.0000000E+00; -1.9284261E+00;  1.0000000E+04;  0.0000000E+00;  9.9867646E+03;-0.071457267;0.0;0.13407302;4915.7734
  1.2003996E+00;  9.9999998E-03; -2.2010832E-01;2871;0.18459037;0.0;-0.029696112;1001.8663;  4.0109944E-01;1375.5758;3;89.120079;0.0;-7.615006;0;0.15516359;  9.9958389E+03;  0.0000000E+00; -2.1464433E-01;  1.0000000E+04;  0.0000000E+00;  9.9865762E+03;0.026104225;0.0;0.12905936;2236.1362
  1.2003683E+00;  9.9999998E-03; -2.0009689E-01;2872;0.17514865;0.0;-0.027647179;1001.9835;  4.0109938E-01;1462.0162;3;77.556961;0.0;-5.6206946;0;0.12762247;  9.9981221E+03;  0.0000000E+00; -1.6090567E+00;  1.0000000E+04;  0.0000000E+00;  9.9866309E+03;-0.013907063;0.0;0.14152953;3608.4998
  1.2203875E+00;  9.9999998E-03; -2.2010347E-01;2894;0.17813189;0.0;-0.027195038;1001.6861;  4.0103742E-01;1203.9449;3;95.827858;0.0;-8.247261;0;0.14926876;  9.9939736E+03;  0.0000000E+00;  1.9338660E+00;  1.0000000E+04;  0.0000000E+00;  9.9879326E+03;0.041254289;0.0;0.10801447;3191.1738
  1.2203701E+00;  9.9999998E-03; -2.0009878E-01;2895;0.17374286;0.0;-0.027474962;1001.6227;  4.0103754E-01;1158.6958;3;85.516525;0.0;-6.796021;0;0.19755447;  9.9940127E+03;  0.0000000E+00; -2.1768585E-01;  1.0000000E+04;  0.0000000E+00;  9.9866318E+03;0.04940987;0.0;0.1481446;1799.5863
 -1.4061185E-06;  9.9999998E-03; -1.8000016E-01;1036;-0.001260396;0.0;-0.0001385043;1000.0306;  4.0000001E-01;25.381994;3;-1.0466745;0.0;-0.11523655;0;-0.024315901;  1.0000635E+04;  0.0000000E+00; -2.5685569E-09;  1.0000000E+04;  0.0000000E+00;  9.9999746E+03;-0.025338568;0.0;0.0010226666;13.535978
 -1.4455096E-06;  9.9999998E-03; -1.6000012E-01;1037;-0.0012941505;0.0;-0.0001061262;1000.0316;  4.0000001E-01;26.172096;3;-1.0739753;0.0;-0.088244528;0;-0.025078809;  1.0000657E+04;  0.0000000E+00; -2.0641806E-09;  1.0000000E+04;  0.0000000E+00;  9.9999766E+03;-0.026064375;0.0;0.00098556734;13.251333
 -1.4689513E-06;  9.9999998E-03; -1.4000009E-01;1038;-0.0013131252;0.0;-7.9356214e-05;1000.0322;  4.0000001E-01;26.665909;3;-1.0891867;0.0;-0.06587556;0;-0.025599806;  1.0000666E+04;  0.0000000E+00; -8.2433321E-10;  1.0000000E+04;  0.0000000E+00;  9.9999785E+03;-0.026481189;0.0;0.00088138354;12.222005
 -1.4812491E-06;  9.9999998E-03; -1.2000007E-01;1039;-0.0013218495;0.0;-5.7189278e-05;1000.0328;  4.0000001E-01;27.159721;3;-1.095741;0.0;-0.04736279;0;-0.025928812;  1.0000673E+04;  0.0000000E+00; -1.4865192E-10;  1.0000000E+04;  0.0000000E+00;  9.9999824E+03;-0.026678678;0.0;0.00074986625;10.886311
 -1.4861196E-06;  9.9999998E-03; -1.0000005E-01;1040;-0.0013238852;0.0;-3.9613999e-05;1000.0329;  4.0000001E-01;27.258484;3;-1.0966609;0.0;-0.032632537;0;-0.026116883;  1.0000675E+04;  0.0000000E+00; -1.5113200E-10;  1.0000000E+04;  0.0000000E+00;  9.9999844E+03;-0.026731495;0.0;0.00061461137;9.50173
 -1.4864854E-06;  9.9999998E-03; -8.0000035E-02;1041;-0.001322037;0.0;-2.6396387e-05;1000.0331;  4.0000001E-01;27.456009;3;-1.0943489;0.0;-0.021601286;0;-0.026210014;  1.0000675E+04;  0.0000000E+00; -4.9215177E-11;  1.0000000E+04;  0.0000000E+00;  9.9999873E+03;-0.026700361;0.0;0.00049034675;8.2271519
 -1.4847240E-06;  9.9999998E-03; -6.0000021E-02;1042;-0.0013186005;0.0;-1.6505988e-05;1000.0333;  4.0000001E-01;27.554771;3;-1.0908067;0.0;-0.013390319;0;-0.026245473;  1.0000676E+04;  0.0000000E+00; -7.6991039E-11;  1.0000000E+04;  0.0000000E+00;  9.9999902E+03;-0.026632039;0.0;0.00038656555;7.1631403
 -1.4823855E-06;  9.9999998E-03; -4.0000014E-02;1043;-0.0013150887;0.0;-9.4762127e-06;1000.0333;  4.0000001E-01;27.554771;3;-1.0873518;0.0;-0.0076187691;0;-0.026251499;  1.0000675E+04;  0.0000000E+00; -4.2707716E-11;  1.0000000E+04;  0.0000000E+00;  9.9999922E+03;-0.026560597;0.0;0.0003090981;6.3698487
 -1.4805837E-06;  9.9999998E-03; -2.0000005E-02;1044;-0.0013125917;0.0;-4.2478596e-06;1000.0333;  4.0000001E-01;27.554771;3;-1.0849407;0.0;-0.0033862418;0;-0.026247581;  1.0000675E+04;  0.0000000E+00; -1.9008053E-12;  1.0000000E+04;  0.0000000E+00;  9.9999941E+03;-0.026508978;0.0;0.00026139567;5.8819141
  1.9997971E-02;  9.9999998E-03; -1.8000022E-01;1066;-0.001803054;0.0;-0.00018542353;1000.0369;  4.0000001E-01;30.616413;3;-1.3682613;0.0;-0.14039221;0;-0.029026894;  1.0000775E+04;  0.0000000E+00;  7.4208351E-09;  1.0000000E+04;  0.0000000E+00;  9.9999668E+03;-0.030391539;0.0;0.0013646452;18.109411
  1.9997921E-02;  9.9999998E-03; -1.6000018E-01;1067;-0.001846196;0.0;-0.00014324543;1000.0381;  4.0000001E-01;31.60404;3;-1.4000006;0.0;-0.10854651;0;-0.029849682;  1.0000798E+04;  0.0000000E+00;  2.9130462E-09;  1.0000000E+04;  0.0000000E+00;  9.9999668E+03;-0.031160846;0.0;0.0013111641;17.652172
  1.9997893E-02;  9.9999998E-03; -1.4000013E-01;1068;-0.0018684415;0.0;-0.00010793428;1000.0389;  4.0000001E-01;32.196617;3;-1.416177;0.0;-0.081813432;0;-0.030402109;  1.0000809E+04;  0.0000000E+00;  1.2543242E-09;  1.0000000E+04;  0.0000000E+00;  9.9999717E+03;-0.031574257;0.0;0.0011721468;16.232126
  1.9997878E-02;  9.9999998E-03; -1.2000009E-01;1069;-0.0018769675;0.0;-7.8023739e-05;1000.0395;  4.0000001E-01;32.69043;3;-1.421792;0.0;-0.059090462;0;-0.030741161;  1.0000812E+04;  0.0000000E+00;  5.0688731E-10;  1.0000000E+04;  0.0000000E+00;  9.9999746E+03;-0.0317396;0.0;0.00099844008;14.422027
  1.9997876E-02;  9.9999998E-03; -1.0000007E-01;1070;-0.001876498;0.0;-5.4719516e-05;1000.0397;  4.0000001E-01;32.887955;3;-1.4204583;0.0;-0.041333873;0;-0.030926559;  1.0000813E+04;  0.0000000E+00;  1.2211303E-10;  1.0000000E+04;  0.0000000E+00;  9.9999785E+03;-0.031745788;0.0;0.00081922917;12.545847
  1.9997878E-02;  9.9999998E-03; -8.0000050E-02;1071;-0.0018712733;0.0;-3.6766134e-05;1000.0399;  4.0000001E-01;33.08548;3;-1.4155025;0.0;-0.027661318;0;-0.031010572;  1.0000813E+04;  0.0000000E+00; -9.7005459E-12;  1.0000000E+04;  0.0000000E+00;  9.9999834E+03;-0.031664632;0.0;0.00065405987;10.816765
  1.9997882E-02;  9.9999998E-03; -6.0000032E-02;1072;-0.0018644021;0.0;-2.3387262e-05;1000.0399;  4.0000001E-01;33.08548;3;-1.4093995;0.0;-0.017504759;0;-0.03103495;  1.0000812E+04;  0.0000000E+00; -1.6124430E-11;  1.0000000E+04;  0.0000000E+00;  9.9999863E+03;-0.031550772;0.0;0.00051582203;9.3721304
  1.9997887E-02;  9.9999998E-03; -4.0000018E-02;1073;-0.0018580516;0.0;-1.359706e-05;1000.04;  4.0000001E-01;33.08548;3;-1.4038754;0.0;-0.010113364;0;-0.03103105;  1.0000810E+04;  0.0000000E+00; -4.1310719E-11;  1.0000000E+04;  0.0000000E+00;  9.9999893E+03;-0.031443566;0.0;0.00041251615;8.2947474
  1.9997891E-02;  9.9999998E-03; -2.0000009E-02;1074;-0.001853692;0.0;-6.1863993e-06;1000.0399;  4.0000001E-01;33.08548;3;-1.4001164;0.0;-0.0045893276;0;-0.031020388;  1.0000809E+04;  0.0000000E+00;  5.3847898E-12;  1.0000000E+04;  0.0000000E+00;  9.9999902E+03;-0.031369254;0.0;0.00034886511;7.6320314
  3.9997160E-02;  9.9999998E-03; -1.8000026E-01;1097;-0.0025009196;0.0;-0.00021543978;1000.0433;  4.0000001E-01;35.949596;3;-1.7585135;0.0;-0.14917088;0;-0.033318672;  1.0000913E+04;  0.0000000E+00;  1.2186491E-08;  1.0000000E+04;  0.0000000E+00;  9.9999580E+03;-0.034986712;0.0;0.0016680401;22.534616
  3.9997097E-02;  9.9999998E-03; -1.6000021E-01;1098;-0.002554086;0.0;-0.00016768136;1000.0444;  4.0000001E-01;36.739697;3;-1.7948563;0.0;-0.11651975;0;-0.03413517;  1.0000932E+04;  0.0000000E+00;  6.6895423E-09;  1.0000000E+04;  0.0000000E+00;  9.9999600E+03;-0.035730518;0.0;0.0015953472;21.850468
  3.9997064E-02;  9.9999998E-03; -1.4000015E-01;1099;-0.0025794771;0.0;-0.00012638247;1000.0453;  4.0000001E-01;37.529797;3;-1.8120584;0.0;-0.087995932;0;-0.034661144;  1.0000942E+04;  0.0000000E+00;  3.2297847E-09;  1.0000000E+04;  0.0000000E+00;  9.9999639E+03;-0.036085796;0.0;0.0014246498;20.036171
  3.9997052E-02;  9.9999998E-03; -1.2000012E-01;1100;-0.0025864795;0.0;-9.1911934e-05;1000.0457;  4.0000001E-01;37.826084;3;-1.8160253;0.0;-0.064064026;0;-0.034963105;  1.0000945E+04;  0.0000000E+00;  1.1622547E-09;  1.0000000E+04;  0.0000000E+00;  9.9999678E+03;-0.036177561;0.0;0.0012144576;17.772423
  3.9997049E-02;  9.9999998E-03; -1.0000008E-01;1101;-0.0025820711;0.0;-6.4781234e-05;1000.0461;  4.0000001E-01;38.221134;3;-1.8117888;0.0;-0.045106649;0;-0.035110041;  1.0000945E+04;  0.0000000E+00;  3.6518366E-10;  1.0000000E+04;  0.0000000E+00;  9.9999727E+03;-0.036107246;0.0;0.0009972062;15.429648
  3.9997056E-02;  9.9999998E-03; -8.0000058E-02;1102;-0.002572037;0.0;-4.3635569e-05;1000.0461;  4.0000001E-01;38.221134;3;-1.8035605;0.0;-0.030402621;0;-0.03515904;  1.0000943E+04;  0.0000000E+00;  5.1555357E-11;  1.0000000E+04;  0.0000000E+00;  9.9999785E+03;-0.035955459;0.0;0.00079641695;13.268972
  3.9997067E-02;  9.9999998E-03; -6.0000040E-02;1103;-0.0025603836;0.0;-2.7975964e-05;1000.0461;  4.0000001E-01;38.221134;3;-1.7942615;0.0;-0.019450851;0;-0.035154462;  1.0000939E+04;  0.0000000E+00; -3.0082128E-11;  1.0000000E+04;  0.0000000E+00;  9.9999834E+03;-0.035782479;0.0;0.00062801834;11.462314
  3.9997075E-02;  9.9999998E-03; -4.0000021E-02;1104;-0.0025501552;0.0;-1.6279464e-05;1000.0461;  4.0000001E-01;38.221134;3;-1.7861814;0.0;-0.011278915;0;-0.035129078;  1.0000936E+04;  0.0000000E+00; -5.7452788E-12;  1.0000000E+04;  0.0000000E+00;  9.9999863E+03;-0.035631087;0.0;0.00050200924;10.114299
  3.9997078E-02;  9.9999998E-03; -2.0000011E-02;1105;-0.0025432738;0.0;-7.464791e-06;1000.0461;  4.0000001E-01;38.221134;3;-1.7807658;0.0;-0.0051633408;0;-0.035105262;  1.0000935E+04;  0.0000000E+00;  2.4911906E-11;  1.0000000E+04;  0.0000000E+00;  9.9999883E+03;-0.03552958;0.0;0.00042431755;9.2849426
  5.9996203E-02;  9.9999998E-03; -1.8000029E-01;1128;-0.0033093253;0.0;-0.00023110901;1000.0504;  4.0000001E-01;41.677826;3;-2.1967981;0.0;-0.14775404;0;-0.037763771;  1.0001059E+04;  0.0000000E+00;  1.1847662E-08;  1.0000000E+04;  0.0000000E+00;  9.9999502E+03;-0.039673917;0.0;0.0019101477;26.685041
  5.9996124E-02;  9.9999998E-03; -1.6000022E-01;1129;-0.0033709214;0.0;-0.0001801911;1000.0514;  4.0000001E-01;42.566692;3;-2.2370455;0.0;-0.11602464;0;-0.038522337;  1.0001080E+04;  0.0000000E+00;  7.6538971E-09;  1.0000000E+04;  0.0000000E+00;  9.9999512E+03;-0.040337682;0.0;0.0018153442;25.713396
  5.9996087E-02;  9.9999998E-03; -1.4000018E-01;1130;-0.0033976419;0.0;-0.00013528155;1000.0521;  4.0000001E-01;43.159267;3;-2.2544885;0.0;-0.087474704;0;-0.038970605;  1.0001085E+04;  0.0000000E+00;  3.4094010E-09;  1.0000000E+04;  0.0000000E+00;  9.9999570E+03;-0.040589157;0.0;0.0016185532;23.518518
  5.9996076E-02;  9.9999998E-03; -1.2000013E-01;1131;-0.0034011572;0.0;-9.8394201e-05;1000.0524;  4.0000001E-01;43.356792;3;-2.2560124;0.0;-0.063833684;0;-0.039190698;  1.0001085E+04;  0.0000000E+00;  1.2400988E-09;  1.0000000E+04;  0.0000000E+00;  9.9999639E+03;-0.04057147;0.0;0.0013807731;20.845417
  5.9996083E-02;  9.9999998E-03; -1.0000009E-01;1132;-0.0033909779;0.0;-6.8930305e-05;1000.0527;  4.0000001E-01;43.65308;3;-2.248132;0.0;-0.044755984;0;-0.039263185;  1.0001081E+04;  0.0000000E+00;  2.2861060E-10;  1.0000000E+04;  0.0000000E+00;  9.9999697E+03;-0.04039805;0.0;0.0011348656;18.086775
  5.9996095E-02;  9.9999998E-03; -8.0000065E-02;1133;-0.0033743796;0.0;-4.6404981e-05;1000.0527;  4.0000001E-01;43.65308;3;-2.2358449;0.0;-0.03021146;0;-0.039249565;  1.0001076E+04;  0.0000000E+00; -4.4593423E-11;  1.0000000E+04;  0.0000000E+00;  9.9999756E+03;-0.040156543;0.0;0.00090697902;15.541156
  5.9996109E-02;  9.9999998E-03; -6.0000043E-02;1134;-0.0033566095;0.0;-2.958127e-05;1000.0526;  4.0000001E-01;43.554317;3;-2.2228103;0.0;-0.019262474;0;-0.039195862;  1.0001072E+04;  0.0000000E+00; -5.8474448E-11;  1.0000000E+04;  0.0000000E+00;  9.9999795E+03;-0.039911263;0.0;0.00071539934;13.410331
  5.9996124E-02;  9.9999998E-03; -4.0000025E-02;1135;-0.0033414729;0.0;-1.7195947e-05;1000.0525;  4.0000001E-01;43.455555;3;-2.2117198;0.0;-0.01118862;0;-0.039135393;  1.0001069E+04;  0.0000000E+00; -4.3815403E-11;  1.0000000E+04;  0.0000000E+00;  9.9999834E+03;-0.039707188;0.0;0.00057179341;11.818901
  5.9996132E-02;  9.9999998E-03; -2.0000013E-02;1136;-0.0033314535;0.0;-7.8568346e-06;1000.0525;  4.0000001E-01;43.455555;3;-2.2043889;0.0;-0.0051092585;0;-0.039090604;  1.0001064E+04;  0.0000000E+00;  2.2392425E-11;  1.0000000E+04;  0.0000000E+00;  9.9999854E+03;-0.039573766;0.0;0.00048316451;10.839211
  7.9995096E-02;  9.9999998E-03; -1.8000031E-01;1159;-0.0042146547;0.0;-0.00023587399;1000.0586;  4.0000001E-01;48.591209;3;-2.6878519;0.0;-0.14034092;0;-0.042889569;  1.0001230E+04;  0.0000000E+00;  1.6614121E-10;  1.0000000E+04;  0.0000000E+00;  9.9999404E+03;-0.044981595;0.0;0.0020920245;30.68331
  7.9995006E-02;  9.9999998E-03; -1.6000023E-01;1160;-0.0042813821;0.0;-0.00018310353;1000.0595;  4.0000001E-01;49.282551;3;-2.7306275;0.0;-0.10988132;0;-0.043548554;  1.0001245E+04;  0.0000000E+00;  6.0230736E-09;  1.0000000E+04;  0.0000000E+00;  9.9999453E+03;-0.045522407;0.0;0.0019738534;29.373247
  7.9994969E-02;  9.9999998E-03; -1.4000018E-01;1161;-0.0043061893;0.0;-0.0001364811;1000.0601;  4.0000001E-01;49.776363;3;-2.7467752;0.0;-0.082588106;0;-0.043874584;  1.0001253E+04;  0.0000000E+00;  3.4988956E-09;  1.0000000E+04;  0.0000000E+00;  9.9999512E+03;-0.045632396;0.0;0.0017578119;26.815191
  7.9994969E-02;  9.9999998E-03; -1.2000014E-01;1162;-0.0043033836;0.0;-9.8890661e-05;1000.0602;  4.0000001E-01;49.875126;3;-2.7446613;0.0;-0.060178243;0;-0.043972634;  1.0001251E+04;  0.0000000E+00;  1.0149275E-09;  1.0000000E+04;  0.0000000E+00;  9.9999580E+03;-0.045474783;0.0;0.0015021496;23.774603
  7.9994977E-02;  9.9999998E-03; -1.0000010E-01;1163;-0.0042850031;0.0;-6.8544599e-05;1000.0603;  4.0000001E-01;49.973888;3;-2.7320545;0.0;-0.041855868;0;-0.043936651;  1.0001245E+04;  0.0000000E+00;  4.2790368E-11;  1.0000000E+04;  0.0000000E+00;  9.9999648E+03;-0.045174479;0.0;0.0012378265;20.648008
  7.9994999E-02;  9.9999998E-03; -8.0000065E-02;1164;-0.0042598164;0.0;-4.5785149e-05;1000.0601;  4.0000001E-01;49.776363;3;-2.7148314;0.0;-0.028074989;0;-0.043833219;  1.0001235E+04;  0.0000000E+00; -1.4871672E-10;  1.0000000E+04;  0.0000000E+00;  9.9999707E+03;-0.044825237;0.0;0.00099201791;17.759443
  7.9995021E-02;  9.9999998E-03; -6.0000043E-02;1165;-0.0042343736;0.0;-2.8828455e-05;1000.0601;  4.0000001E-01;49.776363;3;-2.6973531;0.0;-0.017725835;0;-0.043709975;  1.0001229E+04;  0.0000000E+00; -1.8625729E-10;  1.0000000E+04;  0.0000000E+00;  9.9999766E+03;-0.044494621;0.0;0.00078464567;15.336504
  7.9995044E-02;  9.9999998E-03; -4.0000025E-02;1166;-0.0042132232;0.0;-1.6614968e-05;1000.0601;  4.0000001E-01;49.776363;3;-2.6827748;0.0;-0.010213174;0;-0.043600298;  1.0001223E+04;  0.0000000E+00; -1.1436068E-10;  1.0000000E+04;  0.0000000E+00;  9.9999814E+03;-0.044229072;0.0;0.00062877405;13.523426
  7.9995058E-02;  9.9999998E-03; -2.0000013E-02;1167;-0.0041993968;0.0;-7.5325588e-06;1000.0599;  4.0000001E-01;49.677601;3;-2.6732254;0.0;-0.0046423851;0;-0.043526184;  1.0001219E+04;  0.0000000E+00;  3.2399996E-11;  1.0000000E+04;  0.0000000E+00;  9.9999834E+03;-0.044058595;0.0;0.00053240964;12.405826
  9.9993810E-02;  9.9999998E-03; -1.8000032E-01;1190;-0.0052274629;0.0;-0.00023397595;1000.0687;  4.0000001E-01;56.986034;3;-3.2413385;0.0;-0.12974498;0;-0.049077883;  1.0001443E+04;  0.0000000E+00; -1.9408716E-08;  1.0000000E+04;  0.0000000E+00;  9.9999355E+03;-0.051312219;0.0;0.0022343346;34.869419
  9.9993728E-02;  9.9999998E-03; -1.6000025E-01;1191;-0.0052949269;0.0;-0.00018029391;1000.0696;  4.0000001E-01;57.677372;3;-3.2846105;0.0;-0.10104896;0;-0.049595099;  1.0001453E+04;  0.0000000E+00;  1.4094639E-09;  1.0000000E+04;  0.0000000E+00;  9.9999404E+03;-0.05169097;0.0;0.0020958716;33.199997
  9.9993698E-02;  9.9999998E-03; -1.4000019E-01;1192;-0.0053134048;0.0;-0.00013385006;1000.07;  4.0000001E-01;57.97366;3;-3.2974133;0.0;-0.076014318;0;-0.049757667;  1.0001455E+04;  0.0000000E+00;  2.7561433E-09;  1.0000000E+04;  0.0000000E+00;  9.9999453E+03;-0.051625952;0.0;0.0018682858;30.289814
  9.9993698E-02;  9.9999998E-03; -1.2000014E-01;1193;-0.005300737;0.0;-9.6035466e-05;1000.07;  4.0000001E-01;57.97366;3;-3.2900553;0.0;-0.055002511;0;-0.049696829;  1.0001450E+04;  0.0000000E+00;  7.6399564E-10;  1.0000000E+04;  0.0000000E+00;  9.9999521E+03;-0.051301003;0.0;0.0016041746;26.904596
  9.9993728E-02;  9.9999998E-03; -1.0000010E-01;1194;-0.0052710497;0.0;-6.6127621e-05;1000.0699;  4.0000001E-01;57.97366;3;-3.2713325;0.0;-0.03826458;0;-0.049520779;  1.0001437E+04;  0.0000000E+00; -2.5378502E-10;  1.0000000E+04;  0.0000000E+00;  9.9999609E+03;-0.05085139;0.0;0.0013306111;23.430189
  9.9993758E-02;  9.9999998E-03; -8.0000073E-02;1195;-0.0052348967;0.0;-4.3569893e-05;1000.0698;  4.0000001E-01;57.776134;3;-3.2481022;0.0;-0.025365153;0;-0.049302042;  1.0001426E+04;  0.0000000E+00; -3.9972203E-10;  1.0000000E+04;  0.0000000E+00;  9.9999678E+03;-0.05037665;0.0;0.0010746075;20.209673
  9.9993788E-02;  9.9999998E-03; -6.0000047E-02;1196;-0.0051999241;0.0;-2.7178341e-05;1000.0695;  4.0000001E-01;57.578609;3;-3.2253458;0.0;-0.015960122;0;-0.049089823;  1.0001414E+04;  0.0000000E+00; -1.8999935E-10;  1.0000000E+04;  0.0000000E+00;  9.9999727E+03;-0.049947128;0.0;0.00085730478;17.497055
  9.9993818E-02;  9.9999998E-03; -4.0000029E-02;1197;-0.0051714797;0.0;-1.5475614e-05;1000.0693;  4.0000001E-01;57.479847;3;-3.2067013;0.0;-0.0091276485;0;-0.048917335;  1.0001407E+04;  0.0000000E+00; -1.1030549E-10;  1.0000000E+04;  0.0000000E+00;  9.9999775E+03;-0.049610544;0.0;0.00069320772;15.460151
  9.9993832E-02;  9.9999998E-03; -2.0000013E-02;1198;-0.0051530777;0.0;-6.9565194e-06;1000.0692;  4.0000001E-01;57.381084;3;-3.1945825;0.0;-0.0041252784;0;-0.048805952;  1.0001403E+04;  0.0000000E+00; -9.2266368E-12;  1.0000000E+04;  0.0000000E+00;  9.9999814E+03;-0.049397402;0.0;0.0005914488;14.201553
  1.1999232E-01;  9.9999998E-03; -1.8000035E-01;1221;-0.0063753859;0.0;-0.00023178957;1000.0813;  4.0000001E-01;67.35611;3;-3.8652925;0.0;-0.11941502;0;-0.056526087;  1.0001698E+04;  0.0000000E+00; -4.8289898E-08;  1.0000000E+04;  0.0000000E+00;  9.9999268E+03;-0.058903012;0.0;0.0023769247;39.831097
  1.1999223E-01;  9.9999998E-03; -1.6000026E-01;1222;-0.0064381519;0.0;-0.00017857157;1000.0819;  4.0000001E-01;67.849922;3;-3.9063709;0.0;-0.093674868;0;-0.056851953;  1.0001707E+04;  0.0000000E+00; -5.9549543E-09;  1.0000000E+04;  0.0000000E+00;  9.9999297E+03;-0.059076563;0.0;0.0022246111;37.780098
  1.1999221E-01;  9.9999998E-03; -1.4000021E-01;1223;-0.0064453064;0.0;-0.00013298812;1000.0821;  4.0000001E-01;68.047447;3;-3.9136226;0.0;-0.071312979;0;-0.056809448;  1.0001703E+04;  0.0000000E+00;  2.6232465E-09;  1.0000000E+04;  0.0000000E+00;  9.9999385E+03;-0.058803093;0.0;0.0019936441;34.503666
  1.1999223E-01;  9.9999998E-03; -1.2000015E-01;1224;-0.0064184661;0.0;-9.514948e-05;1000.0819;  4.0000001E-01;67.849922;3;-3.8990879;0.0;-0.051873427;0;-0.056554034;  1.0001691E+04;  0.0000000E+00;  5.5968086E-10;  1.0000000E+04;  0.0000000E+00;  9.9999482E+03;-0.05828359;0.0;0.0017295539;30.758989
  1.1999228E-01;  9.9999998E-03; -1.0000011E-01;1225;-0.0063738972;0.0;-6.5539294e-05;1000.0814;  4.0000001E-01;67.454872;3;-3.8726869;0.0;-0.036419544;0;-0.056208726;  1.0001674E+04;  0.0000000E+00; -5.6568578E-10;  1.0000000E+04;  0.0000000E+00;  9.9999541E+03;-0.057662286;0.0;0.0014535581;26.90587
  1.1999232E-01;  9.9999998E-03; -8.0000073E-02;1226;-0.0063239262;0.0;-4.3035474e-05;1000.0811;  4.0000001E-01;67.158585;3;-3.8421848;0.0;-0.024438938;0;-0.055851754;  1.0001659E+04;  0.0000000E+00; -6.5785777E-10;  1.0000000E+04;  0.0000000E+00;  9.9999619E+03;-0.057043817;0.0;0.0011920623;23.308918
  1.1999237E-01;  9.9999998E-03; -6.0000047E-02;1227;-0.0062772622;0.0;-2.6808531e-05;1000.0806;  4.0000001E-01;66.763535;3;-3.8132329;0.0;-0.015534463;0;-0.05553342;  1.0001645E+04;  0.0000000E+00; -3.5314721E-10;  1.0000000E+04;  0.0000000E+00;  9.9999717E+03;-0.05650112;0.0;0.00096769893;20.257816
  1.1999241E-01;  9.9999998E-03; -4.0000029E-02;1228;-0.0062399944;0.0;-1.5272864e-05;1000.0804;  4.0000001E-01;66.56601;3;-3.7898512;0.0;-0.0090484079;0;-0.055286314;  1.0001635E+04;  0.0000000E+00; -1.3424253E-10;  1.0000000E+04;  0.0000000E+00;  9.9999746E+03;-0.056083262;0.0;0.00079694763;17.954184
  1.1999243E-01;  9.9999998E-03; -2.0000013E-02;1229;-0.0062161116;0.0;-6.8473855e-06;1000.0802;  4.0000001E-01;66.467247;3;-3.7747641;0.0;-0.0041249353;0;-0.055130646;  1.0001629E+04;  0.0000000E+00;  6.8946511E-12;  1.0000000E+04;  0.0000000E+00;  9.9999775E+03;-0.055821177;0.0;0.00069053005;16.525553
  1.3999055E-01;  9.9999998E-03; -1.8000038E-01;1252;-0.007692825;0.0;-0.00023837628;1000.0964;  4.0000001E-01;79.800201;3;-4.5654683;0.0;-0.11497537;0;-0.065269627;  1.0002013E+04;  0.0000000E+00; -4.5553525E-06;  1.0000000E+04;  0.0000000E+00;  9.9999150E+03;-0.067859694;0.0;0.0025900656;46.588367
  1.3999048E-01;  9.9999998E-03; -1.6000029E-01;1253;-0.0077447179;0.0;-0.00018615615;1000.0966;  4.0000001E-01;79.997726;3;-4.6015501;0.0;-0.09295202;0;-0.06535095;  1.0002013E+04;  0.0000000E+00; -7.2396804E-09;  1.0000000E+04;  0.0000000E+00;  9.9999189E+03;-0.067774095;0.0;0.002423147;43.974003
  1.3999048E-01;  9.9999998E-03; -1.4000022E-01;1254;-0.007734946;0.0;-0.00014105593;1000.0963;  4.0000001E-01;79.800201;3;-4.6009307;0.0;-0.072967567;0;-0.065060452;  1.0001998E+04;  0.0000000E+00;  2.4504367E-09;  1.0000000E+04;  0.0000000E+00;  9.9999287E+03;-0.067254268;0.0;0.0021938193;40.224178
  1.3999052E-01;  9.9999998E-03; -1.2000017E-01;1255;-0.007688988;0.0;-0.00010252119;1000.0959;  4.0000001E-01;79.405151;3;-4.5770898;0.0;-0.055187821;0;-0.064576536;  1.0001979E+04;  0.0000000E+00;  4.5737988E-10;  1.0000000E+04;  0.0000000E+00;  9.9999375E+03;-0.06651137;0.0;0.0019348364;36.021866
  1.3999058E-01;  9.9999998E-03; -1.0000012E-01;1256;-0.0076254741;0.0;-7.1884337e-05;1000.0953;  4.0000001E-01;78.911339;3;-4.5413556;0.0;-0.040307615;0;-0.064036138;  1.0001959E+04;  0.0000000E+00; -9.1055979E-10;  1.0000000E+04;  0.0000000E+00;  9.9999463E+03;-0.065695263;0.0;0.001659123;31.67491
  1.3999066E-01;  9.9999998E-03; -8.0000080E-02;1257;-0.0075583505;0.0;-4.8212449e-05;1000.0947;  4.0000001E-01;78.516289;3;-4.5022721;0.0;-0.028292082;0;-0.063522071;  1.0001938E+04;  0.0000000E+00; -8.7693131E-10;  1.0000000E+04;  0.0000000E+00;  9.9999541E+03;-0.064914435;0.0;0.0013923671;27.574755
  1.3999072E-01;  9.9999998E-03; -6.0000055E-02;1258;-0.0074974494;0.0;-3.0692776e-05;1000.0942;  4.0000001E-01;78.121239;3;-4.4661007;0.0;-0.018818101;0;-0.063084327;  1.0001921E+04;  0.0000000E+00; -3.4710165E-10;  1.0000000E+04;  0.0000000E+00;  9.9999639E+03;-0.064243957;0.0;0.0011596303;24.063841
  1.3999076E-01;  9.9999998E-03; -4.0000033E-02;1259;-0.0074495571;0.0;-1.7870991e-05;1000.0939;  4.0000001E-01;77.726189;3;-4.4372807;0.0;-0.011422301;0;-0.062753603;  1.0001906E+04;  0.0000000E+00;  7.8355912E-11;  1.0000000E+04;  0.0000000E+00;  9.9999697E+03;-0.063734017;0.0;0.00098041759;21.394188
  1.3999079E-01;  9.9999998E-03; -2.0000016E-02;1260;-0.0074191303;0.0;-8.149942e-06;1000.0937;  4.0000001E-01;77.627426;3;-4.4188242;0.0;-0.0053725652;0;-0.062548593;  1.0001899E+04;  0.0000000E+00;  8.5391465E-11;  1.0000000E+04;  0.0000000E+00;  9.9999727E+03;-0.063416503;0.0;0.00086790824;19.731024
  1.5998846E-01;  9.9999998E-03; -1.8000044E-01;1283;-0.0092115263;0.0;-0.00026687825;1000.1138;  4.0000001E-01;94.219543;3;-5.3468385;0.0;-0.12449081;0;-0.075270861;  1.0002381E+04;  0.0000000E+00; -3.9369428E-05;  1.0000000E+04;  0.0000000E+00;  9.9998965E+03;-0.078262217;0.0;0.0029913548;56.86097
  1.5998840E-01;  9.9999998E-03; -1.6000035E-01;1284;-0.0092456657;0.0;-0.0002142708;1000.114;  4.0000001E-01;94.417068;3;-5.3749747;0.0;-0.10637708;0;-0.075052947;  1.0002373E+04;  0.0000000E+00; -1.2144008E-08;  1.0000000E+04;  0.0000000E+00;  9.9999033E+03;-0.07783784;0.0;0.0027848913;53.081512
  1.5998843E-01;  9.9999998E-03; -1.4000027E-01;1285;-0.0092129456;0.0;-0.00016741869;1000.1134;  4.0000001E-01;93.923256;3;-5.3641686;0.0;-0.08808697;0;-0.074479811;  1.0002353E+04;  0.0000000E+00;  3.6782510E-09;  1.0000000E+04;  0.0000000E+00;  9.9999141E+03;-0.077027589;0.0;0.0025477801;48.489079
  1.5998851E-01;  9.9999998E-03; -1.2000021E-01;1286;-0.0091425059;0.0;-0.00012594122;1000.1126;  4.0000001E-01;93.330681;3;-5.3291674;0.0;-0.070514135;0;-0.073740698;  1.0002325E+04;  0.0000000E+00;  7.5475137E-10;  1.0000000E+04;  0.0000000E+00;  9.9999248E+03;-0.076029964;0.0;0.0022892684;43.549084
  1.5998860E-01;  9.9999998E-03; -1.0000015E-01;1287;-0.0090555036;0.0;-9.1440073e-05;1000.1117;  4.0000001E-01;92.540581;3;-5.282506;0.0;-0.054358285;0;-0.072986595;  1.0002297E+04;  0.0000000E+00; -1.5351126E-09;  1.0000000E+04;  0.0000000E+00;  9.9999375E+03;-0.074995488;0.0;0.0020088942;38.449989
  1.5998869E-01;  9.9999998E-03; -8.0000103E-02;1288;-0.008967516;0.0;-6.3764055e-05;1000.111;  4.0000001E-01;91.948006;3;-5.2335415;0.0;-0.040421091;0;-0.072302893;  1.0002271E+04;  0.0000000E+00; -1.3975846E-09;  1.0000000E+04;  0.0000000E+00;  9.9999453E+03;-0.074033439;0.0;0.0017305436;33.600456
  1.5998878E-01;  9.9999998E-03; -6.0000069E-02;1289;-0.0088894796;0.0;-4.2221229e-05;1000.11;  4.0000001E-01;91.157906;3;-5.1891518;0.0;-0.028392594;0;-0.071737774;  1.0002249E+04;  0.0000000E+00; -6.3628186E-10;  1.0000000E+04;  0.0000000E+00;  9.9999531E+03;-0.073220402;0.0;0.0014826308;29.411461
  1.5998884E-01;  9.9999998E-03; -4.0000040E-02;1290;-0.0088289008;0.0;-2.5467809e-05;1000.1096;  4.0000001E-01;90.86161;3;-5.1541796;0.0;-0.018020106;0;-0.071318865;  1.0002230E+04;  0.0000000E+00; -6.0660595E-11;  1.0000000E+04;  0.0000000E+00;  9.9999619E+03;-0.072607838;0.0;0.0012889697;26.204525
  1.5998888E-01;  9.9999998E-03; -2.0000020E-02;1291;-0.0087906923;0.0;-1.1931177e-05;1000.1094;  4.0000001E-01;90.664085;3;-5.1319265;0.0;-0.0087404568;0;-0.071061902;  1.0002220E+04;  0.0000000E+00;  1.2988039E-11;  1.0000000E+04;  0.0000000E+00;  9.9999658E+03;-0.072228216;0.0;0.0011663166;24.197973
  1.7998599E-01;  9.9999998E-03; -1.8000054E-01;1314;-0.010958002;0.0;-0.0003352343;1000.1343;  4.0000001E-01;111.30548;3;-6.2133341;0.0;-0.16028045;0;-0.086493425;  1.0002822E+04;  0.0000000E+00; -1.1698635E-04;  1.0000000E+04;  0.0000000E+00;  9.9998643E+03;-0.090242319;0.0;0.0037488907;73.152939
  1.7998596E-01;  9.9999998E-03; -1.6000044E-01;1315;-0.010967032;0.0;-0.00027757837;1000.1339;  4.0000001E-01;110.91042;3;-6.2309871;0.0;-0.14359067;0;-0.085945614;  1.0002799E+04;  0.0000000E+00; -3.5594124E-07;  1.0000000E+04;  0.0000000E+00;  9.9998770E+03;-0.089386217;0.0;0.0034406043;66.963409
  1.7998601E-01;  9.9999998E-03; -1.4000034E-01;1316;-0.010905161;0.0;-0.00022367893;1000.133;  4.0000001E-01;110.21909;3;-6.2081614;0.0;-0.12432354;0;-0.085079022;  1.0002766E+04;  0.0000000E+00;  5.4190106E-09;  1.0000000E+04;  0.0000000E+00;  9.9998916E+03;-0.088235892;0.0;0.0031568729;60.675232
  1.7998613E-01;  9.9999998E-03; -1.2000027E-01;1317;-0.010804729;0.0;-0.00017402681;1000.1317;  4.0000001E-01;109.1327;3;-6.1604295;0.0;-0.10401843;0;-0.084075153;  1.0002729E+04;  0.0000000E+00;  8.2225693E-10;  1.0000000E+04;  0.0000000E+00;  9.9999014E+03;-0.08694987;0.0;0.002874715;54.390579
  1.7998625E-01;  9.9999998E-03; -1.0000020E-01;1318;-0.010689379;0.0;-0.00013092571;1000.1306;  4.0000001E-01;108.24384;3;-6.1014724;0.0;-0.083699867;0;-0.083101004;  1.0002692E+04;  0.0000000E+00; -2.2822295E-09;  1.0000000E+04;  0.0000000E+00;  9.9999160E+03;-0.085672326;0.0;0.0025713253;48.050064
  1.7998639E-01;  9.9999998E-03; -8.0000140E-02;1319;-0.010576464;0.0;-9.4648152e-05;1000.1295;  4.0000001E-01;107.25621;3;-6.0414677;0.0;-0.064712182;0;-0.082244977;  1.0002659E+04;  0.0000000E+00; -1.4974448E-09;  1.0000000E+04;  0.0000000E+00;  9.9999268E+03;-0.084510274;0.0;0.002265299;42.034115
  1.7998649E-01;  9.9999998E-03; -6.0000092E-02;1320;-0.010478077;0.0;-6.4954082e-05;1000.1286;  4.0000001E-01;106.56487;3;-5.9879189;0.0;-0.047112484;0;-0.08155188;  1.0002632E+04;  0.0000000E+00; -4.9565707E-10;  1.0000000E+04;  0.0000000E+00;  9.9999404E+03;-0.08354006;0.0;0.0019881802;36.82177
  1.7998658E-01;  9.9999998E-03; -4.0000055E-02;1321;-0.010402507;0.0;-4.0369679e-05;1000.1279;  4.0000001E-01;105.9723;3;-5.9461327;0.0;-0.030719411;0;-0.081044935;  1.0002609E+04;  0.0000000E+00;  5.8943121E-11;  1.0000000E+04;  0.0000000E+00;  9.9999492E+03;-0.082813948;0.0;0.0017690127;32.817394
  1.7998664E-01;  9.9999998E-03; -2.0000026E-02;1322;-0.01035512;0.0;-1.9316356e-05;1000.1276;  4.0000001E-01;105.77477;3;-5.9196591;0.0;-0.015166041;0;-0.080736615;  1.0002596E+04;  0.0000000E+00;  5.8388593E-11;  1.0000000E+04;  0.0000000E+00;  9.9999541E+03;-0.082365744;0.0;0.0016291284;30.305683
  1.9998305E-01;  9.9999998E-03; -1.8000072E-01;1345;-0.012959521;0.0;-0.00046128544;1000.1578;  4.0000001E-01;130.76172;3;-7.1689048;0.0;-0.23300312;0;-0.098879077;  1.0003344E+04;  0.0000000E+00; -2.0245582E-04;  1.0000000E+04;  0.0000000E+00;  9.9998145E+03;-0.10393702;0.0;0.0050579482;98.466446
  1.9998308E-01;  9.9999998E-03; -1.6000059E-01;1346;-0.012936205;0.0;-0.00039029081;1000.1569;  4.0000001E-01;129.97162;3;-7.1742949;0.0;-0.21375862;0;-0.098025329;  1.0003304E+04;  0.0000000E+00; -1.4863629E-06;  1.0000000E+04;  0.0000000E+00;  9.9998359E+03;-0.10257133;0.0;0.0045460048;87.908974
  1.9998318E-01;  9.9999998E-03; -1.4000046E-01;1347;-0.012838759;0.0;-0.00032133947;1000.1556;  4.0000001E-01;128.88522;3;-7.1380525;0.0;-0.18946902;0;-0.096889108;  1.0003257E+04;  0.0000000E+00;  9.3439976E-09;  1.0000000E+04;  0.0000000E+00;  9.9998564E+03;-0.10102838;0.0;0.0041392748;78.446243
  1.9998334E-01;  9.9999998E-03; -1.2000035E-01;1348;-0.012702649;0.0;-0.00025559313;1000.1542;  4.0000001E-01;127.70007;3;-7.0765285;0.0;-0.16189398;0;-0.095636435;  1.0003208E+04;  0.0000000E+00;  1.0760520E-10;  1.0000000E+04;  0.0000000E+00;  9.9998730E+03;-0.099418141;0.0;0.0037817061;69.754395
  1.9998352E-01;  9.9999998E-03; -1.0000026E-01;1349;-0.012553846;0.0;-0.00019690444;1000.1525;  4.0000001E-01;126.3174;3;-7.0041933;0.0;-0.13329794;0;-0.0944537;  1.0003161E+04;  0.0000000E+00; -3.2593450E-09;  1.0000000E+04;  0.0000000E+00;  9.9998916E+03;-0.097871542;0.0;0.0034178419;61.362247
  1.9998369E-01;  9.9999998E-03; -8.0000192E-02;1350;-0.012411648;0.0;-0.00014579092;1000.1513;  4.0000001E-01;125.32977;3;-6.9322476;0.0;-0.10504065;0;-0.093434483;  1.0003120E+04;  0.0000000E+00; -1.9735373E-09;  1.0000000E+04;  0.0000000E+00;  9.9999082E+03;-0.0964894;0.0;0.0030549141;53.537025
  1.9998382E-01;  9.9999998E-03; -6.0000129E-02;1351;-0.012289421;0.0;-0.000102192;1000.1503;  4.0000001E-01;124.53967;3;-6.8687391;0.0;-0.077735901;0;-0.092621081;  1.0003084E+04;  0.0000000E+00; -4.9509769E-10;  1.0000000E+04;  0.0000000E+00;  9.9999219E+03;-0.095346577;0.0;0.0027254936;46.797787
  1.9998394E-01;  9.9999998E-03; -4.0000077E-02;1352;-0.012196297;0.0;-6.476471e-05;1000.1495;  4.0000001E-01;123.84833;3;-6.8195143;0.0;-0.051381223;0;-0.09203212;  1.0003056E+04;  0.0000000E+00; -5.4707461E-11;  1.0000000E+04;  0.0000000E+00;  9.9999326E+03;-0.094495878;0.0;0.0024637592;41.630352
  1.9998400E-01;  9.9999998E-03; -2.0000037E-02;1353;-0.012138202;0.0;-3.1350828e-05;1000.149;  4.0000001E-01;123.45328;3;-6.7884922;0.0;-0.025561113;0;-0.09167628;  1.0003038E+04;  0.0000000E+00;  5.7240209E-11;  1.0000000E+04;  0.0000000E+00;  9.9999414E+03;-0.09397237;0.0;0.002296089;38.390903
  2.1997960E-01;  9.9999998E-03; -1.8000098E-01;1376;-0.015247645;0.0;-0.00065914157;1000.1843;  4.0000001E-01;152.68701;3;-8.218462;0.0;-0.35075763;0;-0.11236013;  1.0003947E+04;  0.0000000E+00; -2.2802736E-04;  1.0000000E+04;  0.0000000E+00;  9.9997402E+03;-0.11945098;0.0;0.0070908456;135.65082
  2.1997967E-01;  9.9999998E-03; -1.6000080E-01;1377;-0.015185113;0.0;-0.00056276063;1000.1832;  4.0000001E-01;151.79816;3;-8.2107382;0.0;-0.32295635;0;-0.11128589;  1.0003891E+04;  0.0000000E+00; -1.6359257E-06;  1.0000000E+04;  0.0000000E+00;  9.9997734E+03;-0.11753234;0.0;0.0062464555;118.20405
  2.1997985E-01;  9.9999998E-03; -1.4000064E-01;1378;-0.015045427;0.0;-0.0004688279;1000.1816;  4.0000001E-01;150.41548;3;-8.1603241;0.0;-0.28929919;0;-0.10993917;  1.0003828E+04;  0.0000000E+00;  1.0468596E-08;  1.0000000E+04;  0.0000000E+00;  9.9998086E+03;-0.11554942;0.0;0.0056102588;103.52093
  2.1998006E-01;  9.9999998E-03; -1.2000050E-01;1379;-0.01486758;0.0;-0.0003781651;1000.1796;  4.0000001E-01;148.83528;3;-8.0844135;0.0;-0.24919499;0;-0.10848131;  1.0003763E+04;  0.0000000E+00; -3.4454267E-10;  1.0000000E+04;  0.0000000E+00;  9.9998311E+03;-0.11357936;0.0;0.0050980495;90.876083
  2.1998030E-01;  9.9999998E-03; -1.0000037E-01;1380;-0.014680055;0.0;-0.00029464404;1000.1778;  4.0000001E-01;147.25507;3;-7.9981756;0.0;-0.20693922;0;-0.10712073;  1.0003703E+04;  0.0000000E+00; -4.3149933E-09;  1.0000000E+04;  0.0000000E+00;  9.9998564E+03;-0.11173602;0.0;0.0046152915;79.25808
  2.1998051E-01;  9.9999998E-03; -8.0000266E-02;1381;-0.014503861;0.0;-0.00022112334;1000.1763;  4.0000001E-01;146.06992;3;-7.9135671;0.0;-0.16445468;0;-0.10596082;  1.0003649E+04;  0.0000000E+00; -2.2098052E-09;  1.0000000E+04;  0.0000000E+00;  9.9998789E+03;-0.11011223;0.0;0.0041514044;68.720871
  2.1998070E-01;  9.9999998E-03; -6.0000177E-02;1382;-0.014354013;0.0;-0.0001568817;1000.1751;  4.0000001E-01;145.08229;3;-7.8395209;0.0;-0.12274418;0;-0.10504372;  1.0003607E+04;  0.0000000E+00; -4.6376475E-10;  1.0000000E+04;  0.0000000E+00;  9.9998984E+03;-0.10878018;0.0;0.0037364671;59.772926
  2.1998084E-01;  9.9999998E-03; -4.0000111E-02;1383;-0.014240596;0.0;-0.00010022413;1000.1743;  4.0000001E-01;144.39096;3;-7.7824774;0.0;-0.08141014;0;-0.10438462;  1.0003573E+04;  0.0000000E+00; -1.7164531E-10;  1.0000000E+04;  0.0000000E+00;  9.9999102E+03;-0.10779315;0.0;0.0034085382;52.961201
  2.1998093E-01;  9.9999998E-03; -2.0000054E-02;1384;-0.0141701;0.0;-4.8821697e-05;1000.1737;  4.0000001E-01;143.89714;3;-7.7466087;0.0;-0.040466882;0;-0.1039884;  1.0003556E+04;  0.0000000E+00;  2.0965590E-10;  1.0000000E+04;  0.0000000E+00;  9.9999209E+03;-0.10718719;0.0;0.003198789;48.706169
  2.3997554E-01;  9.9999998E-03; -1.8000133E-01;1407;-0.017860746;0.0;-0.00093625818;1000.2142;  4.0000001E-01;177.47644;3;-9.3689766;0.0;-0.51594281;0;-0.12693977;  1.0004653E+04;  0.0000000E+00; -1.6537911E-04;  1.0000000E+04;  0.0000000E+00;  9.9996299E+03;-0.1368753;0.0;0.0099355299;186.60619
  2.3997568E-01;  9.9999998E-03; -1.6000110E-01;1408;-0.017749803;0.0;-0.00080403558;1000.213;  4.0000001E-01;176.48882;3;-9.3469849;0.0;-0.47632757;0;-0.12576206;  1.0004573E+04;  0.0000000E+00; -4.5322892E-07;  1.0000000E+04;  0.0000000E+00;  9.9996924E+03;-0.13439631;0.0;0.0086342599;159.58569
  2.3997593E-01;  9.9999998E-03; -1.4000088E-01;1409;-0.017561128;0.0;-0.00067178434;1000.2112;  4.0000001E-01;175.00737;3;-9.2826109;0.0;-0.42624071;0;-0.12428607;  1.0004491E+04;  0.0000000E+00;  9.5646246E-09;  1.0000000E+04;  0.0000000E+00;  9.9997373E+03;-0.13194083;0.0;0.0076547544;137.33394
  2.3997623E-01;  9.9999998E-03; -1.2000068E-01;1410;-0.017335204;0.0;-0.00054520922;1000.209;  4.0000001E-01;173.22964;3;-9.1923761;0.0;-0.36845866;0;-0.12268738;  1.0004407E+04;  0.0000000E+00; -1.7209165E-09;  1.0000000E+04;  0.0000000E+00;  9.9997764E+03;-0.1295801;0.0;0.0068927174;118.82423
  2.3997653E-01;  9.9999998E-03; -1.0000050E-01;1411;-0.017103039;0.0;-0.00042804793;1000.207;  4.0000001E-01;171.55067;3;-9.091898;0.0;-0.30819049;0;-0.12119637;  1.0004333E+04;  0.0000000E+00; -5.2867666E-09;  1.0000000E+04;  0.0000000E+00;  9.9998105E+03;-0.12741266;0.0;0.0062162876;102.48163
  2.3997679E-01;  9.9999998E-03; -8.0000363E-02;1412;-0.016887926;0.0;-0.00032296215;1000.2054;  4.0000001E-01;170.168;3;-8.9944296;0.0;-0.24583839;0;-0.11993011;  1.0004268E+04;  0.0000000E+00; -1.8009934E-09;  1.0000000E+04;  0.0000000E+00;  9.9998398E+03;-0.12552424;0.0;0.0055941236;88.081245
  2.3997703E-01;  9.9999998E-03; -6.0000245E-02;1413;-0.016706398;0.0;-0.00023055747;1000.204;  4.0000001E-01;168.98285;3;-8.9096518;0.0;-0.18355455;0;-0.11893424;  1.0004213E+04;  0.0000000E+00;  5.3281551E-10;  1.0000000E+04;  0.0000000E+00;  9.9998652E+03;-0.12398507;0.0;0.0050508287;76.068291
  2.3997720E-01;  9.9999998E-03; -4.0000152E-02;1414;-0.016569698;0.0;-0.00014827609;1000.203;  4.0000001E-01;168.19275;3;-8.8444538;0.0;-0.12268915;0;-0.11822227;  1.0004177E+04;  0.0000000E+00;  9.0810193E-10;  1.0000000E+04;  0.0000000E+00;  9.9998838E+03;-0.12284891;0.0;0.0046266415;67.018173
  2.3997730E-01;  9.9999998E-03; -2.0000072E-02;1415;-0.016485043;0.0;-7.2434304e-05;1000.2023;  4.0000001E-01;167.60017;3;-8.8036737;0.0;-0.061474591;0;-0.11779597;  1.0004150E+04;  0.0000000E+00;  5.8475275E-10;  1.0000000E+04;  0.0000000E+00;  9.9998955E+03;-0.12215282;0.0;0.0043568444;61.396755
  2.5997075E-01;  9.9999998E-03; -1.8000183E-01;1438;-0.020841541;0.0;-0.0013107322;1000.2484;  4.0000001E-01;205.72253;3;-10.628244;0.0;-0.7385093;0;-0.14273973;  1.0005467E+04;  0.0000000E+00; -6.7630761E-05;  1.0000000E+04;  0.0000000E+00;  9.9994980E+03;-0.15629669;0.0;0.013556958;251.74707
  2.5997099E-01;  9.9999998E-03; -1.6000147E-01;1439;-0.020672187;0.0;-0.00111778;1000.2471;  4.0000001E-01;204.73491;3;-10.591484;0.0;-0.67460483;0;-0.14155903;  1.0005362E+04;  0.0000000E+00;  2.9395588E-09;  1.0000000E+04;  0.0000000E+00;  9.9995811E+03;-0.15327939;0.0;0.011720366;212.84796
  2.5997132E-01;  9.9999998E-03; -1.4000118E-01;1440;-0.020425379;0.0;-0.00093391322;1000.2452;  4.0000001E-01;203.15471;3;-10.512785;0.0;-0.60257781;0;-0.14003588;  1.0005258E+04;  0.0000000E+00;  3.9327031E-09;  1.0000000E+04;  0.0000000E+00;  9.9996475E+03;-0.15034147;0.0;0.010305579;180.74004
  2.5997171E-01;  9.9999998E-03; -1.2000090E-01;1441;-0.020144358;0.0;-0.00075787632;1000.243;  4.0000001E-01;201.37697;3;-10.408574;0.0;-0.52147818;0;-0.13836712;  1.0005157E+04;  0.0000000E+00; -3.4802219E-09;  1.0000000E+04;  0.0000000E+00;  9.9997051E+03;-0.14756873;0.0;0.0092016179;154.31348
  2.5997210E-01;  9.9999998E-03; -1.0000067E-01;1442;-0.01986108;0.0;-0.00059741718;1000.2407;  4.0000001E-01;199.40172;3;-10.294511;0.0;-0.43706375;0;-0.1368016;  1.0005066E+04;  0.0000000E+00; -3.9187000E-09;  1.0000000E+04;  0.0000000E+00;  9.9997520E+03;-0.14505224;0.0;0.0082506463;131.5442
  2.5997245E-01;  9.9999998E-03; -8.0000482E-02;1443;-0.019601623;0.0;-0.00045236788;1000.2387;  4.0000001E-01;197.72276;3;-10.18428;0.0;-0.35080793;0;-0.13547128;  1.0004985E+04;  0.0000000E+00;  2.7474809E-10;  1.0000000E+04;  0.0000000E+00;  9.9997930E+03;-0.14287584;0.0;0.0074045463;111.94449
  2.5997275E-01;  9.9999998E-03; -6.0000326E-02;1444;-0.019384168;0.0;-0.00032347694;1000.2372;  4.0000001E-01;196.53761;3;-10.088816;0.0;-0.26169947;0;-0.13442762;  1.0004923E+04;  0.0000000E+00;  1.8917905E-09;  1.0000000E+04;  0.0000000E+00;  9.9998262E+03;-0.14111026;0.0;0.0066826409;95.871147
  2.5997296E-01;  9.9999998E-03; -4.0000200E-02;1445;-0.019221142;0.0;-0.0002082038;1000.2361;  4.0000001E-01;195.64874;3;-10.015863;0.0;-0.17387606;0;-0.13368408;  1.0004874E+04;  0.0000000E+00;  1.2878960E-09;  1.0000000E+04;  0.0000000E+00;  9.9998496E+03;-0.13981071;0.0;0.0061266306;83.89637
  2.5997308E-01;  9.9999998E-03; -2.0000096E-02;1446;-0.019120429;0.0;-0.00010190174;1000.2355;  4.0000001E-01;195.05617;3;-9.9701996;0.0;-0.086443841;0;-0.13324042;  1.0004845E+04;  0.0000000E+00;  8.3264529E-10;  1.0000000E+04;  0.0000000E+00;  9.9998672E+03;-0.13901594;0.0;0.0057755266;76.506615
  2.7996513E-01;  9.9999998E-03; -1.8000244E-01;1469;-0.024236498;0.0;-0.001787332;1000.287;  4.0000001E-01;237.72162;3;-12.002888;0.0;-1.0194086;0;-0.15998802;  1.0006406E+04;  0.0000000E+00; -8.8576717E-06;  1.0000000E+04;  0.0000000E+00;  9.9993350E+03;-0.17780122;0.0;0.017813213;330.1474
  2.7996549E-01;  9.9999998E-03; -1.6000195E-01;1470;-0.02399708;0.0;-0.0015085076;1000.2861;  4.0000001E-01;237.03027;3;-11.951753;0.0;-0.91990113;0;-0.15885668;  1.0006273E+04;  0.0000000E+00; -5.9959460E-09;  1.0000000E+04;  0.0000000E+00;  9.9994473E+03;-0.17429411;0.0;0.015437439;277.81635
  2.7996597E-01;  9.9999998E-03; -1.4000154E-01;1471;-0.023681516;0.0;-0.0012567603;1000.2841;  4.0000001E-01;235.35132;3;-11.85919;0.0;-0.82078654;0;-0.1573495;  1.0006143E+04;  0.0000000E+00; -1.3795308E-09;  1.0000000E+04;  0.0000000E+00;  9.9995400E+03;-0.17088912;0.0;0.013539626;233.916
  2.7996644E-01;  9.9999998E-03; -1.2000117E-01;1472;-0.023336485;0.0;-0.00101614;1000.2817;  4.0000001E-01;233.37607;3;-11.74139;0.0;-0.70925206;0;-0.15567157;  1.0006018E+04;  0.0000000E+00; -1.6477054E-09;  1.0000000E+04;  0.0000000E+00;  9.9996143E+03;-0.16769405;0.0;0.012022482;197.61397
  2.7996695E-01;  9.9999998E-03; -1.0000087E-01;1473;-0.022995166;0.0;-0.00080032629;1000.2792;  4.0000001E-01;231.30205;3;-11.614302;0.0;-0.59204453;0;-0.1540854;  1.0005903E+04;  0.0000000E+00;  6.2434996E-10;  1.0000000E+04;  0.0000000E+00;  9.9996826E+03;-0.16480714;0.0;0.010721738;166.67374
  2.7996737E-01;  9.9999998E-03; -8.0000617E-02;1474;-0.022685632;0.0;-0.00060819229;1000.2768;  4.0000001E-01;229.3268;3;-11.492958;0.0;-0.47590604;0;-0.15273471;  1.0005809E+04;  0.0000000E+00;  3.6059720E-09;  1.0000000E+04;  0.0000000E+00;  9.9997344E+03;-0.16231896;0.0;0.0095842453;140.45689
  2.7996773E-01;  9.9999998E-03; -6.0000420E-02;1475;-0.02242782;0.0;-0.00043610318;1000.2753;  4.0000001E-01;228.04288;3;-11.387713;0.0;-0.3592155;0;-0.15167664;  1.0005729E+04;  0.0000000E+00;  4.9443036E-09;  1.0000000E+04;  0.0000000E+00;  9.9997803E+03;-0.16030595;0.0;0.0086293044;119.25481
  2.7996799E-01;  9.9999998E-03; -4.0000260E-02;1476;-0.022235259;0.0;-0.00028055639;1000.274;  4.0000001E-01;227.05525;3;-11.307496;0.0;-0.23888519;0;-0.15092556;  1.0005672E+04;  0.0000000E+00;  4.2155586E-09;  1.0000000E+04;  0.0000000E+00;  9.9998135E+03;-0.1588275;0.0;0.0079019433;103.61858
  2.7996817E-01;  9.9999998E-03; -2.0000122E-02;1477;-0.022116482;0.0;-0.0001372431;1000.2733;  4.0000001E-01;226.46268;3;-11.25714;0.0;-0.11967729;0;-0.15047869;  1.0005637E+04;  0.0000000E+00;  2.5351690E-09;  1.0000000E+04;  0.0000000E+00;  9.9998330E+03;-0.15792431;0.0;0.0074456125;94.031113
  2.9995856E-01;  9.9999998E-03; -1.8000317E-01;1500;-0.028092967;0.0;-0.0023525159;1000.3314;  4.0000001E-01;274.56003;3;-13.498376;0.0;-1.3487054;0;-0.17896561;  1.0007480E+04;  0.0000000E+00;  7.7729851E-08;  1.0000000E+04;  0.0000000E+00;  9.9991475E+03;-0.20149183;0.0;0.022526221;420.35785
  2.9995906E-01;  9.9999998E-03; -1.6000250E-01;1501;-0.027770806;0.0;-0.0019704672;1000.3302;  4.0000001E-01;273.57242;3;-13.433557;0.0;-1.2092443;0;-0.17789301;  1.0007320E+04;  0.0000000E+00; -1.9612997E-08;  1.0000000E+04;  0.0000000E+00;  9.9992910E+03;-0.19756788;0.0;0.019674866;353.69345
  2.9995969E-01;  9.9999998E-03; -1.4000195E-01;1502;-0.027375614;0.0;-0.0016313787;1000.3284;  4.0000001E-01;272.09097;3;-13.329312;0.0;-1.068723;0;-0.17643046;  1.0007159E+04;  0.0000000E+00;  5.0218119E-09;  1.0000000E+04;  0.0000000E+00;  9.9994102E+03;-0.19372548;0.0;0.017295012;296.50214
  2.9996032E-01;  9.9999998E-03; -1.2000148E-01;1503;-0.026956353;0.0;-0.0013169588;1000.3259;  4.0000001E-01;270.01697;3;-13.198193;0.0;-0.92857718;0;-0.17478226;  1.0007009E+04;  0.0000000E+00;  4.5396189E-09;  1.0000000E+04;  0.0000000E+00;  9.9995117E+03;-0.19010445;0.0;0.015322189;248.60324
  2.9996094E-01;  9.9999998E-03; -1.0000109E-01;1504;-0.026549043;0.0;-0.0010348676;1000.3234;  4.0000001E-01;267.94293;3;-13.060182;0.0;-0.77840531;0;-0.17321718;  1.0006870E+04;  0.0000000E+00;  1.0444053E-08;  1.0000000E+04;  0.0000000E+00;  9.9995977E+03;-0.18682724;0.0;0.013610065;207.85539
  2.9996148E-01;  9.9999998E-03; -8.0000773E-02;1505;-0.026183169;0.0;-0.0007853533;1000.321;  4.0000001E-01;265.96768;3;-12.928265;0.0;-0.62292606;0;-0.17188498;  1.0006753E+04;  0.0000000E+00;  1.4357356E-08;  1.0000000E+04;  0.0000000E+00;  9.9996699E+03;-0.18400256;0.0;0.01211758;173.64583
  2.9996192E-01;  9.9999998E-03; -6.0000524E-02;1506;-0.025880229;0.0;-0.00056412374;1000.319;  4.0000001E-01;264.28873;3;-12.815165;0.0;-0.47102001;0;-0.17084457;  1.0006656E+04;  0.0000000E+00;  1.3918799E-08;  1.0000000E+04;  0.0000000E+00;  9.9997275E+03;-0.1817188;0.0;0.01087422;146.26472
  2.9996225E-01;  9.9999998E-03; -4.0000323E-02;1507;-0.025654903;0.0;-0.00036372908;1000.3176;  4.0000001E-01;263.10358;3;-12.728936;0.0;-0.31570834;0;-0.170109;  1.0006585E+04;  0.0000000E+00;  7.1683095E-09;  1.0000000E+04;  0.0000000E+00;  9.9997676E+03;-0.18004267;0.0;0.0099336654;126.24292
  2.9996243E-01;  9.9999998E-03; -2.0000152E-02;1508;-0.025516281;0.0;-0.00017825018;1000.3169;  4.0000001E-01;262.51099;3;-12.675626;0.0;-0.15915605;0;-0.16967307;  1.0006546E+04;  0.0000000E+00;  2.4612308E-09;  1.0000000E+04;  0.0000000E+00;  9.9997939E+03;-0.17901944;0.0;0.0093463697;114.03789
  3.1995085E-01;  9.9999998E-03; -1.8000399E-01;1531;-0.032459382;0.0;-0.0029825976;1000.3822;  4.0000001E-01;316.6329;3;-15.117578;0.0;-1.6969128;0;-0.19996241;  1.0008706E+04;  0.0000000E+00;  6.6529671E-09;  1.0000000E+04;  0.0000000E+00;  9.9989434E+03;-0.22752137;0.0;0.027558966;521.28339
  3.1995156E-01;  9.9999998E-03; -1.6000314E-01;1532;-0.032041658;0.0;-0.0024891363;1000.3812;  4.0000001E-01;315.8428;3;-15.040016;0.0;-1.5231011;0;-0.19892582;  1.0008517E+04;  0.0000000E+00; -2.2454531E-08;  1.0000000E+04;  0.0000000E+00;  9.9991133E+03;-0.22325434;0.0;0.024328513;439.57993
  3.1995237E-01;  9.9999998E-03; -1.4000243E-01;1533;-0.031555757;0.0;-0.0020515332;1000.3792;  4.0000001E-01;314.16385;3;-14.925302;0.0;-1.3460447;0;-0.1974996;  1.0008323E+04;  0.0000000E+00;  1.3802305E-08;  1.0000000E+04;  0.0000000E+00;  9.9992646E+03;-0.21900009;0.0;0.021500483;367.89258
  3.1995317E-01;  9.9999998E-03; -1.2000182E-01;1534;-0.031052569;0.0;-0.0016547047;1000.3764;  4.0000001E-01;311.8923;3;-14.784841;0.0;-1.1723139;0;-0.19589251;  1.0008139E+04;  0.0000000E+00;  2.2914195E-08;  1.0000000E+04;  0.0000000E+00;  9.9993936E+03;-0.21494626;0.0;0.019053746;306.94519
  3.1995392E-01;  9.9999998E-03; -1.0000134E-01;1535;-0.030571243;0.0;-0.0012980871;1000.3735;  4.0000001E-01;309.42322;3;-14.639277;0.0;-0.98595303;0;-0.19437282;  1.0007972E+04;  0.0000000E+00;  3.0608064E-08;  1.0000000E+04;  0.0000000E+00;  9.9995020E+03;-0.211256;0.0;0.01688318;254.9754
  3.1995460E-01;  9.9999998E-03; -8.0000944E-02;1536;-0.030142438;0.0;-0.00098290981;1000.371;  4.0000001E-01;307.34921;3;-14.501092;0.0;-0.79257357;0;-0.19308698;  1.0007829E+04;  0.0000000E+00;  3.0101944E-08;  1.0000000E+04;  0.0000000E+00;  9.9995928E+03;-0.20806597;0.0;0.014978989;211.57217
  3.1995514E-01;  9.9999998E-03; -6.0000636E-02;1537;-0.02978914;0.0;-0.00070424908;1000.3688;  4.0000001E-01;305.5715;3;-14.382801;0.0;-0.59469414;0;-0.19208972;  1.0007716E+04;  0.0000000E+00;  2.3292026E-08;  1.0000000E+04;  0.0000000E+00;  9.9996660E+03;-0.20548347;0.0;0.013393738;177.09622
  3.1995556E-01;  9.9999998E-03; -4.0000390E-02;1538;-0.02952718;0.0;-0.00045416169;1000.3673;  4.0000001E-01;304.28757;3;-14.29203;0.0;-0.40047857;0;-0.19138929;  1.0007634E+04;  0.0000000E+00;  1.3786498E-08;  1.0000000E+04;  0.0000000E+00;  9.9997168E+03;-0.2035871;0.0;0.012197802;152.06375
  3.1995580E-01;  9.9999998E-03; -2.0000184E-02;1539;-0.029366588;0.0;-0.0002224799;1000.3665;  4.0000001E-01;303.69501;3;-14.236245;0.0;-0.19932202;0;-0.19097601;  1.0007584E+04;  0.0000000E+00;  5.0665738E-09;  1.0000000E+04;  0.0000000E+00;  9.9997500E+03;-0.20242895;0.0;0.011452945;136.88383
  3.3994186E-01;  9.9999998E-03; -1.8000491E-01;1562;-0.037385523;0.0;-0.0036687369;1000.4409;  4.0000001E-01;365.22406;3;-16.857773;0.0;-2.0586236;0;-0.22325318;  1.0010106E+04;  0.0000000E+00; -3.5961374E-08;  1.0000000E+04;  0.0000000E+00;  9.9987129E+03;-0.2561034;0.0;0.032850225;632.4585
  3.3994281E-01;  9.9999998E-03; -1.6000383E-01;1563;-0.036862563;0.0;-0.0030582605;1000.4398;  4.0000001E-01;364.33521;3;-16.772667;0.0;-1.8576046;0;-0.22219445;  1.0009882E+04;  0.0000000E+00;  1.8069412E-09;  1.0000000E+04;  0.0000000E+00;  9.9989199E+03;-0.25153014;0.0;0.029335691;534.82501
  3.3994383E-01;  9.9999998E-03; -1.4000294E-01;1564;-0.036274988;0.0;-0.0025126482;1000.4374;  4.0000001E-01;362.35995;3;-16.651747;0.0;-1.6507839;0;-0.22076504;  1.0009650E+04;  0.0000000E+00;  3.2410462E-08;  1.0000000E+04;  0.0000000E+00;  9.9991016E+03;-0.24686648;0.0;0.026101442;447.51898
  3.3994484E-01;  9.9999998E-03; -1.2000220E-01;1565;-0.035678349;0.0;-0.0020223849;1000.4344;  4.0000001E-01;359.8909;3;-16.507612;0.0;-1.4375751;0;-0.2191852;  1.0009430E+04;  0.0000000E+00;  4.6927614E-08;  1.0000000E+04;  0.0000000E+00;  9.9992598E+03;-0.24236013;0.0;0.023174927;372.33936
  3.3994579E-01;  9.9999998E-03; -1.0000160E-01;1566;-0.035114624;0.0;-0.0015827102;1000.431;  4.0000001E-01;357.02676;3;-16.359571;0.0;-1.2120978;0;-0.2177147;  1.0009229E+04;  0.0000000E+00;  5.6573271E-08;  1.0000000E+04;  0.0000000E+00;  9.9993945E+03;-0.23822425;0.0;0.020509554;308.06573
  3.3994663E-01;  9.9999998E-03; -8.0001123E-02;1567;-0.034615714;0.0;-0.0011951192;1000.4283;  4.0000001E-01;354.854;3;-16.220102;0.0;-0.97782075;0;-0.21648757;  1.0009058E+04;  0.0000000E+00;  5.0579857E-08;  1.0000000E+04;  0.0000000E+00;  9.9995078E+03;-0.23463207;0.0;0.018144507;254.59372
  3.3994728E-01;  9.9999998E-03; -6.0000751E-02;1568;-0.034206424;0.0;-0.00085306383;1000.4258;  4.0000001E-01;352.78;3;-16.099718;0.0;-0.73165059;0;-0.21554714;  1.0008920E+04;  0.0000000E+00;  3.6746606E-08;  1.0000000E+04;  0.0000000E+00;  9.9995938E+03;-0.2317158;0.0;0.016168652;212.38734
  3.3994779E-01;  9.9999998E-03; -4.0000457E-02;1569;-0.033903673;0.0;-0.00054887793;1000.4239;  4.0000001E-01;351.1998;3;-16.008205;0.0;-0.49169698;0;-0.21489248;  1.0008818E+04;  0.0000000E+00;  1.8752379E-08;  1.0000000E+04;  0.0000000E+00;  9.9996582E+03;-0.22957018;0.0;0.014677704;181.93263
  3.3994809E-01;  9.9999998E-03; -2.0000216E-02;1570;-0.033718385;0.0;-0.00026812661;1000.4229;  4.0000001E-01;350.4097;3;-15.951618;0.0;-0.24454494;0;-0.21450868;  1.0008759E+04;  0.0000000E+00;  6.9030968E-09;  1.0000000E+04;  0.0000000E+00;  9.9997002E+03;-0.22825852;0.0;0.013749832;163.55377
  3.5993144E-01;  9.9999998E-03; -1.8000589E-01;1593;-0.042924482;0.0;-0.0043995692;1000.5084;  4.0000001E-01;421.12363;3;-18.718647;0.0;-2.4374285;0;-0.24905799;  1.0011708E+04;  0.0000000E+00; -4.6824447E-08;  1.0000000E+04;  0.0000000E+00;  9.9984648E+03;-0.28747186;0.0;0.038413871;753.96863
  3.5993263E-01;  9.9999998E-03; -1.6000459E-01;1594;-0.042289101;0.0;-0.0036675448;1000.5068;  4.0000001E-01;419.83972;3;-18.634415;0.0;-2.2166402;0;-0.24789591;  1.0011436E+04;  0.0000000E+00;  4.4486193E-08;  1.0000000E+04;  0.0000000E+00;  9.9987061E+03;-0.28257585;0.0;0.034679938;639.05499
  3.5993394E-01;  9.9999998E-03; -1.4000349E-01;1595;-0.041590229;0.0;-0.0030049831;1000.5039;  4.0000001E-01;417.46942;3;-18.515491;0.0;-1.9762981;0;-0.24640264;  1.0011156E+04;  0.0000000E+00;  5.4648158E-08;  1.0000000E+04;  0.0000000E+00;  9.9989219E+03;-0.27747282;0.0;0.031070193;535.03424
  3.5993519E-01;  9.9999998E-03; -1.2000259E-01;1596;-0.040889658;0.0;-0.0024091692;1000.5001;  4.0000001E-01;414.30902;3;-18.373028;0.0;-1.7211469;0;-0.24481206;  1.0010893E+04;  0.0000000E+00;  5.2131913E-08;  1.0000000E+04;  0.0000000E+00;  9.9991123E+03;-0.27247295;0.0;0.027660895;444.80722
  3.5993639E-01;  9.9999998E-03; -1.0000187E-01;1597;-0.040234994;0.0;-0.0018801305;1000.4962;  4.0000001E-01;411.04987;3;-18.229029;0.0;-1.4504565;0;-0.24337077;  1.0010652E+04;  0.0000000E+00;  6.5857570E-08;  1.0000000E+04;  0.0000000E+00;  9.9992734E+03;-0.2678439;0.0;0.024473127;367.66037
  3.5993737E-01;  9.9999998E-03; -8.0001310E-02;1598;-0.039658856;0.0;-0.0014166477;1000.4928;  4.0000001E-01;408.28452;3;-18.093649;0.0;-1.1702286;0;-0.24219257;  1.0010449E+04;  0.0000000E+00;  6.3566482E-08;  1.0000000E+04;  0.0000000E+00;  9.9994082E+03;-0.26380053;0.0;0.021607963;303.76825
  3.5993820E-01;  9.9999998E-03; -6.0000874E-02;1599;-0.039187104;0.0;-0.0010072991;1000.4899;  4.0000001E-01;405.81543;3;-17.977108;0.0;-0.87589866;0;-0.24130328;  1.0010285E+04;  0.0000000E+00;  4.7077606E-08;  1.0000000E+04;  0.0000000E+00;  9.9995146E+03;-0.26050514;0.0;0.019201865;253.65643
  3.5993880E-01;  9.9999998E-03; -4.0000532E-02;1600;-0.038838722;0.0;-0.0006452708;1000.4879;  4.0000001E-01;404.13647;3;-17.888374;0.0;-0.58460921;0;-0.24069038;  1.0010167E+04;  0.0000000E+00;  2.1125295E-08;  1.0000000E+04;  0.0000000E+00;  9.9995928E+03;-0.25807381;0.0;0.017383423;217.72108
  3.5993916E-01;  9.9999998E-03; -2.0000251E-02;1601;-0.038625512;0.0;-0.00031442652;1000.4866;  4.0000001E-01;403.14883;3;-17.832512;0.0;-0.29174715;0;-0.2403335;  1.0010095E+04;  0.0000000E+00;  7.2255397E-09;  1.0000000E+04;  0.0000000E+00;  9.9996377E+03;-0.25658509;0.0;0.016251592;196.13954
  3.7991932E-01;  9.9999998E-03; -1.8000697E-01;1624;-0.049132459;0.0;-0.0051704124;1000.5859;  4.0000001E-01;485.418;3;-20.695599;0.0;-2.81795;0;-0.27754009;  1.0013522E+04;  0.0000000E+00; -4.3417572E-08;  1.0000000E+04;  0.0000000E+00;  9.9981992E+03;-0.3218399;0.0;0.044299796;885.91333
  3.7992087E-01;  9.9999998E-03; -1.6000539E-01;1625;-0.048377849;0.0;-0.0043072714;1000.5834;  4.0000001E-01;483.34399;3;-20.620697;0.0;-2.5723822;0;-0.27618119;  1.0013195E+04;  0.0000000E+00;  8.6421593E-08;  1.0000000E+04;  0.0000000E+00;  9.9984785E+03;-0.31655243;0.0;0.040371228;752.0119
  3.7992248E-01;  9.9999998E-03; -1.4000410E-01;1626;-0.047559328;0.0;-0.0035206696;1000.5796;  4.0000001E-01;480.18359;3;-20.514591;0.0;-2.3008382;0;-0.27454334;  1.0012864E+04;  0.0000000E+00;  3.2034063E-08;  1.0000000E+04;  0.0000000E+00;  9.9987305E+03;-0.31094512;0.0;0.036401782;630.45673
  3.7992406E-01;  9.9999998E-03; -1.2000303E-01;1627;-0.046744943;0.0;-0.0028110428;1000.5746;  4.0000001E-01;476.03555;3;-20.385502;0.0;-2.0072222;0;-0.27287635;  1.0012547E+04;  0.0000000E+00;  1.0322076E-08;  1.0000000E+04;  0.0000000E+00;  9.9989512E+03;-0.30538771;0.0;0.032511361;525.05219
  3.7992549E-01;  9.9999998E-03; -1.0000218E-01;1628;-0.04598904;0.0;-0.0021841973;1000.5699;  4.0000001E-01;472.18381;3;-20.253506;0.0;-1.6883454;0;-0.27141199;  1.0012261E+04;  0.0000000E+00;  2.5547445E-08;  1.0000000E+04;  0.0000000E+00;  9.9991396E+03;-0.30020046;0.0;0.028788477;435.28809
  3.7992671E-01;  9.9999998E-03; -8.0001526E-02;1629;-0.04532684;0.0;-0.0016402312;1000.5656;  4.0000001E-01;468.5296;3;-20.129677;0.0;-1.3601986;0;-0.2702412;  1.0012019E+04;  0.0000000E+00;  4.6145662E-08;  1.0000000E+04;  0.0000000E+00;  9.9992959E+03;-0.29564315;0.0;0.025401937;361.41837
  3.7992769E-01;  9.9999998E-03; -6.0001019E-02;1630;-0.044786077;0.0;-0.0011645394;1000.562;  4.0000001E-01;465.56674;3;-20.023808;0.0;-1.0211737;0;-0.26936913;  1.0011828E+04;  0.0000000E+00;  3.4352375E-08;  1.0000000E+04;  0.0000000E+00;  9.9994150E+03;-0.29191229;0.0;0.022543162;303.89929
  3.7992844E-01;  9.9999998E-03; -4.0000618E-02;1631;-0.044386175;0.0;-0.00074292708;1000.5594;  4.0000001E-01;463.39395;3;-19.941612;0.0;-0.67756534;0;-0.26877227;  1.0011687E+04;  0.0000000E+00;  1.8854966E-08;  1.0000000E+04;  0.0000000E+00;  9.9995039E+03;-0.28915113;0.0;0.020378862;262.93002
  3.7992886E-01;  9.9999998E-03; -2.0000292E-02;1632;-0.044141296;0.0;-0.00036151393;1000.5577;  4.0000001E-01;462.11005;3;-19.888695;0.0;-0.33994442;0;-0.26842508;  1.0011600E+04;  0.0000000E+00;  6.8351547E-09;  1.0000000E+04;  0.0000000E+00;  9.9995547E+03;-0.28745627;0.0;0.019031206;238.45261
  3.9990532E-01;  9.9999998E-03; -1.8000814E-01;1655;-0.0560688;0.0;-0.0059881634;1000.6746;  4.0000001E-01;558.89722;3;-22.785467;0.0;-3.1967044;0;-0.30882052;  1.0015581E+04;  0.0000000E+00; -3.9387963E-08;  1.0000000E+04;  0.0000000E+00;  9.9979141E+03;-0.35936269;0.0;0.050542165;1027.8575
  3.9990726E-01;  9.9999998E-03; -1.6000630E-01;1656;-0.055188142;0.0;-0.0049826582;1000.6707;  4.0000001E-01;555.63806;3;-22.733759;0.0;-2.926127;0;-0.30715472;  1.0015186E+04;  0.0000000E+00;  8.8391516E-08;  1.0000000E+04;  0.0000000E+00;  9.9982334E+03;-0.35357201;0.0;0.046417292;873.48395
  3.9990929E-01;  9.9999998E-03; -1.4000478E-01;1657;-0.054240249;0.0;-0.0040619555;1000.6652;  4.0000001E-01;551.09497;3;-22.653114;0.0;-2.6202729;0;-0.30526349;  1.0014791E+04;  0.0000000E+00; -8.1659429E-08;  1.0000000E+04;  0.0000000E+00;  9.9985195E+03;-0.34736809;0.0;0.042104591;734.46307
  3.9991120E-01;  9.9999998E-03; -1.2000354E-01;1658;-0.053301591;0.0;-0.0032317201;1000.6589;  4.0000001E-01;545.8606;3;-22.550398;0.0;-2.2850649;0;-0.30341357;  1.0014411E+04;  0.0000000E+00; -1.5591974E-07;  1.0000000E+04;  0.0000000E+00;  9.9987705E+03;-0.34116986;0.0;0.037756298;614.9873
  3.9991295E-01;  9.9999998E-03; -1.0000256E-01;1659;-0.052432291;0.0;-0.0025002242;1000.6525;  4.0000001E-01;540.62616;3;-22.439238;0.0;-1.9167049;0;-0.30182862;  1.0014072E+04;  0.0000000E+00; -1.0353653E-07;  1.0000000E+04;  0.0000000E+00;  9.9989805E+03;-0.33534664;0.0;0.03351802;514.13403
  3.9991444E-01;  9.9999998E-03; -8.0001801E-02;1660;-0.051673036;0.0;-0.0018700062;1000.647;  4.0000001E-01;536.08307;3;-22.335411;0.0;-1.5411854;0;-0.30057889;  1.0013788E+04;  0.0000000E+00; -3.5437409E-08;  1.0000000E+04;  0.0000000E+00;  9.9991543E+03;-0.33020216;0.0;0.029623285;431.85309
  3.9991564E-01;  9.9999998E-03; -6.0001206E-02;1661;-0.051054213;0.0;-0.0013253575;1000.6423;  4.0000001E-01;532.13257;3;-22.245752;0.0;-1.155286;0;-0.29965213;  1.0013560E+04;  0.0000000E+00; -8.2190539E-09;  1.0000000E+04;  0.0000000E+00;  9.9992900E+03;-0.3259722;0.0;0.026320066;368.31842
  3.9991650E-01;  9.9999998E-03; -4.0000737E-02;1662;-0.050596032;0.0;-0.00084344554;1000.6389;  4.0000001E-01;529.36725;3;-22.17532;0.0;-0.76467466;0;-0.29901531;  1.0013398E+04;  0.0000000E+00; -3.6378720E-09;  1.0000000E+04;  0.0000000E+00;  9.9993867E+03;-0.3228305;0.0;0.023815189;323.4024
  3.9991704E-01;  9.9999998E-03; -2.0000350E-02;1663;-0.05031497;0.0;-0.00041015132;1000.637;  4.0000001E-01;527.78705;3;-22.128077;0.0;-0.38619795;0;-0.29864341;  1.0013298E+04;  0.0000000E+00;  1.8482629E-09;  1.0000000E+04;  0.0000000E+00;  9.9994434E+03;-0.32089826;0.0;0.022254854;296.71982
  4.1988921E-01;  9.9999998E-03; -1.8000948E-01;1686;-0.063795321;0.0;-0.0068649445;1000.7753;  4.0000001E-01;642.35138;3;-24.986385;0.0;-3.5742702;0;-0.34296909;  1.0017900E+04;  0.0000000E+00; -1.9728416E-08;  1.0000000E+04;  0.0000000E+00;  9.9976094E+03;-0.40008992;0.0;0.057120819;1178.7821
  4.1989166E-01;  9.9999998E-03; -1.6000737E-01;1687;-0.062778957;0.0;-0.0057044956;1000.7693;  4.0000001E-01;637.31451;3;-24.973196;0.0;-3.2690787;0;-0.34085292;  1.0017419E+04;  0.0000000E+00;  5.2782037E-09;  1.0000000E+04;  0.0000000E+00;  9.9979727E+03;-0.39365584;0.0;0.052802935;1003.6733
  4.1989413E-01;  9.9999998E-03; -1.4000562E-01;1688;-0.061689191;0.0;-0.0046409001;1000.7616;  4.0000001E-01;630.99371;3;-24.932266;0.0;-2.9230478;0;-0.33855096;  1.0016946E+04;  0.0000000E+00; -3.6734269E-07;  1.0000000E+04;  0.0000000E+00;  9.9982900E+03;-0.38674855;0.0;0.048197601;849.05585
  4.1989648E-01;  9.9999998E-03; -1.2000420E-01;1689;-0.060612429;0.0;-0.0036837065;1000.7529;  4.0000001E-01;623.78406;3;-24.86747;0.0;-2.5407748;0;-0.33635181;  1.0016500E+04;  0.0000000E+00; -4.7082466E-07;  1.0000000E+04;  0.0000000E+00;  9.9985625E+03;-0.37982014;0.0;0.043468341;718.56317
  4.1989863E-01;  9.9999998E-03; -1.0000307E-01;1690;-0.059616283;0.0;-0.0028418226;1000.7444;  4.0000001E-01;616.77191;3;-24.78956;0.0;-2.1234343;0;-0.3344861;  1.0016105E+04;  0.0000000E+00; -3.4343822E-07;  1.0000000E+04;  0.0000000E+00;  9.9987910E+03;-0.37328127;0.0;0.038795177;609.91022
  4.1990042E-01;  9.9999998E-03; -8.0002189E-02;1691;-0.05874721;0.0;-0.0021199747;1000.7371;  4.0000001E-01;610.64862;3;-24.715;0.0;-1.7012212;0;-0.33301386;  1.0015771E+04;  0.0000000E+00; -1.8849833E-07;  1.0000000E+04;  0.0000000E+00;  9.9989736E+03;-0.36747712;0.0;0.034463249;522.20587
  4.1990185E-01;  9.9999998E-03; -6.0001489E-02;1692;-0.058038678;0.0;-0.0014993293;1000.7311;  4.0000001E-01;605.71051;3;-24.647457;0.0;-1.2700398;0;-0.33191299;  1.0015509E+04;  0.0000000E+00; -9.7177129E-08;  1.0000000E+04;  0.0000000E+00;  9.9991172E+03;-0.36268511;0.0;0.030772118;455.09763
  4.1990289E-01;  9.9999998E-03; -4.0000923E-02;1693;-0.057513915;0.0;-0.00095370732;1000.7267;  4.0000001E-01;602.05627;3;-24.593946;0.0;-0.83770514;0;-0.33114687;  1.0015318E+04;  0.0000000E+00; -4.1308926E-08;  1.0000000E+04;  0.0000000E+00;  9.9992158E+03;-0.35911441;0.0;0.027967531;408.0304
  4.1990352E-01;  9.9999998E-03; -2.0000441E-02;1694;-0.057191264;0.0;-0.00046392041;1000.7238;  4.0000001E-01;599.68597;3;-24.554943;0.0;-0.42595714;0;-0.33069295;  1.0015207E+04;  0.0000000E+00; -1.0841501E-08;  1.0000000E+04;  0.0000000E+00;  9.9992783E+03;-0.35691249;0.0;0.026219549;380.2406
  4.3987074E-01;  9.9999998E-03; -1.8001109E-01;1717;-0.072379097;0.0;-0.0078220256;1000.8882;  4.0000001E-01;735.87921;3;-27.297438;0.0;-3.9375849;0;-0.37990588;  1.0020487E+04;  0.0000000E+00; -2.3934247E-08;  1.0000000E+04;  0.0000000E+00;  9.9972939E+03;-0.44385761;0.0;0.063951723;1337.9197
  4.3987375E-01;  9.9999998E-03; -1.6000871E-01;1718;-0.071212523;0.0;-0.0065005352;1000.8793;  4.0000001E-01;728.47198;3;-27.338179;0.0;-3.5890348;0;-0.37713605;  1.0019911E+04;  0.0000000E+00; -2.3767905E-07;  1.0000000E+04;  0.0000000E+00;  9.9976895E+03;-0.43662876;0.0;0.0594927;1144.2742
  4.3987682E-01;  9.9999998E-03; -1.4000675E-01;1719;-0.06996423;0.0;-0.0052890992;1000.8683;  4.0000001E-01;719.38586;3;-27.352407;0.0;-3.195132;0;-0.3741931;  1.0019346E+04;  0.0000000E+00; -8.1027673E-07;  1.0000000E+04;  0.0000000E+00;  9.9980293E+03;-0.42891806;0.0;0.054724969;978.74786
  4.3987969E-01;  9.9999998E-03; -1.2000514E-01;1720;-0.068732612;0.0;-0.0041984711;1000.8565;  4.0000001E-01;709.6084;3;-27.338137;0.0;-2.7627165;0;-0.37140188;  1.0018827E+04;  0.0000000E+00; -8.9374140E-07;  1.0000000E+04;  0.0000000E+00;  9.9983125E+03;-0.42118785;0.0;0.049785964;842.91534
  4.3988225E-01;  9.9999998E-03; -1.0000384E-01;1721;-0.067592874;0.0;-0.0032403057;1000.8452;  4.0000001E-01;700.22595;3;-27.304756;0.0;-2.2952428;0;-0.36902082;  1.0018367E+04;  0.0000000E+00; -6.4693211E-07;  1.0000000E+04;  0.0000000E+00;  9.9985449E+03;-0.4138734;0.0;0.0448526;731.86346
  4.3988442E-01;  9.9999998E-03; -8.0002792E-02;1722;-0.06659878;0.0;-0.00241821;1000.8356;  4.0000001E-01;692.2262;3;-27.268221;0.0;-1.8280257;0;-0.36711949;  1.0017984E+04;  0.0000000E+00; -3.6798153E-07;  1.0000000E+04;  0.0000000E+00;  9.9987344E+03;-0.40735769;0.0;0.040238194;643.26074
  4.3988612E-01;  9.9999998E-03; -6.0001943E-02;1723;-0.065787159;0.0;-0.0017107694;1000.8278;  4.0000001E-01;685.80664;3;-27.230162;0.0;-1.3604144;0;-0.36567369;  1.0017684E+04;  0.0000000E+00; -1.8576314E-07;  1.0000000E+04;  0.0000000E+00;  9.9988789E+03;-0.40195671;0.0;0.036283012;576.05481
  4.3988737E-01;  9.9999998E-03; -4.0001225E-02;1724;-0.065185726;0.0;-0.0010896943;1000.822;  4.0000001E-01;680.96729;3;-27.198303;0.0;-0.89765495;0;-0.36465088;  1.0017469E+04;  0.0000000E+00; -8.3876202E-08;  1.0000000E+04;  0.0000000E+00;  9.9989766E+03;-0.39791909;0.0;0.033268217;529.27094
  4.3988812E-01;  9.9999998E-03; -2.0000594E-02;1725;-0.064814828;0.0;-0.00052868074;1000.8183;  4.0000001E-01;677.90564;3;-27.171389;0.0;-0.44711792;0;-0.36403632;  1.0017338E+04;  0.0000000E+00; -1.7415346E-08;  1.0000000E+04;  0.0000000E+00;  9.9990371E+03;-0.39542317;0.0;0.031386841;501.81494
  4.5984960E-01;  9.9999998E-03; -1.8001316E-01;1748;-0.081893206;0.0;-0.0089063905;1001.0146;  4.0000060E-01;840.56689;3;-29.715544;0.0;-4.2743745;0;-0.419117;  1.0023320E+04;  0.0000000E+00;  2.1302367E-07;  1.0000000E+04;  0.0000000E+00;  9.9969541E+03;-0.49003732;0.0;0.070920318;1506.7527
  4.5985332E-01;  9.9999998E-03; -1.6001056E-01;1749;-0.080557518;0.0;-0.0074276058;1001.0012;  4.0000060E-01;829.40674;3;-29.82725;0.0;-3.8723171;0;-0.41541088;  1.0022631E+04;  0.0000000E+00; -4.4432201E-07;  1.0000000E+04;  0.0000000E+00;  9.9973760E+03;-0.48187673;0.0;0.066465847;1300.3445
  4.5985705E-01;  9.9999998E-03; -1.4000838E-01;1750;-0.07913027;0.0;-0.0060676485;1000.9856;  4.0000069E-01;816.56763;3;-29.911554;0.0;-3.4233994;0;-0.41151118;  1.0021973E+04;  0.0000000E+00; -1.2285057E-06;  1.0000000E+04;  0.0000000E+00;  9.9977236E+03;-0.47330144;0.0;0.061790261;1132.1703
  4.5986053E-01;  9.9999998E-03; -1.2000654E-01;1751;-0.077723548;0.0;-0.0048365216;1000.9695;  4.0000066E-01;803.23474;3;-29.960728;0.0;-2.9364476;0;-0.40780094;  1.0021376E+04;  0.0000000E+00; -1.2685429E-06;  1.0000000E+04;  0.0000000E+00;  9.9979990E+03;-0.46474686;0.0;0.056945931;999.62897
  4.5986360E-01;  9.9999998E-03; -1.0000502E-01;1752;-0.076419815;0.0;-0.003752335;1000.9547;  4.0000057E-01;790.98816;3;-29.979847;0.0;-2.4283335;0;-0.40459871;  1.0020855E+04;  0.0000000E+00; -8.7801317E-07;  1.0000000E+04;  0.0000000E+00;  9.9982207E+03;-0.45664918;0.0;0.052050486;893.66632
  4.5986620E-01;  9.9999998E-03; -8.0003761E-02;1753;-0.075283416;0.0;-0.0028115918;1000.942;  4.0000057E-01;780.42059;3;-29.991461;0.0;-1.9121183;0;-0.40200162;  1.0020420E+04;  0.0000000E+00; -4.9212014E-07;  1.0000000E+04;  0.0000000E+00;  9.9984004E+03;-0.449415;0.0;0.047413375;809.99408
  4.5986822E-01;  9.9999998E-03; -6.0002681E-02;1754;-0.074353516;0.0;-0.0019977109;1000.9319;  4.0000054E-01;772.02582;3;-29.988203;0.0;-1.4144804;0;-0.39999467;  1.0020084E+04;  0.0000000E+00; -2.4160693E-07;  1.0000000E+04;  0.0000000E+00;  9.9985322E+03;-0.44339606;0.0;0.043401387;746.89813
  4.5986968E-01;  9.9999998E-03; -4.0001724E-02;1755;-0.073662765;0.0;-0.00127843;1000.9244;  4.0000057E-01;765.80377;3;-29.981043;0.0;-0.94002098;0;-0.39855468;  1.0019843E+04;  0.0000000E+00; -1.0504983E-07;  1.0000000E+04;  0.0000000E+00;  9.9986289E+03;-0.43888089;0.0;0.040326215;703.19977
  4.5987058E-01;  9.9999998E-03; -2.0000843E-02;1756;-0.073236145;0.0;-0.00062175264;1000.92;  4.0000060E-01;762.14954;3;-29.970348;0.0;-0.46892002;0;-0.3976807;  1.0019697E+04;  0.0000000E+00; -2.5260315E-08;  1.0000000E+04;  0.0000000E+00;  9.9986836E+03;-0.43608269;0.0;0.038401995;677.67548
  4.7982541E-01;  9.9999998E-03; -1.8001603E-01;1779;-0.092414498;0.0;-0.010203722;1001.1494;  4.0000185E-01;952.16772;3;-32.23896;0.0;-4.5712409;0;-0.45914808;  1.0026331E+04;  0.0000000E+00;  1.8006691E-06;  1.0000000E+04;  0.0000000E+00;  9.9965850E+03;-0.53710955;0.0;0.077961475;1692.21
  4.7983000E-01;  9.9999998E-03; -1.6001323E-01;1780;-0.090887733;0.0;-0.008582809;1001.1304;  4.0000185E-01;936.46454;3;-32.438538;0.0;-4.1069465;0;-0.45415238;  1.0025521E+04;  0.0000000E+00;  2.2327119E-07;  1.0000000E+04;  0.0000000E+00;  9.9970156E+03;-0.52793115;0.0;0.073778778;1482.6735
  4.7983453E-01;  9.9999998E-03; -1.4001080E-01;1781;-0.089259036;0.0;-0.0070751263;1001.1092;  4.0000182E-01;918.98358;3;-32.606747;0.0;-3.5971425;0;-0.44890544;  1.0024770E+04;  0.0000000E+00; -9.7866302E-07;  1.0000000E+04;  0.0000000E+00;  9.9973398E+03;-0.51850474;0.0;0.069599293;1323.6295
  4.7983870E-01;  9.9999998E-03; -1.2000869E-01;1782;-0.087654583;0.0;-0.0056922804;1001.0876;  4.0000176E-01;901.1076;3;-32.731922;0.0;-3.050596;0;-0.44388115;  1.0024098E+04;  0.0000000E+00; -1.2019127E-06;  1.0000000E+04;  0.0000000E+00;  9.9975850E+03;-0.50918865;0.0;0.065307491;1205.5886
  4.7984236E-01;  9.9999998E-03; -1.0000687E-01;1783;-0.086166844;0.0;-0.0044565299;1001.0683;  4.0000185E-01;885.10809;3;-32.819546;0.0;-2.4921834;0;-0.43949699;  1.0023520E+04;  0.0000000E+00; -8.4972987E-07;  1.0000000E+04;  0.0000000E+00;  9.9977754E+03;-0.50038511;0.0;0.060888104;1113.7131
  4.7984540E-01;  9.9999998E-03; -8.0005281E-02;1784;-0.084865913;0.0;-0.0033721346;1001.0522;  4.0000173E-01;871.67639;3;-32.873447;0.0;-1.9566058;0;-0.43589595;  1.0023041E+04;  0.0000000E+00; -4.6081044E-07;  1.0000000E+04;  0.0000000E+00;  9.9979268E+03;-0.49250212;0.0;0.056606185;1041.4504
  4.7984779E-01;  9.9999998E-03; -6.0003843E-02;1785;-0.083800815;0.0;-0.0024154901;1001.0394;  4.0000182E-01;861.10883;3;-32.910057;0.0;-1.4341702;0;-0.4330799;  1.0022669E+04;  0.0000000E+00; -2.1751202E-07;  1.0000000E+04;  0.0000000E+00;  9.9980449E+03;-0.48591888;0.0;0.052838989;986.78894
  4.7984952E-01;  9.9999998E-03; -4.0002514E-02;1786;-0.083007976;0.0;-0.0015579017;1001.0302;  4.0000182E-01;853.50415;3;-32.930435;0.0;-0.95130599;0;-0.43103951;  1.0022402E+04;  0.0000000E+00; -9.1485788E-08;  1.0000000E+04;  0.0000000E+00;  9.9981279E+03;-0.48096204;0.0;0.049922518;948.85333
  4.7985056E-01;  9.9999998E-03; -2.0001244E-02;1787;-0.082516961;0.0;-0.00076163065;1001.0247;  4.0000173E-01;848.8623;3;-32.936653;0.0;-0.47032711;0;-0.42979318;  1.0022241E+04;  0.0000000E+00; -2.5720775E-08;  1.0000000E+04;  0.0000000E+00;  9.9981777E+03;-0.47788173;0.0;0.048088558;926.70435
  4.9979785E-01;  9.9999998E-03; -1.8002018E-01;1810;-0.10401189;0.0;-0.01184961;1001.285;  4.0000418E-01;1064.657;3;-34.864323;0.0;-4.8178782;0;-0.49698135;  1.0029359E+04;  0.0000000E+00;  7.2590801E-06;  1.0000000E+04;  0.0000000E+00;  9.9961533E+03;-0.58216172;0.0;0.085180379;1910.9
  4.9980345E-01;  9.9999998E-03; -1.6001718E-01;1811;-0.10227134;0.0;-0.010112155;1001.2589;  4.0000412E-01;1042.9293;3;-35.163887;0.0;-4.3003082;0;-0.49033198;  1.0028434E+04;  0.0000000E+00;  4.0352561E-06;  1.0000000E+04;  0.0000000E+00;  9.9965586E+03;-0.57197273;0.0;0.08164075;1710.1875
  4.9980888E-01;  9.9999998E-03; -1.4001445E-01;1812;-0.10042163;0.0;-0.0084498674;1001.2307;  4.0000412E-01;1019.6214;3;-35.434017;0.0;-3.7084348;0;-0.48332268;  1.0027593E+04;  0.0000000E+00;  1.6247067E-06;  1.0000000E+04;  0.0000000E+00;  9.9968330E+03;-0.56181461;0.0;0.078491934;1574.0153
  4.9981382E-01;  9.9999998E-03; -1.2001195E-01;1813;-0.098598219;0.0;-0.0068919822;1001.2035;  4.0000412E-01;997.10364;3;-35.643463;0.0;-3.1029963;0;-0.47656453;  1.0026856E+04;  0.0000000E+00;  2.1839807E-07;  1.0000000E+04;  0.0000000E+00;  9.9970186E+03;-0.55191511;0.0;0.07535059;1482.8469
  4.9981815E-01;  9.9999998E-03; -1.0000966E-01;1814;-0.096905246;0.0;-0.0054663946;1001.1791;  4.0000412E-01;976.85736;3;-35.803406;0.0;-2.4973106;0;-0.47061393;  1.0026228E+04;  0.0000000E+00; -1.7899997E-07;  1.0000000E+04;  0.0000000E+00;  9.9971621E+03;-0.54259437;0.0;0.071980454;1414.3445
  4.9982169E-01;  9.9999998E-03; -8.0007568E-02;1815;-0.095419295;0.0;-0.0041843229;1001.1589;  4.0000409E-01;960.16656;3;-35.915134;0.0;-1.9185566;0;-0.46568316;  1.0025712E+04;  0.0000000E+00; -1.7279773E-07;  1.0000000E+04;  0.0000000E+00;  9.9972764E+03;-0.53423536;0.0;0.068552181;1359.5819
  4.9982449E-01;  9.9999998E-03; -6.0005601E-02;1816;-0.094198406;0.0;-0.0030336678;1001.1437;  4.0000409E-01;947.52496;3;-35.983757;0.0;-1.4031296;0;-0.46179649;  1.0025311E+04;  0.0000000E+00; -1.0178362E-07;  1.0000000E+04;  0.0000000E+00;  9.9973682E+03;-0.52722889;0.0;0.0654324;1316.9548
  4.9982649E-01;  9.9999998E-03; -4.0003706E-02;1817;-0.093289711;0.0;-0.0019735543;1001.1324;  4.0000418E-01;938.14258;3;-36.030746;0.0;-0.91416842;0;-0.45896149;  1.0025023E+04;  0.0000000E+00; -4.6808072E-08;  1.0000000E+04;  0.0000000E+00;  9.9974355E+03;-0.52193177;0.0;0.062970273;1286.7087
  4.9982768E-01;  9.9999998E-03; -2.0001845E-02;1818;-0.092725977;0.0;-0.00097131793;1001.1262;  4.0000424E-01;933.0069;3;-36.055031;0.0;-0.45035112;0;-0.45722139;  1.0024852E+04;  0.0000000E+00; -1.1538585E-08;  1.0000000E+04;  0.0000000E+00;  9.9974736E+03;-0.51862913;0.0;0.061407737;1268.8376
  5.1976675E-01;  9.9999998E-03; -1.8002628E-01;1841;-0.11671587;0.0;-0.01403455;1001.4141;  4.0001142E-01;1171.5161;3;-37.58498;0.0;-4.9977942;0;-0.52751905;  1.0032142E+04;  0.0000000E+00;  1.9286974E-05;  1.0000000E+04;  0.0000000E+00;  9.9955820E+03;-0.62052763;0.0;0.093008555;2194.5146
  5.1977336E-01;  9.9999998E-03; -1.6002300E-01;1842;-0.11474831;0.0;-0.012196501;1001.3808;  4.0001163E-01;1143.9615;3;-38.005905;0.0;-4.4284863;0;-0.51899534;  1.0031107E+04;  0.0000000E+00;  1.3983285E-05;  1.0000000E+04;  0.0000000E+00;  9.9959473E+03;-0.60948682;0.0;0.090491481;2012.3572
  5.1977980E-01;  9.9999998E-03; -1.4001982E-01;1843;-0.11266323;0.0;-0.01036323;1001.3453;  4.0001157E-01;1114.6292;3;-38.379669;0.0;-3.7754722;0;-0.50989455;  1.0030196E+04;  0.0000000E+00;  9.2921855E-06;  1.0000000E+04;  0.0000000E+00;  9.9961475E+03;-0.59884763;0.0;0.088953078;1910.8757
  5.1978558E-01;  9.9999998E-03; -1.2001672E-01;1844;-0.11060647;0.0;-0.0085828332;1001.3113;  4.0001151E-01;1086.3832;3;-38.688793;0.0;-3.0815721;0;-0.50102812;  1.0029410E+04;  0.0000000E+00;  4.7963308E-06;  1.0000000E+04;  0.0000000E+00;  9.9962500E+03;-0.58866757;0.0;0.087639436;1857.329
  5.1979059E-01;  9.9999998E-03; -1.0001374E-01;1845;-0.10869013;0.0;-0.0069103208;1001.2819;  4.0001148E-01;1061.989;3;-38.920612;0.0;-2.4362733;0;-0.4931514;  1.0028745E+04;  0.0000000E+00;  2.0306418E-06;  1.0000000E+04;  0.0000000E+00;  9.9963262E+03;-0.57914448;0.0;0.085993081;1819.8837
  5.1979476E-01;  9.9999998E-03; -8.0010898E-02;1846;-0.10700282;0.0;-0.0053610182;1001.258;  4.0001148E-01;1042.2366;3;-39.086205;0.0;-1.8401388;0;-0.48657399;  1.0028201E+04;  0.0000000E+00;  7.3042008E-07;  1.0000000E+04;  0.0000000E+00;  9.9963975E+03;-0.5705992;0.0;0.084025204;1787.0198
  5.1979792E-01;  9.9999998E-03; -6.0008135E-02;1847;-0.10561115;0.0;-0.0039255526;1001.2399;  4.0001160E-01;1027.2247;3;-39.196075;0.0;-1.3064368;0;-0.48135549;  1.0027779E+04;  0.0000000E+00;  2.3329740E-07;  1.0000000E+04;  0.0000000E+00;  9.9964551E+03;-0.56341231;0.0;0.082056805;1758.3733
  5.1980025E-01;  9.9999998E-03; -4.0005416E-02;1848;-0.10457011;0.0;-0.0025751386;1001.2272;  4.0001154E-01;1016.6572;3;-39.263569;0.0;-0.83041936;0;-0.47752762;  1.0027479E+04;  0.0000000E+00;  5.1809959E-08;  1.0000000E+04;  0.0000000E+00;  9.9965029E+03;-0.55795556;0.0;0.08042796;1736.3594
  5.1980162E-01;  9.9999998E-03; -2.0002710E-02;1849;-0.10392462;0.0;-0.0012774466;1001.2199;  4.0001145E-01;1010.6327;3;-39.299908;0.0;-0.40599975;0;-0.47516921;  1.0027299E+04;  0.0000000E+00;  7.6416136E-09;  1.0000000E+04;  0.0000000E+00;  9.9965303E+03;-0.55454206;0.0;0.079372853;1722.7545
  5.3973210E-01;  9.9999998E-03; -1.8003505E-01;1872;-0.130457;0.0;-0.01696278;1001.5289;  4.0003082E-01;1266.7206;3;-40.376064;0.0;-5.0694051;0;-0.54339719;  1.0034276E+04;  0.0000000E+00;  3.5931957E-05;  1.0000000E+04;  0.0000000E+00;  9.9947656E+03;-0.64575756;0.0;0.10236035;2595.1902
  5.3973985E-01;  9.9999998E-03; -1.6003129E-01;1873;-0.12826486;0.0;-0.015019345;1001.49;  4.0003103E-01;1234.4254;3;-40.93671;0.0;-4.4641619;0;-0.53316343;  1.0033165E+04;  0.0000000E+00;  2.9669047E-05;  1.0000000E+04;  0.0000000E+00;  9.9950889E+03;-0.63425112;0.0;0.10108768;2432.0024
  5.3974730E-01;  9.9999998E-03; -1.4002736E-01;1874;-0.12594418;0.0;-0.012995108;1001.4484;  4.0003076E-01;1199.9575;3;-41.433353;0.0;-3.7614558;0;-0.52192783;  1.0032216E+04;  0.0000000E+00;  2.3767709E-05;  1.0000000E+04;  0.0000000E+00;  9.9952090E+03;-0.62354529;0.0;0.10161745;2368.4724
  5.3975397E-01;  9.9999998E-03; -1.2002335E-01;1875;-0.12364747;0.0;-0.010940606;1001.4085;  4.0003088E-01;1166.8722;3;-41.835289;0.0;-3.0307949;0;-0.51075768;  1.0031403E+04;  0.0000000E+00;  1.4663540E-05;  1.0000000E+04;  0.0000000E+00;  9.9952197E+03;-0.61352313;0.0;0.10276543;2357.0962
  5.3975970E-01;  9.9999998E-03; -1.0001936E-01;1876;-0.12150022;0.0;-0.0089340378;1001.3744;  4.0003091E-01;1138.6263;3;-42.14349;0.0;-2.3361847;0;-0.50068593;  1.0030723E+04;  0.0000000E+00;  7.2658900E-06;  1.0000000E+04;  0.0000000E+00;  9.9952207E+03;-0.60423601;0.0;0.10355005;2354.2295
  5.3976440E-01;  9.9999998E-03; -8.0015436E-02;1877;-0.11960032;0.0;-0.0070169014;1001.3474;  4.0003097E-01;1116.2074;3;-42.363533;0.0;-1.7153963;0;-0.49218789;  1.0030163E+04;  0.0000000E+00;  2.9814842E-06;  1.0000000E+04;  0.0000000E+00;  9.9952383E+03;-0.595918;0.0;0.10373011;2344.5815
  5.3976810E-01;  9.9999998E-03; -6.0011577E-02;1878;-0.11802571;0.0;-0.0051900558;1001.3273;  4.0003100E-01;1099.6154;3;-42.507542;0.0;-1.1836556;0;-0.48538569;  1.0029730E+04;  0.0000000E+00;  1.0231148E-06;  1.0000000E+04;  0.0000000E+00;  9.9952656E+03;-0.58890295;0.0;0.10351726;2329.3999
  5.3977066E-01;  9.9999998E-03; -4.0007729E-02;1879;-0.11684235;0.0;-0.0034287742;1001.3132;  4.0003097E-01;1087.9614;3;-42.593063;0.0;-0.73574716;0;-0.4803614;  1.0029424E+04;  0.0000000E+00;  3.0677433E-07;  1.0000000E+04;  0.0000000E+00;  9.9952920E+03;-0.58355564;0.0;0.10319424;2314.2859
  5.3977221E-01;  9.9999998E-03; -2.0003872E-02;1880;-0.11610582;0.0;-0.0017057866;1001.3051;  4.0003094E-01;1081.2456;3;-42.636581;0.0;-0.35061702;0;-0.47725007;  1.0029236E+04;  0.0000000E+00;  6.7076108E-08;  1.0000000E+04;  0.0000000E+00;  9.9953145E+03;-0.58019865;0.0;0.10294858;2303.7556
  5.5969459E-01;  9.9999998E-03; -1.8004721E-01;1903;-0.14495729;0.0;-0.020837909;1001.6489;  4.0008327E-01;1366.0718;3;-43.188728;0.0;-5.0543065;0;-0.53526545;  1.0035250E+04;  0.0000000E+00;  4.5146917E-05;  1.0000000E+04;  0.0000000E+00;  9.9935518E+03;-0.64991105;0.0;0.11464562;3185.0891
  5.5970347E-01;  9.9999998E-03; -1.6004258E-01;1904;-0.1425599;0.0;-0.018754074;1001.6086;  4.0008333E-01;1332.6903;3;-43.89896;0.0;-4.4060535;0;-0.52409017;  1.0034130E+04;  0.0000000E+00;  4.0153915E-05;  1.0000000E+04;  0.0000000E+00;  9.9938633E+03;-0.63863921;0.0;0.11454906;3026.1624
  5.5971187E-01;  9.9999998E-03; -1.4003755E-01;1905;-0.14003257;0.0;-0.016486753;1001.5642;  4.0008330E-01;1295.9509;3;-44.531597;0.0;-3.6687758;0;-0.51120925;  1.0033177E+04;  0.0000000E+00;  3.9697552E-05;  1.0000000E+04;  0.0000000E+00;  9.9939268E+03;-0.62851053;0.0;0.11730126;2988.5129
  5.5971944E-01;  9.9999998E-03; -1.2003223E-01;1906;-0.13751645;0.0;-0.014095861;1001.5207;  4.0008336E-01;1259.8042;3;-45.041756;0.0;-2.8958871;0;-0.49791965;  1.0032369E+04;  0.0000000E+00;  2.8926323E-05;  1.0000000E+04;  0.0000000E+00;  9.9938643E+03;-0.61925793;0.0;0.12133828;3012.0808
  5.5972594E-01;  9.9999998E-03; -1.0002684E-01;1907;-0.13514294;0.0;-0.011667166;1001.4836;  4.0008336E-01;1229.188;3;-45.428703;0.0;-2.1753128;0;-0.48559794;  1.0031696E+04;  0.0000000E+00;  1.6102706E-05;  1.0000000E+04;  0.0000000E+00;  9.9937910E+03;-0.61079586;0.0;0.12519792;3039.9045
  5.5973125E-01;  9.9999998E-03; -8.0021456E-02;1908;-0.13302787;0.0;-0.0092733642;1001.4544;  4.0008330E-01;1204.8927;3;-45.697285;0.0;-1.5599314;0;-0.4749828;  1.0031147E+04;  0.0000000E+00;  7.0919514E-06;  1.0000000E+04;  0.0000000E+00;  9.9937588E+03;-0.60324383;0.0;0.12826103;3050.2363
  5.5973536E-01;  9.9999998E-03; -6.0016092E-02;1909;-0.13126375;0.0;-0.006924314;1001.4332;  4.0008342E-01;1187.3131;3;-45.868744;0.0;-1.0574746;0;-0.46635252;  1.0030719E+04;  0.0000000E+00;  2.5301813E-06;  1.0000000E+04;  0.0000000E+00;  9.9937598E+03;-0.59686339;0.0;0.13051088;3044.9214
  5.5973828E-01;  9.9999998E-03; -4.0010735E-02;1910;-0.12993036;0.0;-0.0046049352;1001.4188;  4.0008351E-01;1175.4617;3;-45.967968;0.0;-0.64913642;0;-0.45989978;  1.0030414E+04;  0.0000000E+00;  7.5616413E-07;  1.0000000E+04;  0.0000000E+00;  9.9937764E+03;-0.59197825;0.0;0.13207848;3033.2539
  5.5974001E-01;  9.9999998E-03; -2.0005373E-02;1911;-0.1290962;0.0;-0.0022993684;1001.4104;  4.0008342E-01;1168.4496;3;-46.008041;0.0;-0.30007958;0;-0.45587116;  1.0030230E+04;  0.0000000E+00;  1.5533344E-07;  1.0000000E+04;  0.0000000E+00;  9.9937969E+03;-0.58890003;0.0;0.13302885;3023.3398
  5.7965583E-01;  9.9999998E-03; -1.8006322E-01;1934;-0.15961118;0.0;-0.025848808;1001.8663;  4.0022227E-01;1546.109;3;-45.915157;0.0;-4.9048576;0;-0.49192858;  1.0034423E+04;  0.0000000E+00;  2.6807706E-05;  1.0000000E+04;  0.0000000E+00;  9.9917715E+03;-0.62339741;0.0;0.13146883;4043.783
  5.7966572E-01;  9.9999998E-03; -1.6005711E-01;1935;-0.15706545;0.0;-0.02350775;1001.8318;  4.0022218E-01;1517.567;3;-46.786861;0.0;-4.1996913;0;-0.48118234;  1.0033366E+04;  0.0000000E+00;  2.2375958E-05;  1.0000000E+04;  0.0000000E+00;  9.9921328E+03;-0.61344272;0.0;0.13226038;3860.0005
  5.7967502E-01;  9.9999998E-03; -1.4005041E-01;1936;-0.1543818;0.0;-0.02087217;1001.7906;  4.0022227E-01;1483.4944;3;-47.568878;0.0;-3.4440041;0;-0.4677034;  1.0032478E+04;  0.0000000E+00;  4.1221945E-05;  1.0000000E+04;  0.0000000E+00;  9.9921963E+03;-0.6047774;0.0;0.13707398;3819.2832
  5.7968342E-01;  9.9999998E-03; -1.2004334E-01;1937;-0.15168394;0.0;-0.018051425;1001.7484;  4.0022230E-01;1448.5328;3;-48.197578;0.0;-2.6778541;0;-0.45293102;  1.0031723E+04;  0.0000000E+00;  3.9692164E-05;  1.0000000E+04;  0.0000000E+00;  9.9921006E+03;-0.59707123;0.0;0.14414021;3855.6001
  5.7969064E-01;  9.9999998E-03; -1.0003608E-01;1938;-0.14911668;0.0;-0.01510447;1001.7113;  4.0022233E-01;1417.7192;3;-48.656601;0.0;-1.9670672;0;-0.43855262;  1.0031093E+04;  0.0000000E+00;  2.5513831E-05;  1.0000000E+04;  0.0000000E+00;  9.9919854E+03;-0.59012187;0.0;0.15156925;3899.8071
  5.7969654E-01;  9.9999998E-03; -8.0028810E-02;1939;-0.1468076;0.0;-0.012121203;1001.6823;  4.0022230E-01;1393.7202;3;-48.966682;0.0;-1.379069;0;-0.42569375;  1.0030581E+04;  0.0000000E+00;  1.1834481E-05;  1.0000000E+04;  0.0000000E+00;  9.9919209E+03;-0.58394325;0.0;0.15824951;3920.551
  5.7970107E-01;  9.9999998E-03; -6.0021572E-02;1940;-0.14486322;0.0;-0.0091201607;1001.6617;  4.0022236E-01;1376.6345;3;-49.158611;0.0;-0.91593516;0;-0.41494364;  1.0030175E+04;  0.0000000E+00;  4.0873151E-06;  1.0000000E+04;  0.0000000E+00;  9.9919111E+03;-0.57870257;0.0;0.16375893;3917.644
  5.7970428E-01;  9.9999998E-03; -4.0014386E-02;1941;-0.14338869;0.0;-0.0061118305;1001.6481;  4.0022245E-01;1365.3757;3;-49.251789;0.0;-0.54208392;0;-0.40674469;  1.0029886E+04;  0.0000000E+00;  1.0895238E-06;  1.0000000E+04;  0.0000000E+00;  9.9919268E+03;-0.57466292;0.0;0.16791824;3903.571
  5.7970625E-01;  9.9999998E-03; -2.0007202E-02;1942;-0.14246446;0.0;-0.003069612;1001.64;  4.0022233E-01;1358.66;3;-49.300323;0.0;-0.25442722;0;-0.40155715;  1.0029708E+04;  0.0000000E+00;  1.9977871E-07;  1.0000000E+04;  0.0000000E+00;  9.9919463E+03;-0.57210088;0.0;0.17054373;3890.4771
  5.9961772E-01;  9.9999998E-03; -1.8008220E-01;1965;-0.1736102;0.0;-0.031796232;1002.4477;  4.0057498E-01;2027.8579;3;-48.391582;0.0;-4.6388416;0;-0.39841264;  1.0030903E+04;  0.0000000E+00; -3.8037550E-05;  1.0000000E+04;  0.0000000E+00;  9.9892881E+03;-0.55236673;0.0;0.15395407;5232.1138
  5.9962875E-01;  9.9999998E-03; -1.6007444E-01;1966;-0.17090499;0.0;-0.029173337;1002.429;  4.0057522E-01;2012.3524;3;-49.41164;0.0;-3.9209559;0;-0.38980156;  1.0030035E+04;  0.0000000E+00; -4.9863473E-05;  1.0000000E+04;  0.0000000E+00;  9.9897676E+03;-0.54533267;0.0;0.15553112;4990.21
  5.9963912E-01;  9.9999998E-03; -1.4006592E-01;1967;-0.16807704;0.0;-0.026193161;1002.3989;  4.0057522E-01;1987.366;3;-50.343365;0.0;-3.1388762;0;-0.37700719;  1.0029289E+04;  0.0000000E+00;  4.9871201E-06;  1.0000000E+04;  0.0000000E+00;  9.9899131E+03;-0.53924334;0.0;0.16223617;4907.707
  5.9964830E-01;  9.9999998E-03; -1.2005669E-01;1968;-0.16523656;0.0;-0.022898326;1002.364;  4.0057519E-01;1958.5277;3;-51.088211;0.0;-2.3977721;0;-0.36158842;  1.0028650E+04;  0.0000000E+00;  3.0962765E-05;  1.0000000E+04;  0.0000000E+00;  9.9898506E+03;-0.53392649;0.0;0.17233808;4922.7192
  5.9965616E-01;  9.9999998E-03; -1.0004712E-01;1969;-0.16252033;0.0;-0.019354578;1002.332;  4.0057531E-01;1931.9611;3;-51.621002;0.0;-1.7347965;0;-0.34547526;  1.0028109E+04;  0.0000000E+00;  2.6634129E-05;  1.0000000E+04;  0.0000000E+00;  9.9897471E+03;-0.52916318;0.0;0.18368793;4958.3579
  5.9966254E-01;  9.9999998E-03; -8.0037534E-02;1970;-0.16006099;0.0;-0.015671076;1002.3065;  4.0057546E-01;1910.8263;3;-51.974106;0.0;-1.2135109;0;-0.33022788;  1.0027663E+04;  0.0000000E+00;  1.2539044E-05;  1.0000000E+04;  0.0000000E+00;  9.9896846E+03;-0.52489448;0.0;0.19466659;4972.4878
  5.9966749E-01;  9.9999998E-03; -6.0028080E-02;1971;-0.15797362;0.0;-0.011884344;1002.2887;  4.0057561E-01;1896.1108;3;-52.169018;0.0;-0.77617949;0;-0.31695336;  1.0027307E+04;  0.0000000E+00;  3.2427927E-06;  1.0000000E+04;  0.0000000E+00;  9.9896797E+03;-0.52121651;0.0;0.20426315;4959.8193
  5.9967107E-01;  9.9999998E-03; -4.0018737E-02;1972;-0.15638289;0.0;-0.0080226529;1002.2772;  4.0057543E-01;1886.6298;3;-52.259468;0.0;-0.46418819;0;-0.30654901;  1.0027046E+04;  0.0000000E+00;  2.0166551E-07;  1.0000000E+04;  0.0000000E+00;  9.9897119E+03;-0.51833171;0.0;0.21178268;4934.5762
  5.9967327E-01;  9.9999998E-03; -2.0009389E-02;1973;-0.15538383;0.0;-0.00405586;1002.2708;  4.0057555E-01;1881.2968;3;-52.3134;0.0;-0.22546278;0;-0.29985285;  1.0026888E+04;  0.0000000E+00; -1.0079141E-07;  1.0000000E+04;  0.0000000E+00;  9.9897432E+03;-0.51647675;0.0;0.2166239;4912.9058
  6.1958271E-01;  9.9999998E-03; -1.8010414E-01;1996;-0.1860799;0.0;-0.03842064;1003.9402;  4.0138361E-01;3264.325;3;-50.468895;0.0;-4.1664176;0;-0.23441227;  1.0023592E+04;  0.0000000E+00; -1.4303645E-04;  1.0000000E+04;  0.0000000E+00;  9.9860703E+03;-0.416457;0.0;0.18204473;6762.2607
  6.1959499E-01;  9.9999998E-03; -1.6009460E-01;1997;-0.18317543;0.0;-0.035548218;1003.9463;  4.0138391E-01;3269.3616;3;-51.616421;0.0;-3.4148116;0;-0.22951485;  1.0023063E+04;  0.0000000E+00; -1.8538706E-04;  1.0000000E+04;  0.0000000E+00;  9.9867139E+03;-0.41452837;0.0;0.18501352;6439.7314
  6.1960620E-01;  9.9999998E-03; -1.4008386E-01;1998;-0.18023053;0.0;-0.032209475;1003.9368;  4.0138423E-01;3261.5593;3;-52.652088;0.0;-2.6531994;0;-0.2184726;  1.0022563E+04;  0.0000000E+00; -8.5921376E-05;  1.0000000E+04;  0.0000000E+00;  9.9870088E+03;-0.41240469;0.0;0.19393209;6281.0288
  6.1961609E-01;  9.9999998E-03; -1.2007205E-01;1999;-0.17731638;0.0;-0.028425649;1003.9172;  4.0138417E-01;3245.2639;3;-53.476044;0.0;-2.0026884;0;-0.2030672;  1.0022116E+04;  0.0000000E+00; -1.5426454E-05;  1.0000000E+04;  0.0000000E+00;  9.9870576E+03;-0.4103823;0.0;0.2073151;6238.8481
  6.1962444E-01;  9.9999998E-03; -1.0005982E-01;2000;-0.17454536;0.0;-0.024329834;1003.8956;  4.0138438E-01;3227.2896;3;-54.062302;0.0;-1.4710295;0;-0.18546475;  1.0021716E+04;  0.0000000E+00;  5.1824081E-06;  1.0000000E+04;  0.0000000E+00;  9.9870205E+03;-0.40842628;0.0;0.22296153;6235.4307
  6.1963135E-01;  9.9999998E-03; -8.0047645E-02;2001;-0.17200989;0.0;-0.019959658;1003.8781;  4.0138441E-01;3212.8706;3;-54.46537;0.0;-1.0867312;0;-0.16764303;  1.0021378E+04;  0.0000000E+00;  2.2408135E-07;  1.0000000E+04;  0.0000000E+00;  9.9870068E+03;-0.40650362;0.0;0.23886059;6220.0371
  6.1963677E-01;  9.9999998E-03; -6.0035616E-02;2002;-0.16982952;0.0;-0.015275316;1003.8665;  4.0138450E-01;3203.2908;3;-54.737255;0.0;-0.78253698;0;-0.15136591;  1.0021102E+04;  0.0000000E+00; -4.9359319E-06;  1.0000000E+04;  0.0000000E+00;  9.9870420E+03;-0.40469491;0.0;0.25332901;6180.9688
  6.1964071E-01;  9.9999998E-03; -4.0023755E-02;2003;-0.16814744;0.0;-0.010357701;1003.8594;  4.0138456E-01;3197.3652;3;-54.853367;0.0;-0.47079101;0;-0.13821214;  1.0020895E+04;  0.0000000E+00; -4.0353707E-06;  1.0000000E+04;  0.0000000E+00;  9.9871094E+03;-0.40317598;0.0;0.26496384;6132.8105
  6.1964309E-01;  9.9999998E-03; -2.0011907E-02;2004;-0.16709957;0.0;-0.0052562873;1003.8558;  4.0138456E-01;3194.4023;3;-54.933903;0.0;-0.24211541;0;-0.12959224;  1.0020768E+04;  0.0000000E+00; -1.2489088E-06;  1.0000000E+04;  0.0000000E+00;  9.9871611E+03;-0.40215468;0.0;0.27256244;6095.4502
  6.3955271E-01;  9.9999998E-03; -1.8012922E-01;2027;-0.19639327;0.0;-0.045563772;1006.8495;  4.0286839E-01;5674.5244;3;-52.02557;0.0;-3.4129505;0;0.0200039;  1.0011527E+04;  0.0000000E+00; -2.1992681E-04;  1.0000000E+04;  0.0000000E+00;  9.9822432E+03;-0.19403058;0.0;0.21403448;8572.3789
  6.3956594E-01;  9.9999998E-03; -1.6011716E-01;2028;-0.19336127;0.0;-0.042333115;1006.8879;  4.0286854E-01;5706.3247;3;-53.265804;0.0;-2.6189055;0;0.020706519;  1.0011481E+04;  0.0000000E+00; -3.4121535E-04;  1.0000000E+04;  0.0000000E+00;  9.9830371E+03;-0.19938906;0.0;0.22009557;8172.144
  6.3957781E-01;  9.9999998E-03; -1.4010359E-01;2029;-0.19039832;0.0;-0.038600005;1006.9056;  4.0286878E-01;5721.04;3;-54.396416;0.0;-1.9440069;0;0.029749632;  1.0011343E+04;  0.0000000E+00; -2.1597312E-04;  1.0000000E+04;  0.0000000E+00;  9.9835137E+03;-0.20272331;0.0;0.23247294;7923.1621
  6.3958818E-01;  9.9999998E-03; -1.2008863E-01;2030;-0.18750717;0.0;-0.034358993;1006.9077;  4.0286902E-01;5722.7188;3;-55.30212;0.0;-1.5050746;0;0.045064718;  1.0011169E+04;  0.0000000E+00; -1.0265910E-04;  1.0000000E+04;  0.0000000E+00;  9.9837129E+03;-0.20494643;0.0;0.25001115;7800.1367
  6.3959712E-01;  9.9999998E-03; -1.0007321E-01;2031;-0.18470681;0.0;-0.029587554;1006.9031;  4.0286922E-01;5718.9663;3;-55.959412;0.0;-1.2037483;0;0.064205155;  1.0010983E+04;  0.0000000E+00; -4.8777354E-05;  1.0000000E+04;  0.0000000E+00;  9.9837930E+03;-0.20640321;0.0;0.27060837;7731.5044
  6.3960463E-01;  9.9999998E-03; -8.0058083E-02;2032;-0.18209951;0.0;-0.02437613;1006.8987;  4.0286937E-01;5715.312;3;-56.451408;0.0;-0.98609215;0;0.084839895;  1.0010807E+04;  0.0000000E+00; -3.3689372E-05;  1.0000000E+04;  0.0000000E+00;  9.9838740E+03;-0.20721932;0.0;0.29205921;7663.1636
  6.3961047E-01;  9.9999998E-03; -6.0043365E-02;2033;-0.17986432;0.0;-0.01870795;1006.8965;  4.0286937E-01;5713.4355;3;-56.762447;0.0;-0.70905739;0;0.10455881;  1.0010649E+04;  0.0000000E+00; -2.5387357E-05;  1.0000000E+04;  0.0000000E+00;  9.9839873E+03;-0.20753311;0.0;0.31209192;7579.1113
  6.3961470E-01;  9.9999998E-03; -4.0028956E-02;2034;-0.17815676;0.0;-0.012742009;1006.897;  4.0286952E-01;5713.9292;3;-56.895546;0.0;-0.41400552;0;0.12097232;  1.0010526E+04;  0.0000000E+00; -1.3860291E-05;  1.0000000E+04;  0.0000000E+00;  9.9841133E+03;-0.20753597;0.0;0.32850829;7494.5972
  6.3961726E-01;  9.9999998E-03; -2.0014523E-02;2035;-0.17711709;0.0;-0.0064707161;1006.8979;  4.0286952E-01;5714.6206;3;-57.022076;0.0;-0.204257;0;0.13191582;  1.0010449E+04;  0.0000000E+00; -3.7934342E-06;  1.0000000E+04;  0.0000000E+00;  9.9842070E+03;-0.20743261;0.0;0.33934844;7433.3569
  6.5953106E-01;  9.9999998E-03; -1.8015975E-01;2058;-0.20382971;0.0;-0.053832043;1010.4573;  4.0474036E-01;8663.2871;3;-53.133636;0.0;-2.2845426;0;0.37218454;  9.9945176E+03;  0.0000000E+00; -1.6356070E-04;  1.0000000E+04;  0.0000000E+00;  9.9780957E+03;0.12554306;0.0;0.24664149;10520.649
  6.5954471E-01;  9.9999998E-03; -1.6014397E-01;2059;-0.20078111;0.0;-0.049924042;1010.5289;  4.0474069E-01;8722.6406;3;-54.494839;0.0;-1.3667684;0;0.37032175;  9.9950459E+03;  0.0000000E+00; -4.1850394E-04;  1.0000000E+04;  0.0000000E+00;  9.9789648E+03;0.11176218;0.0;0.25855955;10078.409
  6.5955669E-01;  9.9999998E-03; -1.4012694E-01;2060;-0.19784348;0.0;-0.045778546;1010.5761;  4.0474078E-01;8761.749;3;-55.685234;0.0;-0.78907722;0;0.37859875;  9.9953623E+03;  0.0000000E+00; -3.2232635E-04;  1.0000000E+04;  0.0000000E+00;  9.9795723E+03;0.1019171;0.0;0.27668166;9757.2041
  6.5956718E-01;  9.9999998E-03; -1.2010816E-01;2061;-0.19499949;0.0;-0.040914346;1010.6031;  4.0474081E-01;8784.0684;3;-56.638416;0.0;-0.62206358;0;0.39467719;  9.9955420E+03;  0.0000000E+00; -2.0017290E-04;  1.0000000E+04;  0.0000000E+00;  9.9799248E+03;0.09464813;0.0;0.30002907;9554.043
  6.5957636E-01;  9.9999998E-03; -1.0008906E-01;2062;-0.19229253;0.0;-0.035373475;1010.6196;  4.0474090E-01;8797.6973;3;-57.348736;0.0;-0.48874348;0;0.41585737;  9.9956396E+03;  0.0000000E+00; -1.2415217E-04;  1.0000000E+04;  0.0000000E+00;  9.9801465E+03;0.089212306;0.0;0.32664508;9408.877
  6.5958416E-01;  9.9999998E-03; -8.0070555E-02;2063;-0.18976805;0.0;-0.029347118;1010.6325;  4.0474105E-01;8808.4619;3;-57.950481;0.0;-0.49030396;0;0.43962634;  9.9956855E+03;  0.0000000E+00; -8.5674161E-05;  1.0000000E+04;  0.0000000E+00;  9.9803496E+03;0.085261658;0.0;0.35436469;9271.3154
  6.5959036E-01;  9.9999998E-03; -6.0052745E-02;2064;-0.18756628;0.0;-0.022785852;1010.6448;  4.0474111E-01;8818.6338;3;-58.298363;0.0;-0.38440752;0;0.46309969;  9.9957002E+03;  0.0000000E+00; -5.6536443E-05;  1.0000000E+04;  0.0000000E+00;  9.9805674E+03;0.082552694;0.0;0.38054699;9126.543
  6.5959483E-01;  9.9999998E-03; -4.0035237E-02;2065;-0.18590648;0.0;-0.015638096;1010.6553;  4.0474117E-01;8827.3242;3;-58.524685;0.0;-0.278575;0;0.48310649;  9.9956982E+03;  0.0000000E+00; -2.8350745E-05;  1.0000000E+04;  0.0000000E+00;  9.9807773E+03;0.080851607;0.0;0.40225488;8993.374
  6.5959746E-01;  9.9999998E-03; -2.0017680E-02;2066;-0.18493015;0.0;-0.0079563214;1010.6624;  4.0474114E-01;8833.25;3;-58.676094;0.0;-0.096590914;0;0.49664044;  9.9956904E+03;  0.0000000E+00; -7.4763666E-06;  1.0000000E+04;  0.0000000E+00;  9.9809219E+03;0.07993985;0.0;0.4167006;8900.5498
  6.7952317E-01;  9.9999998E-03; -1.8020065E-01;2089;-0.20653203;0.0;-0.066229887;1012.946;  4.0623999E-01;10724.907;3;-53.614799;0.0;-1.4670445;0;0.8034482;  9.9737832E+03;  0.0000000E+00;  4.6045381E-05;  1.0000000E+04;  0.0000000E+00;  9.9740391E+03;0.527632;0.0;0.2758162;12409.279
  6.7953658E-01;  9.9999998E-03; -1.6017973E-01;2090;-0.20356941;0.0;-0.061314043;1013.0428;  4.0623984E-01;10805.098;3;-54.953037;0.0;-0.29310662;0;0.80291671;  9.9748838E+03;  0.0000000E+00; -3.4207251E-04;  1.0000000E+04;  0.0000000E+00;  9.9748545E+03;0.50619137;0.0;0.29672533;11988.061
  6.7954826E-01;  9.9999998E-03; -1.4015819E-01;2091;-0.20082258;0.0;-0.056457631;1013.1156;  4.0623966E-01;10865.438;3;-56.189663;0.0;0.1005434;0;0.81335789;  9.9756924E+03;  0.0000000E+00; -3.3222878E-04;  1.0000000E+04;  0.0000000E+00;  9.9754873E+03;0.48982897;0.0;0.32352892;11645.386
  6.7955846E-01;  9.9999998E-03; -1.2013479E-01;2092;-0.19823387;0.0;-0.050922174;1013.1674;  4.0623948E-01;10908.299;3;-57.18544;0.0;-0.024392704;0;0.83206624;  9.9762871E+03;  0.0000000E+00; -2.5216746E-04;  1.0000000E+04;  0.0000000E+00;  9.9759258E+03;0.47719848;0.0;0.35486776;11390.846
  6.7956740E-01;  9.9999998E-03; -1.0011101E-01;2093;-0.1957453;0.0;-0.044604052;1013.2071;  4.0623942E-01;10941.185;3;-57.904713;0.0;-0.31488389;0;0.85625553;  9.9767256E+03;  0.0000000E+00; -1.8308287E-04;  1.0000000E+04;  0.0000000E+00;  9.9762627E+03;0.46738729;0.0;0.38886824;11178.483
  6.7957509E-01;  9.9999998E-03; -8.0087990E-02;2094;-0.19346312;0.0;-0.037567653;1013.24;  4.0623933E-01;10968.442;3;-58.567326;0.0;-0.79932171;0;0.88350302;  9.9770488E+03;  0.0000000E+00; -1.3150221E-04;  1.0000000E+04;  0.0000000E+00;  9.9765938E+03;0.45990345;0.0;0.42359957;10968.762
  6.7958128E-01;  9.9999998E-03; -6.0065869E-02;2095;-0.19147907;0.0;-0.029594097;1013.269;  4.0623933E-01;10992.439;3;-59.081322;0.0;-1.0746946;0;0.91076446;  9.9772813E+03;  0.0000000E+00; -8.4165054E-05;  1.0000000E+04;  0.0000000E+00;  9.9769355E+03;0.45443422;0.0;0.45633024;10755.617
  6.7958581E-01;  9.9999998E-03; -4.0044148E-02;2096;-0.18998793;0.0;-0.020642012;1013.2921;  4.0623918E-01;11011.599;3;-59.520966;0.0;-1.0918225;0;0.93431604;  9.9774375E+03;  0.0000000E+00; -4.0768420E-05;  1.0000000E+04;  0.0000000E+00;  9.9772402E+03;0.45073953;0.0;0.48357651;10566.401
  6.7958856E-01;  9.9999998E-03; -2.0022200E-02;2097;-0.18905456;0.0;-0.010629456;1013.3069;  4.0623909E-01;11023.845;3;-59.797089;0.0;-0.66511214;0;0.95040643;  9.9775225E+03;  0.0000000E+00; -1.0571408E-05;  1.0000000E+04;  0.0000000E+00;  9.9774502E+03;0.44861963;0.0;0.50178683;10437.134
  6.9954002E-01;  9.9999998E-03; -1.8025263E-01;2120;-0.20084243;0.0;-0.086108185;1013.7265;  4.0706345E-01;11371.241;3;-52.338024;0.0;-2.6154592;0;1.2615582;  9.9522217E+03;  0.0000000E+00;  2.6584946E-04;  1.0000000E+04;  0.0000000E+00;  9.9705215E+03;0.96352744;0.0;0.29803073;14039.148
  6.9955218E-01;  9.9999998E-03; -1.6022553E-01;2121;-0.19843309;0.0;-0.079548411;1013.8366;  4.0706280E-01;11462.49;3;-53.751797;0.0;-1.2153466;0;1.2673285;  9.9538018E+03;  0.0000000E+00; -1.5626368E-04;  1.0000000E+04;  0.0000000E+00;  9.9711260E+03;0.93717444;0.0;0.33015406;13708.029
  6.9956231E-01;  9.9999998E-03; -1.4019720E-01;2122;-0.19655079;0.0;-0.07292711;1013.9263;  4.0706250E-01;11536.754;3;-55.025742;0.0;-0.78813219;0;1.2837903;  9.9550732E+03;  0.0000000E+00; -2.3389836E-04;  1.0000000E+04;  0.0000000E+00;  9.9716416E+03;0.91553926;0.0;0.36825114;13411.37
  6.9957089E-01;  9.9999998E-03; -1.2016657E-01;2123;-0.1950745;0.0;-0.065597191;1013.9985;  4.0706217E-01;11596.6;3;-56.280819;0.0;-1.342868;0;1.3074931;  9.9560928E+03;  0.0000000E+00; -2.2113672E-04;  1.0000000E+04;  0.0000000E+00;  9.9720625E+03;0.89787024;0.0;0.40962282;13153.957
  6.9957882E-01;  9.9999998E-03; -1.0013602E-01;2124;-0.19341934;0.0;-0.057434332;1014.0596;  4.0706179E-01;11647.162;3;-57.359024;0.0;-2.25348;0;1.3357493;  9.9569063E+03;  0.0000000E+00; -1.8414740E-04;  1.0000000E+04;  0.0000000E+00;  9.9724590E+03;0.88349015;0.0;0.45225909;12902.675
  6.9958609E-01;  9.9999998E-03; -8.0106996E-02;2125;-0.19156872;0.0;-0.048320435;1014.1134;  4.0706164E-01;11691.8;3;-58.43111;0.0;-3.126801;0;1.3665652;  9.9575488E+03;  0.0000000E+00; -1.3899300E-04;  1.0000000E+04;  0.0000000E+00;  9.9728896E+03;0.87200421;0.0;0.49456099;12633.982
  6.9959205E-01;  9.9999998E-03; -6.0079601E-02;2126;-0.18982866;0.0;-0.037995812;1014.1605;  4.0706143E-01;11730.808;3;-59.281067;0.0;-3.3040254;0;1.3971732;  9.9580332E+03;  0.0000000E+00; -8.8617227E-05;  1.0000000E+04;  0.0000000E+00;  9.9733389E+03;0.86320716;0.0;0.533966;12357.477
  6.9959641E-01;  9.9999998E-03; -4.0053125E-02;2127;-0.18845433;0.0;-0.026394019;1014.1977;  4.0706131E-01;11761.617;3;-59.877682;0.0;-2.7119887;0;1.4236946;  9.9583721E+03;  0.0000000E+00; -4.2231044E-05;  1.0000000E+04;  0.0000000E+00;  9.9737412E+03;0.85699713;0.0;0.56669748;12113.945
  6.9959903E-01;  9.9999998E-03; -2.0026699E-02;2128;-0.18765095;0.0;-0.013593633;1014.2216;  4.0706107E-01;11781.468;3;-60.351536;0.0;-1.535605;0;1.4419016;  9.9585752E+03;  0.0000000E+00; -1.0831326E-05;  1.0000000E+04;  0.0000000E+00;  9.9740127E+03;0.85330707;0.0;0.5885945;11948.897
  7.1961683E-01;  9.9999998E-03; -1.8030348E-01;2151;-0.17677957;0.0;-0.11227263;1013.5593;  4.0742496E-01;11232.48;3;-48.36969;0.0;-9.0613976;0;1.6670399;  9.9339043E+03;  0.0000000E+00;  3.3129769E-04;  1.0000000E+04;  0.0000000E+00;  9.9678438E+03;1.35548;0.0;0.31155998;15271.904
  7.1962875E-01;  9.9999998E-03; -1.6027158E-01;2152;-0.17468604;0.0;-0.10471793;1013.6699;  4.0742421E-01;11324.123;3;-50.190979;0.0;-8.0957413;0;1.6830069;  9.9358018E+03;  0.0000000E+00;  1.1139431E-05;  1.0000000E+04;  0.0000000E+00;  9.9681484E+03;1.3280779;0.0;0.354929;15079.138
  7.1963996E-01;  9.9999998E-03; -1.4023633E-01;2153;-0.17257631;0.0;-0.095574148;1013.7673;  4.0742382E-01;11404.704;3;-52.21133;0.0;-7.8837357;0;1.7084805;  9.9374590E+03;  0.0000000E+00; -9.2288821E-05;  1.0000000E+04;  0.0000000E+00;  9.9684229E+03;1.3031831;0.0;0.40529737;14885.307
  7.1965015E-01;  9.9999998E-03; -1.2019776E-01;2154;-0.17019549;0.0;-0.084486112;1013.8536;  4.0742326E-01;11476.3;3;-54.044403;0.0;-8.0338373;0;1.7388606;  9.9388760E+03;  0.0000000E+00; -1.2476763E-04;  1.0000000E+04;  0.0000000E+00;  9.9687188E+03;1.2811655;0.0;0.45769519;14676.005
  7.1965927E-01;  9.9999998E-03; -1.0016008E-01;2155;-0.16746691;0.0;-0.072515041;1013.9325;  4.0742278E-01;11541.574;3;-55.258972;0.0;-8.0484543;0;1.7716844;  9.9400635E+03;  0.0000000E+00; -1.2250037E-04;  1.0000000E+04;  0.0000000E+00;  9.9690957E+03;1.2620542;0.0;0.5096302;14425.222
  7.1966696E-01;  9.9999998E-03; -8.0125093E-02;2156;-0.16468433;0.0;-0.06000584;1014.0052;  4.0742260E-01;11601.912;3;-55.989712;0.0;-7.7174368;0;1.8056899;  9.9410371E+03;  0.0000000E+00; -9.8744815E-05;  1.0000000E+04;  0.0000000E+00;  9.9695693E+03;1.245945;0.0;0.55974495;14125.607
  7.1967310E-01;  9.9999998E-03; -6.0092688E-02;2157;-0.16213441;0.0;-0.046695095;1014.0696;  4.0742213E-01;11655.238;3;-56.29081;0.0;-6.7405467;0;1.8388134;  9.9417871E+03;  0.0000000E+00; -6.3776744E-05;  1.0000000E+04;  0.0000000E+00;  9.9700898E+03;1.2330527;0.0;0.60576069;13805.283
  7.1967763E-01;  9.9999998E-03; -4.0061712E-02;2158;-0.1601043;0.0;-0.032233682;1014.1203;  4.0742189E-01;11697.208;3;-56.422478;0.0;-5.0574937;0;1.8674124;  9.9423252E+03;  0.0000000E+00; -3.0119403E-05;  1.0000000E+04;  0.0000000E+00;  9.9705615E+03;1.2236294;0.0;0.64378309;13520.791
  7.1968043E-01;  9.9999998E-03; -2.0030968E-02;2159;-0.15878543;0.0;-0.016526513;1014.1526;  4.0742180E-01;11723.97;3;-56.46418;0.0;-2.7233706;0;1.8870776;  9.9426484E+03;  0.0000000E+00; -7.6204938E-06;  1.0000000E+04;  0.0000000E+00;  9.9708789E+03;1.21789;0.0;0.66918749;13327.933
  7.3975354E-01;  9.9999998E-03; -1.8032081E-01;2182;-0.11535486;0.0;-0.11753047;1013.2426;  4.0756759E-01;10969.69;3;-32.085243;0.0;-8.5014515;0;1.9382807;  9.9224336E+03;  0.0000000E+00;  2.4410218E-04;  1.0000000E+04;  0.0000000E+00;  9.9661240E+03;1.6222792;0.0;0.31600156;16063.108
  7.3976135E-01;  9.9999998E-03; -1.6028865E-01;2183;-0.1143521;0.0;-0.11054452;1013.3425;  4.0756708E-01;11052.442;3;-33.732849;0.0;-7.8817525;0;1.966769;  9.9244609E+03;  0.0000000E+00;  8.3716448E-05;  1.0000000E+04;  0.0000000E+00;  9.9660928E+03;1.5974376;0.0;0.36933142;16025.901
  7.3976922E-01;  9.9999998E-03; -1.4025205E-01;2184;-0.11291981;0.0;-0.10131799;1013.4388;  4.0756628E-01;11132.231;3;-35.261536;0.0;-7.766068;0;2.0019121;  9.9263779E+03;  0.0000000E+00;  1.4108520E-05;  1.0000000E+04;  0.0000000E+00;  9.9660908E+03;1.5714488;0.0;0.43046319;15958.233
  7.3977649E-01;  9.9999998E-03; -1.2021164E-01;2185;-0.11120655;0.0;-0.089926414;1013.5314;  4.0756580E-01;11208.86;3;-36.535786;0.0;-7.9290652;0;2.0392277;  9.9281113E+03;  0.0000000E+00; -2.4687433E-05;  1.0000000E+04;  0.0000000E+00;  9.9661992E+03;1.5461242;0.0;0.49310341;15831.462
  7.3978299E-01;  9.9999998E-03; -1.0017197E-01;2186;-0.10933528;0.0;-0.077626504;1013.6216;  4.0756536E-01;11283.613;3;-37.495556;0.0;-8.1383953;0;2.0766454;  9.9296191E+03;  0.0000000E+00; -4.1417839E-05;  1.0000000E+04;  0.0000000E+00;  9.9664736E+03;1.5226626;0.0;0.55398279;15618.051
  7.3978853E-01;  9.9999998E-03; -8.0134884E-02;2187;-0.10743982;0.0;-0.064612269;1013.7075;  4.0756491E-01;11354.71;3;-38.142017;0.0;-8.0035553;0;2.1136661;  9.9308701E+03;  0.0000000E+00; -3.9690549E-05;  1.0000000E+04;  0.0000000E+00;  9.9669229E+03;1.5019902;0.0;0.61167586;15321.378
  7.3979300E-01;  9.9999998E-03; -6.0100269E-02;2188;-0.10567851;0.0;-0.050532147;1013.7845;  4.0756446E-01;11418.601;3;-38.522774;0.0;-7.1560202;0;2.1489482;  9.9318613E+03;  0.0000000E+00; -2.7043392E-05;  1.0000000E+04;  0.0000000E+00;  9.9674609E+03;1.4849086;0.0;0.66403949;14985.563
  7.3979634E-01;  9.9999998E-03; -4.0066916E-02;2189;-0.10423183;0.0;-0.034999464;1013.8454;  4.0756422E-01;11469.062;3;-38.712505;0.0;-5.4371977;0;2.1791968;  9.9325732E+03;  0.0000000E+00; -1.2735785E-05;  1.0000000E+04;  0.0000000E+00;  9.9679580E+03;1.4721308;0.0;0.70706594;14681.477
  7.3979843E-01;  9.9999998E-03; -2.0033630E-02;2190;-0.10327593;0.0;-0.017978262;1013.8843;  4.0756416E-01;11501.253;3;-38.788506;0.0;-2.9447978;0;2.1999664;  9.9330020E+03;  0.0000000E+00; -3.1618024E-06;  1.0000000E+04;  0.0000000E+00;  9.9682949E+03;1.4642179;0.0;0.73574853;14474.128
  7.5986344E-01;  9.9999998E-03; -1.8032856E-01;2213;-0.065336235;0.0;-0.11789528;1013.1405;  4.0762138E-01;10884.619;3;-18.748022;0.0;-6.3210478;0;2.0468407;  9.9187529E+03;  0.0000000E+00;  1.1436069E-04;  1.0000000E+04;  0.0000000E+00;  9.9652012E+03;1.730983;0.0;0.31585759;16493.033
  7.5986719E-01;  9.9999998E-03; -1.6029748E-01;2214;-0.065464981;0.0;-0.11199997;1013.2255;  4.0762076E-01;10954.925;3;-20.07552;0.0;-6.0713711;0;2.0858817;  9.9207363E+03;  0.0000000E+00;  7.1988674E-05;  1.0000000E+04;  0.0000000E+00;  9.9649229E+03;1.710994;0.0;0.37488765;16572.111
  7.5987130E-01;  9.9999998E-03; -1.4026107E-01;2215;-0.06518735;0.0;-0.10353893;1013.3142;  4.0762013E-01;11028.489;3;-21.355061;0.0;-6.3902264;0;2.1294241;  9.9227461E+03;  0.0000000E+00;  4.7186648E-05;  1.0000000E+04;  0.0000000E+00;  9.9646777E+03;1.6860971;0.0;0.44332683;16616.961
  7.5987536E-01;  9.9999998E-03; -1.2022016E-01;2216;-0.064606033;0.0;-0.092613421;1013.4052;  4.0761957E-01;11103.83;3;-22.476851;0.0;-7.012568;0;2.1732664;  9.9246484E+03;  0.0000000E+00;  2.4259018E-05;  1.0000000E+04;  0.0000000E+00;  9.9645811E+03;1.6594334;0.0;0.51383305;16580.426
  7.5987911E-01;  9.9999998E-03; -1.0017958E-01;2217;-0.063810199;0.0;-0.080496006;1013.4982;  4.0761900E-01;11180.851;3;-23.380117;0.0;-7.6347318;0;2.2155304;  9.9263506E+03;  0.0000000E+00;  7.5716425E-06;  1.0000000E+04;  0.0000000E+00;  9.9647246E+03;1.6333774;0.0;0.58215284;16425.061
  7.5988239E-01;  9.9999998E-03; -8.0141343E-02;2218;-0.06289275;0.0;-0.067392282;1013.5895;  4.0761855E-01;11256.488;3;-24.047247;0.0;-7.8185377;0;2.2561169;  9.9277881E+03;  0.0000000E+00; -3.8654750E-07;  1.0000000E+04;  0.0000000E+00;  9.9650986E+03;1.60967;0.0;0.6464467;16157.387
  7.5988513E-01;  9.9999998E-03; -6.0105387E-02;2219;-0.061963692;0.0;-0.052951358;1013.6727;  4.0761811E-01;11325.41;3;-24.49482;0.0;-7.1705437;0;2.2941227;  9.9289307E+03;  0.0000000E+00; -1.8501543E-06;  1.0000000E+04;  0.0000000E+00;  9.9656016E+03;1.5896769;0.0;0.70444578;15831.763
  7.5988722E-01;  9.9999998E-03; -4.0070496E-02;2220;-0.061155457;0.0;-0.036796015;1013.7386;  4.0761799E-01;11380.016;3;-24.763193;0.0;-5.5300479;0;2.3264298;  9.9297578E+03;  0.0000000E+00; -9.0014788E-07;  1.0000000E+04;  0.0000000E+00;  9.9660850E+03;1.5745053;0.0;0.75192446;15529.14
  7.5988853E-01;  9.9999998E-03; -2.0035475E-02;2221;-0.060602196;0.0;-0.018937385;1013.7809;  4.0761781E-01;11414.971;3;-24.899523;0.0;-3.0182436;0;2.3485353;  9.9302598E+03;  0.0000000E+00; -1.3893316E-07;  1.0000000E+04;  0.0000000E+00;  9.9664180E+03;1.5650207;0.0;0.78351456;15320.964
  7.7994603E-01;  9.9999998E-03; -1.8033081E-01;2244;-0.028190069;0.0;-0.11677477;1013.2805;  4.0764081E-01;10999.805;3;-9.4530897;0.0;-4.6014829;0;2.0303192;  9.9209219E+03;  0.0000000E+00;  2.8371311E-05;  1.0000000E+04;  0.0000000E+00;  9.9648418E+03;1.7153803;0.0;0.31493902;16663.396
  7.7994680E-01;  9.9999998E-03; -1.6030091E-01;2245;-0.028834233;0.0;-0.11171579;1013.3522;  4.0764019E-01;11059.146;3;-10.244884;0.0;-4.5458388;0;2.075315;  9.9227607E+03;  0.0000000E+00;  3.1815118E-05;  1.0000000E+04;  0.0000000E+00;  9.9644404E+03;1.7001672;0.0;0.37514782;16799.9
  7.7994794E-01;  9.9999998E-03; -1.4026506E-01;2246;-0.029230276;0.0;-0.10391507;1013.431;  4.0763953E-01;11124.51;3;-11.076553;0.0;-5.1326203;0;2.1241825;  9.9247363E+03;  0.0000000E+00;  3.0289242E-05;  1.0000000E+04;  0.0000000E+00;  9.9640361E+03;1.6773489;0.0;0.44683364;16919.293
  7.7994931E-01;  9.9999998E-03; -1.2022422E-01;2247;-0.029415483;0.0;-0.093455821;1013.5156;  4.0763894E-01;11194.515;3;-11.867342;0.0;-6.0572853;0;2.1729279;  9.9266699E+03;  0.0000000E+00;  2.3214674E-05;  1.0000000E+04;  0.0000000E+00;  9.9637832E+03;1.650974;0.0;0.52195388;16956.004
  7.7995068E-01;  9.9999998E-03; -1.0018340E-01;2248;-0.029419014;0.0;-0.081621051;1013.605;  4.0763849E-01;11268.567;3;-12.558687;0.0;-6.9700694;0;2.2195277;  9.9284326E+03;  0.0000000E+00;  1.5177687E-05;  1.0000000E+04;  0.0000000E+00;  9.9637979E+03;1.6242336;0.0;0.59529424;16858.377
  7.7995193E-01;  9.9999998E-03; -8.0144726E-02;2249;-0.029274546;0.0;-0.06862478;1013.695;  4.0763795E-01;11343.113;3;-13.116484;0.0;-7.4031191;0;2.2638545;  9.9299355E+03;  0.0000000E+00;  9.0148887E-06;  1.0000000E+04;  0.0000000E+00;  9.9640791E+03;1.5994288;0.0;0.66442579;16630.152
  7.7995312E-01;  9.9999998E-03; -6.0108166E-02;2250;-0.029033216;0.0;-0.054110531;1013.7778;  4.0763763E-01;11411.736;3;-13.529057;0.0;-6.9447165;0;2.3050296;  9.9311348E+03;  0.0000000E+00;  5.0214444E-06;  1.0000000E+04;  0.0000000E+00;  9.9645215E+03;1.5782727;0.0;0.72675699;16329.69
  7.7995408E-01;  9.9999998E-03; -4.0072493E-02;2251;-0.028770134;0.0;-0.037699919;1013.8443;  4.0763742E-01;11466.732;3;-13.803595;0.0;-5.4275727;0;2.3398316;  9.9320049E+03;  0.0000000E+00;  2.3828011E-06;  1.0000000E+04;  0.0000000E+00;  9.9649648E+03;1.5620987;0.0;0.77773285;16042.731
  7.7995467E-01;  9.9999998E-03; -2.0036526E-02;2252;-0.028568411;0.0;-0.019433251;1013.8865;  4.0763718E-01;11501.784;3;-13.957441;0.0;-2.9829407;0;2.3635645;  9.9325361E+03;  0.0000000E+00;  6.5711981E-07;  1.0000000E+04;  0.0000000E+00;  9.9652744E+03;1.5519373;0.0;0.81162703;15843.549
  8.0001318E-01;  9.9999998E-03; -1.8032937E-01;2275;0.0023185124;0.0;-0.11515395;1013.5555;  4.0764651E-01;11226.572;3;-1.7605858;0.0;-3.6772072;0;1.9495206;  9.9260244E+03;  0.0000000E+00; -5.2410872E-08;  1.0000000E+04;  0.0000000E+00;  9.9648418E+03;1.6341119;0.0;0.31540874;16656.857
  8.0001169E-01;  9.9999998E-03; -1.6030030E-01;2276;0.0014469044;0.0;-0.11049898;1013.6195;  4.0764579E-01;11279.589;3;-1.9993792;0.0;-3.6127827;0;1.9948227;  9.9277109E+03;  0.0000000E+00;  4.1921958E-06;  1.0000000E+04;  0.0000000E+00;  9.9644414E+03;1.6214041;0.0;0.37341872;16796.322
  8.0001050E-01;  9.9999998E-03; -1.4026505E-01;2277;0.00064160692;0.0;-0.10308457;1013.6904;  4.0764514E-01;11338.332;3;-2.3391123;0.0;-4.2637062;0;2.0448062;  9.9295957E+03;  0.0000000E+00;  6.0509874E-06;  1.0000000E+04;  0.0000000E+00;  9.9639785E+03;1.6000065;0.0;0.44479975;16945.432
  8.0000961E-01;  9.9999998E-03; -1.2022458E-01;2278;-6.7888504e-05;0.0;-0.092952862;1013.7676;  4.0764454E-01;11402.209;3;-2.7325432;0.0;-5.2960501;0;2.0956159;  9.9314727E+03;  0.0000000E+00;  5.7783709E-06;  1.0000000E+04;  0.0000000E+00;  9.9636357E+03;1.5743928;0.0;0.52122319;17024.533
  8.0000895E-01;  9.9999998E-03; -1.0018399E-01;2279;-0.00065352552;0.0;-0.081387714;1013.8505;  4.0764406E-01;11470.924;3;-3.1321106;0.0;-6.3408589;0;2.1448717;  9.9331963E+03;  0.0000000E+00;  4.5380334E-06;  1.0000000E+04;  0.0000000E+00;  9.9635615E+03;1.5481017;0.0;0.59677017;16968.4
  8.0000854E-01;  9.9999998E-03; -8.0145434E-02;2280;-0.0010954954;0.0;-0.068599597;1013.9353;  4.0764371E-01;11541.12;3;-3.4976492;0.0;-6.9171376;0;2.1920962;  9.9346729E+03;  0.0000000E+00;  3.1544391E-06;  1.0000000E+04;  0.0000000E+00;  9.9637676E+03;1.5236194;0.0;0.66847676;16775.311
  8.0000830E-01;  9.9999998E-03; -6.0108870E-02;2281;-0.0013924972;0.0;-0.05421441;1014.0138;  4.0764335E-01;11606.083;3;-3.7988517;0.0;-6.5998182;0;2.2360797;  9.9358496E+03;  0.0000000E+00;  1.9316744E-06;  1.0000000E+04;  0.0000000E+00;  9.9641455E+03;1.502713;0.0;0.73336679;16502.855
  8.0000824E-01;  9.9999998E-03; -4.0073067E-02;2282;-0.0015671774;0.0;-0.037840534;1014.077;  4.0764305E-01;11658.409;3;-4.0193181;0.0;-5.2110071;0;2.273247;  9.9367090E+03;  0.0000000E+00;  9.3874689E-07;  1.0000000E+04;  0.0000000E+00;  9.9645400E+03;1.4867229;0.0;0.78652406;16236.811
  8.0000824E-01;  9.9999998E-03; -2.0036850E-02;2283;-0.0016525817;0.0;-0.019527901;1014.1174;  4.0764272E-01;11691.878;3;-4.152339;0.0;-2.8795204;0;2.2985671;  9.9372305E+03;  0.0000000E+00;  2.5233862E-07;  1.0000000E+04;  0.0000000E+00;  9.9648193E+03;1.4766732;0.0;0.82189387;16050.951
  8.2007664E-01;  9.9999998E-03; -1.8032517E-01;2306;0.031884216;0.0;-0.11340934;1013.8444;  4.0763667E-01;11464.384;3;6.2903886;0.0;-3.5616364;0;1.8493193;  9.9318838E+03;  0.0000000E+00;  5.1421598E-06;  1.0000000E+04;  0.0000000E+00;  9.9651045E+03;1.5318589;0.0;0.31746045;16514.309
  8.2007307E-01;  9.9999998E-03; -1.6029656E-01;2307;0.03073727;0.0;-0.10875537;1013.9075;  4.0763590E-01;11516.704;3;6.4577637;0.0;-3.3345964;0;1.8898489;  9.9334814E+03;  0.0000000E+00; -2.9981541E-06;  1.0000000E+04;  0.0000000E+00;  9.9647813E+03;1.5183642;0.0;0.37148476;16620.783
  8.2006979E-01;  9.9999998E-03; -1.4026184E-01;2308;0.029547231;0.0;-0.10144819;1013.9752;  4.0763530E-01;11572.775;3;6.5167918;0.0;-3.8779957;0;1.936769;  9.9352744E+03;  0.0000000E+00; -4.4163103E-06;  1.0000000E+04;  0.0000000E+00;  9.9643418E+03;1.4966596;0.0;0.44010931;16762.711
  8.2006687E-01;  9.9999998E-03; -1.2022193E-01;2309;0.028395124;0.0;-0.091484293;1014.0469;  4.0763474E-01;11632.104;3;6.4782915;0.0;-4.8460264;0;1.9863493;  9.9370625E+03;  0.0000000E+00; -3.8969683E-06;  1.0000000E+04;  0.0000000E+00;  9.9639785E+03;1.4712621;0.0;0.51508731;16852.434
  8.2006449E-01;  9.9999998E-03; -1.0018190E-01;2310;0.027342089;0.0;-0.080139078;1014.1235;  4.0763420E-01;11695.578;3;6.3681293;0.0;-5.8752327;0;2.0358036;  9.9386992E+03;  0.0000000E+00; -3.1129482E-06;  1.0000000E+04;  0.0000000E+00;  9.9638672E+03;1.4456185;0.0;0.59018505;16815.316
  8.2006264E-01;  9.9999998E-03; -8.0143891E-02;2311;0.026438354;0.0;-0.067607559;1014.202;  4.0763384E-01;11760.533;3;6.2190037;0.0;-6.4853864;0;2.0841701;  9.9400996E+03;  0.0000000E+00; -2.3265136E-06;  1.0000000E+04;  0.0000000E+00;  9.9640273E+03;1.4220529;0.0;0.66211718;16644.357
  8.2006127E-01;  9.9999998E-03; -6.0107823E-02;2312;0.0257177;0.0;-0.053489417;1014.275;  4.0763351E-01;11820.947;3;6.0649681;0.0;-6.2431908;0;2.1297426;  9.9412119E+03;  0.0000000E+00; -1.5186097E-06;  1.0000000E+04;  0.0000000E+00;  9.9643594E+03;1.4021357;0.0;0.72760701;16393.926
  8.2006031E-01;  9.9999998E-03; -4.0072430E-02;2313;0.025196886;0.0;-0.037372243;1014.3336;  4.0763322E-01;11869.516;3;5.9341459;0.0;-4.9585195;0;2.1684542;  9.9420234E+03;  0.0000000E+00; -7.5882093E-07;  1.0000000E+04;  0.0000000E+00;  9.9647158E+03;1.3870125;0.0;0.78144157;16146.767
  8.2005978E-01;  9.9999998E-03; -2.0036552E-02;2314;0.024882564;0.0;-0.019299483;1014.371;  4.0763304E-01;11900.414;3;5.8471947;0.0;-2.7490294;0;2.1948819;  9.9425117E+03;  0.0000000E+00; -2.0530176E-07;  1.0000000E+04;  0.0000000E+00;  9.9649668E+03;1.3775524;0.0;0.81732959;15973.768
  8.4014195E-01;  9.9999998E-03; -1.8031834E-01;2337;0.063022636;0.0;-0.11138492;1013.8636;  4.0751258E-01;11478.376;3;15.414804;0.0;-4.0225;0;1.7423136;  9.9377988E+03;  0.0000000E+00;  2.3301043E-05;  1.0000000E+04;  0.0000000E+00;  9.9656182E+03;1.4224583;0.0;0.31985536;16238.628
  8.4013623E-01;  9.9999998E-03; -1.6029006E-01;2338;0.061360549;0.0;-0.10652292;1013.9323;  4.0751189E-01;11535.228;3;15.768608;0.0;-3.572206;0;1.7746117;  9.9393887E+03;  0.0000000E+00;  1.7436101E-06;  1.0000000E+04;  0.0000000E+00;  9.9653994E+03;1.4051464;0.0;0.36946541;16298.073
  8.4013087E-01;  9.9999998E-03; -1.4025591E-01;2339;0.059658561;0.0;-0.099151976;1014.0006;  4.0751120E-01;11591.883;3;16.061237;0.0;-3.9088929;0;1.8153238;  9.9411318E+03;  0.0000000E+00; -2.6483772E-06;  1.0000000E+04;  0.0000000E+00;  9.9650254E+03;1.3812987;0.0;0.4340252;16411.264
  8.4012616E-01;  9.9999998E-03; -1.2021676E-01;2340;0.058027562;0.0;-0.089261904;1014.0696;  4.0751082E-01;11649.03;3;16.26803;0.0;-4.7026405;0;1.8608226;  9.9428369E+03;  0.0000000E+00; -3.1272907E-06;  1.0000000E+04;  0.0000000E+00;  9.9647012E+03;1.3551792;0.0;0.50564337;16488.305
  8.4012222E-01;  9.9999998E-03; -1.0017761E-01;2341;0.05653245;0.0;-0.078112267;1014.1418;  4.0751031E-01;11708.744;3;16.385883;0.0;-5.6131868;0;1.9079778;  9.9443779E+03;  0.0000000E+00; -3.0323995E-06;  1.0000000E+04;  0.0000000E+00;  9.9645967E+03;1.3298227;0.0;0.57815522;16450.242
  8.4011906E-01;  9.9999998E-03; -8.0140509E-02;2342;0.055225212;0.0;-0.065876618;1014.215;  4.0750998E-01;11769.346;3;16.428179;0.0;-6.1715765;0;1.9553771;  9.9456836E+03;  0.0000000E+00; -2.7603026E-06;  1.0000000E+04;  0.0000000E+00;  9.9647480E+03;1.3071517;0.0;0.64822537;16286.78
  8.4011662E-01;  9.9999998E-03; -6.0105328E-02;2343;0.054149725;0.0;-0.052128725;1014.2828;  4.0750954E-01;11825.506;3;16.418694;0.0;-5.9424396;0;2.0008202;  9.9467158E+03;  0.0000000E+00; -2.0853063E-06;  1.0000000E+04;  0.0000000E+00;  9.9650576E+03;1.2883729;0.0;0.71244735;16048.743
  8.4011489E-01;  9.9999998E-03; -4.0070787E-02;2344;0.053344436;0.0;-0.036434405;1014.337;  4.0750930E-01;11870.414;3;16.385199;0.0;-4.7251139;0;2.0397906;  9.9474619E+03;  0.0000000E+00; -1.1251954E-06;  1.0000000E+04;  0.0000000E+00;  9.9653916E+03;1.274316;0.0;0.76547468;15814.617
  8.4011388E-01;  9.9999998E-03; -2.0035734E-02;2345;0.052843735;0.0;-0.018820746;1014.3715;  4.0750909E-01;11898.938;3;16.352989;0.0;-2.6220245;0;2.066519;  9.9479102E+03;  0.0000000E+00; -3.1303250E-07;  1.0000000E+04;  0.0000000E+00;  9.9656270E+03;1.2656034;0.0;0.80091566;15651.292
  8.6020827E-01;  9.9999998E-03; -1.8030865E-01;2368;0.095085271;0.0;-0.10871136;1013.6266;  4.0726882E-01;11279.638;3;25.253481;0.0;-4.7453132;0;1.6150265;  9.9442656E+03;  0.0000000E+00;  4.3915450E-05;  1.0000000E+04;  0.0000000E+00;  9.9664131E+03;1.294158;0.0;0.32086849;15814.412
  8.6020017E-01;  9.9999998E-03; -1.6028084E-01;2369;0.092658281;0.0;-0.1036085;1013.7036;  4.0726814E-01;11343.385;3;25.593918;0.0;-4.0842924;0;1.6374977;  9.9459248E+03;  0.0000000E+00;  7.2430262E-06;  1.0000000E+04;  0.0000000E+00;  9.9662959E+03;1.2710956;0.0;0.36640209;15829.546
  8.6019272E-01;  9.9999998E-03; -1.4024746E-01;2370;0.090291224;0.0;-0.096143961;1013.7755;  4.0726757E-01;11402.888;3;25.9561;0.0;-4.1920662;0;1.6703508;  9.9476563E+03;  0.0000000E+00;  8.3988436E-07;  1.0000000E+04;  0.0000000E+00;  9.9660049E+03;1.2439227;0.0;0.42642811;15907.663
  8.6018628E-01;  9.9999998E-03; -1.2020937E-01;2371;0.088107333;0.0;-0.08633244;1013.8446;  4.0726718E-01;11460.123;3;26.284916;0.0;-4.7723489;0;1.7099593;  9.9492920E+03;  0.0000000E+00; -7.5203033E-08;  1.0000000E+04;  0.0000000E+00;  9.9657373E+03;1.2164031;0.0;0.49355608;15960.38
  8.6018091E-01;  9.9999998E-03; -1.0017140E-01;2372;0.086151458;0.0;-0.075410567;1013.9141;  4.0726680E-01;11517.652;3;26.546028;0.0;-5.5169301;0;1.752949;  9.9507422E+03;  0.0000000E+00; -6.1661262E-07;  1.0000000E+04;  0.0000000E+00;  9.9656738E+03;1.1909652;0.0;0.56198376;15908.842
  8.6017656E-01;  9.9999998E-03; -8.0135539E-02;2373;0.084456116;0.0;-0.063531265;1013.9835;  4.0726641E-01;11575.083;3;26.726341;0.0;-5.9748049;0;1.7975416;  9.9519541E+03;  0.0000000E+00; -1.2676178E-06;  1.0000000E+04;  0.0000000E+00;  9.9658428E+03;1.1689848;0.0;0.62855679;15741.823
  8.6017323E-01;  9.9999998E-03; -6.0101595E-02;2374;0.083058216;0.0;-0.050250594;1014.047;  4.0726614E-01;11627.679;3;26.831835;0.0;-5.7155161;0;1.8411696;  9.9529004E+03;  0.0000000E+00; -1.4115866E-06;  1.0000000E+04;  0.0000000E+00;  9.9661553E+03;1.1512234;0.0;0.68994612;15507.536
  8.6017084E-01;  9.9999998E-03; -4.0068284E-02;2375;0.082003489;0.0;-0.035118252;1014.0977;  4.0726584E-01;11669.617;3;26.881811;0.0;-4.5321841;0;1.8790302;  9.9535811E+03;  0.0000000E+00; -9.0500203E-07;  1.0000000E+04;  0.0000000E+00;  9.9664814E+03;1.1381638;0.0;0.74086642;15280.429
  8.6016941E-01;  9.9999998E-03; -2.0034477E-02;2376;0.081342593;0.0;-0.018141281;1014.1295;  4.0726572E-01;11695.964;3;26.899172;0.0;-2.5122135;0;1.9051622;  9.9539893E+03;  0.0000000E+00; -2.6762484E-07;  1.0000000E+04;  0.0000000E+00;  9.9667080E+03;1.130162;0.0;0.77500021;15123.227
  8.8027126E-01;  9.9999998E-03; -1.8029591E-01;2399;0.12590598;0.0;-0.10504536;1013.213;  4.0691918E-01;10933.925;3;35.036465;0.0;-5.447227;0;1.4469508;  9.9521426E+03;  0.0000000E+00;  5.4974102E-05;  1.0000000E+04;  0.0000000E+00;  9.9675322E+03;1.1278783;0.0;0.31907246;15228.338
  8.8026083E-01;  9.9999998E-03; -1.6026889E-01;2400;0.12258457;0.0;-0.099791758;1013.2994;  4.0691853E-01;11005.545;3;35.24184;0.0;-4.631022;0;1.4595703;  9.9539082E+03;  0.0000000E+00;  2.5731038E-06;  1.0000000E+04;  0.0000000E+00;  9.9674893E+03;1.0984942;0.0;0.36107612;15210.552
  8.8025141E-01;  9.9999998E-03; -1.4023659E-01;2401;0.11947232;0.0;-0.092314281;1013.3755;  4.0691829E-01;11068.485;3;35.560776;0.0;-4.5434337;0;1.4844162;  9.9556416E+03;  0.0000000E+00; -3.2797316E-06;  1.0000000E+04;  0.0000000E+00;  9.9672734E+03;1.06787;0.0;0.41654626;15257.689
  8.8024330E-01;  9.9999998E-03; -1.2019990E-01;2402;0.11669321;0.0;-0.082668051;1013.4446;  4.0691781E-01;11125.603;3;35.913921;0.0;-4.9263844;0;1.5176523;  9.9572158E+03;  0.0000000E+00; -2.3902710E-06;  1.0000000E+04;  0.0000000E+00;  9.9670723E+03;1.0390198;0.0;0.47863245;15284.538
  8.8023663E-01;  9.9999998E-03; -1.0016347E-01;2403;0.1142615;0.0;-0.072058886;1013.5119;  4.0691745E-01;11181.34;3;36.238754;0.0;-5.5049615;0;1.5556517;  9.9585674E+03;  0.0000000E+00; -1.7661704E-06;  1.0000000E+04;  0.0000000E+00;  9.9670566E+03;1.0135956;0.0;0.54205614;15215.151
  8.8023120E-01;  9.9999998E-03; -8.0129169E-02;2404;0.11218165;0.0;-0.060624529;1013.5776;  4.0691718E-01;11235.695;3;36.496265;0.0;-5.8496847;0;1.5963535;  9.9596787E+03;  0.0000000E+00; -1.9870256E-06;  1.0000000E+04;  0.0000000E+00;  9.9672588E+03;0.99235064;0.0;0.60400283;15039.287
  8.8022709E-01;  9.9999998E-03; -6.0096778E-02;2405;0.11047614;0.0;-0.047915675;1013.6373;  4.0691689E-01;11285.12;3;36.674335;0.0;-5.5415668;0;1.6369861;  9.9605332E+03;  0.0000000E+00; -1.9654924E-06;  1.0000000E+04;  0.0000000E+00;  9.9675889E+03;0.9755947;0.0;0.66139144;14803.849
  8.8022411E-01;  9.9999998E-03; -4.0065039E-02;2406;0.10919057;0.0;-0.033475202;1013.6844;  4.0691668E-01;11324.087;3;36.780479;0.0;-4.3729248;0;1.67268;  9.9611455E+03;  0.0000000E+00; -1.2162657E-06;  1.0000000E+04;  0.0000000E+00;  9.9679160E+03;0.96348399;0.0;0.70919603;14580.003
  8.8022226E-01;  9.9999998E-03; -2.0032836E-02;2407;0.10838435;0.0;-0.017290425;1013.7142;  4.0691650E-01;11348.749;3;36.832916;0.0;-2.4184256;0;1.6974902;  9.9615098E+03;  0.0000000E+00; -3.5234359E-07;  1.0000000E+04;  0.0000000E+00;  9.9681406E+03;0.95614785;0.0;0.74134237;14426.646
  9.0032625E-01;  9.9999998E-03; -1.8028016E-01;2430;0.15325625;0.0;-0.10022184;1012.6865;  4.0648288E-01;10494.021;3;44.084759;0.0;-5.9444804;0;1.2303985;  9.9617559E+03;  0.0000000E+00;  4.2564203E-05;  1.0000000E+04;  0.0000000E+00;  9.9689678E+03;0.91665685;0.0;0.31374171;14481.544
  9.0031368E-01;  9.9999998E-03; -1.6025431E-01;2431;0.14906946;0.0;-0.094963618;1012.7807;  4.0648231E-01;10571.925;3;44.124252;0.0;-5.0425057;0;1.2345181;  9.9636240E+03;  0.0000000E+00; -1.5842506E-05;  1.0000000E+04;  0.0000000E+00;  9.9689746E+03;0.88182694;0.0;0.35269108;14444.478
  9.0030241E-01;  9.9999998E-03; -1.4022347E-01;2432;0.14523117;0.0;-0.087607764;1012.8586;  4.0648207E-01;10636.415;3;44.352009;0.0;-4.8184719;0;1.2526551;  9.9653301E+03;  0.0000000E+00; -1.6214786E-05;  1.0000000E+04;  0.0000000E+00;  9.9688174E+03;0.84888929;0.0;0.40376589;14469.606
  9.0029281E-01;  9.9999998E-03; -1.2018855E-01;2433;0.14186101;0.0;-0.078253798;1012.9252;  4.0648174E-01;10691.54;3;44.671177;0.0;-5.0488787;0;1.2804081;  9.9668037E+03;  0.0000000E+00; -1.0838323E-05;  1.0000000E+04;  0.0000000E+00;  9.9686709E+03;0.8197785;0.0;0.4606297;14475.226
  9.0028489E-01;  9.9999998E-03; -1.0015399E-01;2434;0.13894708;0.0;-0.068070143;1012.9886;  4.0648133E-01;10744.002;3;44.998775;0.0;-5.4895825;0;1.313797;  9.9680283E+03;  0.0000000E+00; -7.4149798E-06;  1.0000000E+04;  0.0000000E+00;  9.9687090E+03;0.79522032;0.0;0.51857662;14389.654
  9.0027851E-01;  9.9999998E-03; -8.0121554E-02;2435;0.13647191;0.0;-0.057186548;1013.0496;  4.0648106E-01;10794.392;3;45.277855;0.0;-5.7344289;0;1.3505194;  9.9690078E+03;  0.0000000E+00; -5.8032474E-06;  1.0000000E+04;  0.0000000E+00;  9.9689414E+03;0.77530712;0.0;0.5752123;14204.855
  9.0027356E-01;  9.9999998E-03; -6.0091019E-02;2436;0.13445011;0.0;-0.045160886;1013.1046;  4.0648100E-01;10839.852;3;45.482048;0.0;-5.3807292;0;1.3877561;  9.9697559E+03;  0.0000000E+00; -4.3275559E-06;  1.0000000E+04;  0.0000000E+00;  9.9692910E+03;0.75992715;0.0;0.62782896;13967.388
  9.0027004E-01;  9.9999998E-03; -4.0061146E-02;2437;0.13292958;0.0;-0.031538006;1013.1481;  4.0648070E-01;10875.943;3;45.611355;0.0;-4.2244616;0;1.4207895;  9.9702822E+03;  0.0000000E+00; -2.3806203E-06;  1.0000000E+04;  0.0000000E+00;  9.9696240E+03;0.74897587;0.0;0.67181355;13745.852
  9.0026790E-01;  9.9999998E-03; -2.0030867E-02;2438;0.13197717;0.0;-0.016287105;1013.1754;  4.0648073E-01;10898.426;3;45.679001;0.0;-2.3305092;0;1.4438922;  9.9705967E+03;  0.0000000E+00; -6.5442822E-07;  1.0000000E+04;  0.0000000E+00;  9.9698555E+03;0.74240768;0.0;0.7014845;13595.666
  9.2036420E-01;  9.9999998E-03; -1.8026197E-01;2461;0.17324126;0.0;-0.094375975;1012.0685;  4.0598217E-01;9977.3613;3;51.798687;0.0;-6.1871061;0;0.98117661;  9.9724590E+03;  0.0000000E+00;  1.0160281E-05;  1.0000000E+04;  0.0000000E+00;  9.9706855E+03;0.67630142;0.0;0.3048752;13592.345
  9.2034781E-01;  9.9999998E-03; -1.6023754E-01;2462;0.1673899;0.0;-0.089203745;1012.1656;  4.0598196E-01;10057.588;3;51.562786;0.0;-5.2651687;0;0.97956753;  9.9743545E+03;  0.0000000E+00; -3.6989615E-05;  1.0000000E+04;  0.0000000E+00;  9.9707148E+03;0.63840765;0.0;0.34115985;13548.227
  9.2033362E-01;  9.9999998E-03; -1.4020845E-01;2463;0.16219985;0.0;-0.082068942;1012.2401;  4.0598160E-01;10119.287;3;51.531292;0.0;-4.9577308;0;0.99353182;  9.9759609E+03;  0.0000000E+00; -2.8461342E-05;  1.0000000E+04;  0.0000000E+00;  9.9705928E+03;0.6054405;0.0;0.38809136;13560.976
  9.2032164E-01;  9.9999998E-03; -1.2017566E-01;2464;0.15769954;0.0;-0.073127382;1012.3006;  4.0598130E-01;10169.258;3;51.554783;0.0;-5.0736771;0;1.0177692;  9.9772725E+03;  0.0000000E+00; -1.8791690E-05;  1.0000000E+04;  0.0000000E+00;  9.9704912E+03;0.57797474;0.0;0.43979448;13552.252
  9.2031163E-01;  9.9999998E-03; -1.0014335E-01;2465;0.15383536;0.0;-0.063493654;1012.3571;  4.0598115E-01;10215.877;3;51.661896;0.0;-5.4029841;0;1.0478518;  9.9783125E+03;  0.0000000E+00; -1.3097604E-05;  1.0000000E+04;  0.0000000E+00;  9.9705625E+03;0.55573988;0.0;0.49211192;13455.193
  9.2030346E-01;  9.9999998E-03; -8.0113150E-02;2466;0.15057658;0.0;-0.053281318;1012.4106;  4.0598094E-01;10260.229;3;51.752682;0.0;-5.5578299;0;1.0812981;  9.9791182E+03;  0.0000000E+00; -9.8109840E-06;  1.0000000E+04;  0.0000000E+00;  9.9708242E+03;0.53820145;0.0;0.54309666;13264.546
  9.2029715E-01;  9.9999998E-03; -6.0084756E-02;2467;0.14795567;0.0;-0.042054571;1012.4595;  4.0598071E-01;10300.638;3;51.834774;0.0;-5.1684556;0;1.1153877;  9.9797217E+03;  0.0000000E+00; -6.8359700E-06;  1.0000000E+04;  0.0000000E+00;  9.9711943E+03;0.52489716;0.0;0.59049046;13026.962
  9.2029262E-01;  9.9999998E-03; -4.0056970E-02;2468;0.14602935;0.0;-0.029362218;1012.4979;  4.0598065E-01;10332.374;3;51.897697;0.0;-4.0379601;0;1.1457443;  9.9801426E+03;  0.0000000E+00; -3.5635869E-06;  1.0000000E+04;  0.0000000E+00;  9.9715371E+03;0.51553679;0.0;0.63020754;12808.743
  9.2028987E-01;  9.9999998E-03; -2.0028772E-02;2469;0.14485347;0.0;-0.01516196;1012.5219;  4.0598050E-01;10352.185;3;51.940392;0.0;-2.2226515;0;1.1670364;  9.9803896E+03;  0.0000000E+00; -9.7252826E-07;  1.0000000E+04;  0.0000000E+00;  9.9717666E+03;0.50996488;0.0;0.65707153;12662.099
  9.4037300E-01;  9.9999998E-03; -1.8024240E-01;2492;0.17864485;0.0;-0.08808849;1011.3455;  4.0544155E-01;9372.707;3;55.270271;0.0;-6.4909658;0;0.73300552;  9.9828721E+03;  0.0000000E+00; -1.6010308E-05;  1.0000000E+04;  0.0000000E+00;  9.9726113E+03;0.44006726;0.0;0.29293826;12591.373
  9.4035488E-01;  9.9999998E-03; -1.6021942E-01;2493;0.17200796;0.0;-0.08287169;1011.4395;  4.0544134E-01;9450.416;3;54.726173;0.0;-5.4494143;0;0.72894526;  9.9847031E+03;  0.0000000E+00; -4.1869465E-05;  1.0000000E+04;  0.0000000E+00;  9.9726436E+03;0.40204;0.0;0.32690528;12549.118
  9.4033951E-01;  9.9999998E-03; -1.4019223E-01;2494;0.16620567;0.0;-0.075961508;1011.5062;  4.0544114E-01;9505.4727;3;54.301441;0.0;-5.0020647;0;0.74141192;  9.9861328E+03;  0.0000000E+00; -2.8227480E-05;  1.0000000E+04;  0.0000000E+00;  9.9725361E+03;0.37137881;0.0;0.37003314;12557.457
  9.4032663E-01;  9.9999998E-03; -1.2016184E-01;2495;0.16122304;0.0;-0.067511909;1011.5571;  4.0544090E-01;9547.5293;3;54.001373;0.0;-4.9886909;0;0.76408869;  9.9872256E+03;  0.0000000E+00; -1.8627476E-05;  1.0000000E+04;  0.0000000E+00;  9.9724600E+03;0.34726417;0.0;0.41682452;12541.085
  9.4031596E-01;  9.9999998E-03; -1.0013202E-01;2496;0.1569877;0.0;-0.058505278;1011.6031;  4.0544084E-01;9585.5479;3;53.824123;0.0;-5.1962667;0;0.79212749;  9.9880400E+03;  0.0000000E+00; -1.3562212E-05;  1.0000000E+04;  0.0000000E+00;  9.9725635E+03;0.32852125;0.0;0.46360624;12438.127
  9.4030726E-01;  9.9999998E-03; -8.0104224E-02;2497;0.15346532;0.0;-0.049027424;1011.6481;  4.0544066E-01;9622.6787;3;53.734882;0.0;-5.2693591;0;0.82298285;  9.9886475E+03;  0.0000000E+00; -1.0379595E-05;  1.0000000E+04;  0.0000000E+00;  9.9728447E+03;0.31411994;0.0;0.50886291;12246.114
  9.4030058E-01;  9.9999998E-03; -6.0078107E-02;2498;0.15067157;0.0;-0.038654227;1011.6891;  4.0544054E-01;9656.5586;3;53.687706;0.0;-4.85221;0;0.85419238;  9.9890850E+03;  0.0000000E+00; -7.2278276E-06;  1.0000000E+04;  0.0000000E+00;  9.9732266E+03;0.30336502;0.0;0.55082732;12011.586
  9.4029582E-01;  9.9999998E-03; -4.0052522E-02;2499;0.14864798;0.0;-0.026969479;1011.7222;  4.0544051E-01;9683.9375;3;53.667244;0.0;-3.7698545;0;0.88188666;  9.9893848E+03;  0.0000000E+00; -3.7139303E-06;  1.0000000E+04;  0.0000000E+00;  9.9735762E+03;0.29586715;0.0;0.58601952;11798.485
  9.4029295E-01;  9.9999998E-03; -2.0026525E-02;2500;0.14741656;0.0;-0.013918054;1011.7424;  4.0544048E-01;9700.582;3;53.660675;0.0;-2.067687;0;0.90129054;  9.9895596E+03;  0.0000000E+00; -9.8713701E-07;  1.0000000E+04;  0.0000000E+00;  9.9738086E+03;0.29142869;0.0;0.60986185;11656.054
  9.6037203E-01;  9.9999998E-03; -1.8022241E-01;2523;0.17912681;0.0;-0.081729114;1010.5052;  4.0488455E-01;8669.8936;3;56.301884;0.0;-6.8088102;0;0.51800847;  9.9916855E+03;  0.0000000E+00; -1.6082613E-05;  1.0000000E+04;  0.0000000E+00;  9.9746523E+03;0.23959903;0.0;0.27840945;11513.896
  9.6035343E-01;  9.9999998E-03; -1.6020088E-01;2524;0.17228602;0.0;-0.076489575;1010.5925;  4.0488422E-01;8741.9189;3;55.602932;0.0;-5.6828942;0;0.5139575;  9.9933916E+03;  0.0000000E+00; -2.4640371E-05;  1.0000000E+04;  0.0000000E+00;  9.9746738E+03;0.2035117;0.0;0.31044579;11479.162
  9.6033770E-01;  9.9999998E-03; -1.4017567E-01;2525;0.16632703;0.0;-0.069819592;1010.6489;  4.0488413E-01;8788.5605;3;55.084885;0.0;-5.124155;0;0.52659655;  9.9946191E+03;  0.0000000E+00; -1.4690055E-05;  1.0000000E+04;  0.0000000E+00;  9.9745703E+03;0.17637132;0.0;0.35022524;11488.674
  9.6032459E-01;  9.9999998E-03; -1.2014773E-01;2526;0.16118881;0.0;-0.06185884;1010.689;  4.0488395E-01;8821.624;3;54.708557;0.0;-4.9749479;0;0.54873019;  9.9954756E+03;  0.0000000E+00; -1.0317734E-05;  1.0000000E+04;  0.0000000E+00;  9.9745137E+03;0.1561898;0.0;0.3925404;11470.286
  9.6031368E-01;  9.9999998E-03; -1.0012039E-01;2527;0.15681656;0.0;-0.053440224;1010.7247;  4.0488389E-01;8851.1436;3;54.41692;0.0;-5.0382957;0;0.57523167;  9.9960693E+03;  0.0000000E+00; -8.5797537E-06;  1.0000000E+04;  0.0000000E+00;  9.9746279E+03;0.14111689;0.0;0.43411478;11367.1
  9.6030492E-01;  9.9999998E-03; -8.0094926E-02;2528;0.15318771;0.0;-0.044644564;1010.7606;  4.0488383E-01;8880.7617;3;54.22084;0.0;-4.999126;0;0.60363787;  9.9964824E+03;  0.0000000E+00; -7.2517223E-06;  1.0000000E+04;  0.0000000E+00;  9.9749229E+03;0.12982164;0.0;0.47381622;11178.884
  9.6029812E-01;  9.9999998E-03; -6.0071047E-02;2529;0.15031669;0.0;-0.035110127;1010.794;  4.0488374E-01;8908.3125;3;54.093132;0.0;-4.5479889;0;0.63187289;  9.9967666E+03;  0.0000000E+00; -5.2577989E-06;  1.0000000E+04;  0.0000000E+00;  9.9753076E+03;0.12150197;0.0;0.51037091;10951.292
  9.6029335E-01;  9.9999998E-03; -4.0047720E-02;2530;0.14824571;0.0;-0.024455462;1010.8214;  4.0488377E-01;8930.8447;3;54.019295;0.0;-3.5193684;0;0.65669882;  9.9969541E+03;  0.0000000E+00; -2.7373376E-06;  1.0000000E+04;  0.0000000E+00;  9.9756631E+03;0.11574429;0.0;0.54095453;10745.501
  9.6029055E-01;  9.9999998E-03; -2.0024091E-02;2531;0.14699626;0.0;-0.012619841;1010.8383;  4.0488356E-01;8944.8174;3;53.977596;0.0;-1.9354827;0;0.67401838;  9.9970576E+03;  0.0000000E+00; -7.1821751E-07;  1.0000000E+04;  0.0000000E+00;  9.9758955E+03;0.11234985;0.0;0.56166852;10608.101
  9.8036712E-01;  9.9999998E-03; -1.8020292E-01;2554;0.17810391;0.0;-0.075704575;1009.5622;  4.0433231E-01;7881.1416;3;56.725155;0.0;-7.2019715;0;0.35269946;  9.9982061E+03;  0.0000000E+00; -2.8945244E-06;  1.0000000E+04;  0.0000000E+00;  9.9767363E+03;0.091053024;0.0;0.26164642;10396.376
  9.8034817E-01;  9.9999998E-03; -1.6018294E-01;2555;0.17107819;0.0;-0.070560507;1009.6424;  4.0433210E-01;7947.1787;3;56.03532;0.0;-6.0968156;0;0.34967551;  9.9997988E+03;  0.0000000E+00; -1.9100312E-06;  1.0000000E+04;  0.0000000E+00;  9.9767383E+03;0.057499189;0.0;0.29217631;10371.397
  9.8033226E-01;  9.9999998E-03; -1.4015967E-01;2556;0.16493402;0.0;-0.064097978;1009.6902;  4.0433204E-01;7986.6855;3;55.434555;0.0;-5.384428;0;0.36283815;  1.0000852E+04;  0.0000000E+00;  2.3852954E-07;  1.0000000E+04;  0.0000000E+00;  9.9766348E+03;0.033681586;0.0;0.32915658;10384.689
  9.8031896E-01;  9.9999998E-03; -1.2013406E-01;2557;0.15965258;0.0;-0.056547586;1009.7213;  4.0433201E-01;8012.2393;3;54.949806;0.0;-5.0865793;0;0.38439509;  1.0001525E+04;  0.0000000E+00; -1.0782892E-06;  1.0000000E+04;  0.0000000E+00;  9.9765811E+03;0.016798617;0.0;0.36759648;10368.229
  9.8030806E-01;  9.9999998E-03; -1.0010909E-01;2558;0.15517364;0.0;-0.048649747;1009.7482;  4.0433192E-01;8034.4512;3;54.579792;0.0;-5.002521;0;0.40912774;  1.0001946E+04;  0.0000000E+00; -2.4281367E-06;  1.0000000E+04;  0.0000000E+00;  9.9766963E+03;0.0046073147;0.0;0.40452042;10270.185
  9.8029929E-01;  9.9999998E-03; -8.0085896E-02;2559;0.1514558;0.0;-0.040494081;1009.7766;  4.0433198E-01;8057.8398;3;54.277107;0.0;-4.8425241;0;0.43476853;  1.0002210E+04;  0.0000000E+00; -3.0337642E-06;  1.0000000E+04;  0.0000000E+00;  9.9769932E+03;-0.004329951;0.0;0.43909848;10091.578
  9.8029268E-01;  9.9999998E-03; -6.0064211E-02;2560;0.14851597;0.0;-0.031742468;1009.8043;  4.0433177E-01;8080.6392;3;54.038502;0.0;-4.321898;0;0.4596906;  1.0002374E+04;  0.0000000E+00; -2.5420834E-06;  1.0000000E+04;  0.0000000E+00;  9.9773750E+03;-0.010820695;0.0;0.47051129;9875.7412
  9.8028797E-01;  9.9999998E-03; -4.0043067E-02;2561;0.14637852;0.0;-0.022039535;1009.8267;  4.0433171E-01;8099.2104;3;53.869431;0.0;-3.292259;0;0.48132744;  1.0002471E+04;  0.0000000E+00; -1.3862466E-06;  1.0000000E+04;  0.0000000E+00;  9.9777266E+03;-0.015270437;0.0;0.49659789;9680.1963
  9.8028511E-01;  9.9999998E-03; -2.0021705E-02;2562;0.14507948;0.0;-0.01133721;1009.8411;  4.0433177E-01;8111.0034;3;53.773121;0.0;-1.7874898;0;0.49632478;  1.0002523E+04;  0.0000000E+00; -3.5152513E-07;  1.0000000E+04;  0.0000000E+00;  9.9779590E+03;-0.01787788;0.0;0.51420265;9549.1406
  1.0003604E+00;  9.9999998E-03; -1.8018454E-01;2585;0.17636684;0.0;-0.069942996;1008.5582;  4.0380305E-01;7040.916;3;56.867191;0.0;-7.3665709;0;0.23718856;  1.0002443E+04;  0.0000000E+00; -6.6054687E-05;  1.0000000E+04;  0.0000000E+00;  9.9787715E+03;-0.0058483337;0.0;0.2430369;9276.7666
  1.0003412E+00;  9.9999998E-03; -1.6016644E-01;2586;0.16907971;0.0;-0.065201879;1008.6343;  4.0380311E-01;7103.6001;3;56.110008;0.0;-6.387557;0;0.23497246;  1.0003963E+04;  0.0000000E+00;  1.2783172E-06;  1.0000000E+04;  0.0000000E+00;  9.9787695E+03;-0.037382971;0.0;0.27235544;9257.6113
  1.0003247E+00;  9.9999998E-03; -1.4014515E-01;2587;0.16263635;0.0;-0.059130173;1008.6774;  4.0380293E-01;7139.1152;3;55.36874;0.0;-5.7335725;0;0.24796581;  1.0004923E+04;  0.0000000E+00;  1.7307558E-06;  1.0000000E+04;  0.0000000E+00;  9.9786641E+03;-0.059094753;0.0;0.30706057;9272.9678
  1.0003114E+00;  9.9999998E-03; -1.2012188E-01;2588;0.15719086;0.0;-0.05208135;1008.7032;  4.0380287E-01;7160.3101;3;54.804623;0.0;-5.4136548;0;0.26819149;  1.0005494E+04;  0.0000000E+00;  1.4406206E-06;  1.0000000E+04;  0.0000000E+00;  9.9786113E+03;-0.074105114;0.0;0.3422966;9259.6494
  1.0003005E+00;  9.9999998E-03; -1.0009910E-01;2589;0.15262932;0.0;-0.044638194;1008.7253;  4.0380296E-01;7178.4619;3;54.352203;0.0;-5.1981201;0;0.29053599;  1.0005816E+04;  0.0000000E+00;  1.0169674E-06;  1.0000000E+04;  0.0000000E+00;  9.9787236E+03;-0.084762275;0.0;0.37529826;9171.1816
  1.0002919E+00;  9.9999998E-03; -8.0077909E-02;2590;0.14884856;0.0;-0.036973007;1008.7485;  4.0380287E-01;7197.5933;3;53.987728;0.0;-4.8791151;0;0.31297544;  1.0005994E+04;  0.0000000E+00;  1.1879565E-07;  1.0000000E+04;  0.0000000E+00;  9.9790039E+03;-0.092447974;0.0;0.4054234;9008.4023
  1.0002854E+00;  9.9999998E-03; -6.0058065E-02;2591;0.14580704;0.0;-0.028796062;1008.7715;  4.0380284E-01;7216.5264;3;53.668903;0.0;-4.2242775;0;0.33429316;  1.0006086E+04;  0.0000000E+00; -4.3687075E-07;  1.0000000E+04;  0.0000000E+00;  9.9793662E+03;-0.097923659;0.0;0.43221682;8810.2363
  1.0002807E+00;  9.9999998E-03; -4.0038839E-02;2592;0.14357139;0.0;-0.019881735;1008.7909;  4.0380284E-01;7232.4185;3;53.424259;0.0;-3.1498845;0;0.35253012;  1.0006132E+04;  0.0000000E+00; -3.4315235E-07;  1.0000000E+04;  0.0000000E+00;  9.9797080E+03;-0.10160845;0.0;0.45413858;8629.0674
  1.0002779E+00;  9.9999998E-03; -2.0019533E-02;2593;0.14220612;0.0;-0.01019242;1008.8033;  4.0380290E-01;7242.6201;3;53.274246;0.0;-1.691076;0;0.36506563;  1.0006151E+04;  0.0000000E+00; -9.9061666E-08;  1.0000000E+04;  0.0000000E+00;  9.9799395E+03;-0.10373803;0.0;0.46880367;8506.5596
  1.0203526E+00;  9.9999998E-03; -1.8016732E-01;2616;0.17410953;0.0;-0.064704575;1007.5465;  4.0331146E-01;6193.7183;3;56.798565;0.0;-7.7839079;0;0.1615531;  1.0004823E+04;  0.0000000E+00; -1.8317488E-03;  1.0000000E+04;  0.0000000E+00;  9.9806807E+03;-0.061801512;0.0;0.22335461;8195.7988
  1.0203329E+00;  9.9999998E-03; -1.6015087E-01;2617;0.16661544;0.0;-0.060084995;1007.623;  4.0331131E-01;6256.4507;3;55.96056;0.0;-6.6529579;0;0.15925625;  1.0006318E+04;  0.0000000E+00; -8.1614795E-05;  1.0000000E+04;  0.0000000E+00;  9.9807041E+03;-0.091994368;0.0;0.25125062;8168.0845
  1.0203161E+00;  9.9999998E-03; -1.4013164E-01;2618;0.1599237;0.0;-0.054467387;1007.6664;  4.0331128E-01;6292.1768;3;55.295364;0.0;-6.0272117;0;0.17078628;  1.0007274E+04;  0.0000000E+00; -1.8635210E-05;  1.0000000E+04;  0.0000000E+00;  9.9806152E+03;-0.11320584;0.0;0.28399211;8177.9106
  1.0203024E+00;  9.9999998E-03; -1.2011059E-01;2619;0.15426166;0.0;-0.04789456;1007.6924;  4.0331131E-01;6313.5176;3;54.656075;0.0;-5.6552134;0;0.18860711;  1.0007834E+04;  0.0000000E+00; -6.0619964E-06;  1.0000000E+04;  0.0000000E+00;  9.9805693E+03;-0.12801011;0.0;0.31661722;8164.9399
  1.0202916E+00;  9.9999998E-03; -1.0008980E-01;2620;0.14955789;0.0;-0.040846314;1007.7132;  4.0331125E-01;6330.5513;3;54.1129;0.0;-5.3090272;0;0.20790869;  1.0008146E+04;  0.0000000E+00;  1.1729232E-06;  1.0000000E+04;  0.0000000E+00;  9.9806738E+03;-0.13857073;0.0;0.34647942;8088.2676
  1.0202831E+00;  9.9999998E-03; -8.0070473E-02;2621;0.14566804;0.0;-0.033624429;1007.734;  4.0331137E-01;6347.6812;3;53.619774;0.0;-4.8584704;0;0.22687888;  1.0008307E+04;  0.0000000E+00;  2.5231000E-06;  1.0000000E+04;  0.0000000E+00;  9.9809258E+03;-0.14610726;0.0;0.37298614;7946.9233
  1.0202767E+00;  9.9999998E-03; -6.0052440E-02;2622;0.14255606;0.0;-0.026067359;1007.7546;  4.0331125E-01;6364.5151;3;53.189327;0.0;-4.1449981;0;0.24455853;  1.0008376E+04;  0.0000000E+00;  1.4695382E-06;  1.0000000E+04;  0.0000000E+00;  9.9812588E+03;-0.15134315;0.0;0.39590168;7772.8809
  1.0202721E+00;  9.9999998E-03; -4.0034983E-02;2623;0.14025086;0.0;-0.017928349;1007.7715;  4.0331125E-01;6378.4121;3;52.849785;0.0;-3.0632825;0;0.25944582;  1.0008399E+04;  0.0000000E+00;  4.9178402E-07;  1.0000000E+04;  0.0000000E+00;  9.9815781E+03;-0.15476507;0.0;0.41421089;7611.4136
  1.0202693E+00;  9.9999998E-03; -2.0017555E-02;2624;0.13882062;0.0;-0.0091633499;1007.7828;  4.0331122E-01;6387.7095;3;52.629604;0.0;-1.6340787;0;0.26957166;  1.0008402E+04;  0.0000000E+00;  8.7988013E-08;  1.0000000E+04;  0.0000000E+00;  9.9817969E+03;-0.15669619;0.0;0.42626786;7500.7397
  1.0403440E+00;  9.9999998E-03; -1.8015160E-01;2647;0.17157136;0.0;-0.059638161;1006.5773;  4.0286702E-01;5380.9214;3;56.711437;0.0;-7.8619456;0;0.11320948;  1.0005920E+04;  0.0000000E+00; -1.1496122E-02;  1.0000000E+04;  0.0000000E+00;  9.9823799E+03;-0.090528764;0.0;0.20373824;7190.981
  1.0403234E+00;  9.9999998E-03; -1.6013610E-01;2648;0.1635828;0.0;-0.055235963;1006.6565;  4.0286687E-01;5445.6987;3;55.77383;0.0;-6.9992142;0;0.1099615;  1.0007387E+04;  0.0000000E+00; -1.1002038E-03;  1.0000000E+04;  0.0000000E+00;  9.9824873E+03;-0.11940426;0.0;0.22936577;7132.4912
  1.0403062E+00;  9.9999998E-03; -1.4011908E-01;2649;0.1566329;0.0;-0.050075583;1006.7064;  4.0286678E-01;5486.5786;3;54.968304;0.0;-6.3431587;0;0.11861551;  1.0008416E+04;  0.0000000E+00; -6.2661195E-05;  1.0000000E+04;  0.0000000E+00;  9.9824561E+03;-0.14137739;0.0;0.2599929;7122.1396
  1.0402923E+00;  9.9999998E-03; -1.2010021E-01;2650;0.15072976;0.0;-0.043983243;1006.7377;  4.0286681E-01;5512.1445;3;54.325665;0.0;-5.8026562;0;0.13295248;  1.0009054E+04;  0.0000000E+00; -2.4838970E-05;  1.0000000E+04;  0.0000000E+00;  9.9824365E+03;-0.15742058;0.0;0.29037306;7102.1094
  1.0402813E+00;  9.9999998E-03; -1.0008147E-01;2651;0.14582925;0.0;-0.037420243;1006.7608;  4.0286684E-01;5531.0762;3;53.652775;0.0;-5.369473;0;0.14873555;  1.0009426E+04;  0.0000000E+00; -1.8245865E-06;  1.0000000E+04;  0.0000000E+00;  9.9825293E+03;-0.16906402;0.0;0.31779957;7035.8691
  1.0402728E+00;  9.9999998E-03; -8.0063857E-02;2652;0.14181775;0.0;-0.030628646;1006.7813;  4.0286678E-01;5547.8594;3;53.030209;0.0;-4.8144312;0;0.16425377;  1.0009619E+04;  0.0000000E+00;  5.2450550E-06;  1.0000000E+04;  0.0000000E+00;  9.9827451E+03;-0.17732114;0.0;0.34157491;6919.2646
  1.0402665E+00;  9.9999998E-03; -6.0047384E-02;2653;0.13861807;0.0;-0.023585565;1006.8005;  4.0286684E-01;5563.5669;3;52.469688;0.0;-4.023922;0;0.17856745;  1.0009706E+04;  0.0000000E+00;  4.3151135E-06;  1.0000000E+04;  0.0000000E+00;  9.9830352E+03;-0.18292581;0.0;0.36149326;6774.8828
  1.0402620E+00;  9.9999998E-03; -4.0031485E-02;2654;0.13624458;0.0;-0.016111832;1006.8163;  4.0286678E-01;5576.5425;3;52.036213;0.0;-2.9215589;0;0.19044103;  1.0009737E+04;  0.0000000E+00;  1.8823594E-06;  1.0000000E+04;  0.0000000E+00;  9.9833232E+03;-0.1864797;0.0;0.37692073;6638.7031
  1.0402592E+00;  9.9999998E-03; -2.0015756E-02;2655;0.13477091;0.0;-0.0082008326;1006.8264;  4.0286678E-01;5584.7378;3;51.753635;0.0;-1.5430615;0;0.19841219;  1.0009746E+04;  0.0000000E+00;  4.1117610E-07;  1.0000000E+04;  0.0000000E+00;  9.9835186E+03;-0.1884319;0.0;0.3868441;6543.8101
  1.0603347E+00;  9.9999998E-03; -1.8013635E-01;2678;0.16876477;0.0;-0.054339398;1005.6868;  4.0247554E-01;4632.3623;3;56.623638;0.0;-7.8625312;0;0.08216314;  1.0006221E+04;  0.0000000E+00; -4.1671313E-02;  1.0000000E+04;  0.0000000E+00;  9.9838086E+03;-0.10339601;0.0;0.18555915;6288.5562
  1.0603131E+00;  9.9999998E-03; -1.6012228E-01;2679;0.16019307;0.0;-0.050469257;1005.7684;  4.0247554E-01;4698.9053;3;55.479168;0.0;-7.0826392;0;0.077737197;  1.0007591E+04;  0.0000000E+00; -6.4374758E-03;  1.0000000E+04;  0.0000000E+00;  9.9840635E+03;-0.12991108;0.0;0.20764828;6177.9336
  1.0602953E+00;  9.9999998E-03; -1.4010715E-01;2680;0.15285271;0.0;-0.045832422;1005.8284;  4.0247548E-01;4747.771;3;54.577969;0.0;-6.4933786;0;0.082463339;  1.0008707E+04;  0.0000000E+00; -2.2691178E-04;  1.0000000E+04;  0.0000000E+00;  9.9841445E+03;-0.15293758;0.0;0.23540092;6128.9082
  1.0602810E+00;  9.9999998E-03; -1.2009066E-01;2681;0.14661987;0.0;-0.040368665;1005.8698;  4.0247551E-01;4781.5815;3;53.690281;0.0;-6.0602193;0;0.092382118;  1.0009489E+04;  0.0000000E+00; -6.0059909E-05;  1.0000000E+04;  0.0000000E+00;  9.9841865E+03;-0.17115374;0.0;0.26353586;6090.5786
  1.0602700E+00;  9.9999998E-03; -1.0007390E-01;2682;0.1415491;0.0;-0.034215417;1005.8992;  4.0247539E-01;4805.4829;3;52.915359;0.0;-5.3723702;0;0.10430388;  1.0009975E+04;  0.0000000E+00; -1.2584898E-05;  1.0000000E+04;  0.0000000E+00;  9.9842852E+03;-0.18468304;0.0;0.28898692;6028.7539
  1.0602615E+00;  9.9999998E-03; -8.0057949E-02;2683;0.13741809;0.0;-0.027866384;1005.9221;  4.0247548E-01;4824.1377;3;52.204407;0.0;-4.6746578;0;0.11651501;  1.0010252E+04;  0.0000000E+00;  6.1949831E-06;  1.0000000E+04;  0.0000000E+00;  9.9844668E+03;-0.19427714;0.0;0.31079215;5935.6255
  1.0602552E+00;  9.9999998E-03; -6.0042839E-02;2684;0.13413687;0.0;-0.021275219;1005.9409;  4.0247548E-01;4839.4883;3;51.55582;0.0;-3.8034244;0;0.12789781;  1.0010394E+04;  0.0000000E+00;  7.7479426E-06;  1.0000000E+04;  0.0000000E+00;  9.9847002E+03;-0.20069821;0.0;0.32859603;5823.2534
  1.0602508E+00;  9.9999998E-03; -4.0028352E-02;2685;0.13171077;0.0;-0.014429746;1005.9558;  4.0247545E-01;4851.6323;3;51.033276;0.0;-2.7138784;0;0.13727477;  1.0010455E+04;  0.0000000E+00;  4.0438886E-06;  1.0000000E+04;  0.0000000E+00;  9.9849326E+03;-0.20468417;0.0;0.34195894;5716.3979
  1.0602480E+00;  9.9999998E-03; -2.0014131E-02;2686;0.13020213;0.0;-0.0073032356;1005.9651;  4.0247542E-01;4859.21;3;50.689083;0.0;-1.4191034;0;0.14349671;  1.0010474E+04;  0.0000000E+00;  1.0052436E-06;  1.0000000E+04;  0.0000000E+00;  9.9850986E+03;-0.20682718;0.0;0.35032389;5640.8164
  1.0803255E+00;  9.9999998E-03; -1.8012129E-01;2709;0.16575898;0.0;-0.048561629;1004.8954;  4.0213946E-01;3964.9639;3;56.473263;0.0;-7.6029987;0;0.062507927;  1.0006043E+04;  0.0000000E+00; -1.1303242E-01;  1.0000000E+04;  0.0000000E+00;  9.9849414E+03;-0.10762213;0.0;0.17013006;5507.3257
  1.0803030E+00;  9.9999998E-03; -1.6010943E-01;2710;0.15671961;0.0;-0.045643717;1004.9741;  4.0213948E-01;4028.719;3;55.057739;0.0;-6.9592223;0;0.05784072;  1.0007184E+04;  0.0000000E+00; -2.6415583E-02;  1.0000000E+04;  0.0000000E+00;  9.9853721E+03;-0.12976032;0.0;0.18760104;5326.7925
  1.0802842E+00;  9.9999998E-03; -1.4009590E-01;2711;0.14881568;0.0;-0.041603293;1005.0443;  4.0213954E-01;4085.7109;3;53.950012;0.0;-6.4550591;0;0.058579326;  1.0008330E+04;  0.0000000E+00; -2.1897587E-03;  1.0000000E+04;  0.0000000E+00;  9.9856240E+03;-0.15264913;0.0;0.21122846;5223.2642
  1.0802696E+00;  9.9999998E-03; -1.2008189E-01;2712;0.14230849;0.0;-0.036890998;1005.0993;  4.0213948E-01;4130.2427;3;52.971687;0.0;-5.953012;0;0.063420698;  1.0009280E+04;  0.0000000E+00; -1.2129293E-04;  1.0000000E+04;  0.0000000E+00;  9.9857744E+03;-0.17315008;0.0;0.23657078;5153.437
  1.0802583E+00;  9.9999998E-03; -1.0006711E-01;2713;0.13692342;0.0;-0.031399008;1005.1392;  4.0213934E-01;4162.6035;3;52.046066;0.0;-5.399951;0;0.071010292;  1.0009935E+04;  0.0000000E+00; -4.2601456E-05;  1.0000000E+04;  0.0000000E+00;  9.9859131E+03;-0.18907481;0.0;0.26008511;5085.7217
  1.0802497E+00;  9.9999998E-03; -8.0052674E-02;2714;0.13264383;0.0;-0.025432669;1005.1675;  4.0213940E-01;4185.499;3;51.129261;0.0;-4.6500893;0;0.079834521;  1.0010338E+04;  0.0000000E+00; -2.7668887E-06;  1.0000000E+04;  0.0000000E+00;  9.9860752E+03;-0.20051599;0.0;0.28035051;5008.8555
  1.0802433E+00;  9.9999998E-03; -6.0038887E-02;2715;0.12931199;0.0;-0.019274563;1005.188;  4.0213937E-01;4202.2119;3;50.438835;0.0;-3.6194196;0;0.088554338;  1.0010561E+04;  0.0000000E+00;  7.7151371E-06;  1.0000000E+04;  0.0000000E+00;  9.9862607E+03;-0.20817493;0.0;0.29672927;4925.2822
  1.0802389E+00;  9.9999998E-03; -4.0025633E-02;2716;0.12685077;0.0;-0.012972719;1005.2028;  4.0213946E-01;4214.0938;3;49.843914;0.0;-2.5359676;0;0.095895946;  1.0010676E+04;  0.0000000E+00;  5.5343949E-06;  1.0000000E+04;  0.0000000E+00;  9.9864365E+03;-0.21288621;0.0;0.30878216;4847.8535
  1.0802363E+00;  9.9999998E-03; -2.0012740E-02;2717;0.12533332;0.0;-0.0065386952;1005.2116;  4.0213931E-01;4221.2432;3;49.452713;0.0;-1.315796;0;0.10078056;  1.0010726E+04;  0.0000000E+00;  1.5828108E-06;  1.0000000E+04;  0.0000000E+00;  9.9865645E+03;-0.21538968;0.0;0.31617025;4793.0054
  1.1003175E+00;  9.9999998E-03; -1.8010721E-01;2739;0.16305871;0.0;-0.042790473;1004.2097;  4.0185732E-01;3384.0383;3;56.483944;0.0;-7.2190189;0;0.051389344;  1.0005578E+04;  0.0000000E+00; -2.5183177E-01;  1.0000000E+04;  0.0000000E+00;  9.9857910E+03;-0.10697799;0.0;0.15836734;4876.3228
  1.1002929E+00;  9.9999998E-03; -1.6009609E-01;2740;0.1532106;0.0;-0.040242724;1004.2777;  4.0185750E-01;3438.696;3;54.612915;0.0;-6.6068077;0;0.048374601;  1.0006333E+04;  0.0000000E+00; -8.1904687E-02;  1.0000000E+04;  0.0000000E+00;  9.9863848E+03;-0.12242041;0.0;0.17079501;4592.7114
  1.1002737E+00;  9.9999998E-03; -1.4008535E-01;2741;0.14492886;0.0;-0.037308294;1004.3522;  4.0185747E-01;3498.6177;3;53.251816;0.0;-6.1738496;0;0.046506137;  1.0007366E+04;  0.0000000E+00; -1.4476669E-02;  1.0000000E+04;  0.0000000E+00;  9.9868340E+03;-0.14272721;0.0;0.18923335;4427.252
  1.1002584E+00;  9.9999998E-03; -1.2007322E-01;2742;0.13792565;0.0;-0.03327658;1004.4211;  4.0185738E-01;3554.0308;3;52.093197;0.0;-5.7829189;0;0.046430439;  1.0008435E+04;  0.0000000E+00; -9.2139101E-04;  1.0000000E+04;  0.0000000E+00;  9.9871426E+03;-0.16422561;0.0;0.21065605;4315.1953
  1.1002467E+00;  9.9999998E-03; -1.0006084E-01;2743;0.13231532;0.0;-0.028588919;1004.475;  4.0185729E-01;3597.3638;3;51.004417;0.0;-5.1755295;0;0.049021646;  1.0009289E+04;  0.0000000E+00; -1.0398332E-04;  1.0000000E+04;  0.0000000E+00;  9.9873662E+03;-0.18270949;0.0;0.23173113;4229.7529
  1.1002380E+00;  9.9999998E-03; -8.0047935E-02;2744;0.12780099;0.0;-0.023204926;1004.5134;  4.0185738E-01;3628.2346;3;50.026501;0.0;-4.3991141;0;0.053879574;  1.0009869E+04;  0.0000000E+00; -3.4014032E-05;  1.0000000E+04;  0.0000000E+00;  9.9875498E+03;-0.19651274;0.0;0.25039232;4157.2993
  1.1002315E+00;  9.9999998E-03; -6.0035400E-02;2745;0.12434879;0.0;-0.017532475;1004.5392;  4.0185735E-01;3649.0398;3;49.17131;0.0;-3.4887073;0;0.059689298;  1.0010229E+04;  0.0000000E+00; -3.9287470E-06;  1.0000000E+04;  0.0000000E+00;  9.9877051E+03;-0.20594679;0.0;0.26563609;4093.1086
  1.1002271E+00;  9.9999998E-03; -4.0023278E-02;2746;0.12186398;0.0;-0.011714099;1004.5558;  4.0185735E-01;3662.3674;3;48.523228;0.0;-2.3684316;0;0.065049782;  1.0010424E+04;  0.0000000E+00;  2.6506425E-06;  1.0000000E+04;  0.0000000E+00;  9.9878398E+03;-0.21180741;0.0;0.2768572;4039.4341
  1.1002245E+00;  9.9999998E-03; -2.0011533E-02;2747;0.12034159;0.0;-0.0058633746;1004.5649;  4.0185744E-01;3669.7505;3;48.096004;0.0;-1.2084851;0;0.068778127;  1.0010519E+04;  0.0000000E+00;  1.2405900E-06;  1.0000000E+04;  0.0000000E+00;  9.9879297E+03;-0.21492562;0.0;0.28370374;4002.9136
  1.1203116E+00;  9.9999998E-03; -1.8009460E-01;2768;0.16086493;0.0;-0.037059627;1003.6334;  4.0162617E-01;2891.9028;3;56.846142;0.0;-6.578124;0;0.045984514;  1.0004979E+04;  0.0000000E+00; -4.8725402E-01;  1.0000000E+04;  0.0000000E+00;  9.9864160E+03;-0.10419146;0.0;0.15017597;4459.9243
  1.1202847E+00;  9.9999998E-03; -1.6008364E-01;2769;0.15016912;0.0;-0.034786105;1003.6811;  4.0162641E-01;2929.9001;3;54.351677;0.0;-6.0647998;0;0.046985716;  1.0005228E+04;  0.0000000E+00; -2.0886050E-01;  1.0000000E+04;  0.0000000E+00;  9.9871104E+03;-0.11133696;0.0;0.15832268;3998.8401
  1.1202639E+00;  9.9999998E-03; -1.4007413E-01;2770;0.14122221;0.0;-0.032454941;1003.7495;  4.0162626E-01;2984.3982;3;52.602421;0.0;-5.7234087;0;0.04528001;  1.0005968E+04;  0.0000000E+00; -6.1406095E-02;  1.0000000E+04;  0.0000000E+00;  9.9877305E+03;-0.12600845;0.0;0.17128846;3752.1868
  1.1202482E+00;  9.9999998E-03; -1.2006473E-01;2771;0.13386515;0.0;-0.029543299;1003.8255;  4.0162638E-01;3044.9614;3;51.181263;0.0;-5.3585696;0;0.042064473;  1.0006987E+04;  0.0000000E+00; -1.0517243E-02;  1.0000000E+04;  0.0000000E+00;  9.9882305E+03;-0.14559293;0.0;0.1876574;3594.686
  1.1202359E+00;  9.9999998E-03; -1.0005417E-01;2772;0.12783548;0.0;-0.025578761;1003.894;  4.0162629E-01;3099.447;3;49.913532;0.0;-4.8974328;0;0.039817393;  1.0007994E+04;  0.0000000E+00; -8.4013771E-04;  1.0000000E+04;  0.0000000E+00;  9.9885879E+03;-0.1653883;0.0;0.20520569;3482.6016
  1.1202270E+00;  9.9999998E-03; -8.0043361E-02;2773;0.12315098;0.0;-0.020995712;1003.9463;  4.0162626E-01;3141.1179;3;48.796646;0.0;-4.1464343;0;0.039919615;  1.0008787E+04;  0.0000000E+00; -9.4191557E-05;  1.0000000E+04;  0.0000000E+00;  9.9888398E+03;-0.18175213;0.0;0.22167175;3402.1409
  1.1202203E+00;  9.9999998E-03; -6.0032137E-02;2774;0.1195472;0.0;-0.015866026;1003.9819;  4.0162638E-01;3169.5007;3;47.868942;0.0;-3.2108119;0;0.042047918;  1.0009325E+04;  0.0000000E+00; -3.5107496E-05;  1.0000000E+04;  0.0000000E+00;  9.9890146E+03;-0.19351642;0.0;0.23556434;3344.3379
  1.1202159E+00;  9.9999998E-03; -4.0021211E-02;2775;0.11700105;0.0;-0.010623306;1004.0041;  4.0162623E-01;3187.1575;3;47.178101;0.0;-2.1810141;0;0.044916481;  1.0009649E+04;  0.0000000E+00; -9.2524242E-06;  1.0000000E+04;  0.0000000E+00;  9.9891309E+03;-0.20108013;0.0;0.24599661;3303.8796
  1.1202133E+00;  9.9999998E-03; -2.0010509E-02;2776;0.11544812;0.0;-0.0053189658;1004.0159;  4.0162620E-01;3196.5562;3;46.677242;0.0;-1.1344743;0;0.047239453;  1.0009819E+04;  0.0000000E+00; -1.3517296E-06;  1.0000000E+04;  0.0000000E+00;  9.9892012E+03;-0.20520034;0.0;0.2524398;3279.2383
  1.1403081E+00;  9.9999998E-03; -1.8008420E-01;2796;0.15935934;0.0;-0.031686712;1003.1663;  4.0144092E-01;2487.8538;3;57.786667;0.0;-5.7999234;0;0.042724706;  1.0004393E+04;  0.0000000E+00; -8.3395261E-01;  1.0000000E+04;  0.0000000E+00;  9.9869268E+03;-0.10161442;0.0;0.14433913;4322.0894
  1.1402787E+00;  9.9999998E-03; -1.6007277E-01;2797;0.14781292;0.0;-0.029547445;1003.1872;  4.0144080E-01;2504.2993;3;54.402229;0.0;-5.34553;0;0.049316429;  1.0004105E+04;  0.0000000E+00; -4.4876540E-01;  1.0000000E+04;  0.0000000E+00;  9.9876250E+03;-0.10073654;0.0;0.15005296;3613.239
  1.1402562E+00;  9.9999998E-03; -1.4006366E-01;2798;0.13808841;0.0;-0.02745215;1003.2372;  4.0144092E-01;2543.5879;3;52.07317;0.0;-4.9802456;0;0.051002309;  1.0004378E+04;  0.0000000E+00; -1.8795067E-01;  1.0000000E+04;  0.0000000E+00;  9.9883447E+03;-0.10737713;0.0;0.15837944;3215.0793
  1.1402390E+00;  9.9999998E-03; -1.2005564E-01;2799;0.13017999;0.0;-0.025268067;1003.3076;  4.0144086E-01;2598.9788;3;50.371883;0.0;-4.7240109;0;0.047975846;  1.0005134E+04;  0.0000000E+00; -5.8212660E-02;  1.0000000E+04;  0.0000000E+00;  9.9889980E+03;-0.12141953;0.0;0.16939537;2997.2395
  1.1402265E+00;  9.9999998E-03; -1.0004752E-01;2800;0.12383553;0.0;-0.022426317;1003.382;  4.0144077E-01;2657.4536;3;48.877594;0.0;-4.3799028;0;0.043043092;  1.0006099E+04;  0.0000000E+00; -1.2540808E-02;  1.0000000E+04;  0.0000000E+00;  9.9895195E+03;-0.13923451;0.0;0.1822776;2855.9836
  1.1402169E+00;  9.9999998E-03; -8.0038264E-02;2801;0.11880962;0.0;-0.01855362;1003.4467;  4.0144086E-01;2708.3359;3;47.595951;0.0;-3.8132885;0;0.03895025;  1.0007019E+04;  0.0000000E+00; -1.6832061E-03;  1.0000000E+04;  0.0000000E+00;  9.9898867E+03;-0.15652831;0.0;0.19547856;2759.4724
  1.1402103E+00;  9.9999998E-03; -6.0028806E-02;2802;0.11510138;0.0;-0.014204802;1003.4947;  4.0144083E-01;2746.0994;3;46.563099;0.0;-2.973305;0;0.036873281;  1.0007743E+04;  0.0000000E+00; -1.4865950E-04;  1.0000000E+04;  0.0000000E+00;  9.9901240E+03;-0.17048153;0.0;0.20735481;2696.4263
  1.1402056E+00;  9.9999998E-03; -4.0019099E-02;2803;0.11247404;0.0;-0.0095087076;1003.5261;  4.0144080E-01;2770.7441;3;45.785599;0.0;-1.96446;0;0.036545351;  1.0008231E+04;  0.0000000E+00; -3.1589039E-05;  1.0000000E+04;  0.0000000E+00;  9.9902676E+03;-0.18009904;0.0;0.21664439;2657.7246
  1.1402030E+00;  9.9999998E-03; -2.0009534E-02;2804;0.11089507;0.0;-0.0047923368;1003.5432;  4.0144074E-01;2784.1448;3;45.318722;0.0;-0.98609728;0;0.036968172;  1.0008497E+04;  0.0000000E+00; -6.9040934E-06;  1.0000000E+04;  0.0000000E+00;  9.9903438E+03;-0.18555669;0.0;0.22252487;2636.8025
  1.1603088E+00;  9.9999998E-03; -1.8007773E-01;2823;0.15875985;0.0;-0.027361438;1002.7976;  4.0129533E-01;2161.97;3;59.514904;0.0;-4.9845653;0;0.039947994;  1.0003836E+04;  0.0000000E+00; -1.2667663E+00;  1.0000000E+04;  0.0000000E+00;  9.9873818E+03;-0.099717297;0.0;0.13966529;4393.1436
  1.1602757E+00;  9.9999998E-03; -1.6006467E-01;2824;0.14630724;0.0;-0.024903094;1002.7998;  4.0129545E-01;2163.6951;3;55.191929;0.0;-4.5308886;0;0.049981833;  1.0003205E+04;  0.0000000E+00; -8.1916493E-01;  1.0000000E+04;  0.0000000E+00;  9.9880508E+03;-0.09445256;0.0;0.14443439;3512.7673
  1.1602507E+00;  9.9999998E-03; -1.4005479E-01;2825;0.13577639;0.0;-0.022771098;1002.8216;  4.0129548E-01;2180.6052;3;52.121574;0.0;-4.1943383;0;0.057263821;  1.0002921E+04;  0.0000000E+00; -4.4158837E-01;  1.0000000E+04;  0.0000000E+00;  9.9887676E+03;-0.092561543;0.0;0.14982536;2884.55
  1.1602321E+00;  9.9999998E-03; -1.2004717E-01;2826;0.1271967;0.0;-0.020828929;1002.8715;  4.0129539E-01;2219.2461;3;49.813122;0.0;-3.8611767;0;0.058191717;  1.0003191E+04;  0.0000000E+00; -1.9578011E-01;  1.0000000E+04;  0.0000000E+00;  9.9894941E+03;-0.098186761;0.0;0.15637848;2536.6016
  1.1602182E+00;  9.9999998E-03; -1.0004023E-01;2827;0.12035505;0.0;-0.018728456;1002.9376;  4.0129527E-01;2270.3159;3;48.042763;0.0;-3.6489484;0;0.054282598;  1.0003868E+04;  0.0000000E+00; -7.0711613E-02;  1.0000000E+04;  0.0000000E+00;  9.9901328E+03;-0.11010753;0.0;0.16439013;2348.2449
  1.1602083E+00;  9.9999998E-03; -8.0033086E-02;2828;0.11509119;0.0;-0.015969031;1003.0037;  4.0129539E-01;2321.4702;3;46.541775;0.0;-3.2823398;0;0.048709325;  1.0004696E+04;  0.0000000E+00; -2.0439776E-02;  1.0000000E+04;  0.0000000E+00;  9.9906250E+03;-0.12472142;0.0;0.17343074;2232.5886
  1.1602013E+00;  9.9999998E-03; -6.0025007E-02;2829;0.11111929;0.0;-0.012303373;1003.0592;  4.0129527E-01;2364.3279;3;45.358383;0.0;-2.6307971;0;0.043852717;  1.0005462E+04;  0.0000000E+00; -4.3771821E-03;  1.0000000E+04;  0.0000000E+00;  9.9909668E+03;-0.13852705;0.0;0.18237977;2158.5662
  1.1601967E+00;  9.9999998E-03; -4.0016759E-02;2830;0.10840809;0.0;-0.0083195604;1003.0989;  4.0129530E-01;2395.1108;3;44.506706;0.0;-1.7702508;0;0.040638968;  1.0006047E+04;  0.0000000E+00; -6.3956704E-04;  1.0000000E+04;  0.0000000E+00;  9.9911758E+03;-0.1492925;0.0;0.18993147;2113.821
  1.1601940E+00;  9.9999998E-03; -2.0008460E-02;2831;0.10681699;0.0;-0.0042203688;1003.1223;  4.0129527E-01;2413.0828;3;43.970211;0.0;-0.82775927;0;0.039018214;  1.0006405E+04;  0.0000000E+00; -3.6739901E-05;  1.0000000E+04;  0.0000000E+00;  9.9912832E+03;-0.15592235;0.0;0.19494057;2090.2314
  1.1803173E+00;  9.9999998E-03; -1.8007775E-01;2849;0.16003653;0.0;-0.025180249;1002.4741;  4.0118355E-01;1872.1473;3;62.467918;0.0;-4.2686772;0;0.049038857;  1.0002751E+04;  0.0000000E+00; -1.7163696E+00;  1.0000000E+04;  0.0000000E+00;  9.9875918E+03;-0.089943215;0.0;0.13898207;4448.3174
  1.1802783E+00;  9.9999998E-03; -1.6006155E-01;2850;0.14614159;0.0;-0.021731876;1002.5044;  4.0118340E-01;1895.1464;3;56.861961;0.0;-3.7553964;0;0.047959991;  1.0002522E+04;  0.0000000E+00; -1.2787087E+00;  1.0000000E+04;  0.0000000E+00;  9.9884170E+03;-0.092467703;0.0;0.14042769;3603.8601
  1.1802487E+00;  9.9999998E-03; -1.4004925E-01;2851;0.1344206;0.0;-0.018966235;1002.5076;  4.0118363E-01;1897.7383;3;52.828327;0.0;-3.3822083;0;0.057534561;  1.0001874E+04;  0.0000000E+00; -8.3074123E-01;  1.0000000E+04;  0.0000000E+00;  9.9891250E+03;-0.086085647;0.0;0.14362021;2825.5171
  1.1802275E+00;  9.9999998E-03; -1.2004048E-01;2852;0.12503673;0.0;-0.01679571;1002.5264;  4.0118361E-01;1911.9493;3;49.817768;0.0;-2.9996624;0;0.064802401;  1.0001538E+04;  0.0000000E+00; -4.6731815E-01;  1.0000000E+04;  0.0000000E+00;  9.9898311E+03;-0.082435049;0.0;0.14723745;2280.4915
  1.1802123E+00;  9.9999998E-03; -1.0003382E-01;2853;0.11766642;0.0;-0.014936558;1002.567;  4.0118355E-01;1942.6575;3;47.496559;0.0;-2.6640456;0;0.066089839;  1.0001682E+04;  0.0000000E+00; -2.2626407E-01;  1.0000000E+04;  0.0000000E+00;  9.9905029E+03;-0.085343078;0.0;0.15143292;1975.1523
  1.1802013E+00;  9.9999998E-03; -8.0027543E-02;2854;0.11196742;0.0;-0.012885622;1002.6191;  4.0118355E-01;1982.1082;3;45.791454;0.0;-2.4713607;0;0.063056782;  1.0002152E+04;  0.0000000E+00; -9.3108058E-02;  1.0000000E+04;  0.0000000E+00;  9.9910693E+03;-0.093441039;0.0;0.15649782;1816.254
  1.1801938E+00;  9.9999998E-03; -6.0021065E-02;2855;0.10777161;0.0;-0.010228486;1002.6695;  4.0118343E-01;2020.2887;3;44.470222;0.0;-2.1297195;0;0.058549121;  1.0002736E+04;  0.0000000E+00; -3.1153625E-02;  1.0000000E+04;  0.0000000E+00;  9.9914932E+03;-0.10360149;0.0;0.16215061;1727.5699
  1.1801890E+00;  9.9999998E-03; -4.0014256E-02;2856;0.10494763;0.0;-0.0070071532;1002.7097;  4.0118358E-01;2050.7942;3;43.459137;0.0;-1.4278623;0;0.054496683;  1.0003257E+04;  0.0000000E+00; -7.7364915E-03;  1.0000000E+04;  0.0000000E+00;  9.9917744E+03;-0.11299247;0.0;0.16748916;1675.3047
  1.1801862E+00;  9.9999998E-03; -2.0007158E-02;2857;0.10325909;0.0;-0.003535812;1002.7355;  4.0118355E-01;2070.2888;3;42.863247;0.0;-0.67823201;0;0.051871054;  1.0003608E+04;  0.0000000E+00; -1.0448564E-03;  1.0000000E+04;  0.0000000E+00;  9.9919346E+03;-0.11945432;0.0;0.17132537;1647.0962
  1.2003300E+00;  9.9999998E-03; -1.8008181E-01;2873;0.16242358;0.0;-0.024602663;1002.1318;  4.0109938E-01;1571.5039;3;67.745705;0.0;-4.1556287;0;0.086227186;  1.0000218E+04;  0.0000000E+00; -1.9797411E+00;  1.0000000E+04;  0.0000000E+00;  9.9874922E+03;-0.05686269;0.0;0.14308988;4078.3076
  1.2002903E+00;  9.9999998E-03; -1.6006586E-01;2874;0.14855337;0.0;-0.021219917;1002.2289;  4.0109941E-01;1643.1301;3;60.200111;0.0;-3.3199689;0;0.062175781;  1.0001174E+04;  0.0000000E+00; -1.7403268E+00;  1.0000000E+04;  0.0000000E+00;  9.9884668E+03;-0.079908699;0.0;0.14208448;3638.6797
  1.2002542E+00;  9.9999998E-03; -1.4005020E-01;2875;0.13487057;0.0;-0.017178373;1002.2709;  4.0109941E-01;1674.152;3;54.452774;0.0;-2.6668184;0;0.05419939;  1.0001094E+04;  0.0000000E+00; -1.2886719E+00;  1.0000000E+04;  0.0000000E+00;  9.9893809E+03;-0.085305966;0.0;0.13950536;2900.8567
  1.2002273E+00;  9.9999998E-03; -1.2003800E-01;2876;0.12400433;0.0;-0.013983094;1002.2759;  4.0109938E-01;1677.9086;3;50.710033;0.0;-2.2257998;0;0.061787814;  1.0000457E+04;  0.0000000E+00; -8.4707999E-01;  1.0000000E+04;  0.0000000E+00;  9.9901113E+03;-0.078075245;0.0;0.13986306;2240.3052
  1.2002090E+00;  9.9999998E-03; -1.0002963E-01;2877;0.11583725;0.0;-0.011681828;1002.2823;  4.0109941E-01;1682.6987;3;47.772034;0.0;-1.8004516;0;0.070280582;  9.9999629E+03;  0.0000000E+00; -4.9200290E-01;  1.0000000E+04;  0.0000000E+00;  9.9907324E+03;-0.071331367;0.0;0.14161195;1780.3707
  1.2001966E+00;  9.9999998E-03; -8.0023475E-02;2878;0.10970628;0.0;-0.0099067511;1002.304;  4.0109935E-01;1698.7256;3;45.590485;0.0;-1.4132986;0;0.074132495;  9.9998535E+03;  0.0000000E+00; -2.4653260E-01;  1.0000000E+04;  0.0000000E+00;  9.9912734E+03;-0.070020862;0.0;0.14415336;1521.9716
  1.2001882E+00;  9.9999998E-03; -6.0017642E-02;2879;0.10514901;0.0;-0.0079811253;1002.3346;  4.0109950E-01;1721.3354;3;43.974808;0.0;-1.2464914;0;0.073945738;  1.0000024E+04;  0.0000000E+00; -1.0241589E-01;  1.0000000E+04;  0.0000000E+00;  9.9917139E+03;-0.07335981;0.0;0.14730555;1395.8925
  1.2001827E+00;  9.9999998E-03; -4.0011786E-02;2880;0.10204159;0.0;-0.005562332;1002.3641;  4.0109941E-01;1743.0592;3;42.859035;0.0;-0.93726331;0;0.07209716;  1.0000296E+04;  0.0000000E+00; -3.2558199E-02;  1.0000000E+04;  0.0000000E+00;  9.9920332E+03;-0.078586228;0.0;0.15068339;1333.9666
  1.2001797E+00;  9.9999998E-03; -2.0005923E-02;2881;0.10030527;0.0;-0.0028615955;1002.385;  4.0109938E-01;1758.5363;3;42.235031;0.0;-0.48469397;0;0.070409201;  1.0000523E+04;  0.0000000E+00; -6.0631139E-03;  1.0000000E+04;  0.0000000E+00;  9.9922256E+03;-0.082972057;0.0;0.15338126;1302.8959
  1.2203401E+00;  9.9999998E-03; -1.8008645E-01;2896;0.16332504;0.0;-0.02459598;1001.767;  4.0103745E-01;1261.8457;3;74.668129;0.0;-4.719451;0;0.14824621;  9.9962334E+03;  0.0000000E+00; -1.5658265E+00;  1.0000000E+04;  0.0000000E+00;  9.9872891E+03;-0.00023404173;0.0;0.14848025;2821.3108
  1.2203063E+00;  9.9999998E-03; -1.6007273E-01;2897;0.15134601;0.0;-0.021649782;1001.9036;  4.0103742E-01;1359.3962;3;65.614708;0.0;-3.3892024;0;0.1073525;  9.9980244E+03;  0.0000000E+00; -1.9269819E+00;  1.0000000E+04;  0.0000000E+00;  9.9882236E+03;-0.039891571;0.0;0.14724407;3189.7927
  1.2202705E+00;  9.9999998E-03; -1.4005816E-01;2898;0.1381418;0.0;-0.018155701;1002.0118;  4.0103734E-01;1436.7856;3;58.283543;0.0;-2.5190713;0;0.075730622;  9.9991650E+03;  0.0000000E+00; -1.6870574E+00;  1.0000000E+04;  0.0000000E+00;  9.9892363E+03;-0.066526622;0.0;0.14225724;2832.3467
  1.2202376E+00;  9.9999998E-03; -1.2004380E-01;2899;0.12561733;0.0;-0.014012647;1002.0676;  4.0103742E-01;1476.7996;3;52.553284;0.0;-1.7260153;0;0.061757274;  9.9993750E+03;  0.0000000E+00; -1.2377893E+00;  1.0000000E+04;  0.0000000E+00;  9.9901387E+03;-0.074747123;0.0;0.1365044;2236.3591
  1.2202125E+00;  9.9999998E-03; -1.0003152E-01;2900;0.11558151;0.0;-0.01028763;1002.0778;  4.0103748E-01;1484.1012;3;48.717793;0.0;-1.0660909;0;0.064998887;  9.9988916E+03;  0.0000000E+00; -7.9885232E-01;  1.0000000E+04;  0.0000000E+00;  9.9908184E+03;-0.069069169;0.0;0.13406806;1703.8364
  1.2201959E+00;  9.9999998E-03; -8.0022715E-02;2901;0.1084858;0.0;-0.0077670719;1002.0712;  4.0103742E-01;1479.4606;3;46.120518;0.0;-0.47280851;0;0.075168878;  9.9982686E+03;  0.0000000E+00; -4.5055926E-01;  1.0000000E+04;  0.0000000E+00;  9.9913086E+03;-0.059761789;0.0;0.13493067;1346.1525
  1.2201854E+00;  9.9999998E-03; -6.0016215E-02;2902;0.10343783;0.0;-0.0060544559;1002.0713;  4.0103740E-01;1479.4877;3;44.405727;0.0;-0.20230968;0;0.082645655;  9.9978867E+03;  0.0000000E+00; -2.1286109E-01;  1.0000000E+04;  0.0000000E+00;  9.9916875E+03;-0.054612055;0.0;0.13725771;1159.0468
  1.2201790E+00;  9.9999998E-03; -4.0010713E-02;2903;0.099996559;0.0;-0.0043867351;1002.0786;  4.0103745E-01;1484.6982;3;42.892044;0.0;-0.27561748;0;0.086283013;  9.9977471E+03;  0.0000000E+00; -7.7697933E-02;  1.0000000E+04;  0.0000000E+00;  9.9919775E+03;-0.053588483;0.0;0.13987149;1077.8636
  1.2201755E+00;  9.9999998E-03; -2.0005364E-02;2904;0.097976454;0.0;-0.0023184428;1002.0872;  4.0103745E-01;1490.8383;3;41.991383;0.0;-0.17075621;0;0.087595411;  9.9977314E+03;  0.0000000E+00; -1.6422899E-02;  1.0000000E+04;  0.0000000E+00;  9.9921611E+03;-0.054384492;0.0;0.1419799;1044.0125
  1.2403376E+00;  9.9999998E-03; -1.8008694E-01;2917;0.15999641;0.0;-0.023240773;1001.5526;  4.0099281E-01;1067.8595;3;82.105934;0.0;-5.5131803;0;0.17481588;  9.9937578E+03;  0.0000000E+00; -1.0980947E-02;  1.0000000E+04;  0.0000000E+00;  9.9877119E+03;0.035896629;0.0;0.13891925;1313.4786
  1.2403138E+00;  9.9999998E-03; -1.6007699E-01;2918;0.15084951;0.0;-0.020970598;1001.6124;  4.0099266E-01;1109.0725;3;72.377716;0.0;-3.6051121;0;0.15034355;  9.9944922E+03;  0.0000000E+00; -1.2228339E+00;  1.0000000E+04;  0.0000000E+00;  9.9881709E+03;0.0069397246;0.0;0.14340383;1885.4784
  1.2402869E+00;  9.9999998E-03; -1.4006600E-01;2919;0.14052914;0.0;-0.018894412;1001.6947;  4.0099275E-01;1165.7126;3;64.057404;0.0;-2.5442691;0;0.1252346;  9.9954209E+03;  0.0000000E+00; -1.6337770E+00;  1.0000000E+04;  0.0000000E+00;  9.9888867E+03;-0.020131044;0.0;0.14536566;2212.6396
  1.2402588E+00;  9.9999998E-03; -1.2005405E-01;2920;0.12957628;0.0;-0.016128793;1001.7778;  4.0099272E-01;1223.0182;3;56.972931;0.0;-1.6875468;0;0.099556178;  9.9962539E+03;  0.0000000E+00; -1.4756231E+00;  1.0000000E+04;  0.0000000E+00;  9.9897090E+03;-0.041573152;0.0;0.14112933;2016.2124
  1.2402309E+00;  9.9999998E-03; -1.0004172E-01;2921;0.118859;0.0;-0.012496502;1001.8442;  4.0099272E-01;1268.7661;3;51.308521;0.0;-0.90566766;0;0.081571631;  9.9968311E+03;  0.0000000E+00; -1.0586685E+00;  1.0000000E+04;  0.0000000E+00;  9.9904580E+03;-0.053110249;0.0;0.13468188;1592.9679
  1.2402073E+00;  9.9999998E-03; -8.0030091E-02;2922;0.11000007;0.0;-0.0086920774;1001.8758;  4.0099269E-01;1290.4777;3;47.61063;0.0;-0.10094349;0;0.077969685;  9.9968867E+03;  0.0000000E+00; -6.3602853E-01;  1.0000000E+04;  0.0000000E+00;  9.9910244E+03;-0.053081933;0.0;0.13105161;1217.2335
  1.2401910E+00;  9.9999998E-03; -6.0020223E-02;2923;0.10346721;0.0;-0.0057508987;1001.8786;  4.0099260E-01;1292.4889;3;45.620262;0.0;0.65775979;0;0.083481103;  9.9965586E+03;  0.0000000E+00; -3.1953916E-01;  1.0000000E+04;  0.0000000E+00;  9.9914072E+03;-0.048267692;0.0;0.1317488;994.3576
  1.2401812E+00;  9.9999998E-03; -4.0012553E-02;2924;0.099187396;0.0;-0.0038557737;1001.8718;  4.0099260E-01;1287.8391;3;44.003464;0.0;0.61359227;0;0.090995342;  9.9961748E+03;  0.0000000E+00; -1.2499513E-01;  1.0000000E+04;  0.0000000E+00;  9.9916543E+03;-0.043465391;0.0;0.13446073;896.3916
  1.2401763E+00;  9.9999998E-03; -2.0006076E-02;2925;0.096782394;0.0;-0.0021298672;1001.8674;  4.0099266E-01;1284.8173;3;42.975506;0.0;0.12282106;0;0.09583655;  9.9959268E+03;  0.0000000E+00; -2.8034279E-02;  1.0000000E+04;  0.0000000E+00;  9.9918105E+03;-0.040908713;0.0;0.13674526;859.43195
  1.2603067E+00;  9.9999998E-03; -1.6007638E-01;2936;0.14597005;0.0;-0.019034505;1001.5451;  4.0096113E-01;1018.117;3;79.18364;0.0;-4.0693498;0;0.13875671;  9.9941465E+03;  0.0000000E+00;  4.6741354E-01;  1.0000000E+04;  0.0000000E+00;  9.9887568E+03;0.014170425;0.0;0.12458628;1058.7236
  1.2602894E+00;  9.9999998E-03; -1.4006896E-01;2937;0.13838908;0.0;-0.017530486;1001.511;  4.0096104E-01;995.69012;3;70.636497;0.0;-2.5447588;0;0.14284185;  9.9933164E+03;  0.0000000E+00; -5.8641040E-01;  1.0000000E+04;  0.0000000E+00;  9.9888994E+03;0.0090392875;0.0;0.13380256;1069.1271
  1.2602704E+00;  9.9999998E-03; -1.2006025E-01;2938;0.12979066;0.0;-0.015777405;1001.515;  4.0096107E-01;998.40393;3;62.558044;0.0;-1.2684009;0;0.13226904;  9.9929854E+03;  0.0000000E+00; -1.0462403E+00;  1.0000000E+04;  0.0000000E+00;  9.9893086E+03;-0.0050333655;0.0;0.1373024;1283.8269
  1.2602512E+00;  9.9999998E-03; -1.0005069E-01;2939;0.12150021;0.0;-0.014181063;1001.5359;  4.0096113E-01;1012.1959;3;55.994942;0.0;-0.65607858;0;0.12610069;  9.9928857E+03;  0.0000000E+00; -1.0032462E+00;  1.0000000E+04;  0.0000000E+00;  9.9898291E+03;-0.012572461;0.0;0.13867316;1214.8064
  1.2602332E+00;  9.9999998E-03; -8.0039740E-02;2940;0.11382475;0.0;-0.011855164;1001.5651;  4.0096101E-01;1031.4857;3;50.837822;0.0;-0.10001059;0;0.11891745;  9.9929102E+03;  0.0000000E+00; -7.0283109E-01;  1.0000000E+04;  0.0000000E+00;  9.9903867E+03;-0.017541897;0.0;0.13645935;986.62708
  1.2602175E+00;  9.9999998E-03; -6.0028374E-02;2941;0.10728028;0.0;-0.0090733618;1001.5917;  4.0096110E-01;1049.043;3;47.30838;0.0;0.13039307;0;0.11495949;  9.9929902E+03;  0.0000000E+00; -3.7992898E-01;  1.0000000E+04;  0.0000000E+00;  9.9908330E+03;-0.019872861;0.0;0.13483235;793.92224
  1.2602062E+00;  9.9999998E-03; -4.0017746E-02;2942;0.10207649;0.0;-0.0061366074;1001.6057;  4.0096113E-01;1058.2627;3;45.038715;0.0;0.33066612;0;0.11126967;  9.9929756E+03;  0.0000000E+00; -1.5343827E-01;  1.0000000E+04;  0.0000000E+00;  9.9911221E+03;-0.024023186;0.0;0.13529286;701.06958
  1.2601998E+00;  9.9999998E-03; -2.0008424E-02;2943;0.098837532;0.0;-0.0032401748;1001.6091;  4.0096104E-01;1060.5565;3;43.082897;0.0;-0.14295162;0;0.11077654;  9.9928877E+03;  0.0000000E+00; -3.5015851E-02;  1.0000000E+04;  0.0000000E+00;  9.9912842E+03;-0.025799256;0.0;0.1365758;668.69299
  1.2802651E+00;  9.9999998E-03; -1.2006155E-01;2953;0.12567338;0.0;-0.013805244;1001.5026;  4.0093917E-01;944.5163;3;68.794945;0.0;-1.1103419;0;0.10974123;  9.9939063E+03;  0.0000000E+00;  2.0815463E-01;  1.0000000E+04;  0.0000000E+00;  9.9892383E+03;-0.010444161;0.0;0.1201854;752.71661
  1.2802531E+00;  9.9999998E-03; -1.0005452E-01;2954;0.11913139;0.0;-0.012784755;1001.4291;  4.0093914E-01;898.30981;3;61.947708;0.0;-0.18607166;0;0.12379302;  9.9923418E+03;  0.0000000E+00; -2.3813027E-01;  1.0000000E+04;  0.0000000E+00;  9.9893340E+03;-0.0062482841;0.0;0.1300413;702.70892
  1.2802411E+00;  9.9999998E-03; -8.0044463E-02;2955;0.1125236;0.0;-0.011195526;1001.4004;  4.0093899E-01;880.27649;3;55.926567;0.0;0.48819092;0;0.12396795;  9.9913252E+03;  0.0000000E+00; -3.3214238E-01;  1.0000000E+04;  0.0000000E+00;  9.9897764E+03;-0.010195991;0.0;0.13416395;655.73541
  1.2802325E+00;  9.9999998E-03; -6.0032569E-02;2956;0.10708711;0.0;-0.0095163072;1001.36;  4.0093914E-01;854.89093;3;51.422352;0.0;0.39853758;0;0.12701294;  9.9900586E+03;  0.0000000E+00; -2.3127069E-01;  1.0000000E+04;  0.0000000E+00;  9.9902383E+03;-0.0099405292;0.0;0.13695347;559.07043
  1.2802271E+00;  9.9999998E-03; -4.0020254E-02;2957;0.10298185;0.0;-0.0069501735;1001.3184;  4.0093914E-01;828.82361;3;47.15279;0.0;-0.42952004;0;0.13104805;  9.9889141E+03;  0.0000000E+00; -1.0361418E-01;  1.0000000E+04;  0.0000000E+00;  9.9905576E+03;-0.0068047866;0.0;0.13785285;479.45395
  1.2802242E+00;  9.9999998E-03; -2.0009408E-02;2958;0.10092924;0.0;-0.0035689273;1001.2857;  4.0093908E-01;808.22119;3;44.102379;0.0;-0.82002258;0;0.14210227;  9.9881006E+03;  0.0000000E+00; -2.4551744E-02;  1.0000000E+04;  0.0000000E+00;  9.9907129E+03;0.003445616;0.0;0.13865666;438.04352
  1.3002332E+00;  9.9999998E-03; -8.0046408E-02;2966;0.1084425;0.0;-0.0095243948;1001.5231;  4.0092403E-01;910.68567;3;61.842098;0.0;0.78375947;0;0.082675219;  9.9951221E+03;  0.0000000E+00;  3.9550206E-01;  1.0000000E+04;  0.0000000E+00;  9.9891680E+03;-0.043400601;0.0;0.12607582;671.36499
  1.3002266E+00;  9.9999998E-03; -6.0034614E-02;2967;0.1034732;0.0;-0.0078366445;1001.4811;  4.0092412E-01;885.68109;3;57.355465;0.0;1.2128906;0;0.085934132;  9.9937861E+03;  0.0000000E+00;  1.3743852E-01;  1.0000000E+04;  0.0000000E+00;  9.9896709E+03;-0.047466721;0.0;0.13340086;561.66467
  1.3002225E+00;  9.9999998E-03; -4.0021826E-02;2968;0.099258654;0.0;-0.0058492012;1001.432;  4.0092418E-01;856.32166;3;53.329456;0.0;0.82897103;0;0.08204513;  9.9924531E+03;  0.0000000E+00;  3.4287725E-02;  1.0000000E+04;  0.0000000E+00;  9.9900234E+03;-0.056366079;0.0;0.13841121;489.11322
  1.3002206E+00;  9.9999998E-03; -2.0010203E-02;2969;0.096638091;0.0;-0.0032465213;1001.3872;  4.0092412E-01;829.52325;3;49.896278;0.0;0.032894224;0;0.081060916;  9.9913984E+03;  0.0000000E+00;  5.0273146E-03;  1.0000000E+04;  0.0000000E+00;  9.9901816E+03;-0.059999045;0.0;0.14105996;444.87634
 -1.4799143E-06;  9.9999998E-03; -3.7821729E-14;1045;-0.0013116901;0.0;-1.1151768e-10;1000.0333;  4.0000001E-01;27.554771;3;-1.0840738;0.0;-3.9578003e-07;0;-0.02624503;  1.0000675E+04;  0.0000000E+00;  1.7524929E-16;  1.0000000E+04;  0.0000000E+00;  9.9999941E+03;-0.026490331;0.0;0.00024530076;5.7173824
 -1.4805836E-06;  9.9999998E-03;  2.0000005E-02;1046;-0.0013125914;0.0;4.2477118e-06;1000.0333;  4.0000001E-01;27.554771;3;-1.084938;0.0;0.0033862549;0;-0.026247576;  1.0000675E+04;  0.0000000E+00; -1.2116317E-11;  1.0000000E+04;  0.0000000E+00;  9.9999941E+03;-0.026508972;0.0;0.00026139556;5.8819141
 -1.4823853E-06;  9.9999998E-03;  4.0000014E-02;1047;-0.0013150888;0.0;9.4762254e-06;1000.0333;  4.0000001E-01;27.554771;3;-1.0873518;0.0;0.0076186759;0;-0.026251495;  1.0000675E+04;  0.0000000E+00; -3.0167591E-11;  1.0000000E+04;  0.0000000E+00;  9.9999922E+03;-0.026560593;0.0;0.00030909799;6.3698511
 -1.4847243E-06;  9.9999998E-03;  6.0000021E-02;1048;-0.0013186014;0.0;1.6505966e-05;1000.0333;  4.0000001E-01;27.554771;3;-1.0908108;0.0;0.0133904;0;-0.026245473;  1.0000676E+04;  0.0000000E+00; -3.6227146E-11;  1.0000000E+04;  0.0000000E+00;  9.9999902E+03;-0.026632039;0.0;0.00038656546;7.1631427
 -1.4864855E-06;  9.9999998E-03;  8.0000035E-02;1049;-0.0013220373;0.0;2.6396316e-05;1000.0331;  4.0000001E-01;27.456009;3;-1.0943506;0.0;0.021601185;0;-0.026210008;  1.0000675E+04;  0.0000000E+00; -7.3134887E-11;  1.0000000E+04;  0.0000000E+00;  9.9999873E+03;-0.026700355;0.0;0.00049034663;8.2271538
 -1.4861200E-06;  9.9999998E-03;  1.0000005E-01;1050;-0.0013238858;0.0;3.9613875e-05;1000.0329;  4.0000001E-01;27.258484;3;-1.0966618;0.0;0.032632336;0;-0.026116891;  1.0000675E+04;  0.0000000E+00; -2.5874936E-10;  1.0000000E+04;  0.0000000E+00;  9.9999844E+03;-0.026731502;0.0;0.00061461126;9.5017309
 -1.4812488E-06;  9.9999998E-03;  1.2000007E-01;1051;-0.0013218487;0.0;5.7189267e-05;1000.0328;  4.0000001E-01;27.159721;3;-1.0957429;0.0;0.047362603;0;-0.02592881;  1.0000673E+04;  0.0000000E+00; -2.8666786E-10;  1.0000000E+04;  0.0000000E+00;  9.9999824E+03;-0.026678676;0.0;0.00074986613;10.886312
 -1.4689516E-06;  9.9999998E-03;  1.4000009E-01;1052;-0.0013131261;0.0;7.9356345e-05;1000.0322;  4.0000001E-01;26.665909;3;-1.0891886;0.0;0.065875888;0;-0.025599813;  1.0000666E+04;  0.0000000E+00; -1.0022355E-09;  1.0000000E+04;  0.0000000E+00;  9.9999785E+03;-0.026481196;0.0;0.00088138372;12.222008
  1.9997893E-02;  9.9999998E-03; -1.9705542E-14;1075;-0.0018521466;0.0;1.1019297e-10;1000.0399;  4.0000001E-01;33.08548;3;-1.3987887;0.0;6.7462918e-07;0;-0.031015482;  1.0000808E+04;  0.0000000E+00; -1.3465579E-17;  1.0000000E+04;  0.0000000E+00;  9.9999912E+03;-0.031342868;0.0;0.00032738579;7.4085851
  1.9997891E-02;  9.9999998E-03;  2.0000009E-02;1076;-0.0018536919;0.0;6.1861947e-06;1000.0399;  4.0000001E-01;33.08548;3;-1.4001186;0.0;0.0045878901;0;-0.03102039;  1.0000809E+04;  0.0000000E+00; -1.0795798E-11;  1.0000000E+04;  0.0000000E+00;  9.9999902E+03;-0.031369254;0.0;0.00034886485;7.6320314
  1.9997887E-02;  9.9999998E-03;  4.0000018E-02;1077;-0.0018580515;0.0;1.3596958e-05;1000.04;  4.0000001E-01;33.08548;3;-1.4038746;0.0;0.01011274;0;-0.03103105;  1.0000810E+04;  0.0000000E+00; -4.3662955E-11;  1.0000000E+04;  0.0000000E+00;  9.9999893E+03;-0.031443566;0.0;0.00041251589;8.2947493
  1.9997882E-02;  9.9999998E-03;  6.0000032E-02;1078;-0.0018644035;0.0;2.3387198e-05;1000.0399;  4.0000001E-01;33.08548;3;-1.4094;0.0;0.017505033;0;-0.03103495;  1.0000812E+04;  0.0000000E+00;  8.7431147E-12;  1.0000000E+04;  0.0000000E+00;  9.9999863E+03;-0.031550772;0.0;0.00051582197;9.3721342
  1.9997878E-02;  9.9999998E-03;  8.0000050E-02;1079;-0.0018712742;0.0;3.6766e-05;1000.0399;  4.0000001E-01;33.08548;3;-1.4154997;0.0;0.027661119;0;-0.031010572;  1.0000813E+04;  0.0000000E+00; -1.6879496E-11;  1.0000000E+04;  0.0000000E+00;  9.9999834E+03;-0.031664632;0.0;0.00065405975;10.816768
  1.9997876E-02;  9.9999998E-03;  1.0000007E-01;1080;-0.0018764971;0.0;5.4719472e-05;1000.0397;  4.0000001E-01;32.887955;3;-1.4204526;0.0;0.041334014;0;-0.030926567;  1.0000813E+04;  0.0000000E+00;  8.4899185E-11;  1.0000000E+04;  0.0000000E+00;  9.9999785E+03;-0.031745795;0.0;0.00081922935;12.54585
  1.9997878E-02;  9.9999998E-03;  1.2000009E-01;1081;-0.0018769689;0.0;7.8023673e-05;1000.0395;  4.0000001E-01;32.69043;3;-1.421798;0.0;0.059090249;0;-0.030741168;  1.0000812E+04;  0.0000000E+00;  6.7488448E-10;  1.0000000E+04;  0.0000000E+00;  9.9999746E+03;-0.031739607;0.0;0.00099843985;14.422027
  1.9997893E-02;  9.9999998E-03;  1.4000013E-01;1082;-0.0018684404;0.0;0.00010793425;1000.0389;  4.0000001E-01;32.196617;3;-1.4161766;0.0;0.081813112;0;-0.030402109;  1.0000809E+04;  0.0000000E+00;  1.1974426E-09;  1.0000000E+04;  0.0000000E+00;  9.9999717E+03;-0.031574257;0.0;0.0011721469;16.23213
  3.9997082E-02;  9.9999998E-03;  5.5105744E-15;1106;-0.0025408587;0.0;2.8788008e-10;1000.0461;  4.0000001E-01;38.221134;3;-1.7788649;0.0;1.3212034e-06;0;-0.035095926;  1.0000935E+04;  0.0000000E+00; -5.7480483E-17;  1.0000000E+04;  0.0000000E+00;  9.9999883E+03;-0.035494018;0.0;0.00039809314;9.0053072
  3.9997078E-02;  9.9999998E-03;  2.0000011E-02;1107;-0.0025432736;0.0;7.4644222e-06;1000.0461;  4.0000001E-01;38.221134;3;-1.7807636;0.0;0.005162715;0;-0.035105269;  1.0000935E+04;  0.0000000E+00; -3.0193573E-11;  1.0000000E+04;  0.0000000E+00;  9.9999883E+03;-0.035529587;0.0;0.0004243174;9.2849436
  3.9997075E-02;  9.9999998E-03;  4.0000021E-02;1108;-0.0025501549;0.0;1.6279555e-05;1000.0461;  4.0000001E-01;38.221134;3;-1.7861786;0.0;0.011279421;0;-0.035129081;  1.0000936E+04;  0.0000000E+00; -1.7824206E-11;  1.0000000E+04;  0.0000000E+00;  9.9999863E+03;-0.03563109;0.0;0.00050200918;10.114303
  3.9997067E-02;  9.9999998E-03;  6.0000040E-02;1109;-0.0025603832;0.0;2.797569e-05;1000.0461;  4.0000001E-01;38.221134;3;-1.7942598;0.0;0.019450335;0;-0.035154462;  1.0000939E+04;  0.0000000E+00; -1.6074968E-12;  1.0000000E+04;  0.0000000E+00;  9.9999834E+03;-0.035782479;0.0;0.00062801782;11.462317
  3.9997056E-02;  9.9999998E-03;  8.0000058E-02;1110;-0.0025720375;0.0;4.3635475e-05;1000.0461;  4.0000001E-01;38.221134;3;-1.8035617;0.0;0.03040278;0;-0.035159051;  1.0000943E+04;  0.0000000E+00;  2.6216468E-11;  1.0000000E+04;  0.0000000E+00;  9.9999785E+03;-0.035955466;0.0;0.00079641677;13.268976
  3.9997049E-02;  9.9999998E-03;  1.0000008E-01;1111;-0.00258207;0.0;6.478103e-05;1000.0461;  4.0000001E-01;38.221134;3;-1.8117862;0.0;0.045106456;0;-0.035110041;  1.0000945E+04;  0.0000000E+00;  3.4649694E-10;  1.0000000E+04;  0.0000000E+00;  9.9999727E+03;-0.036107246;0.0;0.0009972062;15.429652
  3.9997052E-02;  9.9999998E-03;  1.2000012E-01;1112;-0.0025864807;0.0;9.191173e-05;1000.0457;  4.0000001E-01;37.826084;3;-1.8160279;0.0;0.064063802;0;-0.034963094;  1.0000945E+04;  0.0000000E+00;  1.1463172E-09;  1.0000000E+04;  0.0000000E+00;  9.9999678E+03;-0.03617755;0.0;0.0012144571;17.772425
  3.9997064E-02;  9.9999998E-03;  1.4000015E-01;1113;-0.0025794771;0.0;0.00012638242;1000.0453;  4.0000001E-01;37.529797;3;-1.8120594;0.0;0.087996587;0;-0.034661137;  1.0000942E+04;  0.0000000E+00;  3.1842935E-09;  1.0000000E+04;  0.0000000E+00;  9.9999639E+03;-0.036085784;0.0;0.0014246497;20.036167
  5.9996136E-02;  9.9999998E-03; -3.0264236E-14;1137;-0.0033279555;0.0;-1.7967539e-10;1000.0525;  4.0000001E-01;43.455555;3;-2.201828;0.0;-1.1030684e-06;0;-0.039074276;  1.0001063E+04;  0.0000000E+00;  1.9869118E-17;  1.0000000E+04;  0.0000000E+00;  9.9999863E+03;-0.039527509;0.0;0.00045323389;10.5088
  5.9996132E-02;  9.9999998E-03;  2.0000013E-02;1138;-0.0033314535;0.0;7.8562816e-06;1000.0525;  4.0000001E-01;43.455555;3;-2.2043884;0.0;0.0051075588;0;-0.039090604;  1.0001064E+04;  0.0000000E+00; -3.6035293E-11;  1.0000000E+04;  0.0000000E+00;  9.9999854E+03;-0.039573766;0.0;0.00048316456;10.839213
  5.9996124E-02;  9.9999998E-03;  4.0000025E-02;1139;-0.0033414725;0.0;1.7195905e-05;1000.0525;  4.0000001E-01;43.455555;3;-2.2117195;0.0;0.011188215;0;-0.039135396;  1.0001069E+04;  0.0000000E+00; -2.6024707E-11;  1.0000000E+04;  0.0000000E+00;  9.9999834E+03;-0.039707191;0.0;0.00057179324;11.818905
  5.9996109E-02;  9.9999998E-03;  6.0000043E-02;1140;-0.0033566102;0.0;2.9581124e-05;1000.0526;  4.0000001E-01;43.554317;3;-2.2228115;0.0;0.019262044;0;-0.039195843;  1.0001072E+04;  0.0000000E+00; -6.0555533E-11;  1.0000000E+04;  0.0000000E+00;  9.9999795E+03;-0.03991124;0.0;0.00071539916;13.410334
  5.9996095E-02;  9.9999998E-03;  8.0000065E-02;1141;-0.0033743791;0.0;4.6404926e-05;1000.0527;  4.0000001E-01;43.65308;3;-2.2358446;0.0;0.030211654;0;-0.039249551;  1.0001076E+04;  0.0000000E+00; -5.7368534E-11;  1.0000000E+04;  0.0000000E+00;  9.9999756E+03;-0.040156528;0.0;0.0009069785;15.541162
  5.9996083E-02;  9.9999998E-03;  1.0000009E-01;1142;-0.0033909779;0.0;6.8930305e-05;1000.0527;  4.0000001E-01;43.65308;3;-2.2481322;0.0;0.044755898;0;-0.039263181;  1.0001081E+04;  0.0000000E+00;  2.5984262E-10;  1.0000000E+04;  0.0000000E+00;  9.9999697E+03;-0.040398046;0.0;0.0011348651;18.086779
  5.9996076E-02;  9.9999998E-03;  1.2000013E-01;1143;-0.0034011567;0.0;9.8394026e-05;1000.0524;  4.0000001E-01;43.356792;3;-2.256012;0.0;0.063833743;0;-0.039190695;  1.0001085E+04;  0.0000000E+00;  1.1261908E-09;  1.0000000E+04;  0.0000000E+00;  9.9999639E+03;-0.040571466;0.0;0.0013807733;20.845419
  5.9996087E-02;  9.9999998E-03;  1.4000018E-01;1144;-0.0033976419;0.0;0.00013528136;1000.0521;  4.0000001E-01;43.159267;3;-2.2544897;0.0;0.087473772;0;-0.038970608;  1.0001085E+04;  0.0000000E+00;  3.4684766E-09;  1.0000000E+04;  0.0000000E+00;  9.9999570E+03;-0.040589161;0.0;0.0016185538;23.518522
  7.9995058E-02;  9.9999998E-03;  1.7897654E-13;1168;-0.0041945972;0.0;1.8589455e-10;1000.0599;  4.0000001E-01;49.578838;3;-2.6699049;0.0;-8.8420165e-08;0;-0.043500151;  1.0001219E+04;  0.0000000E+00;  1.4144673E-16;  1.0000000E+04;  0.0000000E+00;  9.9999834E+03;-0.043999992;0.0;0.00049984077;12.028661
  7.9995058E-02;  9.9999998E-03;  2.0000013E-02;1169;-0.0041993973;0.0;7.5326438e-06;1000.0599;  4.0000001E-01;49.677601;3;-2.6732235;0.0;0.0046422803;0;-0.043526173;  1.0001219E+04;  0.0000000E+00; -5.6078306E-12;  1.0000000E+04;  0.0000000E+00;  9.9999834E+03;-0.044058584;0.0;0.00053240947;12.405829
  7.9995044E-02;  9.9999998E-03;  4.0000025E-02;1170;-0.0042132232;0.0;1.6614362e-05;1000.0601;  4.0000001E-01;49.776363;3;-2.6827741;0.0;0.010212172;0;-0.043600284;  1.0001223E+04;  0.0000000E+00; -8.5564195E-11;  1.0000000E+04;  0.0000000E+00;  9.9999814E+03;-0.044229057;0.0;0.00062877347;13.523432
  7.9995021E-02;  9.9999998E-03;  6.0000043E-02;1171;-0.0042343726;0.0;2.8828255e-05;1000.0601;  4.0000001E-01;49.776363;3;-2.6973515;0.0;0.017725376;0;-0.043709967;  1.0001229E+04;  0.0000000E+00; -1.2741454E-10;  1.0000000E+04;  0.0000000E+00;  9.9999766E+03;-0.044494614;0.0;0.00078464532;15.336514
  7.9994999E-02;  9.9999998E-03;  8.0000065E-02;1172;-0.0042598164;0.0;4.5785058e-05;1000.0601;  4.0000001E-01;49.776363;3;-2.7148323;0.0;0.028075207;0;-0.043833241;  1.0001235E+04;  0.0000000E+00; -1.6977697E-10;  1.0000000E+04;  0.0000000E+00;  9.9999707E+03;-0.04482526;0.0;0.00099201722;17.759453
  7.9994977E-02;  9.9999998E-03;  1.0000010E-01;1173;-0.0042850026;0.0;6.8544548e-05;1000.0603;  4.0000001E-01;49.973888;3;-2.7320542;0.0;0.041855972;0;-0.043936644;  1.0001245E+04;  0.0000000E+00; -6.1871745E-12;  1.0000000E+04;  0.0000000E+00;  9.9999648E+03;-0.045174472;0.0;0.0012378265;20.64802
  7.9994969E-02;  9.9999998E-03;  1.2000014E-01;1174;-0.0043033836;0.0;9.8890501e-05;1000.0602;  4.0000001E-01;49.875126;3;-2.7446599;0.0;0.060178943;0;-0.043972649;  1.0001251E+04;  0.0000000E+00;  1.0728224E-09;  1.0000000E+04;  0.0000000E+00;  9.9999580E+03;-0.045474797;0.0;0.0015021506;23.774607
  7.9994969E-02;  9.9999998E-03;  1.4000018E-01;1175;-0.0043061906;0.0;0.00013648071;1000.0601;  4.0000001E-01;49.776363;3;-2.7467787;0.0;0.082587734;0;-0.043874592;  1.0001253E+04;  0.0000000E+00;  3.4146757E-09;  1.0000000E+04;  0.0000000E+00;  9.9999512E+03;-0.045632403;0.0;0.0017578113;26.815197
  9.9993840E-02;  9.9999998E-03; -3.3048526E-13;1199;-0.0051467246;0.0;-1.460166e-11;1000.0692;  4.0000001E-01;57.381084;3;-3.1903865;0.0;1.4296811e-06;0;-0.048767537;  1.0001400E+04;  0.0000000E+00;  2.5847666E-16;  1.0000000E+04;  0.0000000E+00;  9.9999814E+03;-0.049324546;0.0;0.00055700954;13.776317
  9.9993832E-02;  9.9999998E-03;  2.0000013E-02;1200;-0.0051530777;0.0;6.9565199e-06;1000.0692;  4.0000001E-01;57.381084;3;-3.1945808;0.0;0.0041283602;0;-0.048805952;  1.0001403E+04;  0.0000000E+00;  1.9287906E-11;  1.0000000E+04;  0.0000000E+00;  9.9999814E+03;-0.049397402;0.0;0.00059144868;14.201557
  9.9993818E-02;  9.9999998E-03;  4.0000029E-02;1201;-0.0051714792;0.0;1.5474934e-05;1000.0693;  4.0000001E-01;57.479847;3;-3.206701;0.0;0.0091273971;0;-0.048917349;  1.0001407E+04;  0.0000000E+00; -5.4503561E-11;  1.0000000E+04;  0.0000000E+00;  9.9999775E+03;-0.049610555;0.0;0.00069320726;15.460158
  9.9993788E-02;  9.9999998E-03;  6.0000047E-02;1202;-0.0051999241;0.0;2.7177985e-05;1000.0695;  4.0000001E-01;57.578609;3;-3.2253461;0.0;0.015959602;0;-0.04908983;  1.0001414E+04;  0.0000000E+00; -2.4664731E-10;  1.0000000E+04;  0.0000000E+00;  9.9999727E+03;-0.049947135;0.0;0.00085730484;17.497066
  9.9993758E-02;  9.9999998E-03;  8.0000073E-02;1203;-0.0052348967;0.0;4.3569813e-05;1000.0698;  4.0000001E-01;57.776134;3;-3.2481046;0.0;0.025365202;0;-0.049302042;  1.0001426E+04;  0.0000000E+00; -4.3341428E-10;  1.0000000E+04;  0.0000000E+00;  9.9999678E+03;-0.05037665;0.0;0.0010746073;20.209681
  9.9993728E-02;  9.9999998E-03;  1.0000010E-01;1204;-0.0052710511;0.0;6.6127555e-05;1000.0699;  4.0000001E-01;57.97366;3;-3.2713332;0.0;0.038264778;0;-0.049520776;  1.0001437E+04;  0.0000000E+00; -2.3467001E-10;  1.0000000E+04;  0.0000000E+00;  9.9999609E+03;-0.050851386;0.0;0.0013306113;23.430199
  9.9993698E-02;  9.9999998E-03;  1.2000014E-01;1205;-0.005300737;0.0;9.6035597e-05;1000.07;  4.0000001E-01;57.97366;3;-3.2900565;0.0;0.055002753;0;-0.049696848;  1.0001450E+04;  0.0000000E+00;  6.9738904E-10;  1.0000000E+04;  0.0000000E+00;  9.9999521E+03;-0.051301025;0.0;0.0016041752;26.904604
  9.9993698E-02;  9.9999998E-03;  1.4000019E-01;1206;-0.0053134048;0.0;0.0001338502;1000.07;  4.0000001E-01;57.97366;3;-3.2974131;0.0;0.076013498;0;-0.049757689;  1.0001455E+04;  0.0000000E+00;  2.5257243E-09;  1.0000000E+04;  0.0000000E+00;  9.9999453E+03;-0.051625974;0.0;0.0018682858;30.28982
  1.1999244E-01;  9.9999998E-03; -1.1748075E-13;1230;-0.0062079029;0.0;-1.8535243e-10;1000.0801;  4.0000001E-01;66.368484;3;-3.7695611;0.0;-1.631859e-06;0;-0.055077609;  1.0001627E+04;  0.0000000E+00;  1.3331625E-16;  1.0000000E+04;  0.0000000E+00;  9.9999775E+03;-0.055732038;0.0;0.00065442768;16.04199
  1.1999243E-01;  9.9999998E-03;  2.0000013E-02;1231;-0.0062161107;0.0;6.8474474e-06;1000.0802;  4.0000001E-01;66.467247;3;-3.7747622;0.0;0.0041253841;0;-0.055130679;  1.0001629E+04;  0.0000000E+00; -6.3874010E-11;  1.0000000E+04;  0.0000000E+00;  9.9999775E+03;-0.05582121;0.0;0.00069052994;16.525558
  1.1999241E-01;  9.9999998E-03;  4.0000029E-02;1232;-0.0062399944;0.0;1.5272877e-05;1000.0804;  4.0000001E-01;66.56601;3;-3.789849;0.0;0.0090472493;0;-0.055286333;  1.0001635E+04;  0.0000000E+00; -5.2885567E-11;  1.0000000E+04;  0.0000000E+00;  9.9999746E+03;-0.056083281;0.0;0.00079694722;17.954189
  1.1999237E-01;  9.9999998E-03;  6.0000047E-02;1233;-0.0062772613;0.0;2.6808229e-05;1000.0806;  4.0000001E-01;66.763535;3;-3.8132341;0.0;0.015534253;0;-0.055533428;  1.0001645E+04;  0.0000000E+00; -2.9227859E-10;  1.0000000E+04;  0.0000000E+00;  9.9999717E+03;-0.056501128;0.0;0.00096769893;20.25783
  1.1999232E-01;  9.9999998E-03;  8.0000073E-02;1234;-0.0063239266;0.0;4.3035208e-05;1000.0811;  4.0000001E-01;67.158585;3;-3.8421845;0.0;0.024439147;0;-0.055851776;  1.0001659E+04;  0.0000000E+00; -6.4447397E-10;  1.0000000E+04;  0.0000000E+00;  9.9999619E+03;-0.057043839;0.0;0.0011920622;23.308931
  1.1999228E-01;  9.9999998E-03;  1.0000011E-01;1235;-0.0063738972;0.0;6.5539098e-05;1000.0814;  4.0000001E-01;67.454872;3;-3.8726871;0.0;0.036418959;0;-0.05620873;  1.0001674E+04;  0.0000000E+00; -4.2785972E-10;  1.0000000E+04;  0.0000000E+00;  9.9999541E+03;-0.057662286;0.0;0.001453558;26.90588
  1.1999223E-01;  9.9999998E-03;  1.2000015E-01;1236;-0.0064184666;0.0;9.5149393e-05;1000.0819;  4.0000001E-01;67.849922;3;-3.8990855;0.0;0.05187314;0;-0.056554016;  1.0001691E+04;  0.0000000E+00;  5.6711885E-10;  1.0000000E+04;  0.0000000E+00;  9.9999482E+03;-0.058283567;0.0;0.001729553;30.758997
  1.1999221E-01;  9.9999998E-03;  1.4000021E-01;1237;-0.0064453073;0.0;0.00013298749;1000.0821;  4.0000001E-01;68.047447;3;-3.913626;0.0;0.071311526;0;-0.056809474;  1.0001703E+04;  0.0000000E+00;  2.1916156E-09;  1.0000000E+04;  0.0000000E+00;  9.9999385E+03;-0.058803119;0.0;0.0019936438;34.503666
  1.3999081E-01;  9.9999998E-03; -8.6664759E-14;1261;-0.0074087139;0.0;1.9405376e-10;1000.0934;  4.0000001E-01;77.429893;3;-4.4124761;0.0;3.8119242e-07;0;-0.062479198;  1.0001897E+04;  0.0000000E+00;  1.6724910E-16;  1.0000000E+04;  0.0000000E+00;  9.9999727E+03;-0.063308798;0.0;0.00082960032;19.1668
  1.3999079E-01;  9.9999998E-03;  2.0000016E-02;1262;-0.0074191322;0.0;8.1498292e-06;1000.0937;  4.0000001E-01;77.627426;3;-4.418829;0.0;0.0053721829;0;-0.062548593;  1.0001899E+04;  0.0000000E+00;  8.5340325E-11;  1.0000000E+04;  0.0000000E+00;  9.9999727E+03;-0.063416503;0.0;0.0008679083;19.731035
  1.3999076E-01;  9.9999998E-03;  4.0000033E-02;1263;-0.007449558;0.0;1.7870636e-05;1000.0939;  4.0000001E-01;77.726189;3;-4.4372826;0.0;0.011421296;0;-0.062753662;  1.0001906E+04;  0.0000000E+00; -1.6776186E-10;  1.0000000E+04;  0.0000000E+00;  9.9999697E+03;-0.063734077;0.0;0.00098041818;21.394196
  1.3999072E-01;  9.9999998E-03;  6.0000055E-02;1264;-0.0074974494;0.0;3.0692772e-05;1000.0942;  4.0000001E-01;78.121239;3;-4.4661031;0.0;0.018817535;0;-0.063084312;  1.0001921E+04;  0.0000000E+00; -4.8291093E-10;  1.0000000E+04;  0.0000000E+00;  9.9999639E+03;-0.064243942;0.0;0.0011596314;24.063854
  1.3999066E-01;  9.9999998E-03;  8.0000080E-02;1265;-0.0075583518;0.0;4.8212049e-05;1000.0947;  4.0000001E-01;78.516289;3;-4.5022779;0.0;0.028292062;0;-0.063522041;  1.0001938E+04;  0.0000000E+00; -7.8976170E-10;  1.0000000E+04;  0.0000000E+00;  9.9999541E+03;-0.064914405;0.0;0.0013923674;27.57477
  1.3999058E-01;  9.9999998E-03;  1.0000012E-01;1266;-0.0076254751;0.0;7.1884395e-05;1000.0953;  4.0000001E-01;78.911339;3;-4.5413609;0.0;0.040308118;0;-0.064036191;  1.0001959E+04;  0.0000000E+00; -1.0247219E-09;  1.0000000E+04;  0.0000000E+00;  9.9999463E+03;-0.065695316;0.0;0.0016591237;31.674927
  1.3999052E-01;  9.9999998E-03;  1.2000017E-01;1267;-0.0076889857;0.0;0.0001025208;1000.0959;  4.0000001E-01;79.405151;3;-4.5770831;0.0;0.05518534;0;-0.064576492;  1.0001979E+04;  0.0000000E+00;  6.1614785E-10;  1.0000000E+04;  0.0000000E+00;  9.9999375E+03;-0.066511326;0.0;0.0019348369;36.021889
  1.3999048E-01;  9.9999998E-03;  1.4000022E-01;1268;-0.0077349464;0.0;0.00014105582;1000.0963;  4.0000001E-01;79.800201;3;-4.6009302;0.0;0.072966695;0;-0.065060467;  1.0001998E+04;  0.0000000E+00;  2.2871729E-09;  1.0000000E+04;  0.0000000E+00;  9.9999287E+03;-0.06725429;0.0;0.0021938202;40.224194
  1.5998890E-01;  9.9999998E-03; -5.3387301E-14;1292;-0.0087776529;0.0;4.2116122e-10;1000.1092;  4.0000001E-01;90.46656;3;-5.1242971;0.0;-2.2089171e-07;0;-0.070975423;  1.0002218E+04;  0.0000000E+00;  1.7370577E-16;  1.0000000E+04;  0.0000000E+00;  9.9999678E+03;-0.072099805;0.0;0.0011243823;23.51585
  1.5998888E-01;  9.9999998E-03;  2.0000020E-02;1293;-0.0087906905;0.0;1.1930133e-05;1000.1094;  4.0000001E-01;90.664085;3;-5.131928;0.0;0.0087397816;0;-0.071061917;  1.0002220E+04;  0.0000000E+00;  2.4970531E-11;  1.0000000E+04;  0.0000000E+00;  9.9999658E+03;-0.072228231;0.0;0.0011663175;24.197985
  1.5998884E-01;  9.9999998E-03;  4.0000040E-02;1294;-0.0088288989;0.0;2.5466989e-05;1000.1096;  4.0000001E-01;90.86161;3;-5.1541829;0.0;0.018019132;0;-0.071318835;  1.0002230E+04;  0.0000000E+00; -6.6746067E-11;  1.0000000E+04;  0.0000000E+00;  9.9999619E+03;-0.072607808;0.0;0.0012889701;26.204536
  1.5998878E-01;  9.9999998E-03;  6.0000069E-02;1295;-0.0088894796;0.0;4.222108e-05;1000.11;  4.0000001E-01;91.157906;3;-5.1891513;0.0;0.028393431;0;-0.071737811;  1.0002249E+04;  0.0000000E+00; -5.9361327E-10;  1.0000000E+04;  0.0000000E+00;  9.9999531E+03;-0.073220447;0.0;0.0014826324;29.411478
  1.5998869E-01;  9.9999998E-03;  8.0000103E-02;1296;-0.008967516;0.0;6.3763095e-05;1000.111;  4.0000001E-01;91.948006;3;-5.2335353;0.0;0.040419213;0;-0.0723029;  1.0002271E+04;  0.0000000E+00; -1.2321235E-09;  1.0000000E+04;  0.0000000E+00;  9.9999453E+03;-0.074033447;0.0;0.0017305458;33.600479
  1.5998860E-01;  9.9999998E-03;  1.0000015E-01;1297;-0.0090555027;0.0;9.1440161e-05;1000.1117;  4.0000001E-01;92.540581;3;-5.2825084;0.0;0.054358076;0;-0.07298661;  1.0002297E+04;  0.0000000E+00; -1.8172860E-09;  1.0000000E+04;  0.0000000E+00;  9.9999375E+03;-0.074995503;0.0;0.0020088954;38.450005
  1.5998851E-01;  9.9999998E-03;  1.2000021E-01;1298;-0.0091425069;0.0;0.00012594077;1000.1126;  4.0000001E-01;93.330681;3;-5.329164;0.0;0.070511095;0;-0.073740683;  1.0002325E+04;  0.0000000E+00;  5.8331368E-10;  1.0000000E+04;  0.0000000E+00;  9.9999248E+03;-0.076029956;0.0;0.0022892701;43.549107
  1.5998843E-01;  9.9999998E-03;  1.4000027E-01;1299;-0.0092129465;0.0;0.00016741842;1000.1134;  4.0000001E-01;93.923256;3;-5.3641667;0.0;0.088086419;0;-0.074479848;  1.0002353E+04;  0.0000000E+00;  4.2798307E-09;  1.0000000E+04;  0.0000000E+00;  9.9999141E+03;-0.077027626;0.0;0.0025477784;48.489105
  1.7998666E-01;  9.9999998E-03;  3.8028496E-14;1323;-0.010338992;0.0;3.0825376e-10;1000.1274;  4.0000001E-01;105.57725;3;-5.9106116;0.0;1.6602189e-06;0;-0.080633216;  1.0002590E+04;  0.0000000E+00;  3.9204552E-16;  1.0000000E+04;  0.0000000E+00;  9.9999541E+03;-0.082214348;0.0;0.0015811354;29.450848
  1.7998664E-01;  9.9999998E-03;  2.0000026E-02;1324;-0.010355121;0.0;1.9317273e-05;1000.1276;  4.0000001E-01;105.77477;3;-5.9196587;0.0;0.015170527;0;-0.080736637;  1.0002596E+04;  0.0000000E+00;  8.3937537E-11;  1.0000000E+04;  0.0000000E+00;  9.9999541E+03;-0.082365766;0.0;0.0016291302;30.305689
  1.7998658E-01;  9.9999998E-03;  4.0000055E-02;1325;-0.010402507;0.0;4.036945e-05;1000.1279;  4.0000001E-01;105.9723;3;-5.9461336;0.0;0.030719092;0;-0.081044927;  1.0002609E+04;  0.0000000E+00;  1.6318709E-10;  1.0000000E+04;  0.0000000E+00;  9.9999492E+03;-0.082813941;0.0;0.0017690146;32.817413
  1.7998649E-01;  9.9999998E-03;  6.0000092E-02;1326;-0.010478077;0.0;6.4953871e-05;1000.1286;  4.0000001E-01;106.56487;3;-5.987915;0.0;0.047113426;0;-0.08155185;  1.0002632E+04;  0.0000000E+00; -6.7922568E-10;  1.0000000E+04;  0.0000000E+00;  9.9999404E+03;-0.08354003;0.0;0.0019881825;36.821793
  1.7998639E-01;  9.9999998E-03;  8.0000140E-02;1327;-0.010576464;0.0;9.464781e-05;1000.1295;  4.0000001E-01;107.25621;3;-6.0414743;0.0;0.064712241;0;-0.082244955;  1.0002659E+04;  0.0000000E+00; -1.6479956E-09;  1.0000000E+04;  0.0000000E+00;  9.9999268E+03;-0.084510259;0.0;0.0022653013;42.034145
  1.7998625E-01;  9.9999998E-03;  1.0000020E-01;1328;-0.010689378;0.0;0.00013092533;1000.1306;  4.0000001E-01;108.24384;3;-6.1014724;0.0;0.08370129;0;-0.083100989;  1.0002692E+04;  0.0000000E+00; -2.4125797E-09;  1.0000000E+04;  0.0000000E+00;  9.9999160E+03;-0.085672319;0.0;0.0025713274;48.050087
  1.7998613E-01;  9.9999998E-03;  1.2000027E-01;1329;-0.01080473;0.0;0.00017402598;1000.1317;  4.0000001E-01;109.1327;3;-6.1604328;0.0;0.10401567;0;-0.084075108;  1.0002729E+04;  0.0000000E+00;  1.7705562E-10;  1.0000000E+04;  0.0000000E+00;  9.9999014E+03;-0.086949825;0.0;0.0028747173;54.390617
  1.7998601E-01;  9.9999998E-03;  1.4000034E-01;1330;-0.010905161;0.0;0.00022367875;1000.133;  4.0000001E-01;110.21909;3;-6.2081513;0.0;0.12432526;0;-0.085078999;  1.0002766E+04;  0.0000000E+00;  6.7759607E-09;  1.0000000E+04;  0.0000000E+00;  9.9998916E+03;-0.08823587;0.0;0.003156872;60.675247
  1.9998403E-01;  9.9999998E-03;  2.1119419E-13;1354;-0.012118475;0.0;-1.2342906e-09;1000.1489;  4.0000001E-01;123.35452;3;-6.7779064;0.0;-5.2117271e-06;0;-0.091557272;  1.0003034E+04;  0.0000000E+00; -6.9400109E-16;  1.0000000E+04;  0.0000000E+00;  9.9999424E+03;-0.093795724;0.0;0.0022384508;37.288563
  1.9998400E-01;  9.9999998E-03;  2.0000037E-02;1355;-0.012138205;0.0;3.1349038e-05;1000.149;  4.0000001E-01;123.45328;3;-6.7884912;0.0;0.025556309;0;-0.091676295;  1.0003038E+04;  0.0000000E+00;  6.4814109E-12;  1.0000000E+04;  0.0000000E+00;  9.9999414E+03;-0.093972385;0.0;0.0022960913;38.390915
  1.9998394E-01;  9.9999998E-03;  4.0000077E-02;1356;-0.012196298;0.0;6.4764201e-05;1000.1495;  4.0000001E-01;123.84833;3;-6.8195205;0.0;0.051381316;0;-0.092032135;  1.0003056E+04;  0.0000000E+00; -1.8246021E-11;  1.0000000E+04;  0.0000000E+00;  9.9999326E+03;-0.0944959;0.0;0.0024637622;41.630367
  1.9998382E-01;  9.9999998E-03;  6.0000129E-02;1357;-0.012289421;0.0;0.00010219103;1000.1503;  4.0000001E-01;124.53967;3;-6.8687372;0.0;0.077733174;0;-0.092621051;  1.0003084E+04;  0.0000000E+00; -4.9586552E-10;  1.0000000E+04;  0.0000000E+00;  9.9999219E+03;-0.095346548;0.0;0.0027254962;46.79781
  1.9998369E-01;  9.9999998E-03;  8.0000192E-02;1358;-0.012411648;0.0;0.00014579052;1000.1513;  4.0000001E-01;125.32977;3;-6.9322433;0.0;0.10503922;0;-0.093434468;  1.0003120E+04;  0.0000000E+00; -2.5038740E-09;  1.0000000E+04;  0.0000000E+00;  9.9999082E+03;-0.096489385;0.0;0.0030549178;53.537045
  1.9998352E-01;  9.9999998E-03;  1.0000026E-01;1359;-0.012553846;0.0;0.00019690422;1000.1525;  4.0000001E-01;126.3174;3;-7.0041928;0.0;0.13329911;0;-0.094453663;  1.0003161E+04;  0.0000000E+00; -2.9000276E-09;  1.0000000E+04;  0.0000000E+00;  9.9998916E+03;-0.097871505;0.0;0.0034178444;61.362286
  1.9998334E-01;  9.9999998E-03;  1.2000035E-01;1360;-0.012702649;0.0;0.00025559345;1000.1542;  4.0000001E-01;127.70007;3;-7.07653;0.0;0.1618951;0;-0.095636487;  1.0003208E+04;  0.0000000E+00;  6.5405049E-11;  1.0000000E+04;  0.0000000E+00;  9.9998730E+03;-0.099418193;0.0;0.0037817098;69.754425
  1.9998318E-01;  9.9999998E-03;  1.4000046E-01;1361;-0.01283876;0.0;0.00032134043;1000.1556;  4.0000001E-01;128.88522;3;-7.1380544;0.0;0.18946876;0;-0.096889116;  1.0003257E+04;  0.0000000E+00;  8.8314671E-09;  1.0000000E+04;  0.0000000E+00;  9.9998564E+03;-0.10102839;0.0;0.0041392776;78.446251
  2.1998094E-01;  9.9999998E-03; -8.5271438E-13;1385;-0.014146203;0.0;5.2725035e-10;1000.1736;  4.0000001E-01;143.79839;3;-7.7343454;0.0;2.2240188e-06;0;-0.10385628;  1.0003549E+04;  0.0000000E+00;  9.6838312E-16;  1.0000000E+04;  0.0000000E+00;  9.9999238E+03;-0.10698298;0.0;0.003126693;47.260326
  2.1998093E-01;  9.9999998E-03;  2.0000054E-02;1386;-0.0141701;0.0;4.8821246e-05;1000.1737;  4.0000001E-01;143.89714;3;-7.7466154;0.0;0.040469758;0;-0.10398841;  1.0003556E+04;  0.0000000E+00;  1.0423825E-10;  1.0000000E+04;  0.0000000E+00;  9.9999209E+03;-0.1071872;0.0;0.0031987894;48.706181
  2.1998084E-01;  9.9999998E-03;  4.0000111E-02;1387;-0.014240596;0.0;0.00010022391;1000.1743;  4.0000001E-01;144.39096;3;-7.7824793;0.0;0.081413932;0;-0.10438467;  1.0003573E+04;  0.0000000E+00;  2.2059868E-10;  1.0000000E+04;  0.0000000E+00;  9.9999102E+03;-0.1077932;0.0;0.0034085393;52.961227
  2.1998070E-01;  9.9999998E-03;  6.0000177E-02;1388;-0.014354012;0.0;0.00015688187;1000.1751;  4.0000001E-01;145.08229;3;-7.8395205;0.0;0.12274289;0;-0.10504374;  1.0003607E+04;  0.0000000E+00; -8.0290730E-10;  1.0000000E+04;  0.0000000E+00;  9.9998984E+03;-0.10878021;0.0;0.0037364715;59.772961
  2.1998051E-01;  9.9999998E-03;  8.0000266E-02;1389;-0.014503861;0.0;0.00022112341;1000.1763;  4.0000001E-01;146.06992;3;-7.9135642;0.0;0.16445532;0;-0.10596082;  1.0003649E+04;  0.0000000E+00; -2.1245559E-09;  1.0000000E+04;  0.0000000E+00;  9.9998789E+03;-0.11011223;0.0;0.0041514072;68.720909
  2.1998030E-01;  9.9999998E-03;  1.0000037E-01;1390;-0.014680054;0.0;0.00029464363;1000.1778;  4.0000001E-01;147.25507;3;-7.9981623;0.0;0.20693818;0;-0.10712073;  1.0003703E+04;  0.0000000E+00; -3.7297396E-09;  1.0000000E+04;  0.0000000E+00;  9.9998564E+03;-0.11173602;0.0;0.0046152947;79.258118
  2.1998006E-01;  9.9999998E-03;  1.2000050E-01;1391;-0.014867581;0.0;0.0003781649;1000.1796;  4.0000001E-01;148.83528;3;-8.0844116;0.0;0.24919617;0;-0.10848136;  1.0003763E+04;  0.0000000E+00; -6.3344396E-10;  1.0000000E+04;  0.0000000E+00;  9.9998311E+03;-0.11357941;0.0;0.0050980519;90.876099
  2.1997985E-01;  9.9999998E-03;  1.4000064E-01;1392;-0.015045428;0.0;0.00046882799;1000.1816;  4.0000001E-01;150.41548;3;-8.1603241;0.0;0.28929785;0;-0.10993914;  1.0003828E+04;  0.0000000E+00;  1.0663971E-08;  1.0000000E+04;  0.0000000E+00;  9.9998086E+03;-0.11554941;0.0;0.0056102616;103.52094
  2.3997734E-01;  9.9999998E-03; -7.9361891E-13;1416;-0.016456382;0.0;6.3904576e-10;1000.2021;  4.0000001E-01;167.40265;3;-8.7897854;0.0;1.2447299e-06;0;-0.11765406;  1.0004145E+04;  0.0000000E+00; -1.5180371E-15;  1.0000000E+04;  0.0000000E+00;  9.9999014E+03;-0.12191836;0.0;0.0042642923;59.491119
  2.3997730E-01;  9.9999998E-03;  2.0000072E-02;1417;-0.016485043;0.0;7.2433504e-05;1000.2023;  4.0000001E-01;167.60017;3;-8.8036728;0.0;0.061477326;0;-0.11779593;  1.0004150E+04;  0.0000000E+00;  7.6761764E-10;  1.0000000E+04;  0.0000000E+00;  9.9998955E+03;-0.12215278;0.0;0.0043568476;61.39677
  2.3997720E-01;  9.9999998E-03;  4.0000152E-02;1418;-0.016569698;0.0;0.00014827661;1000.203;  4.0000001E-01;168.19275;3;-8.8444471;0.0;0.12269008;0;-0.11822227;  1.0004177E+04;  0.0000000E+00;  1.2994329E-09;  1.0000000E+04;  0.0000000E+00;  9.9998838E+03;-0.12284892;0.0;0.0046266443;67.018211
  2.3997703E-01;  9.9999998E-03;  6.0000245E-02;1419;-0.016706398;0.0;0.00023055673;1000.204;  4.0000001E-01;168.98285;3;-8.9096537;0.0;0.1835545;0;-0.11893425;  1.0004213E+04;  0.0000000E+00;  6.8287426E-10;  1.0000000E+04;  0.0000000E+00;  9.9998652E+03;-0.12398508;0.0;0.0050508338;76.068321
  2.3997679E-01;  9.9999998E-03;  8.0000363E-02;1420;-0.016887926;0.0;0.00032296174;1000.2054;  4.0000001E-01;170.168;3;-8.9944372;0.0;0.24583891;0;-0.11993013;  1.0004268E+04;  0.0000000E+00; -2.1061173E-09;  1.0000000E+04;  0.0000000E+00;  9.9998398E+03;-0.12552425;0.0;0.0055941278;88.081291
  2.3997653E-01;  9.9999998E-03;  1.0000050E-01;1421;-0.017103037;0.0;0.00042804808;1000.207;  4.0000001E-01;171.55067;3;-9.091898;0.0;0.30819151;0;-0.12119634;  1.0004333E+04;  0.0000000E+00; -4.4148298E-09;  1.0000000E+04;  0.0000000E+00;  9.9998105E+03;-0.12741263;0.0;0.0062162899;102.48167
  2.3997623E-01;  9.9999998E-03;  1.2000068E-01;1422;-0.017335206;0.0;0.00054520852;1000.209;  4.0000001E-01;173.22964;3;-9.1923761;0.0;0.36845881;0;-0.12268735;  1.0004407E+04;  0.0000000E+00; -1.1323623E-09;  1.0000000E+04;  0.0000000E+00;  9.9997764E+03;-0.12958007;0.0;0.0068927165;118.82426
  2.3997593E-01;  9.9999998E-03;  1.4000088E-01;1423;-0.01756113;0.0;0.00067178527;1000.2112;  4.0000001E-01;175.00737;3;-9.2826042;0.0;0.42624307;0;-0.12428601;  1.0004491E+04;  0.0000000E+00;  9.2441246E-09;  1.0000000E+04;  0.0000000E+00;  9.9997373E+03;-0.13194077;0.0;0.0076547554;137.33397
  2.5997314E-01;  9.9999998E-03; -1.0792983E-12;1447;-0.019086376;0.0;-1.0397729e-09;1000.2352;  4.0000001E-01;194.85864;3;-9.9545021;0.0;2.5546162e-06;0;-0.13309313;  1.0004834E+04;  0.0000000E+00; -9.3457427E-17;  1.0000000E+04;  0.0000000E+00;  9.9998721E+03;-0.13874857;0.0;0.0056554433;74.008858
  2.5997308E-01;  9.9999998E-03;  2.0000096E-02;1448;-0.019120432;0.0;0.00010190006;1000.2355;  4.0000001E-01;195.05617;3;-9.9702129;0.0;0.086445853;0;-0.13324042;  1.0004845E+04;  0.0000000E+00;  2.4387101E-10;  1.0000000E+04;  0.0000000E+00;  9.9998672E+03;-0.13901594;0.0;0.0057755318;76.506653
  2.5997296E-01;  9.9999998E-03;  4.0000200E-02;1449;-0.019221144;0.0;0.00020820188;1000.2361;  4.0000001E-01;195.64874;3;-10.015872;0.0;0.17387189;0;-0.13368413;  1.0004874E+04;  0.0000000E+00;  2.2175572E-09;  1.0000000E+04;  0.0000000E+00;  9.9998496E+03;-0.13981077;0.0;0.0061266366;83.8964
  2.5997275E-01;  9.9999998E-03;  6.0000326E-02;1450;-0.019384166;0.0;0.00032347586;1000.2372;  4.0000001E-01;196.53761;3;-10.088817;0.0;0.2616953;0;-0.13442755;  1.0004923E+04;  0.0000000E+00;  2.5143587E-09;  1.0000000E+04;  0.0000000E+00;  9.9998262E+03;-0.1411102;0.0;0.0066826474;95.871208
  2.5997245E-01;  9.9999998E-03;  8.0000482E-02;1451;-0.019601621;0.0;0.00045236739;1000.2387;  4.0000001E-01;197.72276;3;-10.184278;0.0;0.35080871;0;-0.13547127;  1.0004985E+04;  0.0000000E+00; -2.3779811E-10;  1.0000000E+04;  0.0000000E+00;  9.9997930E+03;-0.14287582;0.0;0.0074045509;111.94454
  2.5997210E-01;  9.9999998E-03;  1.0000067E-01;1452;-0.019861083;0.0;0.00059741613;1000.2407;  4.0000001E-01;199.40172;3;-10.294518;0.0;0.43706167;0;-0.13680163;  1.0005066E+04;  0.0000000E+00; -4.0988062E-09;  1.0000000E+04;  0.0000000E+00;  9.9997520E+03;-0.14505228;0.0;0.0082506491;131.54425
  2.5997171E-01;  9.9999998E-03;  1.2000090E-01;1453;-0.020144368;0.0;0.00075787678;1000.243;  4.0000001E-01;201.37697;3;-10.408587;0.0;0.52147961;0;-0.1383671;  1.0005157E+04;  0.0000000E+00; -5.6021916E-09;  1.0000000E+04;  0.0000000E+00;  9.9997051E+03;-0.14756872;0.0;0.0092016216;154.31354
  2.5997132E-01;  9.9999998E-03;  1.4000118E-01;1454;-0.020425379;0.0;0.00093391235;1000.2452;  4.0000001E-01;203.15471;3;-10.512801;0.0;0.60257721;0;-0.14003591;  1.0005258E+04;  0.0000000E+00;  2.5603935E-09;  1.0000000E+04;  0.0000000E+00;  9.9996475E+03;-0.1503415;0.0;0.010305581;180.7401
  2.7996823E-01;  9.9999998E-03; -4.1936940E-13;1478;-0.022076359;0.0;-5.9710192e-10;1000.2731;  4.0000001E-01;226.26515;3;-11.240163;0.0;1.5140629e-06;0;-0.15033065;  1.0005624E+04;  0.0000000E+00; -8.0994339E-16;  1.0000000E+04;  0.0000000E+00;  9.9998398E+03;-0.15762065;0.0;0.0072900122;90.800339
  2.7996817E-01;  9.9999998E-03;  2.0000122E-02;1479;-0.022116484;0.0;0.00013724263;1000.2733;  4.0000001E-01;226.46268;3;-11.257168;0.0;0.11968029;0;-0.15047874;  1.0005637E+04;  0.0000000E+00;  1.7534358E-09;  1.0000000E+04;  0.0000000E+00;  9.9998330E+03;-0.15792435;0.0;0.0074456185;94.031136
  2.7996799E-01;  9.9999998E-03;  4.0000260E-02;1480;-0.022235261;0.0;0.0002805554;1000.274;  4.0000001E-01;227.05525;3;-11.307495;0.0;0.23888421;0;-0.15092552;  1.0005672E+04;  0.0000000E+00;  4.3723754E-09;  1.0000000E+04;  0.0000000E+00;  9.9998135E+03;-0.15882747;0.0;0.0079019498;103.61864
  2.7996773E-01;  9.9999998E-03;  6.0000420E-02;1481;-0.022427823;0.0;0.00043610248;1000.2753;  4.0000001E-01;228.04288;3;-11.387723;0.0;0.3592146;0;-0.15167665;  1.0005729E+04;  0.0000000E+00;  5.4370211E-09;  1.0000000E+04;  0.0000000E+00;  9.9997803E+03;-0.16030596;0.0;0.0086293146;119.2549
  2.7996737E-01;  9.9999998E-03;  8.0000617E-02;1482;-0.022685638;0.0;0.0006081913;1000.2768;  4.0000001E-01;229.3268;3;-11.492955;0.0;0.47590524;0;-0.15273468;  1.0005809E+04;  0.0000000E+00;  4.4717736E-09;  1.0000000E+04;  0.0000000E+00;  9.9997344E+03;-0.16231893;0.0;0.0095842546;140.45697
  2.7996695E-01;  9.9999998E-03;  1.0000087E-01;1483;-0.02299517;0.0;0.00080032565;1000.2792;  4.0000001E-01;231.30205;3;-11.614315;0.0;0.59204149;0;-0.15408531;  1.0005903E+04;  0.0000000E+00; -1.7685331E-10;  1.0000000E+04;  0.0000000E+00;  9.9996826E+03;-0.16480705;0.0;0.010721743;166.67377
  2.7996644E-01;  9.9999998E-03;  1.2000117E-01;1484;-0.023336479;0.0;0.0010161403;1000.2817;  4.0000001E-01;233.37607;3;-11.74138;0.0;0.70924962;0;-0.1556716;  1.0006018E+04;  0.0000000E+00; -2.7998803E-09;  1.0000000E+04;  0.0000000E+00;  9.9996143E+03;-0.16769408;0.0;0.012022487;197.61398
  2.7996597E-01;  9.9999998E-03;  1.4000154E-01;1485;-0.023681514;0.0;0.0012567596;1000.2841;  4.0000001E-01;235.35132;3;-11.859179;0.0;0.82078624;0;-0.15734951;  1.0006143E+04;  0.0000000E+00; -6.3109018E-10;  1.0000000E+04;  0.0000000E+00;  9.9995400E+03;-0.17088915;0.0;0.013539636;233.91605
  2.9996252E-01;  9.9999998E-03; -8.4914356E-13;1509;-0.025469474;0.0;-6.882302e-10;1000.3166;  4.0000001E-01;262.31348;3;-12.657343;0.0;2.9897274e-07;0;-0.16952892;  1.0006529E+04;  0.0000000E+00; -1.0207024E-15;  1.0000000E+04;  0.0000000E+00;  9.9998047E+03;-0.1786755;0.0;0.0091465907;109.93716
  2.9996243E-01;  9.9999998E-03;  2.0000152E-02;1510;-0.025516275;0.0;0.00017824926;1000.3169;  4.0000001E-01;262.51099;3;-12.675632;0.0;0.15915708;0;-0.16967312;  1.0006546E+04;  0.0000000E+00;  2.5024849E-09;  1.0000000E+04;  0.0000000E+00;  9.9997939E+03;-0.17901948;0.0;0.0093463715;114.03793
  2.9996225E-01;  9.9999998E-03;  4.0000323E-02;1511;-0.025654905;0.0;0.00036372701;1000.3176;  4.0000001E-01;263.10358;3;-12.728951;0.0;0.31570733;0;-0.17010896;  1.0006585E+04;  0.0000000E+00;  7.6171149E-09;  1.0000000E+04;  0.0000000E+00;  9.9997676E+03;-0.18004262;0.0;0.0099336701;126.24297
  2.9996192E-01;  9.9999998E-03;  6.0000524E-02;1512;-0.025880231;0.0;0.0005641235;1000.319;  4.0000001E-01;264.28873;3;-12.815171;0.0;0.4710198;0;-0.17084451;  1.0006656E+04;  0.0000000E+00;  1.2964369E-08;  1.0000000E+04;  0.0000000E+00;  9.9997275E+03;-0.18171874;0.0;0.010874228;146.26479
  2.9996148E-01;  9.9999998E-03;  8.0000773E-02;1513;-0.026183169;0.0;0.00078535266;1000.321;  4.0000001E-01;265.96768;3;-12.928253;0.0;0.62292594;0;-0.17188497;  1.0006753E+04;  0.0000000E+00;  1.4532893E-08;  1.0000000E+04;  0.0000000E+00;  9.9996699E+03;-0.18400256;0.0;0.012117597;173.64589
  2.9996094E-01;  9.9999998E-03;  1.0000109E-01;1514;-0.026549043;0.0;0.0010348669;1000.3234;  4.0000001E-01;267.94293;3;-13.060162;0.0;0.77840507;0;-0.17321718;  1.0006870E+04;  0.0000000E+00;  1.1608492E-08;  1.0000000E+04;  0.0000000E+00;  9.9995977E+03;-0.18682724;0.0;0.013610064;207.85551
  2.9996032E-01;  9.9999998E-03;  1.2000148E-01;1515;-0.026956357;0.0;0.0013169587;1000.3259;  4.0000001E-01;270.01697;3;-13.198183;0.0;0.92858022;0;-0.17478229;  1.0007009E+04;  0.0000000E+00;  5.9199770E-09;  1.0000000E+04;  0.0000000E+00;  9.9995117E+03;-0.19010448;0.0;0.015322195;248.60329
  2.9995969E-01;  9.9999998E-03;  1.4000195E-01;1516;-0.027375618;0.0;0.0016313785;1000.3284;  4.0000001E-01;272.09097;3;-13.329331;0.0;1.0687121;0;-0.17643051;  1.0007159E+04;  0.0000000E+00;  3.8239523E-10;  1.0000000E+04;  0.0000000E+00;  9.9994102E+03;-0.19372553;0.0;0.017295014;296.50214
  3.1995589E-01;  9.9999998E-03; -7.6272613E-14;1540;-0.029312525;0.0;-9.7257591e-10;1000.3661;  4.0000001E-01;303.29996;3;-14.218168;0.0;-4.3330965e-06;0;-0.19083986;  1.0007566E+04;  0.0000000E+00; -5.7854013E-16;  1.0000000E+04;  0.0000000E+00;  9.9997598E+03;-0.20203981;0.0;0.011199947;131.7977
  3.1995580E-01;  9.9999998E-03;  2.0000184E-02;1541;-0.029366594;0.0;0.00022247704;1000.3665;  4.0000001E-01;303.69501;3;-14.236256;0.0;0.19932507;0;-0.19097596;  1.0007584E+04;  0.0000000E+00;  3.3358629E-09;  1.0000000E+04;  0.0000000E+00;  9.9997500E+03;-0.20242891;0.0;0.011452941;136.88388
  3.1995556E-01;  9.9999998E-03;  4.0000390E-02;1542;-0.029527182;0.0;0.00045416126;1000.3673;  4.0000001E-01;304.28757;3;-14.292026;0.0;0.40047973;0;-0.19138923;  1.0007634E+04;  0.0000000E+00;  1.3231548E-08;  1.0000000E+04;  0.0000000E+00;  9.9997168E+03;-0.20358703;0.0;0.012197796;152.06381
  3.1995514E-01;  9.9999998E-03;  6.0000636E-02;1543;-0.029789142;0.0;0.00070424774;1000.3688;  4.0000001E-01;305.5715;3;-14.382809;0.0;0.59469354;0;-0.19208981;  1.0007716E+04;  0.0000000E+00;  2.2361219E-08;  1.0000000E+04;  0.0000000E+00;  9.9996660E+03;-0.20548356;0.0;0.013393749;177.09634
  3.1995460E-01;  9.9999998E-03;  8.0000944E-02;1544;-0.03014244;0.0;0.00098291005;1000.371;  4.0000001E-01;307.34921;3;-14.501088;0.0;0.79257661;0;-0.193087;  1.0007829E+04;  0.0000000E+00;  3.0769723E-08;  1.0000000E+04;  0.0000000E+00;  9.9995928E+03;-0.20806599;0.0;0.014978995;211.57227
  3.1995392E-01;  9.9999998E-03;  1.0000134E-01;1545;-0.030571239;0.0;0.0012980879;1000.3735;  4.0000001E-01;309.42322;3;-14.63927;0.0;0.98595679;0;-0.19437274;  1.0007972E+04;  0.0000000E+00;  2.9942122E-08;  1.0000000E+04;  0.0000000E+00;  9.9995020E+03;-0.21125594;0.0;0.016883193;254.97545
  3.1995317E-01;  9.9999998E-03;  1.2000182E-01;1546;-0.031052569;0.0;0.0016547045;1000.3764;  4.0000001E-01;311.8923;3;-14.784851;0.0;1.172314;0;-0.19589262;  1.0008139E+04;  0.0000000E+00;  2.3759293E-08;  1.0000000E+04;  0.0000000E+00;  9.9993936E+03;-0.21494637;0.0;0.019053759;306.94525
  3.1995237E-01;  9.9999998E-03;  1.4000243E-01;1547;-0.031555749;0.0;0.0020515341;1000.3792;  4.0000001E-01;314.16385;3;-14.925293;0.0;1.3460525;0;-0.19749948;  1.0008323E+04;  0.0000000E+00;  1.1295630E-08;  1.0000000E+04;  0.0000000E+00;  9.9992646E+03;-0.21899997;0.0;0.021500485;367.89261
  3.3994818E-01;  9.9999998E-03;  6.2422432E-14;1571;-0.03365599;0.0;2.1447071e-09;1000.4226;  4.0000001E-01;350.1134;3;-15.932491;0.0;1.3773542e-05;0;-0.21438256;  1.0008740E+04;  0.0000000E+00; -1.2185709E-15;  1.0000000E+04;  0.0000000E+00;  9.9997129E+03;-0.22781742;0.0;0.013434857;157.41211
  3.3994809E-01;  9.9999998E-03;  2.0000216E-02;1572;-0.033718381;0.0;0.00026812733;1000.4229;  4.0000001E-01;350.4097;3;-15.951617;0.0;0.24455716;0;-0.21450874;  1.0008759E+04;  0.0000000E+00;  4.3827648E-09;  1.0000000E+04;  0.0000000E+00;  9.9997002E+03;-0.22825858;0.0;0.013749839;163.55382
  3.3994779E-01;  9.9999998E-03;  4.0000457E-02;1573;-0.033903673;0.0;0.00054887874;1000.4239;  4.0000001E-01;351.1998;3;-16.008173;0.0;0.49170703;0;-0.21489248;  1.0008818E+04;  0.0000000E+00;  1.8820675E-08;  1.0000000E+04;  0.0000000E+00;  9.9996582E+03;-0.22957018;0.0;0.014677705;181.93268
  3.3994728E-01;  9.9999998E-03;  6.0000751E-02;1574;-0.034206428;0.0;0.000853064;1000.4258;  4.0000001E-01;352.78;3;-16.099712;0.0;0.73165417;0;-0.21554716;  1.0008920E+04;  0.0000000E+00;  3.6690931E-08;  1.0000000E+04;  0.0000000E+00;  9.9995938E+03;-0.23171583;0.0;0.016168671;212.38747
  3.3994663E-01;  9.9999998E-03;  8.0001123E-02;1575;-0.034615714;0.0;0.0011951207;1000.4283;  4.0000001E-01;354.854;3;-16.220108;0.0;0.97782975;0;-0.21648757;  1.0009058E+04;  0.0000000E+00;  5.0898183E-08;  1.0000000E+04;  0.0000000E+00;  9.9995078E+03;-0.23463209;0.0;0.018144513;254.59378
  3.3994579E-01;  9.9999998E-03;  1.0000160E-01;1576;-0.035114624;0.0;0.0015827122;1000.431;  4.0000001E-01;357.02676;3;-16.35955;0.0;1.2121063;0;-0.21771473;  1.0009229E+04;  0.0000000E+00;  5.7420170E-08;  1.0000000E+04;  0.0000000E+00;  9.9993945E+03;-0.23822428;0.0;0.020509563;308.06583
  3.3994484E-01;  9.9999998E-03;  1.2000220E-01;1577;-0.035678346;0.0;0.0020223863;1000.4344;  4.0000001E-01;359.8909;3;-16.507578;0.0;1.4375823;0;-0.21918522;  1.0009430E+04;  0.0000000E+00;  4.4570466E-08;  1.0000000E+04;  0.0000000E+00;  9.9992598E+03;-0.24236014;0.0;0.02317493;372.33936
  3.3994383E-01;  9.9999998E-03;  1.4000294E-01;1578;-0.036274992;0.0;0.0025126466;1000.4374;  4.0000001E-01;362.35995;3;-16.651745;0.0;1.6507809;0;-0.22076507;  1.0009650E+04;  0.0000000E+00;  3.3909132E-08;  1.0000000E+04;  0.0000000E+00;  9.9991016E+03;-0.24686652;0.0;0.026101457;447.5191
  3.5993928E-01;  9.9999998E-03; -2.2014187E-12;1602;-0.038553808;0.0;2.3636118e-10;1000.486;  4.0000001E-01;402.65503;3;-17.812815;0.0;6.4093347e-06;0;-0.24021642;  1.0010072E+04;  0.0000000E+00;  1.2309725E-15;  1.0000000E+04;  0.0000000E+00;  9.9996523E+03;-0.25608382;0.0;0.015867399;188.94673
  3.5993916E-01;  9.9999998E-03;  2.0000251E-02;1603;-0.03862552;0.0;0.00031442818;1000.4866;  4.0000001E-01;403.14883;3;-17.832546;0.0;0.29174745;0;-0.24033354;  1.0010095E+04;  0.0000000E+00;  7.7862889E-09;  1.0000000E+04;  0.0000000E+00;  9.9996377E+03;-0.25658515;0.0;0.016251605;196.13957
  3.5993880E-01;  9.9999998E-03;  4.0000532E-02;1604;-0.038838722;0.0;0.0006452729;1000.4879;  4.0000001E-01;404.13647;3;-17.888369;0.0;0.58461457;0;-0.24069051;  1.0010167E+04;  0.0000000E+00;  2.1634968E-08;  1.0000000E+04;  0.0000000E+00;  9.9995928E+03;-0.25807396;0.0;0.017383441;217.72116
  3.5993820E-01;  9.9999998E-03;  6.0000874E-02;1605;-0.039187111;0.0;0.0010073005;1000.4899;  4.0000001E-01;405.81543;3;-17.977119;0.0;0.87590867;0;-0.24130324;  1.0010285E+04;  0.0000000E+00;  4.5246651E-08;  1.0000000E+04;  0.0000000E+00;  9.9995146E+03;-0.26050511;0.0;0.019201878;253.65656
  3.5993737E-01;  9.9999998E-03;  8.0001310E-02;1606;-0.039658852;0.0;0.00141665;1000.4928;  4.0000001E-01;408.28452;3;-18.093641;0.0;1.1702418;0;-0.24219273;  1.0010449E+04;  0.0000000E+00;  6.5601689E-08;  1.0000000E+04;  0.0000000E+00;  9.9994082E+03;-0.26380071;0.0;0.021607975;303.76831
  3.5993639E-01;  9.9999998E-03;  1.0000187E-01;1607;-0.04023499;0.0;0.0018801346;1000.4962;  4.0000001E-01;411.04987;3;-18.229021;0.0;1.4504701;0;-0.2433708;  1.0010652E+04;  0.0000000E+00;  6.2591475E-08;  1.0000000E+04;  0.0000000E+00;  9.9992734E+03;-0.26784393;0.0;0.024473134;367.66046
  3.5993519E-01;  9.9999998E-03;  1.2000259E-01;1608;-0.040889643;0.0;0.0024091722;1000.5001;  4.0000001E-01;414.30902;3;-18.372955;0.0;1.7211597;0;-0.24481213;  1.0010893E+04;  0.0000000E+00;  5.6232853E-08;  1.0000000E+04;  0.0000000E+00;  9.9991123E+03;-0.27247304;0.0;0.027660904;444.80728
  3.5993394E-01;  9.9999998E-03;  1.4000349E-01;1609;-0.041590214;0.0;0.0030049845;1000.5039;  4.0000001E-01;417.46942;3;-18.515463;0.0;1.9763024;0;-0.24640262;  1.0011156E+04;  0.0000000E+00;  5.5471236E-08;  1.0000000E+04;  0.0000000E+00;  9.9989219E+03;-0.27747282;0.0;0.031070206;535.03424
  3.7992901E-01;  9.9999998E-03;  3.7424068E-13;1633;-0.044058904;0.0;2.8993405e-09;1000.5572;  4.0000001E-01;461.61621;3;-19.870226;0.0;4.90196e-06;0;-0.2683115;  1.0011572E+04;  0.0000000E+00;  2.4814567E-15;  1.0000000E+04;  0.0000000E+00;  9.9995723E+03;-0.28688523;0.0;0.018573724;230.31772
  3.7992886E-01;  9.9999998E-03;  2.0000292E-02;1634;-0.044141296;0.0;0.00036151271;1000.5577;  4.0000001E-01;462.11005;3;-19.888693;0.0;0.33995265;0;-0.26842514;  1.0011600E+04;  0.0000000E+00;  5.0092033E-09;  1.0000000E+04;  0.0000000E+00;  9.9995547E+03;-0.28745633;0.0;0.01903121;238.45265
  3.7992844E-01;  9.9999998E-03;  4.0000618E-02;1635;-0.044386178;0.0;0.00074292836;1000.5594;  4.0000001E-01;463.39395;3;-19.941614;0.0;0.67758238;0;-0.2687721;  1.0011687E+04;  0.0000000E+00;  1.7084730E-08;  1.0000000E+04;  0.0000000E+00;  9.9995039E+03;-0.28915095;0.0;0.020378863;262.93011
  3.7992769E-01;  9.9999998E-03;  6.0001019E-02;1636;-0.044786066;0.0;0.0011645429;1000.562;  4.0000001E-01;465.56674;3;-20.023792;0.0;1.021188;0;-0.2693691;  1.0011828E+04;  0.0000000E+00;  3.5101404E-08;  1.0000000E+04;  0.0000000E+00;  9.9994150E+03;-0.29191226;0.0;0.022543173;303.89938
  3.7992671E-01;  9.9999998E-03;  8.0001526E-02;1637;-0.045326836;0.0;0.0016402375;1000.5656;  4.0000001E-01;468.5296;3;-20.129639;0.0;1.3602237;0;-0.27024117;  1.0012019E+04;  0.0000000E+00;  4.6115503E-08;  1.0000000E+04;  0.0000000E+00;  9.9992959E+03;-0.29564309;0.0;0.025401933;361.41846
  3.7992549E-01;  9.9999998E-03;  1.0000218E-01;1638;-0.045989029;0.0;0.0021842034;1000.5699;  4.0000001E-01;472.18381;3;-20.253492;0.0;1.6883743;0;-0.27141219;  1.0012261E+04;  0.0000000E+00;  2.7021100E-08;  1.0000000E+04;  0.0000000E+00;  9.9991396E+03;-0.30020067;0.0;0.028788462;435.28821
  3.7992406E-01;  9.9999998E-03;  1.2000303E-01;1639;-0.046744939;0.0;0.0028110452;1000.5746;  4.0000001E-01;476.03555;3;-20.385483;0.0;2.0072353;0;-0.27287623;  1.0012547E+04;  0.0000000E+00;  1.2493858E-08;  1.0000000E+04;  0.0000000E+00;  9.9989512E+03;-0.30538759;0.0;0.032511361;525.05237
  3.7992248E-01;  9.9999998E-03;  1.4000410E-01;1640;-0.047559321;0.0;0.0035206689;1000.5796;  4.0000001E-01;480.18359;3;-20.514547;0.0;2.3008444;0;-0.27454343;  1.0012864E+04;  0.0000000E+00;  4.0893134E-08;  1.0000000E+04;  0.0000000E+00;  9.9987305E+03;-0.31094521;0.0;0.036401775;630.4566
  3.9991722E-01;  9.9999998E-03; -1.5653730E-12;1664;-0.050220415;0.0;2.6779465e-09;1000.6364;  4.0000001E-01;527.19446;3;-22.11212;0.0;7.7639488e-06;0;-0.29852095;  1.0013267E+04;  0.0000000E+00; -2.6437188E-15;  1.0000000E+04;  0.0000000E+00;  9.9994609E+03;-0.3202461;0.0;0.021725146;287.87964
  3.9991704E-01;  9.9999998E-03;  2.0000350E-02;1665;-0.050314974;0.0;0.00041014803;1000.637;  4.0000001E-01;527.78705;3;-22.128077;0.0;0.38619453;0;-0.2986435;  1.0013298E+04;  0.0000000E+00;  9.4498154E-10;  1.0000000E+04;  0.0000000E+00;  9.9994434E+03;-0.32089835;0.0;0.022254866;296.71988
  3.9991650E-01;  9.9999998E-03;  4.0000737E-02;1666;-0.05059604;0.0;0.00084344548;1000.6389;  4.0000001E-01;529.36725;3;-22.17532;0.0;0.76467836;0;-0.29901543;  1.0013398E+04;  0.0000000E+00; -2.2278763E-09;  1.0000000E+04;  0.0000000E+00;  9.9993867E+03;-0.32283065;0.0;0.023815218;323.40253
  3.9991564E-01;  9.9999998E-03;  6.0001206E-02;1667;-0.051054206;0.0;0.0013253629;1000.6423;  4.0000001E-01;532.13257;3;-22.245739;0.0;1.1553034;0;-0.2996521;  1.0013560E+04;  0.0000000E+00; -1.0012278E-08;  1.0000000E+04;  0.0000000E+00;  9.9992900E+03;-0.32597217;0.0;0.026320068;368.31857
  3.9991444E-01;  9.9999998E-03;  8.0001801E-02;1668;-0.051673044;0.0;0.0018700133;1000.647;  4.0000001E-01;536.08307;3;-22.335373;0.0;1.5412159;0;-0.30057892;  1.0013788E+04;  0.0000000E+00; -3.6435448E-08;  1.0000000E+04;  0.0000000E+00;  9.9991543E+03;-0.33020222;0.0;0.029623298;431.85312
  3.9991295E-01;  9.9999998E-03;  1.0000256E-01;1669;-0.05243228;0.0;0.0025002335;1000.6525;  4.0000001E-01;540.62616;3;-22.43919;0.0;1.9167393;0;-0.30182874;  1.0014072E+04;  0.0000000E+00; -9.9564922E-08;  1.0000000E+04;  0.0000000E+00;  9.9989805E+03;-0.33534676;0.0;0.033518024;514.13416
  3.9991120E-01;  9.9999998E-03;  1.2000354E-01;1670;-0.053301584;0.0;0.0032317259;1000.6589;  4.0000001E-01;545.8606;3;-22.550364;0.0;2.2850857;0;-0.30341345;  1.0014411E+04;  0.0000000E+00; -1.5258117E-07;  1.0000000E+04;  0.0000000E+00;  9.9987705E+03;-0.34116974;0.0;0.037756298;614.98737
  3.9990929E-01;  9.9999998E-03;  1.4000478E-01;1671;-0.054240245;0.0;0.0040619546;1000.6652;  4.0000001E-01;551.09497;3;-22.653065;0.0;2.6202803;0;-0.30526349;  1.0014791E+04;  0.0000000E+00; -9.0401315E-08;  1.0000000E+04;  0.0000000E+00;  9.9985195E+03;-0.34736806;0.0;0.042104572;734.46313
  4.1990373E-01;  9.9999998E-03; -5.3824957E-12;1695;-0.057082765;0.0;2.1245323e-09;1000.723;  4.0000001E-01;598.99463;3;-24.54215;0.0;2.0875243e-05;0;-0.33054256;  1.0015166E+04;  0.0000000E+00;  1.3166620E-15;  1.0000000E+04;  0.0000000E+00;  9.9992979E+03;-0.35616869;0.0;0.025626114;371.06488
  4.1990352E-01;  9.9999998E-03;  2.0000441E-02;1696;-0.057191264;0.0;0.00046392527;1000.7238;  4.0000001E-01;599.68597;3;-24.554953;0.0;0.42597637;0;-0.33069298;  1.0015207E+04;  0.0000000E+00; -1.3270888E-08;  1.0000000E+04;  0.0000000E+00;  9.9992783E+03;-0.35691252;0.0;0.026219552;380.24057
  4.1990289E-01;  9.9999998E-03;  4.0000923E-02;1697;-0.057513915;0.0;0.00095371087;1000.7267;  4.0000001E-01;602.05627;3;-24.593969;0.0;0.83772349;0;-0.33114678;  1.0015318E+04;  0.0000000E+00; -3.8818360E-08;  1.0000000E+04;  0.0000000E+00;  9.9992158E+03;-0.35911432;0.0;0.027967557;408.0304
  4.1990185E-01;  9.9999998E-03;  6.0001489E-02;1698;-0.058038682;0.0;0.0014993363;1000.7311;  4.0000001E-01;605.71051;3;-24.647449;0.0;1.270058;0;-0.33191302;  1.0015509E+04;  0.0000000E+00; -9.1102415E-08;  1.0000000E+04;  0.0000000E+00;  9.9991172E+03;-0.36268514;0.0;0.030772131;455.09775
  4.1990042E-01;  9.9999998E-03;  8.0002189E-02;1699;-0.058747213;0.0;0.0021199847;1000.7371;  4.0000001E-01;610.64862;3;-24.715015;0.0;1.7012566;0;-0.33301371;  1.0015771E+04;  0.0000000E+00; -1.8688247E-07;  1.0000000E+04;  0.0000000E+00;  9.9989736E+03;-0.36747697;0.0;0.034463253;522.20587
  4.1989863E-01;  9.9999998E-03;  1.0000307E-01;1700;-0.059616286;0.0;0.0028418337;1000.7444;  4.0000001E-01;616.77191;3;-24.789516;0.0;2.1234756;0;-0.33448592;  1.0016105E+04;  0.0000000E+00; -3.3965304E-07;  1.0000000E+04;  0.0000000E+00;  9.9987910E+03;-0.37328109;0.0;0.038795173;609.91022
  4.1989648E-01;  9.9999998E-03;  1.2000420E-01;1701;-0.060612433;0.0;0.0036837165;1000.7529;  4.0000001E-01;623.78406;3;-24.867495;0.0;2.5408132;0;-0.3363516;  1.0016500E+04;  0.0000000E+00; -4.7182013E-07;  1.0000000E+04;  0.0000000E+00;  9.9985625E+03;-0.37981993;0.0;0.043468334;718.56317
  4.1989413E-01;  9.9999998E-03;  1.4000562E-01;1702;-0.061689187;0.0;0.0046408959;1000.7615;  4.0000001E-01;630.8949;3;-24.932259;0.0;2.9230304;0;-0.33855107;  1.0016946E+04;  0.0000000E+00; -3.7163292E-07;  1.0000000E+04;  0.0000000E+00;  9.9982900E+03;-0.3867487;0.0;0.04819762;849.05603
  4.3988836E-01;  9.9999998E-03; -4.2923415E-13;1726;-0.06468942;0.0;-4.3230658e-10;1000.8171;  4.0000001E-01;677.01678;3;-27.160477;0.0;-6.9658308e-06;0;-0.36383098;  1.0017297E+04;  0.0000000E+00; -1.6058375E-15;  1.0000000E+04;  0.0000000E+00;  9.9990557E+03;-0.39457893;0.0;0.030747939;492.78076
  4.3988812E-01;  9.9999998E-03;  2.0000594E-02;1727;-0.064814821;0.0;0.00052867638;1000.8183;  4.0000001E-01;677.90564;3;-27.171415;0.0;0.4471474;0;-0.36403617;  1.0017338E+04;  0.0000000E+00; -2.1029223E-08;  1.0000000E+04;  0.0000000E+00;  9.9990371E+03;-0.39542302;0.0;0.031386852;501.81482
  4.3988737E-01;  9.9999998E-03;  4.0001225E-02;1728;-0.065185726;0.0;0.0010897;1000.822;  4.0000001E-01;680.96729;3;-27.198309;0.0;0.89766896;0;-0.3646507;  1.0017469E+04;  0.0000000E+00; -8.0735042E-08;  1.0000000E+04;  0.0000000E+00;  9.9989766E+03;-0.39791894;0.0;0.033268243;529.27112
  4.3988612E-01;  9.9999998E-03;  6.0001943E-02;1729;-0.065787159;0.0;0.0017107778;1000.8278;  4.0000001E-01;685.80664;3;-27.230171;0.0;1.3604468;0;-0.36567372;  1.0017684E+04;  0.0000000E+00; -1.8912181E-07;  1.0000000E+04;  0.0000000E+00;  9.9988789E+03;-0.40195677;0.0;0.036283035;576.05475
  4.3988442E-01;  9.9999998E-03;  8.0002792E-02;1730;-0.066598795;0.0;0.0024182179;1000.8356;  4.0000001E-01;692.2262;3;-27.268244;0.0;1.8280573;0;-0.36711955;  1.0017984E+04;  0.0000000E+00; -3.6851154E-07;  1.0000000E+04;  0.0000000E+00;  9.9987344E+03;-0.40735775;0.0;0.040238217;643.26093
  4.3988225E-01;  9.9999998E-03;  1.0000384E-01;1731;-0.067592889;0.0;0.0032403159;1000.8452;  4.0000001E-01;700.22595;3;-27.304779;0.0;2.2952788;0;-0.36902073;  1.0018367E+04;  0.0000000E+00; -6.4205466E-07;  1.0000000E+04;  0.0000000E+00;  9.9985449E+03;-0.41387331;0.0;0.044852585;731.86365
  4.3987969E-01;  9.9999998E-03;  1.2000514E-01;1732;-0.068732642;0.0;0.0041984781;1000.8565;  4.0000001E-01;709.6084;3;-27.338182;0.0;2.7627423;0;-0.37140223;  1.0018827E+04;  0.0000000E+00; -9.0989266E-07;  1.0000000E+04;  0.0000000E+00;  9.9983125E+03;-0.42118821;0.0;0.049785964;842.91534
  4.3987682E-01;  9.9999998E-03;  1.4000675E-01;1733;-0.069964238;0.0;0.0052890955;1000.8683;  4.0000001E-01;719.38586;3;-27.352409;0.0;3.1951404;0;-0.37419316;  1.0019346E+04;  0.0000000E+00; -8.1785225E-07;  1.0000000E+04;  0.0000000E+00;  9.9980293E+03;-0.42891812;0.0;0.054724962;978.74786
  4.5987087E-01;  9.9999998E-03;  5.5785194E-12;1757;-0.07309179;0.0;1.3276041e-09;1000.9185;  4.0000063E-01;760.96442;3;-29.96699;0.0;-6.5641143e-07;0;-0.39738712;  1.0019648E+04;  0.0000000E+00; -1.5677205E-17;  1.0000000E+04;  0.0000000E+00;  9.9986992E+03;-0.4351351;0.0;0.037747975;669.30249
  4.5987058E-01;  9.9999998E-03;  2.0000843E-02;1758;-0.073236153;0.0;0.0006217467;1000.92;  4.0000060E-01;762.14954;3;-29.970341;0.0;0.46892521;0;-0.39768076;  1.0019697E+04;  0.0000000E+00; -2.7255860E-08;  1.0000000E+04;  0.0000000E+00;  9.9986836E+03;-0.43608278;0.0;0.038402021;677.67542
  4.5986968E-01;  9.9999998E-03;  4.0001724E-02;1759;-0.073662765;0.0;0.0012784322;1000.9244;  4.0000057E-01;765.80377;3;-29.981033;0.0;0.94003242;0;-0.3985545;  1.0019843E+04;  0.0000000E+00; -1.0186496E-07;  1.0000000E+04;  0.0000000E+00;  9.9986289E+03;-0.43888074;0.0;0.040326245;703.19977
  4.5986822E-01;  9.9999998E-03;  6.0002681E-02;1760;-0.074353524;0.0;0.0019977153;1000.9319;  4.0000054E-01;772.02582;3;-29.988224;0.0;1.4144962;0;-0.39999473;  1.0020084E+04;  0.0000000E+00; -2.4488335E-07;  1.0000000E+04;  0.0000000E+00;  9.9985322E+03;-0.44339612;0.0;0.043401394;746.89813
  4.5986620E-01;  9.9999998E-03;  8.0003761E-02;1761;-0.075283416;0.0;0.0028115967;1000.942;  4.0000057E-01;780.42059;3;-29.99143;0.0;1.9121457;0;-0.40200153;  1.0020420E+04;  0.0000000E+00; -4.9037538E-07;  1.0000000E+04;  0.0000000E+00;  9.9984004E+03;-0.44941491;0.0;0.047413372;809.99408
  4.5986360E-01;  9.9999998E-03;  1.0000502E-01;1762;-0.076419838;0.0;0.0037523415;1000.9547;  4.0000057E-01;790.98816;3;-29.979891;0.0;2.4283621;0;-0.40459871;  1.0020855E+04;  0.0000000E+00; -8.7324770E-07;  1.0000000E+04;  0.0000000E+00;  9.9982207E+03;-0.45664921;0.0;0.05205049;893.66638
  4.5986053E-01;  9.9999998E-03;  1.2000654E-01;1763;-0.077723555;0.0;0.004836523;1000.9695;  4.0000066E-01;803.23474;3;-29.960712;0.0;2.936461;0;-0.40780079;  1.0021376E+04;  0.0000000E+00; -1.2721036E-06;  1.0000000E+04;  0.0000000E+00;  9.9979990E+03;-0.46474671;0.0;0.056945935;999.62903
  4.5985705E-01;  9.9999998E-03;  1.4000838E-01;1764;-0.07913027;0.0;0.0060676448;1000.9856;  4.0000069E-01;816.56763;3;-29.911591;0.0;3.4233894;0;-0.41151103;  1.0021973E+04;  0.0000000E+00; -1.2308261E-06;  1.0000000E+04;  0.0000000E+00;  9.9977236E+03;-0.47330132;0.0;0.061790284;1132.1704
  4.7985092E-01;  9.9999998E-03; -1.7979603E-12;1788;-0.082350761;0.0;-4.3108561e-09;1001.0229;  4.0000182E-01;847.47968;3;-32.938251;0.0;-1.2135294e-05;0;-0.42937297;  1.0022189E+04;  0.0000000E+00; -1.3899313E-15;  1.0000000E+04;  0.0000000E+00;  9.9981924E+03;-0.47683698;0.0;0.047464021;919.44666
  4.7985056E-01;  9.9999998E-03;  2.0001244E-02;1789;-0.082516968;0.0;0.00076163223;1001.0247;  4.0000173E-01;848.8623;3;-32.936657;0.0;0.47034115;0;-0.42979333;  1.0022241E+04;  0.0000000E+00; -2.4193310E-08;  1.0000000E+04;  0.0000000E+00;  9.9981777E+03;-0.47788188;0.0;0.048088558;926.70428
  4.7984952E-01;  9.9999998E-03;  4.0002514E-02;1790;-0.083007969;0.0;0.0015579028;1001.0302;  4.0000182E-01;853.50415;3;-32.930393;0.0;0.95130336;0;-0.43103954;  1.0022402E+04;  0.0000000E+00; -9.7658450E-08;  1.0000000E+04;  0.0000000E+00;  9.9981279E+03;-0.48096207;0.0;0.04992253;948.85345
  4.7984779E-01;  9.9999998E-03;  6.0003843E-02;1791;-0.08380083;0.0;0.0024154929;1001.0394;  4.0000182E-01;861.10883;3;-32.910061;0.0;1.4341754;0;-0.43308008;  1.0022669E+04;  0.0000000E+00; -2.1938638E-07;  1.0000000E+04;  0.0000000E+00;  9.9980449E+03;-0.48591909;0.0;0.052839022;986.78894
  4.7984540E-01;  9.9999998E-03;  8.0005281E-02;1792;-0.084865913;0.0;0.0033721374;1001.0522;  4.0000173E-01;871.67639;3;-32.873451;0.0;1.956615;0;-0.43589592;  1.0023041E+04;  0.0000000E+00; -4.6181941E-07;  1.0000000E+04;  0.0000000E+00;  9.9979268E+03;-0.49250209;0.0;0.056606174;1041.4502
  4.7984236E-01;  9.9999998E-03;  1.0000687E-01;1793;-0.086166851;0.0;0.0044565313;1001.0683;  4.0000185E-01;885.10809;3;-32.819565;0.0;2.4921918;0;-0.43949699;  1.0023520E+04;  0.0000000E+00; -8.4854133E-07;  1.0000000E+04;  0.0000000E+00;  9.9977754E+03;-0.50038511;0.0;0.060888108;1113.7131
  4.7983870E-01;  9.9999998E-03;  1.2000869E-01;1794;-0.087654598;0.0;0.005692285;1001.0876;  4.0000176E-01;901.1076;3;-32.731976;0.0;3.0506084;0;-0.44388133;  1.0024098E+04;  0.0000000E+00; -1.1956316E-06;  1.0000000E+04;  0.0000000E+00;  9.9975850E+03;-0.50918883;0.0;0.065307498;1205.5887
  4.7983453E-01;  9.9999998E-03;  1.4001080E-01;1795;-0.089259066;0.0;0.0070751319;1001.1092;  4.0000182E-01;918.98358;3;-32.60675;0.0;3.5971467;0;-0.44890511;  1.0024770E+04;  0.0000000E+00; -9.7460202E-07;  1.0000000E+04;  0.0000000E+00;  9.9973398E+03;-0.51850444;0.0;0.069599316;1323.6295
  4.9982807E-01;  9.9999998E-03;  1.9659825E-12;1819;-0.092534788;0.0;-3.8014294e-09;1001.1239;  4.0000424E-01;931.13043;3;-36.061901;0.0;-1.1915158e-05;0;-0.45663315;  1.0024800E+04;  0.0000000E+00;  1.2683548E-15;  1.0000000E+04;  0.0000000E+00;  9.9974854E+03;-0.51750708;0.0;0.060873915;1262.9561
  4.9982768E-01;  9.9999998E-03;  2.0001845E-02;1820;-0.09272597;0.0;0.00097131054;1001.1262;  4.0000424E-01;933.0069;3;-36.055027;0.0;0.45033619;0;-0.45722148;  1.0024852E+04;  0.0000000E+00; -1.2215097E-08;  1.0000000E+04;  0.0000000E+00;  9.9974736E+03;-0.51862925;0.0;0.061407786;1268.8379
  4.9982649E-01;  9.9999998E-03;  4.0003706E-02;1821;-0.093289703;0.0;0.001973555;1001.1324;  4.0000418E-01;938.14258;3;-36.030712;0.0;0.91418058;0;-0.45896128;  1.0025023E+04;  0.0000000E+00; -4.1685890E-08;  1.0000000E+04;  0.0000000E+00;  9.9974355E+03;-0.52193159;0.0;0.06297031;1286.709
  4.9982449E-01;  9.9999998E-03;  6.0005601E-02;1822;-0.094198398;0.0;0.0030336692;1001.1437;  4.0000409E-01;947.52496;3;-35.98378;0.0;1.4031377;0;-0.46179667;  1.0025311E+04;  0.0000000E+00; -9.8663847E-08;  1.0000000E+04;  0.0000000E+00;  9.9973682E+03;-0.52722901;0.0;0.065432347;1316.9547
  4.9982169E-01;  9.9999998E-03;  8.0007568E-02;1823;-0.095419325;0.0;0.0041843248;1001.1589;  4.0000409E-01;960.16656;3;-35.915173;0.0;1.9185648;0;-0.46568358;  1.0025712E+04;  0.0000000E+00; -1.7167761E-07;  1.0000000E+04;  0.0000000E+00;  9.9972764E+03;-0.53423578;0.0;0.068552211;1359.5819
  4.9981815E-01;  9.9999998E-03;  1.0000966E-01;1824;-0.096905254;0.0;0.0054663927;1001.1791;  4.0000412E-01;976.85736;3;-35.803448;0.0;2.4973142;0;-0.47061414;  1.0026228E+04;  0.0000000E+00; -1.7564733E-07;  1.0000000E+04;  0.0000000E+00;  9.9971621E+03;-0.54259461;0.0;0.071980476;1414.3442
  4.9981382E-01;  9.9999998E-03;  1.2001195E-01;1825;-0.098598205;0.0;0.0068919854;1001.2035;  4.0000412E-01;997.10364;3;-35.643486;0.0;3.1030078;0;-0.47656426;  1.0026856E+04;  0.0000000E+00;  2.2143792E-07;  1.0000000E+04;  0.0000000E+00;  9.9970186E+03;-0.55191487;0.0;0.075350605;1482.847
  4.9980888E-01;  9.9999998E-03;  1.4001445E-01;1826;-0.10042165;0.0;0.0084498655;1001.2307;  4.0000412E-01;1019.6214;3;-35.434093;0.0;3.7084482;0;-0.48332274;  1.0027593E+04;  0.0000000E+00;  1.6230865E-06;  1.0000000E+04;  0.0000000E+00;  9.9968330E+03;-0.56181467;0.0;0.078491911;1574.0151
  5.1980209E-01;  9.9999998E-03; -1.4787895E-12;1850;-0.10370539;0.0;2.289583e-10;1001.2173;  4.0001148E-01;1008.4599;3;-39.311077;0.0;-4.4234257e-06;0;-0.47437018;  1.0027238E+04;  0.0000000E+00; -8.6782247E-16;  1.0000000E+04;  0.0000000E+00;  9.9965400E+03;-0.55338019;0.0;0.079010002;1718.1901
  5.1980162E-01;  9.9999998E-03;  2.0002710E-02;1851;-0.10392462;0.0;0.0012774445;1001.2199;  4.0001145E-01;1010.6327;3;-39.2999;0.0;0.40600768;0;-0.47516891;  1.0027299E+04;  0.0000000E+00;  5.8755312E-09;  1.0000000E+04;  0.0000000E+00;  9.9965303E+03;-0.55454183;0.0;0.079372905;1722.754
  5.1980025E-01;  9.9999998E-03;  4.0005416E-02;1852;-0.10457012;0.0;0.0025751418;1001.2272;  4.0001154E-01;1016.6572;3;-39.263493;0.0;0.83042812;0;-0.4775272;  1.0027479E+04;  0.0000000E+00;  5.7604577E-08;  1.0000000E+04;  0.0000000E+00;  9.9965029E+03;-0.55795521;0.0;0.080428012;1736.359
  5.1979792E-01;  9.9999998E-03;  6.0008135E-02;1853;-0.10561116;0.0;0.0039255521;1001.2399;  4.0001160E-01;1027.2247;3;-39.196129;0.0;1.3064382;0;-0.48135543;  1.0027779E+04;  0.0000000E+00;  2.2396809E-07;  1.0000000E+04;  0.0000000E+00;  9.9964551E+03;-0.56341219;0.0;0.082056768;1758.3734
  5.1979476E-01;  9.9999998E-03;  8.0010898E-02;1854;-0.10700284;0.0;0.0053610173;1001.258;  4.0001148E-01;1042.2366;3;-39.086246;0.0;1.8401408;0;-0.48657405;  1.0028201E+04;  0.0000000E+00;  7.2158713E-07;  1.0000000E+04;  0.0000000E+00;  9.9963975E+03;-0.57059926;0.0;0.084025189;1787.0195
  5.1979059E-01;  9.9999998E-03;  1.0001374E-01;1855;-0.10869011;0.0;0.0069103218;1001.2819;  4.0001148E-01;1061.989;3;-38.920593;0.0;2.4362721;0;-0.49315065;  1.0028745E+04;  0.0000000E+00;  2.0268890E-06;  1.0000000E+04;  0.0000000E+00;  9.9963262E+03;-0.5791437;0.0;0.085993037;1819.8839
  5.1978558E-01;  9.9999998E-03;  1.2001672E-01;1856;-0.11060648;0.0;0.0085828332;1001.3113;  4.0001151E-01;1086.3832;3;-38.688831;0.0;3.0815718;0;-0.501028;  1.0029410E+04;  0.0000000E+00;  4.7897297E-06;  1.0000000E+04;  0.0000000E+00;  9.9962500E+03;-0.58866751;0.0;0.087639496;1857.3285
  5.1977980E-01;  9.9999998E-03;  1.4001982E-01;1857;-0.11266324;0.0;0.010363227;1001.3453;  4.0001157E-01;1114.6292;3;-38.379662;0.0;3.7754669;0;-0.50989443;  1.0030196E+04;  0.0000000E+00;  9.2971204E-06;  1.0000000E+04;  0.0000000E+00;  9.9961475E+03;-0.59884751;0.0;0.088953078;1910.8756
  5.3977275E-01;  9.9999998E-03;  2.2790361E-12;1881;-0.11585547;0.0;1.4344983e-09;1001.3024;  4.0003103E-01;1078.9741;3;-42.649734;0.0;1.0852651e-05;0;-0.47619268;  1.0029174E+04;  0.0000000E+00;  1.0568766E-16;  1.0000000E+04;  0.0000000E+00;  9.9953223E+03;-0.57905334;0.0;0.10286067;2300.0488
  5.3977221E-01;  9.9999998E-03;  2.0003872E-02;1882;-0.11610583;0.0;0.001705789;1001.3051;  4.0003094E-01;1081.2456;3;-42.636574;0.0;0.35063189;0;-0.47725022;  1.0029236E+04;  0.0000000E+00;  6.5781606E-08;  1.0000000E+04;  0.0000000E+00;  9.9953145E+03;-0.58019876;0.0;0.10294856;2303.7556
  5.3977066E-01;  9.9999998E-03;  4.0007729E-02;1883;-0.11684236;0.0;0.0034287716;1001.3132;  4.0003097E-01;1087.9614;3;-42.593079;0.0;0.73574668;0;-0.48036131;  1.0029424E+04;  0.0000000E+00;  3.0774396E-07;  1.0000000E+04;  0.0000000E+00;  9.9952920E+03;-0.58355552;0.0;0.1031942;2314.2861
  5.3976810E-01;  9.9999998E-03;  6.0011577E-02;1884;-0.11802574;0.0;0.0051900558;1001.3273;  4.0003100E-01;1099.6154;3;-42.50753;0.0;1.1836599;0;-0.48538619;  1.0029730E+04;  0.0000000E+00;  1.0315472E-06;  1.0000000E+04;  0.0000000E+00;  9.9952656E+03;-0.58890343;0.0;0.10351725;2329.4001
  5.3976440E-01;  9.9999998E-03;  8.0015436E-02;1885;-0.11960031;0.0;0.0070169028;1001.3474;  4.0003097E-01;1116.2074;3;-42.363525;0.0;1.7153995;0;-0.4921878;  1.0030163E+04;  0.0000000E+00;  2.9808716E-06;  1.0000000E+04;  0.0000000E+00;  9.9952383E+03;-0.59591788;0.0;0.10373009;2344.5818
  5.3975970E-01;  9.9999998E-03;  1.0001936E-01;1886;-0.12150022;0.0;0.0089340406;1001.3744;  4.0003091E-01;1138.6263;3;-42.143372;0.0;2.33619;0;-0.50068641;  1.0030723E+04;  0.0000000E+00;  7.2718472E-06;  1.0000000E+04;  0.0000000E+00;  9.9952207E+03;-0.60423648;0.0;0.10355007;2354.2292
  5.3975397E-01;  9.9999998E-03;  1.2002335E-01;1887;-0.12364748;0.0;0.010940602;1001.4085;  4.0003088E-01;1166.8722;3;-41.835274;0.0;3.0308011;0;-0.51075763;  1.0031403E+04;  0.0000000E+00;  1.4674893E-05;  1.0000000E+04;  0.0000000E+00;  9.9952197E+03;-0.61352301;0.0;0.10276539;2357.0962
  5.3974730E-01;  9.9999998E-03;  1.4002736E-01;1888;-0.12594418;0.0;0.012995105;1001.4484;  4.0003076E-01;1199.9575;3;-41.433395;0.0;3.7614596;0;-0.52192795;  1.0032216E+04;  0.0000000E+00;  2.3752415E-05;  1.0000000E+04;  0.0000000E+00;  9.9952090E+03;-0.62354535;0.0;0.10161743;2368.4727
  5.5974060E-01;  9.9999998E-03; -4.5722571E-12;1912;-0.12881199;0.0;-2.3132267e-09;1001.4075;  4.0008336E-01;1166.0793;3;-46.019527;0.0;-4.0763334e-06;0;-0.45449585;  1.0030168E+04;  0.0000000E+00; -2.0795093E-15;  1.0000000E+04;  0.0000000E+00;  9.9938008E+03;-0.58784741;0.0;0.13335156;3019.6106
  5.5974001E-01;  9.9999998E-03;  2.0005373E-02;1913;-0.12909621;0.0;0.0022993679;1001.4104;  4.0008342E-01;1168.4496;3;-46.007961;0.0;0.30007204;0;-0.45587063;  1.0030230E+04;  0.0000000E+00;  1.5284049E-07;  1.0000000E+04;  0.0000000E+00;  9.9937969E+03;-0.58889967;0.0;0.13302903;3023.3396
  5.5973828E-01;  9.9999998E-03;  4.0010735E-02;1914;-0.12993039;0.0;0.004604938;1001.4188;  4.0008351E-01;1175.4617;3;-45.967964;0.0;0.64915276;0;-0.45989957;  1.0030414E+04;  0.0000000E+00;  7.5370741E-07;  1.0000000E+04;  0.0000000E+00;  9.9937764E+03;-0.59197807;0.0;0.1320785;3033.2539
  5.5973536E-01;  9.9999998E-03;  6.0016092E-02;1915;-0.13126378;0.0;0.0069243154;1001.4332;  4.0008342E-01;1187.3131;3;-45.868763;0.0;1.057479;0;-0.46635252;  1.0030719E+04;  0.0000000E+00;  2.5377026E-06;  1.0000000E+04;  0.0000000E+00;  9.9937598E+03;-0.59686339;0.0;0.13051085;3044.9211
  5.5973125E-01;  9.9999998E-03;  8.0021456E-02;1916;-0.13302787;0.0;0.0092733633;1001.4544;  4.0008330E-01;1204.8927;3;-45.6973;0.0;1.559936;0;-0.47498298;  1.0031147E+04;  0.0000000E+00;  7.0878314E-06;  1.0000000E+04;  0.0000000E+00;  9.9937588E+03;-0.60324401;0.0;0.12826103;3050.2363
  5.5972594E-01;  9.9999998E-03;  1.0002684E-01;1917;-0.13514297;0.0;0.011667167;1001.4836;  4.0008336E-01;1229.188;3;-45.428699;0.0;2.1753068;0;-0.48559755;  1.0031696E+04;  0.0000000E+00;  1.6098224E-05;  1.0000000E+04;  0.0000000E+00;  9.9937910E+03;-0.61079556;0.0;0.12519802;3039.9048
  5.5971944E-01;  9.9999998E-03;  1.2003223E-01;1918;-0.13751648;0.0;0.014095863;1001.5207;  4.0008336E-01;1259.8042;3;-45.041821;0.0;2.8958964;0;-0.49792007;  1.0032369E+04;  0.0000000E+00;  2.8919851E-05;  1.0000000E+04;  0.0000000E+00;  9.9938643E+03;-0.61925834;0.0;0.12133829;3012.0811
  5.5971187E-01;  9.9999998E-03;  1.4003755E-01;1919;-0.14003259;0.0;0.016486757;1001.5642;  4.0008330E-01;1295.9509;3;-44.531631;0.0;3.6687958;0;-0.51120919;  1.0033177E+04;  0.0000000E+00;  3.9751732E-05;  1.0000000E+04;  0.0000000E+00;  9.9939268E+03;-0.62851036;0.0;0.11730117;2988.5137
  5.7970691E-01;  9.9999998E-03; -2.5262282E-13;1943;-0.14214869;0.0;5.7224786e-10;1001.6373;  4.0022236E-01;1356.4872;3;-49.312588;0.0;-2.5078189e-06;0;-0.39977485;  1.0029650E+04;  0.0000000E+00; -1.5829734E-15;  1.0000000E+04;  0.0000000E+00;  9.9919531E+03;-0.57122177;0.0;0.17144693;3885.4119
  5.7970625E-01;  9.9999998E-03;  2.0007202E-02;1944;-0.14246444;0.0;0.0030696145;1001.64;  4.0022233E-01;1358.66;3;-49.300217;0.0;0.25442773;0;-0.40155691;  1.0029708E+04;  0.0000000E+00;  1.9466495E-07;  1.0000000E+04;  0.0000000E+00;  9.9919463E+03;-0.57210058;0.0;0.17054369;3890.4766
  5.7970428E-01;  9.9999998E-03;  4.0014386E-02;1945;-0.14338869;0.0;0.0061118305;1001.6481;  4.0022245E-01;1365.3757;3;-49.25182;0.0;0.54209012;0;-0.40674493;  1.0029886E+04;  0.0000000E+00;  1.0946383E-06;  1.0000000E+04;  0.0000000E+00;  9.9919268E+03;-0.57466316;0.0;0.16791824;3903.5706
  5.7970107E-01;  9.9999998E-03;  6.0021572E-02;1946;-0.14486322;0.0;0.0091201626;1001.6617;  4.0022236E-01;1376.6345;3;-49.158524;0.0;0.91593635;0;-0.41494364;  1.0030175E+04;  0.0000000E+00;  4.1079820E-06;  1.0000000E+04;  0.0000000E+00;  9.9919111E+03;-0.57870245;0.0;0.16375883;3917.6443
  5.7969654E-01;  9.9999998E-03;  8.0028810E-02;1947;-0.14680758;0.0;0.012121202;1001.6823;  4.0022230E-01;1393.7202;3;-48.96664;0.0;1.3790702;0;-0.42569357;  1.0030581E+04;  0.0000000E+00;  1.1838008E-05;  1.0000000E+04;  0.0000000E+00;  9.9919209E+03;-0.58394313;0.0;0.15824957;3920.5515
  5.7969064E-01;  9.9999998E-03;  1.0003608E-01;1948;-0.14911668;0.0;0.015104469;1001.7113;  4.0022233E-01;1417.7192;3;-48.656609;0.0;1.9670559;0;-0.43855312;  1.0031093E+04;  0.0000000E+00;  2.5518650E-05;  1.0000000E+04;  0.0000000E+00;  9.9919854E+03;-0.59012234;0.0;0.15156922;3899.8074
  5.7968342E-01;  9.9999998E-03;  1.2004334E-01;1949;-0.15168397;0.0;0.018051425;1001.7484;  4.0022230E-01;1448.5328;3;-48.197605;0.0;2.6778517;0;-0.45293093;  1.0031723E+04;  0.0000000E+00;  3.9685496E-05;  1.0000000E+04;  0.0000000E+00;  9.9921006E+03;-0.59707111;0.0;0.14414018;3855.6001
  5.7967502E-01;  9.9999998E-03;  1.4005041E-01;1950;-0.15438181;0.0;0.020872168;1001.7906;  4.0022227E-01;1483.4944;3;-47.56884;0.0;3.4440107;0;-0.46770376;  1.0032478E+04;  0.0000000E+00;  4.1253366E-05;  1.0000000E+04;  0.0000000E+00;  9.9921963E+03;-0.60477775;0.0;0.13707401;3819.2832
  5.9967399E-01;  9.9999998E-03;  7.3423195E-12;1974;-0.15504041;0.0;1.9826611e-09;1002.2687;  4.0057555E-01;1879.519;3;-52.337013;0.0;4.778698e-06;0;-0.29753363;  1.0026835E+04;  0.0000000E+00; -4.3817044E-15;  1.0000000E+04;  0.0000000E+00;  9.9897539E+03;-0.51583588;0.0;0.21830225;4904.6816
  5.9967327E-01;  9.9999998E-03;  2.0009389E-02;1975;-0.1553838;0.0;0.0040558656;1002.2708;  4.0057555E-01;1881.2968;3;-52.313267;0.0;0.22547245;0;-0.2998527;  1.0026888E+04;  0.0000000E+00; -1.0132140E-07;  1.0000000E+04;  0.0000000E+00;  9.9897432E+03;-0.51647669;0.0;0.21662399;4912.9063
  5.9967107E-01;  9.9999998E-03;  4.0018737E-02;1976;-0.15638284;0.0;0.0080226529;1002.2772;  4.0057543E-01;1886.6298;3;-52.25946;0.0;0.46418691;0;-0.30654883;  1.0027046E+04;  0.0000000E+00;  1.8491964E-07;  1.0000000E+04;  0.0000000E+00;  9.9897119E+03;-0.51833153;0.0;0.21178271;4934.5752
  5.9966749E-01;  9.9999998E-03;  6.0028080E-02;1977;-0.15797363;0.0;0.011884343;1002.2887;  4.0057561E-01;1896.1108;3;-52.169022;0.0;0.77618241;0;-0.31695354;  1.0027307E+04;  0.0000000E+00;  3.2471005E-06;  1.0000000E+04;  0.0000000E+00;  9.9896797E+03;-0.52121657;0.0;0.20426303;4959.8193
  5.9966254E-01;  9.9999998E-03;  8.0037534E-02;1978;-0.160061;0.0;0.015671074;1002.3065;  4.0057546E-01;1910.8263;3;-51.974232;0.0;1.2135082;0;-0.3302283;  1.0027663E+04;  0.0000000E+00;  1.2525745E-05;  1.0000000E+04;  0.0000000E+00;  9.9896846E+03;-0.52489483;0.0;0.19466653;4972.4883
  5.9965616E-01;  9.9999998E-03;  1.0004712E-01;1979;-0.16252033;0.0;0.019354576;1002.332;  4.0057531E-01;1931.9611;3;-51.621048;0.0;1.7347934;0;-0.34547547;  1.0028109E+04;  0.0000000E+00;  2.6602567E-05;  1.0000000E+04;  0.0000000E+00;  9.9897471E+03;-0.5291633;0.0;0.18368784;4958.3574
  5.9964830E-01;  9.9999998E-03;  1.2005669E-01;1980;-0.16523656;0.0;0.022898328;1002.364;  4.0057519E-01;1958.5277;3;-51.088139;0.0;2.397759;0;-0.36158782;  1.0028650E+04;  0.0000000E+00;  3.0947111E-05;  1.0000000E+04;  0.0000000E+00;  9.9898506E+03;-0.53392589;0.0;0.17233805;4922.7178
  5.9963912E-01;  9.9999998E-03;  1.4006592E-01;1981;-0.16807704;0.0;0.026193166;1002.3989;  4.0057522E-01;1987.366;3;-50.343323;0.0;3.1388791;0;-0.37700719;  1.0029289E+04;  0.0000000E+00;  5.0619669E-06;  1.0000000E+04;  0.0000000E+00;  9.9899131E+03;-0.53924328;0.0;0.16223608;4907.707
  6.1964387E-01;  9.9999998E-03; -2.6256629E-12;2005;-0.16674013;0.0;9.5530295e-10;1003.8547;  4.0138450E-01;3193.4148;3;-54.959553;0.0;-3.7657737e-06;0;-0.12658137;  1.0020725E+04;  0.0000000E+00; -8.8759846E-15;  1.0000000E+04;  0.0000000E+00;  9.9871826E+03;-0.40179428;0.0;0.27521291;6081.6826
  6.1964309E-01;  9.9999998E-03;  2.0011907E-02;2006;-0.16709955;0.0;0.0052562905;1003.8558;  4.0138456E-01;3194.4023;3;-54.933945;0.0;0.2421203;0;-0.12959218;  1.0020768E+04;  0.0000000E+00; -1.2492234E-06;  1.0000000E+04;  0.0000000E+00;  9.9871611E+03;-0.40215459;0.0;0.27256241;6095.4502
  6.1964071E-01;  9.9999998E-03;  4.0023755E-02;2007;-0.16814741;0.0;0.010357702;1003.8594;  4.0138456E-01;3197.3652;3;-54.853409;0.0;0.4707962;0;-0.13821197;  1.0020895E+04;  0.0000000E+00; -4.0510213E-06;  1.0000000E+04;  0.0000000E+00;  9.9871094E+03;-0.40317571;0.0;0.26496375;6132.8105
  6.1963677E-01;  9.9999998E-03;  6.0035616E-02;2008;-0.16982949;0.0;0.015275314;1003.8665;  4.0138450E-01;3203.2908;3;-54.737225;0.0;0.78253049;0;-0.15136576;  1.0021102E+04;  0.0000000E+00; -4.9305909E-06;  1.0000000E+04;  0.0000000E+00;  9.9870420E+03;-0.40469474;0.0;0.25332898;6180.9697
  6.1963135E-01;  9.9999998E-03;  8.0047645E-02;2009;-0.17200993;0.0;0.019959657;1003.8781;  4.0138441E-01;3212.8706;3;-54.465382;0.0;1.0867289;0;-0.167643;  1.0021378E+04;  0.0000000E+00;  2.3235390E-07;  1.0000000E+04;  0.0000000E+00;  9.9870068E+03;-0.40650353;0.0;0.23886053;6220.0366
  6.1962444E-01;  9.9999998E-03;  1.0005982E-01;2010;-0.17454536;0.0;0.024329832;1003.8956;  4.0138438E-01;3227.2896;3;-54.062325;0.0;1.4710228;0;-0.18546441;  1.0021716E+04;  0.0000000E+00;  5.1673833E-06;  1.0000000E+04;  0.0000000E+00;  9.9870205E+03;-0.40842602;0.0;0.2229616;6235.4302
  6.1961609E-01;  9.9999998E-03;  1.2007205E-01;2011;-0.17731637;0.0;0.028425649;1003.9172;  4.0138417E-01;3245.2639;3;-53.476086;0.0;2.0026951;0;-0.20306717;  1.0022116E+04;  0.0000000E+00; -1.5336916E-05;  1.0000000E+04;  0.0000000E+00;  9.9870576E+03;-0.4103823;0.0;0.20731513;6238.8472
  6.1960620E-01;  9.9999998E-03;  1.4008386E-01;2012;-0.18023051;0.0;0.032209475;1003.9368;  4.0138423E-01;3261.5593;3;-52.652042;0.0;2.6531963;0;-0.21847291;  1.0022563E+04;  0.0000000E+00; -8.5946594E-05;  1.0000000E+04;  0.0000000E+00;  9.9870088E+03;-0.41240489;0.0;0.19393198;6281.0293
  6.3961810E-01;  9.9999998E-03;  1.6512061E-11;2036;-0.17676452;0.0;1.2538906e-08;1006.8983;  4.0286967E-01;5714.917;3;-57.016697;0.0;3.1312811e-06;0;0.13576883;  1.0010422E+04;  0.0000000E+00; -5.4742473E-15;  1.0000000E+04;  0.0000000E+00;  9.9842393E+03;-0.20737901;0.0;0.34314784;7411.2896
  6.3961726E-01;  9.9999998E-03;  2.0014523E-02;2037;-0.17711711;0.0;0.0064707138;1006.8979;  4.0286952E-01;5714.6206;3;-57.022121;0.0;0.20426284;0;0.13191596;  1.0010449E+04;  0.0000000E+00; -3.7872528E-06;  1.0000000E+04;  0.0000000E+00;  9.9842070E+03;-0.2074326;0.0;0.33934855;7433.3574
  6.3961470E-01;  9.9999998E-03;  4.0028956E-02;2038;-0.17815676;0.0;0.012742014;1006.897;  4.0286952E-01;5713.9292;3;-56.895519;0.0;0.41401383;0;0.12097232;  1.0010526E+04;  0.0000000E+00; -1.3868566E-05;  1.0000000E+04;  0.0000000E+00;  9.9841133E+03;-0.20753597;0.0;0.32850829;7494.5972
  6.3961047E-01;  9.9999998E-03;  6.0043365E-02;2039;-0.17986432;0.0;0.018707952;1006.8965;  4.0286937E-01;5713.4355;3;-56.76236;0.0;0.70903879;0;0.1045588;  1.0010649E+04;  0.0000000E+00; -2.5370520E-05;  1.0000000E+04;  0.0000000E+00;  9.9839873E+03;-0.20753312;0.0;0.31209192;7579.1099
  6.3960463E-01;  9.9999998E-03;  8.0058083E-02;2040;-0.18209951;0.0;0.024376132;1006.8987;  4.0286937E-01;5715.312;3;-56.451427;0.0;0.98608577;0;0.084839746;  1.0010807E+04;  0.0000000E+00; -3.3665365E-05;  1.0000000E+04;  0.0000000E+00;  9.9838740E+03;-0.20721935;0.0;0.29205909;7663.1636
  6.3959712E-01;  9.9999998E-03;  1.0007321E-01;2041;-0.18470682;0.0;0.029587552;1006.9031;  4.0286922E-01;5718.9663;3;-55.959389;0.0;1.2037458;0;0.06420514;  1.0010983E+04;  0.0000000E+00; -4.8795300E-05;  1.0000000E+04;  0.0000000E+00;  9.9837930E+03;-0.2064032;0.0;0.27060834;7731.5063
  6.3958818E-01;  9.9999998E-03;  1.2008863E-01;2042;-0.18750717;0.0;0.034358989;1006.9077;  4.0286902E-01;5722.7188;3;-55.30201;0.0;1.5050781;0;0.045064673;  1.0011169E+04;  0.0000000E+00; -1.0257536E-04;  1.0000000E+04;  0.0000000E+00;  9.9837129E+03;-0.20494656;0.0;0.25001124;7800.1367
  6.3957781E-01;  9.9999998E-03;  1.4010359E-01;2043;-0.19039829;0.0;0.03860002;1006.9056;  4.0286878E-01;5721.04;3;-54.396564;0.0;1.9440432;0;0.029749408;  1.0011343E+04;  0.0000000E+00; -2.1587872E-04;  1.0000000E+04;  0.0000000E+00;  9.9835137E+03;-0.20272341;0.0;0.23247282;7923.1606
  6.5959835E-01;  9.9999998E-03; -3.1841641E-12;2067;-0.1846071;0.0;-1.8516646e-09;1010.6649;  4.0474120E-01;8835.3242;3;-58.682281;0.0;-1.0883668e-05;0;0.50143772;  9.9956885E+03;  0.0000000E+00;  8.6085932E-15;  1.0000000E+04;  0.0000000E+00;  9.9809756E+03;0.079655886;0.0;0.42178184;8867.5703
  6.5959746E-01;  9.9999998E-03;  2.0017680E-02;2068;-0.18493013;0.0;0.0079563214;1010.6624;  4.0474114E-01;8833.25;3;-58.675949;0.0;0.096605673;0;0.4966405;  9.9956904E+03;  0.0000000E+00; -7.4833501E-06;  1.0000000E+04;  0.0000000E+00;  9.9809219E+03;0.079939827;0.0;0.41670069;8900.5518
  6.5959483E-01;  9.9999998E-03;  4.0035237E-02;2069;-0.18590653;0.0;0.0156381;1010.6553;  4.0474117E-01;8827.3242;3;-58.524811;0.0;0.27860883;0;0.48310679;  9.9956982E+03;  0.0000000E+00; -2.8266199E-05;  1.0000000E+04;  0.0000000E+00;  9.9807773E+03;0.080851652;0.0;0.40225515;8993.375
  6.5959036E-01;  9.9999998E-03;  6.0052745E-02;2070;-0.18756627;0.0;0.022785863;1010.6448;  4.0474111E-01;8818.6338;3;-58.298378;0.0;0.38440779;0;0.46309978;  9.9957002E+03;  0.0000000E+00; -5.6505211E-05;  1.0000000E+04;  0.0000000E+00;  9.9805674E+03;0.082552761;0.0;0.38054702;9126.5439
  6.5958416E-01;  9.9999998E-03;  8.0070555E-02;2071;-0.18976806;0.0;0.029347114;1010.6325;  4.0474105E-01;8808.4619;3;-57.950405;0.0;0.4902963;0;0.43962616;  9.9956855E+03;  0.0000000E+00; -8.5696454E-05;  1.0000000E+04;  0.0000000E+00;  9.9803496E+03;0.085261643;0.0;0.35436451;9271.3174
  6.5957636E-01;  9.9999998E-03;  1.0008906E-01;2072;-0.19229254;0.0;0.035373479;1010.6196;  4.0474090E-01;8797.6973;3;-57.348705;0.0;0.48871347;0;0.4158574;  9.9956396E+03;  0.0000000E+00; -1.2413214E-04;  1.0000000E+04;  0.0000000E+00;  9.9801465E+03;0.089212216;0.0;0.3266452;9408.8789
  6.5956718E-01;  9.9999998E-03;  1.2010816E-01;2073;-0.19499947;0.0;0.040914353;1010.6031;  4.0474081E-01;8784.0684;3;-56.638424;0.0;0.62205762;0;0.39467722;  9.9955420E+03;  0.0000000E+00; -2.0025832E-04;  1.0000000E+04;  0.0000000E+00;  9.9799248E+03;0.094648108;0.0;0.3000291;9554.0439
  6.5955669E-01;  9.9999998E-03;  1.4012694E-01;2074;-0.19784348;0.0;0.045778539;1010.5761;  4.0474078E-01;8761.749;3;-55.685219;0.0;0.78907365;0;0.37859878;  9.9953623E+03;  0.0000000E+00; -3.2237559E-04;  1.0000000E+04;  0.0000000E+00;  9.9795723E+03;0.10191696;0.0;0.27668181;9757.2041
  6.7958945E-01;  9.9999998E-03; -4.1919016E-12;2098;-0.18872799;0.0;3.5227214e-09;1013.3123;  4.0623924E-01;11028.388;3;-59.866875;0.0;5.9444574e-07;0;0.95613873;  9.9775498E+03;  0.0000000E+00;  1.5044494E-14;  1.0000000E+04;  0.0000000E+00;  9.9775234E+03;0.44793123;0.0;0.5082075;10391.58
  6.7958856E-01;  9.9999998E-03;  2.0022200E-02;2099;-0.18905456;0.0;0.010629469;1013.3069;  4.0623909E-01;11023.845;3;-59.797134;0.0;0.66512191;0;0.95040643;  9.9775225E+03;  0.0000000E+00; -1.0570893E-05;  1.0000000E+04;  0.0000000E+00;  9.9774502E+03;0.44861972;0.0;0.50178671;10437.134
  6.7958581E-01;  9.9999998E-03;  4.0044148E-02;2100;-0.18998794;0.0;0.020642027;1013.2921;  4.0623918E-01;11011.599;3;-59.520874;0.0;1.0918229;0;0.93431592;  9.9774375E+03;  0.0000000E+00; -4.0771243E-05;  1.0000000E+04;  0.0000000E+00;  9.9772402E+03;0.45073941;0.0;0.48357651;10566.403
  6.7958128E-01;  9.9999998E-03;  6.0065869E-02;2101;-0.19147904;0.0;0.029594107;1013.269;  4.0623933E-01;10992.439;3;-59.081318;0.0;1.0747056;0;0.91076446;  9.9772813E+03;  0.0000000E+00; -8.4174826E-05;  1.0000000E+04;  0.0000000E+00;  9.9769355E+03;0.45443434;0.0;0.45633009;10755.618
  6.7957509E-01;  9.9999998E-03;  8.0087990E-02;2102;-0.19346312;0.0;0.037567664;1013.24;  4.0623933E-01;10968.442;3;-58.567287;0.0;0.79932749;0;0.88350272;  9.9770488E+03;  0.0000000E+00; -1.3152866E-04;  1.0000000E+04;  0.0000000E+00;  9.9765938E+03;0.45990321;0.0;0.42359951;10968.762
  6.7956740E-01;  9.9999998E-03;  1.0011101E-01;2103;-0.19574532;0.0;0.044604044;1013.2071;  4.0623942E-01;10941.185;3;-57.904694;0.0;0.31487495;0;0.85625577;  9.9767256E+03;  0.0000000E+00; -1.8307510E-04;  1.0000000E+04;  0.0000000E+00;  9.9762627E+03;0.46738738;0.0;0.38886836;11178.485
  6.7955846E-01;  9.9999998E-03;  1.2013479E-01;2104;-0.19823386;0.0;0.050922155;1013.1674;  4.0623948E-01;10908.299;3;-57.185394;0.0;0.02438394;0;0.83206642;  9.9762871E+03;  0.0000000E+00; -2.5213120E-04;  1.0000000E+04;  0.0000000E+00;  9.9759258E+03;0.47719845;0.0;0.35486796;11390.849
  6.7954826E-01;  9.9999998E-03;  1.4015819E-01;2105;-0.20082258;0.0;0.056457639;1013.1156;  4.0623966E-01;10865.438;3;-56.189617;0.0;-0.1005512;0;0.81335771;  9.9756924E+03;  0.0000000E+00; -3.3220949E-04;  1.0000000E+04;  0.0000000E+00;  9.9754873E+03;0.48982885;0.0;0.32352886;11645.386
  6.9959992E-01;  9.9999998E-03;  2.0803163E-11;2129;-0.18738319;0.0;-1.320974e-09;1014.2297;  4.0706110E-01;11788.183;3;-60.588829;0.0;2.3080676e-05;0;1.4484076;  9.9586406E+03;  0.0000000E+00;  7.3800592E-15;  1.0000000E+04;  0.0000000E+00;  9.9741104E+03;0.85208452;0.0;0.59632313;11890.97
  6.9959903E-01;  9.9999998E-03;  2.0026699E-02;2130;-0.18765095;0.0;0.013593631;1014.2216;  4.0706107E-01;11781.468;3;-60.351498;0.0;1.5355905;0;1.4419017;  9.9585742E+03;  0.0000000E+00; -1.0819354E-05;  1.0000000E+04;  0.0000000E+00;  9.9740127E+03;0.85330719;0.0;0.5885945;11948.899
  6.9959641E-01;  9.9999998E-03;  4.0053125E-02;2131;-0.18845434;0.0;0.026394006;1014.1977;  4.0706131E-01;11761.617;3;-59.877777;0.0;2.7119761;0;1.423695;  9.9583721E+03;  0.0000000E+00; -4.2219013E-05;  1.0000000E+04;  0.0000000E+00;  9.9737412E+03;0.85699743;0.0;0.56669754;12113.949
  6.9959205E-01;  9.9999998E-03;  6.0079601E-02;2132;-0.18982868;0.0;0.037995826;1014.1605;  4.0706143E-01;11730.808;3;-59.281033;0.0;3.3040426;0;1.3971727;  9.9580332E+03;  0.0000000E+00; -8.8616580E-05;  1.0000000E+04;  0.0000000E+00;  9.9733389E+03;0.86320686;0.0;0.53396589;12357.476
  6.9958609E-01;  9.9999998E-03;  8.0106996E-02;2133;-0.19156873;0.0;0.048320439;1014.1134;  4.0706164E-01;11691.8;3;-58.431034;0.0;3.126796;0;1.3665651;  9.9575488E+03;  0.0000000E+00; -1.3898489E-04;  1.0000000E+04;  0.0000000E+00;  9.9728896E+03;0.87200421;0.0;0.49456093;12633.983
  6.9957882E-01;  9.9999998E-03;  1.0013602E-01;2134;-0.19341937;0.0;0.057434309;1014.0596;  4.0706179E-01;11647.162;3;-57.359127;0.0;2.2534885;0;1.3357493;  9.9569063E+03;  0.0000000E+00; -1.8415287E-04;  1.0000000E+04;  0.0000000E+00;  9.9724590E+03;0.8834902;0.0;0.45225906;12902.672
  6.9957089E-01;  9.9999998E-03;  1.2016657E-01;2135;-0.1950745;0.0;0.065597206;1013.9985;  4.0706217E-01;11596.6;3;-56.280861;0.0;1.342885;0;1.3074929;  9.9560928E+03;  0.0000000E+00; -2.2110621E-04;  1.0000000E+04;  0.0000000E+00;  9.9720625E+03;0.89787024;0.0;0.40962258;13153.955
  6.9956231E-01;  9.9999998E-03;  1.4019720E-01;2136;-0.19655082;0.0;0.07292711;1013.9263;  4.0706250E-01;11536.754;3;-55.025673;0.0;0.78815037;0;1.2837903;  9.9550732E+03;  0.0000000E+00; -2.3402717E-04;  1.0000000E+04;  0.0000000E+00;  9.9716416E+03;0.91553909;0.0;0.3682512;13411.371
  7.1968138E-01;  9.9999998E-03; -1.0141790E-11;2160;-0.15832426;0.0;-4.1233528e-09;1014.1637;  4.0742180E-01;11733.153;3;-56.467789;0.0;5.2350515e-06;0;1.894114;  9.9427539E+03;  0.0000000E+00;  1.3867285E-14;  1.0000000E+04;  0.0000000E+00;  9.9709912E+03;1.2159622;0.0;0.67815185;13260.296
  7.1968043E-01;  9.9999998E-03;  2.0030968E-02;2161;-0.15878537;0.0;0.016526509;1014.1526;  4.0742180E-01;11723.97;3;-56.464142;0.0;2.7233787;0;1.8870769;  9.9426484E+03;  0.0000000E+00; -7.6125293E-06;  1.0000000E+04;  0.0000000E+00;  9.9708789E+03;1.2178899;0.0;0.66918689;13327.93
  7.1967763E-01;  9.9999998E-03;  4.0061712E-02;2162;-0.16010433;0.0;0.032233696;1014.1203;  4.0742189E-01;11697.208;3;-56.422501;0.0;5.057487;0;1.867413;  9.9423252E+03;  0.0000000E+00; -3.0107554E-05;  1.0000000E+04;  0.0000000E+00;  9.9705615E+03;1.2236301;0.0;0.64378291;13520.793
  7.1967310E-01;  9.9999998E-03;  6.0092688E-02;2163;-0.1621345;0.0;0.046695054;1014.0696;  4.0742213E-01;11655.238;3;-56.290829;0.0;6.7405515;0;1.8388133;  9.9417871E+03;  0.0000000E+00; -6.3788226E-05;  1.0000000E+04;  0.0000000E+00;  9.9700898E+03;1.2330526;0.0;0.60576063;13805.281
  7.1966696E-01;  9.9999998E-03;  8.0125093E-02;2164;-0.16468431;0.0;0.060005836;1014.0052;  4.0742260E-01;11601.912;3;-55.98967;0.0;7.7174373;0;1.8056898;  9.9410371E+03;  0.0000000E+00; -9.8741410E-05;  1.0000000E+04;  0.0000000E+00;  9.9695693E+03;1.2459447;0.0;0.55974507;14125.605
  7.1965927E-01;  9.9999998E-03;  1.0016008E-01;2165;-0.16746688;0.0;0.072515041;1013.9325;  4.0742278E-01;11541.574;3;-55.258953;0.0;8.04846;0;1.7716843;  9.9400635E+03;  0.0000000E+00; -1.2248736E-04;  1.0000000E+04;  0.0000000E+00;  9.9690957E+03;1.2620541;0.0;0.5096302;14425.222
  7.1965015E-01;  9.9999998E-03;  1.2019776E-01;2166;-0.17019549;0.0;0.084486119;1013.8536;  4.0742326E-01;11476.3;3;-54.044369;0.0;8.0338278;0;1.73886;  9.9388760E+03;  0.0000000E+00; -1.2478317E-04;  1.0000000E+04;  0.0000000E+00;  9.9687188E+03;1.281165;0.0;0.45769504;14676.007
  7.1963996E-01;  9.9999998E-03;  1.4023633E-01;2167;-0.17257634;0.0;0.095574096;1013.7673;  4.0742382E-01;11404.704;3;-52.211308;0.0;7.8837538;0;1.7084806;  9.9374590E+03;  0.0000000E+00; -9.2316077E-05;  1.0000000E+04;  0.0000000E+00;  9.9684229E+03;1.3031833;0.0;0.40529734;14885.311
  7.3979914E-01;  9.9999998E-03;  4.1823614E-11;2191;-0.10294122;0.0;1.0698831e-08;1013.8976;  4.0756395E-01;11512.214;3;-38.8069;0.0;-5.7259022e-06;0;2.2073998;  9.9331455E+03;  0.0000000E+00; -3.9243651E-15;  1.0000000E+04;  0.0000000E+00;  9.9684170E+03;1.4615381;0.0;0.74586189;14401.313
  7.3979843E-01;  9.9999998E-03;  2.0033628E-02;2192;-0.10327592;0.0;0.017978225;1013.8843;  4.0756416E-01;11501.253;3;-38.788467;0.0;2.9448183;0;2.1999664;  9.9330020E+03;  0.0000000E+00; -3.1609038E-06;  1.0000000E+04;  0.0000000E+00;  9.9682949E+03;1.4642181;0.0;0.73574823;14474.126
  7.3979634E-01;  9.9999998E-03;  4.0066916E-02;2193;-0.10423177;0.0;0.034999479;1013.8454;  4.0756422E-01;11469.062;3;-38.712479;0.0;5.4371953;0;2.1791964;  9.9325732E+03;  0.0000000E+00; -1.2766954E-05;  1.0000000E+04;  0.0000000E+00;  9.9679580E+03;1.4721308;0.0;0.7070657;14681.481
  7.3979300E-01;  9.9999998E-03;  6.0100269E-02;2194;-0.10567846;0.0;0.05053214;1013.7845;  4.0756446E-01;11418.601;3;-38.522713;0.0;7.1560159;0;2.148948;  9.9318613E+03;  0.0000000E+00; -2.7043056E-05;  1.0000000E+04;  0.0000000E+00;  9.9674609E+03;1.4849086;0.0;0.66403943;14985.563
  7.3978853E-01;  9.9999998E-03;  8.0134884E-02;2195;-0.10743985;0.0;0.064612262;1013.7075;  4.0756491E-01;11354.71;3;-38.141983;0.0;8.0035534;0;2.1136653;  9.9308701E+03;  0.0000000E+00; -3.9689839E-05;  1.0000000E+04;  0.0000000E+00;  9.9669229E+03;1.5019896;0.0;0.61167574;15321.378
  7.3978299E-01;  9.9999998E-03;  1.0017197E-01;2196;-0.10933521;0.0;0.077626459;1013.6216;  4.0756536E-01;11283.613;3;-37.495579;0.0;8.1384058;0;2.0766463;  9.9296191E+03;  0.0000000E+00; -4.1419684E-05;  1.0000000E+04;  0.0000000E+00;  9.9664736E+03;1.5226635;0.0;0.55398297;15618.047
  7.3977649E-01;  9.9999998E-03;  1.2021164E-01;2197;-0.11120655;0.0;0.089926444;1013.5314;  4.0756580E-01;11208.86;3;-36.535805;0.0;7.929081;0;2.039228;  9.9281113E+03;  0.0000000E+00; -2.4686038E-05;  1.0000000E+04;  0.0000000E+00;  9.9661992E+03;1.5461241;0.0;0.49310377;15831.462
  7.3976922E-01;  9.9999998E-03;  1.4025205E-01;2198;-0.11291984;0.0;0.10131799;1013.4388;  4.0756628E-01;11132.231;3;-35.261482;0.0;7.7660751;0;2.0019121;  9.9263779E+03;  0.0000000E+00;  1.4047424E-05;  1.0000000E+04;  0.0000000E+00;  9.9660908E+03;1.5714486;0.0;0.43046346;15958.238
  7.5988901E-01;  9.9999998E-03;  9.3766307E-11;2222;-0.060405266;0.0;3.4529165e-08;1013.7953;  4.0761754E-01;11427.018;3;-24.940441;0.0;3.5849807e-06;0;2.3564382;  9.9304268E+03;  0.0000000E+00; -3.8346236E-15;  1.0000000E+04;  0.0000000E+00;  9.9665332E+03;1.5617924;0.0;0.79464567;15247.702
  7.5988853E-01;  9.9999998E-03;  2.0035475E-02;2223;-0.060602237;0.0;0.018937442;1013.7809;  4.0761781E-01;11414.971;3;-24.89949;0.0;3.0182357;0;2.3485355;  9.9302598E+03;  0.0000000E+00; -1.4689006E-07;  1.0000000E+04;  0.0000000E+00;  9.9664180E+03;1.5650208;0.0;0.78351474;15320.964
  7.5988722E-01;  9.9999998E-03;  4.0070496E-02;2224;-0.061155465;0.0;0.036796015;1013.7386;  4.0761799E-01;11380.016;3;-24.763172;0.0;5.5300322;0;2.3264298;  9.9297578E+03;  0.0000000E+00; -8.8280188E-07;  1.0000000E+04;  0.0000000E+00;  9.9660850E+03;1.5745057;0.0;0.7519241;15529.139
  7.5988513E-01;  9.9999998E-03;  6.0105387E-02;2225;-0.061963685;0.0;0.052951351;1013.6727;  4.0761811E-01;11325.41;3;-24.49486;0.0;7.1705441;0;2.2941227;  9.9289307E+03;  0.0000000E+00; -1.8614871E-06;  1.0000000E+04;  0.0000000E+00;  9.9656016E+03;1.589677;0.0;0.70444578;15831.76
  7.5988239E-01;  9.9999998E-03;  8.0141343E-02;2226;-0.062892683;0.0;0.06739226;1013.5895;  4.0761855E-01;11256.488;3;-24.047209;0.0;7.8185506;0;2.2561171;  9.9277881E+03;  0.0000000E+00; -3.8516100E-07;  1.0000000E+04;  0.0000000E+00;  9.9650986E+03;1.6096704;0.0;0.64644676;16157.389
  7.5987911E-01;  9.9999998E-03;  1.0017958E-01;2227;-0.063810214;0.0;0.080495998;1013.4982;  4.0761900E-01;11180.851;3;-23.380085;0.0;7.6347337;0;2.2155299;  9.9263506E+03;  0.0000000E+00;  7.5931407E-06;  1.0000000E+04;  0.0000000E+00;  9.9647246E+03;1.633377;0.0;0.5821529;16425.059
  7.5987536E-01;  9.9999998E-03;  1.2022016E-01;2228;-0.064606048;0.0;0.092613384;1013.4052;  4.0761957E-01;11103.83;3;-22.4769;0.0;7.012568;0;2.1732664;  9.9246484E+03;  0.0000000E+00;  2.4279268E-05;  1.0000000E+04;  0.0000000E+00;  9.9645811E+03;1.6594334;0.0;0.51383293;16580.426
  7.5987130E-01;  9.9999998E-03;  1.4026107E-01;2229;-0.065187357;0.0;0.10353892;1013.3142;  4.0762013E-01;11028.489;3;-21.355024;0.0;6.3902388;0;2.1294236;  9.9227461E+03;  0.0000000E+00;  4.7170826E-05;  1.0000000E+04;  0.0000000E+00;  9.9646777E+03;1.6860968;0.0;0.44332695;16616.965
  7.7995491E-01;  9.9999998E-03; -9.8685617E-12;2253;-0.028492985;0.0;-6.7749761e-09;1013.9009;  4.0763712E-01;11513.731;3;-14.006634;0.0;-5.6702993e-06;0;2.3720379;  9.9327129E+03;  0.0000000E+00; -1.4976513E-14;  1.0000000E+04;  0.0000000E+00;  9.9653818E+03;1.5484712;0.0;0.82356673;15773.315
  7.7995467E-01;  9.9999998E-03;  2.0036526E-02;2254;-0.028568415;0.0;0.019433243;1013.8865;  4.0763718E-01;11501.784;3;-13.957422;0.0;2.9829409;0;2.3635654;  9.9325361E+03;  0.0000000E+00;  6.5247576E-07;  1.0000000E+04;  0.0000000E+00;  9.9652744E+03;1.5519378;0.0;0.81162751;15843.547
  7.7995408E-01;  9.9999998E-03;  4.0072493E-02;2255;-0.028770138;0.0;0.037699908;1013.8443;  4.0763742E-01;11466.732;3;-13.803524;0.0;5.4275742;0;2.3398309;  9.9320049E+03;  0.0000000E+00;  2.3882085E-06;  1.0000000E+04;  0.0000000E+00;  9.9649648E+03;1.5620979;0.0;0.77773303;16042.729
  7.7995312E-01;  9.9999998E-03;  6.0108166E-02;2256;-0.029033229;0.0;0.054110505;1013.7778;  4.0763763E-01;11411.736;3;-13.529051;0.0;6.9447222;0;2.3050289;  9.9311348E+03;  0.0000000E+00;  5.0235972E-06;  1.0000000E+04;  0.0000000E+00;  9.9645215E+03;1.5782723;0.0;0.72675645;16329.689
  7.7995193E-01;  9.9999998E-03;  8.0144726E-02;2257;-0.029274518;0.0;0.068624757;1013.695;  4.0763795E-01;11343.113;3;-13.116462;0.0;7.4031286;0;2.2638543;  9.9299355E+03;  0.0000000E+00;  9.0168378E-06;  1.0000000E+04;  0.0000000E+00;  9.9640791E+03;1.5994285;0.0;0.66442567;16630.152
  7.7995068E-01;  9.9999998E-03;  1.0018340E-01;2258;-0.029419014;0.0;0.081620991;1013.605;  4.0763849E-01;11268.567;3;-12.558637;0.0;6.9700875;0;2.2195277;  9.9284326E+03;  0.0000000E+00;  1.5170945E-05;  1.0000000E+04;  0.0000000E+00;  9.9637979E+03;1.6242335;0.0;0.59529436;16858.375
  7.7994931E-01;  9.9999998E-03;  1.2022422E-01;2259;-0.029415464;0.0;0.093455836;1013.5156;  4.0763894E-01;11194.515;3;-11.867334;0.0;6.0573134;0;2.1729283;  9.9266699E+03;  0.0000000E+00;  2.3224376E-05;  1.0000000E+04;  0.0000000E+00;  9.9637832E+03;1.6509745;0.0;0.5219537;16956.004
  7.7994794E-01;  9.9999998E-03;  1.4026506E-01;2260;-0.029230354;0.0;0.10391504;1013.431;  4.0763953E-01;11124.51;3;-11.076622;0.0;5.1326361;0;2.1241837;  9.9247363E+03;  0.0000000E+00;  3.0321602E-05;  1.0000000E+04;  0.0000000E+00;  9.9640361E+03;1.6773499;0.0;0.44683385;16919.291
  8.0000824E-01;  9.9999998E-03; -1.0488167E-10;2284;-0.0016774201;0.0;-3.6285503e-08;1014.1313;  4.0764269E-01;11703.429;3;-4.1966081;0.0;-1.6460981e-06;0;2.3076022;  9.9374023E+03;  0.0000000E+00;  4.1760914E-15;  1.0000000E+04;  0.0000000E+00;  9.9649150E+03;1.4732438;0.0;0.83435833;15985.357
  8.0000824E-01;  9.9999998E-03;  2.0036850E-02;2285;-0.0016525267;0.0;0.019527907;1014.1174;  4.0764272E-01;11691.878;3;-4.1522713;0.0;2.8795104;0;2.2985668;  9.9372305E+03;  0.0000000E+00;  2.5180489E-07;  1.0000000E+04;  0.0000000E+00;  9.9648193E+03;1.476673;0.0;0.82189387;16050.944
  8.0000824E-01;  9.9999998E-03;  4.0073067E-02;2286;-0.0015671342;0.0;0.037840527;1014.077;  4.0764305E-01;11658.409;3;-4.0192981;0.0;5.2110009;0;2.2732472;  9.9367090E+03;  0.0000000E+00;  9.3949762E-07;  1.0000000E+04;  0.0000000E+00;  9.9645400E+03;1.4867231;0.0;0.78652406;16236.81
  8.0000830E-01;  9.9999998E-03;  6.0108870E-02;2287;-0.0013925529;0.0;0.054214392;1014.0138;  4.0764335E-01;11606.083;3;-3.7988839;0.0;6.5998292;0;2.2360811;  9.9358496E+03;  0.0000000E+00;  1.9316358E-06;  1.0000000E+04;  0.0000000E+00;  9.9641455E+03;1.5027139;0.0;0.73336709;16502.85
  8.0000854E-01;  9.9999998E-03;  8.0145434E-02;2288;-0.001095459;0.0;0.068599597;1013.9353;  4.0764371E-01;11541.12;3;-3.4976921;0.0;6.91714;0;2.1920958;  9.9346729E+03;  0.0000000E+00;  3.1560469E-06;  1.0000000E+04;  0.0000000E+00;  9.9637676E+03;1.5236191;0.0;0.6684767;16775.305
  8.0000895E-01;  9.9999998E-03;  1.0018399E-01;2289;-0.00065356173;0.0;0.081387691;1013.8505;  4.0764406E-01;11470.924;3;-3.1322179;0.0;6.3408766;0;2.1448715;  9.9331973E+03;  0.0000000E+00;  4.5385473E-06;  1.0000000E+04;  0.0000000E+00;  9.9635615E+03;1.5481013;0.0;0.59677011;16968.4
  8.0000961E-01;  9.9999998E-03;  1.2022458E-01;2290;-6.7845642e-05;0.0;0.09295284;1013.7676;  4.0764454E-01;11402.209;3;-2.7324696;0.0;5.2960682;0;2.0956161;  9.9314727E+03;  0.0000000E+00;  5.7748425E-06;  1.0000000E+04;  0.0000000E+00;  9.9636357E+03;1.5743929;0.0;0.52122313;17024.535
  8.0001050E-01;  9.9999998E-03;  1.4026505E-01;2291;0.00064155651;0.0;0.10308456;1013.6904;  4.0764514E-01;11338.332;3;-2.3392005;0.0;4.2637353;0;2.0448072;  9.9295957E+03;  0.0000000E+00;  6.0497937E-06;  1.0000000E+04;  0.0000000E+00;  9.9639785E+03;1.6000071;0.0;0.44480023;16945.436
  8.2005960E-01;  9.9999998E-03;  2.2416588E-11;2315;0.024777567;0.0;6.2026762e-09;1014.3839;  4.0763286E-01;11911.075;3;5.8168006;0.0;3.3971446e-06;0;2.2043192;  9.9426777E+03;  0.0000000E+00; -1.5627560E-15;  1.0000000E+04;  0.0000000E+00;  9.9650566E+03;1.3743314;0.0;0.82998782;15912.768
  8.2005978E-01;  9.9999998E-03;  2.0036552E-02;2316;0.02488257;0.0;0.019299429;1014.371;  4.0763304E-01;11900.414;3;5.8472142;0.0;2.7490315;0;2.1948822;  9.9425117E+03;  0.0000000E+00; -2.0489594E-07;  1.0000000E+04;  0.0000000E+00;  9.9649668E+03;1.3775525;0.0;0.81732959;15973.764
  8.2006031E-01;  9.9999998E-03;  4.0072430E-02;2317;0.025196882;0.0;0.037372235;1014.3336;  4.0763322E-01;11869.516;3;5.9341679;0.0;4.9585152;0;2.1684542;  9.9420234E+03;  0.0000000E+00; -7.5616487E-07;  1.0000000E+04;  0.0000000E+00;  9.9647158E+03;1.3870127;0.0;0.78144133;16146.765
  8.2006127E-01;  9.9999998E-03;  6.0107823E-02;2318;0.025717696;0.0;0.053489421;1014.275;  4.0763351E-01;11820.947;3;6.0649881;0.0;6.2431931;0;2.1297426;  9.9412119E+03;  0.0000000E+00; -1.5161148E-06;  1.0000000E+04;  0.0000000E+00;  9.9643594E+03;1.402136;0.0;0.72760653;16393.924
  8.2006264E-01;  9.9999998E-03;  8.0143891E-02;2319;0.026438376;0.0;0.0676075;1014.202;  4.0763384E-01;11760.533;3;6.2189684;0.0;6.4853835;0;2.0841701;  9.9400996E+03;  0.0000000E+00; -2.3279576E-06;  1.0000000E+04;  0.0000000E+00;  9.9640273E+03;1.4220532;0.0;0.66211683;16644.357
  8.2006449E-01;  9.9999998E-03;  1.0018190E-01;2320;0.027342133;0.0;0.080139078;1014.1235;  4.0763420E-01;11695.578;3;6.3680577;0.0;5.8752484;0;2.0358033;  9.9386992E+03;  0.0000000E+00; -3.1198269E-06;  1.0000000E+04;  0.0000000E+00;  9.9638672E+03;1.4456184;0.0;0.59018499;16815.314
  8.2006687E-01;  9.9999998E-03;  1.2022193E-01;2321;0.028395113;0.0;0.091484234;1014.0469;  4.0763474E-01;11632.104;3;6.4782648;0.0;4.8460531;0;1.9863496;  9.9370625E+03;  0.0000000E+00; -3.9035167E-06;  1.0000000E+04;  0.0000000E+00;  9.9639785E+03;1.4712621;0.0;0.51508754;16852.436
  8.2006979E-01;  9.9999998E-03;  1.4026184E-01;2322;0.029547276;0.0;0.10144818;1013.9752;  4.0763530E-01;11572.775;3;6.5167689;0.0;3.8780382;0;1.9367685;  9.9352744E+03;  0.0000000E+00; -4.4143621E-06;  1.0000000E+04;  0.0000000E+00;  9.9643418E+03;1.496659;0.0;0.44010952;16762.711
  8.4011358E-01;  9.9999998E-03;  9.7480669E-11;2346;0.052673575;0.0;3.443991e-08;1014.3833;  4.0750894E-01;11908.71;3;16.340092;0.0;3.483583e-06;0;2.0760827;  9.9480605E+03;  0.0000000E+00;  1.6643721E-14;  1.0000000E+04;  0.0000000E+00;  9.9657051E+03;1.26265;0.0;0.81343281;15593.848
  8.4011388E-01;  9.9999998E-03;  2.0035734E-02;2347;0.052843727;0.0;0.018820735;1014.3715;  4.0750909E-01;11898.938;3;16.353012;0.0;2.6220658;0;2.0665195;  9.9479102E+03;  0.0000000E+00; -3.1253313E-07;  1.0000000E+04;  0.0000000E+00;  9.9656270E+03;1.2656037;0.0;0.80091584;15651.289
  8.4011489E-01;  9.9999998E-03;  4.0070787E-02;2348;0.053344402;0.0;0.036434401;1014.337;  4.0750930E-01;11870.414;3;16.385216;0.0;4.7251043;0;2.0397902;  9.9474619E+03;  0.0000000E+00; -1.1322795E-06;  1.0000000E+04;  0.0000000E+00;  9.9653916E+03;1.2743156;0.0;0.7654745;15814.618
  8.4011662E-01;  9.9999998E-03;  6.0105328E-02;2349;0.054149695;0.0;0.052128714;1014.2828;  4.0750954E-01;11825.506;3;16.418631;0.0;5.9424381;0;2.0008202;  9.9467158E+03;  0.0000000E+00; -2.0814953E-06;  1.0000000E+04;  0.0000000E+00;  9.9650576E+03;1.2883729;0.0;0.71244723;16048.741
  8.4011906E-01;  9.9999998E-03;  8.0140509E-02;2350;0.055225167;0.0;0.065876603;1014.215;  4.0750998E-01;11769.346;3;16.428148;0.0;6.1715732;0;1.955377;  9.9456836E+03;  0.0000000E+00; -2.7602400E-06;  1.0000000E+04;  0.0000000E+00;  9.9647480E+03;1.3071519;0.0;0.64822507;16286.78
  8.4012222E-01;  9.9999998E-03;  1.0017761E-01;2351;0.056532405;0.0;0.078112245;1014.1418;  4.0751031E-01;11708.744;3;16.385822;0.0;5.6131902;0;1.9079783;  9.9443779E+03;  0.0000000E+00; -3.0275710E-06;  1.0000000E+04;  0.0000000E+00;  9.9645967E+03;1.3298228;0.0;0.57815552;16450.246
  8.4012616E-01;  9.9999998E-03;  1.2021676E-01;2352;0.058027651;0.0;0.089261867;1014.0696;  4.0751082E-01;11649.03;3;16.268011;0.0;4.7026544;0;1.860822;  9.9428369E+03;  0.0000000E+00; -3.1396437E-06;  1.0000000E+04;  0.0000000E+00;  9.9647012E+03;1.3551785;0.0;0.50564355;16488.301
  8.4013087E-01;  9.9999998E-03;  1.4025591E-01;2353;0.059658561;0.0;0.099152051;1014.0006;  4.0751120E-01;11591.883;3;16.061178;0.0;3.908941;0;1.8153249;  9.9411318E+03;  0.0000000E+00; -2.6533637E-06;  1.0000000E+04;  0.0000000E+00;  9.9650254E+03;1.3812993;0.0;0.43402568;16411.268
  8.6016893E-01;  9.9999998E-03;  5.2657670E-11;2377;0.081116818;0.0;2.560475e-08;1014.1405;  4.0726575E-01;11705.042;3;26.902687;0.0;4.0106795e-05;0;1.9145372;  9.9541270E+03;  0.0000000E+00; -5.3820675E-16;  1.0000000E+04;  0.0000000E+00;  9.9667861E+03;1.1274643;0.0;0.78707296;15068.16
  8.6016941E-01;  9.9999998E-03;  2.0034477E-02;2378;0.081342563;0.0;0.018141259;1014.1295;  4.0726572E-01;11695.964;3;26.899273;0.0;2.5122538;0;1.9051623;  9.9539893E+03;  0.0000000E+00; -2.6580233E-07;  1.0000000E+04;  0.0000000E+00;  9.9667080E+03;1.1301619;0.0;0.77500039;15123.229
  8.6017084E-01;  9.9999998E-03;  4.0068284E-02;2379;0.082003489;0.0;0.035118256;1014.0977;  4.0726584E-01;11669.617;3;26.881796;0.0;4.5322018;0;1.8790305;  9.9535811E+03;  0.0000000E+00; -9.0358191E-07;  1.0000000E+04;  0.0000000E+00;  9.9664814E+03;1.1381642;0.0;0.74086636;15280.43
  8.6017323E-01;  9.9999998E-03;  6.0101595E-02;2380;0.083058245;0.0;0.050250586;1014.047;  4.0726614E-01;11627.679;3;26.831907;0.0;5.715507;0;1.84117;  9.9529004E+03;  0.0000000E+00; -1.4061579E-06;  1.0000000E+04;  0.0000000E+00;  9.9661553E+03;1.1512243;0.0;0.6899457;15507.538
  8.6017656E-01;  9.9999998E-03;  8.0135539E-02;2381;0.084456176;0.0;0.06353125;1013.9835;  4.0726641E-01;11575.083;3;26.726316;0.0;5.9748001;0;1.7975416;  9.9519541E+03;  0.0000000E+00; -1.2688940E-06;  1.0000000E+04;  0.0000000E+00;  9.9658428E+03;1.1689847;0.0;0.62855697;15741.821
  8.6018091E-01;  9.9999998E-03;  1.0017140E-01;2382;0.086151473;0.0;0.075410545;1013.9141;  4.0726680E-01;11517.652;3;26.546;0.0;5.516942;0;1.752948;  9.9507422E+03;  0.0000000E+00; -6.1539083E-07;  1.0000000E+04;  0.0000000E+00;  9.9656738E+03;1.1909643;0.0;0.56198364;15908.842
  8.6018628E-01;  9.9999998E-03;  1.2020937E-01;2383;0.088107325;0.0;0.086332411;1013.8446;  4.0726718E-01;11460.123;3;26.284817;0.0;4.7723751;0;1.7099594;  9.9492920E+03;  0.0000000E+00; -8.0986339E-08;  1.0000000E+04;  0.0000000E+00;  9.9657373E+03;1.2164031;0.0;0.49355629;15960.381
  8.6019272E-01;  9.9999998E-03;  1.4024746E-01;2384;0.090291262;0.0;0.096143961;1013.7755;  4.0726757E-01;11402.888;3;25.956135;0.0;4.1921005;0;1.6703513;  9.9476563E+03;  0.0000000E+00;  8.5327895E-07;  1.0000000E+04;  0.0000000E+00;  9.9660049E+03;1.2439231;0.0;0.42642817;15907.667
  8.8022166E-01;  9.9999998E-03; -9.3641192E-11;2408;0.10810872;0.0;-2.6053685e-08;1013.7245;  4.0691650E-01;11357.232;3;36.848103;0.0;2.717803e-05;0;1.7064193;  9.9616348E+03;  0.0000000E+00;  3.4539767E-14;  1.0000000E+04;  0.0000000E+00;  9.9682197E+03;0.9536888;0.0;0.75273055;14373.182
  8.8022226E-01;  9.9999998E-03;  2.0032836E-02;2409;0.10838439;0.0;0.017290406;1013.7142;  4.0691650E-01;11348.749;3;36.832886;0.0;2.4184349;0;1.69749;  9.9615098E+03;  0.0000000E+00; -3.5607101E-07;  1.0000000E+04;  0.0000000E+00;  9.9681406E+03;0.95614803;0.0;0.74134201;14426.647
  8.8022411E-01;  9.9999998E-03;  4.0065039E-02;2410;0.10919058;0.0;0.033475175;1013.6844;  4.0691668E-01;11324.087;3;36.780518;0.0;4.3729277;0;1.6726789;  9.9611455E+03;  0.0000000E+00; -1.2375434E-06;  1.0000000E+04;  0.0000000E+00;  9.9679160E+03;0.96348345;0.0;0.70919555;14580.004
  8.8022709E-01;  9.9999998E-03;  6.0096778E-02;2411;0.1104762;0.0;0.047915664;1013.6373;  4.0691689E-01;11285.12;3;36.674416;0.0;5.5415564;0;1.6369855;  9.9605332E+03;  0.0000000E+00; -1.9521294E-06;  1.0000000E+04;  0.0000000E+00;  9.9675889E+03;0.97559398;0.0;0.66139156;14803.847
  8.8023120E-01;  9.9999998E-03;  8.0129169E-02;2412;0.11218167;0.0;0.060624521;1013.5776;  4.0691718E-01;11235.695;3;36.496227;0.0;5.8496742;0;1.5963528;  9.9596787E+03;  0.0000000E+00; -1.9826300E-06;  1.0000000E+04;  0.0000000E+00;  9.9672588E+03;0.9923501;0.0;0.60400265;15039.288
  8.8023663E-01;  9.9999998E-03;  1.0016347E-01;2413;0.11426156;0.0;0.072058901;1013.5119;  4.0691745E-01;11181.34;3;36.238747;0.0;5.5049667;0;1.555652;  9.9585674E+03;  0.0000000E+00; -1.7657638E-06;  1.0000000E+04;  0.0000000E+00;  9.9670566E+03;1.0135956;0.0;0.54205644;15215.148
  8.8024330E-01;  9.9999998E-03;  1.2019990E-01;2414;0.11669328;0.0;0.082668029;1013.4446;  4.0691781E-01;11125.603;3;35.913921;0.0;4.9263906;0;1.5176519;  9.9572158E+03;  0.0000000E+00; -2.3658702E-06;  1.0000000E+04;  0.0000000E+00;  9.9670723E+03;1.0390193;0.0;0.47863254;15284.541
  8.8025141E-01;  9.9999998E-03;  1.4023659E-01;2415;0.1194724;0.0;0.092314295;1013.3755;  4.0691829E-01;11068.485;3;35.560802;0.0;4.5434399;0;1.4844177;  9.9556416E+03;  0.0000000E+00; -3.3213737E-06;  1.0000000E+04;  0.0000000E+00;  9.9672734E+03;1.0678713;0.0;0.41654629;15257.691
  9.0026718E-01;  9.9999998E-03; -1.1634794E-10;2439;0.13165186;0.0;-1.9090283e-08;1013.1843;  4.0648073E-01;10905.821;3;45.699516;0.0;3.1306932e-05;0;1.4522312;  9.9706982E+03;  0.0000000E+00;  1.8055082E-14;  1.0000000E+04;  0.0000000E+00;  9.9699336E+03;0.74021727;0.0;0.71201396;13543.549
  9.0026790E-01;  9.9999998E-03;  2.0030867E-02;2440;0.13197714;0.0;0.016287126;1013.1754;  4.0648073E-01;10898.426;3;45.678982;0.0;2.3305364;0;1.4438922;  9.9705967E+03;  0.0000000E+00; -6.6384553E-07;  1.0000000E+04;  0.0000000E+00;  9.9698555E+03;0.7424075;0.0;0.70148474;13595.665
  9.0027004E-01;  9.9999998E-03;  4.0061146E-02;2441;0.13292955;0.0;0.031538039;1013.1481;  4.0648070E-01;10875.943;3;45.611313;0.0;4.2244573;0;1.4207894;  9.9702822E+03;  0.0000000E+00; -2.3819396E-06;  1.0000000E+04;  0.0000000E+00;  9.9696240E+03;0.74897599;0.0;0.67181337;13745.851
  9.0027356E-01;  9.9999998E-03;  6.0091019E-02;2442;0.13445012;0.0;0.045160908;1013.1046;  4.0648100E-01;10839.852;3;45.482056;0.0;5.3807259;0;1.3877563;  9.9697559E+03;  0.0000000E+00; -4.3380860E-06;  1.0000000E+04;  0.0000000E+00;  9.9692910E+03;0.75992727;0.0;0.62782907;13967.39
  9.0027851E-01;  9.9999998E-03;  8.0121554E-02;2443;0.13647191;0.0;0.057186533;1013.0496;  4.0648106E-01;10794.392;3;45.27784;0.0;5.7344112;0;1.3505192;  9.9690078E+03;  0.0000000E+00; -5.8118908E-06;  1.0000000E+04;  0.0000000E+00;  9.9689414E+03;0.77530682;0.0;0.5752123;14204.855
  9.0028489E-01;  9.9999998E-03;  1.0015399E-01;2444;0.13894704;0.0;0.068070151;1012.9886;  4.0648133E-01;10744.002;3;44.998772;0.0;5.489574;0;1.3137975;  9.9680283E+03;  0.0000000E+00; -7.4249156E-06;  1.0000000E+04;  0.0000000E+00;  9.9687090E+03;0.79522079;0.0;0.51857668;14389.653
  9.0029281E-01;  9.9999998E-03;  1.2018855E-01;2445;0.14186099;0.0;0.078253798;1012.9252;  4.0648174E-01;10691.54;3;44.671173;0.0;5.0488691;0;1.2804084;  9.9668037E+03;  0.0000000E+00; -1.0846764E-05;  1.0000000E+04;  0.0000000E+00;  9.9686709E+03;0.8197785;0.0;0.46062988;14475.226
  9.0030241E-01;  9.9999998E-03;  1.4022347E-01;2446;0.1452312;0.0;0.087607771;1012.8586;  4.0648207E-01;10636.415;3;44.352062;0.0;4.8185029;0;1.252655;  9.9653301E+03;  0.0000000E+00; -1.6168357E-05;  1.0000000E+04;  0.0000000E+00;  9.9688174E+03;0.84888911;0.0;0.40376595;14469.606
  9.2028898E-01;  9.9999998E-03; -1.6119370E-11;2470;0.14445816;0.0;-6.0723697e-09;1012.5301;  4.0598056E-01;10358.984;3;51.965427;0.0;1.1246564e-05;0;1.1747338;  9.9804717E+03;  0.0000000E+00; -2.8417313E-14;  1.0000000E+04;  0.0000000E+00;  9.9718467E+03;0.50811416;0.0;0.6666196;12611.407
  9.2028987E-01;  9.9999998E-03;  2.0028772E-02;2471;0.1448535;0.0;0.015161975;1012.5219;  4.0598050E-01;10352.185;3;51.94043;0.0;2.2226944;0;1.1670363;  9.9803896E+03;  0.0000000E+00; -9.7230418E-07;  1.0000000E+04;  0.0000000E+00;  9.9717676E+03;0.50996512;0.0;0.65707123;12662.095
  9.2029262E-01;  9.9999998E-03;  4.0056970E-02;2472;0.14602932;0.0;0.029362194;1012.4979;  4.0598065E-01;10332.374;3;51.897778;0.0;4.0379615;0;1.1457443;  9.9801426E+03;  0.0000000E+00; -3.5604305E-06;  1.0000000E+04;  0.0000000E+00;  9.9715371E+03;0.51553684;0.0;0.63020754;12808.744
  9.2029715E-01;  9.9999998E-03;  6.0084756E-02;2473;0.14795563;0.0;0.042054579;1012.4595;  4.0598071E-01;10300.638;3;51.834763;0.0;5.1684427;0;1.1153876;  9.9797217E+03;  0.0000000E+00; -6.8222430E-06;  1.0000000E+04;  0.0000000E+00;  9.9711943E+03;0.52489692;0.0;0.59049064;13026.963
  9.2030346E-01;  9.9999998E-03;  8.0113150E-02;2474;0.15057658;0.0;0.053281296;1012.4106;  4.0598094E-01;10260.229;3;51.752689;0.0;5.5578151;0;1.0812981;  9.9791182E+03;  0.0000000E+00; -9.8127712E-06;  1.0000000E+04;  0.0000000E+00;  9.9708242E+03;0.53820127;0.0;0.54309678;13264.547
  9.2031163E-01;  9.9999998E-03;  1.0014335E-01;2475;0.15383539;0.0;0.063493647;1012.3571;  4.0598115E-01;10215.877;3;51.662048;0.0;5.4029717;0;1.0478519;  9.9783125E+03;  0.0000000E+00; -1.3090441E-05;  1.0000000E+04;  0.0000000E+00;  9.9705625E+03;0.55574;0.0;0.49211195;13455.193
  9.2032164E-01;  9.9999998E-03;  1.2017566E-01;2476;0.15769956;0.0;0.073127426;1012.3006;  4.0598130E-01;10169.258;3;51.554749;0.0;5.0736742;0;1.0177689;  9.9772725E+03;  0.0000000E+00; -1.8744086E-05;  1.0000000E+04;  0.0000000E+00;  9.9704912E+03;0.57797438;0.0;0.43979445;13552.252
  9.2033362E-01;  9.9999998E-03;  1.4020845E-01;2477;0.16219983;0.0;0.082068987;1012.2401;  4.0598160E-01;10119.287;3;51.531277;0.0;4.9577327;0;0.99353194;  9.9759609E+03;  0.0000000E+00; -2.8424847E-05;  1.0000000E+04;  0.0000000E+00;  9.9705928E+03;0.60544044;0.0;0.38809147;13560.976
  9.4029206E-01;  9.9999998E-03;  5.2177825E-11;2501;0.14700192;0.0;3.0749149e-08;1011.7493;  4.0544042E-01;9706.2949;3;53.658787;0.0;1.1662167e-05;0;0.90830386;  9.9896143E+03;  0.0000000E+00;  7.4719820E-16;  1.0000000E+04;  0.0000000E+00;  9.9738877E+03;0.28995809;0.0;0.61834574;11606.923
  9.4029295E-01;  9.9999998E-03;  2.0026525E-02;2502;0.14741659;0.0;0.013918073;1011.7424;  4.0544048E-01;9700.582;3;53.660725;0.0;2.067698;0;0.90129006;  9.9895596E+03;  0.0000000E+00; -9.8437931E-07;  1.0000000E+04;  0.0000000E+00;  9.9738086E+03;0.29142851;0.0;0.60986155;11656.052
  9.4029582E-01;  9.9999998E-03;  4.0052522E-02;2503;0.14864798;0.0;0.026969491;1011.7222;  4.0544051E-01;9683.9375;3;53.66724;0.0;3.7698591;0;0.88188672;  9.9893848E+03;  0.0000000E+00; -3.7119642E-06;  1.0000000E+04;  0.0000000E+00;  9.9735762E+03;0.29586712;0.0;0.58601964;11798.487
  9.4030058E-01;  9.9999998E-03;  6.0078107E-02;2504;0.1506716;0.0;0.038654231;1011.6891;  4.0544054E-01;9656.5586;3;53.687737;0.0;4.8522;0;0.8541925;  9.9890850E+03;  0.0000000E+00; -7.2197345E-06;  1.0000000E+04;  0.0000000E+00;  9.9732266E+03;0.30336493;0.0;0.55082756;12011.586
  9.4030726E-01;  9.9999998E-03;  8.0104224E-02;2505;0.15346533;0.0;0.04902745;1011.6481;  4.0544066E-01;9622.6787;3;53.734886;0.0;5.2693553;0;0.82298243;  9.9886475E+03;  0.0000000E+00; -1.0381351E-05;  1.0000000E+04;  0.0000000E+00;  9.9728447E+03;0.31411961;0.0;0.50886285;12246.114
  9.4031596E-01;  9.9999998E-03;  1.0013202E-01;2506;0.15698767;0.0;0.058505274;1011.6031;  4.0544084E-01;9585.5479;3;53.824165;0.0;5.1962652;0;0.79212737;  9.9880400E+03;  0.0000000E+00; -1.3548946E-05;  1.0000000E+04;  0.0000000E+00;  9.9725635E+03;0.32852107;0.0;0.46360627;12438.129
  9.4032663E-01;  9.9999998E-03;  1.2016184E-01;2507;0.16122301;0.0;0.067511871;1011.5571;  4.0544090E-01;9547.5293;3;54.001209;0.0;4.9886899;0;0.76408839;  9.9872256E+03;  0.0000000E+00; -1.8636538E-05;  1.0000000E+04;  0.0000000E+00;  9.9724600E+03;0.3472639;0.0;0.41682449;12541.086
  9.4033951E-01;  9.9999998E-03;  1.4019223E-01;2508;0.16620564;0.0;0.07596153;1011.5062;  4.0544114E-01;9505.4727;3;54.301403;0.0;5.0020666;0;0.74141145;  9.9861328E+03;  0.0000000E+00; -2.8254139E-05;  1.0000000E+04;  0.0000000E+00;  9.9725361E+03;0.37137839;0.0;0.37003303;12557.456
  9.6028960E-01;  9.9999998E-03;  8.4565228E-12;2532;0.14657044;0.0;1.1644471e-08;1010.8441;  4.0488362E-01;8949.6377;3;53.960533;0.0;3.1846866e-06;0;0.68026841;  9.9970928E+03;  0.0000000E+00; -6.8799679E-15;  1.0000000E+04;  0.0000000E+00;  9.9759766E+03;0.11122752;0.0;0.56904089;10560.689
  9.6029055E-01;  9.9999998E-03;  2.0024091E-02;2533;0.1469963;0.0;0.012619873;1010.8383;  4.0488356E-01;8944.8174;3;53.977585;0.0;1.9355054;0;0.67401803;  9.9970576E+03;  0.0000000E+00; -7.2529753E-07;  1.0000000E+04;  0.0000000E+00;  9.9758955E+03;0.11234982;0.0;0.56166822;10608.101
  9.6029335E-01;  9.9999998E-03;  4.0047720E-02;2534;0.14824568;0.0;0.024455475;1010.8214;  4.0488377E-01;8930.8447;3;54.019245;0.0;3.519381;0;0.65669858;  9.9969541E+03;  0.0000000E+00; -2.7342007E-06;  1.0000000E+04;  0.0000000E+00;  9.9756631E+03;0.11574426;0.0;0.54095435;10745.5
  9.6029812E-01;  9.9999998E-03;  6.0071047E-02;2535;0.1503167;0.0;0.035110112;1010.794;  4.0488374E-01;8908.3125;3;54.093285;0.0;4.5479946;0;0.63187301;  9.9967666E+03;  0.0000000E+00; -5.2584251E-06;  1.0000000E+04;  0.0000000E+00;  9.9753076E+03;0.12150195;0.0;0.51037109;10951.293
  9.6030492E-01;  9.9999998E-03;  8.0094926E-02;2536;0.15318772;0.0;0.044644564;1010.7606;  4.0488383E-01;8880.7617;3;54.220989;0.0;4.9991226;0;0.60363793;  9.9964824E+03;  0.0000000E+00; -7.2579905E-06;  1.0000000E+04;  0.0000000E+00;  9.9749229E+03;0.12982157;0.0;0.47381634;11178.885
  9.6031368E-01;  9.9999998E-03;  1.0012039E-01;2537;0.15681656;0.0;0.053440254;1010.7247;  4.0488389E-01;8851.1436;3;54.416794;0.0;5.0383019;0;0.57523185;  9.9960693E+03;  0.0000000E+00; -8.5859319E-06;  1.0000000E+04;  0.0000000E+00;  9.9746279E+03;0.14111689;0.0;0.43411496;11367.101
  9.6032459E-01;  9.9999998E-03;  1.2014773E-01;2538;0.16118878;0.0;0.061858829;1010.689;  4.0488395E-01;8821.624;3;54.708576;0.0;4.9749436;0;0.54873031;  9.9954756E+03;  0.0000000E+00; -1.0344864E-05;  1.0000000E+04;  0.0000000E+00;  9.9745137E+03;0.15618984;0.0;0.39254048;11470.283
  9.6033770E-01;  9.9999998E-03;  1.4017567E-01;2539;0.16632703;0.0;0.069819607;1010.6489;  4.0488413E-01;8788.5605;3;55.084873;0.0;5.1241469;0;0.52659625;  9.9946191E+03;  0.0000000E+00; -1.4693405E-05;  1.0000000E+04;  0.0000000E+00;  9.9745703E+03;0.17637122;0.0;0.35022503;11488.676
  9.8028421E-01;  9.9999998E-03; -1.8941569E-11;2563;0.14464304;0.0;-7.042837e-09;1009.8461;  4.0433177E-01;8115.1299;3;53.743595;0.0;6.3396874e-07;0;0.50172228;  1.0002542E+04;  0.0000000E+00;  5.2614379E-15;  1.0000000E+04;  0.0000000E+00;  9.9780430E+03;-0.018737681;0.0;0.52045995;9503.7607
  9.8028511E-01;  9.9999998E-03;  2.0021705E-02;2564;0.14507945;0.0;0.011337182;1009.8411;  4.0433177E-01;8111.0034;3;53.773178;0.0;1.787498;0;0.49632505;  1.0002523E+04;  0.0000000E+00; -3.6079661E-07;  1.0000000E+04;  0.0000000E+00;  9.9779590E+03;-0.017877907;0.0;0.51420295;9549.1406
  9.8028797E-01;  9.9999998E-03;  4.0043067E-02;2565;0.14637852;0.0;0.022039549;1009.8267;  4.0433171E-01;8099.2104;3;53.869518;0.0;3.2922673;0;0.48132759;  1.0002471E+04;  0.0000000E+00; -1.3863103E-06;  1.0000000E+04;  0.0000000E+00;  9.9777266E+03;-0.015270449;0.0;0.49659804;9680.1982
  9.8029268E-01;  9.9999998E-03;  6.0064211E-02;2566;0.14851594;0.0;0.031742468;1009.8043;  4.0433177E-01;8080.6392;3;54.038445;0.0;4.3219047;0;0.45969036;  1.0002374E+04;  0.0000000E+00; -2.5536831E-06;  1.0000000E+04;  0.0000000E+00;  9.9773750E+03;-0.010820722;0.0;0.47051108;9875.7432
  9.8029929E-01;  9.9999998E-03;  8.0085896E-02;2567;0.1514558;0.0;0.040494099;1009.7766;  4.0433198E-01;8057.8398;3;54.277039;0.0;4.842525;0;0.43476856;  1.0002210E+04;  0.0000000E+00; -3.0268932E-06;  1.0000000E+04;  0.0000000E+00;  9.9769932E+03;-0.0043299906;0.0;0.43909854;10091.58
  9.8030806E-01;  9.9999998E-03;  1.0010909E-01;2568;0.15517364;0.0;0.048649754;1009.7482;  4.0433192E-01;8034.4512;3;54.579742;0.0;5.0025105;0;0.40912759;  1.0001946E+04;  0.0000000E+00; -2.4292406E-06;  1.0000000E+04;  0.0000000E+00;  9.9766963E+03;0.004607283;0.0;0.4045203;10270.186
  9.8031896E-01;  9.9999998E-03;  1.2013406E-01;2569;0.15965259;0.0;0.056547593;1009.7213;  4.0433201E-01;8012.2393;3;54.949772;0.0;5.0865684;0;0.384395;  1.0001525E+04;  0.0000000E+00; -1.0575062E-06;  1.0000000E+04;  0.0000000E+00;  9.9765811E+03;0.016798552;0.0;0.36759645;10368.229
  9.8033226E-01;  9.9999998E-03;  1.4015967E-01;2570;0.16493399;0.0;0.064097986;1009.6902;  4.0433204E-01;7986.6855;3;55.434467;0.0;5.3844218;0;0.36283773;  1.0000852E+04;  0.0000000E+00;  1.9052514E-07;  1.0000000E+04;  0.0000000E+00;  9.9766348E+03;0.033681467;0.0;0.32915625;10384.688
  1.0002769E+00;  9.9999998E-03;  6.7805109E-13;2594;0.14174522;0.0;5.4106932e-09;1008.8075;  4.0380287E-01;7246.1519;3;53.237671;0.0;-2.9050425e-06;0;0.36956081;  1.0006155E+04;  0.0000000E+00;  5.9921662E-16;  1.0000000E+04;  0.0000000E+00;  9.9800195E+03;-0.10443521;0.0;0.47399601;8463.8936
  1.0002779E+00;  9.9999998E-03;  2.0019533E-02;2595;0.14220612;0.0;0.010192428;1008.8033;  4.0380290E-01;7242.6201;3;53.274269;0.0;1.6910933;0;0.36506596;  1.0006151E+04;  0.0000000E+00; -9.7474881E-08;  1.0000000E+04;  0.0000000E+00;  9.9799395E+03;-0.10373798;0.0;0.46880394;8506.5615
  1.0002807E+00;  9.9999998E-03;  4.0038839E-02;2596;0.14357138;0.0;0.01988174;1008.7909;  4.0380284E-01;7232.4185;3;53.424309;0.0;3.1498775;0;0.35252994;  1.0006132E+04;  0.0000000E+00; -3.5105103E-07;  1.0000000E+04;  0.0000000E+00;  9.9797080E+03;-0.10160849;0.0;0.45413843;8629.0693
  1.0002854E+00;  9.9999998E-03;  6.0058065E-02;2597;0.14580706;0.0;0.028796069;1008.7715;  4.0380284E-01;7216.5264;3;53.668972;0.0;4.2242789;0;0.33429334;  1.0006086E+04;  0.0000000E+00; -4.3356280E-07;  1.0000000E+04;  0.0000000E+00;  9.9793662E+03;-0.097923614;0.0;0.43221694;8810.2363
  1.0002919E+00;  9.9999998E-03;  8.0077909E-02;2598;0.14884853;0.0;0.036973014;1008.7485;  4.0380287E-01;7197.5933;3;53.987679;0.0;4.8791056;0;0.31297556;  1.0005994E+04;  0.0000000E+00;  1.2685537E-07;  1.0000000E+04;  0.0000000E+00;  9.9790039E+03;-0.092447966;0.0;0.40542352;9008.4023
  1.0003005E+00;  9.9999998E-03;  1.0009910E-01;2599;0.15262932;0.0;0.044638198;1008.7253;  4.0380296E-01;7178.4619;3;54.352245;0.0;5.1981134;0;0.29053587;  1.0005816E+04;  0.0000000E+00;  1.0039394E-06;  1.0000000E+04;  0.0000000E+00;  9.9787236E+03;-0.08476232;0.0;0.37529817;9171.1807
  1.0003114E+00;  9.9999998E-03;  1.2012188E-01;2600;0.15719087;0.0;0.052081347;1008.7032;  4.0380287E-01;7160.3101;3;54.804661;0.0;5.4136639;0;0.26819152;  1.0005493E+04;  0.0000000E+00;  1.4715529E-06;  1.0000000E+04;  0.0000000E+00;  9.9786113E+03;-0.074105188;0.0;0.34229672;9259.6494
  1.0003247E+00;  9.9999998E-03;  1.4014515E-01;2601;0.16263637;0.0;0.059130181;1008.6774;  4.0380293E-01;7139.1152;3;55.368835;0.0;5.7335653;0;0.24796581;  1.0004923E+04;  0.0000000E+00;  1.7357813E-06;  1.0000000E+04;  0.0000000E+00;  9.9786641E+03;-0.059094843;0.0;0.30706066;9272.9678
  1.0202683E+00;  9.9999998E-03;  1.4975568E-11;2625;0.13833466;0.0;5.7615424e-09;1007.7867;  4.0331113E-01;6390.8413;3;52.552746;0.0;-5.2414834e-06;0;0.27318412;  1.0008405E+04;  0.0000000E+00;  5.4806577E-15;  1.0000000E+04;  0.0000000E+00;  9.9818750E+03;-0.15732008;0.0;0.4305042;7461.8672
  1.0202693E+00;  9.9999998E-03;  2.0017555E-02;2626;0.13882059;0.0;0.0091633443;1007.7828;  4.0331122E-01;6387.7095;3;52.629528;0.0;1.6340785;0;0.26957166;  1.0008402E+04;  0.0000000E+00;  8.3360057E-08;  1.0000000E+04;  0.0000000E+00;  9.9817969E+03;-0.15669614;0.0;0.4262678;7500.7393
  1.0202721E+00;  9.9999998E-03;  4.0034983E-02;2627;0.14025086;0.0;0.01792834;1007.7715;  4.0331125E-01;6378.4121;3;52.849773;0.0;3.0632772;0;0.25944608;  1.0008399E+04;  0.0000000E+00;  4.9423647E-07;  1.0000000E+04;  0.0000000E+00;  9.9815781E+03;-0.15476495;0.0;0.41421103;7611.416
  1.0202767E+00;  9.9999998E-03;  6.0052440E-02;2628;0.14255603;0.0;0.026067365;1007.7546;  4.0331125E-01;6364.5151;3;53.189285;0.0;4.1449933;0;0.24455854;  1.0008376E+04;  0.0000000E+00;  1.4695887E-06;  1.0000000E+04;  0.0000000E+00;  9.9812588E+03;-0.15134317;0.0;0.39590171;7772.8813
  1.0202831E+00;  9.9999998E-03;  8.0070473E-02;2629;0.14566806;0.0;0.033624444;1007.734;  4.0331137E-01;6347.6812;3;53.619736;0.0;4.8584547;0;0.22687884;  1.0008307E+04;  0.0000000E+00;  2.5154181E-06;  1.0000000E+04;  0.0000000E+00;  9.9809258E+03;-0.14610724;0.0;0.37298608;7946.9238
  1.0202916E+00;  9.9999998E-03;  1.0008980E-01;2630;0.14955789;0.0;0.040846311;1007.7132;  4.0331125E-01;6330.5513;3;54.112946;0.0;5.3090224;0;0.20790851;  1.0008146E+04;  0.0000000E+00;  1.1471885E-06;  1.0000000E+04;  0.0000000E+00;  9.9806738E+03;-0.13857079;0.0;0.3464793;8088.269
  1.0203024E+00;  9.9999998E-03;  1.2011059E-01;2631;0.15426169;0.0;0.04789456;1007.6924;  4.0331131E-01;6313.5176;3;54.656174;0.0;5.6552224;0;0.18860705;  1.0007834E+04;  0.0000000E+00; -6.0266107E-06;  1.0000000E+04;  0.0000000E+00;  9.9805693E+03;-0.1280102;0.0;0.31661725;8164.938
  1.0203161E+00;  9.9999998E-03;  1.4013164E-01;2632;0.15992372;0.0;0.054467399;1007.6664;  4.0331128E-01;6292.1768;3;55.29541;0.0;6.0272136;0;0.1707862;  1.0007274E+04;  0.0000000E+00; -1.8741270E-05;  1.0000000E+04;  0.0000000E+00;  9.9806152E+03;-0.11320595;0.0;0.28399214;8177.9116
  1.0402583E+00;  9.9999998E-03;  1.1835420E-11;2656;0.13426974;0.0;1.8248726e-10;1006.83;  4.0286675E-01;5587.665;3;51.65506;0.0;1.5353333e-05;0;0.20123558;  1.0009746E+04;  0.0000000E+00; -1.6340278E-15;  1.0000000E+04;  0.0000000E+00;  9.9835889E+03;-0.18905284;0.0;0.39028841;6510.1348
  1.0402592E+00;  9.9999998E-03;  2.0015756E-02;2657;0.13477096;0.0;0.008200842;1006.8264;  4.0286678E-01;5584.7378;3;51.753746;0.0;1.5430627;0;0.19841205;  1.0009746E+04;  0.0000000E+00;  4.1387807E-07;  1.0000000E+04;  0.0000000E+00;  9.9835186E+03;-0.18843202;0.0;0.38684407;6543.8091
  1.0402620E+00;  9.9999998E-03;  4.0031485E-02;2658;0.13624455;0.0;0.016111819;1006.8163;  4.0286678E-01;5576.5425;3;52.036186;0.0;2.9215579;0;0.19044101;  1.0009737E+04;  0.0000000E+00;  1.8875882E-06;  1.0000000E+04;  0.0000000E+00;  9.9833232E+03;-0.18647972;0.0;0.37692073;6638.7021
  1.0402665E+00;  9.9999998E-03;  6.0047384E-02;2659;0.13861805;0.0;0.023585565;1006.8005;  4.0286684E-01;5563.5669;3;52.469715;0.0;4.023921;0;0.1785678;  1.0009706E+04;  0.0000000E+00;  4.3194241E-06;  1.0000000E+04;  0.0000000E+00;  9.9830352E+03;-0.18292576;0.0;0.36149356;6774.8833
  1.0402728E+00;  9.9999998E-03;  8.0063857E-02;2660;0.14181779;0.0;0.030628651;1006.7813;  4.0286678E-01;5547.8594;3;53.030285;0.0;4.8144336;0;0.16425358;  1.0009619E+04;  0.0000000E+00;  5.2391247E-06;  1.0000000E+04;  0.0000000E+00;  9.9827451E+03;-0.17732112;0.0;0.3415747;6919.2646
  1.0402813E+00;  9.9999998E-03;  1.0008147E-01;2661;0.14582923;0.0;0.037420239;1006.7608;  4.0286684E-01;5531.0762;3;53.652767;0.0;5.3694649;0;0.14873566;  1.0009426E+04;  0.0000000E+00; -1.8413098E-06;  1.0000000E+04;  0.0000000E+00;  9.9825293E+03;-0.16906397;0.0;0.31779963;7035.8706
  1.0402923E+00;  9.9999998E-03;  1.2010021E-01;2662;0.15072976;0.0;0.043983243;1006.7377;  4.0286681E-01;5512.1445;3;54.32568;0.0;5.8026509;0;0.1329526;  1.0009054E+04;  0.0000000E+00; -2.4865365E-05;  1.0000000E+04;  0.0000000E+00;  9.9824365E+03;-0.15742058;0.0;0.29037318;7102.1089
  1.0403062E+00;  9.9999998E-03;  1.4011908E-01;2663;0.15663293;0.0;0.050075568;1006.7064;  4.0286678E-01;5486.5786;3;54.968395;0.0;6.3431406;0;0.11861563;  1.0008416E+04;  0.0000000E+00; -6.2598432E-05;  1.0000000E+04;  0.0000000E+00;  9.9824561E+03;-0.14137745;0.0;0.25999308;7122.1396
  1.0602472E+00;  9.9999998E-03;  2.4404199E-11;2687;0.12968965;0.0;1.1166933e-08;1005.9684;  4.0247539E-01;4861.8325;3;50.567772;0.0;7.6870929e-06;0;0.14568321;  1.0010479E+04;  0.0000000E+00;  1.3164965E-15;  1.0000000E+04;  0.0000000E+00;  9.9851592E+03;-0.20749961;0.0;0.35318282;5613.7173
  1.0602480E+00;  9.9999998E-03;  2.0014131E-02;2688;0.13020213;0.0;0.0073032328;1005.9651;  4.0247542E-01;4859.21;3;50.689091;0.0;1.4191203;0;0.14349674;  1.0010474E+04;  0.0000000E+00;  1.0100172E-06;  1.0000000E+04;  0.0000000E+00;  9.9850986E+03;-0.20682715;0.0;0.35032389;5640.8174
  1.0602508E+00;  9.9999998E-03;  4.0028352E-02;2689;0.13171074;0.0;0.014429743;1005.9558;  4.0247545E-01;4851.6323;3;51.033218;0.0;2.7138748;0;0.13727507;  1.0010455E+04;  0.0000000E+00;  4.0559944E-06;  1.0000000E+04;  0.0000000E+00;  9.9849326E+03;-0.20468393;0.0;0.341959;5716.3994
  1.0602552E+00;  9.9999998E-03;  6.0042839E-02;2690;0.13413686;0.0;0.021275222;1005.9409;  4.0247548E-01;4839.4883;3;51.55571;0.0;3.8034222;0;0.12789753;  1.0010394E+04;  0.0000000E+00;  7.7546583E-06;  1.0000000E+04;  0.0000000E+00;  9.9847002E+03;-0.2006982;0.0;0.32859573;5823.2534
  1.0602615E+00;  9.9999998E-03;  8.0057949E-02;2691;0.13741808;0.0;0.02786638;1005.9221;  4.0247548E-01;4824.1377;3;52.204407;0.0;4.6746483;0;0.11651516;  1.0010252E+04;  0.0000000E+00;  6.2196568E-06;  1.0000000E+04;  0.0000000E+00;  9.9844668E+03;-0.19427693;0.0;0.31079209;5935.6255
  1.0602700E+00;  9.9999998E-03;  1.0007390E-01;2692;0.14154914;0.0;0.034215424;1005.8992;  4.0247539E-01;4805.4829;3;52.915371;0.0;5.372364;0;0.10430391;  1.0009975E+04;  0.0000000E+00; -1.2567769E-05;  1.0000000E+04;  0.0000000E+00;  9.9842852E+03;-0.18468307;0.0;0.28898698;6028.7529
  1.0602810E+00;  9.9999998E-03;  1.2009066E-01;2693;0.14661987;0.0;0.040368676;1005.8698;  4.0247551E-01;4781.5815;3;53.690365;0.0;6.0602098;0;0.092382044;  1.0009489E+04;  0.0000000E+00; -6.0078270E-05;  1.0000000E+04;  0.0000000E+00;  9.9841865E+03;-0.17115366;0.0;0.26353571;6090.5786
  1.0602953E+00;  9.9999998E-03;  1.4010715E-01;2694;0.1528527;0.0;0.045832429;1005.8284;  4.0247548E-01;4747.771;3;54.578007;0.0;6.4933643;0;0.082463309;  1.0008707E+04;  0.0000000E+00; -2.2686715E-04;  1.0000000E+04;  0.0000000E+00;  9.9841445E+03;-0.15293755;0.0;0.23540086;6128.9082
  1.0802355E+00;  9.9999998E-03;  4.5397241E-12;2718;0.1248178;0.0;5.9551972e-09;1005.2145;  4.0213948E-01;4223.6582;3;49.311054;0.0;1.2737073e-05;0;0.10249339;  1.0010737E+04;  0.0000000E+00; -2.5911807E-15;  1.0000000E+04;  0.0000000E+00;  9.9866104E+03;-0.21616904;0.0;0.31866243;4773.2329
  1.0802363E+00;  9.9999998E-03;  2.0012740E-02;2719;0.12533331;0.0;0.0065386929;1005.2116;  4.0213931E-01;4221.2432;3;49.452721;0.0;1.3157854;0;0.10078071;  1.0010726E+04;  0.0000000E+00;  1.5828817E-06;  1.0000000E+04;  0.0000000E+00;  9.9865645E+03;-0.21538962;0.0;0.31617033;4793.0059
  1.0802389E+00;  9.9999998E-03;  4.0025633E-02;2720;0.12685078;0.0;0.012972733;1005.2028;  4.0213946E-01;4214.0938;3;49.843971;0.0;2.5359666;0;0.095895931;  1.0010676E+04;  0.0000000E+00;  5.5369692E-06;  1.0000000E+04;  0.0000000E+00;  9.9864365E+03;-0.21288626;0.0;0.30878219;4847.854
  1.0802433E+00;  9.9999998E-03;  6.0038887E-02;2721;0.12931199;0.0;0.019274559;1005.188;  4.0213937E-01;4202.2119;3;50.438969;0.0;3.6194167;0;0.088554084;  1.0010561E+04;  0.0000000E+00;  7.7182121E-06;  1.0000000E+04;  0.0000000E+00;  9.9862607E+03;-0.20817494;0.0;0.29672903;4925.2822
  1.0802497E+00;  9.9999998E-03;  8.0052674E-02;2722;0.13264385;0.0;0.02543267;1005.1675;  4.0213940E-01;4185.499;3;51.129257;0.0;4.6500802;0;0.079834729;  1.0010338E+04;  0.0000000E+00; -2.7565577E-06;  1.0000000E+04;  0.0000000E+00;  9.9860752E+03;-0.20051587;0.0;0.2803506;5008.856
  1.0802583E+00;  9.9999998E-03;  1.0006711E-01;2723;0.13692342;0.0;0.031399015;1005.1392;  4.0213934E-01;4162.6035;3;52.046017;0.0;5.3999529;0;0.071010426;  1.0009935E+04;  0.0000000E+00; -4.2639334E-05;  1.0000000E+04;  0.0000000E+00;  9.9859131E+03;-0.18907474;0.0;0.26008517;5085.7212
  1.0802696E+00;  9.9999998E-03;  1.2008189E-01;2724;0.1423085;0.0;0.036890995;1005.0993;  4.0213948E-01;4130.2427;3;52.971638;0.0;5.9530139;0;0.063420787;  1.0009280E+04;  0.0000000E+00; -1.2125866E-04;  1.0000000E+04;  0.0000000E+00;  9.9857744E+03;-0.17314993;0.0;0.23657072;5153.437
  1.0802842E+00;  9.9999998E-03;  1.4009590E-01;2725;0.14881571;0.0;0.04160329;1005.0443;  4.0213954E-01;4085.7109;3;53.950069;0.0;6.455049;0;0.058579385;  1.0008330E+04;  0.0000000E+00; -2.1898167E-03;  1.0000000E+04;  0.0000000E+00;  9.9856240E+03;-0.15264903;0.0;0.21122842;5223.2642
  1.1002237E+00;  9.9999998E-03; -7.4209033E-12;2748;0.11983014;0.0;-2.7538685e-09;1004.5678;  4.0185723E-01;3672.052;3;47.946899;0.0;2.9028452e-06;0;0.070108667;  1.0010545E+04;  0.0000000E+00;  3.0537799E-15;  1.0000000E+04;  0.0000000E+00;  9.9879639E+03;-0.21589465;0.0;0.28600332;3989.9041
  1.1002245E+00;  9.9999998E-03;  2.0011533E-02;2749;0.12034158;0.0;0.005863382;1004.5649;  4.0185744E-01;3669.7505;3;48.096004;0.0;1.2084864;0;0.068778157;  1.0010519E+04;  0.0000000E+00;  1.2413769E-06;  1.0000000E+04;  0.0000000E+00;  9.9879297E+03;-0.21492559;0.0;0.28370374;4002.9141
  1.1002271E+00;  9.9999998E-03;  4.0023278E-02;2750;0.12186398;0.0;0.011714098;1004.5558;  4.0185735E-01;3662.3674;3;48.523262;0.0;2.3684206;0;0.065049917;  1.0010424E+04;  0.0000000E+00;  2.6572557E-06;  1.0000000E+04;  0.0000000E+00;  9.9878398E+03;-0.21180722;0.0;0.27685714;4039.4341
  1.1002315E+00;  9.9999998E-03;  6.0035400E-02;2751;0.12434877;0.0;0.017532477;1004.5392;  4.0185735E-01;3649.0398;3;49.171329;0.0;3.4887006;0;0.059689179;  1.0010229E+04;  0.0000000E+00; -3.9317624E-06;  1.0000000E+04;  0.0000000E+00;  9.9877051E+03;-0.2059467;0.0;0.26563588;4093.1084
  1.1002380E+00;  9.9999998E-03;  8.0047935E-02;2752;0.12780099;0.0;0.023204923;1004.5134;  4.0185738E-01;3628.2346;3;50.026569;0.0;4.3991189;0;0.053879663;  1.0009869E+04;  0.0000000E+00; -3.4015917E-05;  1.0000000E+04;  0.0000000E+00;  9.9875498E+03;-0.19651265;0.0;0.25039232;4157.2993
  1.1002467E+00;  9.9999998E-03;  1.0006084E-01;2753;0.13231534;0.0;0.028588917;1004.475;  4.0185729E-01;3597.3638;3;51.004448;0.0;5.1755257;0;0.049021631;  1.0009289E+04;  0.0000000E+00; -1.0396432E-04;  1.0000000E+04;  0.0000000E+00;  9.9873662E+03;-0.18270946;0.0;0.23173109;4229.7529
  1.1002584E+00;  9.9999998E-03;  1.2007322E-01;2754;0.13792564;0.0;0.033276584;1004.4211;  4.0185738E-01;3554.0308;3;52.093143;0.0;5.7829027;0;0.046430603;  1.0008435E+04;  0.0000000E+00; -9.2136650E-04;  1.0000000E+04;  0.0000000E+00;  9.9871426E+03;-0.1642255;0.0;0.21065611;4315.1948
  1.1002737E+00;  9.9999998E-03;  1.4008535E-01;2755;0.14492886;0.0;0.037308298;1004.3522;  4.0185747E-01;3498.6177;3;53.251759;0.0;6.1738605;0;0.046506211;  1.0007366E+04;  0.0000000E+00; -1.4476789E-02;  1.0000000E+04;  0.0000000E+00;  9.9868340E+03;-0.14272717;0.0;0.18923338;4427.252
  1.1202124E+00;  9.9999998E-03; -1.2752193E-11;2777;0.11493566;0.0;-7.3848301e-09;1004.0196;  4.0162617E-01;3199.499;3;46.518017;0.0;6.804541e-06;0;0.048121139;  1.0009869E+04;  0.0000000E+00;  2.5283641E-15;  1.0000000E+04;  0.0000000E+00;  9.9892236E+03;-0.20649539;0.0;0.25461653;3270.8804
  1.1202133E+00;  9.9999998E-03;  2.0010509E-02;2778;0.11544812;0.0;0.0053189746;1004.0159;  4.0162620E-01;3196.5562;3;46.677204;0.0;1.1344868;0;0.047239602;  1.0009819E+04;  0.0000000E+00; -1.3535455E-06;  1.0000000E+04;  0.0000000E+00;  9.9892012E+03;-0.20520028;0.0;0.25243989;3279.2371
  1.1202159E+00;  9.9999998E-03;  4.0021211E-02;2779;0.11700103;0.0;0.010623311;1004.0041;  4.0162623E-01;3187.1575;3;47.178078;0.0;2.181026;0;0.04491663;  1.0009649E+04;  0.0000000E+00; -9.2649716E-06;  1.0000000E+04;  0.0000000E+00;  9.9891309E+03;-0.20107996;0.0;0.24599659;3303.8792
  1.1202203E+00;  9.9999998E-03;  6.0032137E-02;2780;0.11954719;0.0;0.01586603;1003.9819;  4.0162638E-01;3169.5007;3;47.868961;0.0;3.210808;0;0.042048141;  1.0009325E+04;  0.0000000E+00; -3.5104073E-05;  1.0000000E+04;  0.0000000E+00;  9.9890146E+03;-0.19351621;0.0;0.23556435;3344.3381
  1.1202270E+00;  9.9999998E-03;  8.0043361E-02;2781;0.12315098;0.0;0.020995708;1003.9463;  4.0162626E-01;3141.1179;3;48.796654;0.0;4.1464353;0;0.039919838;  1.0008787E+04;  0.0000000E+00; -9.4203147E-05;  1.0000000E+04;  0.0000000E+00;  9.9888398E+03;-0.181752;0.0;0.22167183;3402.1409
  1.1202359E+00;  9.9999998E-03;  1.0005417E-01;2782;0.1278355;0.0;0.025578761;1003.894;  4.0162629E-01;3099.447;3;49.913502;0.0;4.89744;0;0.039817452;  1.0007994E+04;  0.0000000E+00; -8.4010843E-04;  1.0000000E+04;  0.0000000E+00;  9.9885879E+03;-0.16538826;0.0;0.20520571;3482.6016
  1.1202482E+00;  9.9999998E-03;  1.2006473E-01;2783;0.13386515;0.0;0.029543299;1003.8255;  4.0162638E-01;3044.9614;3;51.181229;0.0;5.3585744;0;0.042064682;  1.0006987E+04;  0.0000000E+00; -1.0517229E-02;  1.0000000E+04;  0.0000000E+00;  9.9882305E+03;-0.14559279;0.0;0.18765748;3594.6855
  1.1202639E+00;  9.9999998E-03;  1.4007413E-01;2784;0.14122221;0.0;0.032454949;1003.7495;  4.0162626E-01;2984.3982;3;52.602409;0.0;5.7234149;0;0.045279995;  1.0005968E+04;  0.0000000E+00; -6.1406046E-02;  1.0000000E+04;  0.0000000E+00;  9.9877305E+03;-0.12600845;0.0;0.17128845;3752.1863
  1.1402022E+00;  9.9999998E-03;  4.2434723E-12;2805;0.11035617;0.0;3.6715628e-09;1003.549;  4.0144083E-01;2788.7366;3;45.070992;0.0;5.3619151e-06;0;0.037227407;  1.0008584E+04;  0.0000000E+00; -3.7704088E-15;  1.0000000E+04;  0.0000000E+00;  9.9903652E+03;-0.18731011;0.0;0.22453752;2630.1873
  1.1402030E+00;  9.9999998E-03;  2.0009534E-02;2806;0.11089506;0.0;0.0047923331;1003.5432;  4.0144074E-01;2784.1448;3;45.318699;0.0;0.98610353;0;0.036968336;  1.0008497E+04;  0.0000000E+00; -6.8922186E-06;  1.0000000E+04;  0.0000000E+00;  9.9903438E+03;-0.18555655;0.0;0.22252488;2636.8018
  1.1402056E+00;  9.9999998E-03;  4.0019099E-02;2807;0.11247404;0.0;0.0095087187;1003.5261;  4.0144080E-01;2770.7441;3;45.785561;0.0;1.9644732;0;0.03654547;  1.0008231E+04;  0.0000000E+00; -3.1582702E-05;  1.0000000E+04;  0.0000000E+00;  9.9902676E+03;-0.18009885;0.0;0.21664432;2657.7246
  1.1402103E+00;  9.9999998E-03;  6.0028806E-02;2808;0.1151014;0.0;0.014204801;1003.4947;  4.0144083E-01;2746.0994;3;46.563114;0.0;2.9733038;0;0.036873221;  1.0007743E+04;  0.0000000E+00; -1.4865608E-04;  1.0000000E+04;  0.0000000E+00;  9.9901240E+03;-0.17048152;0.0;0.20735474;2696.427
  1.1402169E+00;  9.9999998E-03;  8.0038264E-02;2809;0.11880961;0.0;0.01855362;1003.4467;  4.0144086E-01;2708.3359;3;47.595928;0.0;3.8132901;0;0.038950294;  1.0007019E+04;  0.0000000E+00; -1.6831873E-03;  1.0000000E+04;  0.0000000E+00;  9.9898867E+03;-0.15652816;0.0;0.19547845;2759.4727
  1.1402265E+00;  9.9999998E-03;  1.0004752E-01;2810;0.12383556;0.0;0.022426313;1003.382;  4.0144077E-01;2657.4536;3;48.877663;0.0;4.379889;0;0.043043241;  1.0006099E+04;  0.0000000E+00; -1.2540814E-02;  1.0000000E+04;  0.0000000E+00;  9.9895195E+03;-0.13923439;0.0;0.18227763;2855.9834
  1.1402390E+00;  9.9999998E-03;  1.2005564E-01;2811;0.13017999;0.0;0.025268069;1003.3076;  4.0144086E-01;2598.9788;3;50.371857;0.0;4.7240195;0;0.047975935;  1.0005134E+04;  0.0000000E+00; -5.8212657E-02;  1.0000000E+04;  0.0000000E+00;  9.9889980E+03;-0.12141953;0.0;0.16939546;2997.2393
  1.1402562E+00;  9.9999998E-03;  1.4006366E-01;2812;0.13808841;0.0;0.027452152;1003.2372;  4.0144092E-01;2543.5879;3;52.073246;0.0;4.9802227;0;0.051002435;  1.0004378E+04;  0.0000000E+00; -1.8795064E-01;  1.0000000E+04;  0.0000000E+00;  9.9883447E+03;-0.10737699;0.0;0.15837942;3215.0791
  1.1601931E+00;  9.9999998E-03;  6.4984840E-12;2832;0.10625273;0.0;5.5800324e-09;1003.1299;  4.0129536E-01;2418.9814;3;43.763294;0.0;9.5925279e-06;0;0.038547367;  1.0006521E+04;  0.0000000E+00; -5.6823298E-15;  1.0000000E+04;  0.0000000E+00;  9.9913203E+03;-0.15814684;0.0;0.19669421;2082.9016
  1.1601940E+00;  9.9999998E-03;  2.0008460E-02;2833;0.10681699;0.0;0.0042203721;1003.1223;  4.0129527E-01;2413.0828;3;43.970272;0.0;0.82776332;0;0.039018348;  1.0006405E+04;  0.0000000E+00; -3.6743437E-05;  1.0000000E+04;  0.0000000E+00;  9.9912832E+03;-0.15592228;0.0;0.19494063;2090.2314
  1.1601967E+00;  9.9999998E-03;  4.0016759E-02;2834;0.10840808;0.0;0.008319566;1003.0989;  4.0129530E-01;2395.1108;3;44.50666;0.0;1.7702619;0;0.040638864;  1.0006047E+04;  0.0000000E+00; -6.3960074E-04;  1.0000000E+04;  0.0000000E+00;  9.9911758E+03;-0.14929244;0.0;0.1899313;2113.821
  1.1602013E+00;  9.9999998E-03;  6.0025007E-02;2835;0.11111928;0.0;0.012303372;1003.0592;  4.0129527E-01;2364.3279;3;45.358383;0.0;2.6307974;0;0.043852821;  1.0005462E+04;  0.0000000E+00; -4.3771956E-03;  1.0000000E+04;  0.0000000E+00;  9.9909668E+03;-0.13852695;0.0;0.18237977;2158.5662
  1.1602083E+00;  9.9999998E-03;  8.0033086E-02;2836;0.11509119;0.0;0.015969027;1003.0037;  4.0129539E-01;2321.4702;3;46.541733;0.0;3.282346;0;0.048709258;  1.0004696E+04;  0.0000000E+00; -2.0439785E-02;  1.0000000E+04;  0.0000000E+00;  9.9906250E+03;-0.12472138;0.0;0.17343064;2232.5884
  1.1602182E+00;  9.9999998E-03;  1.0004023E-01;2837;0.12035506;0.0;0.018728456;1002.9376;  4.0129527E-01;2270.3159;3;48.042774;0.0;3.6489432;0;0.054282695;  1.0003868E+04;  0.0000000E+00; -7.0711635E-02;  1.0000000E+04;  0.0000000E+00;  9.9901328E+03;-0.11010747;0.0;0.16439016;2348.2451
  1.1602321E+00;  9.9999998E-03;  1.2004717E-01;2838;0.12719673;0.0;0.020828921;1002.8715;  4.0129539E-01;2219.2461;3;49.813137;0.0;3.8611705;0;0.058191739;  1.0003191E+04;  0.0000000E+00; -1.9578007E-01;  1.0000000E+04;  0.0000000E+00;  9.9894941E+03;-0.098186724;0.0;0.15637846;2536.6013
  1.1602507E+00;  9.9999998E-03;  1.4005479E-01;2839;0.13577642;0.0;0.022771094;1002.8216;  4.0129548E-01;2180.6052;3;52.121601;0.0;4.1943231;0;0.057263926;  1.0002921E+04;  0.0000000E+00; -4.4158828E-01;  1.0000000E+04;  0.0000000E+00;  9.9887676E+03;-0.092561483;0.0;0.14982541;2884.55
  1.1801853E+00;  9.9999998E-03;  2.9333356E-12;2858;0.10271551;0.0;6.0880334e-10;1002.7441;  4.0118340E-01;2076.7866;3;42.688053;0.0;1.6715785e-05;0;0.050974108;  1.0003732E+04;  0.0000000E+00;  1.9202027E-15;  1.0000000E+04;  0.0000000E+00;  9.9919863E+03;-0.12174564;0.0;0.17271975;1638.1527
  1.1801862E+00;  9.9999998E-03;  2.0007158E-02;2859;0.10325909;0.0;0.0035358246;1002.7355;  4.0118355E-01;2070.2888;3;42.863266;0.0;0.67826408;0;0.051871017;  1.0003608E+04;  0.0000000E+00; -1.0448557E-03;  1.0000000E+04;  0.0000000E+00;  9.9919346E+03;-0.11945432;0.0;0.17132534;1647.0959
  1.1801890E+00;  9.9999998E-03;  4.0014256E-02;2860;0.10494763;0.0;0.007007156;1002.7097;  4.0118358E-01;2050.7942;3;43.459164;0.0;1.4278773;0;0.054496691;  1.0003257E+04;  0.0000000E+00; -7.7365004E-03;  1.0000000E+04;  0.0000000E+00;  9.9917744E+03;-0.11299241;0.0;0.1674891;1675.3048
  1.1801938E+00;  9.9999998E-03;  6.0021065E-02;2861;0.10777164;0.0;0.010228488;1002.6695;  4.0118343E-01;2020.2887;3;44.470272;0.0;2.1297269;0;0.058549151;  1.0002736E+04;  0.0000000E+00; -3.1153634E-02;  1.0000000E+04;  0.0000000E+00;  9.9914932E+03;-0.10360141;0.0;0.16215056;1727.5697
  1.1802013E+00;  9.9999998E-03;  8.0027543E-02;2862;0.11196744;0.0;0.012885621;1002.6191;  4.0118355E-01;1982.1082;3;45.791515;0.0;2.4713516;0;0.063056715;  1.0002152E+04;  0.0000000E+00; -9.3108080E-02;  1.0000000E+04;  0.0000000E+00;  9.9910693E+03;-0.093441017;0.0;0.15649773;1816.2543
  1.1802123E+00;  9.9999998E-03;  1.0003382E-01;2863;0.11766644;0.0;0.014936558;1002.567;  4.0118355E-01;1942.6575;3;47.496548;0.0;2.6640458;0;0.066089921;  1.0001682E+04;  0.0000000E+00; -2.2626412E-01;  1.0000000E+04;  0.0000000E+00;  9.9905029E+03;-0.085343026;0.0;0.15143295;1975.1525
  1.1802275E+00;  9.9999998E-03;  1.2004048E-01;2864;0.12503673;0.0;0.016795712;1002.5264;  4.0118361E-01;1911.9493;3;49.817741;0.0;2.9996591;0;0.064802237;  1.0001538E+04;  0.0000000E+00; -4.6731842E-01;  1.0000000E+04;  0.0000000E+00;  9.9898311E+03;-0.082435064;0.0;0.1472373;2280.4917
  1.1802487E+00;  9.9999998E-03;  1.4004925E-01;2865;0.13442062;0.0;0.018966237;1002.5076;  4.0118363E-01;1897.7383;3;52.82832;0.0;3.3821919;0;0.057534523;  1.0001874E+04;  0.0000000E+00; -8.3074147E-01;  1.0000000E+04;  0.0000000E+00;  9.9891250E+03;-0.08608564;0.0;0.14362016;2825.5173
  1.2001787E+00;  9.9999998E-03;  2.0622707E-12;2882;0.099722072;0.0;7.766138e-09;1002.3924;  4.0109935E-01;1763.9882;3;41.925274;0.0;1.7563747e-05;0;0.069755055;  1.0000606E+04;  0.0000000E+00; -5.9241823E-16;  1.0000000E+04;  0.0000000E+00;  9.9922852E+03;-0.084654041;0.0;0.1544091;1293.1071
  1.2001797E+00;  9.9999998E-03;  2.0005923E-02;2883;0.10030527;0.0;0.0028616043;1002.385;  4.0109938E-01;1758.5363;3;42.235058;0.0;0.48472425;0;0.070409141;  1.0000523E+04;  0.0000000E+00; -6.0631218E-03;  1.0000000E+04;  0.0000000E+00;  9.9922256E+03;-0.082972057;0.0;0.1533812;1302.8956
  1.2001827E+00;  9.9999998E-03;  4.0011786E-02;2884;0.1020416;0.0;0.005562339;1002.3641;  4.0109941E-01;1743.0592;3;42.859066;0.0;0.93729222;0;0.072097003;  1.0000296E+04;  0.0000000E+00; -3.2558177E-02;  1.0000000E+04;  0.0000000E+00;  9.9920332E+03;-0.078586251;0.0;0.15068325;1333.9666
  1.2001882E+00;  9.9999998E-03;  6.0017642E-02;2885;0.10514901;0.0;0.0079811253;1002.3346;  4.0109950E-01;1721.3354;3;43.974815;0.0;1.246501;0;0.073945709;  1.0000024E+04;  0.0000000E+00; -1.0241594E-01;  1.0000000E+04;  0.0000000E+00;  9.9917139E+03;-0.073359825;0.0;0.14730553;1395.8927
  1.2001966E+00;  9.9999998E-03;  8.0023475E-02;2886;0.10970628;0.0;0.0099067511;1002.304;  4.0109935E-01;1698.7256;3;45.590473;0.0;1.4132975;0;0.074132502;  9.9998535E+03;  0.0000000E+00; -2.4653271E-01;  1.0000000E+04;  0.0000000E+00;  9.9912734E+03;-0.070020869;0.0;0.14415337;1521.9716
  1.2002090E+00;  9.9999998E-03;  1.0002963E-01;2887;0.11583726;0.0;0.011681828;1002.2823;  4.0109941E-01;1682.6987;3;47.772064;0.0;1.8004339;0;0.07028053;  9.9999629E+03;  0.0000000E+00; -4.9200293E-01;  1.0000000E+04;  0.0000000E+00;  9.9907324E+03;-0.07133133;0.0;0.14161186;1780.3711
  1.2002273E+00;  9.9999998E-03;  1.2003800E-01;2888;0.12400433;0.0;0.013983096;1002.2759;  4.0109938E-01;1677.9086;3;50.709999;0.0;2.2257936;0;0.061787769;  1.0000457E+04;  0.0000000E+00; -8.4708017E-01;  1.0000000E+04;  0.0000000E+00;  9.9901113E+03;-0.078075245;0.0;0.13986301;2240.3054
  1.2002542E+00;  9.9999998E-03;  1.4005020E-01;2889;0.13487057;0.0;0.017178381;1002.2709;  4.0109941E-01;1674.152;3;54.452751;0.0;2.6668181;0;0.054199539;  1.0001094E+04;  0.0000000E+00; -1.2886724E+00;  1.0000000E+04;  0.0000000E+00;  9.9893809E+03;-0.085305892;0.0;0.13950543;2900.8579
  1.2201743E+00;  9.9999998E-03;  4.2100562E-13;2905;0.097307846;0.0;4.5460005e-09;1002.0906;  4.0103737E-01;1493.3956;3;41.663544;0.0;1.7435537e-05;0;0.087908946;  9.9977383E+03;  0.0000000E+00;  2.5299811E-15;  1.0000000E+04;  0.0000000E+00;  9.9922217E+03;-0.05489435;0.0;0.1428033;1034.2162
  1.2201755E+00;  9.9999998E-03;  2.0005364E-02;2906;0.097976439;0.0;0.0023184533;1002.0872;  4.0103745E-01;1490.8383;3;41.991383;0.0;0.17079975;0;0.087595403;  9.9977314E+03;  0.0000000E+00; -1.6422907E-02;  1.0000000E+04;  0.0000000E+00;  9.9921611E+03;-0.054384526;0.0;0.14197993;1044.0126
  1.2201790E+00;  9.9999998E-03;  4.0010713E-02;2907;0.099996567;0.0;0.0043867431;1002.0786;  4.0103745E-01;1484.6982;3;42.892097;0.0;0.27564409;0;0.086282909;  9.9977471E+03;  0.0000000E+00; -7.7697977E-02;  1.0000000E+04;  0.0000000E+00;  9.9919775E+03;-0.053588536;0.0;0.13987145;1077.8636
  1.2201854E+00;  9.9999998E-03;  6.0016215E-02;2908;0.10343786;0.0;0.0060544545;1002.0713;  4.0103740E-01;1479.4877;3;44.405807;0.0;0.20231338;0;0.082645573;  9.9978867E+03;  0.0000000E+00; -2.1286123E-01;  1.0000000E+04;  0.0000000E+00;  9.9916875E+03;-0.054612108;0.0;0.13725768;1159.0469
  1.2201959E+00;  9.9999998E-03;  8.0022715E-02;2909;0.10848581;0.0;0.0077670729;1002.0712;  4.0103742E-01;1479.4606;3;46.120529;0.0;0.47279727;0;0.075168759;  9.9982686E+03;  0.0000000E+00; -4.5055947E-01;  1.0000000E+04;  0.0000000E+00;  9.9913086E+03;-0.059761804;0.0;0.13493057;1346.1528
  1.2202125E+00;  9.9999998E-03;  1.0003152E-01;2910;0.11558151;0.0;0.010287624;1002.0778;  4.0103748E-01;1484.1012;3;48.7178;0.0;1.0660548;0;0.064998731;  9.9988916E+03;  0.0000000E+00; -7.9885238E-01;  1.0000000E+04;  0.0000000E+00;  9.9908184E+03;-0.069069192;0.0;0.13406792;1703.8365
  1.2202376E+00;  9.9999998E-03;  1.2004380E-01;2911;0.12561736;0.0;0.014012642;1002.0676;  4.0103742E-01;1476.7996;3;52.55331;0.0;1.7259903;0;0.061757296;  9.9993750E+03;  0.0000000E+00; -1.2377899E+00;  1.0000000E+04;  0.0000000E+00;  9.9901387E+03;-0.07474716;0.0;0.13650446;2236.3599
  1.2202705E+00;  9.9999998E-03;  1.4005816E-01;2912;0.13814178;0.0;0.018155696;1002.0118;  4.0103734E-01;1436.7856;3;58.28352;0.0;2.5190463;0;0.075730525;  9.9991650E+03;  0.0000000E+00; -1.6870581E+00;  1.0000000E+04;  0.0000000E+00;  9.9892363E+03;-0.066526689;0.0;0.14225721;2832.3481
  1.2401748E+00;  9.9999998E-03; -8.3480168E-13;2926;0.096017048;0.0;8.1602094e-09;1001.8658;  4.0099269E-01;1283.6727;3;42.511566;0.0;3.1110016e-05;0;0.097467512;  9.9958398E+03;  0.0000000E+00;  2.0130257E-15;  1.0000000E+04;  0.0000000E+00;  9.9918652E+03;-0.040116888;0.0;0.1375844;849.62292
  1.2401763E+00;  9.9999998E-03;  2.0006076E-02;2927;0.096782394;0.0;0.0021298816;1001.8674;  4.0099266E-01;1284.8173;3;42.975506;0.0;-0.12276962;0;0.09583649;  9.9959268E+03;  0.0000000E+00; -2.8034309E-02;  1.0000000E+04;  0.0000000E+00;  9.9918105E+03;-0.040908713;0.0;0.1367452;859.4317
  1.2401812E+00;  9.9999998E-03;  4.0012553E-02;2928;0.099187396;0.0;0.0038557847;1001.8718;  4.0099260E-01;1287.8391;3;44.003433;0.0;-0.61355233;0;0.090995312;  9.9961748E+03;  0.0000000E+00; -1.2499522E-01;  1.0000000E+04;  0.0000000E+00;  9.9916543E+03;-0.043465387;0.0;0.1344607;896.39148
  1.2401910E+00;  9.9999998E-03;  6.0020223E-02;2929;0.10346717;0.0;0.0057508731;1001.8785;  4.0099260E-01;1292.4069;3;45.619953;0.0;-0.65785801;0;0.083480865;  9.9965586E+03;  0.0000000E+00; -3.1953925E-01;  1.0000000E+04;  0.0000000E+00;  9.9914072E+03;-0.04826786;0.0;0.13174872;994.35779
  1.2402073E+00;  9.9999998E-03;  8.0030091E-02;2930;0.11000007;0.0;0.0086920736;1001.8758;  4.0099269E-01;1290.4777;3;47.610603;0.0;0.10092127;0;0.077969536;  9.9968867E+03;  0.0000000E+00; -6.3602871E-01;  1.0000000E+04;  0.0000000E+00;  9.9910244E+03;-0.053081989;0.0;0.13105153;1217.2336
  1.2402309E+00;  9.9999998E-03;  1.0004172E-01;2931;0.11885901;0.0;0.012496494;1001.8442;  4.0099272E-01;1268.7661;3;51.308514;0.0;0.90563828;0;0.081571586;  9.9968311E+03;  0.0000000E+00; -1.0586687E+00;  1.0000000E+04;  0.0000000E+00;  9.9904580E+03;-0.053110309;0.0;0.1346819;1592.9681
  1.2402588E+00;  9.9999998E-03;  1.2005405E-01;2932;0.12957631;0.0;0.016128791;1001.7778;  4.0099272E-01;1223.0182;3;56.972939;0.0;1.6875174;0;0.099556223;  9.9962539E+03;  0.0000000E+00; -1.4756234E+00;  1.0000000E+04;  0.0000000E+00;  9.9897090E+03;-0.041573118;0.0;0.14112934;2016.2129
  1.2402869E+00;  9.9999998E-03;  1.4006600E-01;2933;0.14052914;0.0;0.018894412;1001.6947;  4.0099275E-01;1165.7126;3;64.057411;0.0;2.5442524;0;0.12523472;  9.9954209E+03;  0.0000000E+00; -1.6337770E+00;  1.0000000E+04;  0.0000000E+00;  9.9888867E+03;-0.020131014;0.0;0.14536573;2212.6394
  1.2601978E+00;  9.9999998E-03; -5.8757014E-13;2944;0.097826473;0.0;6.6791199e-09;1001.6093;  4.0096104E-01;1060.7185;3;42.235123;0.0;2.8525479e-05;0;0.11161028;  9.9928350E+03;  0.0000000E+00; -8.6685970E-15;  1.0000000E+04;  0.0000000E+00;  9.9913369E+03;-0.025538523;0.0;0.1371488;660.89911
  1.2601998E+00;  9.9999998E-03;  2.0008424E-02;2945;0.098837525;0.0;0.0032401886;1001.6091;  4.0096104E-01;1060.5565;3;43.082893;0.0;0.14300634;0;0.11077657;  9.9928877E+03;  0.0000000E+00; -3.5015915E-02;  1.0000000E+04;  0.0000000E+00;  9.9912842E+03;-0.025799233;0.0;0.1365758;668.69281
  1.2602062E+00;  9.9999998E-03;  4.0017746E-02;2946;0.10207648;0.0;0.006136613;1001.6057;  4.0096113E-01;1058.2627;3;45.038685;0.0;-0.33063072;0;0.11126953;  9.9929756E+03;  0.0000000E+00; -1.5343834E-01;  1.0000000E+04;  0.0000000E+00;  9.9911221E+03;-0.024023267;0.0;0.1352928;701.0697
  1.2602175E+00;  9.9999998E-03;  6.0028374E-02;2947;0.10728027;0.0;0.0090733664;1001.5917;  4.0096110E-01;1049.043;3;47.308331;0.0;-0.13039041;0;0.1149594;  9.9929902E+03;  0.0000000E+00; -3.7992916E-01;  1.0000000E+04;  0.0000000E+00;  9.9908330E+03;-0.019872867;0.0;0.13483226;793.92218
  1.2602332E+00;  9.9999998E-03;  8.0039740E-02;2948;0.11382473;0.0;0.011855148;1001.5651;  4.0096101E-01;1031.4857;3;50.83778;0.0;0.099971712;0;0.11891709;  9.9929102E+03;  0.0000000E+00; -7.0283121E-01;  1.0000000E+04;  0.0000000E+00;  9.9903867E+03;-0.017542157;0.0;0.13645925;986.62695
  1.2602512E+00;  9.9999998E-03;  1.0005069E-01;2949;0.12150021;0.0;0.014181048;1001.5359;  4.0096113E-01;1012.1959;3;55.994942;0.0;0.65603411;0;0.12610041;  9.9928857E+03;  0.0000000E+00; -1.0032465E+00;  1.0000000E+04;  0.0000000E+00;  9.9898291E+03;-0.012572631;0.0;0.13867304;1214.8065
  1.2602704E+00;  9.9999998E-03;  1.2006026E-01;2950;0.12979066;0.0;0.015777398;1001.515;  4.0096107E-01;998.40393;3;62.558014;0.0;1.2683563;0;0.13226895;  9.9929854E+03;  0.0000000E+00; -1.0462408E+00;  1.0000000E+04;  0.0000000E+00;  9.9893086E+03;-0.0050334739;0.0;0.13730243;1283.8271
  1.2602894E+00;  9.9999998E-03;  1.4006896E-01;2951;0.13838908;0.0;0.017530473;1001.511;  4.0096104E-01;995.69012;3;70.636513;0.0;2.5447154;0;0.14284147;  9.9933164E+03;  0.0000000E+00; -5.8641028E-01;  1.0000000E+04;  0.0000000E+00;  9.9888994E+03;0.0090389363;0.0;0.13380253;1069.127
  1.2802233E+00;  9.9999998E-03;  4.6771905E-12;2959;0.10042287;0.0;8.4027985e-09;1001.2738;  4.0093914E-01;800.72906;3;43.398109;0.0;3.1048316e-05;0;0.14822967;  9.9878223E+03;  0.0000000E+00;  8.1565444E-15;  1.0000000E+04;  0.0000000E+00;  9.9907568E+03;0.0090400167;0.0;0.13918966;426.12979
  1.2802242E+00;  9.9999998E-03;  2.0009408E-02;2960;0.10092924;0.0;0.0035689438;1001.2857;  4.0093908E-01;808.22119;3;44.102386;0.0;0.82006979;0;0.14210214;  9.9881006E+03;  0.0000000E+00; -2.4551779E-02;  1.0000000E+04;  0.0000000E+00;  9.9907129E+03;0.0034454865;0.0;0.13865665;438.0437
  1.2802271E+00;  9.9999998E-03;  4.0020254E-02;2961;0.10298184;0.0;0.0069501838;1001.3184;  4.0093914E-01;828.82361;3;47.152737;0.0;0.42955101;0;0.13104804;  9.9889141E+03;  0.0000000E+00; -1.0361432E-01;  1.0000000E+04;  0.0000000E+00;  9.9905576E+03;-0.0068047373;0.0;0.13785277;479.45383
  1.2802325E+00;  9.9999998E-03;  6.0032569E-02;2962;0.10708709;0.0;0.0095163016;1001.36;  4.0093914E-01;854.89093;3;51.422306;0.0;-0.3985379;0;0.12701268;  9.9900586E+03;  0.0000000E+00; -2.3127083E-01;  1.0000000E+04;  0.0000000E+00;  9.9902383E+03;-0.0099407025;0.0;0.13695338;559.07062
  1.2802411E+00;  9.9999998E-03;  8.0044463E-02;2963;0.11252359;0.0;0.011195515;1001.4004;  4.0093899E-01;880.27649;3;55.926487;0.0;-0.48821497;0;0.12396773;  9.9913252E+03;  0.0000000E+00; -3.3214241E-01;  1.0000000E+04;  0.0000000E+00;  9.9897764E+03;-0.010196069;0.0;0.1341638;655.73553
  1.2802531E+00;  9.9999998E-03;  1.0005452E-01;2964;0.11913137;0.0;0.012784745;1001.4291;  4.0093914E-01;898.30981;3;61.947639;0.0;0.18603039;0;0.12379287;  9.9923418E+03;  0.0000000E+00; -2.3813035E-01;  1.0000000E+04;  0.0000000E+00;  9.9893340E+03;-0.0062483554;0.0;0.13004123;702.70886
  1.2802651E+00;  9.9999998E-03;  1.2006155E-01;2965;0.12567337;0.0;0.013805233;1001.5026;  4.0093917E-01;944.5163;3;68.794914;0.0;1.1103077;0;0.10974111;  9.9939063E+03;  0.0000000E+00;  2.0815443E-01;  1.0000000E+04;  0.0000000E+00;  9.9892383E+03;-0.010444273;0.0;0.12018538;752.71643
  1.3002201E+00;  9.9999998E-03;  2.4644969E-12;2970;0.095858693;0.0;6.6951857e-09;1001.3691;  4.0092418E-01;818.68927;3;48.243374;0.0;2.6901296e-05;0;0.08346349;  9.9910010E+03;  0.0000000E+00;  5.4845764E-15;  1.0000000E+04;  0.0000000E+00;  9.9902188E+03;-0.058398798;0.0;0.14186229;429.86584
  1.3002206E+00;  9.9999998E-03;  2.0010203E-02;2971;0.096638061;0.0;0.0032465239;1001.3872;  4.0092412E-01;829.52325;3;49.896248;0.0;-0.032858308;0;0.081060678;  9.9913984E+03;  0.0000000E+00;  5.0272830E-03;  1.0000000E+04;  0.0000000E+00;  9.9901816E+03;-0.059999201;0.0;0.14105988;444.87656
  1.3002225E+00;  9.9999998E-03;  4.0021826E-02;2972;0.099258654;0.0;0.005849211;1001.432;  4.0092418E-01;856.32166;3;53.329403;0.0;-0.82894194;0;0.08204516;  9.9924531E+03;  0.0000000E+00;  3.4287728E-02;  1.0000000E+04;  0.0000000E+00;  9.9900234E+03;-0.056365989;0.0;0.13841115;489.11307
  1.3002266E+00;  9.9999998E-03;  6.0034614E-02;2973;0.10347318;0.0;0.0078366436;1001.4811;  4.0092412E-01;885.68109;3;57.355404;0.0;-1.2128912;0;0.085934043;  9.9937861E+03;  0.0000000E+00;  1.3743851E-01;  1.0000000E+04;  0.0000000E+00;  9.9896709E+03;-0.047466729;0.0;0.13340077;561.66467
  1.3002332E+00;  9.9999998E-03;  8.0046408E-02;2974;0.10844249;0.0;0.0095243873;1001.5231;  4.0092403E-01;910.68567;3;61.84206;0.0;-0.78378457;0;0.08267498;  9.9951221E+03;  0.0000000E+00;  3.9550212E-01;  1.0000000E+04;  0.0000000E+00;  9.9891680E+03;-0.043400768;0.0;0.12607574;671.36493
 -1.4455100E-06;  9.9999998E-03;  1.6000012E-01;1053;-0.0012941498;0.0;0.00010612614;1000.0316;  4.0000001E-01;26.172096;3;-1.0739703;0.0;0.08824487;0;-0.025078811;  1.0000657E+04;  0.0000000E+00; -2.5275555E-09;  1.0000000E+04;  0.0000000E+00;  9.9999766E+03;-0.026064379;0.0;0.00098556769;13.251334
 -1.4061195E-06;  9.9999998E-03;  1.8000016E-01;1054;-0.001260396;0.0;0.00013850431;1000.0306;  4.0000001E-01;25.381994;3;-1.0466719;0.0;0.11523691;0;-0.024315894;  1.0000635E+04;  0.0000000E+00; -1.9956674E-09;  1.0000000E+04;  0.0000000E+00;  9.9999746E+03;-0.02533856;0.0;0.0010226665;13.535983
 -1.3465648E-06;  9.9999998E-03;  2.0000020E-01;1055;-0.0012079341;0.0;0.00017355193;1000.0292;  4.0000001E-01;24.196842;3;-1.0052221;0.0;0.14453071;0;-0.023260145;  1.0000607E+04;  0.0000000E+00;  2.1935072E-09;  1.0000000E+04;  0.0000000E+00;  9.9999785E+03;-0.024192549;0.0;0.00093240512;12.400744
 -1.2610278E-06;  9.9999998E-03;  2.2000024E-01;1056;-0.0011313346;0.0;0.00021048894;1000.0275;  4.0000001E-01;22.814167;3;-0.94711566;0.0;0.17623088;0;-0.021845909;  1.0000566E+04;  0.0000000E+00;  5.6038321E-09;  1.0000000E+04;  0.0000000E+00;  9.9999844E+03;-0.022503445;0.0;0.00065753696;9.1899643
 -1.1459506E-06;  9.9999998E-03;  2.4000028E-01;1057;-0.0010272051;0.0;0.00024427849;1000.0251;  4.0000001E-01;20.838913;3;-0.87109685;0.0;0.20750773;0;-0.019995561;  1.0000508E+04;  0.0000000E+00;  1.3292714E-09;  1.0000000E+04;  0.0000000E+00;  9.9999961E+03;-0.02017558;0.0;0.00018001828;3.6801355
 -9.9790634E-07;  9.9999998E-03;  2.6000029E-01;1058;-0.00089317048;0.0;0.00027076562;1000.0221;  4.0000001E-01;18.271086;3;-0.77523184;0.0;0.23553085;0;-0.017645443;  1.0000435E+04;  0.0000000E+00; -1.6812791E-08;  1.0000000E+04;  0.0000000E+00;  1.0000011E+04;-0.017199207;0.0;-0.00044623576;3.539113
 -8.2231162E-07;  9.9999998E-03;  2.8000033E-01;1059;-0.00073425379;0.0;0.00028142496;1000.0186;  4.0000001E-01;15.406969;3;-0.65923166;0.0;0.25357497;0;-0.014787834;  1.0000345E+04;  0.0000000E+00; -5.7168482E-08;  1.0000000E+04;  0.0000000E+00;  1.0000027E+04;-0.013716104;0.0;-0.001071731;10.804325
  1.9997921E-02;  9.9999998E-03;  1.6000018E-01;1083;-0.001846196;0.0;0.00014324553;1000.0381;  4.0000001E-01;31.60404;3;-1.4000013;0.0;0.10854711;0;-0.029849676;  1.0000798E+04;  0.0000000E+00;  3.1417033E-09;  1.0000000E+04;  0.0000000E+00;  9.9999668E+03;-0.031160841;0.0;0.0013111643;17.65218
  1.9997971E-02;  9.9999998E-03;  1.8000022E-01;1084;-0.0018030544;0.0;0.00018542337;1000.0369;  4.0000001E-01;30.616413;3;-1.3682599;0.0;0.14039104;0;-0.029026903;  1.0000775E+04;  0.0000000E+00;  7.7399438E-09;  1.0000000E+04;  0.0000000E+00;  9.9999668E+03;-0.030391548;0.0;0.0013646453;18.109421
  1.9998053E-02;  9.9999998E-03;  2.0000027E-01;1085;-0.0017318091;0.0;0.00023199685;1000.0355;  4.0000001E-01;29.431261;3;-1.3175364;0.0;0.17591608;0;-0.027874634;  1.0000744E+04;  0.0000000E+00;  1.6384735E-08;  1.0000000E+04;  0.0000000E+00;  9.9999688E+03;-0.029128417;0.0;0.0012537845;16.699936
  1.9998174E-02;  9.9999998E-03;  2.2000031E-01;1086;-0.0016244346;0.0;0.00027852188;1000.0336;  4.0000001E-01;27.851061;3;-1.2453754;0.0;0.21241808;0;-0.026310997;  1.0000694E+04;  0.0000000E+00;  3.0271540E-08;  1.0000000E+04;  0.0000000E+00;  9.9999785E+03;-0.027214069;0.0;0.00090307184;12.537366
  1.9998342E-02;  9.9999998E-03;  2.4000037E-01;1087;-0.0014734473;0.0;0.00031766525;1000.0309;  4.0000001E-01;25.579519;3;-1.1490734;0.0;0.24641776;0;-0.024234325;  1.0000625E+04;  0.0000000E+00;  3.6172441E-08;  1.0000000E+04;  0.0000000E+00;  9.9999932E+03;-0.024520185;0.0;0.00028586073;5.2868052
  1.9998565E-02;  9.9999998E-03;  2.6000038E-01;1088;-0.0012723713;0.0;0.00034368178;1000.0275;  4.0000001E-01;22.814167;3;-1.022934;0.0;0.27499813;0;-0.021556554;  1.0000537E+04;  0.0000000E+00;  1.7573473E-08;  1.0000000E+04;  0.0000000E+00;  1.0000014E+04;-0.021022154;0.0;-0.00053440122;4.3418794
  1.9998843E-02;  9.9999998E-03;  2.8000039E-01;1089;-0.0010230073;0.0;0.0003478117;1000.0234;  4.0000001E-01;19.357473;3;-0.85988593;0.0;0.29111779;0;-0.018255332;  1.0000432E+04;  0.0000000E+00; -2.4646331E-08;  1.0000000E+04;  0.0000000E+00;  1.0000034E+04;-0.016881492;0.0;-0.00137384;14.251427
  1.9999167E-02;  9.9999998E-03;  3.0000043E-01;1090;-0.00073071336;0.0;0.00037225097;1000.0184;  4.0000001E-01;15.308207;3;-0.6473484;0.0;0.33211899;0;-0.014433044;  1.0000318E+04;  0.0000000E+00; -7.4622598E-08;  1.0000000E+04;  0.0000000E+00;  1.0000051E+04;-0.012486029;0.0;-0.0019470146;21.223074
  3.9997097E-02;  9.9999998E-03;  1.6000021E-01;1114;-0.002554086;0.0;0.00016768102;1000.0444;  4.0000001E-01;36.739697;3;-1.7948554;0.0;0.11651871;0;-0.03413517;  1.0000932E+04;  0.0000000E+00;  5.6346088E-09;  1.0000000E+04;  0.0000000E+00;  9.9999600E+03;-0.035730518;0.0;0.0015953474;21.850471
  3.9997160E-02;  9.9999998E-03;  1.8000026E-01;1115;-0.0025009189;0.0;0.00021543966;1000.0433;  4.0000001E-01;35.949596;3;-1.7585125;0.0;0.14917058;0;-0.033318669;  1.0000913E+04;  0.0000000E+00;  1.3301269E-08;  1.0000000E+04;  0.0000000E+00;  9.9999580E+03;-0.034986708;0.0;0.0016680416;22.53462
  3.9997268E-02;  9.9999998E-03;  2.0000032E-01;1116;-0.002408758;0.0;0.00026741857;1000.0418;  4.0000001E-01;34.66568;3;-1.698257;0.0;0.18492554;0;-0.032140903;  1.0000877E+04;  0.0000000E+00;  2.4315797E-08;  1.0000000E+04;  0.0000000E+00;  9.9999609E+03;-0.03368865;0.0;0.0015477448;20.963926
  3.9997432E-02;  9.9999998E-03;  2.2000037E-01;1117;-0.0022644233;0.0;0.00031915691;1000.0397;  4.0000001E-01;32.887955;3;-1.6106162;0.0;0.22179186;0;-0.030498201;  1.0000825E+04;  0.0000000E+00;  3.9541796E-08;  1.0000000E+04;  0.0000000E+00;  9.9999717E+03;-0.031638823;0.0;0.0011406217;16.002575
  3.9997663E-02;  9.9999998E-03;  2.4000043E-01;1118;-0.0020572499;0.0;0.0003601567;1000.0369;  4.0000001E-01;30.517651;3;-1.4933999;0.0;0.25471973;0;-0.028256489;  1.0000746E+04;  0.0000000E+00;  4.1465228E-08;  1.0000000E+04;  0.0000000E+00;  9.9999902E+03;-0.028665192;0.0;0.00040870352;7.1656556
  3.9997980E-02;  9.9999998E-03;  2.6000047E-01;1119;-0.0017766583;0.0;0.00038944866;1000.033;  4.0000001E-01;27.258484;3;-1.3380697;0.0;0.28556514;0;-0.025292682;  1.0000644E+04;  0.0000000E+00;  1.6845766E-08;  1.0000000E+04;  0.0000000E+00;  1.0000016E+04;-0.024712238;0.0;-0.00058044249;4.766221
  3.9998367E-02;  9.9999998E-03;  2.8000048E-01;1120;-0.0014294717;0.0;0.00039937126;1000.0281;  4.0000001E-01;23.30798;3;-1.1359534;0.0;0.3103199;0;-0.021562634;  1.0000520E+04;  0.0000000E+00; -4.1302048E-08;  1.0000000E+04;  0.0000000E+00;  1.0000043E+04;-0.019944757;0.0;-0.0016178761;17.326008
  3.9998822E-02;  9.9999998E-03;  3.0000049E-01;1121;-0.0010237829;0.0;0.00041516701;1000.0225;  4.0000001E-01;18.567373;3;-0.86751151;0.0;0.34922338;0;-0.017193394;  1.0000387E+04;  0.0000000E+00; -8.9797169E-08;  1.0000000E+04;  0.0000000E+00;  1.0000063E+04;-0.01481474;0.0;-0.0023786533;26.723175
  5.9996124E-02;  9.9999998E-03;  1.6000022E-01;1145;-0.0033709214;0.0;0.0001801912;1000.0514;  4.0000001E-01;42.566692;3;-2.2370462;0.0;0.1160259;0;-0.038522322;  1.0001080E+04;  0.0000000E+00;  7.5740143E-09;  1.0000000E+04;  0.0000000E+00;  9.9999512E+03;-0.040337667;0.0;0.0018153446;25.713402
  5.9996203E-02;  9.9999998E-03;  1.8000029E-01;1146;-0.0033093251;0.0;0.00023110918;1000.0504;  4.0000001E-01;41.677826;3;-2.196799;0.0;0.14775518;0;-0.037763782;  1.0001059E+04;  0.0000000E+00;  1.0947803E-08;  1.0000000E+04;  0.0000000E+00;  9.9999502E+03;-0.039673928;0.0;0.001910148;26.685051
  5.9996333E-02;  9.9999998E-03;  2.0000035E-01;1147;-0.0031968462;0.0;0.00028720757;1000.0488;  4.0000001E-01;40.492676;3;-2.1273868;0.0;0.18285082;0;-0.036606751;  1.0001025E+04;  0.0000000E+00;  1.4550454E-08;  1.0000000E+04;  0.0000000E+00;  9.9999512E+03;-0.038401835;0.0;0.0017950827;25.10306
  5.9996542E-02;  9.9999998E-03;  2.2000042E-01;1148;-0.0030152837;0.0;0.00034271445;1000.0466;  4.0000001E-01;38.616184;3;-2.0252626;0.0;0.21872681;0;-0.034918811;  1.0000969E+04;  0.0000000E+00;  9.1738395E-09;  1.0000000E+04;  0.0000000E+00;  9.9999648E+03;-0.036276352;0.0;0.0013575391;19.555849
  5.9996843E-02;  9.9999998E-03;  2.4000047E-01;1149;-0.002748976;0.0;0.00038696636;1000.0434;  4.0000001E-01;35.949596;3;-1.8883225;0.0;0.25145727;0;-0.032524541;  1.0000881E+04;  0.0000000E+00; -1.5666446E-08;  1.0000000E+04;  0.0000000E+00;  9.9999863E+03;-0.033068545;0.0;0.00054400507;9.3513107
  5.9997257E-02;  9.9999998E-03;  2.6000053E-01;1150;-0.0023847758;0.0;0.00041831058;1000.0391;  4.0000001E-01;32.394142;3;-1.7074502;0.0;0.2825346;0;-0.02925797;  1.0000763E+04;  0.0000000E+00; -7.3418072E-08;  1.0000000E+04;  0.0000000E+00;  1.0000017E+04;-0.02867692;0.0;-0.00058104994;4.7277679
  5.9997771E-02;  9.9999998E-03;  2.8000054E-01;1151;-0.0019297019;0.0;0.00042903889;1000.0336;  4.0000001E-01;27.851061;3;-1.4685888;0.0;0.30950522;0;-0.025054228;  1.0000619E+04;  0.0000000E+00; -1.1351883E-06;  1.0000000E+04;  0.0000000E+00;  1.0000049E+04;-0.023263121;0.0;-0.0017911058;19.884447
  5.9998386E-02;  9.9999998E-03;  3.0000055E-01;1152;-0.0013886982;0.0;0.00045014513;1000.0268;  4.0000001E-01;22.22159;3;-1.137444;0.0;0.35730481;0;-0.020069668;  1.0000462E+04;  0.0000000E+00; -3.9870665E-06;  1.0000000E+04;  0.0000000E+00;  1.0000076E+04;-0.017351443;0.0;-0.0027182254;31.654745
  7.9995006E-02;  9.9999998E-03;  1.6000023E-01;1176;-0.0042813811;0.0;0.00018310279;1000.0595;  4.0000001E-01;49.282551;3;-2.7306259;0.0;0.10988032;0;-0.04354855;  1.0001245E+04;  0.0000000E+00;  4.9548028E-09;  1.0000000E+04;  0.0000000E+00;  9.9999453E+03;-0.045522407;0.0;0.0019738546;29.373255
  7.9995096E-02;  9.9999998E-03;  1.8000031E-01;1177;-0.0042146551;0.0;0.00023587403;1000.0586;  4.0000001E-01;48.591209;3;-2.6878529;0.0;0.14034024;0;-0.042889584;  1.0001230E+04;  0.0000000E+00;  7.7406714E-10;  1.0000000E+04;  0.0000000E+00;  9.9999404E+03;-0.04498161;0.0;0.0020920252;30.683323
  7.9995245E-02;  9.9999998E-03;  2.0000038E-01;1178;-0.0040854779;0.0;0.00029412628;1000.057;  4.0000001E-01;47.208534;3;-2.6109233;0.0;0.17359436;0;-0.041784838;  1.0001196E+04;  0.0000000E+00; -2.0957135E-08;  1.0000000E+04;  0.0000000E+00;  9.9999463E+03;-0.043779787;0.0;0.0019949502;29.223938
  7.9995498E-02;  9.9999998E-03;  2.2000045E-01;1179;-0.003869667;0.0;0.00035251331;1000.0549;  4.0000001E-01;45.430805;3;-2.4960382;0.0;0.20798615;0;-0.040064819;  1.0001137E+04;  0.0000000E+00; -7.6224104E-08;  1.0000000E+04;  0.0000000E+00;  9.9999580E+03;-0.041615851;0.0;0.0015510324;23.280069
  7.9995871E-02;  9.9999998E-03;  2.4000052E-01;1180;-0.0035452913;0.0;0.00039958119;1000.0513;  4.0000001E-01;42.46793;3;-2.3407307;0.0;0.24003452;0;-0.037504893;  1.0001043E+04;  0.0000000E+00; -8.7985645E-06;  1.0000000E+04;  0.0000000E+00;  9.9999824E+03;-0.038192526;0.0;0.00068763096;11.898172
  7.9996392E-02;  9.9999998E-03;  2.6000056E-01;1181;-0.0030946373;0.0;0.00043357859;1000.0463;  4.0000001E-01;38.319897;3;-2.1362064;0.0;0.27067626;0;-0.033904053;  1.0000910E+04;  0.0000000E+00; -8.0667931E-05;  1.0000000E+04;  0.0000000E+00;  1.0000016E+04;-0.033363398;0.0;-0.00054065487;4.2218528
  7.9997048E-02;  9.9999998E-03;  2.8000057E-01;1182;-0.0025214243;0.0;0.00044848677;1000.04;  4.0000001E-01;33.184242;3;-1.8591219;0.0;0.30111933;0;-0.029177986;  1.0000747E+04;  0.0000000E+00; -2.3282570E-04;  1.0000000E+04;  0.0000000E+00;  1.0000055E+04;-0.02728078;0.0;-0.0018972075;21.96328
  7.9997852E-02;  9.9999998E-03;  3.0000061E-01;1183;-0.0018256654;0.0;0.00048680379;1000.0324;  4.0000001E-01;26.863434;3;-1.4577138;0.0;0.36617923;0;-0.02349266;  1.0000560E+04;  0.0000000E+00; -4.1583160E-04;  1.0000000E+04;  0.0000000E+00;  1.0000085E+04;-0.020520687;0.0;-0.0029719723;36.152569
  9.9993728E-02;  9.9999998E-03;  1.6000025E-01;1207;-0.0052949274;0.0;0.00018029363;1000.0696;  4.0000001E-01;57.677372;3;-3.2846124;0.0;0.1010495;0;-0.04959508;  1.0001453E+04;  0.0000000E+00;  1.1583888E-09;  1.0000000E+04;  0.0000000E+00;  9.9999404E+03;-0.051690951;0.0;0.0020958707;33.200001
  9.9993810E-02;  9.9999998E-03;  1.8000032E-01;1208;-0.0052274629;0.0;0.00023397581;1000.0687;  4.0000001E-01;56.986034;3;-3.2413392;0.0;0.12974641;0;-0.049077868;  1.0001443E+04;  0.0000000E+00; -1.7798778E-08;  1.0000000E+04;  0.0000000E+00;  9.9999355E+03;-0.051312204;0.0;0.0022343355;34.869431
  9.9993981E-02;  9.9999998E-03;  2.0000041E-01;1209;-0.0050864988;0.0;0.00029221637;1000.0673;  4.0000001E-01;55.800884;3;-3.1593471;0.0;0.15996039;0;-0.04805949;  1.0001411E+04;  0.0000000E+00; -8.2160867E-08;  1.0000000E+04;  0.0000000E+00;  9.9999385E+03;-0.050220378;0.0;0.0021608865;33.606548
  9.9994272E-02;  9.9999998E-03;  2.2000048E-01;1210;-0.0048406501;0.0;0.00035197911;1000.0649;  4.0000001E-01;53.82563;3;-3.0339684;0.0;0.19195965;0;-0.046333432;  1.0001346E+04;  0.0000000E+00; -3.3632772E-05;  1.0000000E+04;  0.0000000E+00;  9.9999521E+03;-0.048060663;0.0;0.0017272318;27.389887
  9.9994719E-02;  9.9999998E-03;  2.4000055E-01;1211;-0.0044610719;0.0;0.00040013209;1000.0612;  4.0000001E-01;50.665226;3;-2.8631661;0.0;0.2215569;0;-0.04366304;  1.0001249E+04;  0.0000000E+00; -3.0314346E-04;  1.0000000E+04;  0.0000000E+00;  9.9999775E+03;-0.044502337;0.0;0.00083929754;15.036382
  9.9995352E-02;  9.9999998E-03;  2.6000059E-01;1212;-0.0039221696;0.0;0.00043821725;1000.056;  4.0000001E-01;46.418434;3;-2.6365485;0.0;0.25199986;0;-0.039825417;  1.0001104E+04;  0.0000000E+00; -1.1033142E-03;  1.0000000E+04;  0.0000000E+00;  1.0000016E+04;-0.039357442;0.0;-0.00046797434;6.4147673
  9.9996172E-02;  9.9999998E-03;  2.8000063E-01;1213;-0.0032220006;0.0;0.00046303324;1000.0488;  4.0000001E-01;40.492676;3;-2.3205268;0.0;0.28908634;0;-0.034672413;  1.0000914E+04;  0.0000000E+00; -2.3953172E-03;  1.0000000E+04;  0.0000000E+00;  1.0000061E+04;-0.032714695;0.0;-0.0019577192;26.532465
  9.9997193E-02;  9.9999998E-03;  3.0000070E-01;1214;-0.0023505697;0.0;0.00053259265;1000.0397;  4.0000001E-01;32.887955;3;-1.8405533;0.0;0.381567;0;-0.028285025;  1.0000701E+04;  0.0000000E+00; -3.7847143E-03;  1.0000000E+04;  0.0000000E+00;  1.0000095E+04;-0.025112787;0.0;-0.0031722377;44.653088
  1.1999223E-01;  9.9999998E-03;  1.6000026E-01;1238;-0.0064381524;0.0;0.00017857064;1000.0819;  4.0000001E-01;67.849922;3;-3.9063723;0.0;0.093675144;0;-0.056851961;  1.0001707E+04;  0.0000000E+00; -5.8846199E-09;  1.0000000E+04;  0.0000000E+00;  9.9999297E+03;-0.05907657;0.0;0.0022246109;37.780109
  1.1999232E-01;  9.9999998E-03;  1.8000035E-01;1239;-0.0063753864;0.0;0.00023178929;1000.0813;  4.0000001E-01;67.35611;3;-3.8652916;0.0;0.11941449;0;-0.056526106;  1.0001698E+04;  0.0000000E+00; -4.8680825E-08;  1.0000000E+04;  0.0000000E+00;  9.9999268E+03;-0.058903031;0.0;0.0023769254;39.831104
  1.1999250E-01;  9.9999998E-03;  2.0000042E-01;1240;-0.0062279799;0.0;0.00028803066;1000.0801;  4.0000001E-01;66.368484;3;-3.7812147;0.0;0.1451571;0;-0.055653051;  1.0001669E+04;  0.0000000E+00; -2.6930593E-05;  1.0000000E+04;  0.0000000E+00;  9.9999277E+03;-0.057981577;0.0;0.0023285244;38.84259
  1.1999283E-01;  9.9999998E-03;  2.2000051E-01;1241;-0.0059565953;0.0;0.00034718838;1000.0775;  4.0000001E-01;64.195709;3;-3.648757;0.0;0.17298409;0;-0.0540458;  1.0001611E+04;  0.0000000E+00; -3.8769579E-04;  1.0000000E+04;  0.0000000E+00;  9.9999424E+03;-0.055964246;0.0;0.0019184455;32.558929
  1.1999334E-01;  9.9999998E-03;  2.4000058E-01;1242;-0.0055253869;0.0;0.00039410143;1000.0739;  4.0000001E-01;61.232826;3;-3.4675634;0.0;0.19799733;0;-0.051515758;  1.0001508E+04;  0.0000000E+00; -1.9524531E-03;  1.0000000E+04;  0.0000000E+00;  9.9999707E+03;-0.052536801;0.0;0.001021043;21.505199
  1.1999409E-01;  9.9999998E-03;  2.6000065E-01;1243;-0.0048958636;0.0;0.00043960407;1000.069;  4.0000001E-01;57.183559;3;-3.2208791;0.0;0.23072171;0;-0.047820088;  1.0001361E+04;  0.0000000E+00; -5.6360969E-03;  1.0000000E+04;  0.0000000E+00;  1.0000013E+04;-0.047456451;0.0;-0.0003636356;28.659819
  1.1999509E-01;  9.9999998E-03;  2.8000069E-01;1244;-0.0040603406;0.0;0.00048214197;1000.0613;  4.0000001E-01;50.763988;3;-2.8678243;0.0;0.27979136;0;-0.042658307;  1.0001164E+04;  0.0000000E+00; -1.1224680E-02;  1.0000000E+04;  0.0000000E+00;  1.0000063E+04;-0.040654898;0.0;-0.002003409;62.205021
  1.1999636E-01;  9.9999998E-03;  3.0000082E-01;1245;-0.0029905171;0.0;0.00059796643;1000.0515;  4.0000001E-01;42.665455;3;-2.3019619;0.0;0.41217184;0;-0.035741072;  1.0000924E+04;  0.0000000E+00; -1.6403522E-02;  1.0000000E+04;  0.0000000E+00;  1.0000106E+04;-0.032373875;0.0;-0.0033671972;94.485809
  1.3999048E-01;  9.9999998E-03;  1.6000029E-01;1269;-0.0077447169;0.0;0.00018615539;1000.0966;  4.0000001E-01;79.997726;3;-4.6015487;0.0;0.092951238;0;-0.065350957;  1.0002013E+04;  0.0000000E+00; -8.4665635E-09;  1.0000000E+04;  0.0000000E+00;  9.9999189E+03;-0.067774102;0.0;0.0024231472;43.974003
  1.3999055E-01;  9.9999998E-03;  1.8000038E-01;1270;-0.007692825;0.0;0.00023837519;1000.0964;  4.0000001E-01;79.800201;3;-4.5654659;0.0;0.11497521;0;-0.065269679;  1.0002013E+04;  0.0000000E+00; -4.5564766E-06;  1.0000000E+04;  0.0000000E+00;  9.9999150E+03;-0.067859747;0.0;0.0025900654;46.588375
  1.3999073E-01;  9.9999998E-03;  2.0000046E-01;1271;-0.0075448509;0.0;0.00029209038;1000.0952;  4.0000001E-01;78.812576;3;-4.4825702;0.0;0.13545054;0;-0.064656787;  1.0001988E+04;  0.0000000E+00; -2.0939056E-04;  1.0000000E+04;  0.0000000E+00;  9.9999150E+03;-0.06723576;0.0;0.0025789717;46.199604
  1.3999109E-01;  9.9999998E-03;  2.2000055E-01;1272;-0.0072528515;0.0;0.00034977667;1000.0933;  4.0000001E-01;77.331131;3;-4.3464789;0.0;0.15904689;0;-0.063432552;  1.0001938E+04;  0.0000000E+00; -1.6799062E-03;  1.0000000E+04;  0.0000000E+00;  9.9999287E+03;-0.065640226;0.0;0.0022076762;40.922211
  1.3999169E-01;  9.9999998E-03;  2.4000062E-01;1273;-0.0067721042;0.0;0.00039494925;1000.0905;  4.0000001E-01;74.960831;3;-4.1597128;0.0;0.17841351;0;-0.061542079;  1.0001851E+04;  0.0000000E+00; -6.8205642E-03;  1.0000000E+04;  0.0000000E+00;  9.9999600E+03;-0.062838264;0.0;0.0012961851;43.129417
  1.3999256E-01;  9.9999998E-03;  2.6000071E-01;1274;-0.0060488805;0.0;0.00045300281;1000.0863;  4.0000001E-01;71.504143;3;-3.8983321;0.0;0.2168653;0;-0.058758669;  1.0001720E+04;  0.0000000E+00; -1.8069528E-02;  1.0000000E+04;  0.0000000E+00;  1.0000010E+04;-0.058552444;0.0;-0.00020622637;92.039337
  1.3999374E-01;  9.9999998E-03;  2.8000081E-01;1275;-0.0050721555;0.0;0.00051972998;1000.0801;  4.0000001E-01;66.368484;3;-3.515938;0.0;0.282727;0;-0.054498438;  1.0001533E+04;  0.0000000E+00; -3.4672290E-02;  1.0000000E+04;  0.0000000E+00;  1.0000070E+04;-0.052432191;0.0;-0.0020662472;178.30724
  1.3999531E-01;  9.9999998E-03;  3.0000100E-01;1276;-0.0037831035;0.0;0.00069688435;1000.07;  4.0000001E-01;57.97366;3;-2.8634887;0.0;0.46771955;0;-0.04760823;  1.0001280E+04;  0.0000000E+00; -4.9355023E-02;  1.0000000E+04;  0.0000000E+00;  1.0000120E+04;-0.044001833;0.0;-0.0036063991;255.81015
  1.5998840E-01;  9.9999998E-03;  1.6000035E-01;1300;-0.0092456667;0.0;0.00021427081;1000.114;  4.0000001E-01;94.417068;3;-5.3749728;0.0;0.10637672;0;-0.075052992;  1.0002373E+04;  0.0000000E+00; -9.9842890E-09;  1.0000000E+04;  0.0000000E+00;  9.9999033E+03;-0.077837884;0.0;0.0027848927;53.08152
  1.5998846E-01;  9.9999998E-03;  1.8000044E-01;1301;-0.0092115263;0.0;0.00026687921;1000.1138;  4.0000001E-01;94.219543;3;-5.3468366;0.0;0.12449252;0;-0.075270846;  1.0002381E+04;  0.0000000E+00; -3.9369588E-05;  1.0000000E+04;  0.0000000E+00;  9.9998965E+03;-0.078262202;0.0;0.0029913555;56.860973
  1.5998864E-01;  9.9999998E-03;  2.0000052E-01;1302;-0.0090695405;0.0;0.00032092998;1000.1135;  4.0000001E-01;94.022018;3;-5.2681222;0.0;0.14127;0;-0.075062893;  1.0002373E+04;  0.0000000E+00; -7.1355252E-04;  1.0000000E+04;  0.0000000E+00;  9.9998926E+03;-0.078117453;0.0;0.0030545583;57.951324
  1.5998903E-01;  9.9999998E-03;  2.2000062E-01;1303;-0.0087624248;0.0;0.00037788201;1000.1124;  4.0000001E-01;93.133156;3;-5.133925;0.0;0.15923631;0;-0.07456018;  1.0002344E+04;  0.0000000E+00; -4.4920924E-03;  1.0000000E+04;  0.0000000E+00;  9.9999033E+03;-0.077304453;0.0;0.0027442758;57.229496
  1.5998968E-01;  9.9999998E-03;  2.4000071E-01;1304;-0.0082334513;0.0;0.00042380404;1000.1114;  4.0000001E-01;92.244293;3;-4.9456611;0.0;0.17550695;0;-0.073967069;  1.0002286E+04;  0.0000000E+00; -1.6563009E-02;  1.0000000E+04;  0.0000000E+00;  9.9999385E+03;-0.075757116;0.0;0.0017900493;92.223335
  1.5999068E-01;  9.9999998E-03;  2.6000080E-01;1305;-0.007418904;0.0;0.00049039844;1000.1098;  4.0000001E-01;90.960373;3;-4.6780567;0.0;0.22037005;0;-0.073191009;  1.0002200E+04;  0.0000000E+00; -4.2537302E-02;  1.0000000E+04;  0.0000000E+00;  9.9999980E+03;-0.073259592;0.0;6.8585854e-05;217.34998
  1.5999208E-01;  9.9999998E-03;  2.8000093E-01;1306;-0.0062960992;0.0;0.00058345433;1000.1069;  4.0000001E-01;88.590073;3;-4.2792406;0.0;0.30194569;0;-0.071309239;  1.0002060E+04;  0.0000000E+00; -8.1243187E-02;  1.0000000E+04;  0.0000000E+00;  1.0000073E+04;-0.069144487;0.0;-0.0021647513;415.29126
  1.5999395E-01;  9.9999998E-03;  3.0000120E-01;1307;-0.0047865841;0.0;0.00081583677;1000.0981;  4.0000001E-01;81.281639;3;-3.5609059;0.0;0.53365231;0;-0.065719448;  1.0001828E+04;  0.0000000E+00; -1.1657451E-01;  1.0000000E+04;  0.0000000E+00;  1.0000136E+04;-0.0617624;0.0;-0.0039570499;596.86469
  1.7998596E-01;  9.9999998E-03;  1.6000044E-01;1331;-0.010967034;0.0;0.00027757819;1000.1339;  4.0000001E-01;110.91042;3;-6.2309933;0.0;0.14358729;0;-0.085945569;  1.0002799E+04;  0.0000000E+00; -3.5660707E-07;  1.0000000E+04;  0.0000000E+00;  9.9998770E+03;-0.089386173;0.0;0.0034406062;66.963417
  1.7998599E-01;  9.9999998E-03;  1.8000054E-01;1332;-0.010958004;0.0;0.00033523352;1000.1343;  4.0000001E-01;111.30548;3;-6.2133369;0.0;0.1602802;0;-0.086493418;  1.0002822E+04;  0.0000000E+00; -1.1698691E-04;  1.0000000E+04;  0.0000000E+00;  9.9998643E+03;-0.090242304;0.0;0.0037488891;73.152939
  1.7998615E-01;  9.9999998E-03;  2.0000064E-01;1333;-0.010830495;0.0;0.00039289275;1000.1344;  4.0000001E-01;111.30548;3;-6.143187;0.0;0.17387614;0;-0.0867927;  1.0002830E+04;  0.0000000E+00; -1.5337094E-03;  1.0000000E+04;  0.0000000E+00;  9.9998564E+03;-0.090748727;0.0;0.0039560287;77.337341
  1.7998655E-01;  9.9999998E-03;  2.2000076E-01;1334;-0.010517597;0.0;0.0004479101;1000.1347;  4.0000001E-01;111.60177;3;-6.0164185;0.0;0.18608844;0;-0.087260678;  1.0002832E+04;  0.0000000E+00; -8.6279819E-03;  1.0000000E+04;  0.0000000E+00;  9.9998643E+03;-0.091009676;0.0;0.0037489946;85.667282
  1.7998727E-01;  9.9999998E-03;  2.4000086E-01;1335;-0.0099405171;0.0;0.00049846026;1000.136;  4.0000001E-01;112.68816;3;-5.8292685;0.0;0.20156527;0;-0.088493407;  1.0002821E+04;  0.0000000E+00; -3.0544242E-02;  1.0000000E+04;  0.0000000E+00;  9.9998994E+03;-0.091209903;0.0;0.0027164929;166.27805
  1.7998841E-01;  9.9999998E-03;  2.6000097E-01;1336;-0.0090390788;0.0;0.00056090596;1000.1389;  4.0000001E-01;115.05846;3;-5.5719175;0.0;0.23962212;0;-0.090749979;  1.0002805E+04;  0.0000000E+00; -7.8129441E-02;  1.0000000E+04;  0.0000000E+00;  9.9999766E+03;-0.091349915;0.0;0.00059993565;400.61023
  1.7999001E-01;  9.9999998E-03;  2.8000110E-01;1337;-0.0077802865;0.0;0.00066015415;1000.1414;  4.0000001E-01;117.13247;3;-5.1795926;0.0;0.32427263;0;-0.092944011;  1.0002753E+04;  0.0000000E+00; -1.5139805E-01;  1.0000000E+04;  0.0000000E+00;  1.0000076E+04;-0.090625569;0.0;-0.0023184395;775.10223
  1.7999215E-01;  9.9999998E-03;  3.0000138E-01;1338;-0.0060988441;0.0;0.00088171609;1000.1378;  4.0000001E-01;114.16959;3;-4.4633102;0.0;0.5424242;0;-0.090853617;  1.0002589E+04;  0.0000000E+00; -2.2213548E-01;  1.0000000E+04;  0.0000000E+00;  1.0000166E+04;-0.086136177;0.0;-0.0047174357;1137.7827
  1.9998308E-01;  9.9999998E-03;  1.6000059E-01;1362;-0.012936207;0.0;0.00039028982;1000.1569;  4.0000001E-01;129.97162;3;-7.1742997;0.0;0.21375768;0;-0.098025337;  1.0003304E+04;  0.0000000E+00; -1.4851593E-06;  1.0000000E+04;  0.0000000E+00;  9.9998359E+03;-0.10257135;0.0;0.0045460071;87.908997
  1.9998305E-01;  9.9999998E-03;  1.8000072E-01;1363;-0.012959522;0.0;0.00046128471;1000.1578;  4.0000001E-01;130.76172;3;-7.1689067;0.0;0.23299931;0;-0.098879077;  1.0003344E+04;  0.0000000E+00; -2.0245300E-04;  1.0000000E+04;  0.0000000E+00;  9.9998145E+03;-0.10393702;0.0;0.0050579449;98.466476
  1.9998319E-01;  9.9999998E-03;  2.0000085E-01;1364;-0.012856719;0.0;0.0005260859;1000.1584;  4.0000001E-01;131.25552;3;-7.1111722;0.0;0.24501893;0;-0.099664152;  1.0003372E+04;  0.0000000E+00; -2.3460712E-03;  1.0000000E+04;  0.0000000E+00;  9.9997930E+03;-0.10518305;0.0;0.0055188951;107.94338
  1.9998360E-01;  9.9999998E-03;  2.2000098E-01;1365;-0.012544934;0.0;0.00058558042;1000.1598;  4.0000001E-01;132.34192;3;-6.9967461;0.0;0.25175983;0;-0.10108227;  1.0003405E+04;  0.0000000E+00; -1.2610343E-02;  1.0000000E+04;  0.0000000E+00;  9.9997920E+03;-0.10658564;0.0;0.0055033802;125.57231
  1.9998437E-01;  9.9999998E-03;  2.4000108E-01;1366;-0.011936259;0.0;0.00062149682;1000.1639;  4.0000001E-01;135.79861;3;-6.8287468;0.0;0.25268352;0;-0.10419416;  1.0003446E+04;  0.0000000E+00; -4.4161152E-02;  1.0000000E+04;  0.0000000E+00;  9.9998359E+03;-0.10856865;0.0;0.0043744948;243.91119
  1.9998564E-01;  9.9999998E-03;  2.6000118E-01;1367;-0.010960437;0.0;0.00066172454;1000.1716;  4.0000001E-01;142.11942;3;-6.5987253;0.0;0.27264786;0;-0.10982282;  1.0003504E+04;  0.0000000E+00; -1.1400736E-01;  1.0000000E+04;  0.0000000E+00;  9.9999297E+03;-0.11141732;0.0;0.0015945022;587.28394
  1.9998740E-01;  9.9999998E-03;  2.8000131E-01;1368;-0.0096002277;0.0;0.00073597668;1000.1815;  4.0000001E-01;150.31671;3;-6.2576437;0.0;0.3389864;0;-0.11705916;  1.0003555E+04;  0.0000000E+00; -2.2516765E-01;  1.0000000E+04;  0.0000000E+00;  1.0000077E+04;-0.11445051;0.0;-0.0026086494;1156.2776
  1.9998977E-01;  9.9999998E-03;  3.0000150E-01;1369;-0.0078148777;0.0;0.00088324241;1000.1854;  4.0000001E-01;153.57588;3;-5.6377802;0.0;0.47910118;0;-0.12055771;  1.0003490E+04;  0.0000000E+00; -3.3611849E-01;  1.0000000E+04;  0.0000000E+00;  1.0000216E+04;-0.11403731;0.0;-0.0065204049;1727.292
  2.1997967E-01;  9.9999998E-03;  1.6000080E-01;1393;-0.015185112;0.0;0.00056275964;1000.1832;  4.0000001E-01;151.79816;3;-8.210741;0.0;0.32295504;0;-0.1112859;  1.0003891E+04;  0.0000000E+00; -1.6318990E-06;  1.0000000E+04;  0.0000000E+00;  9.9997734E+03;-0.11753234;0.0;0.0062464494;118.20406
  2.1997960E-01;  9.9999998E-03;  1.8000098E-01;1394;-0.015247645;0.0;0.00065914087;1000.1843;  4.0000001E-01;152.68701;3;-8.2184687;0.0;0.35075787;0;-0.11236012;  1.0003947E+04;  0.0000000E+00; -2.2802975E-04;  1.0000000E+04;  0.0000000E+00;  9.9997402E+03;-0.11945096;0.0;0.007090847;135.65085
  2.1997970E-01;  9.9999998E-03;  2.0000115E-01;1395;-0.015179371;0.0;0.0007379179;1000.1853;  4.0000001E-01;153.47711;3;-8.1762533;0.0;0.36352062;0;-0.11346375;  1.0004003E+04;  0.0000000E+00; -2.6495289E-03;  1.0000000E+04;  0.0000000E+00;  9.9997031E+03;-0.12141416;0.0;0.0079504093;152.99997
  2.1998009E-01;  9.9999998E-03;  2.2000131E-01;1396;-0.014886065;0.0;0.00080256967;1000.1876;  4.0000001E-01;155.35361;3;-8.0848656;0.0;0.36233413;0;-0.11549083;  1.0004065E+04;  0.0000000E+00; -1.4275512E-02;  1.0000000E+04;  0.0000000E+00;  9.9996855E+03;-0.12376416;0.0;0.0082733305;175.78078
  2.1998090E-01;  9.9999998E-03;  2.4000143E-01;1397;-0.014266635;0.0;0.00083260465;1000.1932;  4.0000001E-01;160.09421;3;-7.9503598;0.0;0.3553921;0;-0.11988807;  1.0004143E+04;  0.0000000E+00; -5.0492879E-02;  1.0000000E+04;  0.0000000E+00;  9.9997236E+03;-0.12701592;0.0;0.0071278503;296.90442
  2.1998225E-01;  9.9999998E-03;  2.6000157E-01;1398;-0.013230005;0.0;0.000883853;1000.2046;  4.0000001E-01;169.47667;3;-7.7715855;0.0;0.37234545;0;-0.12799752;  1.0004245E+04;  0.0000000E+00; -1.3259096E-01;  1.0000000E+04;  0.0000000E+00;  9.9998447E+03;-0.13157272;0.0;0.0035752025;688.97736
  2.1998419E-01;  9.9999998E-03;  2.8000179E-01;1399;-0.011789783;0.0;0.001000113;1000.2199;  4.0000001E-01;182.21704;3;-7.5230803;0.0;0.45663261;0;-0.13902608;  1.0004356E+04;  0.0000000E+00; -2.6662728E-01;  1.0000000E+04;  0.0000000E+00;  1.0000039E+04;-0.13683893;0.0;-0.0021871515;1374.121
  2.1998690E-01;  9.9999998E-03;  3.0000234E-01;1400;-0.0098016812;0.0;0.0013286467;1000.2267;  4.0000001E-01;187.84651;3;-6.9580097;0.0;0.70611763;0;-0.144904;  1.0004333E+04;  0.0000000E+00; -4.0607330E-01;  1.0000000E+04;  0.0000000E+00;  1.0000195E+04;-0.13833719;0.0;-0.006566802;2094.2009
  2.3997568E-01;  9.9999998E-03;  1.6000110E-01;1424;-0.017749805;0.0;0.00080403429;1000.213;  4.0000001E-01;176.48882;3;-9.3469896;0.0;0.47632623;0;-0.12576216;  1.0004573E+04;  0.0000000E+00; -4.5048253E-07;  1.0000000E+04;  0.0000000E+00;  9.9996924E+03;-0.13439643;0.0;0.0086342627;159.58572
  2.3997554E-01;  9.9999998E-03;  1.8000133E-01;1425;-0.017860744;0.0;0.00093625626;1000.2142;  4.0000001E-01;177.47644;3;-9.3689718;0.0;0.51594073;0;-0.12693977;  1.0004653E+04;  0.0000000E+00; -1.6537655E-04;  1.0000000E+04;  0.0000000E+00;  9.9996299E+03;-0.1368753;0.0;0.009935528;186.60619
  2.3997557E-01;  9.9999998E-03;  2.0000158E-01;1426;-0.017836226;0.0;0.0010572489;1000.2151;  4.0000001E-01;178.26654;3;-9.3437357;0.0;0.54365849;0;-0.12811852;  1.0004734E+04;  0.0000000E+00; -2.1956479E-03;  1.0000000E+04;  0.0000000E+00;  9.9995732E+03;-0.13945931;0.0;0.011340796;214.73712
  2.3997591E-01;  9.9999998E-03;  2.2000183E-01;1427;-0.017581834;0.0;0.0011649671;1000.2174;  4.0000001E-01;180.14302;3;-9.2852573;0.0;0.55640203;0;-0.13021448;  1.0004816E+04;  0.0000000E+00; -1.2467634E-02;  1.0000000E+04;  0.0000000E+00;  9.9995342E+03;-0.14242803;0.0;0.012213537;241.56944
  2.3997670E-01;  9.9999998E-03;  2.4000208E-01;1428;-0.016984733;0.0;0.0012702453;1000.2234;  4.0000001E-01;185.08116;3;-9.2082739;0.0;0.58601153;0;-0.13476487;  1.0004911E+04;  0.0000000E+00; -4.5517217E-02;  1.0000000E+04;  0.0000000E+00;  9.9995557E+03;-0.14620389;0.0;0.011439024;324.92963
  2.3997813E-01;  9.9999998E-03;  2.6000252E-01;1429;-0.015920097;0.0;0.0015221169;1000.2344;  4.0000001E-01;194.16731;3;-9.1108751;0.0;0.72074485;0;-0.14285502;  1.0005026E+04;  0.0000000E+00; -1.2285712E-01;  1.0000000E+04;  0.0000000E+00;  9.9996641E+03;-0.15107694;0.0;0.0082219271;658.87262
  2.3998018E-01;  9.9999998E-03;  2.8000334E-01;1430;-0.014428082;0.0;0.0020491916;1000.2474;  4.0000001E-01;205.0312;3;-8.986537;0.0;1.0843153;0;-0.15204024;  1.0005134E+04;  0.0000000E+00; -2.5337851E-01;  1.0000000E+04;  0.0000000E+00;  9.9998135E+03;-0.15638906;0.0;0.0043488173;1315.0563
  2.3998313E-01;  9.9999998E-03;  3.0000490E-01;1431;-0.012304785;0.0;0.0030678029;1000.2435;  4.0000001E-01;201.77203;3;-8.5321493;0.0;1.8350277;0;-0.15082566;  1.0005100E+04;  0.0000000E+00; -3.9779288E-01;  1.0000000E+04;  0.0000000E+00;  9.9997744E+03;-0.15774795;0.0;0.006922286;2061.1558
  2.5997099E-01;  9.9999998E-03;  1.6000147E-01;1455;-0.020672187;0.0;0.0011177794;1000.2471;  4.0000001E-01;204.73491;3;-10.591493;0.0;0.67460561;0;-0.14155914;  1.0005362E+04;  0.0000000E+00;  7.9973459E-09;  1.0000000E+04;  0.0000000E+00;  9.9995811E+03;-0.1532795;0.0;0.011720365;212.84798
  2.5997075E-01;  9.9999998E-03;  1.8000183E-01;1456;-0.020841541;0.0;0.0013107315;1000.2484;  4.0000001E-01;205.72253;3;-10.628242;0.0;0.73850715;0;-0.14273985;  1.0005467E+04;  0.0000000E+00; -6.7630863E-05;  1.0000000E+04;  0.0000000E+00;  9.9994980E+03;-0.1562968;0.0;0.013556951;251.74712
  2.5997069E-01;  9.9999998E-03;  2.0000219E-01;1457;-0.020874692;0.0;0.0015159079;1000.249;  4.0000001E-01;206.21634;3;-10.623324;0.0;0.80505651;0;-0.14379436;  1.0005571E+04;  0.0000000E+00; -1.2720551E-03;  1.0000000E+04;  0.0000000E+00;  9.9994082E+03;-0.15939125;0.0;0.015596893;293.28473
  2.5997096E-01;  9.9999998E-03;  2.2000264E-01;1458;-0.020684848;0.0;0.0017333989;1000.2503;  4.0000001E-01;207.40149;3;-10.608139;0.0;0.8637194;0;-0.14546911;  1.0005673E+04;  0.0000000E+00; -8.1916591E-03;  1.0000000E+04;  0.0000000E+00;  9.9993369E+03;-0.16269645;0.0;0.017227337;329.6073
  2.5997165E-01;  9.9999998E-03;  2.4000314E-01;1459;-0.020159569;0.0;0.0020016592;1000.2544;  4.0000001E-01;210.75943;3;-10.620138;0.0;0.97861385;0;-0.14901933;  1.0005771E+04;  0.0000000E+00; -3.1837687E-02;  1.0000000E+04;  0.0000000E+00;  9.9993213E+03;-0.16644357;0.0;0.017424248;373.6283
  2.5997302E-01;  9.9999998E-03;  2.6000401E-01;1460;-0.019170005;0.0;0.0025288332;1000.2621;  4.0000001E-01;217.179;3;-10.676952;0.0;1.2785649;0;-0.15469655;  1.0005872E+04;  0.0000000E+00; -8.9468770E-02;  1.0000000E+04;  0.0000000E+00;  9.9993711E+03;-0.17076014;0.0;0.016063582;559.20544
  2.5997505E-01;  9.9999998E-03;  2.8000554E-01;1461;-0.017703973;0.0;0.0034894631;1000.2667;  4.0000001E-01;220.93198;3;-10.747791;0.0;1.9111094;0;-0.1581412;  1.0005950E+04;  0.0000000E+00; -1.8955770E-01;  1.0000000E+04;  0.0000000E+00;  9.9993818E+03;-0.17506078;0.0;0.016919587;1031.1383
  2.5997797E-01;  9.9999998E-03;  3.0000767E-01;1462;-0.015642835;0.0;0.0047778101;1000.2527;  4.0000001E-01;209.37674;3;-10.581421;0.0;2.8464813;0;-0.15123335;  1.0005905E+04;  0.0000000E+00; -3.0170810E-01;  1.0000000E+04;  0.0000000E+00;  9.9991494E+03;-0.17627718;0.0;0.025043838;1620.0641
  2.7996549E-01;  9.9999998E-03;  1.6000195E-01;1486;-0.023997081;0.0;0.0015085103;1000.2861;  4.0000001E-01;237.03027;3;-11.951761;0.0;0.9199149;0;-0.15885675;  1.0006273E+04;  0.0000000E+00; -2.7053997E-09;  1.0000000E+04;  0.0000000E+00;  9.9994473E+03;-0.17429419;0.0;0.015437439;277.81644
  2.7996513E-01;  9.9999998E-03;  1.8000244E-01;1487;-0.024236495;0.0;0.0017873334;1000.287;  4.0000001E-01;237.72162;3;-12.002894;0.0;1.0194104;0;-0.15998799;  1.0006406E+04;  0.0000000E+00; -8.8588658E-06;  1.0000000E+04;  0.0000000E+00;  9.9993350E+03;-0.17780119;0.0;0.017813213;330.14743
  2.7996495E-01;  9.9999998E-03;  2.0000300E-01;1488;-0.024343206;0.0;0.0021039771;1000.2874;  4.0000001E-01;238.0179;3;-12.021662;0.0;1.1303091;0;-0.16084999;  1.0006529E+04;  0.0000000E+00; -4.5209230E-04;  1.0000000E+04;  0.0000000E+00;  9.9992148E+03;-0.18130952;0.0;0.020459533;386.38925
  2.7996510E-01;  9.9999998E-03;  2.2000366E-01;1489;-0.024235444;0.0;0.0024671522;1000.2878;  4.0000001E-01;238.51172;3;-12.052813;0.0;1.2600499;0;-0.16192231;  1.0006647E+04;  0.0000000E+00; -3.8046464E-03;  1.0000000E+04;  0.0000000E+00;  9.9991064E+03;-0.18479204;0.0;0.022869738;437.43457
  2.7996564E-01;  9.9999998E-03;  2.4000451E-01;1490;-0.02381549;0.0;0.0029354838;1000.2894;  4.0000001E-01;239.79564;3;-12.17456;0.0;1.4620509;0;-0.1639653;  1.0006750E+04;  0.0000000E+00; -1.6669411E-02;  1.0000000E+04;  0.0000000E+00;  9.9990420E+03;-0.18829224;0.0;0.024326935;475.70609
  2.7996686E-01;  9.9999998E-03;  2.6000577E-01;1491;-0.022954641;0.0;0.0036765407;1000.2927;  4.0000001E-01;242.56099;3;-12.425004;0.0;1.8773066;0;-0.16659896;  1.0006836E+04;  0.0000000E+00; -4.9977925E-02;  1.0000000E+04;  0.0000000E+00;  9.9990186E+03;-0.19181636;0.0;0.025217401;544.51727
  2.7996877E-01;  9.9999998E-03;  2.8000775E-01;1492;-0.02161118;0.0;0.0048083654;1000.2896;  4.0000001E-01;239.89439;3;-12.782895;0.0;2.5944555;0;-0.16551657;  1.0006889E+04;  0.0000000E+00; -1.0954142E-01;  1.0000000E+04;  0.0000000E+00;  9.9989053E+03;-0.19498551;0.0;0.029468942;778.15204
  2.7997151E-01;  9.9999998E-03;  3.0001003E-01;1493;-0.019717442;0.0;0.0060412544;1000.2728;  4.0000001E-01;226.06763;3;-13.022386;0.0;3.5108633;0;-0.15803739;  1.0006847E+04;  0.0000000E+00; -1.7629150E-01;  1.0000000E+04;  0.0000000E+00;  9.9986113E+03;-0.19613126;0.0;0.038093865;1133.618
  2.9995906E-01;  9.9999998E-03;  1.6000250E-01;1517;-0.027770806;0.0;0.0019704653;1000.3302;  4.0000001E-01;273.57242;3;-13.433542;0.0;1.2092432;0;-0.17789301;  1.0007320E+04;  0.0000000E+00; -1.6987391E-08;  1.0000000E+04;  0.0000000E+00;  9.9992910E+03;-0.19756787;0.0;0.019674858;353.69342
  2.9995856E-01;  9.9999998E-03;  1.8000317E-01;1518;-0.028092973;0.0;0.0023525148;1000.3314;  4.0000001E-01;274.56003;3;-13.498366;0.0;1.3487095;0;-0.17896564;  1.0007480E+04;  0.0000000E+00;  7.3853172E-08;  1.0000000E+04;  0.0000000E+00;  9.9991475E+03;-0.20149186;0.0;0.022526214;420.35791
  2.9995823E-01;  9.9999998E-03;  2.0000394E-01;1519;-0.028284905;0.0;0.0027853891;1000.3312;  4.0000001E-01;274.46127;3;-13.539725;0.0;1.4962164;0;-0.17968246;  1.0007630E+04;  0.0000000E+00; -6.7100918E-05;  1.0000000E+04;  0.0000000E+00;  9.9989990E+03;-0.20532145;0.0;0.025638981;491.2312
  2.9995820E-01;  9.9999998E-03;  2.2000487E-01;1520;-0.028271109;0.0;0.0032991099;1000.3309;  4.0000001E-01;274.16498;3;-13.623044;0.0;1.6821685;0;-0.18027924;  1.0007763E+04;  0.0000000E+00; -1.0709193E-03;  1.0000000E+04;  0.0000000E+00;  9.9988604E+03;-0.20890348;0.0;0.028624231;557.63715
  2.9995862E-01;  9.9999998E-03;  2.4000603E-01;1521;-0.027947223;0.0;0.0039410475;1000.3309;  4.0000001E-01;274.16498;3;-13.846481;0.0;1.9607421;0;-0.18110125;  1.0007872E+04;  0.0000000E+00; -6.0019228E-03;  1.0000000E+04;  0.0000000E+00;  9.9987490E+03;-0.21215379;0.0;0.031052539;608.87665
  2.9995966E-01;  9.9999998E-03;  2.6000762E-01;1522;-0.027204966;0.0;0.0048036417;1000.3308;  4.0000001E-01;274.06622;3;-14.292233;0.0;2.429096;0;-0.18158983;  1.0007953E+04;  0.0000000E+00; -2.0286595E-02;  1.0000000E+04;  0.0000000E+00;  9.9986680E+03;-0.21501343;0.0;0.033423606;653.80164
  2.9996142E-01;  9.9999998E-03;  2.8000981E-01;1523;-0.025990479;0.0;0.005945174;1000.3246;  4.0000001E-01;268.93057;3;-14.959866;0.0;3.1421161;0;-0.17872459;  1.0007991E+04;  0.0000000E+00; -4.7497891E-02;  1.0000000E+04;  0.0000000E+00;  9.9985010E+03;-0.21729887;0.0;0.038574286;762.2453
  2.9996398E-01;  9.9999998E-03;  3.0001220E-01;1524;-0.02425818;0.0;0.0071255621;1000.3087;  4.0000001E-01;255.69638;3;-15.638365;0.0;4.0493069;0;-0.17229544;  1.0007962E+04;  0.0000000E+00; -7.8727238E-02;  1.0000000E+04;  0.0000000E+00;  9.9982129E+03;-0.21828468;0.0;0.045989241;947.45795
  3.1995156E-01;  9.9999998E-03;  1.6000314E-01;1548;-0.032041661;0.0;0.0024891365;1000.3812;  4.0000001E-01;315.8428;3;-15.040001;0.0;1.5231053;0;-0.19892585;  1.0008517E+04;  0.0000000E+00; -2.2520863E-08;  1.0000000E+04;  0.0000000E+00;  9.9991133E+03;-0.22325437;0.0;0.024328507;439.57993
  3.1995085E-01;  9.9999998E-03;  1.8000399E-01;1549;-0.032459389;0.0;0.0029825985;1000.3822;  4.0000001E-01;316.6329;3;-15.117569;0.0;1.6969085;0;-0.19996257;  1.0008706E+04;  0.0000000E+00;  5.5645772E-09;  1.0000000E+04;  0.0000000E+00;  9.9989434E+03;-0.22752152;0.0;0.027558958;521.28345
  3.1995034E-01;  9.9999998E-03;  2.0000499E-01;1550;-0.032744043;0.0;0.0035421306;1000.3822;  4.0000001E-01;316.6329;3;-15.17646;0.0;1.8863744;0;-0.20061162;  1.0008884E+04;  0.0000000E+00;  1.2239902E-06;  1.0000000E+04;  0.0000000E+00;  9.9987627E+03;-0.23157568;0.0;0.030964058;606.47137
  3.1995016E-01;  9.9999998E-03;  2.2000620E-01;1551;-0.032816846;0.0;0.0041829292;1000.3813;  4.0000001E-01;315.94156;3;-15.303266;0.0;2.1098378;0;-0.20097429;  1.0009038E+04;  0.0000000E+00; -1.0650035E-04;  1.0000000E+04;  0.0000000E+00;  9.9985918E+03;-0.2351944;0.0;0.034220114;686.22424
  3.1995046E-01;  9.9999998E-03;  2.4000765E-01;1552;-0.032565009;0.0;0.0049472768;1000.3804;  4.0000001E-01;315.15146;3;-15.618402;0.0;2.43062;0;-0.20119673;  1.0009157E+04;  0.0000000E+00; -1.1584837E-03;  1.0000000E+04;  0.0000000E+00;  9.9984541E+03;-0.23823424;0.0;0.037037499;750.33765
  3.1995139E-01;  9.9999998E-03;  2.6000950E-01;1553;-0.031891786;0.0;0.0058732112;1000.3791;  4.0000001E-01;314.06506;3;-16.241503;0.0;2.9108214;0;-0.20086013;  1.0009240E+04;  0.0000000E+00; -5.1438194E-03;  1.0000000E+04;  0.0000000E+00;  9.9983467E+03;-0.24063416;0.0;0.039774027;800.95477
  3.1995308E-01;  9.9999998E-03;  2.8001186E-01;1554;-0.030741423;0.0;0.0070125349;1000.3727;  4.0000001E-01;308.7319;3;-17.203697;0.0;3.6199841;0;-0.1978346;  1.0009282E+04;  0.0000000E+00; -1.3796722E-02;  1.0000000E+04;  0.0000000E+00;  9.9981719E+03;-0.24234705;0.0;0.044512447;883.35278
  3.1995562E-01;  9.9999998E-03;  3.0001447E-01;1555;-0.029090878;0.0;0.0081847636;1000.3589;  4.0000001E-01;297.37421;3;-18.298849;0.0;4.5618644;0;-0.19263501;  1.0009275E+04;  0.0000000E+00; -2.4830885E-02;  1.0000000E+04;  0.0000000E+00;  9.9979082E+03;-0.24317589;0.0;0.050540876;1011.482
  3.3994281E-01;  9.9999998E-03;  1.6000383E-01;1579;-0.036862552;0.0;0.003058257;1000.4398;  4.0000001E-01;364.33521;3;-16.772635;0.0;1.8576014;0;-0.22219455;  1.0009882E+04;  0.0000000E+00;  2.4124647E-09;  1.0000000E+04;  0.0000000E+00;  9.9989199E+03;-0.25153026;0.0;0.029335706;534.82501
  3.3994186E-01;  9.9999998E-03;  1.8000491E-01;1580;-0.037385516;0.0;0.0036687348;1000.4409;  4.0000001E-01;365.22406;3;-16.85774;0.0;2.0586157;0;-0.22325313;  1.0010106E+04;  0.0000000E+00; -2.7247660E-08;  1.0000000E+04;  0.0000000E+00;  9.9987129E+03;-0.25610337;0.0;0.032850232;632.45856
  3.3994114E-01;  9.9999998E-03;  2.0000617E-01;1581;-0.037769597;0.0;0.0043502217;1000.4408;  4.0000001E-01;365.22406;3;-16.930717;0.0;2.2725406;0;-0.22390553;  1.0010313E+04;  0.0000000E+00;  1.0758492E-06;  1.0000000E+04;  0.0000000E+00;  9.9985000E+03;-0.26031163;0.0;0.0364061;732.4021
  3.3994079E-01;  9.9999998E-03;  2.2000764E-01;1582;-0.037921216;0.0;0.0051020472;1000.4399;  4.0000001E-01;364.43396;3;-17.09247;0.0;2.5174582;0;-0.22420943;  1.0010490E+04;  0.0000000E+00;  6.6163780E-06;  1.0000000E+04;  0.0000000E+00;  9.9983105E+03;-0.26390627;0.0;0.039696842;824.60126
  3.3994097E-01;  9.9999998E-03;  2.4000937E-01;1583;-0.037716623;0.0;0.0059605357;1000.4387;  4.0000001E-01;363.44635;3;-17.490683;0.0;2.8564203;0;-0.22427864;  1.0010624E+04;  0.0000000E+00; -2.2191789E-05;  1.0000000E+04;  0.0000000E+00;  9.9981572E+03;-0.26673797;0.0;0.042459328;898.13879
  3.3994186E-01;  9.9999998E-03;  2.6001146E-01;1584;-0.037060004;0.0;0.0069256127;1000.4376;  4.0000001E-01;362.5575;3;-18.280342;0.0;3.3443418;0;-0.22399627;  1.0010716E+04;  0.0000000E+00; -4.5531764E-04;  1.0000000E+04;  0.0000000E+00;  9.9980430E+03;-0.2687799;0.0;0.044783637;951.30524
  3.3994365E-01;  9.9999998E-03;  2.8001407E-01;1585;-0.035879817;0.0;0.0080972202;1000.4321;  4.0000001E-01;357.91565;3;-19.504301;0.0;4.0938249;0;-0.22146048;  1.0010763E+04;  0.0000000E+00; -1.8201749E-03;  1.0000000E+04;  0.0000000E+00;  9.9978809E+03;-0.27009782;0.0;0.048637345;1026.0544
  3.3994636E-01;  9.9999998E-03;  3.0001691E-01;1586;-0.034178473;0.0;0.0092979744;1000.4205;  4.0000001E-01;348.43442;3;-20.962015;0.0;5.1005144;0;-0.21725997;  1.0010779E+04;  0.0000000E+00; -3.9214664E-03;  1.0000000E+04;  0.0000000E+00;  9.9976348E+03;-0.27077803;0.0;0.053518049;1139.0265
  3.5993263E-01;  9.9999998E-03;  1.6000459E-01;1610;-0.042289089;0.0;0.0036675404;1000.5068;  4.0000001E-01;419.83972;3;-18.634375;0.0;2.2166245;0;-0.24789602;  1.0011436E+04;  0.0000000E+00;  4.5236746E-08;  1.0000000E+04;  0.0000000E+00;  9.9987061E+03;-0.28257594;0.0;0.034679927;639.05493
  3.5993144E-01;  9.9999998E-03;  1.8000589E-01;1611;-0.042924475;0.0;0.0043995632;1000.5084;  4.0000001E-01;421.12363;3;-18.718636;0.0;2.4374132;0;-0.24905804;  1.0011708E+04;  0.0000000E+00; -4.9712909E-08;  1.0000000E+04;  0.0000000E+00;  9.9984648E+03;-0.28747192;0.0;0.038413875;753.96863
  3.5993046E-01;  9.9999998E-03;  2.0000744E-01;1612;-0.043411601;0.0;0.0052033132;1000.5086;  4.0000001E-01;421.32117;3;-18.798706;0.0;2.663866;0;-0.24980502;  1.0011951E+04;  0.0000000E+00;  9.8143221E-07;  1.0000000E+04;  0.0000000E+00;  9.9982236E+03;-0.29183593;0.0;0.042030912;870.11743
  3.5992989E-01;  9.9999998E-03;  2.2000921E-01;1613;-0.043641791;0.0;0.0060656015;1000.5078;  4.0000001E-01;420.72858;3;-18.99238;0.0;2.9165559;0;-0.25015619;  1.0012154E+04;  0.0000000E+00;  7.1294749E-06;  1.0000000E+04;  0.0000000E+00;  9.9980039E+03;-0.29540172;0.0;0.045245524;975.95905
  3.5992995E-01;  9.9999998E-03;  2.4001123E-01;1614;-0.043477815;0.0;0.0070012123;1000.5068;  4.0000001E-01;419.83972;3;-19.478052;0.0;3.2466373;0;-0.25028577;  1.0012308E+04;  0.0000000E+00;  2.3766144E-05;  1.0000000E+04;  0.0000000E+00;  9.9978320E+03;-0.298035;0.0;0.04774921;1058.6591
  3.5993087E-01;  9.9999998E-03;  2.6001361E-01;1615;-0.042798337;0.0;0.0080120368;1000.5061;  4.0000001E-01;419.34592;3;-20.431862;0.0;3.7576337;0;-0.25037986;  1.0012405E+04;  0.0000000E+00;  5.1503164E-05;  1.0000000E+04;  0.0000000E+00;  9.9977197E+03;-0.29975405;0.0;0.049374189;1111.978
  3.5993281E-01;  9.9999998E-03;  2.8001651E-01;1616;-0.041525763;0.0;0.0092348382;1000.5015;  4.0000001E-01;415.49417;3;-21.917027;0.0;4.5672417;0;-0.24850294;  1.0012463E+04;  0.0000000E+00;  6.3047286E-05;  1.0000000E+04;  0.0000000E+00;  9.9975752E+03;-0.30070189;0.0;0.052198939;1179.2969
  3.5993588E-01;  9.9999998E-03;  3.0001968E-01;1617;-0.039654665;0.0;0.010505792;1000.4911;  4.0000001E-01;406.90182;3;-23.698393;0.0;5.6668997;0;-0.24471515;  1.0012483E+04;  0.0000000E+00; -3.3013762E-06;  1.0000000E+04;  0.0000000E+00;  9.9973438E+03;-0.30110022;0.0;0.056385066;1286.8453
  3.7992087E-01;  9.9999998E-03;  1.6000539E-01;1641;-0.048377842;0.0;0.0043072635;1000.5834;  4.0000001E-01;483.34399;3;-20.620659;0.0;2.5723598;0;-0.27618125;  1.0013195E+04;  0.0000000E+00;  8.5403826E-08;  1.0000000E+04;  0.0000000E+00;  9.9984785E+03;-0.31655246;0.0;0.040371221;752.0119
  3.7991932E-01;  9.9999998E-03;  1.8000697E-01;1642;-0.049132455;0.0;0.0051704072;1000.5859;  4.0000001E-01;485.418;3;-20.695562;0.0;2.8179357;0;-0.27754021;  1.0013522E+04;  0.0000000E+00; -4.7796501E-08;  1.0000000E+04;  0.0000000E+00;  9.9981992E+03;-0.32183999;0.0;0.044299781;885.91357
  3.7991804E-01;  9.9999998E-03;  2.0000881E-01;1643;-0.049725901;0.0;0.0061044842;1000.5867;  4.0000001E-01;486.01059;3;-20.775398;0.0;3.0535185;0;-0.27848744;  1.0013819E+04;  0.0000000E+00;  9.2114959E-07;  1.0000000E+04;  0.0000000E+00;  9.9979180E+03;-0.32643694;0.0;0.047949497;1020.6833
  3.7991723E-01;  9.9999998E-03;  2.2001091E-01;1644;-0.05003475;0.0;0.0070834663;1000.5864;  4.0000001E-01;485.81305;3;-20.99781;0.0;3.3039172;0;-0.27900049;  1.0014065E+04;  0.0000000E+00;  7.9966539E-06;  1.0000000E+04;  0.0000000E+00;  9.9976680E+03;-0.3300612;0.0;0.051060706;1142.9211
  3.7991717E-01;  9.9999998E-03;  2.4001327E-01;1645;-0.049908299;0.0;0.0081028137;1000.5858;  4.0000001E-01;485.31924;3;-21.577326;0.0;3.6315744;0;-0.27932027;  1.0014249E+04;  0.0000000E+00;  2.8469458E-05;  1.0000000E+04;  0.0000000E+00;  9.9974717E+03;-0.33259743;0.0;0.053277165;1237.5078
  3.7991813E-01;  9.9999998E-03;  2.6001599E-01;1646;-0.049193684;0.0;0.0091703283;1000.5859;  4.0000001E-01;485.418;3;-22.713797;0.0;4.1596923;0;-0.27990326;  1.0014370E+04;  0.0000000E+00;  6.4068372E-05;  1.0000000E+04;  0.0000000E+00;  9.9973545E+03;-0.33410108;0.0;0.054197818;1294.062
  3.7992030E-01;  9.9999998E-03;  2.8001928E-01;1647;-0.047803439;0.0;0.010460931;1000.5823;  4.0000001E-01;482.35635;3;-24.482634;0.0;5.0446787;0;-0.27870929;  1.0014435E+04;  0.0000000E+00;  9.4937161E-05;  1.0000000E+04;  0.0000000E+00;  9.9972197E+03;-0.33476099;0.0;0.056051701;1358.4664
  3.7992382E-01;  9.9999998E-03;  3.0002290E-01;1648;-0.045715515;0.0;0.011825378;1000.572;  4.0000001E-01;473.86279;3;-26.608368;0.0;6.2617254;0;-0.27507287;  1.0014457E+04;  0.0000000E+00;  7.4369316E-05;  1.0000000E+04;  0.0000000E+00;  9.9969922E+03;-0.33484751;0.0;0.05977463;1465.7375
  3.9990726E-01;  9.9999998E-03;  1.6000630E-01;1672;-0.055188134;0.0;0.0049826526;1000.6707;  4.0000001E-01;555.63806;3;-22.733728;0.0;2.9261212;0;-0.30715466;  1.0015186E+04;  0.0000000E+00;  8.5060648E-08;  1.0000000E+04;  0.0000000E+00;  9.9982334E+03;-0.35357195;0.0;0.046417281;873.48425
  3.9990532E-01;  9.9999998E-03;  1.8000814E-01;1673;-0.056068789;0.0;0.0059881527;1000.6746;  4.0000001E-01;558.89722;3;-22.785418;0.0;3.1966763;0;-0.3088204;  1.0015581E+04;  0.0000000E+00; -2.7429829E-08;  1.0000000E+04;  0.0000000E+00;  9.9979141E+03;-0.3593626;0.0;0.050542198;1027.8575
  3.9990368E-01;  9.9999998E-03;  2.0001030E-01;1674;-0.056772511;0.0;0.0070654131;1000.6765;  4.0000001E-01;560.47742;3;-22.856836;0.0;3.4448256;0;-0.31008258;  1.0015945E+04;  0.0000000E+00;  8.9113541E-07;  1.0000000E+04;  0.0000000E+00;  9.9975928E+03;-0.36433053;0.0;0.054247938;1184.178
  3.9990261E-01;  9.9999998E-03;  2.2001278E-01;1675;-0.05715964;0.0;0.0081748292;1000.6772;  4.0000001E-01;561.07001;3;-23.104469;0.0;3.6914184;0;-0.31088194;  1.0016254E+04;  0.0000000E+00;  9.2243890E-06;  1.0000000E+04;  0.0000000E+00;  9.9972979E+03;-0.36818099;0.0;0.05729904;1326.6682
  3.9990240E-01;  9.9999998E-03;  2.4001555E-01;1676;-0.05706384;0.0;0.0092964023;1000.6774;  4.0000001E-01;561.16876;3;-23.782705;0.0;4.0165782;0;-0.31151611;  1.0016487E+04;  0.0000000E+00;  3.4952482E-05;  1.0000000E+04;  0.0000000E+00;  9.9970684E+03;-0.37081227;0.0;0.059296172;1437.5128
  3.9990336E-01;  9.9999998E-03;  2.6001871E-01;1677;-0.05631011;0.0;0.010435671;1000.6786;  4.0000001E-01;562.25513;3;-25.125729;0.0;4.5594206;0;-0.3126893;  1.0016647E+04;  0.0000000E+00;  8.1209597E-05;  1.0000000E+04;  0.0000000E+00;  9.9969365E+03;-0.3723087;0.0;0.059619401;1503.1627
  3.9990574E-01;  9.9999998E-03;  2.8002250E-01;1678;-0.054793596;0.0;0.011803594;1000.6762;  4.0000001E-01;560.18115;3;-27.213789;0.0;5.5234685;0;-0.31234306;  1.0016735E+04;  0.0000000E+00;  1.2243308E-04;  1.0000000E+04;  0.0000000E+00;  9.9967930E+03;-0.37289265;0.0;0.060549576;1572.0616
  3.9990976E-01;  9.9999998E-03;  3.0002660E-01;1679;-0.052470136;0.0;0.013287857;1000.666;  4.0000001E-01;551.78632;3;-29.726551;0.0;6.889596;0;-0.30890217;  1.0016777E+04;  0.0000000E+00;  9.5502110E-05;  1.0000000E+04;  0.0000000E+00;  9.9965527E+03;-0.37286222;0.0;0.063960038;1685.0004
  4.1989166E-01;  9.9999998E-03;  1.6000737E-01;1703;-0.062778965;0.0;0.0057044863;1000.7693;  4.0000001E-01;637.31451;3;-24.973238;0.0;3.269047;0;-0.34085295;  1.0017419E+04;  0.0000000E+00;  3.4347996E-09;  1.0000000E+04;  0.0000000E+00;  9.9979727E+03;-0.39365587;0.0;0.052802917;1003.6736
  4.1988921E-01;  9.9999998E-03;  1.8000948E-01;1704;-0.063795321;0.0;0.006864938;1000.7753;  4.0000001E-01;642.35138;3;-24.986378;0.0;3.574235;0;-0.34296876;  1.0017900E+04;  0.0000000E+00; -1.5699730E-08;  1.0000000E+04;  0.0000000E+00;  9.9976094E+03;-0.40008959;0.0;0.057120815;1178.782
  4.1988713E-01;  9.9999998E-03;  2.0001198E-01;1705;-0.064615659;0.0;0.0080996538;1000.7791;  4.0000001E-01;645.51178;3;-25.038099;0.0;3.8374288;0;-0.34468621;  1.0018354E+04;  0.0000000E+00;  9.6501014E-07;  1.0000000E+04;  0.0000000E+00;  9.9972393E+03;-0.40561655;0.0;0.060930356;1359.1508
  4.1988569E-01;  9.9999998E-03;  2.2001486E-01;1706;-0.065081872;0.0;0.0093574272;1000.7816;  4.0000001E-01;647.58582;3;-25.306044;0.0;4.0831013;0;-0.34591839;  1.0018741E+04;  0.0000000E+00;  1.1096994E-05;  1.0000000E+04;  0.0000000E+00;  9.9968994E+03;-0.40993032;0.0;0.064011924;1525.9417
  4.1988528E-01;  9.9999998E-03;  2.4001810E-01;1707;-0.06501215;0.0;0.010605488;1000.7837;  4.0000001E-01;649.26477;3;-26.09046;0.0;4.4078245;0;-0.3470065;  1.0019056E+04;  0.0000000E+00;  4.3769644E-05;  1.0000000E+04;  0.0000000E+00;  9.9966279E+03;-0.41293237;0.0;0.065925859;1657.8912
  4.1988623E-01;  9.9999998E-03;  2.6002178E-01;1708;-0.064213529;0.0;0.011843033;1000.7866;  4.0000001E-01;651.73383;3;-27.662842;0.0;4.9639139;0;-0.34886098;  1.0019277E+04;  0.0000000E+00;  1.0388220E-04;  1.0000000E+04;  0.0000000E+00;  9.9964658E+03;-0.41471767;0.0;0.06585671;1739.7073
  4.1988885E-01;  9.9999998E-03;  2.8002620E-01;1709;-0.062564023;0.0;0.013297974;1000.7852;  4.0000001E-01;650.54865;3;-30.110428;0.0;6.0064483;0;-0.34961045;  1.0019423E+04;  0.0000000E+00;  1.5739398E-04;  1.0000000E+04;  0.0000000E+00;  9.9962949E+03;-0.41552076;0.0;0.065910295;1823.9658
  4.1989341E-01;  9.9999998E-03;  3.0003098E-01;1710;-0.05999301;0.0;0.014905634;1000.7759;  4.0000001E-01;642.84521;3;-33.065704;0.0;7.5302005;0;-0.34684223;  1.0019502E+04;  0.0000000E+00;  1.1819068E-04;  1.0000000E+04;  0.0000000E+00;  9.9960283E+03;-0.41565353;0.0;0.06881129;1951.3257
  4.3987375E-01;  9.9999998E-03;  1.6000871E-01;1734;-0.07121253;0.0;0.0065005282;1000.8793;  4.0000001E-01;728.47198;3;-27.338226;0.0;3.5890136;0;-0.37713608;  1.0019911E+04;  0.0000000E+00; -2.3766407E-07;  1.0000000E+04;  0.0000000E+00;  9.9976895E+03;-0.43662879;0.0;0.059492718;1144.2744
  4.3987074E-01;  9.9999998E-03;  1.8001109E-01;1735;-0.072379105;0.0;0.007822019;1000.8882;  4.0000001E-01;735.87921;3;-27.297434;0.0;3.9375465;0;-0.37990576;  1.0020487E+04;  0.0000000E+00; -2.0527935E-08;  1.0000000E+04;  0.0000000E+00;  9.9972939E+03;-0.44385746;0.0;0.063951701;1337.9197
  4.3986809E-01;  9.9999998E-03;  2.0001391E-01;1736;-0.073325969;0.0;0.0092233531;1000.8952;  4.0000001E-01;741.70618;3;-27.314098;0.0;4.2261372;0;-0.38226989;  1.0021047E+04;  0.0000000E+00;  1.4395609E-06;  1.0000000E+04;  0.0000000E+00;  9.9968740E+03;-0.45016864;0.0;0.067898743;1543.0881
  4.3986619E-01;  9.9999998E-03;  2.2001719E-01;1737;-0.073875763;0.0;0.01064435;1000.9008;  4.0000001E-01;746.34802;3;-27.59565;0.0;4.4783602;0;-0.38414153;  1.0021551E+04;  0.0000000E+00;  1.4467391E-05;  1.0000000E+04;  0.0000000E+00;  9.9964766E+03;-0.45525044;0.0;0.071108907;1736.9336
  4.3986547E-01;  9.9999998E-03;  2.4002096E-01;1738;-0.073829994;0.0;0.012043728;1000.9059;  4.0000001E-01;750.49603;3;-28.491726;0.0;4.8065553;0;-0.38590288;  1.0021972E+04;  0.0000000E+00;  5.6619712E-05;  1.0000000E+04;  0.0000000E+00;  9.9961572E+03;-0.45898962;0.0;0.073086746;1893.2379
  4.3986636E-01;  9.9999998E-03;  2.6002532E-01;1739;-0.072981127;0.0;0.013421816;1000.9119;  4.0000001E-01;755.43414;3;-30.320639;0.0;5.3841515;0;-0.38856155;  1.0022297E+04;  0.0000000E+00;  1.3431646E-04;  1.0000000E+04;  0.0000000E+00;  9.9959502E+03;-0.46146265;0.0;0.072901092;1997.0455
  4.3986923E-01;  9.9999998E-03;  2.8003055E-01;1740;-0.071192972;0.0;0.014984905;1000.9118;  4.0000001E-01;755.43414;3;-33.170654;0.0;6.4891973;0;-0.3906039;  1.0022528E+04;  0.0000000E+00;  2.0093609E-04;  1.0000000E+04;  0.0000000E+00;  9.9957188E+03;-0.46288884;0.0;0.072284922;2112.5767
  4.3987435E-01;  9.9999998E-03;  3.0003610E-01;1741;-0.068364538;0.0;0.016713148;1000.9033;  4.0000001E-01;748.3233;3;-36.628708;0.0;8.1852894;0;-0.38922846;  1.0022681E+04;  0.0000000E+00;  1.3766324E-04;  1.0000000E+04;  0.0000000E+00;  9.9953984E+03;-0.46357217;0.0;0.074343719;2267.9421
  4.5985332E-01;  9.9999998E-03;  1.6001056E-01;1765;-0.08055751;0.0;0.0074275965;1001.0012;  4.0000060E-01;829.40674;3;-29.827248;0.0;3.8722939;0;-0.41541091;  1.0022631E+04;  0.0000000E+00; -4.5154158E-07;  1.0000000E+04;  0.0000000E+00;  9.9973760E+03;-0.48187673;0.0;0.066465832;1300.3445
  4.5984960E-01;  9.9999998E-03;  1.8001316E-01;1766;-0.081893235;0.0;0.0089063868;1001.0146;  4.0000060E-01;840.56689;3;-29.715527;0.0;4.2743568;0;-0.41911662;  1.0023320E+04;  0.0000000E+00;  2.0988901E-07;  1.0000000E+04;  0.0000000E+00;  9.9969541E+03;-0.4900369;0.0;0.070920303;1506.7524
  4.5984623E-01;  9.9999998E-03;  2.0001626E-01;1767;-0.082981981;0.0;0.01046499;1001.0256;  4.0000069E-01;849.75183;3;-29.677622;0.0;4.5927606;0;-0.42239451;  1.0024011E+04;  0.0000000E+00;  3.0626404E-06;  1.0000000E+04;  0.0000000E+00;  9.9964922E+03;-0.49737689;0.0;0.074982375;1734.4094
  4.5984370E-01;  9.9999998E-03;  2.2001991E-01;1768;-0.083626419;0.0;0.012051462;1001.0356;  4.0000063E-01;858.04785;3;-29.966717;0.0;4.8675461;0;-0.42520517;  1.0024660E+04;  0.0000000E+00;  2.1262176E-05;  1.0000000E+04;  0.0000000E+00;  9.9960430E+03;-0.5035854;0.0;0.078380212;1955.1071
  4.5984256E-01;  9.9999998E-03;  2.4002418E-01;1769;-0.083608292;0.0;0.013618183;1001.046;  4.0000054E-01;866.6402;3;-30.978945;0.0;5.2035813;0;-0.42800817;  1.0025229E+04;  0.0000000E+00;  7.7119352E-05;  1.0000000E+04;  0.0000000E+00;  9.9956777E+03;-0.50851434;0.0;0.080506168;2134.9348
  4.5984331E-01;  9.9999998E-03;  2.6002932E-01;1770;-0.082706273;0.0;0.015190343;1001.0567;  4.0000066E-01;875.43005;3;-33.090145;0.0;5.8119936;0;-0.43171188;  1.0025700E+04;  0.0000000E+00;  1.7763730E-04;  1.0000000E+04;  0.0000000E+00;  9.9954248E+03;-0.51218736;0.0;0.080475479;2261.0544
  4.5984635E-01;  9.9999998E-03;  2.8003564E-01;1771;-0.080779225;0.0;0.016915727;1001.0582;  4.0000066E-01;876.71399;3;-36.393944;0.0;6.9676805;0;-0.43506318;  1.0026060E+04;  0.0000000E+00;  2.5642701E-04;  1.0000000E+04;  0.0000000E+00;  9.9950938E+03;-0.51476961;0.0;0.079706438;2427.1582
  4.5985204E-01;  9.9999998E-03;  3.0004224E-01;1772;-0.077686846;0.0;0.018766643;1001.0505;  4.0000054E-01;870.29443;3;-40.422558;0.0;8.8515091;0;-0.43586686;  1.0026326E+04;  0.0000000E+00;  1.4811545E-04;  1.0000000E+04;  0.0000000E+00;  9.9946689E+03;-0.51652712;0.0;0.080660246;2636.2808
  4.7983000E-01;  9.9999998E-03;  1.6001323E-01;1796;-0.09088774;0.0;0.0085828025;1001.1304;  4.0000185E-01;936.46454;3;-32.438591;0.0;4.1069179;0;-0.45415196;  1.0025521E+04;  0.0000000E+00;  2.2825708E-07;  1.0000000E+04;  0.0000000E+00;  9.9970156E+03;-0.52793074;0.0;0.073778771;1482.6732
  4.7982541E-01;  9.9999998E-03;  1.8001603E-01;1797;-0.092414506;0.0;0.01020372;1001.1494;  4.0000185E-01;952.16772;3;-32.238953;0.0;4.5712419;0;-0.45914811;  1.0026331E+04;  0.0000000E+00;  1.8104529E-06;  1.0000000E+04;  0.0000000E+00;  9.9965850E+03;-0.53710961;0.0;0.077961512;1692.21
  4.7982118E-01;  9.9999998E-03;  2.0001931E-01;1798;-0.093666889;0.0;0.01188968;1001.1665;  4.0000176E-01;966.38953;3;-32.129021;0.0;4.9286156;0;-0.46367151;  1.0027169E+04;  0.0000000E+00;  7.6856195E-06;  1.0000000E+04;  0.0000000E+00;  9.9960898E+03;-0.5457027;0.0;0.082031198;1936.384
  4.7981787E-01;  9.9999998E-03;  2.2002320E-01;1799;-0.094424538;0.0;0.013613906;1001.1827;  4.0000176E-01;979.91992;3;-32.415592;0.0;5.2378674;0;-0.46781376;  1.0027991E+04;  0.0000000E+00;  3.5226200E-05;  1.0000000E+04;  0.0000000E+00;  9.9955957E+03;-0.55340773;0.0;0.085593961;2179.657
  4.7981611E-01;  9.9999998E-03;  2.4002790E-01;1800;-0.094450369;0.0;0.01533765;1001.201;  4.0000173E-01;995.03058;3;-33.548363;0.0;5.5828514;0;-0.47223288;  1.0028751E+04;  0.0000000E+00;  1.1250686E-04;  1.0000000E+04;  0.0000000E+00;  9.9952002E+03;-0.56002092;0.0;0.087788045;2375.0696
  4.7981650E-01;  9.9999998E-03;  2.6003391E-01;1801;-0.093504287;0.0;0.017158657;1001.2203;  4.0000185E-01;1011.0301;3;-35.967697;0.0;6.2335153;0;-0.47748291;  1.0029411E+04;  0.0000000E+00;  2.4440879E-04;  1.0000000E+04;  0.0000000E+00;  9.9949316E+03;-0.56547916;0.0;0.087996259;2511.4927
  4.7981957E-01;  9.9999998E-03;  2.8004169E-01;1802;-0.091453172;0.0;0.019148929;1001.2242;  4.0000170E-01;1014.1905;3;-39.787041;0.0;7.4373794;0;-0.48191017;  1.0029954E+04;  0.0000000E+00;  3.3245198E-04;  1.0000000E+04;  0.0000000E+00;  9.9944648E+03;-0.56985235;0.0;0.087942183;2744.2708
  4.7982574E-01;  9.9999998E-03;  3.0004963E-01;1803;-0.088112451;0.0;0.021138603;1001.2155;  4.0000179E-01;1006.9808;3;-44.470703;0.0;9.5220623;0;-0.48558885;  1.0030388E+04;  0.0000000E+00;  1.4480519E-04;  1.0000000E+04;  0.0000000E+00;  9.9938584E+03;-0.57331997;0.0;0.087731123;3044.7776
  4.9980345E-01;  9.9999998E-03;  1.6001718E-01;1827;-0.10227138;0.0;0.010112156;1001.2589;  4.0000412E-01;1042.9293;3;-35.163933;0.0;4.3003058;0;-0.49033213;  1.0028434E+04;  0.0000000E+00;  4.0246632E-06;  1.0000000E+04;  0.0000000E+00;  9.9965586E+03;-0.57197297;0.0;0.081640847;1710.187
  4.9979785E-01;  9.9999998E-03;  1.8002018E-01;1828;-0.10401189;0.0;0.011849607;1001.285;  4.0000418E-01;1064.657;3;-34.864384;0.0;4.8178654;0;-0.49698138;  1.0029359E+04;  0.0000000E+00;  7.2550679E-06;  1.0000000E+04;  0.0000000E+00;  9.9961533E+03;-0.58216178;0.0;0.085180402;1910.9
  4.9979261E-01;  9.9999998E-03;  2.0002356E-01;1829;-0.10545219;0.0;0.013615185;1001.309;  4.0000424E-01;1084.4094;3;-34.667686;0.0;5.220686;0;-0.50306875;  1.0030354E+04;  0.0000000E+00;  1.8764786E-05;  1.0000000E+04;  0.0000000E+00;  9.9956396E+03;-0.59214765;0.0;0.089078888;2163.3333
  4.9978828E-01;  9.9999998E-03;  2.2002749E-01;1830;-0.10635036;0.0;0.015414449;1001.3335;  4.0000412E-01;1104.7545;3;-34.939476;0.0;5.5718894;0;-0.50893742;  1.0031368E+04;  0.0000000E+00;  6.3157582E-05;  1.0000000E+04;  0.0000000E+00;  9.9951162E+03;-0.60163879;0.0;0.092701353;2421.6782
  4.9978569E-01;  9.9999998E-03;  2.4003243E-01;1831;-0.10645737;0.0;0.01724162;1001.3627;  4.0000424E-01;1128.9512;3;-36.201321;0.0;5.9266877;0;-0.51571077;  1.0032348E+04;  0.0000000E+00;  1.7645127E-04;  1.0000000E+04;  0.0000000E+00;  9.9947256E+03;-0.61035973;0.0;0.094648965;2616.304
  4.9978542E-01;  9.9999998E-03;  2.6003921E-01;1832;-0.10550456;0.0;0.019345026;1001.3957;  4.0000418E-01;1156.3083;3;-38.956696;0.0;6.6372542;0;-0.52339679;  1.0033234E+04;  0.0000000E+00;  3.5637361E-04;  1.0000000E+04;  0.0000000E+00;  9.9945059E+03;-0.61813951;0.0;0.0947427;2729.5964
  4.9978819E-01;  9.9999998E-03;  2.8004885E-01;1833;-0.10338228;0.0;0.021749545;1001.4042;  4.0000424E-01;1163.3204;3;-43.373562;0.0;7.9049945;0;-0.52852839;  1.0034005E+04;  0.0000000E+00;  4.4971122E-04;  1.0000000E+04;  0.0000000E+00;  9.9938994E+03;-0.62491566;0.0;0.096387289;3028.0859
  4.9979448E-01;  9.9999998E-03;  3.0005863E-01;1834;-0.099870488;0.0;0.023920981;1001.3926;  4.0000415E-01;1153.7405;3;-48.824902;0.0;10.188376;0;-0.53542447;  1.0034651E+04;  0.0000000E+00;  1.2948882E-04;  1.0000000E+04;  0.0000000E+00;  9.9930215E+03;-0.6307171;0.0;0.09529262;3466.8608
  5.1977336E-01;  9.9999998E-03;  1.6002300E-01;1858;-0.11474831;0.0;0.012196499;1001.3808;  4.0001163E-01;1143.9615;3;-38.00592;0.0;4.4284816;0;-0.51899534;  1.0031107E+04;  0.0000000E+00;  1.3988575E-05;  1.0000000E+04;  0.0000000E+00;  9.9959473E+03;-0.60948682;0.0;0.090491459;2012.3574
  5.1976675E-01;  9.9999998E-03;  1.8002628E-01;1859;-0.11671586;0.0;0.014034554;1001.4141;  4.0001142E-01;1171.5161;3;-37.584991;0.0;4.9978166;0;-0.52751905;  1.0032142E+04;  0.0000000E+00;  1.9299021E-05;  1.0000000E+04;  0.0000000E+00;  9.9955820E+03;-0.62052763;0.0;0.0930086;2194.5144
  5.1976031E-01;  9.9999998E-03;  2.0002972E-01;1860;-0.11836671;0.0;0.015825704;1001.4453;  4.0001148E-01;1197.3918;3;-37.290596;0.0;5.4459381;0;-0.53528488;  1.0033282E+04;  0.0000000E+00;  4.0476643E-05;  1.0000000E+04;  0.0000000E+00;  9.9950654E+03;-0.63185573;0.0;0.09657082;2448.9304
  5.1975477E-01;  9.9999998E-03;  2.2003353E-01;1861;-0.11944265;0.0;0.017622311;1001.4782;  4.0001145E-01;1224.6501;3;-37.534657;0.0;5.8462896;0;-0.54304028;  1.0034483E+04;  0.0000000E+00;  1.1672941E-04;  1.0000000E+04;  0.0000000E+00;  9.9945332E+03;-0.64318711;0.0;0.10014683;2715.3357
  5.1975101E-01;  9.9999998E-03;  2.4003839E-01;1862;-0.11969072;0.0;0.019470785;1001.5208;  4.0001151E-01;1259.9082;3;-38.946693;0.0;6.245502;0;-0.55276543;  1.0035682E+04;  0.0000000E+00;  2.9649798E-04;  1.0000000E+04;  0.0000000E+00;  9.9941895E+03;-0.65417582;0.0;0.1014104;2886.811
  5.1974964E-01;  9.9999998E-03;  2.6004568E-01;1863;-0.11881622;0.0;0.021828523;1001.5748;  4.0001136E-01;1304.7462;3;-42.083336;0.0;7.051177;0;-0.56421399;  1.0036809E+04;  0.0000000E+00;  5.5816880E-04;  1.0000000E+04;  0.0000000E+00;  9.9941357E+03;-0.66454494;0.0;0.10033092;2918.2922
  5.1975143E-01;  9.9999998E-03;  2.8005749E-01;1864;-0.11674581;0.0;0.02480658;1001.5925;  4.0001145E-01;1319.363;3;-47.18782;0.0;8.3815174;0;-0.56977391;  1.0037834E+04;  0.0000000E+00;  6.5110996E-04;  1.0000000E+04;  0.0000000E+00;  9.9934619E+03;-0.67408186;0.0;0.10430797;3248.6611
  5.1975703E-01;  9.9999998E-03;  3.0006969E-01;1865;-0.11326484;0.0;0.027233968;1001.5749;  4.0001148E-01;1304.7462;3;-53.564896;0.0;10.830653;0;-0.57967573;  1.0038722E+04;  0.0000000E+00;  1.1815397E-04;  1.0000000E+04;  0.0000000E+00;  9.9922305E+03;-0.68259186;0.0;0.10291614;3864.9551
  5.3973985E-01;  9.9999998E-03;  1.6003129E-01;1889;-0.12826486;0.0;0.015019347;1001.49;  4.0003103E-01;1234.4254;3;-40.936691;0.0;4.4641619;0;-0.53316301;  1.0033165E+04;  0.0000000E+00;  2.9648178E-05;  1.0000000E+04;  0.0000000E+00;  9.9950889E+03;-0.6342507;0.0;0.10108769;2432.0027
  5.3973210E-01;  9.9999998E-03;  1.8003505E-01;1890;-0.130457;0.0;0.016962785;1001.5289;  4.0003082E-01;1266.7206;3;-40.376022;0.0;5.0694122;0;-0.54339737;  1.0034276E+04;  0.0000000E+00;  3.5907455E-05;  1.0000000E+04;  0.0000000E+00;  9.9947656E+03;-0.64575773;0.0;0.10236038;2595.1902
  5.3972441E-01;  9.9999998E-03;  2.0003870E-01;1891;-0.13233061;0.0;0.01877993;1001.5654;  4.0003097E-01;1296.8429;3;-39.954231;0.0;5.556098;0;-0.55248606;  1.0035525E+04;  0.0000000E+00;  7.5881071E-05;  1.0000000E+04;  0.0000000E+00;  9.9942451E+03;-0.65805876;0.0;0.10557272;2853.1287
  5.3971750E-01;  9.9999998E-03;  2.2004233E-01;1892;-0.13362704;0.0;0.020517381;1001.6052;  4.0003100E-01;1329.9282;3;-40.176418;0.0;6.0414653;0;-0.56175506;  1.0036876E+04;  0.0000000E+00;  2.1752733E-04;  1.0000000E+04;  0.0000000E+00;  9.9936982E+03;-0.67087072;0.0;0.10911566;3125.2952
  5.3971219E-01;  9.9999998E-03;  2.4004681E-01;1893;-0.1340827;0.0;0.022258515;1001.6621;  4.0003097E-01;1377.0376;3;-41.764854;0.0;6.5014992;0;-0.5746417;  1.0038254E+04;  0.0000000E+00;  5.2719255E-04;  1.0000000E+04;  0.0000000E+00;  9.9934580E+03;-0.68379182;0.0;0.10915008;3249.0491
  5.3970903E-01;  9.9999998E-03;  2.6005417E-01;1894;-0.13343698;0.0;0.024764866;1001.7432;  4.0003091E-01;1444.1957;3;-45.316322;0.0;7.3832145;0;-0.5912407;  1.0039596E+04;  0.0000000E+00;  9.3508553E-04;  1.0000000E+04;  0.0000000E+00;  9.9937334E+03;-0.69647092;0.0;0.10523023;3121.575
  5.3970897E-01;  9.9999998E-03;  2.8006825E-01;1895;-0.13163471;0.0;0.028444942;1001.778;  4.0003088E-01;1473.0342;3;-51.238129;0.0;8.8507233;0;-0.59735799;  1.0040846E+04;  0.0000000E+00;  1.0126476E-03;  1.0000000E+04;  0.0000000E+00;  9.9931797E+03;-0.70855695;0.0;0.11119898;3392.9988
  5.3971231E-01;  9.9999998E-03;  3.0008346E-01;1896;-0.12857105;0.0;0.031233866;1001.7534;  4.0003091E-01;1452.5905;3;-58.807426;0.0;11.541249;0;-0.60994363;  1.0041956E+04;  0.0000000E+00;  1.4623436E-04;  1.0000000E+04;  0.0000000E+00;  9.9915732E+03;-0.71959782;0.0;0.10965416;4194.6934
  5.5970347E-01;  9.9999998E-03;  1.6004258E-01;1920;-0.1425599;0.0;0.018754071;1001.6086;  4.0008333E-01;1332.6903;3;-43.898994;0.0;4.4060574;0;-0.52409035;  1.0034130E+04;  0.0000000E+00;  4.0186256E-05;  1.0000000E+04;  0.0000000E+00;  9.9938633E+03;-0.63863939;0.0;0.11454904;3026.1626
  5.5969459E-01;  9.9999998E-03;  1.8004721E-01;1921;-0.1449573;0.0;0.020837905;1001.6489;  4.0008327E-01;1366.0718;3;-43.188763;0.0;5.0543108;0;-0.53526592;  1.0035250E+04;  0.0000000E+00;  4.5103730E-05;  1.0000000E+04;  0.0000000E+00;  9.9935518E+03;-0.64991152;0.0;0.11464562;3185.0891
  5.5968571E-01;  9.9999998E-03;  2.0005140E-01;1922;-0.14704977;0.0;0.022723464;1001.6857;  4.0008327E-01;1396.5891;3;-42.627987;0.0;5.6204591;0;-0.54468936;  1.0036542E+04;  0.0000000E+00;  1.2648529E-04;  1.0000000E+04;  0.0000000E+00;  9.9930000E+03;-0.66238314;0.0;0.11769377;3459.2258
  5.5967730E-01;  9.9999998E-03;  2.2005507E-01;1923;-0.14856866;0.0;0.024431314;1001.7274;  4.0008342E-01;1431.1556;3;-42.820843;0.0;6.1679931;0;-0.55436844;  1.0037949E+04;  0.0000000E+00;  4.0283974E-04;  1.0000000E+04;  0.0000000E+00;  9.9924316E+03;-0.67574221;0.0;0.12137376;3741.7822
  5.5967009E-01;  9.9999998E-03;  2.4005896E-01;1924;-0.14930843;0.0;0.025926735;1001.7958;  4.0008327E-01;1487.7461;3;-44.49295;0.0;6.7399859;0;-0.56985188;  1.0039413E+04;  0.0000000E+00;  9.6054177E-04;  1.0000000E+04;  0.0000000E+00;  9.9923379E+03;-0.68950254;0.0;0.11965063;3794.1553
  5.5966455E-01;  9.9999998E-03;  2.6006615E-01;1925;-0.14908713;0.0;0.028459201;1001.907;  4.0008315E-01;1579.8907;3;-48.596569;0.0;7.6659989;0;-0.59222186;  1.0040860E+04;  0.0000000E+00;  1.6234660E-03;  1.0000000E+04;  0.0000000E+00;  9.9931074E+03;-0.70328832;0.0;0.11106644;3428.3789
  5.5966121E-01;  9.9999998E-03;  2.8008232E-01;1926;-0.14785668;0.0;0.032904711;1001.9675;  4.0008324E-01;1630.0618;3;-55.469837;0.0;9.3491259;0;-0.59913188;  1.0042243E+04;  0.0000000E+00;  1.6462485E-03;  1.0000000E+04;  0.0000000E+00;  9.9929355E+03;-0.71672094;0.0;0.11758907;3510.188
  5.5966026E-01;  9.9999998E-03;  3.0010086E-01;1927;-0.14575246;0.0;0.036104724;1001.9373;  4.0008318E-01;1604.9763;3;-64.524757;0.0;12.311291;0;-0.61414385;  1.0043494E+04;  0.0000000E+00;  2.6364863E-04;  1.0000000E+04;  0.0000000E+00;  9.9910752E+03;-0.72918284;0.0;0.11503896;4441.6313
  5.7966572E-01;  9.9999998E-03;  1.6005711E-01;1951;-0.15706545;0.0;0.02350775;1001.8318;  4.0022218E-01;1517.567;3;-46.7868;0.0;4.199698;0;-0.48118213;  1.0033366E+04;  0.0000000E+00;  2.2379387E-05;  1.0000000E+04;  0.0000000E+00;  9.9921328E+03;-0.61344254;0.0;0.13226041;3860.0005
  5.7965583E-01;  9.9999998E-03;  1.8006322E-01;1952;-0.15961118;0.0;0.025848811;1001.8663;  4.0022227E-01;1546.109;3;-45.915092;0.0;4.9048824;0;-0.49192873;  1.0034423E+04;  0.0000000E+00;  2.6781618E-05;  1.0000000E+04;  0.0000000E+00;  9.9917715E+03;-0.62339753;0.0;0.1314688;4043.7834
  5.7964575E-01;  9.9999998E-03;  2.0006838E-01;1953;-0.16187979;0.0;0.027845908;1001.895;  4.0022227E-01;1569.9105;3;-45.19812;0.0;5.5465679;0;-0.50004339;  1.0035634E+04;  0.0000000E+00;  1.9421213E-04;  1.0000000E+04;  0.0000000E+00;  9.9911406E+03;-0.63462371;0.0;0.13458031;4355.042
  5.7963592E-01;  9.9999998E-03;  2.2007267E-01;1954;-0.16365302;0.0;0.029472165;1001.9305;  4.0022209E-01;1599.3414;3;-45.302933;0.0;6.2406015;0;-0.50833595;  1.0036947E+04;  0.0000000E+00;  7.2408584E-04;  1.0000000E+04;  0.0000000E+00;  9.9905342E+03;-0.64662176;0.0;0.13828583;4654.8218
  5.7962662E-01;  9.9999998E-03;  2.4007632E-01;1955;-0.16472462;0.0;0.030878816;1002.0027;  4.0022212E-01;1659.1908;3;-47.144272;0.0;6.8843069;0;-0.52390766;  1.0038310E+04;  0.0000000E+00;  1.7243748E-03;  1.0000000E+04;  0.0000000E+00;  9.9906191E+03;-0.65884793;0.0;0.13494024;4620.126
  5.7961816E-01;  9.9999998E-03;  2.6008359E-01;1956;-0.16501623;0.0;0.033468392;1002.1388;  4.0022209E-01;1771.9763;3;-51.761723;0.0;8.0001125;0;-0.55002761;  1.0039672E+04;  0.0000000E+00;  2.8148373E-03;  1.0000000E+04;  0.0000000E+00;  9.9919697E+03;-0.67109239;0.0;0.1210648;3971.6101
  5.7961041E-01;  9.9999998E-03;  2.8010178E-01;1957;-0.16466908;0.0;0.038579278;1002.2272;  4.0022200E-01;1845.1584;3;-59.68763;0.0;9.955719;0;-0.55755019;  1.0040996E+04;  0.0000000E+00;  2.7096388E-03;  1.0000000E+04;  0.0000000E+00;  9.9924072E+03;-0.68322361;0.0;0.1256734;3752.4978
  5.7960290E-01;  9.9999998E-03;  3.0012351E-01;1958;-0.16410138;0.0;0.042141203;1002.1956;  4.0022191E-01;1818.9867;3;-70.465034;0.0;13.194409;0;-0.57444352;  1.0042213E+04;  0.0000000E+00;  5.4142281E-04;  1.0000000E+04;  0.0000000E+00;  9.9905576E+03;-0.69472742;0.0;0.1202839;4681.481
  5.9962875E-01;  9.9999998E-03;  1.6007444E-01;1982;-0.17090498;0.0;0.029173341;1002.429;  4.0057522E-01;2012.3524;3;-49.411545;0.0;3.9209726;0;-0.38980144;  1.0030035E+04;  0.0000000E+00; -4.9801136E-05;  1.0000000E+04;  0.0000000E+00;  9.9897676E+03;-0.54533261;0.0;0.15553117;4990.2095
  5.9961772E-01;  9.9999998E-03;  1.8008220E-01;1983;-0.1736102;0.0;0.031796232;1002.4477;  4.0057498E-01;2027.8579;3;-48.391525;0.0;4.6388435;0;-0.39841226;  1.0030903E+04;  0.0000000E+00; -3.8123046E-05;  1.0000000E+04;  0.0000000E+00;  9.9892881E+03;-0.55236632;0.0;0.15395406;5232.1128
  5.9960657E-01;  9.9999998E-03;  2.0008919E-01;1984;-0.17602476;0.0;0.033983972;1002.4585;  4.0057498E-01;2036.7465;3;-47.569984;0.0;5.2812142;0;-0.40302032;  1.0031865E+04;  0.0000000E+00;  2.8627252E-04;  1.0000000E+04;  0.0000000E+00;  9.9885469E+03;-0.55995882;0.0;0.15693851;5597.3906
  5.9959543E-01;  9.9999998E-03;  2.2009508E-01;1985;-0.17802775;0.0;0.035780337;1002.4766;  4.0057504E-01;2051.7581;3;-47.615017;0.0;6.0713253;0;-0.4071148;  1.0032872E+04;  0.0000000E+00;  1.2468338E-03;  1.0000000E+04;  0.0000000E+00;  9.9879092E+03;-0.56739402;0.0;0.1602792;5910.2676
  5.9958422E-01;  9.9999998E-03;  2.4010012E-01;1986;-0.17942452;0.0;0.0372748;1002.5405;  4.0057486E-01;2104.6938;3;-49.467079;0.0;7.0376801;0;-0.41991377;  1.0033883E+04;  0.0000000E+00;  2.9667339E-03;  1.0000000E+04;  0.0000000E+00;  9.9881768E+03;-0.57435411;0.0;0.15444033;5786.334
  5.9957284E-01;  9.9999998E-03;  2.6010925E-01;1987;-0.1800569;0.0;0.040586777;1002.6823;  4.0057459E-01;2222.1206;3;-54.451817;0.0;8.7162085;0;-0.44259137;  1.0034892E+04;  0.0000000E+00;  4.7181067E-03;  1.0000000E+04;  0.0000000E+00;  9.9899932E+03;-0.58112448;0.0;0.1385331;4909.2393
  5.9956032E-01;  9.9999998E-03;  2.8012991E-01;1988;-0.18081141;0.0;0.046104416;1002.78;  4.0057451E-01;2303.1045;3;-63.619267;0.0;10.796821;0;-0.44758135;  1.0035885E+04;  0.0000000E+00;  4.3842993E-03;  1.0000000E+04;  0.0000000E+00;  9.9909434E+03;-0.58805174;0.0;0.14047039;4436.168
  5.9954524E-01;  9.9999998E-03;  3.0015391E-01;1989;-0.18205826;0.0;0.049832318;1002.7518;  4.0057421E-01;2279.7971;3;-76.195351;0.0;14.221521;0;-0.46441182;  1.0036819E+04;  0.0000000E+00;  1.0526810E-03;  1.0000000E+04;  0.0000000E+00;  9.9894531E+03;-0.59497589;0.0;0.13056406;5191.1421
  6.1959499E-01;  9.9999998E-03;  1.6009460E-01;2013;-0.1831754;0.0;0.035548225;1003.9463;  4.0138391E-01;3269.3616;3;-51.61639;0.0;3.4148233;0;-0.22951506;  1.0023063E+04;  0.0000000E+00; -1.8526905E-04;  1.0000000E+04;  0.0000000E+00;  9.9867139E+03;-0.41452846;0.0;0.1850134;6439.7314
  6.1958271E-01;  9.9999998E-03;  1.8010414E-01;2014;-0.18607992;0.0;0.038420644;1003.9402;  4.0138361E-01;3264.325;3;-50.46907;0.0;4.1664181;0;-0.23441258;  1.0023592E+04;  0.0000000E+00; -1.4297165E-04;  1.0000000E+04;  0.0000000E+00;  9.9860703E+03;-0.41645733;0.0;0.18204474;6762.2607
  6.1957014E-01;  9.9999998E-03;  2.0011321E-01;2015;-0.18875852;0.0;0.040990762;1003.9227;  4.0138352E-01;3249.8071;3;-49.564678;0.0;4.8768702;0;-0.23346622;  1.0024108E+04;  0.0000000E+00;  4.3679410E-04;  1.0000000E+04;  0.0000000E+00;  9.9852207E+03;-0.41731283;0.0;0.18384661;7180.9858
  6.1955768E-01;  9.9999998E-03;  2.2012223E-01;2016;-0.19093326;0.0;0.043323804;1003.9138;  4.0138340E-01;3242.4001;3;-49.580647;0.0;5.7458706;0;-0.23087969;  1.0024565E+04;  0.0000000E+00;  2.0329996E-03;  1.0000000E+04;  0.0000000E+00;  9.9846006E+03;-0.41641521;0.0;0.18553552;7485.3125
  6.1954457E-01;  9.9999998E-03;  2.4013148E-01;2017;-0.19277932;0.0;0.045490708;1003.9541;  4.0138310E-01;3275.781;3;-51.655437;0.0;6.9768944;0;-0.23674205;  1.0024957E+04;  0.0000000E+00;  4.7384887E-03;  1.0000000E+04;  0.0000000E+00;  9.9850146E+03;-0.41403612;0.0;0.17729408;7288.7295
  6.1953074E-01;  9.9999998E-03;  2.6014617E-01;2018;-0.19401492;0.0;0.049636856;1004.0629;  4.0138277E-01;3365.9492;3;-56.934517;0.0;9.4696589;0;-0.25120622;  1.0025336E+04;  0.0000000E+00;  7.2906604E-03;  1.0000000E+04;  0.0000000E+00;  9.9868047E+03;-0.41118971;0.0;0.15998347;6420.8247
  6.1951518E-01;  9.9999998E-03;  2.8017116E-01;2019;-0.19492428;0.0;0.056440361;1004.117;  4.0138230E-01;3410.7864;3;-66.808861;0.0;12.31849;0;-0.23718427;  1.0025727E+04;  0.0000000E+00;  6.6031087E-03;  1.0000000E+04;  0.0000000E+00;  9.9874922E+03;-0.40878624;0.0;0.17160197;6060.6675
  6.1949408E-01;  9.9999998E-03;  3.0019575E-01;2020;-0.19776899;0.0;0.060118224;1004.0875;  4.0138176E-01;3386.2939;3;-81.144989;0.0;15.916309;0;-0.24838807;  1.0026109E+04;  0.0000000E+00;  1.7736219E-03;  1.0000000E+04;  0.0000000E+00;  9.9865498E+03;-0.4070175;0.0;0.15862943;6546.4756
  6.3956594E-01;  9.9999998E-03;  1.6011716E-01;2044;-0.19336127;0.0;0.042333119;1006.8879;  4.0286854E-01;5706.3247;3;-53.265751;0.0;2.6189082;0;0.020706624;  1.0011481E+04;  0.0000000E+00; -3.4131182E-04;  1.0000000E+04;  0.0000000E+00;  9.9830371E+03;-0.19938913;0.0;0.22009575;8172.144
  6.3955271E-01;  9.9999998E-03;  1.8012922E-01;2045;-0.19639328;0.0;0.045563776;1006.8495;  4.0286839E-01;5674.5244;3;-52.025696;0.0;3.4129634;0;0.020004049;  1.0011527E+04;  0.0000000E+00; -2.1999721E-04;  1.0000000E+04;  0.0000000E+00;  9.9822432E+03;-0.19403045;0.0;0.2140345;8572.3789
  6.3953853E-01;  9.9999998E-03;  2.0014116E-01;2046;-0.19940236;0.0;0.048707865;1006.7974;  4.0286800E-01;5631.2676;3;-51.076633;0.0;4.3215818;0;0.026995793;  1.0011423E+04;  0.0000000E+00;  7.0746610E-04;  1.0000000E+04;  0.0000000E+00;  9.9813340E+03;-0.18546127;0.0;0.21245706;9020.7705
  6.3952440E-01;  9.9999998E-03;  2.2015546E-01;2047;-0.20197842;0.0;0.052017599;1006.7548;  4.0286776E-01;5596.0107;3;-51.142967;0.0;5.4833322;0;0.036735624;  1.0011135E+04;  0.0000000E+00;  3.0412124E-03;  1.0000000E+04;  0.0000000E+00;  9.9807900E+03;-0.17337175;0.0;0.21010737;9289.083
  6.3951057E-01;  9.9999998E-03;  2.4017558E-01;2048;-0.20398092;0.0;0.056435455;1006.7437;  4.0286735E-01;5586.8257;3;-53.35722;0.0;7.3985023;0;0.043374717;  1.0010725E+04;  0.0000000E+00;  6.7318832E-03;  1.0000000E+04;  0.0000000E+00;  9.9809902E+03;-0.15878858;0.0;0.20216329;9194.1777
  6.3949633E-01;  9.9999998E-03;  2.6020202E-01;2049;-0.20536427;0.0;0.062543325;1006.7421;  4.0286690E-01;5585.542;3;-58.974079;0.0;10.749146;0;0.052675158;  1.0010277E+04;  0.0000000E+00;  9.9015720E-03;  1.0000000E+04;  0.0000000E+00;  9.9814102E+03;-0.14343072;0.0;0.19610588;8986.7607
  6.3947910E-01;  9.9999998E-03;  2.8022850E-01;2050;-0.2062491;0.0;0.069863565;1006.7114;  4.0286633E-01;5560.1606;3;-69.198769;0.0;14.791068;0;0.091826484;  1.0009856E+04;  0.0000000E+00;  8.5944887E-03;  1.0000000E+04;  0.0000000E+00;  9.9812324E+03;-0.12865248;0.0;0.22047897;9032.9541
  6.3945591E-01;  9.9999998E-03;  3.0025175E-01;2051;-0.20917803;0.0;0.073421821;1006.6593;  4.0286544E-01;5516.9043;3;-84.710175;0.0;18.022518;0;0.10072196;  1.0009469E+04;  0.0000000E+00;  2.3978024E-03;  1.0000000E+04;  0.0000000E+00;  9.9806279E+03;-0.11489551;0.0;0.21561746;9334.2949
  6.5954471E-01;  9.9999998E-03;  1.6014397E-01;2075;-0.20078111;0.0;0.049924053;1010.5289;  4.0474069E-01;8722.6406;3;-54.494797;0.0;1.3667715;0;0.37032166;  9.9950459E+03;  0.0000000E+00; -4.1840514E-04;  1.0000000E+04;  0.0000000E+00;  9.9789648E+03;0.11176211;0.0;0.25855955;10078.407
  6.5953106E-01;  9.9999998E-03;  1.8015975E-01;2076;-0.20382972;0.0;0.053832062;1010.4573;  4.0474036E-01;8663.2871;3;-53.133713;0.0;2.2845497;0;0.37218451;  9.9945176E+03;  0.0000000E+00; -1.6360549E-04;  1.0000000E+04;  0.0000000E+00;  9.9780957E+03;0.125543;0.0;0.24664152;10520.651
  6.5951663E-01;  9.9999998E-03;  2.0017791E-01;2077;-0.20680335;0.0;0.058171578;1010.371;  4.0474039E-01;8591.7861;3;-52.12336;0.0;3.5478954;0;0.38332328;  9.9937080E+03;  0.0000000E+00;  1.1057832E-03;  1.0000000E+04;  0.0000000E+00;  9.9772021E+03;0.14439914;0.0;0.23892415;10963.97
  6.5950257E-01;  9.9999998E-03;  2.2020362E-01;2078;-0.20925723;0.0;0.064072102;1010.2863;  4.0474015E-01;8521.667;3;-52.103909;0.0;5.4181123;0;0.40040982;  9.9926318E+03;  0.0000000E+00;  3.9928760E-03;  1.0000000E+04;  0.0000000E+00;  9.9766104E+03;0.1681073;0.0;0.2323025;11258.34
  6.5948999E-01;  9.9999998E-03;  2.4024019E-01;2079;-0.21083136;0.0;0.072048828;1010.1848;  4.0473998E-01;8437.5254;3;-54.263626;0.0;8.5861645;0;0.42666355;  9.9913721E+03;  0.0000000E+00;  8.1967004E-03;  1.0000000E+04;  0.0000000E+00;  9.9758555E+03;0.19506954;0.0;0.23159401;11622.479
  6.5947604E-01;  9.9999998E-03;  2.6027581E-01;2080;-0.21230127;0.0;0.078748524;1010.0282;  4.0473992E-01;8307.8564;3;-59.901882;0.0;13.016105;0;0.46289277;  9.9900498E+03;  0.0000000E+00;  1.1300720E-02;  1.0000000E+04;  0.0000000E+00;  9.9740713E+03;0.2232084;0.0;0.23968436;12489.043
  6.5945745E-01;  9.9999998E-03;  2.8029567E-01;2081;-0.21294296;0.0;0.085522242;1009.9363;  4.0473962E-01;8231.7129;3;-70.0541;0.0;18.965483;0;0.52713311;  9.9887539E+03;  0.0000000E+00;  9.0142563E-03;  1.0000000E+04;  0.0000000E+00;  9.9735557E+03;0.25096783;0.0;0.27616525;12677.072
  6.5943515E-01;  9.9999998E-03;  3.0031717E-01;2082;-0.21503711;0.0;0.089060254;1009.8348;  4.0473866E-01;8147.6699;3;-85.86956;0.0;20.05962;0;0.57078165;  9.9875215E+03;  0.0000000E+00;  2.1467987E-03;  1.0000000E+04;  0.0000000E+00;  9.9728223E+03;0.27752334;0.0;0.29325831;13016.052
  6.7953658E-01;  9.9999998E-03;  1.6017973E-01;2106;-0.20356941;0.0;0.061314084;1013.0428;  4.0623984E-01;10805.098;3;-54.953049;0.0;0.29311481;0;0.80291677;  9.9748838E+03;  0.0000000E+00; -3.4202309E-04;  1.0000000E+04;  0.0000000E+00;  9.9748545E+03;0.50619125;0.0;0.29672554;11988.061
  6.7952317E-01;  9.9999998E-03;  1.8020065E-01;2107;-0.20653205;0.0;0.066229887;1012.946;  4.0623999E-01;10724.907;3;-53.614727;0.0;1.467042;0;0.80344814;  9.9737832E+03;  0.0000000E+00;  4.5958681E-05;  1.0000000E+04;  0.0000000E+00;  9.9740391E+03;0.52763188;0.0;0.27581626;12409.28
  6.7950922E-01;  9.9999998E-03;  2.0022681E-01;2108;-0.20930226;0.0;0.072402999;1012.8336;  4.0624025E-01;10631.78;3;-52.496025;0.0;2.9952383;0;0.8148911;  9.9723398E+03;  0.0000000E+00;  1.4654340E-03;  1.0000000E+04;  0.0000000E+00;  9.9732637E+03;0.5548538;0.0;0.2600373;12805.026
  6.7949694E-01;  9.9999998E-03;  2.2026548E-01;2109;-0.21116664;0.0;0.081147015;1012.7082;  4.0624034E-01;10527.888;3;-52.414295;0.0;5.6269073;0;0.83796376;  9.9705938E+03;  0.0000000E+00;  4.3722433E-03;  1.0000000E+04;  0.0000000E+00;  9.9725244E+03;0.58721793;0.0;0.25074583;13170.58
  6.7948723E-01;  9.9999998E-03;  2.4031451E-01;2110;-0.21210837;0.0;0.091302536;1012.5167;  4.0624085E-01;10369.284;3;-54.30228;0.0;10.151586;0;0.88382137;  9.9686445E+03;  0.0000000E+00;  8.1999777E-03;  1.0000000E+04;  0.0000000E+00;  9.9706768E+03;0.62307578;0.0;0.26074558;14062.884
  6.7947423E-01;  9.9999998E-03;  2.6034746E-01;2111;-0.21397372;0.0;0.094738409;1012.267;  4.0624145E-01;10162.389;3;-59.81152;0.0;15.986479;0;0.92707455;  9.9666045E+03;  0.0000000E+00;  1.0303907E-02;  1.0000000E+04;  0.0000000E+00;  9.9677520E+03;0.66052222;0.0;0.2665523;15492.494
  6.7945570E-01;  9.9999998E-03;  2.8035754E-01;2112;-0.21406277;0.0;0.10027752;1012.1697;  4.0624163E-01;10081.803;3;-69.171982;0.0;24.117147;0;1.0025998;  9.9645703E+03;  0.0000000E+00;  6.9035757E-03;  1.0000000E+04;  0.0000000E+00;  9.9678496E+03;0.69799346;0.0;0.30460638;15367.604
  6.7944193E-01;  9.9999998E-03;  3.0037841E-01;2113;-0.21332097;0.0;0.10471559;1012.0143;  4.0624112E-01;9953.1221;3;-83.577858;0.0;21.317781;0;1.0993249;  9.9626602E+03;  0.0000000E+00;  7.0292508E-04;  1.0000000E+04;  0.0000000E+00;  9.9667090E+03;0.73371041;0.0;0.3656145;15858.866
  6.9955218E-01;  9.9999998E-03;  1.6022553E-01;2137;-0.19843312;0.0;0.079548419;1013.8366;  4.0706280E-01;11462.49;3;-53.751839;0.0;1.2153395;0;1.2673291;  9.9538018E+03;  0.0000000E+00; -1.5613377E-04;  1.0000000E+04;  0.0000000E+00;  9.9711260E+03;0.93717486;0.0;0.33015424;13708.032
  6.9954002E-01;  9.9999998E-03;  1.8025263E-01;2138;-0.20084247;0.0;0.086108185;1013.7265;  4.0706345E-01;11371.241;3;-52.338001;0.0;2.6154747;0;1.2615581;  9.9522217E+03;  0.0000000E+00;  2.6586285E-04;  1.0000000E+04;  0.0000000E+00;  9.9705215E+03;0.96352708;0.0;0.29803091;14039.149
  6.9952786E-01;  9.9999998E-03;  2.0028621E-01;2139;-0.20290934;0.0;0.09406963;1013.6011;  4.0706387E-01;11267.449;3;-51.124237;0.0;4.6957903;0;1.2689642;  9.9503418E+03;  0.0000000E+00;  1.5086461E-03;  1.0000000E+04;  0.0000000E+00;  9.9699219E+03;0.99450886;0.0;0.27445528;14353.385
  6.9951910E-01;  9.9999998E-03;  2.2033206E-01;2140;-0.20387541;0.0;0.10401956;1013.4504;  4.0706447E-01;11142.524;3;-50.918785;0.0;8.2068396;0;1.2957469;  9.9482129E+03;  0.0000000E+00;  3.8235500E-03;  1.0000000E+04;  0.0000000E+00;  9.9690547E+03;1.0292107;0.0;0.26653624;14777.448
  6.9951397E-01;  9.9999998E-03;  2.4038091E-01;2141;-0.20448963;0.0;0.11117934;1013.2161;  4.0706536E-01;10948.471;3;-52.868176;0.0;13.082282;0;1.3492934;  9.9459258E+03;  0.0000000E+00;  6.5627699E-03;  1.0000000E+04;  0.0000000E+00;  9.9666924E+03;1.0664896;0.0;0.2828038;15914.735
  6.9950384E-01;  9.9999998E-03;  2.6040599E-01;2142;-0.2066423;0.0;0.10841984;1012.9427;  4.0706626E-01;10722.026;3;-58.300255;0.0;17.426401;0;1.3802903;  9.9435645E+03;  0.0000000E+00;  7.3972908E-03;  1.0000000E+04;  0.0000000E+00;  9.9636221E+03;1.1050513;0.0;0.27523899;17433.637
  6.9949800E-01;  9.9999998E-03;  2.8040546E-01;2143;-0.20174511;0.0;0.11161955;1012.9091;  4.0706673E-01;10694.178;3;-65.307114;0.0;27.106482;0;1.44067;  9.9412314E+03;  0.0000000E+00;  4.3649413E-03;  1.0000000E+04;  0.0000000E+00;  9.9652578E+03;1.1432526;0.0;0.2974174;16557.84
  6.9952238E-01;  9.9999998E-03;  3.0042478E-01;2144;-0.18398006;0.0;0.11605016;1012.7689;  4.0706661E-01;10577.942;3;-70.314407;0.0;23.48023;0;1.5492483;  9.9391270E+03;  0.0000000E+00;  1.8432497E-03;  1.0000000E+04;  0.0000000E+00;  9.9645713E+03;1.1779449;0.0;0.37130344;16805.586
  7.1962875E-01;  9.9999998E-03;  1.6027158E-01;2168;-0.17468607;0.0;0.10471791;1013.6699;  4.0742421E-01;11324.123;3;-50.190952;0.0;8.0957346;0;1.6830057;  9.9358018E+03;  0.0000000E+00;  1.1152608E-05;  1.0000000E+04;  0.0000000E+00;  9.9681484E+03;1.3280767;0.0;0.35492894;15079.138
  7.1961683E-01;  9.9999998E-03;  1.8030348E-01;2169;-0.17677963;0.0;0.11227261;1013.5593;  4.0742496E-01;11232.48;3;-48.369686;0.0;9.0614109;0;1.66704;  9.9339043E+03;  0.0000000E+00;  3.3111568E-04;  1.0000000E+04;  0.0000000E+00;  9.9678438E+03;1.3554796;0.0;0.31156036;15271.901
  7.1960586E-01;  9.9999998E-03;  2.0034119E-01;2170;-0.17811374;0.0;0.12067537;1013.4368;  4.0742567E-01;11130.963;3;-46.793854;0.0;10.945548;0;1.6666808;  9.9318389E+03;  0.0000000E+00;  1.1497274E-03;  1.0000000E+04;  0.0000000E+00;  9.9674785E+03;1.3841629;0.0;0.28251785;15474.018
  7.1959931E-01;  9.9999998E-03;  2.2038552E-01;2171;-0.1775775;0.0;0.12615867;1013.2884;  4.0742618E-01;11008.017;3;-46.274899;0.0;12.919921;0;1.6888366;  9.9296973E+03;  0.0000000E+00;  2.6075225E-03;  1.0000000E+04;  0.0000000E+00;  9.9666729E+03;1.4128119;0.0;0.2760247;15865.198
  7.1960163E-01;  9.9999998E-03;  2.4042609E-01;2172;-0.17287096;0.0;0.12583698;1013.0703;  4.0742701E-01;10827.3;3;-46.520283;0.0;15.646581;0;1.7299211;  9.9275547E+03;  0.0000000E+00;  4.3589952E-03;  1.0000000E+04;  0.0000000E+00;  9.9644893E+03;1.4408106;0.0;0.28911057;16916.326
  7.1961325E-01;  9.9999998E-03;  2.6044160E-01;2173;-0.16222523;0.0;0.11877468;1012.8621;  4.0742829E-01;10654.878;3;-46.33976;0.0;19.597883;0;1.7373536;  9.9254502E+03;  0.0000000E+00;  5.5883592E-03;  1.0000000E+04;  0.0000000E+00;  9.9624414E+03;1.4677833;0.0;0.26957026;17942.164
  7.1963608E-01;  9.9999998E-03;  2.8043836E-01;2174;-0.14516553;0.0;0.12160386;1012.9014;  4.0742856E-01;10687.467;3;-46.039955;0.0;28.35408;0;1.7907706;  9.9234805E+03;  0.0000000E+00;  5.6084874E-03;  1.0000000E+04;  0.0000000E+00;  9.9651436E+03;1.4924674;0.0;0.29830322;16530.172
  7.1966892E-01;  9.9999998E-03;  3.0045947E-01;2175;-0.12475399;0.0;0.12498195;1012.7709;  4.0742832E-01;10579.332;3;-46.116215;0.0;23.565987;0;1.8767936;  9.9218018E+03;  0.0000000E+00;  3.5699666E-03;  1.0000000E+04;  0.0000000E+00;  9.9642344E+03;1.5123638;0.0;0.36442977;16908.32
  7.3976135E-01;  9.9999998E-03;  1.6028865E-01;2199;-0.11435214;0.0;0.11054451;1013.3425;  4.0756708E-01;11052.442;3;-33.732853;0.0;7.8817558;0;1.966769;  9.9244609E+03;  0.0000000E+00;  8.3770683E-05;  1.0000000E+04;  0.0000000E+00;  9.9660928E+03;1.5974373;0.0;0.36933178;16025.903
  7.3975354E-01;  9.9999998E-03;  1.8032081E-01;2200;-0.11535491;0.0;0.11753049;1013.2426;  4.0756759E-01;10969.69;3;-32.085304;0.0;8.5014496;0;1.9382818;  9.9224336E+03;  0.0000000E+00;  2.4392837E-04;  1.0000000E+04;  0.0000000E+00;  9.9661240E+03;1.6222796;0.0;0.3160021;16063.112
  7.3974687E-01;  9.9999998E-03;  2.0035733E-01;2201;-0.11552064;0.0;0.12451404;1013.1432;  4.0756842E-01;10887.434;3;-30.512726;0.0;9.8369751;0;1.9217257;  9.9204326E+03;  0.0000000E+00;  6.3371751E-04;  1.0000000E+04;  0.0000000E+00;  9.9661504E+03;1.643548;0.0;0.27817777;16082.654
  7.3974407E-01;  9.9999998E-03;  2.2039941E-01;2202;-0.11357173;0.0;0.12831518;1013.0367;  4.0756911E-01;10799.152;3;-29.180637;0.0;11.283867;0;1.9214275;  9.9185840E+03;  0.0000000E+00;  1.3808585E-03;  1.0000000E+04;  0.0000000E+00;  9.9658857E+03;1.6594138;0.0;0.26201364;16218.543
  7.3974830E-01;  9.9999998E-03;  2.4043722E-01;2203;-0.10821003;0.0;0.12708271;1012.8947;  4.0756989E-01;10681.542;3;-28.179426;0.0;14.430394;0;1.929791;  9.9169668E+03;  0.0000000E+00;  2.4665857E-03;  1.0000000E+04;  0.0000000E+00;  9.9646777E+03;1.6695497;0.0;0.26024121;16806.104
  7.3975945E-01;  9.9999998E-03;  2.6045379E-01;2204;-0.099382743;0.0;0.12199499;1012.7856;  4.0757081E-01;10591.188;3;-27.5616;0.0;20.171431;0;1.9079325;  9.9155820E+03;  0.0000000E+00;  3.5755509E-03;  1.0000000E+04;  0.0000000E+00;  9.9638730E+03;1.6748397;0.0;0.23309283;17225.293
  7.3977625E-01;  9.9999998E-03;  2.8045788E-01;2205;-0.0878397;0.0;0.12989768;1012.8547;  4.0757087E-01;10648.363;3;-27.35611;0.0;31.829762;0;1.9819498;  9.9144375E+03;  0.0000000E+00;  3.6624488E-03;  1.0000000E+04;  0.0000000E+00;  9.9663604E+03;1.6764107;0.0;0.30553916;15864.605
  7.3979884E-01;  9.9999998E-03;  3.0048493E-01;2206;-0.07463263;0.0;0.1329674;1012.6936;  4.0757057E-01;10514.952;3;-27.552155;0.0;23.033329;0;2.059608;  9.9135225E+03;  0.0000000E+00;  7.8214356E-04;  1.0000000E+04;  0.0000000E+00;  9.9640967E+03;1.6753827;0.0;0.38422528;16908.592
  7.5986719E-01;  9.9999998E-03;  1.6029748E-01;2230;-0.065464981;0.0;0.11199991;1013.2255;  4.0762076E-01;10954.925;3;-20.075495;0.0;6.0713825;0;2.0858827;  9.9207363E+03;  0.0000000E+00;  7.1991672E-05;  1.0000000E+04;  0.0000000E+00;  9.9649229E+03;1.7109951;0.0;0.37488762;16572.109
  7.5986344E-01;  9.9999998E-03;  1.8032856E-01;2231;-0.065336317;0.0;0.11789531;1013.1405;  4.0762138E-01;10884.619;3;-18.748005;0.0;6.3210549;0;2.0468421;  9.9187529E+03;  0.0000000E+00;  1.1439699E-04;  1.0000000E+04;  0.0000000E+00;  9.9652012E+03;1.7309841;0.0;0.31585798;16493.033
  7.5986081E-01;  9.9999998E-03;  2.0036298E-01;2232;-0.064587958;0.0;0.12353925;1013.0661;  4.0762225E-01;10822.904;3;-17.51812;0.0;7.4938974;0;2.0162351;  9.9169805E+03;  0.0000000E+00;  2.2251830E-04;  1.0000000E+04;  0.0000000E+00;  9.9654863E+03;1.7427751;0.0;0.27346009;16390.125
  7.5986075E-01;  9.9999998E-03;  2.2040273E-01;2233;-0.062569126;0.0;0.12653461;1013.0018;  4.0762293E-01;10769.682;3;-16.523123;0.0;9.3236618;0;1.9954765;  9.9155742E+03;  0.0000000E+00;  4.5525763E-04;  1.0000000E+04;  0.0000000E+00;  9.9656113E+03;1.7443453;0.0;0.25113112;16341.931
  7.5986463E-01;  9.9999998E-03;  2.4043910E-01;2234;-0.058781531;0.0;0.12573496;1012.9293;  4.0762347E-01;10709.547;3;-15.860975;0.0;13.28211;0;1.97569;  9.9145898E+03;  0.0000000E+00;  8.2870846E-04;  1.0000000E+04;  0.0000000E+00;  9.9651367E+03;1.7359713;0.0;0.23971871;16579.451
  7.5987226E-01;  9.9999998E-03;  2.6045844E-01;2235;-0.053369001;0.0;0.12319171;1012.9007;  4.0762424E-01;10685.947;3;-15.590785;0.0;20.486572;0;1.9303854;  9.9140049E+03;  0.0000000E+00;  1.1654816E-03;  1.0000000E+04;  0.0000000E+00;  9.9651348E+03;1.720044;0.0;0.21034129;16606.086
  7.5988209E-01;  9.9999998E-03;  2.8047070E-01;2236;-0.047017071;0.0;0.13701339;1012.9778;  4.0762410E-01;10749.834;3;-15.708544;0.0;35.389458;0;2.0379279;  9.9137070E+03;  0.0000000E+00;  7.1310200E-04;  1.0000000E+04;  0.0000000E+00;  9.9669355E+03;1.7000765;0.0;0.33785141;15512.183
  7.5989562E-01;  9.9999998E-03;  3.0050290E-01;2237;-0.039720453;0.0;0.13897343;1012.7962;  4.0762374E-01;10599.348;3;-16.127104;0.0;22.466436;0;2.090724;  9.9135654E+03;  0.0000000E+00; -1.7838094E-03;  1.0000000E+04;  0.0000000E+00;  9.9635068E+03;1.6801865;0.0;0.41053757;17155.699
  7.7994680E-01;  9.9999998E-03;  1.6030091E-01;2261;-0.028834241;0.0;0.11171573;1013.3522;  4.0764019E-01;11059.146;3;-10.244845;0.0;4.5458403;0;2.0753145;  9.9227607E+03;  0.0000000E+00;  3.1834217E-05;  1.0000000E+04;  0.0000000E+00;  9.9644404E+03;1.7001666;0.0;0.37514788;16799.906
  7.7994603E-01;  9.9999998E-03;  1.8033081E-01;2262;-0.028190091;0.0;0.1167748;1013.2805;  4.0764090E-01;10999.805;3;-9.4531612;0.0;4.6014948;0;2.0303204;  9.9209219E+03;  0.0000000E+00;  2.8377883E-05;  1.0000000E+04;  0.0000000E+00;  9.9648418E+03;1.7153808;0.0;0.31493959;16663.4
  7.7994603E-01;  9.9999998E-03;  2.0036373E-01;2263;-0.027228324;0.0;0.12170464;1013.2247;  4.0764156E-01;10953.596;3;-8.789649;0.0;5.6842885;0;1.9919947;  9.9194287E+03;  0.0000000E+00;  2.8790997E-05;  1.0000000E+04;  0.0000000E+00;  9.9652109E+03;1.7192618;0.0;0.27273297;16518.043
  7.7994740E-01;  9.9999998E-03;  2.2040251E-01;2264;-0.025729157;0.0;0.1248824;1013.1883;  4.0764219E-01;10923.382;3;-8.3383274;0.0;8.3423405;0;1.9601121;  9.9184316E+03;  0.0000000E+00;  4.2096472E-05;  1.0000000E+04;  0.0000000E+00;  9.9654697E+03;1.7099322;0.0;0.25017983;16405.797
  7.7995032E-01;  9.9999998E-03;  2.4043874E-01;2265;-0.023686679;0.0;0.12482136;1013.1577;  4.0764269E-01;10898.105;3;-8.1679392;0.0;12.989625;0;1.9250683;  9.9179824E+03;  0.0000000E+00;  6.0568498E-05;  1.0000000E+04;  0.0000000E+00;  9.9652939E+03;1.6883106;0.0;0.23675759;16497.99
  7.7995431E-01;  9.9999998E-03;  2.6046070E-01;2266;-0.02137229;0.0;0.12423839;1013.1743;  4.0764335E-01;10911.83;3;-8.3130198;0.0;21.211222;0;1.867919;  9.9180049E+03;  0.0000000E+00; -2.9402092E-06;  1.0000000E+04;  0.0000000E+00;  9.9655684E+03;1.6578434;0.0;0.21007568;16386.994
  7.7995825E-01;  9.9999998E-03;  2.8047904E-01;2267;-0.019142352;0.0;0.1420006;1013.2454;  4.0764326E-01;10970.677;3;-8.7399473;0.0;37.534611;0;1.9998269;  9.9183457E+03;  0.0000000E+00; -4.2844855E-04;  1.0000000E+04;  0.0000000E+00;  9.9666172E+03;1.6233968;0.0;0.37643015;15617.133
  7.7996391E-01;  9.9999998E-03;  3.0051446E-01;2268;-0.016535899;0.0;0.14298831;1013.0576;  4.0764275E-01;10815.166;3;-9.3349123;0.0;21.94331;0;2.0282495;  9.9188008E+03;  0.0000000E+00; -1.5917877E-03;  1.0000000E+04;  0.0000000E+00;  9.9624688E+03;1.5904536;0.0;0.43779597;17640.113
  8.0001169E-01;  9.9999998E-03;  1.6030030E-01;2292;0.0014469745;0.0;0.11049897;1013.6195;  4.0764579E-01;11279.589;3;-1.9993129;0.0;3.6128173;0;1.9948235;  9.9277109E+03;  0.0000000E+00;  4.1934359E-06;  1.0000000E+04;  0.0000000E+00;  9.9644414E+03;1.6214043;0.0;0.37341914;16796.324
  8.0001318E-01;  9.9999998E-03;  1.8032937E-01;2293;0.0023185962;0.0;0.11515392;1013.5555;  4.0764651E-01;11226.572;3;-1.7605603;0.0;3.6772177;0;1.949522;  9.9260244E+03;  0.0000000E+00; -5.1350462E-08;  1.0000000E+04;  0.0000000E+00;  9.9648418E+03;1.6341127;0.0;0.31540933;16656.865
  8.0001509E-01;  9.9999998E-03;  2.0036159E-01;2294;0.003200836;0.0;0.1199775;1013.5081;  4.0764716E-01;11187.277;3;-1.657156;0.0;4.8933506;0;1.9106829;  9.9247422E+03;  0.0000000E+00; -6.3673965E-06;  1.0000000E+04;  0.0000000E+00;  9.9651650E+03;1.6341825;0.0;0.27650049;16532.756
  8.0001712E-01;  9.9999998E-03;  2.2040114E-01;2295;0.0039832457;0.0;0.12418763;1013.4817;  4.0764782E-01;11165.458;3;-1.7143019;0.0;7.9083109;0;1.8778892;  9.9240195E+03;  0.0000000E+00; -1.7898912E-05;  1.0000000E+04;  0.0000000E+00;  9.9653418E+03;1.6198807;0.0;0.25800848;16455.041
  8.0001879E-01;  9.9999998E-03;  2.4043837E-01;2296;0.0043666107;0.0;0.12500115;1013.4633;  4.0764821E-01;11150.155;3;-1.9537143;0.0;13.320142;0;1.8408728;  9.9238867E+03;  0.0000000E+00; -4.5485554E-05;  1.0000000E+04;  0.0000000E+00;  9.9650977E+03;1.5925016;0.0;0.24837108;16579.031
  8.0001926E-01;  9.9999998E-03;  2.6046214E-01;2297;0.004022629;0.0;0.12566666;1013.4899;  4.0764877E-01;11172.271;3;-2.3754623;0.0;22.648277;0;1.7834905;  9.9242471E+03;  0.0000000E+00; -1.0873427E-04;  1.0000000E+04;  0.0000000E+00;  9.9652324E+03;1.555934;0.0;0.22755654;16530.42
  8.0001861E-01;  9.9999998E-03;  2.8048348E-01;2298;0.0030332548;0.0;0.14479986;1013.5497;  4.0764880E-01;11221.733;3;-2.9328809;0.0;38.363049;0;1.9261943;  9.9249326E+03;  0.0000000E+00; -2.2222994E-04;  1.0000000E+04;  0.0000000E+00;  9.9657148E+03;1.5153738;0.0;0.41082051;16020.362
  8.0001748E-01;  9.9999998E-03;  3.0052021E-01;2299;0.0018324573;0.0;0.14510897;1013.3664;  4.0764832E-01;11069.89;3;-3.532903;0.0;21.622459;0;1.9358265;  9.9257266E+03;  0.0000000E+00; -3.6458267E-04;  1.0000000E+04;  0.0000000E+00;  9.9613213E+03;1.4763159;0.0;0.45951074;18185.932
  8.2007307E-01;  9.9999998E-03;  1.6029656E-01;2323;0.030737281;0.0;0.10875536;1013.9075;  4.0763590E-01;11516.704;3;6.4579334;0.0;3.3346276;0;1.8898499;  9.9334814E+03;  0.0000000E+00; -2.9987170E-06;  1.0000000E+04;  0.0000000E+00;  9.9647813E+03;1.5183645;0.0;0.37148538;16620.785
  8.2007664E-01;  9.9999998E-03;  1.8032517E-01;2324;0.03188429;0.0;0.11340934;1013.8444;  4.0763667E-01;11464.384;3;6.2903757;0.0;3.5616553;0;1.8493195;  9.9318838E+03;  0.0000000E+00;  5.1584530E-06;  1.0000000E+04;  0.0000000E+00;  9.9651045E+03;1.5318587;0.0;0.31746072;16514.307
  8.2008022E-01;  9.9999998E-03;  2.0035729E-01;2325;0.032807451;0.0;0.11850176;1013.7952;  4.0763724E-01;11423.614;3;6.0253229;0.0;5.0468731;0;1.8160638;  9.9306973E+03;  0.0000000E+00;  2.7902559E-05;  1.0000000E+04;  0.0000000E+00;  9.9653008E+03;1.5330185;0.0;0.28304532;16446.393
  8.2008284E-01;  9.9999998E-03;  2.2039883E-01;2326;0.033073504;0.0;0.12428501;1013.7634;  4.0763780E-01;11397.257;3;5.6826854;0.0;8.4849586;0;1.7901947;  9.9300605E+03;  0.0000000E+00;  6.9439171E-05;  1.0000000E+04;  0.0000000E+00;  9.9652813E+03;1.5199724;0.0;0.27022225;16458.996
  8.2008326E-01;  9.9999998E-03;  2.4043785E-01;2327;0.032063056;0.0;0.12607008;1013.733;  4.0763843E-01;11372.184;3;5.2801061;0.0;14.336691;0;1.7618055;  9.9300068E+03;  0.0000000E+00;  1.1939029E-04;  1.0000000E+04;  0.0000000E+00;  9.9647256E+03;1.4939806;0.0;0.26782495;16729.293
  8.2008082E-01;  9.9999998E-03;  2.6046261E-01;2328;0.029534722;0.0;0.12688085;1013.7413;  4.0763891E-01;11378.995;3;4.8395624;0.0;23.475454;0;1.7118855;  9.9304287E+03;  0.0000000E+00;  1.5591556E-04;  1.0000000E+04;  0.0000000E+00;  9.9644385E+03;1.4588666;0.0;0.25301892;16881.416
  8.2007670E-01;  9.9999998E-03;  2.8048384E-01;2329;0.025979174;0.0;0.14540304;1013.7927;  4.0763882E-01;11421.641;3;4.3983989;0.0;38.314377;0;1.8517685;  9.9311709E+03;  0.0000000E+00;  1.5057047E-04;  1.0000000E+04;  0.0000000E+00;  9.9646992E+03;1.4195577;0.0;0.43221077;16489.26
  8.2006943E-01;  9.9999998E-03;  3.0052033E-01;2330;0.021382103;0.0;0.14547308;1013.618;  4.0763840E-01;11276.923;3;4.0036769;0.0;21.560246;0;1.8523698;  9.9320391E+03;  0.0000000E+00;  9.7956508E-05;  1.0000000E+04;  0.0000000E+00;  9.9603965E+03;1.3809199;0.0;0.47144985;18618.643
  8.4013623E-01;  9.9999998E-03;  1.6029006E-01;2354;0.061360609;0.0;0.1065229;1013.9323;  4.0751189E-01;11535.228;3;15.768638;0.0;3.572233;0;1.7746129;  9.9393887E+03;  0.0000000E+00;  1.7351093E-06;  1.0000000E+04;  0.0000000E+00;  9.9653994E+03;1.4051471;0.0;0.36946577;16298.073
  8.4014195E-01;  9.9999998E-03;  1.8031834E-01;2355;0.063022688;0.0;0.1113849;1013.8636;  4.0751258E-01;11478.376;3;15.414879;0.0;4.0225263;0;1.7423148;  9.9377988E+03;  0.0000000E+00;  2.3263383E-05;  1.0000000E+04;  0.0000000E+00;  9.9656182E+03;1.4224592;0.0;0.31985563;16238.63
  8.4014750E-01;  9.9999998E-03;  2.0035037E-01;2356;0.064333282;0.0;0.11686041;1013.8052;  4.0751311E-01;11430.111;3;15.042995;0.0;5.7557082;0;1.7186043;  9.9365635E+03;  0.0000000E+00;  9.0204929E-05;  1.0000000E+04;  0.0000000E+00;  9.9656768E+03;1.4289571;0.0;0.28964716;16233.247
  8.4015113E-01;  9.9999998E-03;  2.2039293E-01;2357;0.06451939;0.0;0.1237066;1013.7592;  4.0751368E-01;11392.014;3;14.698109;0.0;9.438839;0;1.7036194;  9.9358408E+03;  0.0000000E+00;  2.2868984E-04;  1.0000000E+04;  0.0000000E+00;  9.9654736E+03;1.4223336;0.0;0.28128576;16330.684
  8.4015054E-01;  9.9999998E-03;  2.4043302E-01;2358;0.062452819;0.0;0.12616093;1013.7086;  4.0751421E-01;11350.066;3;14.41186;0.0;15.291481;0;1.6876543;  9.9356553E+03;  0.0000000E+00;  4.2286541E-04;  1.0000000E+04;  0.0000000E+00;  9.9646387E+03;1.4033527;0.0;0.28430158;16727.729
  8.4014577E-01;  9.9999998E-03;  2.6045772E-01;2359;0.058182385;0.0;0.12652028;1013.6951;  4.0751478E-01;11338.913;3;14.202582;0.0;23.686403;0;1.6464499;  9.9359199E+03;  0.0000000E+00;  5.8350782E-04;  1.0000000E+04;  0.0000000E+00;  9.9640830E+03;1.3753632;0.0;0.27108669;17010.484
  8.4013891E-01;  9.9999998E-03;  2.8047797E-01;2360;0.052354258;0.0;0.1437753;1013.7397;  4.0751487E-01;11375.827;3;14.078957;0.0;37.598381;0;1.778307;  9.9364922E+03;  0.0000000E+00;  5.0913071E-04;  1.0000000E+04;  0.0000000E+00;  9.9643770E+03;1.3427551;0.0;0.43555188;16623.99
  8.4012622E-01;  9.9999998E-03;  3.0051357E-01;2361;0.044543058;0.0;0.14393698;1013.5732;  4.0751442E-01;11237.945;3;14.042409;0.0;21.58322;0;1.7774037;  9.9372139E+03;  0.0000000E+00; -5.7231046E-06;  1.0000000E+04;  0.0000000E+00;  9.9603799E+03;1.309695;0.0;0.46770868;18603.938
  8.6020017E-01;  9.9999998E-03;  1.6028084E-01;2385;0.092658371;0.0;0.10360853;1013.7036;  4.0726814E-01;11343.385;3;25.594015;0.0;4.0843306;0;1.6374983;  9.9459248E+03;  0.0000000E+00;  7.2347684E-06;  1.0000000E+04;  0.0000000E+00;  9.9662959E+03;1.2710959;0.0;0.36640242;15829.547
  8.6020827E-01;  9.9999998E-03;  1.8030865E-01;2386;0.095085345;0.0;0.10871137;1013.6266;  4.0726882E-01;11279.638;3;25.253607;0.0;4.7453461;0;1.6150267;  9.9442656E+03;  0.0000000E+00;  4.3893855E-05;  1.0000000E+04;  0.0000000E+00;  9.9664131E+03;1.2941582;0.0;0.32086849;15814.412
  8.6021602E-01;  9.9999998E-03;  2.0034027E-01;2387;0.09712743;0.0;0.11448964;1013.5543;  4.0726942E-01;11219.74;3;24.997314;0.0;6.6469126;0;1.6027329;  9.9428730E+03;  0.0000000E+00;  1.7408068E-04;  1.0000000E+04;  0.0000000E+00;  9.9663555E+03;1.3088301;0.0;0.29390281;15860.51
  8.6022127E-01;  9.9999998E-03;  2.2038254E-01;2388;0.097668305;0.0;0.12182728;1013.4896;  4.0726984E-01;11166.255;3;24.872459;0.0;10.39163;0;1.6003741;  9.9419121E+03;  0.0000000E+00;  4.6574572E-04;  1.0000000E+04;  0.0000000E+00;  9.9660313E+03;1.3122139;0.0;0.28816023;16015.804
  8.6021996E-01;  9.9999998E-03;  2.4042246E-01;2389;0.0948755;0.0;0.12454534;1013.4168;  4.0727046E-01;11105.963;3;24.89752;0.0;15.999585;0;1.5976465;  9.9414326E+03;  0.0000000E+00;  8.9850853E-04;  1.0000000E+04;  0.0000000E+00;  9.9650557E+03;1.3041755;0.0;0.29347104;16477.059
  8.6021340E-01;  9.9999998E-03;  2.6044655E-01;2390;0.08917433;0.0;0.12449942;1013.3833;  4.0727103E-01;11078.236;3;25.064417;0.0;23.616762;0;1.5664781;  9.9413711E+03;  0.0000000E+00;  1.2759443E-03;  1.0000000E+04;  0.0000000E+00;  9.9644238E+03;1.2871641;0.0;0.27931404;16796.072
  8.6020440E-01;  9.9999998E-03;  2.8046593E-01;2391;0.081267767;0.0;0.14044702;1013.4177;  4.0727106E-01;11106.756;3;25.346832;0.0;36.646011;0;1.6913843;  9.9416191E+03;  0.0000000E+00;  1.1625326E-03;  1.0000000E+04;  0.0000000E+00;  9.9648379E+03;1.264811;0.0;0.42657334;16374.449
  8.6018664E-01;  9.9999998E-03;  3.0050042E-01;2392;0.070286304;0.0;0.1408751;1013.2551;  4.0727067E-01;10972.162;3;25.718687;0.0;21.6735;0;1.6949325;  9.9420449E+03;  0.0000000E+00;  1.8374460E-04;  1.0000000E+04;  0.0000000E+00;  9.9612139E+03;1.2406687;0.0;0.45426384;18168.24
  8.8026083E-01;  9.9999998E-03;  1.6026889E-01;2416;0.12258452;0.0;0.099791773;1013.2994;  4.0691853E-01;11005.545;3;35.241817;0.0;4.6310606;0;1.4595697;  9.9539092E+03;  0.0000000E+00;  2.5628019E-06;  1.0000000E+04;  0.0000000E+00;  9.9674893E+03;1.0984935;0.0;0.36107627;15210.552
  8.8027126E-01;  9.9999998E-03;  1.8029591E-01;2417;0.12590599;0.0;0.10504536;1013.213;  4.0691918E-01;10933.925;3;35.036514;0.0;5.4472384;0;1.4469506;  9.9521426E+03;  0.0000000E+00;  5.4994362E-05;  1.0000000E+04;  0.0000000E+00;  9.9675322E+03;1.1278781;0.0;0.31907251;15228.338
  8.8028139E-01;  9.9999998E-03;  2.0032661E-01;2418;0.12886553;0.0;0.1109568;1013.1248;  4.0691969E-01;10860.924;3;35.016148;0.0;7.4303765;0;1.4464033;  9.9505176E+03;  0.0000000E+00;  2.6422349E-04;  1.0000000E+04;  0.0000000E+00;  9.9673965E+03;1.1520115;0.0;0.29439178;15308.638
  8.8028842E-01;  9.9999998E-03;  2.2036749E-01;2419;0.1299656;0.0;0.11835818;1013.0391;  4.0692019E-01;10790.094;3;35.215977;0.0;11.121777;0;1.4571908;  9.9492070E+03;  0.0000000E+00;  7.5872138E-04;  1.0000000E+04;  0.0000000E+00;  9.9669971E+03;1.1674562;0.0;0.28973466;15492.943
  8.8028681E-01;  9.9999998E-03;  2.4040607E-01;2420;0.12669802;0.0;0.12115915;1012.9443;  4.0692079E-01;10711.669;3;35.622543;0.0;16.452271;0;1.4680893;  9.9483047E+03;  0.0000000E+00;  1.5185006E-03;  1.0000000E+04;  0.0000000E+00;  9.9660156E+03;1.1729094;0.0;0.2951799;15957.15
  8.8027859E-01;  9.9999998E-03;  2.6042947E-01;2421;0.11974309;0.0;0.12101985;1012.8903;  4.0692136E-01;10666.884;3;36.189659;0.0;23.511774;0;1.4491553;  9.9478027E+03;  0.0000000E+00;  2.2215424E-03;  1.0000000E+04;  0.0000000E+00;  9.9654277E+03;1.1694446;0.0;0.27971077;16253.434
  8.8026804E-01;  9.9999998E-03;  2.8044847E-01;2422;0.11003264;0.0;0.13584174;1012.9069;  4.0692142E-01;10680.697;3;36.861214;0.0;35.667881;0;1.5710301;  9.9476123E+03;  0.0000000E+00;  2.1592968E-03;  1.0000000E+04;  0.0000000E+00;  9.9659189E+03;1.1595858;0.0;0.41144434;15815.627
  8.8024586E-01;  9.9999998E-03;  3.0048174E-01;2423;0.096068181;0.0;0.13658477;1012.7443;  4.0692127E-01;10546.146;3;37.602932;0.0;21.914734;0;1.5825107;  9.9476602E+03;  0.0000000E+00;  9.0743596E-04;  1.0000000E+04;  0.0000000E+00;  9.9626621E+03;1.1462665;0.0;0.43624425;17421.258
  9.0031368E-01;  9.9999998E-03;  1.6025431E-01;2447;0.14906953;0.0;0.09496361;1012.7807;  4.0648231E-01;10571.925;3;44.124249;0.0;5.0425386;0;1.2345179;  9.9636240E+03;  0.0000000E+00; -1.5881689E-05;  1.0000000E+04;  0.0000000E+00;  9.9689746E+03;0.88182676;0.0;0.35269114;14444.477
  9.0032625E-01;  9.9999998E-03;  1.8028016E-01;2448;0.15325628;0.0;0.10022181;1012.6865;  4.0648288E-01;10494.021;3;44.084702;0.0;5.9444947;0;1.2303983;  9.9617559E+03;  0.0000000E+00;  4.2545435E-05;  1.0000000E+04;  0.0000000E+00;  9.9689678E+03;0.91665661;0.0;0.31374171;14481.541
  9.0033859E-01;  9.9999998E-03;  2.0030940E-01;2449;0.15711597;0.0;0.10607617;1012.5832;  4.0648335E-01;10408.524;3;44.310574;0.0;7.9360552;0;1.2407171;  9.9598730E+03;  0.0000000E+00;  3.1788301E-04;  1.0000000E+04;  0.0000000E+00;  9.9687939E+03;0.95007026;0.0;0.29064679;14579.023
  9.0034676E-01;  9.9999998E-03;  2.2034734E-01;2450;0.15851074;0.0;0.11291263;1012.4764;  4.0648368E-01;10320.171;3;44.821476;0.0;11.531995;0;1.2638841;  9.9581514E+03;  0.0000000E+00;  1.0093809E-03;  1.0000000E+04;  0.0000000E+00;  9.9684004E+03;0.97833264;0.0;0.28555143;14759.574
  9.0034461E-01;  9.9999998E-03;  2.4038400E-01;2451;0.154846;0.0;0.11610361;1012.3606;  4.0648419E-01;10224.423;3;45.571678;0.0;16.704884;0;1.2891433;  9.9567363E+03;  0.0000000E+00;  2.1141800E-03;  1.0000000E+04;  0.0000000E+00;  9.9675059E+03;0.99878621;0.0;0.29035717;15174.807
  9.0033537E-01;  9.9999998E-03;  2.6040712E-01;2452;0.14700881;0.0;0.1163149;1012.2845;  4.0648484E-01;10161.514;3;46.478146;0.0;23.571304;0;1.2852389;  9.9556934E+03;  0.0000000E+00;  3.1877107E-03;  1.0000000E+04;  0.0000000E+00;  9.9670156E+03;1.0106357;0.0;0.2746031;15420.903
  9.0032440E-01;  9.9999998E-03;  2.8042653E-01;2453;0.13598315;0.0;0.13037792;1012.2722;  4.0648493E-01;10151.359;3;47.463028;0.0;34.788654;0;1.4108167;  9.9550039E+03;  0.0000000E+00;  3.2207277E-03;  1.0000000E+04;  0.0000000E+00;  9.9674463E+03;1.0148933;0.0;0.39592338;15027.904
  9.0029883E-01;  9.9999998E-03;  3.0045840E-01;2454;0.11944629;0.0;0.13131052;1012.105;  4.0648481E-01;10013.02;3;48.491478;0.0;22.397743;0;1.430801;  9.9546006E+03;  0.0000000E+00;  1.8293539E-03;  1.0000000E+04;  0.0000000E+00;  9.9645371E+03;1.0138056;0.0;0.41699544;16453.98
  9.2034781E-01;  9.9999998E-03;  1.6023754E-01;2478;0.16738993;0.0;0.089203715;1012.1656;  4.0598196E-01;10057.588;3;51.562744;0.0;5.2651649;0;0.97956705;  9.9743545E+03;  0.0000000E+00; -3.6991973E-05;  1.0000000E+04;  0.0000000E+00;  9.9707148E+03;0.63840705;0.0;0.34115997;13548.228
  9.2036420E-01;  9.9999998E-03;  1.8026197E-01;2479;0.17324132;0.0;0.09437602;1012.0685;  4.0598217E-01;9977.3613;3;51.798687;0.0;6.1871247;0;0.98117596;  9.9724590E+03;  0.0000000E+00;  1.0097645E-05;  1.0000000E+04;  0.0000000E+00;  9.9706855E+03;0.6763007;0.0;0.30487525;13592.345
  9.2038101E-01;  9.9999998E-03;  2.0028922E-01;2480;0.17896371;0.0;0.099981934;1011.9532;  4.0598258E-01;9882.0547;3;52.302898;0.0;8.1155338;0;0.99992323;  9.9703633E+03;  0.0000000E+00;  3.0194595E-04;  1.0000000E+04;  0.0000000E+00;  9.9704980E+03;0.71706241;0.0;0.28286082;13692.69
  9.2039168E-01;  9.9999998E-03;  2.2032282E-01;2481;0.18111743;0.0;0.10564925;1011.8297;  4.0598291E-01;9779.9492;3;53.078701;0.0;11.589858;0;1.0331657;  9.9682305E+03;  0.0000000E+00;  1.1008483E-03;  1.0000000E+04;  0.0000000E+00;  9.9701709E+03;0.75721991;0.0;0.27594581;13840.319
  9.2038906E-01;  9.9999998E-03;  2.4035744E-01;2482;0.17712678;0.0;0.10957338;1011.6943;  4.0598351E-01;9667.9932;3;54.038433;0.0;16.70372;0;1.0722796;  9.9662705E+03;  0.0000000E+00;  2.4590404E-03;  1.0000000E+04;  0.0000000E+00;  9.9694404E+03;0.79281288;0.0;0.27946669;14172.165
  9.2037994E-01;  9.9999998E-03;  2.6038092E-01;2483;0.16914785;0.0;0.11075091;1011.5915;  4.0598395E-01;9582.9443;3;55.210575;0.0;23.616238;0;1.0873749;  9.9646260E+03;  0.0000000E+00;  3.8470507E-03;  1.0000000E+04;  0.0000000E+00;  9.9690244E+03;0.82077199;0.0;0.2666029;14375.483
  9.2036855E-01;  9.9999998E-03;  2.8040096E-01;2484;0.15688747;0.0;0.12410066;1011.5448;  4.0598416E-01;9544.4141;3;55.888935;0.0;33.517338;0;1.2202578;  9.9633691E+03;  0.0000000E+00;  4.0430911E-03;  1.0000000E+04;  0.0000000E+00;  9.9693340E+03;0.84024352;0.0;0.38001418;14053.398
  9.2034149E-01;  9.9999998E-03;  3.0043140E-01;2485;0.13862705;0.0;0.12529154;1011.3679;  4.0598419E-01;9398.168;3;57.646923;0.0;23.053427;0;1.2513373;  9.9624727E+03;  0.0000000E+00;  2.5427770E-03;  1.0000000E+04;  0.0000000E+00;  9.9667168E+03;0.85255951;0.0;0.39877784;15321.516
  9.4035488E-01;  9.9999998E-03;  1.6021942E-01;2509;0.17200793;0.0;0.08287169;1011.4395;  4.0544134E-01;9450.416;3;54.726158;0.0;5.4494205;0;0.7289449;  9.9847031E+03;  0.0000000E+00; -4.1811789E-05;  1.0000000E+04;  0.0000000E+00;  9.9726436E+03;0.4020398;0.0;0.32690513;12549.119
  9.4037300E-01;  9.9999998E-03;  1.8024240E-01;2510;0.17864487;0.0;0.088088505;1011.3455;  4.0544155E-01;9372.707;3;55.270359;0.0;6.490963;0;0.73300552;  9.9828721E+03;  0.0000000E+00; -1.6040180E-05;  1.0000000E+04;  0.0000000E+00;  9.9726113E+03;0.44006708;0.0;0.29293841;12591.375
  9.4039351E-01;  9.9999998E-03;  2.0026754E-01;2511;0.18593517;0.0;0.093513131;1011.225;  4.0544188E-01;9273.1348;3;56.313816;0.0;8.3764143;0;0.75664145;  9.9806660E+03;  0.0000000E+00;  2.3710940E-04;  1.0000000E+04;  0.0000000E+00;  9.9724268E+03;0.48488432;0.0;0.27175713;12685.941
  9.4041276E-01;  9.9999998E-03;  2.2029753E-01;2512;0.19248186;0.0;0.09839952;1011.0875;  4.0544218E-01;9159.4805;3;58.394302;0.0;11.530935;0;0.79733479;  9.9782188E+03;  0.0000000E+00;  1.0202575E-03;  1.0000000E+04;  0.0000000E+00;  9.9721572E+03;0.53375643;0.0;0.26357836;12805.496
  9.4041896E-01;  9.9999998E-03;  2.4032842E-01;2513;0.19264464;0.0;0.1016247;1010.9393;  4.0544248E-01;9037.166;3;60.375572;0.0;16.02343;0;0.8442834;  9.9757539E+03;  0.0000000E+00;  2.4203802E-03;  1.0000000E+04;  0.0000000E+00;  9.9716719E+03;0.58218783;0.0;0.26209557;13020.467
  9.4041157E-01;  9.9999998E-03;  2.6035270E-01;2514;0.18523313;0.0;0.10430012;1010.8082;  4.0544304E-01;8928.7402;3;61.508301;0.0;22.821831;0;0.87962949;  9.9735244E+03;  0.0000000E+00;  4.0241838E-03;  1.0000000E+04;  0.0000000E+00;  9.9712783E+03;0.62528431;0.0;0.25434515;13199.62
  9.4039977E-01;  9.9999998E-03;  2.8037280E-01;2515;0.17185892;0.0;0.11662121;1010.7283;  4.0544316E-01;8862.7637;3;61.772572;0.0;31.776678;0;1.0152366;  9.9716787E+03;  0.0000000E+00;  4.5595472E-03;  1.0000000E+04;  0.0000000E+00;  9.9715176E+03;0.66001052;0.0;0.35522616;12930.636
  9.4037163E-01;  9.9999998E-03;  3.0040166E-01;2516;0.15283105;0.0;0.11869743;1010.5385;  4.0544322E-01;8705.9932;3;65.237846;0.0;24.326508;0;1.0663637;  9.9702451E+03;  0.0000000E+00;  2.8303403E-03;  1.0000000E+04;  0.0000000E+00;  9.9691729E+03;0.68628585;0.0;0.38007784;14035.978
  9.6035343E-01;  9.9999998E-03;  1.6020088E-01;2540;0.17228605;0.0;0.076489605;1010.5925;  4.0488422E-01;8741.9189;3;55.602936;0.0;5.6829;0;0.51395726;  9.9933916E+03;  0.0000000E+00; -2.4658455E-05;  1.0000000E+04;  0.0000000E+00;  9.9746738E+03;0.20351143;0.0;0.31044582;11479.164
  9.6037203E-01;  9.9999998E-03;  1.8022241E-01;2541;0.17912686;0.0;0.081729136;1010.5052;  4.0488455E-01;8669.8936;3;56.301762;0.0;6.8088284;0;0.51800841;  9.9916855E+03;  0.0000000E+00; -1.6055566E-05;  1.0000000E+04;  0.0000000E+00;  9.9746523E+03;0.23959889;0.0;0.27840951;11513.896
  9.6039319E-01;  9.9999998E-03;  2.0024519E-01;2542;0.18667175;0.0;0.086890273;1010.3847;  4.0488470E-01;8570.418;3;57.475254;0.0;8.6753407;0;0.54316545;  9.9894580E+03;  0.0000000E+00;  1.6247420E-04;  1.0000000E+04;  0.0000000E+00;  9.9744941E+03;0.28539577;0.0;0.25776967;11596.624
  9.6041530E-01;  9.9999998E-03;  2.2027348E-01;2543;0.19426164;0.0;0.092069484;1010.2379;  4.0488485E-01;8449.1992;3;59.807472;0.0;11.563176;0;0.58885288;  9.9868115E+03;  0.0000000E+00;  9.9869515E-04;  1.0000000E+04;  0.0000000E+00;  9.9742305E+03;0.33907953;0.0;0.24977337;11707.643
  9.6043175E-01;  9.9999998E-03;  2.4030061E-01;2544;0.19951355;0.0;0.094402283;1010.0781;  4.0488508E-01;8317.3584;3;63.837017;0.0;15.689382;0;0.64164257;  9.9839717E+03;  0.0000000E+00;  3.8900760E-03;  1.0000000E+04;  0.0000000E+00;  9.9738994E+03;0.39635685;0.0;0.24528569;11848.113
  9.6043193E-01;  9.9999998E-03;  2.6032311E-01;2545;0.1960105;0.0;0.09692125;1009.9315;  4.0488553E-01;8196.4463;3;66.34626;0.0;21.88204;0;0.68709713;  9.9812285E+03;  0.0000000E+00;  8.2448069E-03;  1.0000000E+04;  0.0000000E+00;  9.9737178E+03;0.45174757;0.0;0.23534955;11924.245
  9.6042097E-01;  9.9999998E-03;  2.8034300E-01;2546;0.18239129;0.0;0.10846158;1009.8231;  4.0488565E-01;8106.9238;3;66.784554;0.0;30.445114;0;0.82481515;  9.9788184E+03;  0.0000000E+00;  9.4873384E-03;  1.0000000E+04;  0.0000000E+00;  9.9739502E+03;0.500301;0.0;0.32451412;11673.658
  9.6039295E-01;  9.9999998E-03;  3.0037007E-01;2547;0.16338116;0.0;0.11153007;1009.6204;  4.0488580E-01;7939.5874;3;71.334152;0.0;25.639194;0;0.89859378;  9.9768447E+03;  0.0000000E+00;  2.5473249E-03;  1.0000000E+04;  0.0000000E+00;  9.9718877E+03;0.53979903;0.0;0.35879475;12607.535
  9.8034817E-01;  9.9999998E-03;  1.6018294E-01;2571;0.17107818;0.0;0.070560522;1009.6424;  4.0433210E-01;7947.1787;3;56.035259;0.0;6.0968161;0;0.34967524;  9.9997988E+03;  0.0000000E+00; -1.9408003E-06;  1.0000000E+04;  0.0000000E+00;  9.9767383E+03;0.057499073;0.0;0.29217616;10371.397
  9.8036712E-01;  9.9999998E-03;  1.8020292E-01;2572;0.17810394;0.0;0.075704597;1009.5622;  4.0433231E-01;7881.1416;3;56.725166;0.0;7.2019653;0;0.35269928;  9.9982061E+03;  0.0000000E+00; -2.8349236E-06;  1.0000000E+04;  0.0000000E+00;  9.9767363E+03;0.091052786;0.0;0.26164651;10396.376
  9.8038894E-01;  9.9999998E-03;  2.0022327E-01;2573;0.1858896;0.0;0.080412149;1009.4438;  4.0433234E-01;7783.5649;3;57.929939;0.0;8.8527231;0;0.37733543;  9.9960059E+03;  0.0000000E+00;  3.7517218E-04;  1.0000000E+04;  0.0000000E+00;  9.9765947E+03;0.13602531;0.0;0.24131012;10465.902
  9.8041260E-01;  9.9999998E-03;  2.2024934E-01;2574;0.19397119;0.0;0.085593686;1009.2932;  4.0433261E-01;7659.3613;3;60.343761;0.0;11.323438;0;0.42461506;  9.9932588E+03;  0.0000000E+00;  3.7969626E-03;  1.0000000E+04;  0.0000000E+00;  9.9763477E+03;0.19131751;0.0;0.23329754;10567.137
  9.8043323E-01;  9.9999998E-03;  2.4027430E-01;2575;0.20036635;0.0;0.087693147;1009.1227;  4.0433270E-01;7518.8501;3;64.692711;0.0;15.051724;0;0.48238337;  9.9901885E+03;  0.0000000E+00;  1.3863130E-02;  1.0000000E+04;  0.0000000E+00;  9.9760420E+03;0.25337115;0.0;0.22901222;10690.048
  9.8044342E-01;  9.9999998E-03;  2.6029360E-01;2576;0.20221794;0.0;0.089257523;1008.9716;  4.0433297E-01;7394.2617;3;70.087166;0.0;20.832251;0;0.53075993;  9.9870645E+03;  0.0000000E+00;  2.6351009E-02;  1.0000000E+04;  0.0000000E+00;  9.9761563E+03;0.31716055;0.0;0.21359938;10632.491
  9.8043698E-01;  9.9999998E-03;  2.8031236E-01;2577;0.1909748;0.0;0.1000654;1008.8473;  4.0433308E-01;7291.7905;3;71.634888;0.0;29.293215;0;0.66934925;  9.9841738E+03;  0.0000000E+00;  2.7418487E-02;  1.0000000E+04;  0.0000000E+00;  9.9765557E+03;0.37634388;0.0;0.29300538;10317.242
  9.8041123E-01;  9.9999998E-03;  3.0033788E-01;2578;0.172839;0.0;0.10384833;1008.6328;  4.0433332E-01;7115.0513;3;77.395821;0.0;26.554024;0;0.76110542;  9.9817354E+03;  0.0000000E+00;  1.5416025E-03;  1.0000000E+04;  0.0000000E+00;  9.9747168E+03;0.4261362;0.0;0.33496922;11108.42
  1.0003412E+00;  9.9999998E-03;  1.6016644E-01;2602;0.16907971;0.0;0.065201879;1008.6343;  4.0380311E-01;7103.6001;3;56.110046;0.0;6.387568;0;0.23497251;  1.0003963E+04;  0.0000000E+00;  1.2745974E-06;  1.0000000E+04;  0.0000000E+00;  9.9787695E+03;-0.037383083;0.0;0.27235559;9257.6123
  1.0003604E+00;  9.9999998E-03;  1.8018454E-01;2603;0.17636687;0.0;0.069943003;1008.5582;  4.0380305E-01;7040.916;3;56.867176;0.0;7.3665609;0;0.23718826;  1.0002443E+04;  0.0000000E+00; -6.6050445E-05;  1.0000000E+04;  0.0000000E+00;  9.9787715E+03;-0.0058484618;0.0;0.24303673;9276.7666
  1.0003825E+00;  9.9999998E-03;  2.0020282E-01;2604;0.18433541;0.0;0.074429534;1008.4421;  4.0380314E-01;6945.3745;3;58.172428;0.0;9.0893745;0;0.2605527;  1.0000280E+04;  0.0000000E+00;  6.1162410E-04;  1.0000000E+04;  0.0000000E+00;  9.9786318E+03;0.037331715;0.0;0.22322097;9343.3848
  1.0004072E+00;  9.9999998E-03;  2.2022517E-01;2605;0.19273411;0.0;0.078897558;1008.2924;  4.0380335E-01;6822.2729;3;60.648838;0.0;11.220437;0;0.30658406;  9.9975439E+03;  0.0000000E+00;  8.6275479E-03;  1.0000000E+04;  0.0000000E+00;  9.9784033E+03;0.091606952;0.0;0.21497712;9433.207
  1.0004314E+00;  9.9999998E-03;  2.4024867E-01;2606;0.20010823;0.0;0.080962285;1008.1176;  4.0380338E-01;6678.3809;3;65.191444;0.0;14.1933;0;0.36599201;  9.9943887E+03;  0.0000000E+00;  3.1824153E-02;  1.0000000E+04;  0.0000000E+00;  9.9780869E+03;0.15466769;0.0;0.21132433;9554.7754
  1.0004481E+00;  9.9999998E-03;  2.6026526E-01;2607;0.20440815;0.0;0.081517152;1007.9656;  4.0380353E-01;6553.3242;3;72.064613;0.0;18.874813;0;0.41447681;  9.9910342E+03;  0.0000000E+00;  5.8542147E-02;  1.0000000E+04;  0.0000000E+00;  9.9784199E+03;0.22277473;0.0;0.19170208;9403.8555
  1.0004507E+00;  9.9999998E-03;  2.8028172E-01;2608;0.19863813;0.0;0.091568112;1007.8473;  4.0380377E-01;6456.0332;3;76.748558;0.0;28.416607;0;0.54825449;  9.9877900E+03;  0.0000000E+00;  5.5964295E-02;  1.0000000E+04;  0.0000000E+00;  9.9793047E+03;0.28880876;0.0;0.25944576;8886.0049
  1.0004318E+00;  9.9999998E-03;  3.0030620E-01;2609;0.18313172;0.0;0.095978647;1007.6248;  4.0380380E-01;6273.0391;3;83.504478;0.0;26.291759;0;0.65414464;  9.9850166E+03;  0.0000000E+00; -5.1961849E-03;  1.0000000E+04;  0.0000000E+00;  9.9776377E+03;0.34416607;0.0;0.30997854;9560.6777
  1.0203329E+00;  9.9999998E-03;  1.6015087E-01;2633;0.16661549;0.0;0.060084995;1007.623;  4.0331131E-01;6256.4507;3;55.960571;0.0;6.6529679;0;0.15925629;  1.0006318E+04;  0.0000000E+00; -8.1636761E-05;  1.0000000E+04;  0.0000000E+00;  9.9807041E+03;-0.091994449;0.0;0.25125074;8168.0815
  1.0203526E+00;  9.9999998E-03;  1.8016732E-01;2634;0.17410956;0.0;0.064704575;1007.5465;  4.0331146E-01;6193.7183;3;56.798656;0.0;7.7839012;0;0.16155301;  1.0004823E+04;  0.0000000E+00; -1.8317212E-03;  1.0000000E+04;  0.0000000E+00;  9.9806807E+03;-0.061801568;0.0;0.22335458;8195.7988
  1.0203755E+00;  9.9999998E-03;  2.0018423E-01;2635;0.1825086;0.0;0.068962142;1007.4329;  4.0331149E-01;6100.458;3;58.23547;0.0;9.2151108;0;0.18343334;  1.0002755E+04;  0.0000000E+00; -5.9241168E-03;  1.0000000E+04;  0.0000000E+00;  9.9804912E+03;-0.021425199;0.0;0.20485854;8280.002
  1.0204012E+00;  9.9999998E-03;  2.2020316E-01;2636;0.19131429;0.0;0.072391845;1007.2885;  4.0331146E-01;5981.856;3;60.779221;0.0;10.987877;0;0.22633214;  1.0000156E+04;  0.0000000E+00;  9.5222151E-04;  1.0000000E+04;  0.0000000E+00;  9.9802227E+03;0.029213909;0.0;0.19711824;8381.4912
  1.0204289E+00;  9.9999998E-03;  2.4022396E-01;2637;0.19951493;0.0;0.074117087;1007.1188;  4.0331158E-01;5842.6094;3;65.590782;0.0;13.415203;0;0.28327471;  9.9970928E+03;  0.0000000E+00;  3.5259396E-02;  1.0000000E+04;  0.0000000E+00;  9.9799258E+03;0.089545228;0.0;0.19372948;8490.8037
  1.0204511E+00;  9.9999998E-03;  2.6023850E-01;2638;0.20539752;0.0;0.07407818;1006.9743;  4.0331170E-01;5724.0117;3;73.560188;0.0;17.269436;0;0.32898301;  9.9936865E+03;  0.0000000E+00;  7.7799968E-02;  1.0000000E+04;  0.0000000E+00;  9.9804561E+03;0.15772836;0.0;0.17125463;8261.4307
  1.0204641E+00;  9.9999998E-03;  2.8025252E-01;2639;0.20584422;0.0;0.082650162;1006.873;  4.0331155E-01;5640.8389;3;82.34243;0.0;26.57765;0;0.44878322;  9.9901895E+03;  0.0000000E+00;  6.8763182E-02;  1.0000000E+04;  0.0000000E+00;  9.9819434E+03;0.22784175;0.0;0.22094148;7513.5313
  1.0204589E+00;  9.9999998E-03;  3.0027595E-01;2640;0.19573008;0.0;0.088058911;1006.6515;  4.0331143E-01;5459.0601;3;89.870567;0.0;24.485313;0;0.57089067;  9.9871094E+03;  0.0000000E+00; -1.7130909E-02;  1.0000000E+04;  0.0000000E+00;  9.9806152E+03;0.28576854;0.0;0.28512216;7995.8818
  1.0403234E+00;  9.9999998E-03;  1.6013610E-01;2664;0.16358282;0.0;0.055235971;1006.6565;  4.0286687E-01;5445.6987;3;55.7738;0.0;6.9992285;0;0.10996158;  1.0007387E+04;  0.0000000E+00; -1.1002290E-03;  1.0000000E+04;  0.0000000E+00;  9.9824873E+03;-0.11940431;0.0;0.22936589;7132.4897
  1.0403440E+00;  9.9999998E-03;  1.8015160E-01;2665;0.17157133;0.0;0.059638157;1006.5773;  4.0286702E-01;5380.9214;3;56.711414;0.0;7.8619471;0;0.1132094;  1.0005920E+04;  0.0000000E+00; -1.1496207E-02;  1.0000000E+04;  0.0000000E+00;  9.9823799E+03;-0.090528779;0.0;0.20373818;7190.98
  1.0403677E+00;  9.9999998E-03;  2.0016631E-01;2666;0.18039908;0.0;0.063161977;1006.4684;  4.0286699E-01;5291.7598;3;58.327011;0.0;9.0657415;0;0.13301757;  1.0004042E+04;  0.0000000E+00; -3.6158066E-02;  1.0000000E+04;  0.0000000E+00;  9.9820938E+03;-0.054476611;0.0;0.18749417;7311.6372
  1.0403957E+00;  9.9999998E-03;  2.2018334E-01;2667;0.18990776;0.0;0.066049621;1006.3346;  4.0286702E-01;5182.2134;3;61.114086;0.0;10.834911;0;0.17115529;  1.0001760E+04;  0.0000000E+00; -5.0594039E-02;  1.0000000E+04;  0.0000000E+00;  9.9817217E+03;-0.010347338;0.0;0.18150263;7451.6611
  1.0404265E+00;  9.9999998E-03;  2.4020146E-01;2668;0.19898927;0.0;0.067372404;1006.1797;  4.0286702E-01;5055.5015;3;66.414818;0.0;12.841274;0;0.22181328;  9.9990000E+03;  0.0000000E+00; -2.2523262E-02;  1.0000000E+04;  0.0000000E+00;  9.9814111E+03;0.043388385;0.0;0.17842489;7555.5791
  1.0404550E+00;  9.9999998E-03;  2.6021427E-01;2669;0.20656878;0.0;0.06725198;1006.0506;  4.0286693E-01;4949.8574;3;75.369812;0.0;16.379847;0;0.26260564;  9.9957188E+03;  0.0000000E+00;  2.4409289E-02;  1.0000000E+04;  0.0000000E+00;  9.9821299E+03;0.10745306;0.0;0.15515257;7248.8477
  1.0404807E+00;  9.9999998E-03;  2.8022707E-01;2670;0.2136725;0.0;0.073943898;1005.9523;  4.0286681E-01;4869.3779;3;88.70105;0.0;23.623955;0;0.36853701;  9.9919326E+03;  0.0000000E+00;  6.7353635E-03;  1.0000000E+04;  0.0000000E+00;  9.9839736E+03;0.18234588;0.0;0.18619114;6399.1919
  1.0404967E+00;  9.9999998E-03;  3.0024764E-01;2671;0.21316443;0.0;0.079426005;1005.736;  4.0286672E-01;4692.459;3;100.61397;0.0;24.204779;0;0.49035332;  9.9880488E+03;  0.0000000E+00;  1.5618276E-02;  1.0000000E+04;  0.0000000E+00;  9.9835645E+03;0.25161549;0.0;0.23873782;6482.1001
  1.0603131E+00;  9.9999998E-03;  1.6012228E-01;2695;0.16019306;0.0;0.050469257;1005.7684;  4.0247554E-01;4698.9053;3;55.479141;0.0;7.0826445;0;0.077737182;  1.0007591E+04;  0.0000000E+00; -6.4373552E-03;  1.0000000E+04;  0.0000000E+00;  9.9840635E+03;-0.12991101;0.0;0.20764819;6177.9331
  1.0603347E+00;  9.9999998E-03;  1.8013635E-01;2696;0.16876478;0.0;0.054339398;1005.6868;  4.0247554E-01;4632.3623;3;56.623638;0.0;7.8625388;0;0.082163177;  1.0006221E+04;  0.0000000E+00; -4.1671280E-02;  1.0000000E+04;  0.0000000E+00;  9.9838086E+03;-0.10339601;0.0;0.18555918;6288.5557
  1.0603602E+00;  9.9999998E-03;  2.0014955E-01;2697;0.17821735;0.0;0.057189167;1005.5879;  4.0247551E-01;4551.8325;3;58.427811;0.0;8.9059639;0;0.09888041;  1.0004684E+04;  0.0000000E+00; -1.1463262E-01;  1.0000000E+04;  0.0000000E+00;  9.9833828E+03;-0.073797047;0.0;0.17267746;6470.5063
  1.0603911E+00;  9.9999998E-03;  2.2016540E-01;2698;0.18865423;0.0;0.059710875;1005.4724;  4.0247554E-01;4457.7031;3;61.753296;0.0;10.360135;0;0.13039416;  1.0002900E+04;  0.0000000E+00; -1.8278308E-01;  1.0000000E+04;  0.0000000E+00;  9.9828750E+03;-0.03891487;0.0;0.16930903;6682.4883
  1.0604252E+00;  9.9999998E-03;  2.4018227E-01;2699;0.19862328;0.0;0.061003216;1005.3369;  4.0247542E-01;4347.2578;3;67.77903;0.0;12.16177;0;0.17270325;  1.0000638E+04;  0.0000000E+00; -1.9245303E-01;  1.0000000E+04;  0.0000000E+00;  9.9824561E+03;0.0049479697;0.0;0.16775528;6830.5728
  1.0604619E+00;  9.9999998E-03;  2.6019445E-01;2700;0.20866945;0.0;0.061148889;1005.2151;  4.0247527E-01;4247.979;3;77.744469;0.0;15.456807;0;0.20968965;  9.9975273E+03;  0.0000000E+00; -1.7630920E-01;  1.0000000E+04;  0.0000000E+00;  9.9831484E+03;0.063335665;0.0;0.14635399;6538.6089
  1.0604993E+00;  9.9999998E-03;  2.8020653E-01;2701;0.22018121;0.0;0.065849043;1005.0938;  4.0247524E-01;4149.0894;3;93.506737;0.0;20.900589;0;0.30183673;  9.9932168E+03;  0.0000000E+00; -1.7493565E-01;  1.0000000E+04;  0.0000000E+00;  9.9850645E+03;0.14532317;0.0;0.15651357;5723.5854
  1.0605346E+00;  9.9999998E-03;  3.0022222E-01;2702;0.22909616;0.0;0.068978608;1004.8618;  4.0247515E-01;3960.1902;3;111.26553;0.0;23.7941;0;0.40061295;  9.9875254E+03;  0.0000000E+00;  2.4543864E-01;  1.0000000E+04;  0.0000000E+00;  9.9861709E+03;0.24573678;0.0;0.15487619;5287.2788
  1.0803030E+00;  9.9999998E-03;  1.6010943E-01;2726;0.1567196;0.0;0.045643721;1004.9741;  4.0213948E-01;4028.719;3;55.057705;0.0;6.9592094;0;0.057840779;  1.0007184E+04;  0.0000000E+00; -2.6415570E-02;  1.0000000E+04;  0.0000000E+00;  9.9853721E+03;-0.12976032;0.0;0.1876011;5326.7915
  1.0803255E+00;  9.9999998E-03;  1.8012129E-01;2727;0.165759;0.0;0.048561625;1004.8954;  4.0213946E-01;3964.9639;3;56.473244;0.0;7.6030278;0;0.062507942;  1.0006043E+04;  0.0000000E+00; -1.1303243E-01;  1.0000000E+04;  0.0000000E+00;  9.9849414E+03;-0.10762219;0.0;0.17013013;5507.3252
  1.0803535E+00;  9.9999998E-03;  2.0013404E-01;2728;0.17616956;0.0;0.051142164;1004.8134;  4.0213943E-01;3898.5959;3;58.823402;0.0;8.5431175;0;0.074719295;  1.0004998E+04;  0.0000000E+00; -2.6665765E-01;  1.0000000E+04;  0.0000000E+00;  9.9843662E+03;-0.086567983;0.0;0.16128728;5797.2861
  1.0803875E+00;  9.9999998E-03;  2.2014958E-01;2729;0.18751656;0.0;0.053636894;1004.7229;  4.0213925E-01;3825.2698;3;62.959282;0.0;9.9624052;0;0.098396122;  1.0003853E+04;  0.0000000E+00; -4.1951853E-01;  1.0000000E+04;  0.0000000E+00;  9.9837178E+03;-0.06267561;0.0;0.16107173;6158.6074
  1.0804251E+00;  9.9999998E-03;  2.4016498E-01;2730;0.19824955;0.0;0.054540094;1004.6151;  4.0213928E-01;3737.845;3;69.681511;0.0;11.571936;0;0.12808552;  1.0002167E+04;  0.0000000E+00; -4.9458432E-01;  1.0000000E+04;  0.0000000E+00;  9.9832715E+03;-0.03010828;0.0;0.1581938;6390.187
  1.0804682E+00;  9.9999998E-03;  2.6017696E-01;2731;0.210135;0.0;0.055096604;1004.499;  4.0213904E-01;3643.8499;3;80.820442;0.0;14.579851;0;0.16046785;  9.9991377E+03;  0.0000000E+00; -5.2157086E-01;  1.0000000E+04;  0.0000000E+00;  9.9840068E+03;0.023287924;0.0;0.13717993;6155.5317
  1.0805128E+00;  9.9999998E-03;  2.8018931E-01;2732;0.2237882;0.0;0.058942385;1004.3325;  4.0213916E-01;3508.9197;3;97.978424;0.0;19.286024;0;0.25142092;  9.9940410E+03;  0.0000000E+00; -3.7290710E-01;  1.0000000E+04;  0.0000000E+00;  9.9857979E+03;0.11435229;0.0;0.13706861;5272.8252
  1.0805564E+00;  9.9999998E-03;  3.0020198E-01;2733;0.23509213;0.0;0.060777958;1004.0364;  4.0213898E-01;3269.0488;3;117.06235;0.0;22.857456;0;0.34741312;  9.9862344E+03;  0.0000000E+00;  8.6713499E-01;  1.0000000E+04;  0.0000000E+00;  9.9877422E+03;0.24050865;0.0;0.10690447;5520.353
  1.1002929E+00;  9.9999998E-03;  1.6009609E-01;2756;0.1532106;0.0;0.04024272;1004.2777;  4.0185750E-01;3438.696;3;54.612953;0.0;6.6067743;0;0.048374727;  1.0006333E+04;  0.0000000E+00; -8.1904754E-02;  1.0000000E+04;  0.0000000E+00;  9.9863848E+03;-0.12242031;0.0;0.17079504;4592.7114
  1.1003175E+00;  9.9999998E-03;  1.8010721E-01;2757;0.16305873;0.0;0.042790476;1004.2097;  4.0185732E-01;3384.0383;3;56.483849;0.0;7.2190385;0;0.051389404;  1.0005578E+04;  0.0000000E+00; -2.5183189E-01;  1.0000000E+04;  0.0000000E+00;  9.9857910E+03;-0.1069779;0.0;0.15836731;4876.3232
  1.1003484E+00;  9.9999998E-03;  2.0012008E-01;2758;0.17441197;0.0;0.045212489;1004.1524;  4.0185741E-01;3337.9009;3;59.550613;0.0;8.1039495;0;0.057651363;  1.0005127E+04;  0.0000000E+00; -5.0934952E-01;  1.0000000E+04;  0.0000000E+00;  9.9851035E+03;-0.095619552;0.0;0.15327092;5359.252
  1.1003853E+00;  9.9999998E-03;  2.2013514E-01;2759;0.18649112;0.0;0.047246881;1004.0912;  4.0185735E-01;3288.6899;3;64.62812;0.0;9.2902069;0;0.071259722;  1.0004615E+04;  0.0000000E+00; -7.5617450E-01;  1.0000000E+04;  0.0000000E+00;  9.9844082E+03;-0.082350627;0.0;0.15361035;5945.6572
  1.1004267E+00;  9.9999998E-03;  2.4014935E-01;2760;0.19784164;0.0;0.04774956;1004.0114;  4.0185723E-01;3224.4302;3;72.15892;0.0;10.533692;0;0.085484035;  1.0003344E+04;  0.0000000E+00; -8.9357847E-01;  1.0000000E+04;  0.0000000E+00;  9.9841055E+03;-0.059105687;0.0;0.14458972;6285.6743
  1.1004715E+00;  9.9999998E-03;  2.6016060E-01;2761;0.21028663;0.0;0.04881829;1003.9114;  4.0185708E-01;3143.9739;3;84.84462;0.0;13.549869;0;0.11172055;  1.0000262E+04;  0.0000000E+00; -8.6941737E-01;  1.0000000E+04;  0.0000000E+00;  9.9852041E+03;-0.008805804;0.0;0.12052636;5906.5205
  1.1005182E+00;  9.9999998E-03;  2.8017375E-01;2762;0.22486299;0.0;0.052646611;1003.6921;  4.0185714E-01;2967.6995;3;103.13154;0.0;18.017036;0;0.2126738;  9.9943184E+03;  0.0000000E+00; -3.0618957E-01;  1.0000000E+04;  0.0000000E+00;  9.9868027E+03;0.094444595;0.0;0.1182292;4466.4351
  1.1202847E+00;  9.9999998E-03;  1.6008364E-01;2785;0.15016913;0.0;0.034786098;1003.6811;  4.0162641E-01;2929.9001;3;54.351738;0.0;6.0647879;0;0.046985753;  1.0005228E+04;  0.0000000E+00; -2.0886078E-01;  1.0000000E+04;  0.0000000E+00;  9.9871104E+03;-0.11133686;0.0;0.15832262;3998.8403
  1.1203116E+00;  9.9999998E-03;  1.8009460E-01;2786;0.16086492;0.0;0.037059631;1003.6334;  4.0162617E-01;2891.9028;3;56.846104;0.0;6.5781074;0;0.045984477;  1.0004979E+04;  0.0000000E+00; -4.8725402E-01;  1.0000000E+04;  0.0000000E+00;  9.9864160E+03;-0.10419147;0.0;0.15017594;4459.9248
  1.1203452E+00;  9.9999998E-03;  2.0010768E-01;2787;0.17301835;0.0;0.039216805;1003.6043;  4.0162620E-01;2868.6973;3;60.806198;0.0;7.3466163;0;0.045002498;  1.0005105E+04;  0.0000000E+00; -8.4529907E-01;  1.0000000E+04;  0.0000000E+00;  9.9857178E+03;-0.1016975;0.0;0.14669999;5199.8594
  1.1203855E+00;  9.9999998E-03;  2.2012255E-01;2788;0.1856111;0.0;0.040768094;1003.5676;  4.0162602E-01;2839.4094;3;66.850311;0.0;8.2168283;0;0.047631234;  1.0004997E+04;  0.0000000E+00; -1.1574759E+00;  1.0000000E+04;  0.0000000E+00;  9.9851035E+03;-0.095546246;0.0;0.14317748;5973.5093
  1.1204290E+00;  9.9999998E-03;  2.4013574E-01;2789;0.19724068;0.0;0.041112162;1003.5062;  4.0162602E-01;2790.4788;3;75.520729;0.0;9.3183966;0;0.047158584;  1.0003725E+04;  0.0000000E+00; -1.2822634E+00;  1.0000000E+04;  0.0000000E+00;  9.9851631E+03;-0.075987644;0.0;0.12314623;6243.7993
  1.1204733E+00;  9.9999998E-03;  2.6014769E-01;2790;0.21019883;0.0;0.043456335;1003.395;  4.0162596E-01;2701.8921;3;90.075508;0.0;12.741126;0;0.083644129;  1.0000286E+04;  0.0000000E+00; -1.0071281E+00;  1.0000000E+04;  0.0000000E+00;  9.9863975E+03;-0.020009538;0.0;0.10365367;5322.4639
  1.1205157E+00;  9.9999998E-03;  2.8016078E-01;2791;0.22308686;0.0;0.047096387;1003.1506;  4.0162590E-01;2507.342;3;108.74505;0.0;16.958605;0;0.18490529;  9.9939609E+03;  0.0000000E+00;  2.9761499E-01;  1.0000000E+04;  0.0000000E+00;  9.9878662E+03;0.086209491;0.0;0.098695792;3713.1797
  1.1402787E+00;  9.9999998E-03;  1.6007277E-01;2813;0.14781293;0.0;0.029547431;1003.1872;  4.0144080E-01;2504.2993;3;54.402271;0.0;5.345511;0;0.049316481;  1.0004105E+04;  0.0000000E+00; -4.4876549E-01;  1.0000000E+04;  0.0000000E+00;  9.9876250E+03;-0.1007365;0.0;0.15005298;3613.239
  1.1403081E+00;  9.9999998E-03;  1.8008420E-01;2814;0.15935937;0.0;0.031686712;1003.1663;  4.0144092E-01;2487.8538;3;57.78669;0.0;5.799933;0;0.042724721;  1.0004393E+04;  0.0000000E+00; -8.3395261E-01;  1.0000000E+04;  0.0000000E+00;  9.9869268E+03;-0.10161435;0.0;0.14433907;4322.0889
  1.1403452E+00;  9.9999998E-03;  2.0009835E-01;2815;0.17221314;0.0;0.033858314;1003.157;  4.0144068E-01;2480.4805;3;62.774639;0.0;6.4406877;0;0.036042012;  1.0004868E+04;  0.0000000E+00; -1.2528639E+00;  1.0000000E+04;  0.0000000E+00;  9.9862725E+03;-0.10413022;0.0;0.14017223;5251.3003
  1.1403888E+00;  9.9999998E-03;  2.2011383E-01;2816;0.18519439;0.0;0.035349313;1003.117;  4.0144068E-01;2448.9316;3;69.780533;0.0;6.9798384;0;0.033407517;  1.0004614E+04;  0.0000000E+00; -1.5601165E+00;  1.0000000E+04;  0.0000000E+00;  9.9857383E+03;-0.097442217;0.0;0.13084973;6018.0605
  1.1404315E+00;  9.9999998E-03;  2.4012637E-01;2817;0.19679938;0.0;0.03632747;1003.0507;  4.0144053E-01;2396.7817;3;80.433838;0.0;8.6094446;0;0.032731116;  1.0002874E+04;  0.0000000E+00; -1.4754881E+00;  1.0000000E+04;  0.0000000E+00;  9.9861670E+03;-0.072249494;0.0;0.10498061;5756.0513
  1.1404727E+00;  9.9999998E-03;  2.6013938E-01;2818;0.20965792;0.0;0.039909624;1002.8973;  4.0144059E-01;2276.2698;3;96.651848;0.0;12.4116;0;0.096780322;  9.9988418E+03;  0.0000000E+00; -6.2776178E-01;  1.0000000E+04;  0.0000000E+00;  9.9871494E+03;-0.0022784024;0.0;0.099058725;3905.5317
  1.1602757E+00;  9.9999998E-03;  1.6006467E-01;2840;0.14630726;0.0;0.024903087;1002.7998;  4.0129545E-01;2163.6951;3;55.191895;0.0;4.5308762;0;0.049981892;  1.0003205E+04;  0.0000000E+00; -8.1916511E-01;  1.0000000E+04;  0.0000000E+00;  9.9880508E+03;-0.09445256;0.0;0.14443445;3512.7671
  1.1603088E+00;  9.9999998E-03;  1.8007773E-01;2841;0.15875986;0.0;0.027361454;1002.7976;  4.0129533E-01;2161.97;3;59.514885;0.0;4.9845695;0;0.039948143;  1.0003836E+04;  0.0000000E+00; -1.2667663E+00;  1.0000000E+04;  0.0000000E+00;  9.9873818E+03;-0.099717192;0.0;0.13966534;4393.144
  1.1603506E+00;  9.9999998E-03;  2.0009395E-01;2842;0.17245114;0.0;0.02993438;1002.7712;  4.0129530E-01;2141.4348;3;65.627274;0.0;5.4332294;0;0.036803514;  1.0004036E+04;  0.0000000E+00; -1.6722177E+00;  1.0000000E+04;  0.0000000E+00;  9.9866689E+03;-0.097878546;0.0;0.13468206;5294.2778
  1.1603943E+00;  9.9999998E-03;  2.2010913E-01;2843;0.18530087;0.0;0.031616263;1002.6977;  4.0129516E-01;2084.6033;3;74.315117;0.0;6.1316671;0;0.039592646;  1.0003001E+04;  0.0000000E+00; -1.7966102E+00;  1.0000000E+04;  0.0000000E+00;  9.9862471E+03;-0.080695085;0.0;0.12028773;5610.9424
  1.1604342E+00;  9.9999998E-03;  2.4012242E-01;2844;0.19718224;0.0;0.034194153;1002.5806;  4.0129516E-01;1993.978;3;87.438293;0.0;8.702426;0;0.069565691;  1.0000361E+04;  0.0000000E+00; -1.1968108E+00;  1.0000000E+04;  0.0000000E+00;  9.9865518E+03;-0.036483757;0.0;0.10604945;4388.8442
  1.1604674E+00;  9.9999998E-03;  2.6013336E-01;2845;0.20710045;0.0;0.03721793;1002.44;  4.0129513E-01;1885.318;3;103.55878;0.0;12.365318;0;0.12988847;  9.9963389E+03;  0.0000000E+00;  5.5829912E-01;  1.0000000E+04;  0.0000000E+00;  9.9877744E+03;0.032434396;0.0;0.097454086;3143.3508
  1.1802783E+00;  9.9999998E-03;  1.6006155E-01;2866;0.14614159;0.0;0.021731861;1002.5044;  4.0118340E-01;1895.1464;3;56.861954;0.0;3.7553778;0;0.047960043;  1.0002522E+04;  0.0000000E+00; -1.2787092E+00;  1.0000000E+04;  0.0000000E+00;  9.9884170E+03;-0.09246774;0.0;0.14042778;3603.8606
  1.1803173E+00;  9.9999998E-03;  1.8007775E-01;2867;0.16003653;0.0;0.025180249;1002.4741;  4.0118355E-01;1872.1473;3;62.467964;0.0;4.2686501;0;0.049038835;  1.0002751E+04;  0.0000000E+00; -1.7163696E+00;  1.0000000E+04;  0.0000000E+00;  9.9875918E+03;-0.089943297;0.0;0.13898213;4448.3179
  1.1803595E+00;  9.9999998E-03;  2.0009422E-01;2868;0.1737051;0.0;0.027954467;1002.3912;  4.0118352E-01;1809.3639;3;70.358032;0.0;4.9945402;0;0.062615782;  1.0001932E+04;  0.0000000E+00; -1.9284259E+00;  1.0000000E+04;  0.0000000E+00;  9.9867646E+03;-0.071457192;0.0;0.13407297;4915.7725
  1.1803993E+00;  9.9999998E-03;  2.2010829E-01;2869;0.18572588;0.0;0.030107774;1002.2695;  4.0118343E-01;1717.1873;3;81.111229;0.0;6.4181347;0;0.084659383;  9.9998516E+03;  0.0000000E+00; -1.5102236E+00;  1.0000000E+04;  0.0000000E+00;  9.9864219E+03;-0.03635215;0.0;0.12101153;4229.7446
  1.1804322E+00;  9.9999998E-03;  2.4012019E-01;2870;0.19588397;0.0;0.033169083;1002.1401;  4.0118343E-01;1619.2599;3;95.271423;0.0;9.5987263;0;0.13404737;  9.9968799E+03;  0.0000000E+00; -1.1156550E-02;  1.0000000E+04;  0.0000000E+00;  9.9868145E+03;0.018635556;0.0;0.11541182;2600.2363
  1.2002903E+00;  9.9999998E-03;  1.6006586E-01;2890;0.14855337;0.0;0.021219904;1002.2289;  4.0109941E-01;1643.1301;3;60.200134;0.0;3.3199635;0;0.062175751;  1.0001174E+04;  0.0000000E+00; -1.7403274E+00;  1.0000000E+04;  0.0000000E+00;  9.9884668E+03;-0.079908744;0.0;0.14208449;3638.6804
  1.2003300E+00;  9.9999998E-03;  1.8008181E-01;2891;0.1624236;0.0;0.024602668;1002.1318;  4.0109938E-01;1571.5039;3;67.745712;0.0;4.1556602;0;0.086227283;  1.0000218E+04;  0.0000000E+00; -1.9797401E+00;  1.0000000E+04;  0.0000000E+00;  9.9874922E+03;-0.056862574;0.0;0.14308986;4078.3066
  1.2003683E+00;  9.9999998E-03;  2.0009689E-01;2892;0.17514867;0.0;0.027647186;1001.9835;  4.0109938E-01;1462.0162;3;77.556992;0.0;5.6206975;0;0.12762262;  9.9981221E+03;  0.0000000E+00; -1.6090566E+00;  1.0000000E+04;  0.0000000E+00;  9.9866309E+03;-0.013907001;0.0;0.14152962;3608.4998
  1.2003996E+00;  9.9999998E-03;  2.2010832E-01;2893;0.18459035;0.0;0.029696112;1001.8663;  4.0109944E-01;1375.5758;3;89.120064;0.0;7.6150036;0;0.15516351;  9.9958389E+03;  0.0000000E+00; -2.1464437E-01;  1.0000000E+04;  0.0000000E+00;  9.9865762E+03;0.026104163;0.0;0.12905934;2236.137
  1.2203063E+00;  9.9999998E-03;  1.6007273E-01;2913;0.15134603;0.0;0.021649787;1001.9036;  4.0103742E-01;1359.3962;3;65.6147;0.0;3.3891912;0;0.10735261;  9.9980244E+03;  0.0000000E+00; -1.9269820E+00;  1.0000000E+04;  0.0000000E+00;  9.9882236E+03;-0.039891526;0.0;0.14724414;3189.793
  1.2203401E+00;  9.9999998E-03;  1.8008645E-01;2914;0.16332506;0.0;0.024595972;1001.767;  4.0103745E-01;1261.8457;3;74.668167;0.0;4.7194333;0;0.14824612;  9.9962334E+03;  0.0000000E+00; -1.5658265E+00;  1.0000000E+04;  0.0000000E+00;  9.9872891E+03;-0.00023411866;0.0;0.14848024;2821.311
  1.2203701E+00;  9.9999998E-03;  2.0009878E-01;2915;0.17374285;0.0;0.027474957;1001.6227;  4.0103754E-01;1158.6958;3;85.516487;0.0;6.796001;0;0.19755423;  9.9940127E+03;  0.0000000E+00; -2.1768589E-01;  1.0000000E+04;  0.0000000E+00;  9.9866318E+03;0.049409613;0.0;0.14814462;1799.5863
  1.2203875E+00;  9.9999998E-03;  2.2010347E-01;2916;0.17813191;0.0;0.02719504;1001.6861;  4.0103742E-01;1203.9449;3;95.827866;0.0;8.2472677;0;0.14926866;  9.9939736E+03;  0.0000000E+00;  1.9338654E+00;  1.0000000E+04;  0.0000000E+00;  9.9879326E+03;0.041254196;0.0;0.10801446;3191.1729
  1.2403138E+00;  9.9999998E-03;  1.6007699E-01;2934;0.15084952;0.0;0.02097059;1001.6124;  4.0099266E-01;1109.0725;3;72.377693;0.0;3.6050978;0;0.1503434;  9.9944922E+03;  0.0000000E+00; -1.2228345E+00;  1.0000000E+04;  0.0000000E+00;  9.9881709E+03;0.0069395783;0.0;0.14340383;1885.479
  1.2403376E+00;  9.9999998E-03;  1.8008694E-01;2935;0.15999641;0.0;0.023240771;1001.5526;  4.0099281E-01;1067.8595;3;82.105957;0.0;5.5131679;0;0.17481573;  9.9937578E+03;  0.0000000E+00; -1.0980922E-02;  1.0000000E+04;  0.0000000E+00;  9.9877119E+03;0.035896424;0.0;0.13891931;1313.4784
  1.2603067E+00;  9.9999998E-03;  1.6007638E-01;2952;0.14597005;0.0;0.019034499;1001.5451;  4.0096113E-01;1018.117;3;79.183632;0.0;4.0693302;0;0.13875648;  9.9941465E+03;  0.0000000E+00;  4.6741343E-01;  1.0000000E+04;  0.0000000E+00;  9.9887568E+03;0.014170233;0.0;0.12458625;1058.7235
