Pos.x;Pos.y;Pos.z;Idp;Vel.x;Vel.y;Vel.z;Rhop;Mass;Press;Type;Acec.x;Acec.y;Acec.z;CellOffSpring;GradVel;Qfxx;Qfxy;Qfxz;Qfyy;Qfyz;Qfzz;StrainDot.x;StrainDot.y;StrainDot.z;VonMises3D
 -2.2000000E-01;  9.9999998E-03; -3.8000000E-01;0;0.0;0.0;0.0;1000.0;  4.0000001E-01;0.0;0;0.0;0.0;0.0;0;0.0;  1.0000000E+04;  0.0000000E+00;  0.0000000E+00;  1.0000000E+04;  0.0000000E+00;  1.0000000E+04;0.0;0.0;0.0;0.0
 -2.2000000E-01;  9.9999998E-03; -3.6000001E-01;1;0.0;0.0;0.0;1000.0;  4.0000001E-01;0.0;0;0.0;0.0;0.0;0;0.0;  1.0000000E+04;  0.0000000E+00;  0.0000000E+00;  1.0000000E+04;  0.0000000E+00;  1.0000000E+04;0.0;0.0;0.0;0.0
 -2.0000000E-01;  9.9999998E-03; -4.0000001E-01;39;0.0;0.0;0.0;1000.0;  4.0000001E-01;0.0;0;0.0;0.0;0.0;0;0.0;  1.0000000E+04;  0.0000000E+00;  0.0000000E+00;  1.0000000E+04;  0.0000000E+00;  1.0000000E+04;0.0;0.0;0.0;0.0
 -2.0000000E-01;  9.9999998E-03; -3.8000000E-01;40;0.0;0.0;0.0;1000.0;  4.0000001E-01;0.0;0;0.0;0.0;0.0;0;0.0;  1.0000000E+04;  0.0000000E+00;  0.0000000E+00;  1.0000000E+04;  0.0000000E+00;  1.0000000E+04;0.0;0.0;0.0;0.0
 -2.0000000E-01;  9.9999998E-03; -3.6000001E-01;41;0.0;0.0;0.0;1000.0;  4.0000001E-01;0.0;0;0.0;0.0;0.0;0;0.0;  1.0000000E+04;  0.0000000E+00;  0.0000000E+00;  1.0000000E+04;  0.0000000E+00;  1.0000000E+04;0.0;0.0;0.0;0.0
 -1.8000001E-01;  9.9999998E-03; -4.0000001E-01;80;0.0;0.0;0.0;1000.0;  4.0000001E-01;0.0;0;0.0;0.0;0.0;0;0.0;  1.0000000E+04;  0.0000000E+00;  0.0000000E+00;  1.0000000E+04;  0.0000000E+00;  1.0000000E+04;0.0;0.0;0.0;0.0
 -1.8000001E-01;  9.9999998E-03; -3.8000000E-01;81;0.0;0.0;0.0;1000.0;  4.0000001E-01;0.0;0;0.0;0.0;0.0;0;0.0;  1.0000000E+04;  0.0000000E+00;  0.0000000E+00;  1.0000000E+04;  0.0000000E+00;  1.0000000E+04;0.0;0.0;0.0;0.0
 -1.8000001E-01;  9.9999998E-03; -3.6000001E-01;82;0.0;0.0;0.0;1000.0;  4.0000001E-01;0.0;0;0.0;0.0;0.0;0;0.0;  1.0000000E+04;  0.0000000E+00;  0.0000000E+00;  1.0000000E+04;  0.0000000E+00;  1.0000000E+04;0.0;0.0;0.0;0.0
 -1.6000000E-01;  9.9999998E-03; -4.0000001E-01;121;0.0;0.0;0.0;1000.0;  4.0000001E-01;0.0;0;0.0;0.0;0.0;0;0.0;  1.0000000E+04;  0.0000000E+00;  0.0000000E+00;  1.0000000E+04;  0.0000000E+00;  1.0000000E+04;0.0;0.0;0.0;0.0
 -1.6000000E-01;  9.9999998E-03; -3.8000000E-01;122;0.0;0.0;0.0;1000.0;  4.0000001E-01;0.0;0;0.0;0.0;0.0;0;0.0;  1.0000000E+04;  0.0000000E+00;  0.0000000E+00;  1.0000000E+04;  0.0000000E+00;  1.0000000E+04;0.0;0.0;0.0;0.0
 -1.6000000E-01;  9.9999998E-03; -3.6000001E-01;123;0.0;0.0;0.0;1000.0;  4.0000001E-01;0.0;0;0.0;0.0;0.0;0;0.0;  1.0000000E+04;  0.0000000E+00;  0.0000000E+00;  1.0000000E+04;  0.0000000E+00;  1.0000000E+04;0.0;0.0;0.0;0.0
 -1.4000000E-01;  9.9999998E-03; -4.0000001E-01;162;0.0;0.0;0.0;1000.0;  4.0000001E-01;0.0;0;0.0;0.0;0.0;0;0.0;  1.0000000E+04;  0.0000000E+00;  0.0000000E+00;  1.0000000E+04;  0.0000000E+00;  1.0000000E+04;0.0;0.0;0.0;0.0
 -1.4000000E-01;  9.9999998E-03; -3.8000000E-01;163;0.0;0.0;0.0;1000.0;  4.0000001E-01;0.0;0;0.0;0.0;0.0;0;0.0;  1.0000000E+04;  0.0000000E+00;  0.0000000E+00;  1.0000000E+04;  0.0000000E+00;  1.0000000E+04;0.0;0.0;0.0;0.0
 -1.4000000E-01;  9.9999998E-03; -3.6000001E-01;164;0.0;0.0;0.0;1000.0;  4.0000001E-01;0.0;0;0.0;0.0;0.0;0;-1.9060272e-12;  1.0000000E+04;  0.0000000E+00;  0.0000000E+00;  1.0000000E+04;  0.0000000E+00;  1.0000000E+04;-1.5912358e-12;0.0;-3.147913e-13;6.3543185e-11
 -1.2000000E-01;  9.9999998E-03; -4.0000001E-01;203;0.0;0.0;0.0;1000.0;  4.0000001E-01;0.0;0;0.0;0.0;0.0;0;0.0;  1.0000000E+04;  0.0000000E+00;  0.0000000E+00;  1.0000000E+04;  0.0000000E+00;  1.0000000E+04;0.0;0.0;0.0;0.0
 -1.2000000E-01;  9.9999998E-03; -3.8000000E-01;204;0.0;0.0;0.0;1000.0;  4.0000001E-01;0.0;0;0.0;0.0;0.0;0;-1.1060763e-11;  1.0000000E+04;  0.0000000E+00;  0.0000000E+00;  1.0000000E+04;  0.0000000E+00;  1.0000000E+04;-8.4520871e-12;0.0;-2.6086761e-12;5.6044613e-10
 -1.2000000E-01;  9.9999998E-03; -3.6000001E-01;205;0.0;0.0;0.0;1000.0;  4.0000001E-01;0.0;0;0.0;0.0;0.0;0;-7.7307785e-11;  1.0000000E+04;  0.0000000E+00;  0.0000000E+00;  1.0000000E+04;  0.0000000E+00;  1.0000000E+04;-6.2379893e-11;0.0;-1.4927889e-11;3.1870999e-09
 -1.0000000E-01;  9.9999998E-03; -4.0000001E-01;244;0.0;0.0;0.0;1000.0;  4.0000001E-01;0.0;0;0.0;0.0;0.0;0;-2.3369962e-11;  1.0000000E+04;  0.0000000E+00;  0.0000000E+00;  1.0000000E+04;  0.0000000E+00;  1.0000000E+04;-1.6851435e-11;0.0;-6.5185275e-12;1.4851392e-09
 -1.0000000E-01;  9.9999998E-03; -3.8000000E-01;245;0.0;0.0;0.0;1000.0;  4.0000001E-01;0.0;0;0.0;0.0;0.0;0;-1.6873526e-10;  1.0000000E+04;  0.0000000E+00;  0.0000000E+00;  1.0000000E+04;  0.0000000E+00;  1.0000000E+04;-1.2316989e-10;0.0;-4.5565367e-11;1.0325536e-08
 -1.0000000E-01;  9.9999998E-03; -3.6000001E-01;246;0.0;0.0;0.0;1000.0;  4.0000001E-01;0.0;0;0.0;0.0;0.0;0;-5.4860122e-10;  1.0000000E+04;  0.0000000E+00;  0.0000000E+00;  1.0000000E+04;  0.0000000E+00;  1.0000000E+04;-4.2849829e-10;0.0;-1.2010293e-10;2.7098766e-08
 -7.9999998E-02;  9.9999998E-03; -4.0000001E-01;285;0.0;0.0;0.0;1000.0;  4.0000001E-01;0.0;0;0.0;0.0;0.0;0;-2.1820315e-10;  1.0000000E+04;  0.0000000E+00;  0.0000000E+00;  1.0000000E+04;  0.0000000E+00;  1.0000000E+04;-1.4961472e-10;0.0;-6.858842e-11;1.6306691e-08
 -7.9999998E-02;  9.9999998E-03; -3.8000000E-01;286;0.0;0.0;0.0;1000.0;  4.0000001E-01;0.0;0;0.0;0.0;0.0;0;-8.5620666e-10;  1.0000000E+04;  0.0000000E+00;  0.0000000E+00;  1.0000000E+04;  0.0000000E+00;  1.0000000E+04;-5.9972788e-10;0.0;-2.5647878e-10;6.1595721e-08
 -7.9999998E-02;  9.9999998E-03; -3.6000001E-01;287;0.0;0.0;0.0;1000.0;  4.0000001E-01;0.0;0;0.0;0.0;0.0;0;-2.1519055e-09;  1.0000000E+04;  0.0000000E+00;  0.0000000E+00;  1.0000000E+04;  0.0000000E+00;  1.0000000E+04;-1.6306543e-09;0.0;-5.2125132e-10;1.2528187e-07
 -5.9999999E-02;  9.9999998E-03; -4.0000001E-01;326;0.0;0.0;0.0;1000.0;  4.0000001E-01;0.0;0;0.0;0.0;0.0;0;-9.0731189e-10;  1.0000000E+04;  0.0000000E+00;  0.0000000E+00;  1.0000000E+04;  0.0000000E+00;  1.0000000E+04;-5.9251465e-10;0.0;-3.1479722e-10;7.9539802e-08
 -5.9999999E-02;  9.9999998E-03; -3.8000000E-01;327;0.0;0.0;0.0;1000.0;  4.0000001E-01;0.0;0;0.0;0.0;0.0;0;-2.8126639e-09;  1.0000000E+04;  0.0000000E+00;  0.0000000E+00;  1.0000000E+04;  0.0000000E+00;  1.0000000E+04;-1.8915181e-09;0.0;-9.2114583e-10;2.3748429e-07
 -5.9999999E-02;  9.9999998E-03; -3.6000001E-01;328;0.0;0.0;0.0;1000.0;  4.0000001E-01;0.0;0;0.0;0.0;0.0;0;-6.2634737e-09;  1.0000000E+04;  0.0000000E+00;  0.0000000E+00;  1.0000000E+04;  0.0000000E+00;  1.0000000E+04;-4.6057393e-09;0.0;-1.6577344e-09;4.3035206e-07
 -3.9999999E-02;  9.9999998E-03; -4.0000001E-01;367;0.0;0.0;0.0;1000.0;  4.0000001E-01;0.0;0;0.0;0.0;0.0;0;-2.636277e-09;  1.0000000E+04;  0.0000000E+00;  0.0000000E+00;  1.0000000E+04;  0.0000000E+00;  1.0000000E+04;-1.6370207e-09;0.0;-9.9925634e-10;2.7289784e-07
 -3.9999999E-02;  9.9999998E-03; -3.8000000E-01;368;0.0;0.0;0.0;1000.0;  4.0000001E-01;0.0;0;0.0;0.0;0.0;0;-7.3074746e-09;  1.0000000E+04;  0.0000000E+00;  0.0000000E+00;  1.0000000E+04;  0.0000000E+00;  1.0000000E+04;-4.7142081e-09;0.0;-2.5932665e-09;7.2845398e-07
 -3.9999999E-02;  9.9999998E-03; -3.6000001E-01;369;0.0;0.0;0.0;1000.0;  4.0000001E-01;0.0;0;0.0;0.0;0.0;0;-1.5258435e-08;  1.0000000E+04;  0.0000000E+00;  0.0000000E+00;  1.0000000E+04;  0.0000000E+00;  1.0000000E+04;-1.0879899e-08;0.0;-4.3785353e-09;1.244908e-06
 -2.0000000E-02;  9.9999998E-03; -4.0000001E-01;408;0.0;0.0;0.0;1000.0;  4.0000001E-01;0.0;0;0.0;0.0;0.0;0;-6.3043784e-09;  1.0000000E+04;  0.0000000E+00;  0.0000000E+00;  1.0000000E+04;  0.0000000E+00;  1.0000000E+04;-3.7233452e-09;0.0;-2.5810329e-09;7.7472419e-07
 -2.0000000E-02;  9.9999998E-03; -3.8000000E-01;409;0.0;0.0;0.0;1000.0;  4.0000001E-01;0.0;0;0.0;0.0;0.0;0;-1.6514209e-08;  1.0000000E+04;  0.0000000E+00;  0.0000000E+00;  1.0000000E+04;  0.0000000E+00;  1.0000000E+04;-1.0231218e-08;0.0;-6.2829915e-09;1.9514594e-06
 -2.0000000E-02;  9.9999998E-03; -3.6000001E-01;410;0.0;0.0;0.0;1000.0;  4.0000001E-01;0.0;0;0.0;0.0;0.0;0;-3.3257592e-08;  1.0000000E+04;  0.0000000E+00;  0.0000000E+00;  1.0000000E+04;  0.0000000E+00;  1.0000000E+04;-2.3015728e-08;0.0;-1.0241864e-08;3.2318706e-06
  0.0000000E+00;  9.9999998E-03; -4.0000001E-01;449;0.0;0.0;0.0;1000.0;  4.0000001E-01;0.0;0;0.0;0.0;0.0;0;-1.3470926e-08;  1.0000000E+04;  0.0000000E+00;  0.0000000E+00;  1.0000000E+04;  0.0000000E+00;  1.0000000E+04;-7.6007227e-09;0.0;-5.8702034e-09;1.9662559e-06
  0.0000000E+00;  9.9999998E-03; -3.8000000E-01;450;0.0;0.0;0.0;1000.0;  4.0000001E-01;0.0;0;0.0;0.0;0.0;0;-3.4258967e-08;  1.0000000E+04;  0.0000000E+00;  0.0000000E+00;  1.0000000E+04;  0.0000000E+00;  1.0000000E+04;-2.0469864e-08;0.0;-1.3789105e-08;4.7971043e-06
  0.0000000E+00;  9.9999998E-03; -3.6000001E-01;451;0.0;0.0;0.0;1000.0;  4.0000001E-01;0.0;0;0.0;0.0;0.0;0;-6.7521839e-08;  1.0000000E+04;  0.0000000E+00;  0.0000000E+00;  1.0000000E+04;  0.0000000E+00;  1.0000000E+04;-4.5493362e-08;0.0;-2.2028473e-08;7.8026369e-06
  2.0000000E-02;  9.9999998E-03; -4.0000001E-01;461;0.0;0.0;0.0;1000.0;  4.0000001E-01;0.0;0;0.0;0.0;0.0;0;-2.6934902e-08;  1.0000000E+04;  0.0000000E+00;  0.0000000E+00;  1.0000000E+04;  0.0000000E+00;  1.0000000E+04;-1.4636688e-08;0.0;-1.2298214e-08;4.6511514e-06
  2.0000000E-02;  9.9999998E-03; -3.8000000E-01;462;0.0;0.0;0.0;1000.0;  4.0000001E-01;0.0;0;0.0;0.0;0.0;0;-6.7371516e-08;  1.0000000E+04;  0.0000000E+00;  0.0000000E+00;  1.0000000E+04;  0.0000000E+00;  1.0000000E+04;-3.9080408e-08;0.0;-2.8291105e-08;1.1128345e-05
  2.0000000E-02;  9.9999998E-03; -3.6000001E-01;463;0.0;0.0;0.0;1000.0;  4.0000001E-01;0.0;0;0.0;0.0;0.0;0;-1.3093839e-07;  1.0000000E+04;  0.0000000E+00;  0.0000000E+00;  1.0000000E+04;  0.0000000E+00;  1.0000000E+04;-8.6303316e-08;0.0;-4.4635069e-08;1.7887762e-05
  3.9999999E-02;  9.9999998E-03; -4.0000001E-01;471;0.0;0.0;0.0;1000.0;  4.0000001E-01;0.0;0;0.0;0.0;0.0;0;-5.1722679e-08;  1.0000000E+04;  0.0000000E+00;  0.0000000E+00;  1.0000000E+04;  0.0000000E+00;  1.0000000E+04;-2.7325656e-08;0.0;-2.4397025e-08;1.0488346e-05
  3.9999999E-02;  9.9999998E-03; -3.8000000E-01;472;0.0;0.0;0.0;1000.0;  4.0000001E-01;0.0;0;0.0;0.0;0.0;0;-1.2797986e-07;  1.0000000E+04;  0.0000000E+00;  0.0000000E+00;  1.0000000E+04;  0.0000000E+00;  1.0000000E+04;-7.2598091e-08;0.0;-5.5381772e-08;2.4745741e-05
  3.9999999E-02;  9.9999998E-03; -3.6000001E-01;473;0.0;0.0;0.0;1000.0;  4.0000001E-01;0.0;0;0.0;0.0;0.0;0;-2.4623404e-07;  1.0000000E+04;  0.0000000E+00;  0.0000000E+00;  1.0000000E+04;  0.0000000E+00;  1.0000000E+04;-1.5960545e-07;0.0;-8.6628603e-08;3.9412833e-05
  5.9999999E-02;  9.9999998E-03; -4.0000001E-01;481;0.0;0.0;0.0;1000.0;  4.0000001E-01;0.0;0;0.0;0.0;0.0;0;-9.6853327e-08;  1.0000000E+04;  0.0000000E+00;  0.0000000E+00;  1.0000000E+04;  0.0000000E+00;  1.0000000E+04;-5.0253256e-08;0.0;-4.6600075e-08;2.2801025e-05
  5.9999999E-02;  9.9999998E-03; -3.8000000E-01;482;0.0;0.0;0.0;1000.0;  4.0000001E-01;0.0;0;0.0;0.0;0.0;0;-2.375474e-07;  1.0000000E+04;  0.0000000E+00;  0.0000000E+00;  1.0000000E+04;  0.0000000E+00;  1.0000000E+04;-1.3276295e-07;0.0;-1.0478444e-07;5.3169504e-05
  5.9999999E-02;  9.9999998E-03; -3.6000001E-01;483;0.0;0.0;0.0;1000.0;  4.0000001E-01;0.0;0;0.0;0.0;0.0;0;-4.5316142e-07;  1.0000000E+04;  0.0000000E+00;  0.0000000E+00;  1.0000000E+04;  0.0000000E+00;  1.0000000E+04;-2.9031952e-07;0.0;-1.628419e-07;8.4009327e-05
  7.9999998E-02;  9.9999998E-03; -4.0000001E-01;491;0.0;0.0;0.0;1000.0;  4.0000001E-01;0.0;0;0.0;0.0;0.0;0;-1.7905845e-07;  1.0000000E+04;  0.0000000E+00;  0.0000000E+00;  1.0000000E+04;  0.0000000E+00;  1.0000000E+04;-9.2495952e-08;0.0;-8.6562494e-08;4.8060399e-05
  7.9999998E-02;  9.9999998E-03; -3.8000000E-01;492;0.0;0.0;0.0;1000.0;  4.0000001E-01;0.0;0;0.0;0.0;0.0;0;-4.3576878e-07;  1.0000000E+04;  0.0000000E+00;  0.0000000E+00;  1.0000000E+04;  0.0000000E+00;  1.0000000E+04;-2.4255203e-07;0.0;-1.9321675e-07;0.00011086408
  7.9999998E-02;  9.9999998E-03; -3.6000001E-01;493;0.0;0.0;0.0;1000.0;  4.0000001E-01;0.0;0;0.0;0.0;0.0;0;-8.25239e-07;  1.0000000E+04;  0.0000000E+00;  0.0000000E+00;  1.0000000E+04;  0.0000000E+00;  1.0000000E+04;-5.2640746e-07;0.0;-2.9883151e-07;0.00017416039
  1.0000000E-01;  9.9999998E-03; -4.0000001E-01;501;0.0;0.0;0.0;1000.0;  4.0000001E-01;0.0;0;0.0;0.0;0.0;0;-3.3165912e-07;  1.0000000E+04;  0.0000000E+00;  0.0000000E+00;  1.0000000E+04;  0.0000000E+00;  1.0000000E+04;-1.7386157e-07;0.0;-1.5779754e-07;0.00010084655
  1.0000000E-01;  9.9999998E-03; -3.8000000E-01;502;0.0;0.0;0.0;1000.0;  4.0000001E-01;0.0;0;0.0;0.0;0.0;0;-8.0144787e-07;  1.0000000E+04;  0.0000000E+00;  0.0000000E+00;  1.0000000E+04;  0.0000000E+00;  1.0000000E+04;-4.5123525e-07;0.0;-3.5021264e-07;0.00022561946
  1.0000000E-01;  9.9999998E-03; -3.6000001E-01;503;0.0;0.0;0.0;1000.0;  4.0000001E-01;0.0;0;0.0;0.0;0.0;0;-1.5084601e-06;  1.0000000E+04;  0.0000000E+00;  0.0000000E+00;  1.0000000E+04;  0.0000000E+00;  1.0000000E+04;-9.6862664e-07;0.0;-5.3983342e-07;0.00035484077
  1.2000000E-01;  9.9999998E-03; -4.0000001E-01;511;0.0;0.0;0.0;1000.0;  4.0000001E-01;0.0;0;0.0;0.0;0.0;0;-6.2511589e-07;  1.0000000E+04;  0.0000000E+00;  0.0000000E+00;  1.0000000E+04;  0.0000000E+00;  1.0000000E+04;-3.3872988e-07;0.0;-2.8638601e-07;0.00025219651
  1.2000000E-01;  9.9999998E-03; -3.8000000E-01;512;0.0;0.0;0.0;1000.0;  4.0000001E-01;0.0;0;0.0;0.0;0.0;0;-1.4974637e-06;  1.0000000E+04;  0.0000000E+00;  0.0000000E+00;  1.0000000E+04;  0.0000000E+00;  1.0000000E+04;-8.6616438e-07;0.0;-6.3129926e-07;0.00046575759
  1.2000000E-01;  9.9999998E-03; -3.6000001E-01;513;0.0;0.0;0.0;1000.0;  4.0000001E-01;0.0;0;0.0;0.0;0.0;0;-2.7999299e-06;  1.0000000E+04;  0.0000000E+00;  0.0000000E+00;  1.0000000E+04;  0.0000000E+00;  1.0000000E+04;-1.8304005e-06;0.0;-9.6952954e-07;0.00072178571
  1.4000000E-01;  9.9999998E-03; -4.0000001E-01;521;0.0;0.0;0.0;1000.0;  4.0000001E-01;0.0;0;0.0;0.0;0.0;0;-1.2156488e-06;  1.0000000E+04;  0.0000000E+00;  0.0000000E+00;  1.0000000E+04;  0.0000000E+00;  1.0000000E+04;-6.8645215e-07;0.0;-5.291966e-07;0.00091244257
  1.4000000E-01;  9.9999998E-03; -3.8000000E-01;522;0.0;0.0;0.0;1000.0;  4.0000001E-01;0.0;0;0.0;0.0;0.0;0;-2.8611407e-06;  1.0000000E+04;  0.0000000E+00;  0.0000000E+00;  1.0000000E+04;  0.0000000E+00;  1.0000000E+04;-1.7142103e-06;0.0;-1.1469306e-06;0.0011482753
  1.4000000E-01;  9.9999998E-03; -3.6000001E-01;523;0.0;0.0;0.0;1000.0;  4.0000001E-01;0.0;0;0.0;0.0;0.0;0;-5.2915902e-06;  1.0000000E+04;  0.0000000E+00;  0.0000000E+00;  1.0000000E+04;  0.0000000E+00;  1.0000000E+04;-3.5441328e-06;0.0;-1.7474573e-06;0.0014790016
  1.6000000E-01;  9.9999998E-03; -4.0000001E-01;531;0.0;0.0;0.0;1000.0;  4.0000001E-01;0.0;0;0.0;0.0;0.0;0;-2.4484884e-06;  1.0000000E+04;  0.0000000E+00;  0.0000000E+00;  1.0000000E+04;  0.0000000E+00;  1.0000000E+04;-1.4231879e-06;0.0;-1.0253004e-06;0.0036382431
  1.6000000E-01;  9.9999998E-03; -3.8000000E-01;532;0.0;0.0;0.0;1000.0;  4.0000001E-01;0.0;0;0.0;0.0;0.0;0;-5.5410919e-06;  1.0000000E+04;  0.0000000E+00;  0.0000000E+00;  1.0000000E+04;  0.0000000E+00;  1.0000000E+04;-3.4131224e-06;0.0;-2.1279698e-06;0.0036943257
  1.6000000E-01;  9.9999998E-03; -3.6000001E-01;533;0.0;0.0;0.0;1000.0;  4.0000001E-01;0.0;0;0.0;0.0;0.0;0;-1.0043568e-05;  1.0000000E+04;  0.0000000E+00;  0.0000000E+00;  1.0000000E+04;  0.0000000E+00;  1.0000000E+04;-6.8607828e-06;0.0;-3.1827853e-06;0.0029916351
  1.8000001E-01;  9.9999998E-03; -4.0000001E-01;541;0.0;0.0;0.0;1000.0;  4.0000001E-01;0.0;0;0.0;0.0;0.0;0;-5.0242716e-06;  1.0000000E+04;  0.0000000E+00;  0.0000000E+00;  1.0000000E+04;  0.0000000E+00;  1.0000000E+04;-2.8849365e-06;0.0;-2.139335e-06;0.012876177
  1.8000001E-01;  9.9999998E-03; -3.8000000E-01;542;0.0;0.0;0.0;1000.0;  4.0000001E-01;0.0;0;0.0;0.0;0.0;0;-1.0572712e-05;  1.0000000E+04;  0.0000000E+00;  0.0000000E+00;  1.0000000E+04;  0.0000000E+00;  1.0000000E+04;-6.5038571e-06;0.0;-4.0688551e-06;0.011993804
  1.8000001E-01;  9.9999998E-03; -3.6000001E-01;543;0.0;0.0;0.0;1000.0;  4.0000001E-01;0.0;0;0.0;0.0;0.0;0;-1.8550503e-05;  1.0000000E+04;  0.0000000E+00;  0.0000000E+00;  1.0000000E+04;  0.0000000E+00;  1.0000000E+04;-1.2682528e-05;0.0;-5.8679748e-06;0.0057245791
  2.0000000E-01;  9.9999998E-03; -3.8000000E-01;551;0.0;0.0;0.0;1000.0;  4.0000001E-01;0.0;0;0.0;0.0;0.0;0;-1.9395866e-05;  1.0000000E+04;  0.0000000E+00;  0.0000000E+00;  1.0000000E+04;  0.0000000E+00;  1.0000000E+04;-1.1414458e-05;0.0;-7.981409e-06;0.032699216
  2.0000000E-01;  9.9999998E-03; -3.6000001E-01;552;0.0;0.0;0.0;1000.0;  4.0000001E-01;0.0;0;0.0;0.0;0.0;0;-3.255493e-05;  1.0000000E+04;  0.0000000E+00;  0.0000000E+00;  1.0000000E+04;  0.0000000E+00;  1.0000000E+04;-2.1654612e-05;0.0;-1.0900318e-05;0.010886373
 -2.2000000E-01;  9.9999998E-03; -3.4000000E-01;2;0.0;0.0;0.0;1000.0;  4.0000001E-01;0.0;0;0.0;0.0;0.0;0;0.0;  1.0000000E+04;  0.0000000E+00;  0.0000000E+00;  1.0000000E+04;  0.0000000E+00;  1.0000000E+04;0.0;0.0;0.0;0.0
 -2.2000000E-01;  9.9999998E-03; -3.1999999E-01;3;0.0;0.0;0.0;1000.0;  4.0000001E-01;0.0;0;0.0;0.0;0.0;0;0.0;  1.0000000E+04;  0.0000000E+00;  0.0000000E+00;  1.0000000E+04;  0.0000000E+00;  1.0000000E+04;0.0;0.0;0.0;0.0
 -2.2000000E-01;  9.9999998E-03; -3.0000001E-01;4;0.0;0.0;0.0;1000.0;  4.0000001E-01;0.0;0;0.0;0.0;0.0;0;0.0;  1.0000000E+04;  0.0000000E+00;  0.0000000E+00;  1.0000000E+04;  0.0000000E+00;  1.0000000E+04;0.0;0.0;0.0;0.0
 -2.2000000E-01;  9.9999998E-03; -2.8000000E-01;5;0.0;0.0;0.0;1000.0;  4.0000001E-01;0.0;0;0.0;0.0;0.0;0;0.0;  1.0000000E+04;  0.0000000E+00;  0.0000000E+00;  1.0000000E+04;  0.0000000E+00;  1.0000000E+04;0.0;0.0;0.0;0.0
 -2.2000000E-01;  9.9999998E-03; -2.5999999E-01;6;0.0;0.0;0.0;1000.0;  4.0000001E-01;0.0;0;0.0;0.0;0.0;0;0.0;  1.0000000E+04;  0.0000000E+00;  0.0000000E+00;  1.0000000E+04;  0.0000000E+00;  1.0000000E+04;0.0;0.0;0.0;0.0
 -2.2000000E-01;  9.9999998E-03; -2.3999999E-01;7;0.0;0.0;0.0;1000.0;  4.0000001E-01;0.0;0;0.0;0.0;0.0;0;0.0;  1.0000000E+04;  0.0000000E+00;  0.0000000E+00;  1.0000000E+04;  0.0000000E+00;  1.0000000E+04;0.0;0.0;0.0;0.0
 -2.2000000E-01;  9.9999998E-03; -2.2000000E-01;8;0.0;0.0;0.0;1000.0;  4.0000001E-01;0.0;0;0.0;0.0;0.0;0;0.0;  1.0000000E+04;  0.0000000E+00;  0.0000000E+00;  1.0000000E+04;  0.0000000E+00;  1.0000000E+04;0.0;0.0;0.0;0.0
 -2.2000000E-01;  9.9999998E-03; -2.0000000E-01;9;0.0;0.0;0.0;1000.0;  4.0000001E-01;0.0;0;0.0;0.0;0.0;0;0.0;  1.0000000E+04;  0.0000000E+00;  0.0000000E+00;  1.0000000E+04;  0.0000000E+00;  1.0000000E+04;0.0;0.0;0.0;0.0
 -2.0000000E-01;  9.9999998E-03; -3.4000000E-01;42;0.0;0.0;0.0;1000.0;  4.0000001E-01;0.0;0;0.0;0.0;0.0;0;0.0;  1.0000000E+04;  0.0000000E+00;  0.0000000E+00;  1.0000000E+04;  0.0000000E+00;  1.0000000E+04;0.0;0.0;0.0;0.0
 -2.0000000E-01;  9.9999998E-03; -3.1999999E-01;43;0.0;0.0;0.0;1000.0;  4.0000001E-01;0.0;0;0.0;0.0;0.0;0;0.0;  1.0000000E+04;  0.0000000E+00;  0.0000000E+00;  1.0000000E+04;  0.0000000E+00;  1.0000000E+04;0.0;0.0;0.0;0.0
 -2.0000000E-01;  9.9999998E-03; -3.0000001E-01;44;0.0;0.0;0.0;1000.0;  4.0000001E-01;0.0;0;0.0;0.0;0.0;0;0.0;  1.0000000E+04;  0.0000000E+00;  0.0000000E+00;  1.0000000E+04;  0.0000000E+00;  1.0000000E+04;0.0;0.0;0.0;0.0
 -2.0000000E-01;  9.9999998E-03; -2.8000000E-01;45;0.0;0.0;0.0;1000.0;  4.0000001E-01;0.0;0;0.0;0.0;0.0;0;0.0;  1.0000000E+04;  0.0000000E+00;  0.0000000E+00;  1.0000000E+04;  0.0000000E+00;  1.0000000E+04;0.0;0.0;0.0;0.0
 -2.0000000E-01;  9.9999998E-03; -2.5999999E-01;46;0.0;0.0;0.0;1000.0;  4.0000001E-01;0.0;0;0.0;0.0;0.0;0;0.0;  1.0000000E+04;  0.0000000E+00;  0.0000000E+00;  1.0000000E+04;  0.0000000E+00;  1.0000000E+04;0.0;0.0;0.0;0.0
 -2.0000000E-01;  9.9999998E-03; -2.3999999E-01;47;0.0;0.0;0.0;1000.0;  4.0000001E-01;0.0;0;0.0;0.0;0.0;0;0.0;  1.0000000E+04;  0.0000000E+00;  0.0000000E+00;  1.0000000E+04;  0.0000000E+00;  1.0000000E+04;0.0;0.0;0.0;0.0
 -2.0000000E-01;  9.9999998E-03; -2.2000000E-01;48;0.0;0.0;0.0;1000.0;  4.0000001E-01;0.0;0;0.0;0.0;0.0;0;0.0;  1.0000000E+04;  0.0000000E+00;  0.0000000E+00;  1.0000000E+04;  0.0000000E+00;  1.0000000E+04;0.0;0.0;0.0;0.0
 -2.0000000E-01;  9.9999998E-03; -2.0000000E-01;49;0.0;0.0;0.0;1000.0;  4.0000001E-01;0.0;0;0.0;0.0;0.0;0;0.0;  1.0000000E+04;  0.0000000E+00;  0.0000000E+00;  1.0000000E+04;  0.0000000E+00;  1.0000000E+04;0.0;0.0;0.0;0.0
 -1.8000001E-01;  9.9999998E-03; -3.4000000E-01;83;0.0;0.0;0.0;1000.0;  4.0000001E-01;0.0;0;0.0;0.0;0.0;0;0.0;  1.0000000E+04;  0.0000000E+00;  0.0000000E+00;  1.0000000E+04;  0.0000000E+00;  1.0000000E+04;0.0;0.0;0.0;0.0
 -1.8000001E-01;  9.9999998E-03; -3.1999999E-01;84;0.0;0.0;0.0;1000.0;  4.0000001E-01;0.0;0;0.0;0.0;0.0;0;0.0;  1.0000000E+04;  0.0000000E+00;  0.0000000E+00;  1.0000000E+04;  0.0000000E+00;  1.0000000E+04;0.0;0.0;0.0;0.0
 -1.8000001E-01;  9.9999998E-03; -3.0000001E-01;85;0.0;0.0;0.0;1000.0;  4.0000001E-01;0.0;0;0.0;0.0;0.0;0;0.0;  1.0000000E+04;  0.0000000E+00;  0.0000000E+00;  1.0000000E+04;  0.0000000E+00;  1.0000000E+04;0.0;0.0;0.0;0.0
 -1.8000001E-01;  9.9999998E-03; -2.8000000E-01;86;0.0;0.0;0.0;1000.0;  4.0000001E-01;0.0;0;0.0;0.0;0.0;0;0.0;  1.0000000E+04;  0.0000000E+00;  0.0000000E+00;  1.0000000E+04;  0.0000000E+00;  1.0000000E+04;0.0;0.0;0.0;0.0
 -1.8000001E-01;  9.9999998E-03; -2.5999999E-01;87;0.0;0.0;0.0;1000.0;  4.0000001E-01;0.0;0;0.0;0.0;0.0;0;0.0;  1.0000000E+04;  0.0000000E+00;  0.0000000E+00;  1.0000000E+04;  0.0000000E+00;  1.0000000E+04;0.0;0.0;0.0;0.0
 -1.8000001E-01;  9.9999998E-03; -2.3999999E-01;88;0.0;0.0;0.0;1000.0;  4.0000001E-01;0.0;0;0.0;0.0;0.0;0;0.0;  1.0000000E+04;  0.0000000E+00;  0.0000000E+00;  1.0000000E+04;  0.0000000E+00;  1.0000000E+04;0.0;0.0;0.0;0.0
 -1.8000001E-01;  9.9999998E-03; -2.2000000E-01;89;0.0;0.0;0.0;1000.0;  4.0000001E-01;0.0;0;0.0;0.0;0.0;0;0.0;  1.0000000E+04;  0.0000000E+00;  0.0000000E+00;  1.0000000E+04;  0.0000000E+00;  1.0000000E+04;0.0;0.0;0.0;0.0
 -1.8000001E-01;  9.9999998E-03; -2.0000000E-01;90;0.0;0.0;0.0;1000.0;  4.0000001E-01;0.0;0;0.0;0.0;0.0;0;0.0;  1.0000000E+04;  0.0000000E+00;  0.0000000E+00;  1.0000000E+04;  0.0000000E+00;  1.0000000E+04;0.0;0.0;0.0;0.0
 -1.6000000E-01;  9.9999998E-03; -3.4000000E-01;124;0.0;0.0;0.0;1000.0;  4.0000001E-01;0.0;0;0.0;0.0;0.0;0;0.0;  1.0000000E+04;  0.0000000E+00;  0.0000000E+00;  1.0000000E+04;  0.0000000E+00;  1.0000000E+04;0.0;0.0;0.0;0.0
 -1.6000000E-01;  9.9999998E-03; -3.1999999E-01;125;0.0;0.0;0.0;1000.0;  4.0000001E-01;0.0;0;0.0;0.0;0.0;0;-3.5366512e-13;  1.0000000E+04;  0.0000000E+00;  0.0000000E+00;  1.0000000E+04;  0.0000000E+00;  1.0000000E+04;-3.3232751e-13;0.0;-2.1337622e-14;3.8929259e-12
 -1.6000000E-01;  9.9999998E-03; -3.0000001E-01;126;0.0;0.0;0.0;1000.0;  4.0000001E-01;0.0;0;0.0;0.0;0.0;0;-2.2805217e-12;  1.0000000E+04;  0.0000000E+00;  0.0000000E+00;  1.0000000E+04;  0.0000000E+00;  1.0000000E+04;-2.2092543e-12;0.0;-7.126734e-14;1.1222623e-11
 -1.6000000E-01;  9.9999998E-03; -2.8000000E-01;127;0.0;0.0;0.0;1000.0;  4.0000001E-01;0.0;0;0.0;0.0;0.0;0;-5.4729945e-12;  1.0000000E+04;  0.0000000E+00;  0.0000000E+00;  1.0000000E+04;  0.0000000E+00;  1.0000000E+04;-5.4113146e-12;0.0;-6.1679787e-14;3.5619758e-12
 -1.6000000E-01;  9.9999998E-03; -2.5999999E-01;128;0.0;0.0;0.0;1000.0;  4.0000001E-01;0.0;0;0.0;0.0;0.0;0;-8.3041143e-12;  1.0000000E+04;  0.0000000E+00;  0.0000000E+00;  1.0000000E+04;  0.0000000E+00;  1.0000000E+04;-8.301736e-12;0.0;-2.3782644e-15;1.6956842e-11
 -1.6000000E-01;  9.9999998E-03; -2.3999999E-01;129;0.0;0.0;0.0;1000.0;  4.0000001E-01;0.0;0;0.0;0.0;0.0;0;-9.987608e-12;  1.0000000E+04;  0.0000000E+00;  0.0000000E+00;  1.0000000E+04;  0.0000000E+00;  1.0000000E+04;-1.0007887e-11;0.0;2.0278501e-14;2.5143051e-11
 -1.6000000E-01;  9.9999998E-03; -2.2000000E-01;130;0.0;0.0;0.0;1000.0;  4.0000001E-01;0.0;0;0.0;0.0;0.0;0;-1.1221669e-11;  1.0000000E+04;  0.0000000E+00;  0.0000000E+00;  1.0000000E+04;  0.0000000E+00;  1.0000000E+04;-1.1242955e-11;0.0;2.1286932e-14;2.7521747e-11
 -1.6000000E-01;  9.9999998E-03; -2.0000000E-01;131;0.0;0.0;0.0;1000.0;  4.0000001E-01;0.0;0;0.0;0.0;0.0;0;-1.22306e-11;  1.0000000E+04;  0.0000000E+00;  0.0000000E+00;  1.0000000E+04;  0.0000000E+00;  1.0000000E+04;-1.2251063e-11;0.0;2.0463205e-14;2.8925189e-11
 -1.4000000E-01;  9.9999998E-03; -3.4000000E-01;165;0.0;0.0;0.0;1000.0;  4.0000001E-01;0.0;0;0.0;0.0;0.0;0;-1.688062e-11;  1.0000000E+04;  0.0000000E+00;  0.0000000E+00;  1.0000000E+04;  0.0000000E+00;  1.0000000E+04;-1.4878428e-11;0.0;-2.0021912e-12;3.9488068e-10
 -1.4000000E-01;  9.9999998E-03; -3.1999999E-01;166;0.0;0.0;0.0;1000.0;  4.0000001E-01;0.0;0;0.0;0.0;0.0;0;-5.6383887e-11;  1.0000000E+04;  0.0000000E+00;  0.0000000E+00;  1.0000000E+04;  0.0000000E+00;  1.0000000E+04;-5.2082439e-11;0.0;-4.3014472e-12;8.1608453e-10
 -1.4000000E-01;  9.9999998E-03; -3.0000001E-01;167;0.0;0.0;0.0;1000.0;  4.0000001E-01;0.0;0;0.0;0.0;0.0;0;-1.2234054e-10;  1.0000000E+04;  0.0000000E+00;  0.0000000E+00;  1.0000000E+04;  0.0000000E+00;  1.0000000E+04;-1.16904e-10;0.0;-5.4365444e-12;9.0171859e-10
 -1.4000000E-01;  9.9999998E-03; -2.8000000E-01;168;0.0;0.0;0.0;1000.0;  4.0000001E-01;0.0;0;0.0;0.0;0.0;0;-2.0505625e-10;  1.0000000E+04;  0.0000000E+00;  0.0000000E+00;  1.0000000E+04;  0.0000000E+00;  1.0000000E+04;-2.0057106e-10;0.0;-4.4851909e-12;4.8559246e-10
 -1.4000000E-01;  9.9999998E-03; -2.5999999E-01;169;0.0;0.0;0.0;1000.0;  4.0000001E-01;0.0;0;0.0;0.0;0.0;0;-2.8845629e-10;  1.0000000E+04;  0.0000000E+00;  0.0000000E+00;  1.0000000E+04;  0.0000000E+00;  1.0000000E+04;-2.8654895e-10;0.0;-1.9073334e-12;2.6068717e-10
 -1.4000000E-01;  9.9999998E-03; -2.3999999E-01;170;0.0;0.0;0.0;1000.0;  4.0000001E-01;0.0;0;0.0;0.0;0.0;0;-3.5925574e-10;  1.0000000E+04;  0.0000000E+00;  0.0000000E+00;  1.0000000E+04;  0.0000000E+00;  1.0000000E+04;-3.6011447e-10;0.0;8.5873377e-13;9.96355e-10
 -1.4000000E-01;  9.9999998E-03; -2.2000000E-01;171;0.0;0.0;0.0;1000.0;  4.0000001E-01;0.0;0;0.0;0.0;0.0;0;-4.1240245e-10;  1.0000000E+04;  0.0000000E+00;  0.0000000E+00;  1.0000000E+04;  0.0000000E+00;  1.0000000E+04;-4.1475565e-10;0.0;2.3531886e-12;1.4022673e-09
 -1.4000000E-01;  9.9999998E-03; -2.0000000E-01;172;0.0;0.0;0.0;1000.0;  4.0000001E-01;0.0;0;0.0;0.0;0.0;0;-4.5161364e-10;  1.0000000E+04;  0.0000000E+00;  0.0000000E+00;  1.0000000E+04;  0.0000000E+00;  1.0000000E+04;-4.5412463e-10;0.0;2.5109897e-12;1.4797527e-09
 -1.2000000E-01;  9.9999998E-03; -3.4000000E-01;206;0.0;0.0;0.0;1000.0;  4.0000001E-01;0.0;0;0.0;0.0;0.0;0;-2.3710361e-10;  1.0000000E+04;  0.0000000E+00;  0.0000000E+00;  1.0000000E+04;  0.0000000E+00;  1.0000000E+04;-2.0460834e-10;0.0;-3.2495267e-11;6.7911508e-09
 -1.2000000E-01;  9.9999998E-03; -3.1999999E-01;207;0.0;0.0;0.0;1000.0;  4.0000001E-01;0.0;0;0.0;0.0;0.0;0;-5.1210314e-10;  1.0000000E+04;  0.0000000E+00;  0.0000000E+00;  1.0000000E+04;  0.0000000E+00;  1.0000000E+04;-4.669416e-10;0.0;-4.5161555e-11;8.9026626e-09
 -1.2000000E-01;  9.9999998E-03; -3.0000001E-01;208;0.0;0.0;0.0;1000.0;  4.0000001E-01;0.0;0;0.0;0.0;0.0;0;-8.9441071e-10;  1.0000000E+04;  0.0000000E+00;  0.0000000E+00;  1.0000000E+04;  0.0000000E+00;  1.0000000E+04;-8.4820867e-10;0.0;-4.6202018e-11;7.9894997e-09
 -1.2000000E-01;  9.9999998E-03; -2.8000000E-01;209;0.0;0.0;0.0;1000.0;  4.0000001E-01;0.0;0;0.0;0.0;0.0;0;-1.3399241e-09;  1.0000000E+04;  0.0000000E+00;  0.0000000E+00;  1.0000000E+04;  0.0000000E+00;  1.0000000E+04;-1.3053766e-09;0.0;-3.4547469e-11;4.0893759e-09
 -1.2000000E-01;  9.9999998E-03; -2.5999999E-01;210;0.0;0.0;0.0;1000.0;  4.0000001E-01;0.0;0;0.0;0.0;0.0;0;-1.7850171e-09;  1.0000000E+04;  0.0000000E+00;  0.0000000E+00;  1.0000000E+04;  0.0000000E+00;  1.0000000E+04;-1.7704137e-09;0.0;-1.4603464e-11;1.5061372e-09
 -1.2000000E-01;  9.9999998E-03; -2.3999999E-01;211;0.0;0.0;0.0;1000.0;  4.0000001E-01;0.0;0;0.0;0.0;0.0;0;-2.1785529e-09;  1.0000000E+04;  0.0000000E+00;  0.0000000E+00;  1.0000000E+04;  0.0000000E+00;  1.0000000E+04;-2.1841704e-09;0.0;5.617601e-12;6.8029742e-09
 -1.2000000E-01;  9.9999998E-03; -2.2000000E-01;212;0.0;0.0;0.0;1000.0;  4.0000001E-01;0.0;0;0.0;0.0;0.0;0;-2.4996016e-09;  1.0000000E+04;  0.0000000E+00;  0.0000000E+00;  1.0000000E+04;  0.0000000E+00;  1.0000000E+04;-2.5187474e-09;0.0;1.9145848e-11;1.022978e-08
 -1.2000000E-01;  9.9999998E-03; -2.0000000E-01;213;0.0;0.0;0.0;1000.0;  4.0000001E-01;0.0;0;0.0;0.0;0.0;0;-2.7515572e-09;  1.0000000E+04;  0.0000000E+00;  0.0000000E+00;  1.0000000E+04;  0.0000000E+00;  1.0000000E+04;-2.775999e-09;0.0;2.4441702e-11;1.1581382e-08
 -1.0000000E-01;  9.9999998E-03; -3.4000000E-01;247;0.0;0.0;0.0;1000.0;  4.0000001E-01;0.0;0;0.0;0.0;0.0;0;-1.2367655e-09;  1.0000000E+04;  0.0000000E+00;  0.0000000E+00;  1.0000000E+04;  0.0000000E+00;  1.0000000E+04;-1.0449306e-09;0.0;-1.9183485e-10;4.2277453e-08
 -1.0000000E-01;  9.9999998E-03; -3.1999999E-01;248;0.0;0.0;0.0;1000.0;  4.0000001E-01;0.0;0;0.0;0.0;0.0;0;-2.2745439e-09;  1.0000000E+04;  0.0000000E+00;  0.0000000E+00;  1.0000000E+04;  0.0000000E+00;  1.0000000E+04;-2.0476141e-09;0.0;-2.2692989e-10;4.7355552e-08
 -1.0000000E-01;  9.9999998E-03; -3.0000001E-01;249;0.0;0.0;0.0;1000.0;  4.0000001E-01;0.0;0;0.0;0.0;0.0;0;-3.6267829e-09;  1.0000000E+04;  0.0000000E+00;  0.0000000E+00;  1.0000000E+04;  0.0000000E+00;  1.0000000E+04;-3.4152658e-09;0.0;-2.1151704e-10;3.913474e-08
 -1.0000000E-01;  9.9999998E-03; -2.8000000E-01;250;0.0;0.0;0.0;1000.0;  4.0000001E-01;0.0;0;0.0;0.0;0.0;0;-5.1542215e-09;  1.0000000E+04;  0.0000000E+00;  0.0000000E+00;  1.0000000E+04;  0.0000000E+00;  1.0000000E+04;-5.0057265e-09;0.0;-1.4849487e-10;1.9106277e-08
 -1.0000000E-01;  9.9999998E-03; -2.5999999E-01;251;0.0;0.0;0.0;1000.0;  4.0000001E-01;0.0;0;0.0;0.0;0.0;0;-6.6649877e-09;  1.0000000E+04;  0.0000000E+00;  0.0000000E+00;  1.0000000E+04;  0.0000000E+00;  1.0000000E+04;-6.6078827e-09;0.0;-5.710489e-11;6.9180146e-09
 -1.0000000E-01;  9.9999998E-03; -2.3999999E-01;252;0.0;0.0;0.0;1000.0;  4.0000001E-01;0.0;0;0.0;0.0;0.0;0;-8.0136804e-09;  1.0000000E+04;  0.0000000E+00;  0.0000000E+00;  1.0000000E+04;  0.0000000E+00;  1.0000000E+04;-8.0452063e-09;0.0;3.1525775e-11;3.0626438e-08
 -1.0000000E-01;  9.9999998E-03; -2.2000000E-01;253;0.0;0.0;0.0;1000.0;  4.0000001E-01;0.0;0;0.0;0.0;0.0;0;-9.1433972e-09;  1.0000000E+04;  0.0000000E+00;  0.0000000E+00;  1.0000000E+04;  0.0000000E+00;  1.0000000E+04;-9.2348182e-09;0.0;9.1420788e-11;4.585312e-08
 -1.0000000E-01;  9.9999998E-03; -2.0000000E-01;254;0.0;0.0;0.0;1000.0;  4.0000001E-01;0.0;0;0.0;0.0;0.0;0;-1.0059874e-08;  1.0000000E+04;  0.0000000E+00;  0.0000000E+00;  1.0000000E+04;  0.0000000E+00;  1.0000000E+04;-1.0177455e-08;0.0;1.175815e-10;5.2117336e-08
 -7.9999998E-02;  9.9999998E-03; -3.4000000E-01;288;0.0;0.0;0.0;1000.0;  4.0000001E-01;0.0;0;0.0;0.0;0.0;0;-4.2432489e-09;  1.0000000E+04;  0.0000000E+00;  0.0000000E+00;  1.0000000E+04;  0.0000000E+00;  1.0000000E+04;-3.5144891e-09;0.0;-7.2875966e-10;1.7195741e-07
 -7.9999998E-02;  9.9999998E-03; -3.1999999E-01;289;0.0;0.0;0.0;1000.0;  4.0000001E-01;0.0;0;0.0;0.0;0.0;0;-7.221324e-09;  1.0000000E+04;  0.0000000E+00;  0.0000000E+00;  1.0000000E+04;  0.0000000E+00;  1.0000000E+04;-6.4230745e-09;0.0;-7.9824936e-10;1.7939203e-07
 -7.9999998E-02;  9.9999998E-03; -3.0000001E-01;290;0.0;0.0;0.0;1000.0;  4.0000001E-01;0.0;0;0.0;0.0;0.0;0;-1.0983154e-08;  1.0000000E+04;  0.0000000E+00;  0.0000000E+00;  1.0000000E+04;  0.0000000E+00;  1.0000000E+04;-1.027485e-08;0.0;-7.083033e-10;1.4211831e-07
 -7.9999998E-02;  9.9999998E-03; -2.8000000E-01;291;0.0;0.0;0.0;1000.0;  4.0000001E-01;0.0;0;0.0;0.0;0.0;0;-1.5155505e-08;  1.0000000E+04;  0.0000000E+00;  0.0000000E+00;  1.0000000E+04;  0.0000000E+00;  1.0000000E+04;-1.4678273e-08;0.0;-4.7723309e-10;6.7374657e-08
 -7.9999998E-02;  9.9999998E-03; -2.5999999E-01;292;0.0;0.0;0.0;1000.0;  4.0000001E-01;0.0;0;0.0;0.0;0.0;0;-1.924918e-08;  1.0000000E+04;  0.0000000E+00;  0.0000000E+00;  1.0000000E+04;  0.0000000E+00;  1.0000000E+04;-1.9082206e-08;0.0;-1.6697378e-10;2.4934097e-08
 -7.9999998E-02;  9.9999998E-03; -2.3999999E-01;293;0.0;0.0;0.0;1000.0;  4.0000001E-01;0.0;0;0.0;0.0;0.0;0;-2.290942e-08;  1.0000000E+04;  0.0000000E+00;  0.0000000E+00;  1.0000000E+04;  0.0000000E+00;  1.0000000E+04;-2.3036032e-08;0.0;1.2661154e-10;1.0731272e-07
 -7.9999998E-02;  9.9999998E-03; -2.2000000E-01;294;0.0;0.0;0.0;1000.0;  4.0000001E-01;0.0;0;0.0;0.0;0.0;0;-2.6008522e-08;  1.0000000E+04;  0.0000000E+00;  0.0000000E+00;  1.0000000E+04;  0.0000000E+00;  1.0000000E+04;-2.6332899e-08;0.0;3.2437614e-10;1.595992e-07
 -7.9999998E-02;  9.9999998E-03; -2.0000000E-01;295;0.0;0.0;0.0;1000.0;  4.0000001E-01;0.0;0;0.0;0.0;0.0;0;-2.8563488e-08;  1.0000000E+04;  0.0000000E+00;  0.0000000E+00;  1.0000000E+04;  0.0000000E+00;  1.0000000E+04;-2.8974801e-08;0.0;4.1131401e-10;1.8044221e-07
 -5.9999999E-02;  9.9999998E-03; -3.4000000E-01;329;0.0;0.0;0.0;1000.0;  4.0000001E-01;0.0;0;0.0;0.0;0.0;0;-1.1513672e-08;  1.0000000E+04;  0.0000000E+00;  0.0000000E+00;  1.0000000E+04;  0.0000000E+00;  1.0000000E+04;-9.3476578e-09;0.0;-2.1660143e-09;5.5479774e-07
 -5.9999999E-02;  9.9999998E-03; -3.1999999E-01;330;0.0;0.0;0.0;1000.0;  4.0000001E-01;0.0;0;0.0;0.0;0.0;0;-1.8760186e-08;  1.0000000E+04;  0.0000000E+00;  0.0000000E+00;  1.0000000E+04;  0.0000000E+00;  1.0000000E+04;-1.6483797e-08;0.0;-2.276388e-09;5.5804253e-07
 -5.9999999E-02;  9.9999998E-03; -3.0000001E-01;331;0.0;0.0;0.0;1000.0;  4.0000001E-01;0.0;0;0.0;0.0;0.0;0;-2.7746353e-08;  1.0000000E+04;  0.0000000E+00;  0.0000000E+00;  1.0000000E+04;  0.0000000E+00;  1.0000000E+04;-2.5784139e-08;0.0;-1.9622137e-09;4.3241522e-07
 -5.9999999E-02;  9.9999998E-03; -2.8000000E-01;332;0.0;0.0;0.0;1000.0;  4.0000001E-01;0.0;0;0.0;0.0;0.0;0;-3.7592631e-08;  1.0000000E+04;  0.0000000E+00;  0.0000000E+00;  1.0000000E+04;  0.0000000E+00;  1.0000000E+04;-3.6308215e-08;0.0;-1.284415e-09;2.0209524e-07
 -5.9999999E-02;  9.9999998E-03; -2.5999999E-01;333;0.0;0.0;0.0;1000.0;  4.0000001E-01;0.0;0;0.0;0.0;0.0;0;-4.7177419e-08;  1.0000000E+04;  0.0000000E+00;  0.0000000E+00;  1.0000000E+04;  0.0000000E+00;  1.0000000E+04;-4.6764985e-08;0.0;-4.1243481e-10;7.4488362e-08
 -5.9999999E-02;  9.9999998E-03; -2.3999999E-01;334;0.0;0.0;0.0;1000.0;  4.0000001E-01;0.0;0;0.0;0.0;0.0;0;-5.5728499e-08;  1.0000000E+04;  0.0000000E+00;  0.0000000E+00;  1.0000000E+04;  0.0000000E+00;  1.0000000E+04;-5.6126897e-08;0.0;3.9839843e-10;3.1803452e-07
 -5.9999999E-02;  9.9999998E-03; -2.2000000E-01;335;0.0;0.0;0.0;1000.0;  4.0000001E-01;0.0;0;0.0;0.0;0.0;0;-6.3001117e-08;  1.0000000E+04;  0.0000000E+00;  0.0000000E+00;  1.0000000E+04;  0.0000000E+00;  1.0000000E+04;-6.3942409e-08;0.0;9.412906e-10;4.7117925e-07
 -5.9999999E-02;  9.9999998E-03; -2.0000000E-01;336;0.0;0.0;0.0;1000.0;  4.0000001E-01;0.0;0;0.0;0.0;0.0;0;-6.9050458e-08;  1.0000000E+04;  0.0000000E+00;  0.0000000E+00;  1.0000000E+04;  0.0000000E+00;  1.0000000E+04;-7.0228687e-08;0.0;1.1782266e-09;5.3042089e-07
 -3.9999999E-02;  9.9999998E-03; -3.4000000E-01;370;0.0;0.0;0.0;1000.0;  4.0000001E-01;0.0;0;0.0;0.0;0.0;0;-2.6934657e-08;  1.0000000E+04;  0.0000000E+00;  0.0000000E+00;  1.0000000E+04;  0.0000000E+00;  1.0000000E+04;-2.1419945e-08;0.0;-5.5147114e-09;1.5534625e-06
 -3.9999999E-02;  9.9999998E-03; -3.1999999E-01;371;0.0;0.0;0.0;1000.0;  4.0000001E-01;0.0;0;0.0;0.0;0.0;0;-4.2739163e-08;  1.0000000E+04;  0.0000000E+00;  0.0000000E+00;  1.0000000E+04;  0.0000000E+00;  1.0000000E+04;-3.7077154e-08;0.0;-5.6620091e-09;1.5332131e-06
 -3.9999999E-02;  9.9999998E-03; -3.0000001E-01;372;0.0;0.0;0.0;1000.0;  4.0000001E-01;0.0;0;0.0;0.0;0.0;0;-6.2090919e-08;  1.0000000E+04;  0.0000000E+00;  0.0000000E+00;  1.0000000E+04;  0.0000000E+00;  1.0000000E+04;-5.7298529e-08;0.0;-4.79239e-09;1.174699e-06
 -3.9999999E-02;  9.9999998E-03; -2.8000000E-01;373;0.0;0.0;0.0;1000.0;  4.0000001E-01;0.0;0;0.0;0.0;0.0;0;-8.3073012e-08;  1.0000000E+04;  0.0000000E+00;  0.0000000E+00;  1.0000000E+04;  0.0000000E+00;  1.0000000E+04;-8.0005485e-08;0.0;-3.0675262e-09;5.4617158e-07
 -3.9999999E-02;  9.9999998E-03; -2.5999999E-01;374;0.0;0.0;0.0;1000.0;  4.0000001E-01;0.0;0;0.0;0.0;0.0;0;-1.0332236e-07;  1.0000000E+04;  0.0000000E+00;  0.0000000E+00;  1.0000000E+04;  0.0000000E+00;  1.0000000E+04;-1.0241268e-07;0.0;-9.0968327e-10;1.9541021e-07
 -3.9999999E-02;  9.9999998E-03; -2.3999999E-01;375;0.0;0.0;0.0;1000.0;  4.0000001E-01;0.0;0;0.0;0.0;0.0;0;-1.2131645e-07;  1.0000000E+04;  0.0000000E+00;  0.0000000E+00;  1.0000000E+04;  0.0000000E+00;  1.0000000E+04;-1.2238129e-07;0.0;1.0648533e-09;8.4131767e-07
 -3.9999999E-02;  9.9999998E-03; -2.2000000E-01;376;0.0;0.0;0.0;1000.0;  4.0000001E-01;0.0;0;0.0;0.0;0.0;0;-1.3664567e-07;  1.0000000E+04;  0.0000000E+00;  0.0000000E+00;  1.0000000E+04;  0.0000000E+00;  1.0000000E+04;-1.3902117e-07;0.0;2.375506e-09;1.244166e-06
 -3.9999999E-02;  9.9999998E-03; -2.0000000E-01;377;0.0;0.0;0.0;1000.0;  4.0000001E-01;0.0;0;0.0;0.0;0.0;0;-1.4946411e-07;  1.0000000E+04;  0.0000000E+00;  0.0000000E+00;  1.0000000E+04;  0.0000000E+00;  1.0000000E+04;-1.5240531e-07;0.0;2.9411955e-09;1.3964335e-06
 -2.0000000E-02;  9.9999998E-03; -3.4000000E-01;411;0.0;0.0;0.0;1000.0;  4.0000001E-01;0.0;0;0.0;0.0;0.0;0;-5.7275699e-08;  1.0000000E+04;  0.0000000E+00;  0.0000000E+00;  1.0000000E+04;  0.0000000E+00;  1.0000000E+04;-4.4636241e-08;0.0;-1.2639457e-08;3.9635074e-06
 -2.0000000E-02;  9.9999998E-03; -3.1999999E-01;412;0.0;0.0;0.0;1000.0;  4.0000001E-01;0.0;0;0.0;0.0;0.0;0;-8.9328942e-08;  1.0000000E+04;  0.0000000E+00;  0.0000000E+00;  1.0000000E+04;  0.0000000E+00;  1.0000000E+04;-7.6525538e-08;0.0;-1.2803402e-08;3.8734706e-06
 -2.0000000E-02;  9.9999998E-03; -3.0000001E-01;413;0.0;0.0;0.0;1000.0;  4.0000001E-01;0.0;0;0.0;0.0;0.0;0;-1.2814249e-07;  1.0000000E+04;  0.0000000E+00;  0.0000000E+00;  1.0000000E+04;  0.0000000E+00;  1.0000000E+04;-1.1744109e-07;0.0;-1.0701405e-08;2.9499988e-06
 -2.0000000E-02;  9.9999998E-03; -2.8000000E-01;414;0.0;0.0;0.0;1000.0;  4.0000001E-01;0.0;0;0.0;0.0;0.0;0;-1.6978171e-07;  1.0000000E+04;  0.0000000E+00;  0.0000000E+00;  1.0000000E+04;  0.0000000E+00;  1.0000000E+04;-1.6306203e-07;0.0;-6.7196928e-09;1.3697212e-06
 -2.0000000E-02;  9.9999998E-03; -2.5999999E-01;415;0.0;0.0;0.0;1000.0;  4.0000001E-01;0.0;0;0.0;0.0;0.0;0;-2.0961026e-07;  1.0000000E+04;  0.0000000E+00;  0.0000000E+00;  1.0000000E+04;  0.0000000E+00;  1.0000000E+04;-2.0776172e-07;0.0;-1.8485516e-09;4.7006344e-07
 -2.0000000E-02;  9.9999998E-03; -2.3999999E-01;416;0.0;0.0;0.0;1000.0;  4.0000001E-01;0.0;0;0.0;0.0;0.0;0;-2.4486272e-07;  1.0000000E+04;  0.0000000E+00;  0.0000000E+00;  1.0000000E+04;  0.0000000E+00;  1.0000000E+04;-2.4739992e-07;0.0;2.5371942e-09;2.0570553e-06
 -2.0000000E-02;  9.9999998E-03; -2.2000000E-01;417;0.0;0.0;0.0;1000.0;  4.0000001E-01;0.0;0;0.0;0.0;0.0;0;-2.7490361e-07;  1.0000000E+04;  0.0000000E+00;  0.0000000E+00;  1.0000000E+04;  0.0000000E+00;  1.0000000E+04;-2.8032483e-07;0.0;5.4212106e-09;3.0404426e-06
 -2.0000000E-02;  9.9999998E-03; -2.0000000E-01;418;0.0;0.0;0.0;1000.0;  4.0000001E-01;0.0;0;0.0;0.0;0.0;0;-3.0009645e-07;  1.0000000E+04;  0.0000000E+00;  0.0000000E+00;  1.0000000E+04;  0.0000000E+00;  1.0000000E+04;-3.0674735e-07;0.0;6.6509069e-09;3.4060231e-06
  0.0000000E+00;  9.9999998E-03; -3.4000000E-01;452;0.0;0.0;0.0;1000.0;  4.0000001E-01;0.0;0;0.0;0.0;0.0;0;-1.1441868e-07;  1.0000000E+04;  0.0000000E+00;  0.0000000E+00;  1.0000000E+04;  0.0000000E+00;  1.0000000E+04;-8.7547818e-08;0.0;-2.6870861e-08;9.4753441e-06
  0.0000000E+00;  9.9999998E-03; -3.1999999E-01;453;0.0;0.0;0.0;1000.0;  4.0000001E-01;0.0;0;0.0;0.0;0.0;0;-1.7629289e-07;  1.0000000E+04;  0.0000000E+00;  0.0000000E+00;  1.0000000E+04;  0.0000000E+00;  1.0000000E+04;-1.4929009e-07;0.0;-2.70028e-08;9.2117043e-06
  0.0000000E+00;  9.9999998E-03; -3.0000001E-01;454;0.0;0.0;0.0;1000.0;  4.0000001E-01;0.0;0;0.0;0.0;0.0;0;-2.5038489e-07;  1.0000000E+04;  0.0000000E+00;  0.0000000E+00;  1.0000000E+04;  0.0000000E+00;  1.0000000E+04;-2.2804875e-07;0.0;-2.2336145e-08;6.9873372e-06
  2.0000000E-02;  9.9999998E-03; -3.4000000E-01;464;0.0;0.0;0.0;1000.0;  4.0000001E-01;0.0;0;0.0;0.0;0.0;0;-2.1933208e-07;  1.0000000E+04;  0.0000000E+00;  0.0000000E+00;  1.0000000E+04;  0.0000000E+00;  1.0000000E+04;-1.6528874e-07;0.0;-5.404334e-08;2.1578877e-05
  2.0000000E-02;  9.9999998E-03; -3.1999999E-01;465;0.0;0.0;0.0;1000.0;  4.0000001E-01;0.0;0;0.0;0.0;0.0;0;-3.3479969e-07;  1.0000000E+04;  0.0000000E+00;  0.0000000E+00;  1.0000000E+04;  0.0000000E+00;  1.0000000E+04;-2.8077389e-07;0.0;-5.4025811e-08;2.0909751e-05
  3.9999999E-02;  9.9999998E-03; -3.4000000E-01;474;0.0;0.0;0.0;1000.0;  4.0000001E-01;0.0;0;0.0;0.0;0.0;0;-4.0884328e-07;  1.0000000E+04;  0.0000000E+00;  0.0000000E+00;  1.0000000E+04;  0.0000000E+00;  1.0000000E+04;-3.0453404e-07;0.0;-1.0430922e-07;4.7286525e-05
  3.9999999E-02;  9.9999998E-03; -3.1999999E-01;475;0.0;0.0;0.0;1000.0;  4.0000001E-01;0.0;0;0.0;0.0;0.0;0;-6.1947992e-07;  1.0000000E+04;  0.0000000E+00;  0.0000000E+00;  1.0000000E+04;  0.0000000E+00;  1.0000000E+04;-5.156416e-07;0.0;-1.038383e-07;4.5690653e-05
  5.9999999E-02;  9.9999998E-03; -3.4000000E-01;484;0.0;0.0;0.0;1000.0;  4.0000001E-01;0.0;0;0.0;0.0;0.0;0;-7.4662466e-07;  1.0000000E+04;  0.0000000E+00;  0.0000000E+00;  1.0000000E+04;  0.0000000E+00;  1.0000000E+04;-5.5142954e-07;0.0;-1.9519516e-07;0.00010028492
  5.9999999E-02;  9.9999998E-03; -3.1999999E-01;485;0.0;0.0;0.0;1000.0;  4.0000001E-01;0.0;0;0.0;0.0;0.0;0;-1.1239199e-06;  1.0000000E+04;  0.0000000E+00;  0.0000000E+00;  1.0000000E+04;  0.0000000E+00;  1.0000000E+04;-9.3028541e-07;0.0;-1.9363453e-07;9.6635857e-05
  7.9999998E-02;  9.9999998E-03; -3.4000000E-01;494;0.0;0.0;0.0;1000.0;  4.0000001E-01;0.0;0;0.0;0.0;0.0;0;-1.3492177e-06;  1.0000000E+04;  0.0000000E+00;  0.0000000E+00;  1.0000000E+04;  0.0000000E+00;  1.0000000E+04;-9.9232591e-07;0.0;-3.5689169e-07;0.0002071207
  7.9999998E-02;  9.9999998E-03; -3.1999999E-01;495;0.0;0.0;0.0;1000.0;  4.0000001E-01;0.0;0;0.0;0.0;0.0;0;-2.0148364e-06;  1.0000000E+04;  0.0000000E+00;  0.0000000E+00;  1.0000000E+04;  0.0000000E+00;  1.0000000E+04;-1.6620273e-06;0.0;-3.5280908e-07;0.00019895074
  1.0000000E-01;  9.9999998E-03; -3.4000000E-01;504;0.0;0.0;0.0;1000.0;  4.0000001E-01;0.0;0;0.0;0.0;0.0;0;-2.4465512e-06;  1.0000000E+04;  0.0000000E+00;  0.0000000E+00;  1.0000000E+04;  0.0000000E+00;  1.0000000E+04;-1.8037188e-06;0.0;-6.4283239e-07;0.00042988482
  1.0000000E-01;  9.9999998E-03; -3.1999999E-01;505;0.0;0.0;0.0;1000.0;  4.0000001E-01;0.0;0;0.0;0.0;0.0;0;-3.61409e-06;  1.0000000E+04;  0.0000000E+00;  0.0000000E+00;  1.0000000E+04;  0.0000000E+00;  1.0000000E+04;-2.9811151e-06;0.0;-6.3297477e-07;0.00042116371
  1.2000000E-01;  9.9999998E-03; -3.4000000E-01;514;0.0;0.0;0.0;1000.0;  4.0000001E-01;0.0;0;0.0;0.0;0.0;0;-4.4990575e-06;  1.0000000E+04;  0.0000000E+00;  0.0000000E+00;  1.0000000E+04;  0.0000000E+00;  1.0000000E+04;-3.3476488e-06;0.0;-1.1514086e-06;0.00099890248
  1.2000000E-01;  9.9999998E-03; -3.1999999E-01;515;0.0;0.0;0.0;1000.0;  4.0000001E-01;0.0;0;0.0;0.0;0.0;0;-6.5488343e-06;  1.0000000E+04;  0.0000000E+00;  0.0000000E+00;  1.0000000E+04;  0.0000000E+00;  1.0000000E+04;-5.4202237e-06;0.0;-1.1286107e-06;0.0011347933
  1.4000000E-01;  9.9999998E-03; -3.4000000E-01;524;0.0;0.0;0.0;1000.0;  4.0000001E-01;0.0;0;0.0;0.0;0.0;0;-8.4029643e-06;  1.0000000E+04;  0.0000000E+00;  0.0000000E+00;  1.0000000E+04;  0.0000000E+00;  1.0000000E+04;-6.3329326e-06;0.0;-2.0700315e-06;0.0028175102
  1.4000000E-01;  9.9999998E-03; -3.1999999E-01;525;0.0;0.0;0.0;1000.0;  4.0000001E-01;0.0;0;0.0;0.0;0.0;0;-1.2001001e-05;  1.0000000E+04;  0.0000000E+00;  0.0000000E+00;  1.0000000E+04;  0.0000000E+00;  1.0000000E+04;-9.9803647e-06;0.0;-2.0206367e-06;0.0038978008
  1.6000000E-01;  9.9999998E-03; -3.4000000E-01;534;0.0;0.0;0.0;1000.0;  4.0000001E-01;0.0;0;0.0;0.0;0.0;0;-1.5730282e-05;  1.0000000E+04;  0.0000000E+00;  0.0000000E+00;  1.0000000E+04;  0.0000000E+00;  1.0000000E+04;-1.1968524e-05;0.0;-3.761759e-06;0.008392401
  1.6000000E-01;  9.9999998E-03; -3.1999999E-01;535;0.0;0.0;0.0;1000.0;  4.0000001E-01;0.0;0;0.0;0.0;0.0;0;-2.200225e-05;  1.0000000E+04;  0.0000000E+00;  0.0000000E+00;  1.0000000E+04;  0.0000000E+00;  1.0000000E+04;-1.8336004e-05;0.0;-3.6662466e-06;0.012956666
  1.8000001E-01;  9.9999998E-03; -3.4000000E-01;544;0.0;0.0;0.0;1000.0;  4.0000001E-01;0.0;0;0.0;0.0;0.0;0;-2.8676068e-05;  1.0000000E+04;  0.0000000E+00;  0.0000000E+00;  1.0000000E+04;  0.0000000E+00;  1.0000000E+04;-2.1762316e-05;0.0;-6.9137509e-06;0.022308322
  1.8000001E-01;  9.9999998E-03; -3.1999999E-01;545;0.0;0.0;0.0;1000.0;  4.0000001E-01;0.0;0;0.0;0.0;0.0;0;-3.9457744e-05;  1.0000000E+04;  0.0000000E+00;  0.0000000E+00;  1.0000000E+04;  0.0000000E+00;  1.0000000E+04;-3.2695996e-05;0.0;-6.7617457e-06;0.03684542
  2.0000000E-01;  9.9999998E-03; -3.4000000E-01;553;0.0;0.0;0.0;1000.0;  4.0000001E-01;0.0;0;0.0;0.0;0.0;0;-4.9638576e-05;  1.0000000E+04;  0.0000000E+00;  0.0000000E+00;  1.0000000E+04;  0.0000000E+00;  1.0000000E+04;-3.6898109e-05;0.0;-1.2740468e-05;0.048641849
  2.0000000E-01;  9.9999998E-03; -3.1999999E-01;554;0.0;0.0;0.0;1000.0;  4.0000001E-01;0.0;0;0.0;0.0;0.0;0;-6.7705594e-05;  1.0000000E+04;  0.0000000E+00;  0.0000000E+00;  1.0000000E+04;  0.0000000E+00;  1.0000000E+04;-5.5152799e-05;0.0;-1.2552798e-05;0.085613444
 -2.2000000E-01;  9.9999998E-03; -1.8000001E-01;10;0.0;0.0;0.0;1000.0;  4.0000001E-01;0.0;0;0.0;0.0;0.0;0;0.0;  1.0000000E+04;  0.0000000E+00;  0.0000000E+00;  1.0000000E+04;  0.0000000E+00;  1.0000000E+04;0.0;0.0;0.0;0.0
 -2.2000000E-01;  9.9999998E-03; -1.6000000E-01;11;0.0;0.0;0.0;1000.0;  4.0000001E-01;0.0;0;0.0;0.0;0.0;0;0.0;  1.0000000E+04;  0.0000000E+00;  0.0000000E+00;  1.0000000E+04;  0.0000000E+00;  1.0000000E+04;0.0;0.0;0.0;0.0
 -2.2000000E-01;  9.9999998E-03; -1.4000000E-01;12;0.0;0.0;0.0;1000.0;  4.0000001E-01;0.0;0;0.0;0.0;0.0;0;0.0;  1.0000000E+04;  0.0000000E+00;  0.0000000E+00;  1.0000000E+04;  0.0000000E+00;  1.0000000E+04;0.0;0.0;0.0;0.0
 -2.2000000E-01;  9.9999998E-03; -1.2000000E-01;13;0.0;0.0;0.0;1000.0;  4.0000001E-01;0.0;0;0.0;0.0;0.0;0;0.0;  1.0000000E+04;  0.0000000E+00;  0.0000000E+00;  1.0000000E+04;  0.0000000E+00;  1.0000000E+04;0.0;0.0;0.0;0.0
 -2.2000000E-01;  9.9999998E-03; -1.0000000E-01;14;0.0;0.0;0.0;1000.0;  4.0000001E-01;0.0;0;0.0;0.0;0.0;0;0.0;  1.0000000E+04;  0.0000000E+00;  0.0000000E+00;  1.0000000E+04;  0.0000000E+00;  1.0000000E+04;0.0;0.0;0.0;0.0
 -2.2000000E-01;  9.9999998E-03; -7.9999998E-02;15;0.0;0.0;0.0;1000.0;  4.0000001E-01;0.0;0;0.0;0.0;0.0;0;0.0;  1.0000000E+04;  0.0000000E+00;  0.0000000E+00;  1.0000000E+04;  0.0000000E+00;  1.0000000E+04;0.0;0.0;0.0;0.0
 -2.2000000E-01;  9.9999998E-03; -5.9999999E-02;16;0.0;0.0;0.0;1000.0;  4.0000001E-01;0.0;0;0.0;0.0;0.0;0;0.0;  1.0000000E+04;  0.0000000E+00;  0.0000000E+00;  1.0000000E+04;  0.0000000E+00;  1.0000000E+04;0.0;0.0;0.0;0.0
 -2.2000000E-01;  9.9999998E-03; -3.9999999E-02;17;0.0;0.0;0.0;1000.0;  4.0000001E-01;0.0;0;0.0;0.0;0.0;0;0.0;  1.0000000E+04;  0.0000000E+00;  0.0000000E+00;  1.0000000E+04;  0.0000000E+00;  1.0000000E+04;0.0;0.0;0.0;0.0
 -2.2000000E-01;  9.9999998E-03; -2.0000000E-02;18;0.0;0.0;0.0;1000.0;  4.0000001E-01;0.0;0;0.0;0.0;0.0;0;0.0;  1.0000000E+04;  0.0000000E+00;  0.0000000E+00;  1.0000000E+04;  0.0000000E+00;  1.0000000E+04;0.0;0.0;0.0;0.0
 -2.0000000E-01;  9.9999998E-03; -1.8000001E-01;50;0.0;0.0;0.0;1000.0;  4.0000001E-01;0.0;0;0.0;0.0;0.0;0;0.0;  1.0000000E+04;  0.0000000E+00;  0.0000000E+00;  1.0000000E+04;  0.0000000E+00;  1.0000000E+04;0.0;0.0;0.0;0.0
 -2.0000000E-01;  9.9999998E-03; -1.6000000E-01;51;0.0;0.0;0.0;1000.0;  4.0000001E-01;0.0;0;0.0;0.0;0.0;0;0.0;  1.0000000E+04;  0.0000000E+00;  0.0000000E+00;  1.0000000E+04;  0.0000000E+00;  1.0000000E+04;0.0;0.0;0.0;0.0
 -2.0000000E-01;  9.9999998E-03; -1.4000000E-01;52;0.0;0.0;0.0;1000.0;  4.0000001E-01;0.0;0;0.0;0.0;0.0;0;0.0;  1.0000000E+04;  0.0000000E+00;  0.0000000E+00;  1.0000000E+04;  0.0000000E+00;  1.0000000E+04;0.0;0.0;0.0;0.0
 -2.0000000E-01;  9.9999998E-03; -1.2000000E-01;53;0.0;0.0;0.0;1000.0;  4.0000001E-01;0.0;0;0.0;0.0;0.0;0;0.0;  1.0000000E+04;  0.0000000E+00;  0.0000000E+00;  1.0000000E+04;  0.0000000E+00;  1.0000000E+04;0.0;0.0;0.0;0.0
 -2.0000000E-01;  9.9999998E-03; -1.0000000E-01;54;0.0;0.0;0.0;1000.0;  4.0000001E-01;0.0;0;0.0;0.0;0.0;0;0.0;  1.0000000E+04;  0.0000000E+00;  0.0000000E+00;  1.0000000E+04;  0.0000000E+00;  1.0000000E+04;0.0;0.0;0.0;0.0
 -2.0000000E-01;  9.9999998E-03; -7.9999998E-02;55;0.0;0.0;0.0;1000.0;  4.0000001E-01;0.0;0;0.0;0.0;0.0;0;0.0;  1.0000000E+04;  0.0000000E+00;  0.0000000E+00;  1.0000000E+04;  0.0000000E+00;  1.0000000E+04;0.0;0.0;0.0;0.0
 -2.0000000E-01;  9.9999998E-03; -5.9999999E-02;56;0.0;0.0;0.0;1000.0;  4.0000001E-01;0.0;0;0.0;0.0;0.0;0;0.0;  1.0000000E+04;  0.0000000E+00;  0.0000000E+00;  1.0000000E+04;  0.0000000E+00;  1.0000000E+04;0.0;0.0;0.0;0.0
 -2.0000000E-01;  9.9999998E-03; -3.9999999E-02;57;0.0;0.0;0.0;1000.0;  4.0000001E-01;0.0;0;0.0;0.0;0.0;0;0.0;  1.0000000E+04;  0.0000000E+00;  0.0000000E+00;  1.0000000E+04;  0.0000000E+00;  1.0000000E+04;0.0;0.0;0.0;0.0
 -2.0000000E-01;  9.9999998E-03; -2.0000000E-02;58;0.0;0.0;0.0;1000.0;  4.0000001E-01;0.0;0;0.0;0.0;0.0;0;0.0;  1.0000000E+04;  0.0000000E+00;  0.0000000E+00;  1.0000000E+04;  0.0000000E+00;  1.0000000E+04;0.0;0.0;0.0;0.0
 -1.8000001E-01;  9.9999998E-03; -1.8000001E-01;91;0.0;0.0;0.0;1000.0;  4.0000001E-01;0.0;0;0.0;0.0;0.0;0;0.0;  1.0000000E+04;  0.0000000E+00;  0.0000000E+00;  1.0000000E+04;  0.0000000E+00;  1.0000000E+04;0.0;0.0;0.0;0.0
 -1.8000001E-01;  9.9999998E-03; -1.6000000E-01;92;0.0;0.0;0.0;1000.0;  4.0000001E-01;0.0;0;0.0;0.0;0.0;0;0.0;  1.0000000E+04;  0.0000000E+00;  0.0000000E+00;  1.0000000E+04;  0.0000000E+00;  1.0000000E+04;0.0;0.0;0.0;0.0
 -1.8000001E-01;  9.9999998E-03; -1.4000000E-01;93;0.0;0.0;0.0;1000.0;  4.0000001E-01;0.0;0;0.0;0.0;0.0;0;0.0;  1.0000000E+04;  0.0000000E+00;  0.0000000E+00;  1.0000000E+04;  0.0000000E+00;  1.0000000E+04;0.0;0.0;0.0;0.0
 -1.8000001E-01;  9.9999998E-03; -1.2000000E-01;94;0.0;0.0;0.0;1000.0;  4.0000001E-01;0.0;0;0.0;0.0;0.0;0;0.0;  1.0000000E+04;  0.0000000E+00;  0.0000000E+00;  1.0000000E+04;  0.0000000E+00;  1.0000000E+04;0.0;0.0;0.0;0.0
 -1.8000001E-01;  9.9999998E-03; -1.0000000E-01;95;0.0;0.0;0.0;1000.0;  4.0000001E-01;0.0;0;0.0;0.0;0.0;0;0.0;  1.0000000E+04;  0.0000000E+00;  0.0000000E+00;  1.0000000E+04;  0.0000000E+00;  1.0000000E+04;0.0;0.0;0.0;0.0
 -1.8000001E-01;  9.9999998E-03; -7.9999998E-02;96;0.0;0.0;0.0;1000.0;  4.0000001E-01;0.0;0;0.0;0.0;0.0;0;0.0;  1.0000000E+04;  0.0000000E+00;  0.0000000E+00;  1.0000000E+04;  0.0000000E+00;  1.0000000E+04;0.0;0.0;0.0;0.0
 -1.8000001E-01;  9.9999998E-03; -5.9999999E-02;97;0.0;0.0;0.0;1000.0;  4.0000001E-01;0.0;0;0.0;0.0;0.0;0;0.0;  1.0000000E+04;  0.0000000E+00;  0.0000000E+00;  1.0000000E+04;  0.0000000E+00;  1.0000000E+04;0.0;0.0;0.0;0.0
 -1.8000001E-01;  9.9999998E-03; -3.9999999E-02;98;0.0;0.0;0.0;1000.0;  4.0000001E-01;0.0;0;0.0;0.0;0.0;0;0.0;  1.0000000E+04;  0.0000000E+00;  0.0000000E+00;  1.0000000E+04;  0.0000000E+00;  1.0000000E+04;0.0;0.0;0.0;0.0
 -1.8000001E-01;  9.9999998E-03; -2.0000000E-02;99;0.0;0.0;0.0;1000.0;  4.0000001E-01;0.0;0;0.0;0.0;0.0;0;0.0;  1.0000000E+04;  0.0000000E+00;  0.0000000E+00;  1.0000000E+04;  0.0000000E+00;  1.0000000E+04;0.0;0.0;0.0;0.0
 -1.6000000E-01;  9.9999998E-03; -1.8000001E-01;132;0.0;0.0;0.0;1000.0;  4.0000001E-01;0.0;0;0.0;0.0;0.0;0;-1.3035878e-11;  1.0000000E+04;  0.0000000E+00;  0.0000000E+00;  1.0000000E+04;  0.0000000E+00;  1.0000000E+04;-1.3054487e-11;0.0;1.8609399e-14;2.9656947e-11
 -1.6000000E-01;  9.9999998E-03; -1.6000000E-01;133;0.0;0.0;0.0;1000.0;  4.0000001E-01;0.0;0;0.0;0.0;0.0;0;-1.3663204e-11;  1.0000000E+04;  0.0000000E+00;  0.0000000E+00;  1.0000000E+04;  0.0000000E+00;  1.0000000E+04;-1.3679341e-11;0.0;1.6136596e-14;2.9921617e-11
 -1.6000000E-01;  9.9999998E-03; -1.4000000E-01;134;0.0;0.0;0.0;1000.0;  4.0000001E-01;0.0;0;0.0;0.0;0.0;0;-1.4139787e-11;  1.0000000E+04;  0.0000000E+00;  0.0000000E+00;  1.0000000E+04;  0.0000000E+00;  1.0000000E+04;-1.4153193e-11;0.0;1.3406537e-14;2.9896207e-11
 -1.6000000E-01;  9.9999998E-03; -1.2000000E-01;135;0.0;0.0;0.0;1000.0;  4.0000001E-01;0.0;0;0.0;0.0;0.0;0;-1.4492802e-11;  1.0000000E+04;  0.0000000E+00;  0.0000000E+00;  1.0000000E+04;  0.0000000E+00;  1.0000000E+04;-1.450354e-11;0.0;1.0737708e-14;2.9725413e-11
 -1.6000000E-01;  9.9999998E-03; -1.0000000E-01;136;0.0;0.0;0.0;1000.0;  4.0000001E-01;0.0;0;0.0;0.0;0.0;0;-1.474758e-11;  1.0000000E+04;  0.0000000E+00;  0.0000000E+00;  1.0000000E+04;  0.0000000E+00;  1.0000000E+04;-1.4755926e-11;0.0;8.3461028e-15;2.9507875e-11
 -1.6000000E-01;  9.9999998E-03; -7.9999998E-02;137;0.0;0.0;0.0;1000.0;  4.0000001E-01;0.0;0;0.0;0.0;0.0;0;-1.4926187e-11;  1.0000000E+04;  0.0000000E+00;  0.0000000E+00;  1.0000000E+04;  0.0000000E+00;  1.0000000E+04;-1.4932529e-11;0.0;6.3423862e-15;2.9301551e-11
 -1.6000000E-01;  9.9999998E-03; -5.9999999E-02;138;0.0;0.0;0.0;1000.0;  4.0000001E-01;0.0;0;0.0;0.0;0.0;0;-1.5046697e-11;  1.0000000E+04;  0.0000000E+00;  0.0000000E+00;  1.0000000E+04;  0.0000000E+00;  1.0000000E+04;-1.5051477e-11;0.0;4.781426e-15;2.9134375e-11
 -1.6000000E-01;  9.9999998E-03; -3.9999999E-02;139;0.0;0.0;0.0;1000.0;  4.0000001E-01;0.0;0;0.0;0.0;0.0;0;-1.5123028e-11;  1.0000000E+04;  0.0000000E+00;  0.0000000E+00;  1.0000000E+04;  0.0000000E+00;  1.0000000E+04;-1.5126705e-11;0.0;3.67728e-15;2.9015918e-11
 -1.6000000E-01;  9.9999998E-03; -2.0000000E-02;140;0.0;0.0;0.0;1000.0;  4.0000001E-01;0.0;0;0.0;0.0;0.0;0;-1.516497e-11;  1.0000000E+04;  0.0000000E+00;  0.0000000E+00;  1.0000000E+04;  0.0000000E+00;  1.0000000E+04;-1.5167992e-11;0.0;3.0224425e-15;2.8946526e-11
 -1.4000000E-01;  9.9999998E-03; -1.8000001E-01;173;0.0;0.0;0.0;1000.0;  4.0000001E-01;0.0;0;0.0;0.0;0.0;0;-4.8265686e-10;  1.0000000E+04;  0.0000000E+00;  0.0000000E+00;  1.0000000E+04;  0.0000000E+00;  1.0000000E+04;-4.849694e-10;0.0;2.3125436e-12;1.4604814e-09
 -1.4000000E-01;  9.9999998E-03; -1.6000000E-01;174;0.0;0.0;0.0;1000.0;  4.0000001E-01;0.0;0;0.0;0.0;0.0;0;-5.0713478e-10;  1.0000000E+04;  0.0000000E+00;  0.0000000E+00;  1.0000000E+04;  0.0000000E+00;  1.0000000E+04;-5.0916243e-10;0.0;2.02763e-12;1.4126368e-09
 -1.4000000E-01;  9.9999998E-03; -1.4000000E-01;175;0.0;0.0;0.0;1000.0;  4.0000001E-01;0.0;0;0.0;0.0;0.0;0;-5.2598448e-10;  1.0000000E+04;  0.0000000E+00;  0.0000000E+00;  1.0000000E+04;  0.0000000E+00;  1.0000000E+04;-5.2769045e-10;0.0;1.7059686e-12;1.3525406e-09
 -1.4000000E-01;  9.9999998E-03; -1.2000000E-01;176;0.0;0.0;0.0;1000.0;  4.0000001E-01;0.0;0;0.0;0.0;0.0;0;-5.4015209e-10;  1.0000000E+04;  0.0000000E+00;  0.0000000E+00;  1.0000000E+04;  0.0000000E+00;  1.0000000E+04;-5.4153654e-10;0.0;1.384472e-12;1.2915906e-09
 -1.4000000E-01;  9.9999998E-03; -1.0000000E-01;177;0.0;0.0;0.0;1000.0;  4.0000001E-01;0.0;0;0.0;0.0;0.0;0;-5.5052934e-10;  1.0000000E+04;  0.0000000E+00;  0.0000000E+00;  1.0000000E+04;  0.0000000E+00;  1.0000000E+04;-5.5161969e-10;0.0;1.0903494e-12;1.2371355e-09
 -1.4000000E-01;  9.9999998E-03; -7.9999998E-02;178;0.0;0.0;0.0;1000.0;  4.0000001E-01;0.0;0;0.0;0.0;0.0;0;-5.5791072e-10;  1.0000000E+04;  0.0000000E+00;  0.0000000E+00;  1.0000000E+04;  0.0000000E+00;  1.0000000E+04;-5.5875127e-10;0.0;8.4054302e-13;1.1928775e-09
 -1.4000000E-01;  9.9999998E-03; -5.9999999E-02;179;0.0;0.0;0.0;1000.0;  4.0000001E-01;0.0;0;0.0;0.0;0.0;0;-5.6296057e-10;  1.0000000E+04;  0.0000000E+00;  0.0000000E+00;  1.0000000E+04;  0.0000000E+00;  1.0000000E+04;-5.6360433e-10;0.0;6.4374043e-13;1.1598118e-09
 -1.4000000E-01;  9.9999998E-03; -3.9999999E-02;180;0.0;0.0;0.0;1000.0;  4.0000001E-01;0.0;0;0.0;0.0;0.0;0;-5.6619903e-10;  1.0000000E+04;  0.0000000E+00;  0.0000000E+00;  1.0000000E+04;  0.0000000E+00;  1.0000000E+04;-5.6670219e-10;0.0;5.031676e-13;1.1374063e-09
 -1.4000000E-01;  9.9999998E-03; -2.0000000E-02;181;0.0;0.0;0.0;1000.0;  4.0000001E-01;0.0;0;0.0;0.0;0.0;0;-5.6799493e-10;  1.0000000E+04;  0.0000000E+00;  0.0000000E+00;  1.0000000E+04;  0.0000000E+00;  1.0000000E+04;-5.684142e-10;0.0;4.1925396e-13;1.1245834e-09
 -1.2000000E-01;  9.9999998E-03; -1.8000001E-01;214;0.0;0.0;0.0;1000.0;  4.0000001E-01;0.0;0;0.0;0.0;0.0;0;-2.9474077e-09;  1.0000000E+04;  0.0000000E+00;  0.0000000E+00;  1.0000000E+04;  0.0000000E+00;  1.0000000E+04;-2.971102e-09;0.0;2.369439e-11;1.1460032e-08
 -1.2000000E-01;  9.9999998E-03; -1.6000000E-01;215;0.0;0.0;0.0;1000.0;  4.0000001E-01;0.0;0;0.0;0.0;0.0;0;-3.1015637e-09;  1.0000000E+04;  0.0000000E+00;  0.0000000E+00;  1.0000000E+04;  0.0000000E+00;  1.0000000E+04;-3.1225256e-09;0.0;2.0961852e-11;1.0842155e-08
 -1.2000000E-01;  9.9999998E-03; -1.4000000E-01;216;0.0;0.0;0.0;1000.0;  4.0000001E-01;0.0;0;0.0;0.0;0.0;0;-3.2214043e-09;  1.0000000E+04;  0.0000000E+00;  0.0000000E+00;  1.0000000E+04;  0.0000000E+00;  1.0000000E+04;-3.2391942e-09;0.0;1.77899e-11;1.0120033e-08
 -1.2000000E-01;  9.9999998E-03; -1.2000000E-01;217;0.0;0.0;0.0;1000.0;  4.0000001E-01;0.0;0;0.0;0.0;0.0;0;-3.3124041e-09;  1.0000000E+04;  0.0000000E+00;  0.0000000E+00;  1.0000000E+04;  0.0000000E+00;  1.0000000E+04;-3.326978e-09;0.0;1.4573924e-11;9.4088657e-09
 -1.2000000E-01;  9.9999998E-03; -1.0000000E-01;218;0.0;0.0;0.0;1000.0;  4.0000001E-01;0.0;0;0.0;0.0;0.0;0;-3.3797851e-09;  1.0000000E+04;  0.0000000E+00;  0.0000000E+00;  1.0000000E+04;  0.0000000E+00;  1.0000000E+04;-3.3913801e-09;0.0;1.1594886e-11;8.7796357e-09
 -1.2000000E-01;  9.9999998E-03; -7.9999998E-02;219;0.0;0.0;0.0;1000.0;  4.0000001E-01;0.0;0;0.0;0.0;0.0;0;-3.428239e-09;  1.0000000E+04;  0.0000000E+00;  0.0000000E+00;  1.0000000E+04;  0.0000000E+00;  1.0000000E+04;-3.4372767e-09;0.0;9.0377133e-12;8.268362e-09
 -1.2000000E-01;  9.9999998E-03; -5.9999999E-02;220;0.0;0.0;0.0;1000.0;  4.0000001E-01;0.0;0;0.0;0.0;0.0;0;-3.4617365e-09;  1.0000000E+04;  0.0000000E+00;  0.0000000E+00;  1.0000000E+04;  0.0000000E+00;  1.0000000E+04;-3.4687422e-09;0.0;7.0057241e-12;7.8849274e-09
 -1.2000000E-01;  9.9999998E-03; -3.9999999E-02;221;0.0;0.0;0.0;1000.0;  4.0000001E-01;0.0;0;0.0;0.0;0.0;0;-3.4834124e-09;  1.0000000E+04;  0.0000000E+00;  0.0000000E+00;  1.0000000E+04;  0.0000000E+00;  1.0000000E+04;-3.4889573e-09;0.0;5.5449425e-12;7.6237141e-09
 -1.2000000E-01;  9.9999998E-03; -2.0000000E-02;222;0.0;0.0;0.0;1000.0;  4.0000001E-01;0.0;0;0.0;0.0;0.0;0;-3.4955183e-09;  1.0000000E+04;  0.0000000E+00;  0.0000000E+00;  1.0000000E+04;  0.0000000E+00;  1.0000000E+04;-3.500187e-09;0.0;4.6687636e-12;7.4734787e-09
 -1.0000000E-01;  9.9999998E-03; -1.8000001E-01;255;0.0;0.0;0.0;1000.0;  4.0000001E-01;0.0;0;0.0;0.0;0.0;0;-1.0790719e-08;  1.0000000E+04;  0.0000000E+00;  0.0000000E+00;  1.0000000E+04;  0.0000000E+00;  1.0000000E+04;-1.0909632e-08;0.0;1.1891386e-10;5.2134368e-08
 -1.0000000E-01;  9.9999998E-03; -1.6000000E-01;256;0.0;0.0;0.0;1000.0;  4.0000001E-01;0.0;0;0.0;0.0;0.0;0;-1.1367457e-08;  1.0000000E+04;  0.0000000E+00;  0.0000000E+00;  1.0000000E+04;  0.0000000E+00;  1.0000000E+04;-1.1474458e-08;0.0;1.0700093e-10;4.8954778e-08
 -1.0000000E-01;  9.9999998E-03; -1.4000000E-01;257;0.0;0.0;0.0;1000.0;  4.0000001E-01;0.0;0;0.0;0.0;0.0;0;-1.1818147e-08;  1.0000000E+04;  0.0000000E+00;  0.0000000E+00;  1.0000000E+04;  0.0000000E+00;  1.0000000E+04;-1.1909564e-08;0.0;9.1416243e-11;4.4971156e-08
 -1.0000000E-01;  9.9999998E-03; -1.2000000E-01;258;0.0;0.0;0.0;1000.0;  4.0000001E-01;0.0;0;0.0;0.0;0.0;0;-1.2163127e-08;  1.0000000E+04;  0.0000000E+00;  0.0000000E+00;  1.0000000E+04;  0.0000000E+00;  1.0000000E+04;-1.2238553e-08;0.0;7.5426609e-11;4.1059135e-08
 -1.0000000E-01;  9.9999998E-03; -1.0000000E-01;259;0.0;0.0;0.0;1000.0;  4.0000001E-01;0.0;0;0.0;0.0;0.0;0;-1.2420754e-08;  1.0000000E+04;  0.0000000E+00;  0.0000000E+00;  1.0000000E+04;  0.0000000E+00;  1.0000000E+04;-1.2481243e-08;0.0;6.0488274e-11;3.7592148e-08
 -1.0000000E-01;  9.9999998E-03; -7.9999998E-02;260;0.0;0.0;0.0;1000.0;  4.0000001E-01;0.0;0;0.0;0.0;0.0;0;-1.2607636e-08;  1.0000000E+04;  0.0000000E+00;  0.0000000E+00;  1.0000000E+04;  0.0000000E+00;  1.0000000E+04;-1.2655205e-08;0.0;4.7568699e-11;3.4761133e-08
 -1.0000000E-01;  9.9999998E-03; -5.9999999E-02;261;0.0;0.0;0.0;1000.0;  4.0000001E-01;0.0;0;0.0;0.0;0.0;0;-1.2737917e-08;  1.0000000E+04;  0.0000000E+00;  0.0000000E+00;  1.0000000E+04;  0.0000000E+00;  1.0000000E+04;-1.2775155e-08;0.0;3.7237945e-11;3.2624371e-08
 -1.0000000E-01;  9.9999998E-03; -3.9999999E-02;262;0.0;0.0;0.0;1000.0;  4.0000001E-01;0.0;0;0.0;0.0;0.0;0;-1.2822843e-08;  1.0000000E+04;  0.0000000E+00;  0.0000000E+00;  1.0000000E+04;  0.0000000E+00;  1.0000000E+04;-1.2852618e-08;0.0;2.9774735e-11;3.115942e-08
 -1.0000000E-01;  9.9999998E-03; -2.0000000E-02;263;0.0;0.0;0.0;1000.0;  4.0000001E-01;0.0;0;0.0;0.0;0.0;0;-1.2870543e-08;  1.0000000E+04;  0.0000000E+00;  0.0000000E+00;  1.0000000E+04;  0.0000000E+00;  1.0000000E+04;-1.2895826e-08;0.0;2.5282979e-11;3.0312528e-08
 -7.9999998E-02;  9.9999998E-03; -1.8000001E-01;296;0.0;0.0;0.0;1000.0;  4.0000001E-01;0.0;0;0.0;0.0;0.0;0;-3.0635718e-08;  1.0000000E+04;  0.0000000E+00;  0.0000000E+00;  1.0000000E+04;  0.0000000E+00;  1.0000000E+04;-3.1053517e-08;0.0;4.178009e-10;1.7983965e-07
 -7.9999998E-02;  9.9999998E-03; -1.6000000E-01;297;0.0;0.0;0.0;1000.0;  4.0000001E-01;0.0;0;0.0;0.0;0.0;0;-3.2290703e-08;  1.0000000E+04;  0.0000000E+00;  0.0000000E+00;  1.0000000E+04;  0.0000000E+00;  1.0000000E+04;-3.2671959e-08;0.0;3.812568e-10;1.6845974e-07
 -7.9999998E-02;  9.9999998E-03; -1.4000000E-01;298;0.0;0.0;0.0;1000.0;  4.0000001E-01;0.0;0;0.0;0.0;0.0;0;-3.3590567e-08;  1.0000000E+04;  0.0000000E+00;  0.0000000E+00;  1.0000000E+04;  0.0000000E+00;  1.0000000E+04;-3.3918223e-08;0.0;3.2765762e-10;1.5330964e-07
 -7.9999998E-02;  9.9999998E-03; -1.2000000E-01;299;0.0;0.0;0.0;1000.0;  4.0000001E-01;0.0;0;0.0;0.0;0.0;0;-3.4591693e-08;  1.0000000E+04;  0.0000000E+00;  0.0000000E+00;  1.0000000E+04;  0.0000000E+00;  1.0000000E+04;-3.4863529e-08;0.0;2.7183464e-10;1.3832567e-07
 -7.9999998E-02;  9.9999998E-03; -1.0000000E-01;300;0.0;0.0;0.0;1000.0;  4.0000001E-01;0.0;0;0.0;0.0;0.0;0;-3.5344431e-08;  1.0000000E+04;  0.0000000E+00;  0.0000000E+00;  1.0000000E+04;  0.0000000E+00;  1.0000000E+04;-3.5563811e-08;0.0;2.1938006e-10;1.2500226e-07
 -7.9999998E-02;  9.9999998E-03; -7.9999998E-02;301;0.0;0.0;0.0;1000.0;  4.0000001E-01;0.0;0;0.0;0.0;0.0;0;-3.5894313e-08;  1.0000000E+04;  0.0000000E+00;  0.0000000E+00;  1.0000000E+04;  0.0000000E+00;  1.0000000E+04;-3.6068101e-08;0.0;1.7378654e-10;1.1407052e-07
 -7.9999998E-02;  9.9999998E-03; -5.9999999E-02;302;0.0;0.0;0.0;1000.0;  4.0000001E-01;0.0;0;0.0;0.0;0.0;0;-3.6280294e-08;  1.0000000E+04;  0.0000000E+00;  0.0000000E+00;  1.0000000E+04;  0.0000000E+00;  1.0000000E+04;-3.6417465e-08;0.0;1.3716926e-10;1.0577324e-07
 -7.9999998E-02;  9.9999998E-03; -3.9999999E-02;303;0.0;0.0;0.0;1000.0;  4.0000001E-01;0.0;0;0.0;0.0;0.0;0;-3.6533436e-08;  1.0000000E+04;  0.0000000E+00;  0.0000000E+00;  1.0000000E+04;  0.0000000E+00;  1.0000000E+04;-3.664406e-08;0.0;1.1062328e-10;1.0005376e-07
 -7.9999998E-02;  9.9999998E-03; -2.0000000E-02;304;0.0;0.0;0.0;1000.0;  4.0000001E-01;0.0;0;0.0;0.0;0.0;0;-3.6676262e-08;  1.0000000E+04;  0.0000000E+00;  0.0000000E+00;  1.0000000E+04;  0.0000000E+00;  1.0000000E+04;-3.6770867e-08;0.0;9.4606573e-11;9.6732968e-08
 -5.9999999E-02;  9.9999998E-03; -1.8000001E-01;337;0.0;0.0;0.0;1000.0;  4.0000001E-01;0.0;0;0.0;0.0;0.0;0;-7.4008668e-08;  1.0000000E+04;  0.0000000E+00;  0.0000000E+00;  1.0000000E+04;  0.0000000E+00;  1.0000000E+04;-7.5201811e-08;0.0;1.1931399e-09;5.2579793e-07
 -5.9999999E-02;  9.9999998E-03; -1.6000000E-01;338;0.0;0.0;0.0;1000.0;  4.0000001E-01;0.0;0;0.0;0.0;0.0;0;-7.8006103e-08;  1.0000000E+04;  0.0000000E+00;  0.0000000E+00;  1.0000000E+04;  0.0000000E+00;  1.0000000E+04;-7.9098129e-08;0.0;1.0920268e-09;4.9011572e-07
 -5.9999999E-02;  9.9999998E-03; -1.4000000E-01;339;0.0;0.0;0.0;1000.0;  4.0000001E-01;0.0;0;0.0;0.0;0.0;0;-8.1166249e-08;  1.0000000E+04;  0.0000000E+00;  0.0000000E+00;  1.0000000E+04;  0.0000000E+00;  1.0000000E+04;-8.2109928e-08;0.0;9.4368102e-10;4.4354672e-07
 -5.9999999E-02;  9.9999998E-03; -1.2000000E-01;340;0.0;0.0;0.0;1000.0;  4.0000001E-01;0.0;0;0.0;0.0;0.0;0;-8.3612676e-08;  1.0000000E+04;  0.0000000E+00;  0.0000000E+00;  1.0000000E+04;  0.0000000E+00;  1.0000000E+04;-8.4398948e-08;0.0;7.8626933e-10;3.9697488e-07
 -5.9999999E-02;  9.9999998E-03; -1.0000000E-01;341;0.0;0.0;0.0;1000.0;  4.0000001E-01;0.0;0;0.0;0.0;0.0;0;-8.546251e-08;  1.0000000E+04;  0.0000000E+00;  0.0000000E+00;  1.0000000E+04;  0.0000000E+00;  1.0000000E+04;-8.6100357e-08;0.0;6.3784455e-10;3.554417e-07
 -5.9999999E-02;  9.9999998E-03; -7.9999998E-02;342;0.0;0.0;0.0;1000.0;  4.0000001E-01;0.0;0;0.0;0.0;0.0;0;-8.682197e-08;  1.0000000E+04;  0.0000000E+00;  0.0000000E+00;  1.0000000E+04;  0.0000000E+00;  1.0000000E+04;-8.7330413e-08;0.0;5.0844184e-10;3.2123134e-07
 -5.9999999E-02;  9.9999998E-03; -5.9999999E-02;343;0.0;0.0;0.0;1000.0;  4.0000001E-01;0.0;0;0.0;0.0;0.0;0;-8.7781821e-08;  1.0000000E+04;  0.0000000E+00;  0.0000000E+00;  1.0000000E+04;  0.0000000E+00;  1.0000000E+04;-8.8186042e-08;0.0;4.0422141e-10;2.9514794e-07
 -5.9999999E-02;  9.9999998E-03; -3.9999999E-02;344;0.0;0.0;0.0;1000.0;  4.0000001E-01;0.0;0;0.0;0.0;0.0;0;-8.8414652e-08;  1.0000000E+04;  0.0000000E+00;  0.0000000E+00;  1.0000000E+04;  0.0000000E+00;  1.0000000E+04;-8.8743143e-08;0.0;3.284889e-10;2.7708802e-07
 -5.9999999E-02;  9.9999998E-03; -2.0000000E-02;345;0.0;0.0;0.0;1000.0;  4.0000001E-01;0.0;0;0.0;0.0;0.0;0;-8.8773113e-08;  1.0000000E+04;  0.0000000E+00;  0.0000000E+00;  1.0000000E+04;  0.0000000E+00;  1.0000000E+04;-8.9055831e-08;0.0;2.8271641e-10;2.6656477e-07
 -3.9999999E-02;  9.9999998E-03; -1.8000001E-01;378;0.0;0.0;0.0;1000.0;  4.0000001E-01;0.0;0;0.0;0.0;0.0;0;-1.6004171e-07;  1.0000000E+04;  0.0000000E+00;  0.0000000E+00;  1.0000000E+04;  0.0000000E+00;  1.0000000E+04;-1.6300834e-07;0.0;2.9666258e-09;1.3782274e-06
 -3.9999999E-02;  9.9999998E-03; -1.6000000E-01;379;0.0;0.0;0.0;1000.0;  4.0000001E-01;0.0;0;0.0;0.0;0.0;0;-1.6862577e-07;  1.0000000E+04;  0.0000000E+00;  0.0000000E+00;  1.0000000E+04;  0.0000000E+00;  1.0000000E+04;-1.7133866e-07;0.0;2.712883e-09;1.2783638e-06
 -3.9999999E-02;  9.9999998E-03; -1.4000000E-01;380;0.0;0.0;0.0;1000.0;  4.0000001E-01;0.0;0;0.0;0.0;0.0;0;-1.7544824e-07;  1.0000000E+04;  0.0000000E+00;  0.0000000E+00;  1.0000000E+04;  0.0000000E+00;  1.0000000E+04;-1.7779917e-07;0.0;2.3509354e-09;1.1516369e-06
 -3.9999999E-02;  9.9999998E-03; -1.2000000E-01;381;0.0;0.0;0.0;1000.0;  4.0000001E-01;0.0;0;0.0;0.0;0.0;0;-1.8075443e-07;  1.0000000E+04;  0.0000000E+00;  0.0000000E+00;  1.0000000E+04;  0.0000000E+00;  1.0000000E+04;-1.8271989e-07;0.0;1.9654656e-09;1.0247892e-06
 -3.9999999E-02;  9.9999998E-03; -1.0000000E-01;382;0.0;0.0;0.0;1000.0;  4.0000001E-01;0.0;0;0.0;0.0;0.0;0;-1.8478624e-07;  1.0000000E+04;  0.0000000E+00;  0.0000000E+00;  1.0000000E+04;  0.0000000E+00;  1.0000000E+04;-1.8638771e-07;0.0;1.601457e-09;9.1141044e-07
 -3.9999999E-02;  9.9999998E-03; -7.9999998E-02;383;0.0;0.0;0.0;1000.0;  4.0000001E-01;0.0;0;0.0;0.0;0.0;0;-1.8776504e-07;  1.0000000E+04;  0.0000000E+00;  0.0000000E+00;  1.0000000E+04;  0.0000000E+00;  1.0000000E+04;-1.8904871e-07;0.0;1.2836608e-09;8.1773607e-07
 -3.9999999E-02;  9.9999998E-03; -5.9999999E-02;384;0.0;0.0;0.0;1000.0;  4.0000001E-01;0.0;0;0.0;0.0;0.0;0;-1.8987939e-07;  1.0000000E+04;  0.0000000E+00;  0.0000000E+00;  1.0000000E+04;  0.0000000E+00;  1.0000000E+04;-1.909067e-07;0.0;1.02732e-09;7.4604986e-07
 -3.9999999E-02;  9.9999998E-03; -3.9999999E-02;385;0.0;0.0;0.0;1000.0;  4.0000001E-01;0.0;0;0.0;0.0;0.0;0;-1.9128005e-07;  1.0000000E+04;  0.0000000E+00;  0.0000000E+00;  1.0000000E+04;  0.0000000E+00;  1.0000000E+04;-1.9212084e-07;0.0;8.4078761e-10;6.9622945e-07
 -3.9999999E-02;  9.9999998E-03; -2.0000000E-02;386;0.0;0.0;0.0;1000.0;  4.0000001E-01;0.0;0;0.0;0.0;0.0;0;-1.9207634e-07;  1.0000000E+04;  0.0000000E+00;  0.0000000E+00;  1.0000000E+04;  0.0000000E+00;  1.0000000E+04;-1.9280428e-07;0.0;7.2793083e-10;6.6711004e-07
 -2.0000000E-02;  9.9999998E-03; -1.8000001E-01;419;0.0;0.0;0.0;1000.0;  4.0000001E-01;0.0;0;0.0;0.0;0.0;0;-3.2097137e-07;  1.0000000E+04;  0.0000000E+00;  0.0000000E+00;  1.0000000E+04;  0.0000000E+00;  1.0000000E+04;-3.2765467e-07;0.0;6.6833192e-09;3.3510582e-06
 -2.0000000E-02;  9.9999998E-03; -1.6000000E-01;420;0.0;0.0;0.0;1000.0;  4.0000001E-01;0.0;0;0.0;0.0;0.0;0;-3.3798452e-07;  1.0000000E+04;  0.0000000E+00;  0.0000000E+00;  1.0000000E+04;  0.0000000E+00;  1.0000000E+04;-3.4408578e-07;0.0;6.1012728e-09;3.0961598e-06
 -2.0000000E-02;  9.9999998E-03; -1.4000000E-01;421;0.0;0.0;0.0;1000.0;  4.0000001E-01;0.0;0;0.0;0.0;0.0;0;-3.5155696e-07;  1.0000000E+04;  0.0000000E+00;  0.0000000E+00;  1.0000000E+04;  0.0000000E+00;  1.0000000E+04;-3.5684943e-07;0.0;5.2924585e-09;2.7789049e-06
 -2.0000000E-02;  9.9999998E-03; -1.2000000E-01;422;0.0;0.0;0.0;1000.0;  4.0000001E-01;0.0;0;0.0;0.0;0.0;0;-3.6215144e-07;  1.0000000E+04;  0.0000000E+00;  0.0000000E+00;  1.0000000E+04;  0.0000000E+00;  1.0000000E+04;-3.6658841e-07;0.0;4.4369646e-09;2.462795e-06
 -2.0000000E-02;  9.9999998E-03; -1.0000000E-01;423;0.0;0.0;0.0;1000.0;  4.0000001E-01;0.0;0;0.0;0.0;0.0;0;-3.702356e-07;  1.0000000E+04;  0.0000000E+00;  0.0000000E+00;  1.0000000E+04;  0.0000000E+00;  1.0000000E+04;-3.7386494e-07;0.0;3.6293457e-09;2.1798023e-06
 -2.0000000E-02;  9.9999998E-03; -7.9999998E-02;424;0.0;0.0;0.0;1000.0;  4.0000001E-01;0.0;0;0.0;0.0;0.0;0;-3.7623641e-07;  1.0000000E+04;  0.0000000E+00;  0.0000000E+00;  1.0000000E+04;  0.0000000E+00;  1.0000000E+04;-3.791607e-07;0.0;2.924285e-09;1.9453992e-06
 -2.0000000E-02;  9.9999998E-03; -5.9999999E-02;425;0.0;0.0;0.0;1000.0;  4.0000001E-01;0.0;0;0.0;0.0;0.0;0;-3.8051684e-07;  1.0000000E+04;  0.0000000E+00;  0.0000000E+00;  1.0000000E+04;  0.0000000E+00;  1.0000000E+04;-3.8287217e-07;0.0;2.355327e-09;1.7654377e-06
 -2.0000000E-02;  9.9999998E-03; -3.9999999E-02;426;0.0;0.0;0.0;1000.0;  4.0000001E-01;0.0;0;0.0;0.0;0.0;0;-3.8336475e-07;  1.0000000E+04;  0.0000000E+00;  0.0000000E+00;  1.0000000E+04;  0.0000000E+00;  1.0000000E+04;-3.8530581e-07;0.0;1.9410606e-09;1.6399445e-06
 -2.0000000E-02;  9.9999998E-03; -2.0000000E-02;427;0.0;0.0;0.0;1000.0;  4.0000001E-01;0.0;0;0.0;0.0;0.0;0;-3.8498951e-07;  1.0000000E+04;  0.0000000E+00;  0.0000000E+00;  1.0000000E+04;  0.0000000E+00;  1.0000000E+04;-3.866798e-07;0.0;1.6902891e-09;1.5663884e-06
 -2.2000000E-01;  9.9999998E-03;  0.0000000E+00;19;0.0;0.0;0.0;1000.0;  4.0000001E-01;0.0;0;0.0;0.0;0.0;0;0.0;  1.0000000E+04;  0.0000000E+00;  0.0000000E+00;  1.0000000E+04;  0.0000000E+00;  1.0000000E+04;0.0;0.0;0.0;0.0
 -2.2000000E-01;  9.9999998E-03;  2.0000000E-02;20;0.0;0.0;0.0;1000.0;  4.0000001E-01;0.0;0;0.0;0.0;0.0;0;0.0;  1.0000000E+04;  0.0000000E+00;  0.0000000E+00;  1.0000000E+04;  0.0000000E+00;  1.0000000E+04;0.0;0.0;0.0;0.0
 -2.2000000E-01;  9.9999998E-03;  3.9999999E-02;21;0.0;0.0;0.0;1000.0;  4.0000001E-01;0.0;0;0.0;0.0;0.0;0;0.0;  1.0000000E+04;  0.0000000E+00;  0.0000000E+00;  1.0000000E+04;  0.0000000E+00;  1.0000000E+04;0.0;0.0;0.0;0.0
 -2.2000000E-01;  9.9999998E-03;  5.9999999E-02;22;0.0;0.0;0.0;1000.0;  4.0000001E-01;0.0;0;0.0;0.0;0.0;0;0.0;  1.0000000E+04;  0.0000000E+00;  0.0000000E+00;  1.0000000E+04;  0.0000000E+00;  1.0000000E+04;0.0;0.0;0.0;0.0
 -2.2000000E-01;  9.9999998E-03;  7.9999998E-02;23;0.0;0.0;0.0;1000.0;  4.0000001E-01;0.0;0;0.0;0.0;0.0;0;0.0;  1.0000000E+04;  0.0000000E+00;  0.0000000E+00;  1.0000000E+04;  0.0000000E+00;  1.0000000E+04;0.0;0.0;0.0;0.0
 -2.2000000E-01;  9.9999998E-03;  1.0000000E-01;24;0.0;0.0;0.0;1000.0;  4.0000001E-01;0.0;0;0.0;0.0;0.0;0;0.0;  1.0000000E+04;  0.0000000E+00;  0.0000000E+00;  1.0000000E+04;  0.0000000E+00;  1.0000000E+04;0.0;0.0;0.0;0.0
 -2.2000000E-01;  9.9999998E-03;  1.2000000E-01;25;0.0;0.0;0.0;1000.0;  4.0000001E-01;0.0;0;0.0;0.0;0.0;0;0.0;  1.0000000E+04;  0.0000000E+00;  0.0000000E+00;  1.0000000E+04;  0.0000000E+00;  1.0000000E+04;0.0;0.0;0.0;0.0
 -2.2000000E-01;  9.9999998E-03;  1.4000000E-01;26;0.0;0.0;0.0;1000.0;  4.0000001E-01;0.0;0;0.0;0.0;0.0;0;0.0;  1.0000000E+04;  0.0000000E+00;  0.0000000E+00;  1.0000000E+04;  0.0000000E+00;  1.0000000E+04;0.0;0.0;0.0;0.0
 -2.0000000E-01;  9.9999998E-03;  0.0000000E+00;59;0.0;0.0;0.0;1000.0;  4.0000001E-01;0.0;0;0.0;0.0;0.0;0;0.0;  1.0000000E+04;  0.0000000E+00;  0.0000000E+00;  1.0000000E+04;  0.0000000E+00;  1.0000000E+04;0.0;0.0;0.0;0.0
 -2.0000000E-01;  9.9999998E-03;  2.0000000E-02;60;0.0;0.0;0.0;1000.0;  4.0000001E-01;0.0;0;0.0;0.0;0.0;0;0.0;  1.0000000E+04;  0.0000000E+00;  0.0000000E+00;  1.0000000E+04;  0.0000000E+00;  1.0000000E+04;0.0;0.0;0.0;0.0
 -2.0000000E-01;  9.9999998E-03;  3.9999999E-02;61;0.0;0.0;0.0;1000.0;  4.0000001E-01;0.0;0;0.0;0.0;0.0;0;0.0;  1.0000000E+04;  0.0000000E+00;  0.0000000E+00;  1.0000000E+04;  0.0000000E+00;  1.0000000E+04;0.0;0.0;0.0;0.0
 -2.0000000E-01;  9.9999998E-03;  5.9999999E-02;62;0.0;0.0;0.0;1000.0;  4.0000001E-01;0.0;0;0.0;0.0;0.0;0;0.0;  1.0000000E+04;  0.0000000E+00;  0.0000000E+00;  1.0000000E+04;  0.0000000E+00;  1.0000000E+04;0.0;0.0;0.0;0.0
 -2.0000000E-01;  9.9999998E-03;  7.9999998E-02;63;0.0;0.0;0.0;1000.0;  4.0000001E-01;0.0;0;0.0;0.0;0.0;0;0.0;  1.0000000E+04;  0.0000000E+00;  0.0000000E+00;  1.0000000E+04;  0.0000000E+00;  1.0000000E+04;0.0;0.0;0.0;0.0
 -2.0000000E-01;  9.9999998E-03;  1.0000000E-01;64;0.0;0.0;0.0;1000.0;  4.0000001E-01;0.0;0;0.0;0.0;0.0;0;0.0;  1.0000000E+04;  0.0000000E+00;  0.0000000E+00;  1.0000000E+04;  0.0000000E+00;  1.0000000E+04;0.0;0.0;0.0;0.0
 -2.0000000E-01;  9.9999998E-03;  1.2000000E-01;65;0.0;0.0;0.0;1000.0;  4.0000001E-01;0.0;0;0.0;0.0;0.0;0;0.0;  1.0000000E+04;  0.0000000E+00;  0.0000000E+00;  1.0000000E+04;  0.0000000E+00;  1.0000000E+04;0.0;0.0;0.0;0.0
 -2.0000000E-01;  9.9999998E-03;  1.4000000E-01;66;0.0;0.0;0.0;1000.0;  4.0000001E-01;0.0;0;0.0;0.0;0.0;0;0.0;  1.0000000E+04;  0.0000000E+00;  0.0000000E+00;  1.0000000E+04;  0.0000000E+00;  1.0000000E+04;0.0;0.0;0.0;0.0
 -1.8000001E-01;  9.9999998E-03;  0.0000000E+00;100;0.0;0.0;0.0;1000.0;  4.0000001E-01;0.0;0;0.0;0.0;0.0;0;0.0;  1.0000000E+04;  0.0000000E+00;  0.0000000E+00;  1.0000000E+04;  0.0000000E+00;  1.0000000E+04;0.0;0.0;0.0;0.0
 -1.8000001E-01;  9.9999998E-03;  2.0000000E-02;101;0.0;0.0;0.0;1000.0;  4.0000001E-01;0.0;0;0.0;0.0;0.0;0;0.0;  1.0000000E+04;  0.0000000E+00;  0.0000000E+00;  1.0000000E+04;  0.0000000E+00;  1.0000000E+04;0.0;0.0;0.0;0.0
 -1.8000001E-01;  9.9999998E-03;  3.9999999E-02;102;0.0;0.0;0.0;1000.0;  4.0000001E-01;0.0;0;0.0;0.0;0.0;0;0.0;  1.0000000E+04;  0.0000000E+00;  0.0000000E+00;  1.0000000E+04;  0.0000000E+00;  1.0000000E+04;0.0;0.0;0.0;0.0
 -1.8000001E-01;  9.9999998E-03;  5.9999999E-02;103;0.0;0.0;0.0;1000.0;  4.0000001E-01;0.0;0;0.0;0.0;0.0;0;0.0;  1.0000000E+04;  0.0000000E+00;  0.0000000E+00;  1.0000000E+04;  0.0000000E+00;  1.0000000E+04;0.0;0.0;0.0;0.0
 -1.8000001E-01;  9.9999998E-03;  7.9999998E-02;104;0.0;0.0;0.0;1000.0;  4.0000001E-01;0.0;0;0.0;0.0;0.0;0;0.0;  1.0000000E+04;  0.0000000E+00;  0.0000000E+00;  1.0000000E+04;  0.0000000E+00;  1.0000000E+04;0.0;0.0;0.0;0.0
 -1.8000001E-01;  9.9999998E-03;  1.0000000E-01;105;0.0;0.0;0.0;1000.0;  4.0000001E-01;0.0;0;0.0;0.0;0.0;0;0.0;  1.0000000E+04;  0.0000000E+00;  0.0000000E+00;  1.0000000E+04;  0.0000000E+00;  1.0000000E+04;0.0;0.0;0.0;0.0
 -1.8000001E-01;  9.9999998E-03;  1.2000000E-01;106;0.0;0.0;0.0;1000.0;  4.0000001E-01;0.0;0;0.0;0.0;0.0;0;0.0;  1.0000000E+04;  0.0000000E+00;  0.0000000E+00;  1.0000000E+04;  0.0000000E+00;  1.0000000E+04;0.0;0.0;0.0;0.0
 -1.8000001E-01;  9.9999998E-03;  1.4000000E-01;107;0.0;0.0;0.0;1000.0;  4.0000001E-01;0.0;0;0.0;0.0;0.0;0;0.0;  1.0000000E+04;  0.0000000E+00;  0.0000000E+00;  1.0000000E+04;  0.0000000E+00;  1.0000000E+04;0.0;0.0;0.0;0.0
 -1.6000000E-01;  9.9999998E-03;  0.0000000E+00;141;0.0;0.0;0.0;1000.0;  4.0000001E-01;0.0;0;0.0;0.0;0.0;0;-1.5178315e-11;  1.0000000E+04;  0.0000000E+00;  0.0000000E+00;  1.0000000E+04;  0.0000000E+00;  1.0000000E+04;-1.518112e-11;0.0;2.8058379e-15;2.8923811e-11
 -1.6000000E-01;  9.9999998E-03;  2.0000000E-02;142;0.0;0.0;0.0;1000.0;  4.0000001E-01;0.0;0;0.0;0.0;0.0;0;-1.5164975e-11;  1.0000000E+04;  0.0000000E+00;  0.0000000E+00;  1.0000000E+04;  0.0000000E+00;  1.0000000E+04;-1.5167997e-11;0.0;3.0224732e-15;2.8946538e-11
 -1.6000000E-01;  9.9999998E-03;  3.9999999E-02;143;0.0;0.0;0.0;1000.0;  4.0000001E-01;0.0;0;0.0;0.0;0.0;0;-1.5123031e-11;  1.0000000E+04;  0.0000000E+00;  0.0000000E+00;  1.0000000E+04;  0.0000000E+00;  1.0000000E+04;-1.5126709e-11;0.0;3.677308e-15;2.9015925e-11
 -1.6000000E-01;  9.9999998E-03;  5.9999999E-02;144;0.0;0.0;0.0;1000.0;  4.0000001E-01;0.0;0;0.0;0.0;0.0;0;-1.5046698e-11;  1.0000000E+04;  0.0000000E+00;  0.0000000E+00;  1.0000000E+04;  0.0000000E+00;  1.0000000E+04;-1.5051479e-11;0.0;4.7814209e-15;2.9134382e-11
 -1.6000000E-01;  9.9999998E-03;  7.9999998E-02;145;0.0;0.0;0.0;1000.0;  4.0000001E-01;0.0;0;0.0;0.0;0.0;0;-1.4926184e-11;  1.0000000E+04;  0.0000000E+00;  0.0000000E+00;  1.0000000E+04;  0.0000000E+00;  1.0000000E+04;-1.4932526e-11;0.0;6.3423688e-15;2.9301544e-11
 -1.6000000E-01;  9.9999998E-03;  1.0000000E-01;146;0.0;0.0;0.0;1000.0;  4.0000001E-01;0.0;0;0.0;0.0;0.0;0;-1.474758e-11;  1.0000000E+04;  0.0000000E+00;  0.0000000E+00;  1.0000000E+04;  0.0000000E+00;  1.0000000E+04;-1.4755926e-11;0.0;8.3461036e-15;2.9507875e-11
 -1.6000000E-01;  9.9999998E-03;  1.2000000E-01;147;0.0;0.0;0.0;1000.0;  4.0000001E-01;0.0;0;0.0;0.0;0.0;0;-1.4492801e-11;  1.0000000E+04;  0.0000000E+00;  0.0000000E+00;  1.0000000E+04;  0.0000000E+00;  1.0000000E+04;-1.4503539e-11;0.0;1.0737723e-14;2.9725424e-11
 -1.6000000E-01;  9.9999998E-03;  1.4000000E-01;148;0.0;0.0;0.0;1000.0;  4.0000001E-01;0.0;0;0.0;0.0;0.0;0;-1.4139781e-11;  1.0000000E+04;  0.0000000E+00;  0.0000000E+00;  1.0000000E+04;  0.0000000E+00;  1.0000000E+04;-1.4153188e-11;0.0;1.3406533e-14;2.9896214e-11
 -1.4000000E-01;  9.9999998E-03;  0.0000000E+00;182;0.0;0.0;0.0;1000.0;  4.0000001E-01;0.0;0;0.0;0.0;0.0;0;-5.6856925e-10;  1.0000000E+04;  0.0000000E+00;  0.0000000E+00;  1.0000000E+04;  0.0000000E+00;  1.0000000E+04;-5.6896066e-10;0.0;3.913981e-13;1.120426e-09
 -1.4000000E-01;  9.9999998E-03;  2.0000000E-02;183;0.0;0.0;0.0;1000.0;  4.0000001E-01;0.0;0;0.0;0.0;0.0;0;-5.6799504e-10;  1.0000000E+04;  0.0000000E+00;  0.0000000E+00;  1.0000000E+04;  0.0000000E+00;  1.0000000E+04;-5.6841432e-10;0.0;4.1925559e-13;1.1245835e-09
 -1.4000000E-01;  9.9999998E-03;  3.9999999E-02;184;0.0;0.0;0.0;1000.0;  4.0000001E-01;0.0;0;0.0;0.0;0.0;0;-5.6619903e-10;  1.0000000E+04;  0.0000000E+00;  0.0000000E+00;  1.0000000E+04;  0.0000000E+00;  1.0000000E+04;-5.6670219e-10;0.0;5.0316939e-13;1.1374062e-09
 -1.4000000E-01;  9.9999998E-03;  5.9999999E-02;185;0.0;0.0;0.0;1000.0;  4.0000001E-01;0.0;0;0.0;0.0;0.0;0;-5.6296073e-10;  1.0000000E+04;  0.0000000E+00;  0.0000000E+00;  1.0000000E+04;  0.0000000E+00;  1.0000000E+04;-5.636045e-10;0.0;6.4374092e-13;1.1598119e-09
 -1.4000000E-01;  9.9999998E-03;  7.9999998E-02;186;0.0;0.0;0.0;1000.0;  4.0000001E-01;0.0;0;0.0;0.0;0.0;0;-5.5791066e-10;  1.0000000E+04;  0.0000000E+00;  0.0000000E+00;  1.0000000E+04;  0.0000000E+00;  1.0000000E+04;-5.5875121e-10;0.0;8.4054275e-13;1.1928775e-09
 -1.4000000E-01;  9.9999998E-03;  1.0000000E-01;187;0.0;0.0;0.0;1000.0;  4.0000001E-01;0.0;0;0.0;0.0;0.0;0;-5.5052929e-10;  1.0000000E+04;  0.0000000E+00;  0.0000000E+00;  1.0000000E+04;  0.0000000E+00;  1.0000000E+04;-5.5161964e-10;0.0;1.0903493e-12;1.2371356e-09
 -1.4000000E-01;  9.9999998E-03;  1.2000000E-01;188;0.0;0.0;0.0;1000.0;  4.0000001E-01;0.0;0;0.0;0.0;0.0;0;-5.4015209e-10;  1.0000000E+04;  0.0000000E+00;  0.0000000E+00;  1.0000000E+04;  0.0000000E+00;  1.0000000E+04;-5.4153654e-10;0.0;1.3844714e-12;1.2915917e-09
 -1.4000000E-01;  9.9999998E-03;  1.4000000E-01;189;0.0;0.0;0.0;1000.0;  4.0000001E-01;0.0;0;0.0;0.0;0.0;0;-5.2598453e-10;  1.0000000E+04;  0.0000000E+00;  0.0000000E+00;  1.0000000E+04;  0.0000000E+00;  1.0000000E+04;-5.276905e-10;0.0;1.7059682e-12;1.3525416e-09
 -1.2000000E-01;  9.9999998E-03;  0.0000000E+00;223;0.0;0.0;0.0;1000.0;  4.0000001E-01;0.0;0;0.0;0.0;0.0;0;-3.4994039e-09;  1.0000000E+04;  0.0000000E+00;  0.0000000E+00;  1.0000000E+04;  0.0000000E+00;  1.0000000E+04;-3.503781e-09;0.0;4.3771753e-12;7.4246218e-09
 -1.2000000E-01;  9.9999998E-03;  2.0000000E-02;224;0.0;0.0;0.0;1000.0;  4.0000001E-01;0.0;0;0.0;0.0;0.0;0;-3.4955183e-09;  1.0000000E+04;  0.0000000E+00;  0.0000000E+00;  1.0000000E+04;  0.0000000E+00;  1.0000000E+04;-3.500187e-09;0.0;4.668774e-12;7.4734778e-09
 -1.2000000E-01;  9.9999998E-03;  3.9999999E-02;225;0.0;0.0;0.0;1000.0;  4.0000001E-01;0.0;0;0.0;0.0;0.0;0;-3.4834124e-09;  1.0000000E+04;  0.0000000E+00;  0.0000000E+00;  1.0000000E+04;  0.0000000E+00;  1.0000000E+04;-3.4889573e-09;0.0;5.5449569e-12;7.6237132e-09
 -1.2000000E-01;  9.9999998E-03;  5.9999999E-02;226;0.0;0.0;0.0;1000.0;  4.0000001E-01;0.0;0;0.0;0.0;0.0;0;-3.4617358e-09;  1.0000000E+04;  0.0000000E+00;  0.0000000E+00;  1.0000000E+04;  0.0000000E+00;  1.0000000E+04;-3.4687415e-09;0.0;7.0057341e-12;7.8849274e-09
 -1.2000000E-01;  9.9999998E-03;  7.9999998E-02;227;0.0;0.0;0.0;1000.0;  4.0000001E-01;0.0;0;0.0;0.0;0.0;0;-3.4282388e-09;  1.0000000E+04;  0.0000000E+00;  0.0000000E+00;  1.0000000E+04;  0.0000000E+00;  1.0000000E+04;-3.4372765e-09;0.0;9.0377159e-12;8.2683647e-09
 -1.2000000E-01;  9.9999998E-03;  1.0000000E-01;228;0.0;0.0;0.0;1000.0;  4.0000001E-01;0.0;0;0.0;0.0;0.0;0;-3.3797851e-09;  1.0000000E+04;  0.0000000E+00;  0.0000000E+00;  1.0000000E+04;  0.0000000E+00;  1.0000000E+04;-3.3913801e-09;0.0;1.1594885e-11;8.7796419e-09
 -1.2000000E-01;  9.9999998E-03;  1.2000000E-01;229;0.0;0.0;0.0;1000.0;  4.0000001E-01;0.0;0;0.0;0.0;0.0;0;-3.3124039e-09;  1.0000000E+04;  0.0000000E+00;  0.0000000E+00;  1.0000000E+04;  0.0000000E+00;  1.0000000E+04;-3.3269778e-09;0.0;1.4573918e-11;9.4088701e-09
 -1.2000000E-01;  9.9999998E-03;  1.4000000E-01;230;0.0;0.0;0.0;1000.0;  4.0000001E-01;0.0;0;0.0;0.0;0.0;0;-3.2214038e-09;  1.0000000E+04;  0.0000000E+00;  0.0000000E+00;  1.0000000E+04;  0.0000000E+00;  1.0000000E+04;-3.2391938e-09;0.0;1.7789896e-11;1.0120039e-08
 -1.0000000E-01;  9.9999998E-03;  0.0000000E+00;264;0.0;0.0;0.0;1000.0;  4.0000001E-01;0.0;0;0.0;0.0;0.0;0;-1.2885894e-08;  1.0000000E+04;  0.0000000E+00;  0.0000000E+00;  1.0000000E+04;  0.0000000E+00;  1.0000000E+04;-1.290968e-08;0.0;2.3785394e-11;3.0036322e-08
 -1.0000000E-01;  9.9999998E-03;  2.0000000E-02;265;0.0;0.0;0.0;1000.0;  4.0000001E-01;0.0;0;0.0;0.0;0.0;0;-1.2870537e-08;  1.0000000E+04;  0.0000000E+00;  0.0000000E+00;  1.0000000E+04;  0.0000000E+00;  1.0000000E+04;-1.289582e-08;0.0;2.5283017e-11;3.0312524e-08
 -1.0000000E-01;  9.9999998E-03;  3.9999999E-02;266;0.0;0.0;0.0;1000.0;  4.0000001E-01;0.0;0;0.0;0.0;0.0;0;-1.2822841e-08;  1.0000000E+04;  0.0000000E+00;  0.0000000E+00;  1.0000000E+04;  0.0000000E+00;  1.0000000E+04;-1.2852615e-08;0.0;2.9774787e-11;3.1159427e-08
 -1.0000000E-01;  9.9999998E-03;  5.9999999E-02;267;0.0;0.0;0.0;1000.0;  4.0000001E-01;0.0;0;0.0;0.0;0.0;0;-1.2737917e-08;  1.0000000E+04;  0.0000000E+00;  0.0000000E+00;  1.0000000E+04;  0.0000000E+00;  1.0000000E+04;-1.2775155e-08;0.0;3.7238008e-11;3.2624381e-08
 -1.0000000E-01;  9.9999998E-03;  7.9999998E-02;268;0.0;0.0;0.0;1000.0;  4.0000001E-01;0.0;0;0.0;0.0;0.0;0;-1.2607634e-08;  1.0000000E+04;  0.0000000E+00;  0.0000000E+00;  1.0000000E+04;  0.0000000E+00;  1.0000000E+04;-1.2655203e-08;0.0;4.756873e-11;3.4761143e-08
 -1.0000000E-01;  9.9999998E-03;  1.0000000E-01;269;0.0;0.0;0.0;1000.0;  4.0000001E-01;0.0;0;0.0;0.0;0.0;0;-1.2420752e-08;  1.0000000E+04;  0.0000000E+00;  0.0000000E+00;  1.0000000E+04;  0.0000000E+00;  1.0000000E+04;-1.2481241e-08;0.0;6.0488295e-11;3.7592176e-08
 -1.0000000E-01;  9.9999998E-03;  1.2000000E-01;270;0.0;0.0;0.0;1000.0;  4.0000001E-01;0.0;0;0.0;0.0;0.0;0;-1.2163123e-08;  1.0000000E+04;  0.0000000E+00;  0.0000000E+00;  1.0000000E+04;  0.0000000E+00;  1.0000000E+04;-1.223855e-08;0.0;7.5426582e-11;4.1059167e-08
 -1.0000000E-01;  9.9999998E-03;  1.4000000E-01;271;0.0;0.0;0.0;1000.0;  4.0000001E-01;0.0;0;0.0;0.0;0.0;0;-1.1818146e-08;  1.0000000E+04;  0.0000000E+00;  0.0000000E+00;  1.0000000E+04;  0.0000000E+00;  1.0000000E+04;-1.1909563e-08;0.0;9.1416229e-11;4.4971184e-08
 -7.9999998E-02;  9.9999998E-03;  0.0000000E+00;305;0.0;0.0;0.0;1000.0;  4.0000001E-01;0.0;0;0.0;0.0;0.0;0;-3.6722348e-08;  1.0000000E+04;  0.0000000E+00;  0.0000000E+00;  1.0000000E+04;  0.0000000E+00;  1.0000000E+04;-3.6811606e-08;0.0;8.9259621e-11;9.5647344e-08
 -7.9999998E-02;  9.9999998E-03;  2.0000000E-02;306;0.0;0.0;0.0;1000.0;  4.0000001E-01;0.0;0;0.0;0.0;0.0;0;-3.6676258e-08;  1.0000000E+04;  0.0000000E+00;  0.0000000E+00;  1.0000000E+04;  0.0000000E+00;  1.0000000E+04;-3.6770864e-08;0.0;9.4606684e-11;9.6733004e-08
 -7.9999998E-02;  9.9999998E-03;  3.9999999E-02;307;0.0;0.0;0.0;1000.0;  4.0000001E-01;0.0;0;0.0;0.0;0.0;0;-3.6533432e-08;  1.0000000E+04;  0.0000000E+00;  0.0000000E+00;  1.0000000E+04;  0.0000000E+00;  1.0000000E+04;-3.6644057e-08;0.0;1.1062347e-10;1.0005378e-07
 -7.9999998E-02;  9.9999998E-03;  5.9999999E-02;308;0.0;0.0;0.0;1000.0;  4.0000001E-01;0.0;0;0.0;0.0;0.0;0;-3.6280298e-08;  1.0000000E+04;  0.0000000E+00;  0.0000000E+00;  1.0000000E+04;  0.0000000E+00;  1.0000000E+04;-3.6417468e-08;0.0;1.3716941e-10;1.0577329e-07
 -7.9999998E-02;  9.9999998E-03;  7.9999998E-02;309;0.0;0.0;0.0;1000.0;  4.0000001E-01;0.0;0;0.0;0.0;0.0;0;-3.5894313e-08;  1.0000000E+04;  0.0000000E+00;  0.0000000E+00;  1.0000000E+04;  0.0000000E+00;  1.0000000E+04;-3.6068101e-08;0.0;1.7378668e-10;1.1407059e-07
 -7.9999998E-02;  9.9999998E-03;  1.0000000E-01;310;0.0;0.0;0.0;1000.0;  4.0000001E-01;0.0;0;0.0;0.0;0.0;0;-3.5344428e-08;  1.0000000E+04;  0.0000000E+00;  0.0000000E+00;  1.0000000E+04;  0.0000000E+00;  1.0000000E+04;-3.5563808e-08;0.0;2.1938007e-10;1.2500236e-07
 -7.9999998E-02;  9.9999998E-03;  1.2000000E-01;311;0.0;0.0;0.0;1000.0;  4.0000001E-01;0.0;0;0.0;0.0;0.0;0;-3.45917e-08;  1.0000000E+04;  0.0000000E+00;  0.0000000E+00;  1.0000000E+04;  0.0000000E+00;  1.0000000E+04;-3.4863536e-08;0.0;2.7183467e-10;1.3832575e-07
 -7.9999998E-02;  9.9999998E-03;  1.4000000E-01;312;0.0;0.0;0.0;1000.0;  4.0000001E-01;0.0;0;0.0;0.0;0.0;0;-3.3590556e-08;  1.0000000E+04;  0.0000000E+00;  0.0000000E+00;  1.0000000E+04;  0.0000000E+00;  1.0000000E+04;-3.3918212e-08;0.0;3.2765757e-10;1.533097e-07
 -5.9999999E-02;  9.9999998E-03;  0.0000000E+00;346;0.0;0.0;0.0;1000.0;  4.0000001E-01;0.0;0;0.0;0.0;0.0;0;-8.8889053e-08;  1.0000000E+04;  0.0000000E+00;  0.0000000E+00;  1.0000000E+04;  0.0000000E+00;  1.0000000E+04;-8.9156472e-08;0.0;2.6742203e-10;2.631175e-07
 -5.9999999E-02;  9.9999998E-03;  2.0000000E-02;347;0.0;0.0;0.0;1000.0;  4.0000001E-01;0.0;0;0.0;0.0;0.0;0;-8.8773092e-08;  1.0000000E+04;  0.0000000E+00;  0.0000000E+00;  1.0000000E+04;  0.0000000E+00;  1.0000000E+04;-8.905581e-08;0.0;2.8271666e-10;2.6656483e-07
 -5.9999999E-02;  9.9999998E-03;  3.9999999E-02;348;0.0;0.0;0.0;1000.0;  4.0000001E-01;0.0;0;0.0;0.0;0.0;0;-8.8414644e-08;  1.0000000E+04;  0.0000000E+00;  0.0000000E+00;  1.0000000E+04;  0.0000000E+00;  1.0000000E+04;-8.8743136e-08;0.0;3.2848918e-10;2.7708813e-07
 -5.9999999E-02;  9.9999998E-03;  5.9999999E-02;349;0.0;0.0;0.0;1000.0;  4.0000001E-01;0.0;0;0.0;0.0;0.0;0;-8.77818e-08;  1.0000000E+04;  0.0000000E+00;  0.0000000E+00;  1.0000000E+04;  0.0000000E+00;  1.0000000E+04;-8.818602e-08;0.0;4.0422188e-10;2.9514808e-07
 -5.9999999E-02;  9.9999998E-03;  7.9999998E-02;350;0.0;0.0;0.0;1000.0;  4.0000001E-01;0.0;0;0.0;0.0;0.0;0;-8.6821977e-08;  1.0000000E+04;  0.0000000E+00;  0.0000000E+00;  1.0000000E+04;  0.0000000E+00;  1.0000000E+04;-8.733042e-08;0.0;5.0844234e-10;3.2123157e-07
 -5.9999999E-02;  9.9999998E-03;  1.0000000E-01;351;0.0;0.0;0.0;1000.0;  4.0000001E-01;0.0;0;0.0;0.0;0.0;0;-8.546251e-08;  1.0000000E+04;  0.0000000E+00;  0.0000000E+00;  1.0000000E+04;  0.0000000E+00;  1.0000000E+04;-8.6100357e-08;0.0;6.3784472e-10;3.5544207e-07
 -5.9999999E-02;  9.9999998E-03;  1.2000000E-01;352;0.0;0.0;0.0;1000.0;  4.0000001E-01;0.0;0;0.0;0.0;0.0;0;-8.3612669e-08;  1.0000000E+04;  0.0000000E+00;  0.0000000E+00;  1.0000000E+04;  0.0000000E+00;  1.0000000E+04;-8.4398941e-08;0.0;7.8626955e-10;3.9697511e-07
 -5.9999999E-02;  9.9999998E-03;  1.4000000E-01;353;0.0;0.0;0.0;1000.0;  4.0000001E-01;0.0;0;0.0;0.0;0.0;0;-8.1166249e-08;  1.0000000E+04;  0.0000000E+00;  0.0000000E+00;  1.0000000E+04;  0.0000000E+00;  1.0000000E+04;-8.2109928e-08;0.0;9.4368091e-10;4.4354695e-07
 -3.9999999E-02;  9.9999998E-03;  0.0000000E+00;387;0.0;0.0;0.0;1000.0;  4.0000001E-01;0.0;0;0.0;0.0;0.0;0;-1.923345e-07;  1.0000000E+04;  0.0000000E+00;  0.0000000E+00;  1.0000000E+04;  0.0000000E+00;  1.0000000E+04;-1.9302469e-07;0.0;6.9019951e-10;6.5755461e-07
 -3.9999999E-02;  9.9999998E-03;  2.0000000E-02;388;0.0;0.0;0.0;1000.0;  4.0000001E-01;0.0;0;0.0;0.0;0.0;0;-1.9207641e-07;  1.0000000E+04;  0.0000000E+00;  0.0000000E+00;  1.0000000E+04;  0.0000000E+00;  1.0000000E+04;-1.9280435e-07;0.0;7.2793144e-10;6.6711027e-07
 -3.9999999E-02;  9.9999998E-03;  3.9999999E-02;389;0.0;0.0;0.0;1000.0;  4.0000001E-01;0.0;0;0.0;0.0;0.0;0;-1.9128005e-07;  1.0000000E+04;  0.0000000E+00;  0.0000000E+00;  1.0000000E+04;  0.0000000E+00;  1.0000000E+04;-1.9212084e-07;0.0;8.4078838e-10;6.9622956e-07
 -3.9999999E-02;  9.9999998E-03;  5.9999999E-02;390;0.0;0.0;0.0;1000.0;  4.0000001E-01;0.0;0;0.0;0.0;0.0;0;-1.898794e-07;  1.0000000E+04;  0.0000000E+00;  0.0000000E+00;  1.0000000E+04;  0.0000000E+00;  1.0000000E+04;-1.9090672e-07;0.0;1.0273205e-09;7.4605038e-07
 -3.9999999E-02;  9.9999998E-03;  7.9999998E-02;391;0.0;0.0;0.0;1000.0;  4.0000001E-01;0.0;0;0.0;0.0;0.0;0;-1.8776501e-07;  1.0000000E+04;  0.0000000E+00;  0.0000000E+00;  1.0000000E+04;  0.0000000E+00;  1.0000000E+04;-1.8904868e-07;0.0;1.2836616e-09;8.1773641e-07
 -3.9999999E-02;  9.9999998E-03;  1.0000000E-01;392;0.0;0.0;0.0;1000.0;  4.0000001E-01;0.0;0;0.0;0.0;0.0;0;-1.847862e-07;  1.0000000E+04;  0.0000000E+00;  0.0000000E+00;  1.0000000E+04;  0.0000000E+00;  1.0000000E+04;-1.8638767e-07;0.0;1.6014573e-09;9.1141101e-07
 -3.9999999E-02;  9.9999998E-03;  1.2000000E-01;393;0.0;0.0;0.0;1000.0;  4.0000001E-01;0.0;0;0.0;0.0;0.0;0;-1.8075436e-07;  1.0000000E+04;  0.0000000E+00;  0.0000000E+00;  1.0000000E+04;  0.0000000E+00;  1.0000000E+04;-1.8271982e-07;0.0;1.9654653e-09;1.0247899e-06
 -3.9999999E-02;  9.9999998E-03;  1.4000000E-01;394;0.0;0.0;0.0;1000.0;  4.0000001E-01;0.0;0;0.0;0.0;0.0;0;-1.7544822e-07;  1.0000000E+04;  0.0000000E+00;  0.0000000E+00;  1.0000000E+04;  0.0000000E+00;  1.0000000E+04;-1.7779915e-07;0.0;2.350935e-09;1.1516373e-06
 -2.0000000E-02;  9.9999998E-03;  0.0000000E+00;428;0.0;0.0;0.0;1000.0;  4.0000001E-01;0.0;0;0.0;0.0;0.0;0;-3.8551701e-07;  1.0000000E+04;  0.0000000E+00;  0.0000000E+00;  1.0000000E+04;  0.0000000E+00;  1.0000000E+04;-3.8712344e-07;0.0;1.6064239e-09;1.5422115e-06
 -2.0000000E-02;  9.9999998E-03;  2.0000000E-02;429;0.0;0.0;0.0;1000.0;  4.0000001E-01;0.0;0;0.0;0.0;0.0;0;-3.8498942e-07;  1.0000000E+04;  0.0000000E+00;  0.0000000E+00;  1.0000000E+04;  0.0000000E+00;  1.0000000E+04;-3.8667972e-07;0.0;1.6902902e-09;1.5663884e-06
 -2.0000000E-02;  9.9999998E-03;  3.9999999E-02;430;0.0;0.0;0.0;1000.0;  4.0000001E-01;0.0;0;0.0;0.0;0.0;0;-3.8336475e-07;  1.0000000E+04;  0.0000000E+00;  0.0000000E+00;  1.0000000E+04;  0.0000000E+00;  1.0000000E+04;-3.8530581e-07;0.0;1.9410629e-09;1.6399447e-06
 -2.0000000E-02;  9.9999998E-03;  5.9999999E-02;431;0.0;0.0;0.0;1000.0;  4.0000001E-01;0.0;0;0.0;0.0;0.0;0;-3.805167e-07;  1.0000000E+04;  0.0000000E+00;  0.0000000E+00;  1.0000000E+04;  0.0000000E+00;  1.0000000E+04;-3.8287203e-07;0.0;2.3553284e-09;1.7654387e-06
 -2.0000000E-02;  9.9999998E-03;  7.9999998E-02;432;0.0;0.0;0.0;1000.0;  4.0000001E-01;0.0;0;0.0;0.0;0.0;0;-3.7623633e-07;  1.0000000E+04;  0.0000000E+00;  0.0000000E+00;  1.0000000E+04;  0.0000000E+00;  1.0000000E+04;-3.7916061e-07;0.0;2.9242853e-09;1.9454012e-06
 -2.0000000E-02;  9.9999998E-03;  1.0000000E-01;433;0.0;0.0;0.0;1000.0;  4.0000001E-01;0.0;0;0.0;0.0;0.0;0;-3.702356e-07;  1.0000000E+04;  0.0000000E+00;  0.0000000E+00;  1.0000000E+04;  0.0000000E+00;  1.0000000E+04;-3.7386494e-07;0.0;3.6293453e-09;2.1798039e-06
 -2.0000000E-02;  9.9999998E-03;  1.2000000E-01;434;0.0;0.0;0.0;1000.0;  4.0000001E-01;0.0;0;0.0;0.0;0.0;0;-3.6215144e-07;  1.0000000E+04;  0.0000000E+00;  0.0000000E+00;  1.0000000E+04;  0.0000000E+00;  1.0000000E+04;-3.6658841e-07;0.0;4.4369632e-09;2.4627968e-06
 -2.0000000E-02;  9.9999998E-03;  1.4000000E-01;435;0.0;0.0;0.0;1000.0;  4.0000001E-01;0.0;0;0.0;0.0;0.0;0;-3.5155696e-07;  1.0000000E+04;  0.0000000E+00;  0.0000000E+00;  1.0000000E+04;  0.0000000E+00;  1.0000000E+04;-3.5684943e-07;0.0;5.2924571e-09;2.7789054e-06
 -2.2000000E-01;  9.9999998E-03;  1.6000000E-01;27;0.0;0.0;0.0;1000.0;  4.0000001E-01;0.0;0;0.0;0.0;0.0;0;0.0;  1.0000000E+04;  0.0000000E+00;  0.0000000E+00;  1.0000000E+04;  0.0000000E+00;  1.0000000E+04;0.0;0.0;0.0;0.0
 -2.2000000E-01;  9.9999998E-03;  1.8000001E-01;28;0.0;0.0;0.0;1000.0;  4.0000001E-01;0.0;0;0.0;0.0;0.0;0;0.0;  1.0000000E+04;  0.0000000E+00;  0.0000000E+00;  1.0000000E+04;  0.0000000E+00;  1.0000000E+04;0.0;0.0;0.0;0.0
 -2.2000000E-01;  9.9999998E-03;  2.0000000E-01;29;0.0;0.0;0.0;1000.0;  4.0000001E-01;0.0;0;0.0;0.0;0.0;0;0.0;  1.0000000E+04;  0.0000000E+00;  0.0000000E+00;  1.0000000E+04;  0.0000000E+00;  1.0000000E+04;0.0;0.0;0.0;0.0
 -2.2000000E-01;  9.9999998E-03;  2.2000000E-01;30;0.0;0.0;0.0;1000.0;  4.0000001E-01;0.0;0;0.0;0.0;0.0;0;0.0;  1.0000000E+04;  0.0000000E+00;  0.0000000E+00;  1.0000000E+04;  0.0000000E+00;  1.0000000E+04;0.0;0.0;0.0;0.0
 -2.2000000E-01;  9.9999998E-03;  2.3999999E-01;31;0.0;0.0;0.0;1000.0;  4.0000001E-01;0.0;0;0.0;0.0;0.0;0;0.0;  1.0000000E+04;  0.0000000E+00;  0.0000000E+00;  1.0000000E+04;  0.0000000E+00;  1.0000000E+04;0.0;0.0;0.0;0.0
 -2.2000000E-01;  9.9999998E-03;  2.5999999E-01;32;0.0;0.0;0.0;1000.0;  4.0000001E-01;0.0;0;0.0;0.0;0.0;0;0.0;  1.0000000E+04;  0.0000000E+00;  0.0000000E+00;  1.0000000E+04;  0.0000000E+00;  1.0000000E+04;0.0;0.0;0.0;0.0
 -2.2000000E-01;  9.9999998E-03;  2.8000000E-01;33;0.0;0.0;0.0;1000.0;  4.0000001E-01;0.0;0;0.0;0.0;0.0;0;0.0;  1.0000000E+04;  0.0000000E+00;  0.0000000E+00;  1.0000000E+04;  0.0000000E+00;  1.0000000E+04;0.0;0.0;0.0;0.0
 -2.2000000E-01;  9.9999998E-03;  3.0000001E-01;34;0.0;0.0;0.0;1000.0;  4.0000001E-01;0.0;0;0.0;0.0;0.0;0;0.0;  1.0000000E+04;  0.0000000E+00;  0.0000000E+00;  1.0000000E+04;  0.0000000E+00;  1.0000000E+04;0.0;0.0;0.0;0.0
 -2.2000000E-01;  9.9999998E-03;  3.1999999E-01;35;0.0;0.0;0.0;1000.0;  4.0000001E-01;0.0;0;0.0;0.0;0.0;0;0.0;  1.0000000E+04;  0.0000000E+00;  0.0000000E+00;  1.0000000E+04;  0.0000000E+00;  1.0000000E+04;0.0;0.0;0.0;0.0
 -2.0000000E-01;  9.9999998E-03;  1.6000000E-01;67;0.0;0.0;0.0;1000.0;  4.0000001E-01;0.0;0;0.0;0.0;0.0;0;0.0;  1.0000000E+04;  0.0000000E+00;  0.0000000E+00;  1.0000000E+04;  0.0000000E+00;  1.0000000E+04;0.0;0.0;0.0;0.0
 -2.0000000E-01;  9.9999998E-03;  1.8000001E-01;68;0.0;0.0;0.0;1000.0;  4.0000001E-01;0.0;0;0.0;0.0;0.0;0;0.0;  1.0000000E+04;  0.0000000E+00;  0.0000000E+00;  1.0000000E+04;  0.0000000E+00;  1.0000000E+04;0.0;0.0;0.0;0.0
 -2.0000000E-01;  9.9999998E-03;  2.0000000E-01;69;0.0;0.0;0.0;1000.0;  4.0000001E-01;0.0;0;0.0;0.0;0.0;0;0.0;  1.0000000E+04;  0.0000000E+00;  0.0000000E+00;  1.0000000E+04;  0.0000000E+00;  1.0000000E+04;0.0;0.0;0.0;0.0
 -2.0000000E-01;  9.9999998E-03;  2.2000000E-01;70;0.0;0.0;0.0;1000.0;  4.0000001E-01;0.0;0;0.0;0.0;0.0;0;0.0;  1.0000000E+04;  0.0000000E+00;  0.0000000E+00;  1.0000000E+04;  0.0000000E+00;  1.0000000E+04;0.0;0.0;0.0;0.0
 -2.0000000E-01;  9.9999998E-03;  2.3999999E-01;71;0.0;0.0;0.0;1000.0;  4.0000001E-01;0.0;0;0.0;0.0;0.0;0;0.0;  1.0000000E+04;  0.0000000E+00;  0.0000000E+00;  1.0000000E+04;  0.0000000E+00;  1.0000000E+04;0.0;0.0;0.0;0.0
 -2.0000000E-01;  9.9999998E-03;  2.5999999E-01;72;0.0;0.0;0.0;1000.0;  4.0000001E-01;0.0;0;0.0;0.0;0.0;0;0.0;  1.0000000E+04;  0.0000000E+00;  0.0000000E+00;  1.0000000E+04;  0.0000000E+00;  1.0000000E+04;0.0;0.0;0.0;0.0
 -2.0000000E-01;  9.9999998E-03;  2.8000000E-01;73;0.0;0.0;0.0;1000.0;  4.0000001E-01;0.0;0;0.0;0.0;0.0;0;0.0;  1.0000000E+04;  0.0000000E+00;  0.0000000E+00;  1.0000000E+04;  0.0000000E+00;  1.0000000E+04;0.0;0.0;0.0;0.0
 -2.0000000E-01;  9.9999998E-03;  3.0000001E-01;74;0.0;0.0;0.0;1000.0;  4.0000001E-01;0.0;0;0.0;0.0;0.0;0;0.0;  1.0000000E+04;  0.0000000E+00;  0.0000000E+00;  1.0000000E+04;  0.0000000E+00;  1.0000000E+04;0.0;0.0;0.0;0.0
 -2.0000000E-01;  9.9999998E-03;  3.1999999E-01;75;0.0;0.0;0.0;1000.0;  4.0000001E-01;0.0;0;0.0;0.0;0.0;0;0.0;  1.0000000E+04;  0.0000000E+00;  0.0000000E+00;  1.0000000E+04;  0.0000000E+00;  1.0000000E+04;0.0;0.0;0.0;0.0
 -1.8000001E-01;  9.9999998E-03;  1.6000000E-01;108;0.0;0.0;0.0;1000.0;  4.0000001E-01;0.0;0;0.0;0.0;0.0;0;0.0;  1.0000000E+04;  0.0000000E+00;  0.0000000E+00;  1.0000000E+04;  0.0000000E+00;  1.0000000E+04;0.0;0.0;0.0;0.0
 -1.8000001E-01;  9.9999998E-03;  1.8000001E-01;109;0.0;0.0;0.0;1000.0;  4.0000001E-01;0.0;0;0.0;0.0;0.0;0;0.0;  1.0000000E+04;  0.0000000E+00;  0.0000000E+00;  1.0000000E+04;  0.0000000E+00;  1.0000000E+04;0.0;0.0;0.0;0.0
 -1.8000001E-01;  9.9999998E-03;  2.0000000E-01;110;0.0;0.0;0.0;1000.0;  4.0000001E-01;0.0;0;0.0;0.0;0.0;0;0.0;  1.0000000E+04;  0.0000000E+00;  0.0000000E+00;  1.0000000E+04;  0.0000000E+00;  1.0000000E+04;0.0;0.0;0.0;0.0
 -1.8000001E-01;  9.9999998E-03;  2.2000000E-01;111;0.0;0.0;0.0;1000.0;  4.0000001E-01;0.0;0;0.0;0.0;0.0;0;0.0;  1.0000000E+04;  0.0000000E+00;  0.0000000E+00;  1.0000000E+04;  0.0000000E+00;  1.0000000E+04;0.0;0.0;0.0;0.0
 -1.8000001E-01;  9.9999998E-03;  2.3999999E-01;112;0.0;0.0;0.0;1000.0;  4.0000001E-01;0.0;0;0.0;0.0;0.0;0;0.0;  1.0000000E+04;  0.0000000E+00;  0.0000000E+00;  1.0000000E+04;  0.0000000E+00;  1.0000000E+04;0.0;0.0;0.0;0.0
 -1.8000001E-01;  9.9999998E-03;  2.5999999E-01;113;0.0;0.0;0.0;1000.0;  4.0000001E-01;0.0;0;0.0;0.0;0.0;0;0.0;  1.0000000E+04;  0.0000000E+00;  0.0000000E+00;  1.0000000E+04;  0.0000000E+00;  1.0000000E+04;0.0;0.0;0.0;0.0
 -1.8000001E-01;  9.9999998E-03;  2.8000000E-01;114;0.0;0.0;0.0;1000.0;  4.0000001E-01;0.0;0;0.0;0.0;0.0;0;0.0;  1.0000000E+04;  0.0000000E+00;  0.0000000E+00;  1.0000000E+04;  0.0000000E+00;  1.0000000E+04;0.0;0.0;0.0;0.0
 -1.8000001E-01;  9.9999998E-03;  3.0000001E-01;115;0.0;0.0;0.0;1000.0;  4.0000001E-01;0.0;0;0.0;0.0;0.0;0;0.0;  1.0000000E+04;  0.0000000E+00;  0.0000000E+00;  1.0000000E+04;  0.0000000E+00;  1.0000000E+04;0.0;0.0;0.0;0.0
 -1.8000001E-01;  9.9999998E-03;  3.1999999E-01;116;0.0;0.0;0.0;1000.0;  4.0000001E-01;0.0;0;0.0;0.0;0.0;0;0.0;  1.0000000E+04;  0.0000000E+00;  0.0000000E+00;  1.0000000E+04;  0.0000000E+00;  1.0000000E+04;0.0;0.0;0.0;0.0
 -1.6000000E-01;  9.9999998E-03;  1.6000000E-01;149;0.0;0.0;0.0;1000.0;  4.0000001E-01;0.0;0;0.0;0.0;0.0;0;-1.3663201e-11;  1.0000000E+04;  0.0000000E+00;  0.0000000E+00;  1.0000000E+04;  0.0000000E+00;  1.0000000E+04;-1.3679337e-11;0.0;1.6136574e-14;2.9921621e-11
 -1.6000000E-01;  9.9999998E-03;  1.8000001E-01;150;0.0;0.0;0.0;1000.0;  4.0000001E-01;0.0;0;0.0;0.0;0.0;0;-1.303588e-11;  1.0000000E+04;  0.0000000E+00;  0.0000000E+00;  1.0000000E+04;  0.0000000E+00;  1.0000000E+04;-1.3054489e-11;0.0;1.8609399e-14;2.9656947e-11
 -1.6000000E-01;  9.9999998E-03;  2.0000000E-01;151;0.0;0.0;0.0;1000.0;  4.0000001E-01;0.0;0;0.0;0.0;0.0;0;-1.2230603e-11;  1.0000000E+04;  0.0000000E+00;  0.0000000E+00;  1.0000000E+04;  0.0000000E+00;  1.0000000E+04;-1.2251066e-11;0.0;2.0463223e-14;2.8925183e-11
 -1.6000000E-01;  9.9999998E-03;  2.2000000E-01;152;0.0;0.0;0.0;1000.0;  4.0000001E-01;0.0;0;0.0;0.0;0.0;0;-1.1221667e-11;  1.0000000E+04;  0.0000000E+00;  0.0000000E+00;  1.0000000E+04;  0.0000000E+00;  1.0000000E+04;-1.1242954e-11;0.0;2.1286932e-14;2.7521742e-11
 -1.6000000E-01;  9.9999998E-03;  2.3999999E-01;153;0.0;0.0;0.0;1000.0;  4.0000001E-01;0.0;0;0.0;0.0;0.0;0;-9.9876045e-12;  1.0000000E+04;  0.0000000E+00;  0.0000000E+00;  1.0000000E+04;  0.0000000E+00;  1.0000000E+04;-1.0007883e-11;0.0;2.0278492e-14;2.5143049e-11
 -1.6000000E-01;  9.9999998E-03;  2.5999999E-01;154;0.0;0.0;0.0;1000.0;  4.0000001E-01;0.0;0;0.0;0.0;0.0;0;-8.3041152e-12;  1.0000000E+04;  0.0000000E+00;  0.0000000E+00;  1.0000000E+04;  0.0000000E+00;  1.0000000E+04;-8.3017369e-12;0.0;-2.3782889e-15;1.6956851e-11
 -1.6000000E-01;  9.9999998E-03;  2.8000000E-01;155;0.0;0.0;0.0;1000.0;  4.0000001E-01;0.0;0;0.0;0.0;0.0;0;-5.472994e-12;  1.0000000E+04;  0.0000000E+00;  0.0000000E+00;  1.0000000E+04;  0.0000000E+00;  1.0000000E+04;-5.4113142e-12;0.0;-6.1679801e-14;3.5619723e-12
 -1.6000000E-01;  9.9999998E-03;  3.0000001E-01;156;0.0;0.0;0.0;1000.0;  4.0000001E-01;0.0;0;0.0;0.0;0.0;0;-2.2805215e-12;  1.0000000E+04;  0.0000000E+00;  0.0000000E+00;  1.0000000E+04;  0.0000000E+00;  1.0000000E+04;-2.2092543e-12;0.0;-7.1267306e-14;1.1222624e-11
 -1.6000000E-01;  9.9999998E-03;  3.1999999E-01;157;0.0;0.0;0.0;1000.0;  4.0000001E-01;0.0;0;0.0;0.0;0.0;0;-3.5366515e-13;  1.0000000E+04;  0.0000000E+00;  0.0000000E+00;  1.0000000E+04;  0.0000000E+00;  1.0000000E+04;-3.3232754e-13;0.0;-2.1337605e-14;3.8929246e-12
 -1.4000000E-01;  9.9999998E-03;  1.6000000E-01;190;0.0;0.0;0.0;1000.0;  4.0000001E-01;0.0;0;0.0;0.0;0.0;0;-5.0713467e-10;  1.0000000E+04;  0.0000000E+00;  0.0000000E+00;  1.0000000E+04;  0.0000000E+00;  1.0000000E+04;-5.0916232e-10;0.0;2.0276289e-12;1.4126372e-09
 -1.4000000E-01;  9.9999998E-03;  1.8000001E-01;191;0.0;0.0;0.0;1000.0;  4.0000001E-01;0.0;0;0.0;0.0;0.0;0;-4.8265691e-10;  1.0000000E+04;  0.0000000E+00;  0.0000000E+00;  1.0000000E+04;  0.0000000E+00;  1.0000000E+04;-4.8496945e-10;0.0;2.312544e-12;1.4604815e-09
 -1.4000000E-01;  9.9999998E-03;  2.0000000E-01;192;0.0;0.0;0.0;1000.0;  4.0000001E-01;0.0;0;0.0;0.0;0.0;0;-4.5161364e-10;  1.0000000E+04;  0.0000000E+00;  0.0000000E+00;  1.0000000E+04;  0.0000000E+00;  1.0000000E+04;-4.5412463e-10;0.0;2.5109897e-12;1.4797522e-09
 -1.4000000E-01;  9.9999998E-03;  2.2000000E-01;193;0.0;0.0;0.0;1000.0;  4.0000001E-01;0.0;0;0.0;0.0;0.0;0;-4.1240239e-10;  1.0000000E+04;  0.0000000E+00;  0.0000000E+00;  1.0000000E+04;  0.0000000E+00;  1.0000000E+04;-4.1475559e-10;0.0;2.3531882e-12;1.4022666e-09
 -1.4000000E-01;  9.9999998E-03;  2.3999999E-01;194;0.0;0.0;0.0;1000.0;  4.0000001E-01;0.0;0;0.0;0.0;0.0;0;-3.5925571e-10;  1.0000000E+04;  0.0000000E+00;  0.0000000E+00;  1.0000000E+04;  0.0000000E+00;  1.0000000E+04;-3.6011444e-10;0.0;8.5873263e-13;9.9635489e-10
 -1.4000000E-01;  9.9999998E-03;  2.5999999E-01;195;0.0;0.0;0.0;1000.0;  4.0000001E-01;0.0;0;0.0;0.0;0.0;0;-2.8845623e-10;  1.0000000E+04;  0.0000000E+00;  0.0000000E+00;  1.0000000E+04;  0.0000000E+00;  1.0000000E+04;-2.865489e-10;0.0;-1.9073337e-12;2.6068711e-10
 -1.4000000E-01;  9.9999998E-03;  2.8000000E-01;196;0.0;0.0;0.0;1000.0;  4.0000001E-01;0.0;0;0.0;0.0;0.0;0;-2.0505622e-10;  1.0000000E+04;  0.0000000E+00;  0.0000000E+00;  1.0000000E+04;  0.0000000E+00;  1.0000000E+04;-2.0057103e-10;0.0;-4.4851917e-12;4.8559262e-10
 -1.4000000E-01;  9.9999998E-03;  3.0000001E-01;197;0.0;0.0;0.0;1000.0;  4.0000001E-01;0.0;0;0.0;0.0;0.0;0;-1.2234057e-10;  1.0000000E+04;  0.0000000E+00;  0.0000000E+00;  1.0000000E+04;  0.0000000E+00;  1.0000000E+04;-1.1690403e-10;0.0;-5.4365427e-12;9.0171842e-10
 -1.4000000E-01;  9.9999998E-03;  3.1999999E-01;198;0.0;0.0;0.0;1000.0;  4.0000001E-01;0.0;0;0.0;0.0;0.0;0;-5.6383873e-11;  1.0000000E+04;  0.0000000E+00;  0.0000000E+00;  1.0000000E+04;  0.0000000E+00;  1.0000000E+04;-5.2082429e-11;0.0;-4.3014455e-12;8.1608409e-10
 -1.2000000E-01;  9.9999998E-03;  1.6000000E-01;231;0.0;0.0;0.0;1000.0;  4.0000001E-01;0.0;0;0.0;0.0;0.0;0;-3.1015637e-09;  1.0000000E+04;  0.0000000E+00;  0.0000000E+00;  1.0000000E+04;  0.0000000E+00;  1.0000000E+04;-3.1225256e-09;0.0;2.0961849e-11;1.0842161e-08
 -1.2000000E-01;  9.9999998E-03;  1.8000001E-01;232;0.0;0.0;0.0;1000.0;  4.0000001E-01;0.0;0;0.0;0.0;0.0;0;-2.9474079e-09;  1.0000000E+04;  0.0000000E+00;  0.0000000E+00;  1.0000000E+04;  0.0000000E+00;  1.0000000E+04;-2.9711023e-09;0.0;2.3694392e-11;1.1460034e-08
 -1.2000000E-01;  9.9999998E-03;  2.0000000E-01;233;0.0;0.0;0.0;1000.0;  4.0000001E-01;0.0;0;0.0;0.0;0.0;0;-2.751557e-09;  1.0000000E+04;  0.0000000E+00;  0.0000000E+00;  1.0000000E+04;  0.0000000E+00;  1.0000000E+04;-2.7759988e-09;0.0;2.444169e-11;1.1581378e-08
 -1.2000000E-01;  9.9999998E-03;  2.2000000E-01;234;0.0;0.0;0.0;1000.0;  4.0000001E-01;0.0;0;0.0;0.0;0.0;0;-2.4996007e-09;  1.0000000E+04;  0.0000000E+00;  0.0000000E+00;  1.0000000E+04;  0.0000000E+00;  1.0000000E+04;-2.5187465e-09;0.0;1.9145843e-11;1.0229777e-08
 -1.2000000E-01;  9.9999998E-03;  2.3999999E-01;235;0.0;0.0;0.0;1000.0;  4.0000001E-01;0.0;0;0.0;0.0;0.0;0;-2.1785524e-09;  1.0000000E+04;  0.0000000E+00;  0.0000000E+00;  1.0000000E+04;  0.0000000E+00;  1.0000000E+04;-2.18417e-09;0.0;5.6175971e-12;6.8029697e-09
 -1.2000000E-01;  9.9999998E-03;  2.5999999E-01;236;0.0;0.0;0.0;1000.0;  4.0000001E-01;0.0;0;0.0;0.0;0.0;0;-1.7850166e-09;  1.0000000E+04;  0.0000000E+00;  0.0000000E+00;  1.0000000E+04;  0.0000000E+00;  1.0000000E+04;-1.7704131e-09;0.0;-1.4603468e-11;1.506136e-09
 -1.2000000E-01;  9.9999998E-03;  2.8000000E-01;237;0.0;0.0;0.0;1000.0;  4.0000001E-01;0.0;0;0.0;0.0;0.0;0;-1.3399242e-09;  1.0000000E+04;  0.0000000E+00;  0.0000000E+00;  1.0000000E+04;  0.0000000E+00;  1.0000000E+04;-1.3053767e-09;0.0;-3.4547473e-11;4.0893764e-09
 -1.2000000E-01;  9.9999998E-03;  3.0000001E-01;238;0.0;0.0;0.0;1000.0;  4.0000001E-01;0.0;0;0.0;0.0;0.0;0;-8.944106e-10;  1.0000000E+04;  0.0000000E+00;  0.0000000E+00;  1.0000000E+04;  0.0000000E+00;  1.0000000E+04;-8.4820861e-10;0.0;-4.6202001e-11;7.9894988e-09
 -1.2000000E-01;  9.9999998E-03;  3.1999999E-01;239;0.0;0.0;0.0;1000.0;  4.0000001E-01;0.0;0;0.0;0.0;0.0;0;-5.1210319e-10;  1.0000000E+04;  0.0000000E+00;  0.0000000E+00;  1.0000000E+04;  0.0000000E+00;  1.0000000E+04;-4.6694165e-10;0.0;-4.5161545e-11;8.9026582e-09
 -1.0000000E-01;  9.9999998E-03;  1.6000000E-01;272;0.0;0.0;0.0;1000.0;  4.0000001E-01;0.0;0;0.0;0.0;0.0;0;-1.1367455e-08;  1.0000000E+04;  0.0000000E+00;  0.0000000E+00;  1.0000000E+04;  0.0000000E+00;  1.0000000E+04;-1.1474456e-08;0.0;1.0700092e-10;4.8954785e-08
 -1.0000000E-01;  9.9999998E-03;  1.8000001E-01;273;0.0;0.0;0.0;1000.0;  4.0000001E-01;0.0;0;0.0;0.0;0.0;0;-1.0790719e-08;  1.0000000E+04;  0.0000000E+00;  0.0000000E+00;  1.0000000E+04;  0.0000000E+00;  1.0000000E+04;-1.0909632e-08;0.0;1.1891384e-10;5.2134361e-08
 -1.0000000E-01;  9.9999998E-03;  2.0000000E-01;274;0.0;0.0;0.0;1000.0;  4.0000001E-01;0.0;0;0.0;0.0;0.0;0;-1.0059868e-08;  1.0000000E+04;  0.0000000E+00;  0.0000000E+00;  1.0000000E+04;  0.0000000E+00;  1.0000000E+04;-1.017745e-08;0.0;1.1758143e-10;5.2117315e-08
 -1.0000000E-01;  9.9999998E-03;  2.2000000E-01;275;0.0;0.0;0.0;1000.0;  4.0000001E-01;0.0;0;0.0;0.0;0.0;0;-9.1433963e-09;  1.0000000E+04;  0.0000000E+00;  0.0000000E+00;  1.0000000E+04;  0.0000000E+00;  1.0000000E+04;-9.2348174e-09;0.0;9.1420781e-11;4.5853113e-08
 -1.0000000E-01;  9.9999998E-03;  2.3999999E-01;276;0.0;0.0;0.0;1000.0;  4.0000001E-01;0.0;0;0.0;0.0;0.0;0;-8.0136777e-09;  1.0000000E+04;  0.0000000E+00;  0.0000000E+00;  1.0000000E+04;  0.0000000E+00;  1.0000000E+04;-8.0452036e-09;0.0;3.1525751e-11;3.0626428e-08
 -1.0000000E-01;  9.9999998E-03;  2.5999999E-01;277;0.0;0.0;0.0;1000.0;  4.0000001E-01;0.0;0;0.0;0.0;0.0;0;-6.6649877e-09;  1.0000000E+04;  0.0000000E+00;  0.0000000E+00;  1.0000000E+04;  0.0000000E+00;  1.0000000E+04;-6.6078827e-09;0.0;-5.7104911e-11;6.9180053e-09
 -1.0000000E-01;  9.9999998E-03;  2.8000000E-01;278;0.0;0.0;0.0;1000.0;  4.0000001E-01;0.0;0;0.0;0.0;0.0;0;-5.154221e-09;  1.0000000E+04;  0.0000000E+00;  0.0000000E+00;  1.0000000E+04;  0.0000000E+00;  1.0000000E+04;-5.0057261e-09;0.0;-1.4849488e-10;1.9106283e-08
 -1.0000000E-01;  9.9999998E-03;  3.0000001E-01;279;0.0;0.0;0.0;1000.0;  4.0000001E-01;0.0;0;0.0;0.0;0.0;0;-3.6267831e-09;  1.0000000E+04;  0.0000000E+00;  0.0000000E+00;  1.0000000E+04;  0.0000000E+00;  1.0000000E+04;-3.4152661e-09;0.0;-2.1151704e-10;3.9134736e-08
 -1.0000000E-01;  9.9999998E-03;  3.1999999E-01;280;0.0;0.0;0.0;1000.0;  4.0000001E-01;0.0;0;0.0;0.0;0.0;0;-2.2745443e-09;  1.0000000E+04;  0.0000000E+00;  0.0000000E+00;  1.0000000E+04;  0.0000000E+00;  1.0000000E+04;-2.0476145e-09;0.0;-2.2692988e-10;4.7355552e-08
 -7.9999998E-02;  9.9999998E-03;  1.6000000E-01;313;0.0;0.0;0.0;1000.0;  4.0000001E-01;0.0;0;0.0;0.0;0.0;0;-3.2290703e-08;  1.0000000E+04;  0.0000000E+00;  0.0000000E+00;  1.0000000E+04;  0.0000000E+00;  1.0000000E+04;-3.2671959e-08;0.0;3.8125667e-10;1.6845979e-07
 -7.9999998E-02;  9.9999998E-03;  1.8000001E-01;314;0.0;0.0;0.0;1000.0;  4.0000001E-01;0.0;0;0.0;0.0;0.0;0;-3.0635714e-08;  1.0000000E+04;  0.0000000E+00;  0.0000000E+00;  1.0000000E+04;  0.0000000E+00;  1.0000000E+04;-3.1053514e-08;0.0;4.1780088e-10;1.7983965e-07
 -7.9999998E-02;  9.9999998E-03;  2.0000000E-01;315;0.0;0.0;0.0;1000.0;  4.0000001E-01;0.0;0;0.0;0.0;0.0;0;-2.8563486e-08;  1.0000000E+04;  0.0000000E+00;  0.0000000E+00;  1.0000000E+04;  0.0000000E+00;  1.0000000E+04;-2.8974799e-08;0.0;4.1131376e-10;1.8044217e-07
 -7.9999998E-02;  9.9999998E-03;  2.2000000E-01;316;0.0;0.0;0.0;1000.0;  4.0000001E-01;0.0;0;0.0;0.0;0.0;0;-2.600852e-08;  1.0000000E+04;  0.0000000E+00;  0.0000000E+00;  1.0000000E+04;  0.0000000E+00;  1.0000000E+04;-2.6332895e-08;0.0;3.2437594e-10;1.5959914e-07
 -7.9999998E-02;  9.9999998E-03;  2.3999999E-01;317;0.0;0.0;0.0;1000.0;  4.0000001E-01;0.0;0;0.0;0.0;0.0;0;-2.2909415e-08;  1.0000000E+04;  0.0000000E+00;  0.0000000E+00;  1.0000000E+04;  0.0000000E+00;  1.0000000E+04;-2.3036026e-08;0.0;1.2661147e-10;1.0731267e-07
 -7.9999998E-02;  9.9999998E-03;  2.5999999E-01;318;0.0;0.0;0.0;1000.0;  4.0000001E-01;0.0;0;0.0;0.0;0.0;0;-1.9249173e-08;  1.0000000E+04;  0.0000000E+00;  0.0000000E+00;  1.0000000E+04;  0.0000000E+00;  1.0000000E+04;-1.9082199e-08;0.0;-1.6697382e-10;2.493406e-08
 -7.9999998E-02;  9.9999998E-03;  2.8000000E-01;319;0.0;0.0;0.0;1000.0;  4.0000001E-01;0.0;0;0.0;0.0;0.0;0;-1.5155504e-08;  1.0000000E+04;  0.0000000E+00;  0.0000000E+00;  1.0000000E+04;  0.0000000E+00;  1.0000000E+04;-1.4678271e-08;0.0;-4.7723309e-10;6.7374692e-08
 -7.9999998E-02;  9.9999998E-03;  3.0000001E-01;320;0.0;0.0;0.0;1000.0;  4.0000001E-01;0.0;0;0.0;0.0;0.0;0;-1.0983152e-08;  1.0000000E+04;  0.0000000E+00;  0.0000000E+00;  1.0000000E+04;  0.0000000E+00;  1.0000000E+04;-1.0274849e-08;0.0;-7.0830308e-10;1.4211832e-07
 -7.9999998E-02;  9.9999998E-03;  3.1999999E-01;321;0.0;0.0;0.0;1000.0;  4.0000001E-01;0.0;0;0.0;0.0;0.0;0;-7.2213231e-09;  1.0000000E+04;  0.0000000E+00;  0.0000000E+00;  1.0000000E+04;  0.0000000E+00;  1.0000000E+04;-6.4230741e-09;0.0;-7.9824919e-10;1.7939199e-07
 -5.9999999E-02;  9.9999998E-03;  1.6000000E-01;354;0.0;0.0;0.0;1000.0;  4.0000001E-01;0.0;0;0.0;0.0;0.0;0;-7.8006089e-08;  1.0000000E+04;  0.0000000E+00;  0.0000000E+00;  1.0000000E+04;  0.0000000E+00;  1.0000000E+04;-7.9098115e-08;0.0;1.0920264e-09;4.9011584e-07
 -5.9999999E-02;  9.9999998E-03;  1.8000001E-01;355;0.0;0.0;0.0;1000.0;  4.0000001E-01;0.0;0;0.0;0.0;0.0;0;-7.4008661e-08;  1.0000000E+04;  0.0000000E+00;  0.0000000E+00;  1.0000000E+04;  0.0000000E+00;  1.0000000E+04;-7.5201797e-08;0.0;1.1931394e-09;5.2579776e-07
 -5.9999999E-02;  9.9999998E-03;  2.0000000E-01;356;0.0;0.0;0.0;1000.0;  4.0000001E-01;0.0;0;0.0;0.0;0.0;0;-6.9050465e-08;  1.0000000E+04;  0.0000000E+00;  0.0000000E+00;  1.0000000E+04;  0.0000000E+00;  1.0000000E+04;-7.0228694e-08;0.0;1.1782265e-09;5.3042078e-07
 -5.9999999E-02;  9.9999998E-03;  2.2000000E-01;357;0.0;0.0;0.0;1000.0;  4.0000001E-01;0.0;0;0.0;0.0;0.0;0;-6.3001103e-08;  1.0000000E+04;  0.0000000E+00;  0.0000000E+00;  1.0000000E+04;  0.0000000E+00;  1.0000000E+04;-6.3942394e-08;0.0;9.4129082e-10;4.7117913e-07
 -5.9999999E-02;  9.9999998E-03;  2.3999999E-01;358;0.0;0.0;0.0;1000.0;  4.0000001E-01;0.0;0;0.0;0.0;0.0;0;-5.5728485e-08;  1.0000000E+04;  0.0000000E+00;  0.0000000E+00;  1.0000000E+04;  0.0000000E+00;  1.0000000E+04;-5.6126883e-08;0.0;3.9839826e-10;3.1803435e-07
 -5.9999999E-02;  9.9999998E-03;  2.5999999E-01;359;0.0;0.0;0.0;1000.0;  4.0000001E-01;0.0;0;0.0;0.0;0.0;0;-4.7177419e-08;  1.0000000E+04;  0.0000000E+00;  0.0000000E+00;  1.0000000E+04;  0.0000000E+00;  1.0000000E+04;-4.6764985e-08;0.0;-4.1243489e-10;7.4488263e-08
 -5.9999999E-02;  9.9999998E-03;  2.8000000E-01;360;0.0;0.0;0.0;1000.0;  4.0000001E-01;0.0;0;0.0;0.0;0.0;0;-3.7592624e-08;  1.0000000E+04;  0.0000000E+00;  0.0000000E+00;  1.0000000E+04;  0.0000000E+00;  1.0000000E+04;-3.6308208e-08;0.0;-1.2844152e-09;2.0209532e-07
 -5.9999999E-02;  9.9999998E-03;  3.0000001E-01;361;0.0;0.0;0.0;1000.0;  4.0000001E-01;0.0;0;0.0;0.0;0.0;0;-2.7746349e-08;  1.0000000E+04;  0.0000000E+00;  0.0000000E+00;  1.0000000E+04;  0.0000000E+00;  1.0000000E+04;-2.5784136e-08;0.0;-1.9622137e-09;4.3241516e-07
 -5.9999999E-02;  9.9999998E-03;  3.1999999E-01;362;0.0;0.0;0.0;1000.0;  4.0000001E-01;0.0;0;0.0;0.0;0.0;0;-1.8760183e-08;  1.0000000E+04;  0.0000000E+00;  0.0000000E+00;  1.0000000E+04;  0.0000000E+00;  1.0000000E+04;-1.6483796e-08;0.0;-2.2763877e-09;5.5804242e-07
 -3.9999999E-02;  9.9999998E-03;  1.6000000E-01;395;0.0;0.0;0.0;1000.0;  4.0000001E-01;0.0;0;0.0;0.0;0.0;0;-1.6862576e-07;  1.0000000E+04;  0.0000000E+00;  0.0000000E+00;  1.0000000E+04;  0.0000000E+00;  1.0000000E+04;-1.7133864e-07;0.0;2.7128835e-09;1.2783638e-06
 -3.9999999E-02;  9.9999998E-03;  1.8000001E-01;396;0.0;0.0;0.0;1000.0;  4.0000001E-01;0.0;0;0.0;0.0;0.0;0;-1.6004168e-07;  1.0000000E+04;  0.0000000E+00;  0.0000000E+00;  1.0000000E+04;  0.0000000E+00;  1.0000000E+04;-1.6300831e-07;0.0;2.9666247e-09;1.378227e-06
 -3.9999999E-02;  9.9999998E-03;  2.0000000E-01;397;0.0;0.0;0.0;1000.0;  4.0000001E-01;0.0;0;0.0;0.0;0.0;0;-1.494641e-07;  1.0000000E+04;  0.0000000E+00;  0.0000000E+00;  1.0000000E+04;  0.0000000E+00;  1.0000000E+04;-1.5240529e-07;0.0;2.9411964e-09;1.3964334e-06
 -3.9999999E-02;  9.9999998E-03;  2.2000000E-01;398;0.0;0.0;0.0;1000.0;  4.0000001E-01;0.0;0;0.0;0.0;0.0;0;-1.3664567e-07;  1.0000000E+04;  0.0000000E+00;  0.0000000E+00;  1.0000000E+04;  0.0000000E+00;  1.0000000E+04;-1.3902117e-07;0.0;2.3755069e-09;1.2441657e-06
 -3.9999999E-02;  9.9999998E-03;  2.3999999E-01;399;0.0;0.0;0.0;1000.0;  4.0000001E-01;0.0;0;0.0;0.0;0.0;0;-1.2131643e-07;  1.0000000E+04;  0.0000000E+00;  0.0000000E+00;  1.0000000E+04;  0.0000000E+00;  1.0000000E+04;-1.2238128e-07;0.0;1.0648535e-09;8.4131756e-07
 -3.9999999E-02;  9.9999998E-03;  2.5999999E-01;400;0.0;0.0;0.0;1000.0;  4.0000001E-01;0.0;0;0.0;0.0;0.0;0;-1.0332237e-07;  1.0000000E+04;  0.0000000E+00;  0.0000000E+00;  1.0000000E+04;  0.0000000E+00;  1.0000000E+04;-1.0241268e-07;0.0;-9.0968344e-10;1.9541004e-07
 -3.9999999E-02;  9.9999998E-03;  2.8000000E-01;401;0.0;0.0;0.0;1000.0;  4.0000001E-01;0.0;0;0.0;0.0;0.0;0;-8.3072983e-08;  1.0000000E+04;  0.0000000E+00;  0.0000000E+00;  1.0000000E+04;  0.0000000E+00;  1.0000000E+04;-8.0005456e-08;0.0;-3.0675269e-09;5.4617163e-07
 -3.9999999E-02;  9.9999998E-03;  3.0000001E-01;402;0.0;0.0;0.0;1000.0;  4.0000001E-01;0.0;0;0.0;0.0;0.0;0;-6.2090905e-08;  1.0000000E+04;  0.0000000E+00;  0.0000000E+00;  1.0000000E+04;  0.0000000E+00;  1.0000000E+04;-5.7298518e-08;0.0;-4.7923905e-09;1.1746988e-06
 -3.9999999E-02;  9.9999998E-03;  3.1999999E-01;403;0.0;0.0;0.0;1000.0;  4.0000001E-01;0.0;0;0.0;0.0;0.0;0;-4.2739167e-08;  1.0000000E+04;  0.0000000E+00;  0.0000000E+00;  1.0000000E+04;  0.0000000E+00;  1.0000000E+04;-3.7077157e-08;0.0;-5.6620086e-09;1.5332131e-06
 -2.0000000E-02;  9.9999998E-03;  1.6000000E-01;436;0.0;0.0;0.0;1000.0;  4.0000001E-01;0.0;0;0.0;0.0;0.0;0;-3.3798455e-07;  1.0000000E+04;  0.0000000E+00;  0.0000000E+00;  1.0000000E+04;  0.0000000E+00;  1.0000000E+04;-3.4408581e-07;0.0;6.1012737e-09;3.0961605e-06
 -2.0000000E-02;  9.9999998E-03;  1.8000001E-01;437;0.0;0.0;0.0;1000.0;  4.0000001E-01;0.0;0;0.0;0.0;0.0;0;-3.2097142e-07;  1.0000000E+04;  0.0000000E+00;  0.0000000E+00;  1.0000000E+04;  0.0000000E+00;  1.0000000E+04;-3.2765473e-07;0.0;6.6833197e-09;3.3510587e-06
 -2.0000000E-02;  9.9999998E-03;  2.0000000E-01;438;0.0;0.0;0.0;1000.0;  4.0000001E-01;0.0;0;0.0;0.0;0.0;0;-3.0009642e-07;  1.0000000E+04;  0.0000000E+00;  0.0000000E+00;  1.0000000E+04;  0.0000000E+00;  1.0000000E+04;-3.0674732e-07;0.0;6.65091e-09;3.4060231e-06
 -2.0000000E-02;  9.9999998E-03;  2.2000000E-01;439;0.0;0.0;0.0;1000.0;  4.0000001E-01;0.0;0;0.0;0.0;0.0;0;-2.7490356e-07;  1.0000000E+04;  0.0000000E+00;  0.0000000E+00;  1.0000000E+04;  0.0000000E+00;  1.0000000E+04;-2.8032477e-07;0.0;5.4212079e-09;3.040441e-06
 -2.0000000E-02;  9.9999998E-03;  2.3999999E-01;440;0.0;0.0;0.0;1000.0;  4.0000001E-01;0.0;0;0.0;0.0;0.0;0;-2.4486272e-07;  1.0000000E+04;  0.0000000E+00;  0.0000000E+00;  1.0000000E+04;  0.0000000E+00;  1.0000000E+04;-2.4739992e-07;0.0;2.5371945e-09;2.0570542e-06
 -2.0000000E-02;  9.9999998E-03;  2.5999999E-01;441;0.0;0.0;0.0;1000.0;  4.0000001E-01;0.0;0;0.0;0.0;0.0;0;-2.0961031e-07;  1.0000000E+04;  0.0000000E+00;  0.0000000E+00;  1.0000000E+04;  0.0000000E+00;  1.0000000E+04;-2.0776176e-07;0.0;-1.8485521e-09;4.7006324e-07
 -2.0000000E-02;  9.9999998E-03;  2.8000000E-01;442;0.0;0.0;0.0;1000.0;  4.0000001E-01;0.0;0;0.0;0.0;0.0;0;-1.697817e-07;  1.0000000E+04;  0.0000000E+00;  0.0000000E+00;  1.0000000E+04;  0.0000000E+00;  1.0000000E+04;-1.6306201e-07;0.0;-6.7196946e-09;1.3697213e-06
 -2.0000000E-02;  9.9999998E-03;  3.0000001E-01;443;0.0;0.0;0.0;1000.0;  4.0000001E-01;0.0;0;0.0;0.0;0.0;0;-1.2814253e-07;  1.0000000E+04;  0.0000000E+00;  0.0000000E+00;  1.0000000E+04;  0.0000000E+00;  1.0000000E+04;-1.1744113e-07;0.0;-1.0701402e-08;2.9499975e-06
 -2.0000000E-02;  9.9999998E-03;  3.1999999E-01;444;0.0;0.0;0.0;1000.0;  4.0000001E-01;0.0;0;0.0;0.0;0.0;0;-8.9328942e-08;  1.0000000E+04;  0.0000000E+00;  0.0000000E+00;  1.0000000E+04;  0.0000000E+00;  1.0000000E+04;-7.6525538e-08;0.0;-1.2803402e-08;3.8734697e-06
  0.0000000E+00;  9.9999998E-03;  3.0000001E-01;455;0.0;0.0;0.0;1000.0;  4.0000001E-01;0.0;0;0.0;0.0;0.0;0;-2.5038489e-07;  1.0000000E+04;  0.0000000E+00;  0.0000000E+00;  1.0000000E+04;  0.0000000E+00;  1.0000000E+04;-2.2804875e-07;0.0;-2.2336145e-08;6.9873367e-06
  0.0000000E+00;  9.9999998E-03;  3.1999999E-01;456;0.0;0.0;0.0;1000.0;  4.0000001E-01;0.0;0;0.0;0.0;0.0;0;-1.7629289e-07;  1.0000000E+04;  0.0000000E+00;  0.0000000E+00;  1.0000000E+04;  0.0000000E+00;  1.0000000E+04;-1.4929009e-07;0.0;-2.70028e-08;9.2117007e-06
  2.0000000E-02;  9.9999998E-03;  3.1999999E-01;466;0.0;0.0;0.0;1000.0;  4.0000001E-01;0.0;0;0.0;0.0;0.0;0;-3.3479972e-07;  1.0000000E+04;  0.0000000E+00;  0.0000000E+00;  1.0000000E+04;  0.0000000E+00;  1.0000000E+04;-2.8077392e-07;0.0;-5.4025811e-08;2.0909749e-05
  3.9999999E-02;  9.9999998E-03;  3.1999999E-01;476;0.0;0.0;0.0;1000.0;  4.0000001E-01;0.0;0;0.0;0.0;0.0;0;-6.1947981e-07;  1.0000000E+04;  0.0000000E+00;  0.0000000E+00;  1.0000000E+04;  0.0000000E+00;  1.0000000E+04;-5.1564149e-07;0.0;-1.0383832e-07;4.5690645e-05
  5.9999999E-02;  9.9999998E-03;  3.1999999E-01;486;0.0;0.0;0.0;1000.0;  4.0000001E-01;0.0;0;0.0;0.0;0.0;0;-1.1239204e-06;  1.0000000E+04;  0.0000000E+00;  0.0000000E+00;  1.0000000E+04;  0.0000000E+00;  1.0000000E+04;-9.3028581e-07;0.0;-1.9363458e-07;9.6635857e-05
  7.9999998E-02;  9.9999998E-03;  3.1999999E-01;496;0.0;0.0;0.0;1000.0;  4.0000001E-01;0.0;0;0.0;0.0;0.0;0;-2.0148366e-06;  1.0000000E+04;  0.0000000E+00;  0.0000000E+00;  1.0000000E+04;  0.0000000E+00;  1.0000000E+04;-1.6620274e-06;0.0;-3.5280911e-07;0.00019895071
  1.0000000E-01;  9.9999998E-03;  3.1999999E-01;506;0.0;0.0;0.0;1000.0;  4.0000001E-01;0.0;0;0.0;0.0;0.0;0;-3.6140905e-06;  1.0000000E+04;  0.0000000E+00;  0.0000000E+00;  1.0000000E+04;  0.0000000E+00;  1.0000000E+04;-2.9811154e-06;0.0;-6.3297506e-07;0.0004211638
  1.2000000E-01;  9.9999998E-03;  3.1999999E-01;516;0.0;0.0;0.0;1000.0;  4.0000001E-01;0.0;0;0.0;0.0;0.0;0;-6.5488357e-06;  1.0000000E+04;  0.0000000E+00;  0.0000000E+00;  1.0000000E+04;  0.0000000E+00;  1.0000000E+04;-5.4202246e-06;0.0;-1.1286112e-06;0.0011347935
  1.4000000E-01;  9.9999998E-03;  3.1999999E-01;526;0.0;0.0;0.0;1000.0;  4.0000001E-01;0.0;0;0.0;0.0;0.0;0;-1.2001005e-05;  1.0000000E+04;  0.0000000E+00;  0.0000000E+00;  1.0000000E+04;  0.0000000E+00;  1.0000000E+04;-9.9803665e-06;0.0;-2.0206378e-06;0.0038978038
  1.6000000E-01;  9.9999998E-03;  3.1999999E-01;536;0.0;0.0;0.0;1000.0;  4.0000001E-01;0.0;0;0.0;0.0;0.0;0;-2.2002256e-05;  1.0000000E+04;  0.0000000E+00;  0.0000000E+00;  1.0000000E+04;  0.0000000E+00;  1.0000000E+04;-1.8336008e-05;0.0;-3.6662479e-06;0.012956672
  1.8000001E-01;  9.9999998E-03;  3.1999999E-01;546;0.0;0.0;0.0;1000.0;  4.0000001E-01;0.0;0;0.0;0.0;0.0;0;-3.9457758e-05;  1.0000000E+04;  0.0000000E+00;  0.0000000E+00;  1.0000000E+04;  0.0000000E+00;  1.0000000E+04;-3.2696011e-05;0.0;-6.7617475e-06;0.036845434
  2.0000000E-01;  9.9999998E-03;  3.1999999E-01;555;0.0;0.0;0.0;1000.0;  4.0000001E-01;0.0;0;0.0;0.0;0.0;0;-6.7705609e-05;  1.0000000E+04;  0.0000000E+00;  0.0000000E+00;  1.0000000E+04;  0.0000000E+00;  1.0000000E+04;-5.5152814e-05;0.0;-1.2552797e-05;0.085613489
 -2.2000000E-01;  9.9999998E-03;  3.4000000E-01;36;0.0;0.0;0.0;1000.0;  4.0000001E-01;0.0;0;0.0;0.0;0.0;0;0.0;  1.0000000E+04;  0.0000000E+00;  0.0000000E+00;  1.0000000E+04;  0.0000000E+00;  1.0000000E+04;0.0;0.0;0.0;0.0
 -2.2000000E-01;  9.9999998E-03;  3.6000001E-01;37;0.0;0.0;0.0;1000.0;  4.0000001E-01;0.0;0;0.0;0.0;0.0;0;0.0;  1.0000000E+04;  0.0000000E+00;  0.0000000E+00;  1.0000000E+04;  0.0000000E+00;  1.0000000E+04;0.0;0.0;0.0;0.0
 -2.2000000E-01;  9.9999998E-03;  3.8000000E-01;38;0.0;0.0;0.0;1000.0;  4.0000001E-01;0.0;0;0.0;0.0;0.0;0;0.0;  1.0000000E+04;  0.0000000E+00;  0.0000000E+00;  1.0000000E+04;  0.0000000E+00;  1.0000000E+04;0.0;0.0;0.0;0.0
 -2.0000000E-01;  9.9999998E-03;  3.4000000E-01;76;0.0;0.0;0.0;1000.0;  4.0000001E-01;0.0;0;0.0;0.0;0.0;0;0.0;  1.0000000E+04;  0.0000000E+00;  0.0000000E+00;  1.0000000E+04;  0.0000000E+00;  1.0000000E+04;0.0;0.0;0.0;0.0
 -2.0000000E-01;  9.9999998E-03;  3.6000001E-01;77;0.0;0.0;0.0;1000.0;  4.0000001E-01;0.0;0;0.0;0.0;0.0;0;0.0;  1.0000000E+04;  0.0000000E+00;  0.0000000E+00;  1.0000000E+04;  0.0000000E+00;  1.0000000E+04;0.0;0.0;0.0;0.0
 -2.0000000E-01;  9.9999998E-03;  3.8000000E-01;78;0.0;0.0;0.0;1000.0;  4.0000001E-01;0.0;0;0.0;0.0;0.0;0;0.0;  1.0000000E+04;  0.0000000E+00;  0.0000000E+00;  1.0000000E+04;  0.0000000E+00;  1.0000000E+04;0.0;0.0;0.0;0.0
 -2.0000000E-01;  9.9999998E-03;  4.0000001E-01;79;0.0;0.0;0.0;1000.0;  4.0000001E-01;0.0;0;0.0;0.0;0.0;0;0.0;  1.0000000E+04;  0.0000000E+00;  0.0000000E+00;  1.0000000E+04;  0.0000000E+00;  1.0000000E+04;0.0;0.0;0.0;0.0
 -1.8000001E-01;  9.9999998E-03;  3.4000000E-01;117;0.0;0.0;0.0;1000.0;  4.0000001E-01;0.0;0;0.0;0.0;0.0;0;0.0;  1.0000000E+04;  0.0000000E+00;  0.0000000E+00;  1.0000000E+04;  0.0000000E+00;  1.0000000E+04;0.0;0.0;0.0;0.0
 -1.8000001E-01;  9.9999998E-03;  3.6000001E-01;118;0.0;0.0;0.0;1000.0;  4.0000001E-01;0.0;0;0.0;0.0;0.0;0;0.0;  1.0000000E+04;  0.0000000E+00;  0.0000000E+00;  1.0000000E+04;  0.0000000E+00;  1.0000000E+04;0.0;0.0;0.0;0.0
 -1.8000001E-01;  9.9999998E-03;  3.8000000E-01;119;0.0;0.0;0.0;1000.0;  4.0000001E-01;0.0;0;0.0;0.0;0.0;0;0.0;  1.0000000E+04;  0.0000000E+00;  0.0000000E+00;  1.0000000E+04;  0.0000000E+00;  1.0000000E+04;0.0;0.0;0.0;0.0
 -1.8000001E-01;  9.9999998E-03;  4.0000001E-01;120;0.0;0.0;0.0;1000.0;  4.0000001E-01;0.0;0;0.0;0.0;0.0;0;0.0;  1.0000000E+04;  0.0000000E+00;  0.0000000E+00;  1.0000000E+04;  0.0000000E+00;  1.0000000E+04;0.0;0.0;0.0;0.0
 -1.6000000E-01;  9.9999998E-03;  3.4000000E-01;158;0.0;0.0;0.0;1000.0;  4.0000001E-01;0.0;0;0.0;0.0;0.0;0;0.0;  1.0000000E+04;  0.0000000E+00;  0.0000000E+00;  1.0000000E+04;  0.0000000E+00;  1.0000000E+04;0.0;0.0;0.0;0.0
 -1.6000000E-01;  9.9999998E-03;  3.6000001E-01;159;0.0;0.0;0.0;1000.0;  4.0000001E-01;0.0;0;0.0;0.0;0.0;0;0.0;  1.0000000E+04;  0.0000000E+00;  0.0000000E+00;  1.0000000E+04;  0.0000000E+00;  1.0000000E+04;0.0;0.0;0.0;0.0
 -1.6000000E-01;  9.9999998E-03;  3.8000000E-01;160;0.0;0.0;0.0;1000.0;  4.0000001E-01;0.0;0;0.0;0.0;0.0;0;0.0;  1.0000000E+04;  0.0000000E+00;  0.0000000E+00;  1.0000000E+04;  0.0000000E+00;  1.0000000E+04;0.0;0.0;0.0;0.0
 -1.6000000E-01;  9.9999998E-03;  4.0000001E-01;161;0.0;0.0;0.0;1000.0;  4.0000001E-01;0.0;0;0.0;0.0;0.0;0;0.0;  1.0000000E+04;  0.0000000E+00;  0.0000000E+00;  1.0000000E+04;  0.0000000E+00;  1.0000000E+04;0.0;0.0;0.0;0.0
 -1.4000000E-01;  9.9999998E-03;  3.4000000E-01;199;0.0;0.0;0.0;1000.0;  4.0000001E-01;0.0;0;0.0;0.0;0.0;0;-1.6880618e-11;  1.0000000E+04;  0.0000000E+00;  0.0000000E+00;  1.0000000E+04;  0.0000000E+00;  1.0000000E+04;-1.4878428e-11;0.0;-2.0021894e-12;3.9488054e-10
 -1.4000000E-01;  9.9999998E-03;  3.6000001E-01;200;0.0;0.0;0.0;1000.0;  4.0000001E-01;0.0;0;0.0;0.0;0.0;0;-1.906027e-12;  1.0000000E+04;  0.0000000E+00;  0.0000000E+00;  1.0000000E+04;  0.0000000E+00;  1.0000000E+04;-1.591236e-12;0.0;-3.14791e-13;6.3543185e-11
 -1.4000000E-01;  9.9999998E-03;  3.8000000E-01;201;0.0;0.0;0.0;1000.0;  4.0000001E-01;0.0;0;0.0;0.0;0.0;0;0.0;  1.0000000E+04;  0.0000000E+00;  0.0000000E+00;  1.0000000E+04;  0.0000000E+00;  1.0000000E+04;0.0;0.0;0.0;0.0
 -1.4000000E-01;  9.9999998E-03;  4.0000001E-01;202;0.0;0.0;0.0;1000.0;  4.0000001E-01;0.0;0;0.0;0.0;0.0;0;0.0;  1.0000000E+04;  0.0000000E+00;  0.0000000E+00;  1.0000000E+04;  0.0000000E+00;  1.0000000E+04;0.0;0.0;0.0;0.0
 -1.2000000E-01;  9.9999998E-03;  3.4000000E-01;240;0.0;0.0;0.0;1000.0;  4.0000001E-01;0.0;0;0.0;0.0;0.0;0;-2.3710359e-10;  1.0000000E+04;  0.0000000E+00;  0.0000000E+00;  1.0000000E+04;  0.0000000E+00;  1.0000000E+04;-2.0460834e-10;0.0;-3.2495253e-11;6.7911503e-09
 -1.2000000E-01;  9.9999998E-03;  3.6000001E-01;241;0.0;0.0;0.0;1000.0;  4.0000001E-01;0.0;0;0.0;0.0;0.0;0;-7.7307792e-11;  1.0000000E+04;  0.0000000E+00;  0.0000000E+00;  1.0000000E+04;  0.0000000E+00;  1.0000000E+04;-6.2379914e-11;0.0;-1.4927877e-11;3.187099e-09
 -1.2000000E-01;  9.9999998E-03;  3.8000000E-01;242;0.0;0.0;0.0;1000.0;  4.0000001E-01;0.0;0;0.0;0.0;0.0;0;-1.1060763e-11;  1.0000000E+04;  0.0000000E+00;  0.0000000E+00;  1.0000000E+04;  0.0000000E+00;  1.0000000E+04;-8.452088e-12;0.0;-2.6086746e-12;5.6044597e-10
 -1.2000000E-01;  9.9999998E-03;  4.0000001E-01;243;0.0;0.0;0.0;1000.0;  4.0000001E-01;0.0;0;0.0;0.0;0.0;0;0.0;  1.0000000E+04;  0.0000000E+00;  0.0000000E+00;  1.0000000E+04;  0.0000000E+00;  1.0000000E+04;0.0;0.0;0.0;0.0
 -1.0000000E-01;  9.9999998E-03;  3.4000000E-01;281;0.0;0.0;0.0;1000.0;  4.0000001E-01;0.0;0;0.0;0.0;0.0;0;-1.2367655e-09;  1.0000000E+04;  0.0000000E+00;  0.0000000E+00;  1.0000000E+04;  0.0000000E+00;  1.0000000E+04;-1.0449307e-09;0.0;-1.9183477e-10;4.2277438e-08
 -1.0000000E-01;  9.9999998E-03;  3.6000001E-01;282;0.0;0.0;0.0;1000.0;  4.0000001E-01;0.0;0;0.0;0.0;0.0;0;-5.4860128e-10;  1.0000000E+04;  0.0000000E+00;  0.0000000E+00;  1.0000000E+04;  0.0000000E+00;  1.0000000E+04;-4.284984e-10;0.0;-1.2010289e-10;2.7098766e-08
 -1.0000000E-01;  9.9999998E-03;  3.8000000E-01;283;0.0;0.0;0.0;1000.0;  4.0000001E-01;0.0;0;0.0;0.0;0.0;0;-1.6873522e-10;  1.0000000E+04;  0.0000000E+00;  0.0000000E+00;  1.0000000E+04;  0.0000000E+00;  1.0000000E+04;-1.2316988e-10;0.0;-4.5565347e-11;1.0325535e-08
 -1.0000000E-01;  9.9999998E-03;  4.0000001E-01;284;0.0;0.0;0.0;1000.0;  4.0000001E-01;0.0;0;0.0;0.0;0.0;0;-2.3369962e-11;  1.0000000E+04;  0.0000000E+00;  0.0000000E+00;  1.0000000E+04;  0.0000000E+00;  1.0000000E+04;-1.6851437e-11;0.0;-6.5185244e-12;1.4851387e-09
 -7.9999998E-02;  9.9999998E-03;  3.4000000E-01;322;0.0;0.0;0.0;1000.0;  4.0000001E-01;0.0;0;0.0;0.0;0.0;0;-4.2432498e-09;  1.0000000E+04;  0.0000000E+00;  0.0000000E+00;  1.0000000E+04;  0.0000000E+00;  1.0000000E+04;-3.5144903e-09;0.0;-7.2875961e-10;1.719574e-07
 -7.9999998E-02;  9.9999998E-03;  3.6000001E-01;323;0.0;0.0;0.0;1000.0;  4.0000001E-01;0.0;0;0.0;0.0;0.0;0;-2.1519053e-09;  1.0000000E+04;  0.0000000E+00;  0.0000000E+00;  1.0000000E+04;  0.0000000E+00;  1.0000000E+04;-1.6306543e-09;0.0;-5.2125115e-10;1.2528186e-07
 -7.9999998E-02;  9.9999998E-03;  3.8000000E-01;324;0.0;0.0;0.0;1000.0;  4.0000001E-01;0.0;0;0.0;0.0;0.0;0;-8.5620655e-10;  1.0000000E+04;  0.0000000E+00;  0.0000000E+00;  1.0000000E+04;  0.0000000E+00;  1.0000000E+04;-5.9972782e-10;0.0;-2.564787e-10;6.1595706e-08
 -7.9999998E-02;  9.9999998E-03;  4.0000001E-01;325;0.0;0.0;0.0;1000.0;  4.0000001E-01;0.0;0;0.0;0.0;0.0;0;-2.1820318e-10;  1.0000000E+04;  0.0000000E+00;  0.0000000E+00;  1.0000000E+04;  0.0000000E+00;  1.0000000E+04;-1.4961478e-10;0.0;-6.8588399e-11;1.6306691e-08
 -5.9999999E-02;  9.9999998E-03;  3.4000000E-01;363;0.0;0.0;0.0;1000.0;  4.0000001E-01;0.0;0;0.0;0.0;0.0;0;-1.1513674e-08;  1.0000000E+04;  0.0000000E+00;  0.0000000E+00;  1.0000000E+04;  0.0000000E+00;  1.0000000E+04;-9.3476595e-09;0.0;-2.1660138e-09;5.5479774e-07
 -5.9999999E-02;  9.9999998E-03;  3.6000001E-01;364;0.0;0.0;0.0;1000.0;  4.0000001E-01;0.0;0;0.0;0.0;0.0;0;-6.2634746e-09;  1.0000000E+04;  0.0000000E+00;  0.0000000E+00;  1.0000000E+04;  0.0000000E+00;  1.0000000E+04;-4.6057402e-09;0.0;-1.6577344e-09;4.3035206e-07
 -5.9999999E-02;  9.9999998E-03;  3.8000000E-01;365;0.0;0.0;0.0;1000.0;  4.0000001E-01;0.0;0;0.0;0.0;0.0;0;-2.812663e-09;  1.0000000E+04;  0.0000000E+00;  0.0000000E+00;  1.0000000E+04;  0.0000000E+00;  1.0000000E+04;-1.8915176e-09;0.0;-9.2114533e-10;2.3748416e-07
 -5.9999999E-02;  9.9999998E-03;  4.0000001E-01;366;0.0;0.0;0.0;1000.0;  4.0000001E-01;0.0;0;0.0;0.0;0.0;0;-9.0731189e-10;  1.0000000E+04;  0.0000000E+00;  0.0000000E+00;  1.0000000E+04;  0.0000000E+00;  1.0000000E+04;-5.9251476e-10;0.0;-3.1479713e-10;7.9539788e-08
 -3.9999999E-02;  9.9999998E-03;  3.4000000E-01;404;0.0;0.0;0.0;1000.0;  4.0000001E-01;0.0;0;0.0;0.0;0.0;0;-2.6934663e-08;  1.0000000E+04;  0.0000000E+00;  0.0000000E+00;  1.0000000E+04;  0.0000000E+00;  1.0000000E+04;-2.1419952e-08;0.0;-5.51471e-09;1.5534622e-06
 -3.9999999E-02;  9.9999998E-03;  3.6000001E-01;405;0.0;0.0;0.0;1000.0;  4.0000001E-01;0.0;0;0.0;0.0;0.0;0;-1.5258436e-08;  1.0000000E+04;  0.0000000E+00;  0.0000000E+00;  1.0000000E+04;  0.0000000E+00;  1.0000000E+04;-1.0879901e-08;0.0;-4.3785358e-09;1.244908e-06
 -3.9999999E-02;  9.9999998E-03;  3.8000000E-01;406;0.0;0.0;0.0;1000.0;  4.0000001E-01;0.0;0;0.0;0.0;0.0;0;-7.3074751e-09;  1.0000000E+04;  0.0000000E+00;  0.0000000E+00;  1.0000000E+04;  0.0000000E+00;  1.0000000E+04;-4.7142086e-09;0.0;-2.5932665e-09;7.2845398e-07
 -3.9999999E-02;  9.9999998E-03;  4.0000001E-01;407;0.0;0.0;0.0;1000.0;  4.0000001E-01;0.0;0;0.0;0.0;0.0;0;-2.6362776e-09;  1.0000000E+04;  0.0000000E+00;  0.0000000E+00;  1.0000000E+04;  0.0000000E+00;  1.0000000E+04;-1.6370215e-09;0.0;-9.9925612e-10;2.7289781e-07
 -2.0000000E-02;  9.9999998E-03;  3.4000000E-01;445;0.0;0.0;0.0;1000.0;  4.0000001E-01;0.0;0;0.0;0.0;0.0;0;-5.727571e-08;  1.0000000E+04;  0.0000000E+00;  0.0000000E+00;  1.0000000E+04;  0.0000000E+00;  1.0000000E+04;-4.4636252e-08;0.0;-1.2639457e-08;3.9635065e-06
 -2.0000000E-02;  9.9999998E-03;  3.6000001E-01;446;0.0;0.0;0.0;1000.0;  4.0000001E-01;0.0;0;0.0;0.0;0.0;0;-3.3257596e-08;  1.0000000E+04;  0.0000000E+00;  0.0000000E+00;  1.0000000E+04;  0.0000000E+00;  1.0000000E+04;-2.301573e-08;0.0;-1.0241865e-08;3.2318706e-06
 -2.0000000E-02;  9.9999998E-03;  3.8000000E-01;447;0.0;0.0;0.0;1000.0;  4.0000001E-01;0.0;0;0.0;0.0;0.0;0;-1.651421e-08;  1.0000000E+04;  0.0000000E+00;  0.0000000E+00;  1.0000000E+04;  0.0000000E+00;  1.0000000E+04;-1.0231219e-08;0.0;-6.2829901e-09;1.9514591e-06
 -2.0000000E-02;  9.9999998E-03;  4.0000001E-01;448;0.0;0.0;0.0;1000.0;  4.0000001E-01;0.0;0;0.0;0.0;0.0;0;-6.3043792e-09;  1.0000000E+04;  0.0000000E+00;  0.0000000E+00;  1.0000000E+04;  0.0000000E+00;  1.0000000E+04;-3.7233463e-09;0.0;-2.5810327e-09;7.7472396e-07
  0.0000000E+00;  9.9999998E-03;  3.4000000E-01;457;0.0;0.0;0.0;1000.0;  4.0000001E-01;0.0;0;0.0;0.0;0.0;0;-1.144187e-07;  1.0000000E+04;  0.0000000E+00;  0.0000000E+00;  1.0000000E+04;  0.0000000E+00;  1.0000000E+04;-8.7547839e-08;0.0;-2.6870858e-08;9.4753404e-06
  0.0000000E+00;  9.9999998E-03;  3.6000001E-01;458;0.0;0.0;0.0;1000.0;  4.0000001E-01;0.0;0;0.0;0.0;0.0;0;-6.7521853e-08;  1.0000000E+04;  0.0000000E+00;  0.0000000E+00;  1.0000000E+04;  0.0000000E+00;  1.0000000E+04;-4.5493376e-08;0.0;-2.2028473e-08;7.802636e-06
  0.0000000E+00;  9.9999998E-03;  3.8000000E-01;459;0.0;0.0;0.0;1000.0;  4.0000001E-01;0.0;0;0.0;0.0;0.0;0;-3.425896e-08;  1.0000000E+04;  0.0000000E+00;  0.0000000E+00;  1.0000000E+04;  0.0000000E+00;  1.0000000E+04;-2.0469862e-08;0.0;-1.37891e-08;4.7971034e-06
  0.0000000E+00;  9.9999998E-03;  4.0000001E-01;460;0.0;0.0;0.0;1000.0;  4.0000001E-01;0.0;0;0.0;0.0;0.0;0;-1.3470927e-08;  1.0000000E+04;  0.0000000E+00;  0.0000000E+00;  1.0000000E+04;  0.0000000E+00;  1.0000000E+04;-7.6007245e-09;0.0;-5.8702021e-09;1.966255e-06
  2.0000000E-02;  9.9999998E-03;  3.4000000E-01;467;0.0;0.0;0.0;1000.0;  4.0000001E-01;0.0;0;0.0;0.0;0.0;0;-2.1933212e-07;  1.0000000E+04;  0.0000000E+00;  0.0000000E+00;  1.0000000E+04;  0.0000000E+00;  1.0000000E+04;-1.6528878e-07;0.0;-5.404334e-08;2.1578877e-05
  2.0000000E-02;  9.9999998E-03;  3.6000001E-01;468;0.0;0.0;0.0;1000.0;  4.0000001E-01;0.0;0;0.0;0.0;0.0;0;-1.309384e-07;  1.0000000E+04;  0.0000000E+00;  0.0000000E+00;  1.0000000E+04;  0.0000000E+00;  1.0000000E+04;-8.6303331e-08;0.0;-4.4635069e-08;1.7887762e-05
  2.0000000E-02;  9.9999998E-03;  3.8000000E-01;469;0.0;0.0;0.0;1000.0;  4.0000001E-01;0.0;0;0.0;0.0;0.0;0;-6.7371502e-08;  1.0000000E+04;  0.0000000E+00;  0.0000000E+00;  1.0000000E+04;  0.0000000E+00;  1.0000000E+04;-3.9080408e-08;0.0;-2.8291096e-08;1.1128341e-05
  2.0000000E-02;  9.9999998E-03;  4.0000001E-01;470;0.0;0.0;0.0;1000.0;  4.0000001E-01;0.0;0;0.0;0.0;0.0;0;-2.6934906e-08;  1.0000000E+04;  0.0000000E+00;  0.0000000E+00;  1.0000000E+04;  0.0000000E+00;  1.0000000E+04;-1.4636694e-08;0.0;-1.2298212e-08;4.6511514e-06
  3.9999999E-02;  9.9999998E-03;  3.4000000E-01;477;0.0;0.0;0.0;1000.0;  4.0000001E-01;0.0;0;0.0;0.0;0.0;0;-4.0884328e-07;  1.0000000E+04;  0.0000000E+00;  0.0000000E+00;  1.0000000E+04;  0.0000000E+00;  1.0000000E+04;-3.0453407e-07;0.0;-1.0430922e-07;4.7286514e-05
  3.9999999E-02;  9.9999998E-03;  3.6000001E-01;478;0.0;0.0;0.0;1000.0;  4.0000001E-01;0.0;0;0.0;0.0;0.0;0;-2.4623409e-07;  1.0000000E+04;  0.0000000E+00;  0.0000000E+00;  1.0000000E+04;  0.0000000E+00;  1.0000000E+04;-1.5960546e-07;0.0;-8.6628624e-08;3.9412836e-05
  3.9999999E-02;  9.9999998E-03;  3.8000000E-01;479;0.0;0.0;0.0;1000.0;  4.0000001E-01;0.0;0;0.0;0.0;0.0;0;-1.2797987e-07;  1.0000000E+04;  0.0000000E+00;  0.0000000E+00;  1.0000000E+04;  0.0000000E+00;  1.0000000E+04;-7.2598105e-08;0.0;-5.5381772e-08;2.4745741e-05
  3.9999999E-02;  9.9999998E-03;  4.0000001E-01;480;0.0;0.0;0.0;1000.0;  4.0000001E-01;0.0;0;0.0;0.0;0.0;0;-5.1722687e-08;  1.0000000E+04;  0.0000000E+00;  0.0000000E+00;  1.0000000E+04;  0.0000000E+00;  1.0000000E+04;-2.7325667e-08;0.0;-2.439702e-08;1.0488344e-05
  5.9999999E-02;  9.9999998E-03;  3.4000000E-01;487;0.0;0.0;0.0;1000.0;  4.0000001E-01;0.0;0;0.0;0.0;0.0;0;-7.4662501e-07;  1.0000000E+04;  0.0000000E+00;  0.0000000E+00;  1.0000000E+04;  0.0000000E+00;  1.0000000E+04;-5.5142988e-07;0.0;-1.9519514e-07;0.00010028495
  5.9999999E-02;  9.9999998E-03;  3.6000001E-01;488;0.0;0.0;0.0;1000.0;  4.0000001E-01;0.0;0;0.0;0.0;0.0;0;-4.5316153e-07;  1.0000000E+04;  0.0000000E+00;  0.0000000E+00;  1.0000000E+04;  0.0000000E+00;  1.0000000E+04;-2.9031963e-07;0.0;-1.6284189e-07;8.4009298e-05
  5.9999999E-02;  9.9999998E-03;  3.8000000E-01;489;0.0;0.0;0.0;1000.0;  4.0000001E-01;0.0;0;0.0;0.0;0.0;0;-2.3754737e-07;  1.0000000E+04;  0.0000000E+00;  0.0000000E+00;  1.0000000E+04;  0.0000000E+00;  1.0000000E+04;-1.3276295e-07;0.0;-1.0478442e-07;5.3169493e-05
  5.9999999E-02;  9.9999998E-03;  4.0000001E-01;490;0.0;0.0;0.0;1000.0;  4.0000001E-01;0.0;0;0.0;0.0;0.0;0;-9.6853341e-08;  1.0000000E+04;  0.0000000E+00;  0.0000000E+00;  1.0000000E+04;  0.0000000E+00;  1.0000000E+04;-5.0253274e-08;0.0;-4.6600071e-08;2.2801023e-05
  7.9999998E-02;  9.9999998E-03;  3.4000000E-01;497;0.0;0.0;0.0;1000.0;  4.0000001E-01;0.0;0;0.0;0.0;0.0;0;-1.3492178e-06;  1.0000000E+04;  0.0000000E+00;  0.0000000E+00;  1.0000000E+04;  0.0000000E+00;  1.0000000E+04;-9.9232602e-07;0.0;-3.5689172e-07;0.00020712064
  7.9999998E-02;  9.9999998E-03;  3.6000001E-01;498;0.0;0.0;0.0;1000.0;  4.0000001E-01;0.0;0;0.0;0.0;0.0;0;-8.2523911e-07;  1.0000000E+04;  0.0000000E+00;  0.0000000E+00;  1.0000000E+04;  0.0000000E+00;  1.0000000E+04;-5.2640763e-07;0.0;-2.9883148e-07;0.00017416035
  7.9999998E-02;  9.9999998E-03;  3.8000000E-01;499;0.0;0.0;0.0;1000.0;  4.0000001E-01;0.0;0;0.0;0.0;0.0;0;-4.3576881e-07;  1.0000000E+04;  0.0000000E+00;  0.0000000E+00;  1.0000000E+04;  0.0000000E+00;  1.0000000E+04;-2.4255209e-07;0.0;-1.9321671e-07;0.00011086404
  7.9999998E-02;  9.9999998E-03;  4.0000001E-01;500;0.0;0.0;0.0;1000.0;  4.0000001E-01;0.0;0;0.0;0.0;0.0;0;-1.7905845e-07;  1.0000000E+04;  0.0000000E+00;  0.0000000E+00;  1.0000000E+04;  0.0000000E+00;  1.0000000E+04;-9.2495966e-08;0.0;-8.6562487e-08;4.8060399e-05
  1.0000000E-01;  9.9999998E-03;  3.4000000E-01;507;0.0;0.0;0.0;1000.0;  4.0000001E-01;0.0;0;0.0;0.0;0.0;0;-2.4465514e-06;  1.0000000E+04;  0.0000000E+00;  0.0000000E+00;  1.0000000E+04;  0.0000000E+00;  1.0000000E+04;-1.803719e-06;0.0;-6.4283245e-07;0.00042988482
  1.0000000E-01;  9.9999998E-03;  3.6000001E-01;508;0.0;0.0;0.0;1000.0;  4.0000001E-01;0.0;0;0.0;0.0;0.0;0;-1.5084603e-06;  1.0000000E+04;  0.0000000E+00;  0.0000000E+00;  1.0000000E+04;  0.0000000E+00;  1.0000000E+04;-9.6862686e-07;0.0;-5.3983342e-07;0.00035484071
  1.0000000E-01;  9.9999998E-03;  3.8000000E-01;509;0.0;0.0;0.0;1000.0;  4.0000001E-01;0.0;0;0.0;0.0;0.0;0;-8.0144798e-07;  1.0000000E+04;  0.0000000E+00;  0.0000000E+00;  1.0000000E+04;  0.0000000E+00;  1.0000000E+04;-4.5123537e-07;0.0;-3.5021264e-07;0.00022561943
  1.0000000E-01;  9.9999998E-03;  4.0000001E-01;510;0.0;0.0;0.0;1000.0;  4.0000001E-01;0.0;0;0.0;0.0;0.0;0;-3.3165909e-07;  1.0000000E+04;  0.0000000E+00;  0.0000000E+00;  1.0000000E+04;  0.0000000E+00;  1.0000000E+04;-1.7386159e-07;0.0;-1.577975e-07;0.00010084656
  1.2000000E-01;  9.9999998E-03;  3.4000000E-01;517;0.0;0.0;0.0;1000.0;  4.0000001E-01;0.0;0;0.0;0.0;0.0;0;-4.4990566e-06;  1.0000000E+04;  0.0000000E+00;  0.0000000E+00;  1.0000000E+04;  0.0000000E+00;  1.0000000E+04;-3.3476483e-06;0.0;-1.1514082e-06;0.00099890248
  1.2000000E-01;  9.9999998E-03;  3.6000001E-01;518;0.0;0.0;0.0;1000.0;  4.0000001E-01;0.0;0;0.0;0.0;0.0;0;-2.7999304e-06;  1.0000000E+04;  0.0000000E+00;  0.0000000E+00;  1.0000000E+04;  0.0000000E+00;  1.0000000E+04;-1.8304007e-06;0.0;-9.6952965e-07;0.00072178571
  1.2000000E-01;  9.9999998E-03;  3.8000000E-01;519;0.0;0.0;0.0;1000.0;  4.0000001E-01;0.0;0;0.0;0.0;0.0;0;-1.4974639e-06;  1.0000000E+04;  0.0000000E+00;  0.0000000E+00;  1.0000000E+04;  0.0000000E+00;  1.0000000E+04;-8.6616456e-07;0.0;-6.3129932e-07;0.00046575771
  1.2000000E-01;  9.9999998E-03;  4.0000001E-01;520;0.0;0.0;0.0;1000.0;  4.0000001E-01;0.0;0;0.0;0.0;0.0;0;-6.2511594e-07;  1.0000000E+04;  0.0000000E+00;  0.0000000E+00;  1.0000000E+04;  0.0000000E+00;  1.0000000E+04;-3.3872993e-07;0.0;-2.8638601e-07;0.00025219657
  1.4000000E-01;  9.9999998E-03;  3.4000000E-01;527;0.0;0.0;0.0;1000.0;  4.0000001E-01;0.0;0;0.0;0.0;0.0;0;-8.4029625e-06;  1.0000000E+04;  0.0000000E+00;  0.0000000E+00;  1.0000000E+04;  0.0000000E+00;  1.0000000E+04;-6.3329312e-06;0.0;-2.0700313e-06;0.0028175095
  1.4000000E-01;  9.9999998E-03;  3.6000001E-01;528;0.0;0.0;0.0;1000.0;  4.0000001E-01;0.0;0;0.0;0.0;0.0;0;-5.2915907e-06;  1.0000000E+04;  0.0000000E+00;  0.0000000E+00;  1.0000000E+04;  0.0000000E+00;  1.0000000E+04;-3.5441331e-06;0.0;-1.7474575e-06;0.0014790015
  1.4000000E-01;  9.9999998E-03;  3.8000000E-01;529;0.0;0.0;0.0;1000.0;  4.0000001E-01;0.0;0;0.0;0.0;0.0;0;-2.861141e-06;  1.0000000E+04;  0.0000000E+00;  0.0000000E+00;  1.0000000E+04;  0.0000000E+00;  1.0000000E+04;-1.7142103e-06;0.0;-1.1469307e-06;0.0011482752
  1.4000000E-01;  9.9999998E-03;  4.0000001E-01;530;0.0;0.0;0.0;1000.0;  4.0000001E-01;0.0;0;0.0;0.0;0.0;0;-1.2156487e-06;  1.0000000E+04;  0.0000000E+00;  0.0000000E+00;  1.0000000E+04;  0.0000000E+00;  1.0000000E+04;-6.8645215e-07;0.0;-5.2919654e-07;0.00091244245
  1.6000000E-01;  9.9999998E-03;  3.4000000E-01;537;0.0;0.0;0.0;1000.0;  4.0000001E-01;0.0;0;0.0;0.0;0.0;0;-1.5730286e-05;  1.0000000E+04;  0.0000000E+00;  0.0000000E+00;  1.0000000E+04;  0.0000000E+00;  1.0000000E+04;-1.1968526e-05;0.0;-3.7617599e-06;0.008392402
  1.6000000E-01;  9.9999998E-03;  3.6000001E-01;538;0.0;0.0;0.0;1000.0;  4.0000001E-01;0.0;0;0.0;0.0;0.0;0;-1.0043569e-05;  1.0000000E+04;  0.0000000E+00;  0.0000000E+00;  1.0000000E+04;  0.0000000E+00;  1.0000000E+04;-6.8607842e-06;0.0;-3.1827851e-06;0.0029916342
  1.6000000E-01;  9.9999998E-03;  3.8000000E-01;539;0.0;0.0;0.0;1000.0;  4.0000001E-01;0.0;0;0.0;0.0;0.0;0;-5.5410928e-06;  1.0000000E+04;  0.0000000E+00;  0.0000000E+00;  1.0000000E+04;  0.0000000E+00;  1.0000000E+04;-3.4131226e-06;0.0;-2.1279702e-06;0.0036943264
  1.6000000E-01;  9.9999998E-03;  4.0000001E-01;540;0.0;0.0;0.0;1000.0;  4.0000001E-01;0.0;0;0.0;0.0;0.0;0;-2.448488e-06;  1.0000000E+04;  0.0000000E+00;  0.0000000E+00;  1.0000000E+04;  0.0000000E+00;  1.0000000E+04;-1.4231878e-06;0.0;-1.0253003e-06;0.0036382438
  1.8000001E-01;  9.9999998E-03;  3.4000000E-01;547;0.0;0.0;0.0;1000.0;  4.0000001E-01;0.0;0;0.0;0.0;0.0;0;-2.8676073e-05;  1.0000000E+04;  0.0000000E+00;  0.0000000E+00;  1.0000000E+04;  0.0000000E+00;  1.0000000E+04;-2.176232e-05;0.0;-6.9137523e-06;0.02230832
  1.8000001E-01;  9.9999998E-03;  3.6000001E-01;548;0.0;0.0;0.0;1000.0;  4.0000001E-01;0.0;0;0.0;0.0;0.0;0;-1.8550505e-05;  1.0000000E+04;  0.0000000E+00;  0.0000000E+00;  1.0000000E+04;  0.0000000E+00;  1.0000000E+04;-1.2682529e-05;0.0;-5.8679752e-06;0.0057245786
  1.8000001E-01;  9.9999998E-03;  3.8000000E-01;549;0.0;0.0;0.0;1000.0;  4.0000001E-01;0.0;0;0.0;0.0;0.0;0;-1.0572712e-05;  1.0000000E+04;  0.0000000E+00;  0.0000000E+00;  1.0000000E+04;  0.0000000E+00;  1.0000000E+04;-6.5038566e-06;0.0;-4.0688551e-06;0.011993804
  1.8000001E-01;  9.9999998E-03;  4.0000001E-01;550;0.0;0.0;0.0;1000.0;  4.0000001E-01;0.0;0;0.0;0.0;0.0;0;-5.0242725e-06;  1.0000000E+04;  0.0000000E+00;  0.0000000E+00;  1.0000000E+04;  0.0000000E+00;  1.0000000E+04;-2.8849367e-06;0.0;-2.1393355e-06;0.012876183
  2.0000000E-01;  9.9999998E-03;  3.4000000E-01;556;0.0;0.0;0.0;1000.0;  4.0000001E-01;0.0;0;0.0;0.0;0.0;0;-4.963858e-05;  1.0000000E+04;  0.0000000E+00;  0.0000000E+00;  1.0000000E+04;  0.0000000E+00;  1.0000000E+04;-3.6898109e-05;0.0;-1.2740472e-05;0.048641846
  2.0000000E-01;  9.9999998E-03;  3.6000001E-01;557;0.0;0.0;0.0;1000.0;  4.0000001E-01;0.0;0;0.0;0.0;0.0;0;-3.2554926e-05;  1.0000000E+04;  0.0000000E+00;  0.0000000E+00;  1.0000000E+04;  0.0000000E+00;  1.0000000E+04;-2.1654609e-05;0.0;-1.0900318e-05;0.010886373
  2.0000000E-01;  9.9999998E-03;  3.8000000E-01;558;0.0;0.0;0.0;1000.0;  4.0000001E-01;0.0;0;0.0;0.0;0.0;0;-1.9395866e-05;  1.0000000E+04;  0.0000000E+00;  0.0000000E+00;  1.0000000E+04;  0.0000000E+00;  1.0000000E+04;-1.1414458e-05;0.0;-7.981409e-06;0.032699227
  1.9200000E+00;  9.9999998E-03; -3.6000001E-01;559;0.0;0.0;0.0;1000.0;  4.0000001E-01;0.0;0;0.0;0.0;0.0;0;0.0;  1.0000000E+04;  0.0000000E+00;  0.0000000E+00;  1.0000000E+04;  0.0000000E+00;  1.0000000E+04;0.0;0.0;0.0;0.0
  1.9200000E+00;  9.9999998E-03; -3.4000000E-01;560;0.0;0.0;0.0;1000.0;  4.0000001E-01;0.0;0;0.0;0.0;0.0;0;0.0;  1.0000000E+04;  0.0000000E+00;  0.0000000E+00;  1.0000000E+04;  0.0000000E+00;  1.0000000E+04;0.0;0.0;0.0;0.0
  1.9200000E+00;  9.9999998E-03; -3.1999999E-01;561;0.0;0.0;0.0;1000.0;  4.0000001E-01;0.0;0;0.0;0.0;0.0;0;0.0;  1.0000000E+04;  0.0000000E+00;  0.0000000E+00;  1.0000000E+04;  0.0000000E+00;  1.0000000E+04;0.0;0.0;0.0;0.0
  1.9400001E+00;  9.9999998E-03; -3.8000000E-01;562;0.0;0.0;0.0;1000.0;  4.0000001E-01;0.0;0;0.0;0.0;0.0;0;0.0;  1.0000000E+04;  0.0000000E+00;  0.0000000E+00;  1.0000000E+04;  0.0000000E+00;  1.0000000E+04;0.0;0.0;0.0;0.0
  1.9400001E+00;  9.9999998E-03; -3.6000001E-01;563;0.0;0.0;0.0;1000.0;  4.0000001E-01;0.0;0;0.0;0.0;0.0;0;0.0;  1.0000000E+04;  0.0000000E+00;  0.0000000E+00;  1.0000000E+04;  0.0000000E+00;  1.0000000E+04;0.0;0.0;0.0;0.0
  1.9400001E+00;  9.9999998E-03; -3.4000000E-01;564;0.0;0.0;0.0;1000.0;  4.0000001E-01;0.0;0;0.0;0.0;0.0;0;0.0;  1.0000000E+04;  0.0000000E+00;  0.0000000E+00;  1.0000000E+04;  0.0000000E+00;  1.0000000E+04;0.0;0.0;0.0;0.0
  1.9400001E+00;  9.9999998E-03; -3.1999999E-01;565;0.0;0.0;0.0;1000.0;  4.0000001E-01;0.0;0;0.0;0.0;0.0;0;0.0;  1.0000000E+04;  0.0000000E+00;  0.0000000E+00;  1.0000000E+04;  0.0000000E+00;  1.0000000E+04;0.0;0.0;0.0;0.0
  1.9400001E+00;  9.9999998E-03; -3.0000001E-01;566;0.0;0.0;0.0;1000.0;  4.0000001E-01;0.0;0;0.0;0.0;0.0;0;0.0;  1.0000000E+04;  0.0000000E+00;  0.0000000E+00;  1.0000000E+04;  0.0000000E+00;  1.0000000E+04;0.0;0.0;0.0;0.0
  1.9400001E+00;  9.9999998E-03; -2.8000000E-01;567;0.0;0.0;0.0;1000.0;  4.0000001E-01;0.0;0;0.0;0.0;0.0;0;0.0;  1.0000000E+04;  0.0000000E+00;  0.0000000E+00;  1.0000000E+04;  0.0000000E+00;  1.0000000E+04;0.0;0.0;0.0;0.0
  1.9400001E+00;  9.9999998E-03; -2.5999999E-01;568;0.0;0.0;0.0;1000.0;  4.0000001E-01;0.0;0;0.0;0.0;0.0;0;0.0;  1.0000000E+04;  0.0000000E+00;  0.0000000E+00;  1.0000000E+04;  0.0000000E+00;  1.0000000E+04;0.0;0.0;0.0;0.0
  1.9400001E+00;  9.9999998E-03; -2.3999999E-01;569;0.0;0.0;0.0;1000.0;  4.0000001E-01;0.0;0;0.0;0.0;0.0;0;0.0;  1.0000000E+04;  0.0000000E+00;  0.0000000E+00;  1.0000000E+04;  0.0000000E+00;  1.0000000E+04;0.0;0.0;0.0;0.0
  1.9400001E+00;  9.9999998E-03; -2.2000000E-01;570;0.0;0.0;0.0;1000.0;  4.0000001E-01;0.0;0;0.0;0.0;0.0;0;0.0;  1.0000000E+04;  0.0000000E+00;  0.0000000E+00;  1.0000000E+04;  0.0000000E+00;  1.0000000E+04;0.0;0.0;0.0;0.0
  1.9600000E+00;  9.9999998E-03; -3.8000000E-01;571;0.0;0.0;0.0;1000.0;  4.0000001E-01;0.0;0;0.0;0.0;0.0;0;0.0;  1.0000000E+04;  0.0000000E+00;  0.0000000E+00;  1.0000000E+04;  0.0000000E+00;  1.0000000E+04;0.0;0.0;0.0;0.0
  1.9600000E+00;  9.9999998E-03; -3.6000001E-01;572;0.0;0.0;0.0;1000.0;  4.0000001E-01;0.0;0;0.0;0.0;0.0;0;0.0;  1.0000000E+04;  0.0000000E+00;  0.0000000E+00;  1.0000000E+04;  0.0000000E+00;  1.0000000E+04;0.0;0.0;0.0;0.0
  1.9600000E+00;  9.9999998E-03; -3.4000000E-01;573;0.0;0.0;0.0;1000.0;  4.0000001E-01;0.0;0;0.0;0.0;0.0;0;0.0;  1.0000000E+04;  0.0000000E+00;  0.0000000E+00;  1.0000000E+04;  0.0000000E+00;  1.0000000E+04;0.0;0.0;0.0;0.0
  1.9600000E+00;  9.9999998E-03; -3.1999999E-01;574;0.0;0.0;0.0;1000.0;  4.0000001E-01;0.0;0;0.0;0.0;0.0;0;0.0;  1.0000000E+04;  0.0000000E+00;  0.0000000E+00;  1.0000000E+04;  0.0000000E+00;  1.0000000E+04;0.0;0.0;0.0;0.0
  1.9600000E+00;  9.9999998E-03; -3.0000001E-01;575;0.0;0.0;0.0;1000.0;  4.0000001E-01;0.0;0;0.0;0.0;0.0;0;0.0;  1.0000000E+04;  0.0000000E+00;  0.0000000E+00;  1.0000000E+04;  0.0000000E+00;  1.0000000E+04;0.0;0.0;0.0;0.0
  1.9600000E+00;  9.9999998E-03; -2.8000000E-01;576;0.0;0.0;0.0;1000.0;  4.0000001E-01;0.0;0;0.0;0.0;0.0;0;0.0;  1.0000000E+04;  0.0000000E+00;  0.0000000E+00;  1.0000000E+04;  0.0000000E+00;  1.0000000E+04;0.0;0.0;0.0;0.0
  1.9600000E+00;  9.9999998E-03; -2.5999999E-01;577;0.0;0.0;0.0;1000.0;  4.0000001E-01;0.0;0;0.0;0.0;0.0;0;0.0;  1.0000000E+04;  0.0000000E+00;  0.0000000E+00;  1.0000000E+04;  0.0000000E+00;  1.0000000E+04;0.0;0.0;0.0;0.0
  1.9600000E+00;  9.9999998E-03; -2.3999999E-01;578;0.0;0.0;0.0;1000.0;  4.0000001E-01;0.0;0;0.0;0.0;0.0;0;0.0;  1.0000000E+04;  0.0000000E+00;  0.0000000E+00;  1.0000000E+04;  0.0000000E+00;  1.0000000E+04;0.0;0.0;0.0;0.0
  1.9600000E+00;  9.9999998E-03; -2.2000000E-01;579;0.0;0.0;0.0;1000.0;  4.0000001E-01;0.0;0;0.0;0.0;0.0;0;0.0;  1.0000000E+04;  0.0000000E+00;  0.0000000E+00;  1.0000000E+04;  0.0000000E+00;  1.0000000E+04;0.0;0.0;0.0;0.0
  1.9600000E+00;  9.9999998E-03; -2.0000000E-01;580;0.0;0.0;0.0;1000.0;  4.0000001E-01;0.0;0;0.0;0.0;0.0;0;0.0;  1.0000000E+04;  0.0000000E+00;  0.0000000E+00;  1.0000000E+04;  0.0000000E+00;  1.0000000E+04;0.0;0.0;0.0;0.0
  1.9600000E+00;  9.9999998E-03; -1.8000001E-01;581;0.0;0.0;0.0;1000.0;  4.0000001E-01;0.0;0;0.0;0.0;0.0;0;0.0;  1.0000000E+04;  0.0000000E+00;  0.0000000E+00;  1.0000000E+04;  0.0000000E+00;  1.0000000E+04;0.0;0.0;0.0;0.0
  1.9600000E+00;  9.9999998E-03; -1.6000000E-01;582;0.0;0.0;0.0;1000.0;  4.0000001E-01;0.0;0;0.0;0.0;0.0;0;0.0;  1.0000000E+04;  0.0000000E+00;  0.0000000E+00;  1.0000000E+04;  0.0000000E+00;  1.0000000E+04;0.0;0.0;0.0;0.0
  1.9600000E+00;  9.9999998E-03; -1.4000000E-01;583;0.0;0.0;0.0;1000.0;  4.0000001E-01;0.0;0;0.0;0.0;0.0;0;0.0;  1.0000000E+04;  0.0000000E+00;  0.0000000E+00;  1.0000000E+04;  0.0000000E+00;  1.0000000E+04;0.0;0.0;0.0;0.0
  1.9600000E+00;  9.9999998E-03; -1.2000000E-01;584;0.0;0.0;0.0;1000.0;  4.0000001E-01;0.0;0;0.0;0.0;0.0;0;0.0;  1.0000000E+04;  0.0000000E+00;  0.0000000E+00;  1.0000000E+04;  0.0000000E+00;  1.0000000E+04;0.0;0.0;0.0;0.0
  1.9800000E+00;  9.9999998E-03; -3.8000000E-01;585;0.0;0.0;0.0;1000.0;  4.0000001E-01;0.0;0;0.0;0.0;0.0;0;0.0;  1.0000000E+04;  0.0000000E+00;  0.0000000E+00;  1.0000000E+04;  0.0000000E+00;  1.0000000E+04;0.0;0.0;0.0;0.0
  1.9800000E+00;  9.9999998E-03; -3.6000001E-01;586;0.0;0.0;0.0;1000.0;  4.0000001E-01;0.0;0;0.0;0.0;0.0;0;0.0;  1.0000000E+04;  0.0000000E+00;  0.0000000E+00;  1.0000000E+04;  0.0000000E+00;  1.0000000E+04;0.0;0.0;0.0;0.0
  1.9800000E+00;  9.9999998E-03; -3.4000000E-01;587;0.0;0.0;0.0;1000.0;  4.0000001E-01;0.0;0;0.0;0.0;0.0;0;0.0;  1.0000000E+04;  0.0000000E+00;  0.0000000E+00;  1.0000000E+04;  0.0000000E+00;  1.0000000E+04;0.0;0.0;0.0;0.0
  1.9800000E+00;  9.9999998E-03; -3.1999999E-01;588;0.0;0.0;0.0;1000.0;  4.0000001E-01;0.0;0;0.0;0.0;0.0;0;0.0;  1.0000000E+04;  0.0000000E+00;  0.0000000E+00;  1.0000000E+04;  0.0000000E+00;  1.0000000E+04;0.0;0.0;0.0;0.0
  1.9800000E+00;  9.9999998E-03; -3.0000001E-01;589;0.0;0.0;0.0;1000.0;  4.0000001E-01;0.0;0;0.0;0.0;0.0;0;0.0;  1.0000000E+04;  0.0000000E+00;  0.0000000E+00;  1.0000000E+04;  0.0000000E+00;  1.0000000E+04;0.0;0.0;0.0;0.0
  1.9800000E+00;  9.9999998E-03; -2.8000000E-01;590;0.0;0.0;0.0;1000.0;  4.0000001E-01;0.0;0;0.0;0.0;0.0;0;0.0;  1.0000000E+04;  0.0000000E+00;  0.0000000E+00;  1.0000000E+04;  0.0000000E+00;  1.0000000E+04;0.0;0.0;0.0;0.0
  1.9800000E+00;  9.9999998E-03; -2.5999999E-01;591;0.0;0.0;0.0;1000.0;  4.0000001E-01;0.0;0;0.0;0.0;0.0;0;0.0;  1.0000000E+04;  0.0000000E+00;  0.0000000E+00;  1.0000000E+04;  0.0000000E+00;  1.0000000E+04;0.0;0.0;0.0;0.0
  1.9800000E+00;  9.9999998E-03; -2.3999999E-01;592;0.0;0.0;0.0;1000.0;  4.0000001E-01;0.0;0;0.0;0.0;0.0;0;0.0;  1.0000000E+04;  0.0000000E+00;  0.0000000E+00;  1.0000000E+04;  0.0000000E+00;  1.0000000E+04;0.0;0.0;0.0;0.0
  1.9800000E+00;  9.9999998E-03; -2.2000000E-01;593;0.0;0.0;0.0;1000.0;  4.0000001E-01;0.0;0;0.0;0.0;0.0;0;0.0;  1.0000000E+04;  0.0000000E+00;  0.0000000E+00;  1.0000000E+04;  0.0000000E+00;  1.0000000E+04;0.0;0.0;0.0;0.0
  1.9800000E+00;  9.9999998E-03; -2.0000000E-01;594;0.0;0.0;0.0;1000.0;  4.0000001E-01;0.0;0;0.0;0.0;0.0;0;0.0;  1.0000000E+04;  0.0000000E+00;  0.0000000E+00;  1.0000000E+04;  0.0000000E+00;  1.0000000E+04;0.0;0.0;0.0;0.0
  1.9800000E+00;  9.9999998E-03; -1.8000001E-01;595;0.0;0.0;0.0;1000.0;  4.0000001E-01;0.0;0;0.0;0.0;0.0;0;0.0;  1.0000000E+04;  0.0000000E+00;  0.0000000E+00;  1.0000000E+04;  0.0000000E+00;  1.0000000E+04;0.0;0.0;0.0;0.0
  1.9800000E+00;  9.9999998E-03; -1.6000000E-01;596;0.0;0.0;0.0;1000.0;  4.0000001E-01;0.0;0;0.0;0.0;0.0;0;0.0;  1.0000000E+04;  0.0000000E+00;  0.0000000E+00;  1.0000000E+04;  0.0000000E+00;  1.0000000E+04;0.0;0.0;0.0;0.0
  1.9800000E+00;  9.9999998E-03; -1.4000000E-01;597;0.0;0.0;0.0;1000.0;  4.0000001E-01;0.0;0;0.0;0.0;0.0;0;0.0;  1.0000000E+04;  0.0000000E+00;  0.0000000E+00;  1.0000000E+04;  0.0000000E+00;  1.0000000E+04;0.0;0.0;0.0;0.0
  1.9800000E+00;  9.9999998E-03; -1.2000000E-01;598;0.0;0.0;0.0;1000.0;  4.0000001E-01;0.0;0;0.0;0.0;0.0;0;0.0;  1.0000000E+04;  0.0000000E+00;  0.0000000E+00;  1.0000000E+04;  0.0000000E+00;  1.0000000E+04;0.0;0.0;0.0;0.0
  1.9800000E+00;  9.9999998E-03; -1.0000000E-01;599;0.0;0.0;0.0;1000.0;  4.0000001E-01;0.0;0;0.0;0.0;0.0;0;0.0;  1.0000000E+04;  0.0000000E+00;  0.0000000E+00;  1.0000000E+04;  0.0000000E+00;  1.0000000E+04;0.0;0.0;0.0;0.0
  1.9800000E+00;  9.9999998E-03; -7.9999998E-02;600;0.0;0.0;0.0;1000.0;  4.0000001E-01;0.0;0;0.0;0.0;0.0;0;0.0;  1.0000000E+04;  0.0000000E+00;  0.0000000E+00;  1.0000000E+04;  0.0000000E+00;  1.0000000E+04;0.0;0.0;0.0;0.0
  1.9800000E+00;  9.9999998E-03; -5.9999999E-02;601;0.0;0.0;0.0;1000.0;  4.0000001E-01;0.0;0;0.0;0.0;0.0;0;0.0;  1.0000000E+04;  0.0000000E+00;  0.0000000E+00;  1.0000000E+04;  0.0000000E+00;  1.0000000E+04;0.0;0.0;0.0;0.0
  1.9800000E+00;  9.9999998E-03; -3.9999999E-02;602;0.0;0.0;0.0;1000.0;  4.0000001E-01;0.0;0;0.0;0.0;0.0;0;0.0;  1.0000000E+04;  0.0000000E+00;  0.0000000E+00;  1.0000000E+04;  0.0000000E+00;  1.0000000E+04;0.0;0.0;0.0;0.0
  1.9800000E+00;  9.9999998E-03; -2.0000000E-02;603;0.0;0.0;0.0;1000.0;  4.0000001E-01;0.0;0;0.0;0.0;0.0;0;0.0;  1.0000000E+04;  0.0000000E+00;  0.0000000E+00;  1.0000000E+04;  0.0000000E+00;  1.0000000E+04;0.0;0.0;0.0;0.0
  2.0000000E+00;  9.9999998E-03; -3.8000000E-01;604;0.0;0.0;0.0;1000.0;  4.0000001E-01;0.0;0;0.0;0.0;0.0;0;0.0;  1.0000000E+04;  0.0000000E+00;  0.0000000E+00;  1.0000000E+04;  0.0000000E+00;  1.0000000E+04;0.0;0.0;0.0;0.0
  2.0000000E+00;  9.9999998E-03; -3.6000001E-01;605;0.0;0.0;0.0;1000.0;  4.0000001E-01;0.0;0;0.0;0.0;0.0;0;0.0;  1.0000000E+04;  0.0000000E+00;  0.0000000E+00;  1.0000000E+04;  0.0000000E+00;  1.0000000E+04;0.0;0.0;0.0;0.0
  2.0000000E+00;  9.9999998E-03; -3.4000000E-01;606;0.0;0.0;0.0;1000.0;  4.0000001E-01;0.0;0;0.0;0.0;0.0;0;0.0;  1.0000000E+04;  0.0000000E+00;  0.0000000E+00;  1.0000000E+04;  0.0000000E+00;  1.0000000E+04;0.0;0.0;0.0;0.0
  2.0000000E+00;  9.9999998E-03; -3.1999999E-01;607;0.0;0.0;0.0;1000.0;  4.0000001E-01;0.0;0;0.0;0.0;0.0;0;0.0;  1.0000000E+04;  0.0000000E+00;  0.0000000E+00;  1.0000000E+04;  0.0000000E+00;  1.0000000E+04;0.0;0.0;0.0;0.0
  2.0000000E+00;  9.9999998E-03; -3.0000001E-01;608;0.0;0.0;0.0;1000.0;  4.0000001E-01;0.0;0;0.0;0.0;0.0;0;0.0;  1.0000000E+04;  0.0000000E+00;  0.0000000E+00;  1.0000000E+04;  0.0000000E+00;  1.0000000E+04;0.0;0.0;0.0;0.0
  2.0000000E+00;  9.9999998E-03; -2.8000000E-01;609;0.0;0.0;0.0;1000.0;  4.0000001E-01;0.0;0;0.0;0.0;0.0;0;0.0;  1.0000000E+04;  0.0000000E+00;  0.0000000E+00;  1.0000000E+04;  0.0000000E+00;  1.0000000E+04;0.0;0.0;0.0;0.0
  2.0000000E+00;  9.9999998E-03; -2.5999999E-01;610;0.0;0.0;0.0;1000.0;  4.0000001E-01;0.0;0;0.0;0.0;0.0;0;0.0;  1.0000000E+04;  0.0000000E+00;  0.0000000E+00;  1.0000000E+04;  0.0000000E+00;  1.0000000E+04;0.0;0.0;0.0;0.0
  2.0000000E+00;  9.9999998E-03; -2.3999999E-01;611;0.0;0.0;0.0;1000.0;  4.0000001E-01;0.0;0;0.0;0.0;0.0;0;0.0;  1.0000000E+04;  0.0000000E+00;  0.0000000E+00;  1.0000000E+04;  0.0000000E+00;  1.0000000E+04;0.0;0.0;0.0;0.0
  2.0000000E+00;  9.9999998E-03; -2.2000000E-01;612;0.0;0.0;0.0;1000.0;  4.0000001E-01;0.0;0;0.0;0.0;0.0;0;0.0;  1.0000000E+04;  0.0000000E+00;  0.0000000E+00;  1.0000000E+04;  0.0000000E+00;  1.0000000E+04;0.0;0.0;0.0;0.0
  2.0000000E+00;  9.9999998E-03; -2.0000000E-01;613;0.0;0.0;0.0;1000.0;  4.0000001E-01;0.0;0;0.0;0.0;0.0;0;0.0;  1.0000000E+04;  0.0000000E+00;  0.0000000E+00;  1.0000000E+04;  0.0000000E+00;  1.0000000E+04;0.0;0.0;0.0;0.0
  2.0000000E+00;  9.9999998E-03; -1.8000001E-01;614;0.0;0.0;0.0;1000.0;  4.0000001E-01;0.0;0;0.0;0.0;0.0;0;0.0;  1.0000000E+04;  0.0000000E+00;  0.0000000E+00;  1.0000000E+04;  0.0000000E+00;  1.0000000E+04;0.0;0.0;0.0;0.0
  2.0000000E+00;  9.9999998E-03; -1.6000000E-01;615;0.0;0.0;0.0;1000.0;  4.0000001E-01;0.0;0;0.0;0.0;0.0;0;0.0;  1.0000000E+04;  0.0000000E+00;  0.0000000E+00;  1.0000000E+04;  0.0000000E+00;  1.0000000E+04;0.0;0.0;0.0;0.0
  2.0000000E+00;  9.9999998E-03; -1.4000000E-01;616;0.0;0.0;0.0;1000.0;  4.0000001E-01;0.0;0;0.0;0.0;0.0;0;0.0;  1.0000000E+04;  0.0000000E+00;  0.0000000E+00;  1.0000000E+04;  0.0000000E+00;  1.0000000E+04;0.0;0.0;0.0;0.0
  2.0000000E+00;  9.9999998E-03; -1.2000000E-01;617;0.0;0.0;0.0;1000.0;  4.0000001E-01;0.0;0;0.0;0.0;0.0;0;0.0;  1.0000000E+04;  0.0000000E+00;  0.0000000E+00;  1.0000000E+04;  0.0000000E+00;  1.0000000E+04;0.0;0.0;0.0;0.0
  2.0000000E+00;  9.9999998E-03; -1.0000000E-01;618;0.0;0.0;0.0;1000.0;  4.0000001E-01;0.0;0;0.0;0.0;0.0;0;0.0;  1.0000000E+04;  0.0000000E+00;  0.0000000E+00;  1.0000000E+04;  0.0000000E+00;  1.0000000E+04;0.0;0.0;0.0;0.0
  2.0000000E+00;  9.9999998E-03; -7.9999998E-02;619;0.0;0.0;0.0;1000.0;  4.0000001E-01;0.0;0;0.0;0.0;0.0;0;0.0;  1.0000000E+04;  0.0000000E+00;  0.0000000E+00;  1.0000000E+04;  0.0000000E+00;  1.0000000E+04;0.0;0.0;0.0;0.0
  2.0000000E+00;  9.9999998E-03; -5.9999999E-02;620;0.0;0.0;0.0;1000.0;  4.0000001E-01;0.0;0;0.0;0.0;0.0;0;0.0;  1.0000000E+04;  0.0000000E+00;  0.0000000E+00;  1.0000000E+04;  0.0000000E+00;  1.0000000E+04;0.0;0.0;0.0;0.0
  2.0000000E+00;  9.9999998E-03; -3.9999999E-02;621;0.0;0.0;0.0;1000.0;  4.0000001E-01;0.0;0;0.0;0.0;0.0;0;0.0;  1.0000000E+04;  0.0000000E+00;  0.0000000E+00;  1.0000000E+04;  0.0000000E+00;  1.0000000E+04;0.0;0.0;0.0;0.0
  2.0000000E+00;  9.9999998E-03; -2.0000000E-02;622;0.0;0.0;0.0;1000.0;  4.0000001E-01;0.0;0;0.0;0.0;0.0;0;0.0;  1.0000000E+04;  0.0000000E+00;  0.0000000E+00;  1.0000000E+04;  0.0000000E+00;  1.0000000E+04;0.0;0.0;0.0;0.0
  2.0000000E+00;  9.9999998E-03;  0.0000000E+00;623;0.0;0.0;0.0;1000.0;  4.0000001E-01;0.0;0;0.0;0.0;0.0;0;0.0;  1.0000000E+04;  0.0000000E+00;  0.0000000E+00;  1.0000000E+04;  0.0000000E+00;  1.0000000E+04;0.0;0.0;0.0;0.0
  2.0000000E+00;  9.9999998E-03;  2.0000000E-02;624;0.0;0.0;0.0;1000.0;  4.0000001E-01;0.0;0;0.0;0.0;0.0;0;0.0;  1.0000000E+04;  0.0000000E+00;  0.0000000E+00;  1.0000000E+04;  0.0000000E+00;  1.0000000E+04;0.0;0.0;0.0;0.0
  2.0000000E+00;  9.9999998E-03;  3.9999999E-02;625;0.0;0.0;0.0;1000.0;  4.0000001E-01;0.0;0;0.0;0.0;0.0;0;0.0;  1.0000000E+04;  0.0000000E+00;  0.0000000E+00;  1.0000000E+04;  0.0000000E+00;  1.0000000E+04;0.0;0.0;0.0;0.0
  2.0000000E+00;  9.9999998E-03;  5.9999999E-02;626;0.0;0.0;0.0;1000.0;  4.0000001E-01;0.0;0;0.0;0.0;0.0;0;0.0;  1.0000000E+04;  0.0000000E+00;  0.0000000E+00;  1.0000000E+04;  0.0000000E+00;  1.0000000E+04;0.0;0.0;0.0;0.0
  2.0000000E+00;  9.9999998E-03;  7.9999998E-02;627;0.0;0.0;0.0;1000.0;  4.0000001E-01;0.0;0;0.0;0.0;0.0;0;0.0;  1.0000000E+04;  0.0000000E+00;  0.0000000E+00;  1.0000000E+04;  0.0000000E+00;  1.0000000E+04;0.0;0.0;0.0;0.0
  2.0200000E+00;  9.9999998E-03; -4.0000001E-01;628;0.0;0.0;0.0;1000.0;  4.0000001E-01;0.0;0;0.0;0.0;0.0;0;0.0;  1.0000000E+04;  0.0000000E+00;  0.0000000E+00;  1.0000000E+04;  0.0000000E+00;  1.0000000E+04;0.0;0.0;0.0;0.0
  2.0200000E+00;  9.9999998E-03; -3.8000000E-01;629;0.0;0.0;0.0;1000.0;  4.0000001E-01;0.0;0;0.0;0.0;0.0;0;0.0;  1.0000000E+04;  0.0000000E+00;  0.0000000E+00;  1.0000000E+04;  0.0000000E+00;  1.0000000E+04;0.0;0.0;0.0;0.0
  2.0200000E+00;  9.9999998E-03; -3.6000001E-01;630;0.0;0.0;0.0;1000.0;  4.0000001E-01;0.0;0;0.0;0.0;0.0;0;0.0;  1.0000000E+04;  0.0000000E+00;  0.0000000E+00;  1.0000000E+04;  0.0000000E+00;  1.0000000E+04;0.0;0.0;0.0;0.0
  2.0200000E+00;  9.9999998E-03; -3.4000000E-01;631;0.0;0.0;0.0;1000.0;  4.0000001E-01;0.0;0;0.0;0.0;0.0;0;0.0;  1.0000000E+04;  0.0000000E+00;  0.0000000E+00;  1.0000000E+04;  0.0000000E+00;  1.0000000E+04;0.0;0.0;0.0;0.0
  2.0200000E+00;  9.9999998E-03; -3.1999999E-01;632;0.0;0.0;0.0;1000.0;  4.0000001E-01;0.0;0;0.0;0.0;0.0;0;0.0;  1.0000000E+04;  0.0000000E+00;  0.0000000E+00;  1.0000000E+04;  0.0000000E+00;  1.0000000E+04;0.0;0.0;0.0;0.0
  2.0200000E+00;  9.9999998E-03; -3.0000001E-01;633;0.0;0.0;0.0;1000.0;  4.0000001E-01;0.0;0;0.0;0.0;0.0;0;0.0;  1.0000000E+04;  0.0000000E+00;  0.0000000E+00;  1.0000000E+04;  0.0000000E+00;  1.0000000E+04;0.0;0.0;0.0;0.0
  2.0200000E+00;  9.9999998E-03; -2.8000000E-01;634;0.0;0.0;0.0;1000.0;  4.0000001E-01;0.0;0;0.0;0.0;0.0;0;0.0;  1.0000000E+04;  0.0000000E+00;  0.0000000E+00;  1.0000000E+04;  0.0000000E+00;  1.0000000E+04;0.0;0.0;0.0;0.0
  2.0200000E+00;  9.9999998E-03; -2.5999999E-01;635;0.0;0.0;0.0;1000.0;  4.0000001E-01;0.0;0;0.0;0.0;0.0;0;0.0;  1.0000000E+04;  0.0000000E+00;  0.0000000E+00;  1.0000000E+04;  0.0000000E+00;  1.0000000E+04;0.0;0.0;0.0;0.0
  2.0200000E+00;  9.9999998E-03; -2.3999999E-01;636;0.0;0.0;0.0;1000.0;  4.0000001E-01;0.0;0;0.0;0.0;0.0;0;0.0;  1.0000000E+04;  0.0000000E+00;  0.0000000E+00;  1.0000000E+04;  0.0000000E+00;  1.0000000E+04;0.0;0.0;0.0;0.0
  2.0200000E+00;  9.9999998E-03; -2.2000000E-01;637;0.0;0.0;0.0;1000.0;  4.0000001E-01;0.0;0;0.0;0.0;0.0;0;0.0;  1.0000000E+04;  0.0000000E+00;  0.0000000E+00;  1.0000000E+04;  0.0000000E+00;  1.0000000E+04;0.0;0.0;0.0;0.0
  2.0200000E+00;  9.9999998E-03; -2.0000000E-01;638;0.0;0.0;0.0;1000.0;  4.0000001E-01;0.0;0;0.0;0.0;0.0;0;0.0;  1.0000000E+04;  0.0000000E+00;  0.0000000E+00;  1.0000000E+04;  0.0000000E+00;  1.0000000E+04;0.0;0.0;0.0;0.0
  2.0200000E+00;  9.9999998E-03; -1.8000001E-01;639;0.0;0.0;0.0;1000.0;  4.0000001E-01;0.0;0;0.0;0.0;0.0;0;0.0;  1.0000000E+04;  0.0000000E+00;  0.0000000E+00;  1.0000000E+04;  0.0000000E+00;  1.0000000E+04;0.0;0.0;0.0;0.0
  2.0200000E+00;  9.9999998E-03; -1.6000000E-01;640;0.0;0.0;0.0;1000.0;  4.0000001E-01;0.0;0;0.0;0.0;0.0;0;0.0;  1.0000000E+04;  0.0000000E+00;  0.0000000E+00;  1.0000000E+04;  0.0000000E+00;  1.0000000E+04;0.0;0.0;0.0;0.0
  2.0200000E+00;  9.9999998E-03; -1.4000000E-01;641;0.0;0.0;0.0;1000.0;  4.0000001E-01;0.0;0;0.0;0.0;0.0;0;0.0;  1.0000000E+04;  0.0000000E+00;  0.0000000E+00;  1.0000000E+04;  0.0000000E+00;  1.0000000E+04;0.0;0.0;0.0;0.0
  2.0200000E+00;  9.9999998E-03; -1.2000000E-01;642;0.0;0.0;0.0;1000.0;  4.0000001E-01;0.0;0;0.0;0.0;0.0;0;0.0;  1.0000000E+04;  0.0000000E+00;  0.0000000E+00;  1.0000000E+04;  0.0000000E+00;  1.0000000E+04;0.0;0.0;0.0;0.0
  2.0200000E+00;  9.9999998E-03; -1.0000000E-01;643;0.0;0.0;0.0;1000.0;  4.0000001E-01;0.0;0;0.0;0.0;0.0;0;0.0;  1.0000000E+04;  0.0000000E+00;  0.0000000E+00;  1.0000000E+04;  0.0000000E+00;  1.0000000E+04;0.0;0.0;0.0;0.0
  2.0200000E+00;  9.9999998E-03; -7.9999998E-02;644;0.0;0.0;0.0;1000.0;  4.0000001E-01;0.0;0;0.0;0.0;0.0;0;0.0;  1.0000000E+04;  0.0000000E+00;  0.0000000E+00;  1.0000000E+04;  0.0000000E+00;  1.0000000E+04;0.0;0.0;0.0;0.0
  2.0200000E+00;  9.9999998E-03; -5.9999999E-02;645;0.0;0.0;0.0;1000.0;  4.0000001E-01;0.0;0;0.0;0.0;0.0;0;0.0;  1.0000000E+04;  0.0000000E+00;  0.0000000E+00;  1.0000000E+04;  0.0000000E+00;  1.0000000E+04;0.0;0.0;0.0;0.0
  2.0200000E+00;  9.9999998E-03; -3.9999999E-02;646;0.0;0.0;0.0;1000.0;  4.0000001E-01;0.0;0;0.0;0.0;0.0;0;0.0;  1.0000000E+04;  0.0000000E+00;  0.0000000E+00;  1.0000000E+04;  0.0000000E+00;  1.0000000E+04;0.0;0.0;0.0;0.0
  2.0200000E+00;  9.9999998E-03; -2.0000000E-02;647;0.0;0.0;0.0;1000.0;  4.0000001E-01;0.0;0;0.0;0.0;0.0;0;0.0;  1.0000000E+04;  0.0000000E+00;  0.0000000E+00;  1.0000000E+04;  0.0000000E+00;  1.0000000E+04;0.0;0.0;0.0;0.0
  2.0200000E+00;  9.9999998E-03;  0.0000000E+00;648;0.0;0.0;0.0;1000.0;  4.0000001E-01;0.0;0;0.0;0.0;0.0;0;0.0;  1.0000000E+04;  0.0000000E+00;  0.0000000E+00;  1.0000000E+04;  0.0000000E+00;  1.0000000E+04;0.0;0.0;0.0;0.0
  2.0200000E+00;  9.9999998E-03;  2.0000000E-02;649;0.0;0.0;0.0;1000.0;  4.0000001E-01;0.0;0;0.0;0.0;0.0;0;0.0;  1.0000000E+04;  0.0000000E+00;  0.0000000E+00;  1.0000000E+04;  0.0000000E+00;  1.0000000E+04;0.0;0.0;0.0;0.0
  2.0200000E+00;  9.9999998E-03;  3.9999999E-02;650;0.0;0.0;0.0;1000.0;  4.0000001E-01;0.0;0;0.0;0.0;0.0;0;0.0;  1.0000000E+04;  0.0000000E+00;  0.0000000E+00;  1.0000000E+04;  0.0000000E+00;  1.0000000E+04;0.0;0.0;0.0;0.0
  2.0200000E+00;  9.9999998E-03;  5.9999999E-02;651;0.0;0.0;0.0;1000.0;  4.0000001E-01;0.0;0;0.0;0.0;0.0;0;0.0;  1.0000000E+04;  0.0000000E+00;  0.0000000E+00;  1.0000000E+04;  0.0000000E+00;  1.0000000E+04;0.0;0.0;0.0;0.0
  2.0200000E+00;  9.9999998E-03;  7.9999998E-02;652;0.0;0.0;0.0;1000.0;  4.0000001E-01;0.0;0;0.0;0.0;0.0;0;0.0;  1.0000000E+04;  0.0000000E+00;  0.0000000E+00;  1.0000000E+04;  0.0000000E+00;  1.0000000E+04;0.0;0.0;0.0;0.0
  2.0200000E+00;  9.9999998E-03;  1.0000000E-01;653;0.0;0.0;0.0;1000.0;  4.0000001E-01;0.0;0;0.0;0.0;0.0;0;0.0;  1.0000000E+04;  0.0000000E+00;  0.0000000E+00;  1.0000000E+04;  0.0000000E+00;  1.0000000E+04;0.0;0.0;0.0;0.0
  2.0200000E+00;  9.9999998E-03;  1.2000000E-01;654;0.0;0.0;0.0;1000.0;  4.0000001E-01;0.0;0;0.0;0.0;0.0;0;0.0;  1.0000000E+04;  0.0000000E+00;  0.0000000E+00;  1.0000000E+04;  0.0000000E+00;  1.0000000E+04;0.0;0.0;0.0;0.0
  2.0200000E+00;  9.9999998E-03;  1.4000000E-01;655;0.0;0.0;0.0;1000.0;  4.0000001E-01;0.0;0;0.0;0.0;0.0;0;0.0;  1.0000000E+04;  0.0000000E+00;  0.0000000E+00;  1.0000000E+04;  0.0000000E+00;  1.0000000E+04;0.0;0.0;0.0;0.0
  2.0200000E+00;  9.9999998E-03;  1.6000000E-01;656;0.0;0.0;0.0;1000.0;  4.0000001E-01;0.0;0;0.0;0.0;0.0;0;0.0;  1.0000000E+04;  0.0000000E+00;  0.0000000E+00;  1.0000000E+04;  0.0000000E+00;  1.0000000E+04;0.0;0.0;0.0;0.0
  2.0200000E+00;  9.9999998E-03;  1.8000001E-01;657;0.0;0.0;0.0;1000.0;  4.0000001E-01;0.0;0;0.0;0.0;0.0;0;0.0;  1.0000000E+04;  0.0000000E+00;  0.0000000E+00;  1.0000000E+04;  0.0000000E+00;  1.0000000E+04;0.0;0.0;0.0;0.0
  2.0400000E+00;  9.9999998E-03; -4.0000001E-01;658;0.0;0.0;0.0;1000.0;  4.0000001E-01;0.0;0;0.0;0.0;0.0;0;0.0;  1.0000000E+04;  0.0000000E+00;  0.0000000E+00;  1.0000000E+04;  0.0000000E+00;  1.0000000E+04;0.0;0.0;0.0;0.0
  2.0400000E+00;  9.9999998E-03; -3.8000000E-01;659;0.0;0.0;0.0;1000.0;  4.0000001E-01;0.0;0;0.0;0.0;0.0;0;0.0;  1.0000000E+04;  0.0000000E+00;  0.0000000E+00;  1.0000000E+04;  0.0000000E+00;  1.0000000E+04;0.0;0.0;0.0;0.0
  2.0400000E+00;  9.9999998E-03; -3.6000001E-01;660;0.0;0.0;0.0;1000.0;  4.0000001E-01;0.0;0;0.0;0.0;0.0;0;0.0;  1.0000000E+04;  0.0000000E+00;  0.0000000E+00;  1.0000000E+04;  0.0000000E+00;  1.0000000E+04;0.0;0.0;0.0;0.0
  2.0400000E+00;  9.9999998E-03; -3.4000000E-01;661;0.0;0.0;0.0;1000.0;  4.0000001E-01;0.0;0;0.0;0.0;0.0;0;0.0;  1.0000000E+04;  0.0000000E+00;  0.0000000E+00;  1.0000000E+04;  0.0000000E+00;  1.0000000E+04;0.0;0.0;0.0;0.0
  2.0400000E+00;  9.9999998E-03; -3.1999999E-01;662;0.0;0.0;0.0;1000.0;  4.0000001E-01;0.0;0;0.0;0.0;0.0;0;0.0;  1.0000000E+04;  0.0000000E+00;  0.0000000E+00;  1.0000000E+04;  0.0000000E+00;  1.0000000E+04;0.0;0.0;0.0;0.0
  2.0400000E+00;  9.9999998E-03; -3.0000001E-01;663;0.0;0.0;0.0;1000.0;  4.0000001E-01;0.0;0;0.0;0.0;0.0;0;0.0;  1.0000000E+04;  0.0000000E+00;  0.0000000E+00;  1.0000000E+04;  0.0000000E+00;  1.0000000E+04;0.0;0.0;0.0;0.0
  2.0400000E+00;  9.9999998E-03; -2.8000000E-01;664;0.0;0.0;0.0;1000.0;  4.0000001E-01;0.0;0;0.0;0.0;0.0;0;0.0;  1.0000000E+04;  0.0000000E+00;  0.0000000E+00;  1.0000000E+04;  0.0000000E+00;  1.0000000E+04;0.0;0.0;0.0;0.0
  2.0400000E+00;  9.9999998E-03; -2.5999999E-01;665;0.0;0.0;0.0;1000.0;  4.0000001E-01;0.0;0;0.0;0.0;0.0;0;0.0;  1.0000000E+04;  0.0000000E+00;  0.0000000E+00;  1.0000000E+04;  0.0000000E+00;  1.0000000E+04;0.0;0.0;0.0;0.0
  2.0400000E+00;  9.9999998E-03; -2.3999999E-01;666;0.0;0.0;0.0;1000.0;  4.0000001E-01;0.0;0;0.0;0.0;0.0;0;0.0;  1.0000000E+04;  0.0000000E+00;  0.0000000E+00;  1.0000000E+04;  0.0000000E+00;  1.0000000E+04;0.0;0.0;0.0;0.0
  2.0400000E+00;  9.9999998E-03; -2.2000000E-01;667;0.0;0.0;0.0;1000.0;  4.0000001E-01;0.0;0;0.0;0.0;0.0;0;0.0;  1.0000000E+04;  0.0000000E+00;  0.0000000E+00;  1.0000000E+04;  0.0000000E+00;  1.0000000E+04;0.0;0.0;0.0;0.0
  2.0400000E+00;  9.9999998E-03; -2.0000000E-01;668;0.0;0.0;0.0;1000.0;  4.0000001E-01;0.0;0;0.0;0.0;0.0;0;0.0;  1.0000000E+04;  0.0000000E+00;  0.0000000E+00;  1.0000000E+04;  0.0000000E+00;  1.0000000E+04;0.0;0.0;0.0;0.0
  2.0400000E+00;  9.9999998E-03; -1.8000001E-01;669;0.0;0.0;0.0;1000.0;  4.0000001E-01;0.0;0;0.0;0.0;0.0;0;0.0;  1.0000000E+04;  0.0000000E+00;  0.0000000E+00;  1.0000000E+04;  0.0000000E+00;  1.0000000E+04;0.0;0.0;0.0;0.0
  2.0400000E+00;  9.9999998E-03; -1.6000000E-01;670;0.0;0.0;0.0;1000.0;  4.0000001E-01;0.0;0;0.0;0.0;0.0;0;0.0;  1.0000000E+04;  0.0000000E+00;  0.0000000E+00;  1.0000000E+04;  0.0000000E+00;  1.0000000E+04;0.0;0.0;0.0;0.0
  2.0400000E+00;  9.9999998E-03; -1.4000000E-01;671;0.0;0.0;0.0;1000.0;  4.0000001E-01;0.0;0;0.0;0.0;0.0;0;0.0;  1.0000000E+04;  0.0000000E+00;  0.0000000E+00;  1.0000000E+04;  0.0000000E+00;  1.0000000E+04;0.0;0.0;0.0;0.0
  2.0400000E+00;  9.9999998E-03; -1.2000000E-01;672;0.0;0.0;0.0;1000.0;  4.0000001E-01;0.0;0;0.0;0.0;0.0;0;0.0;  1.0000000E+04;  0.0000000E+00;  0.0000000E+00;  1.0000000E+04;  0.0000000E+00;  1.0000000E+04;0.0;0.0;0.0;0.0
  2.0400000E+00;  9.9999998E-03; -1.0000000E-01;673;0.0;0.0;0.0;1000.0;  4.0000001E-01;0.0;0;0.0;0.0;0.0;0;0.0;  1.0000000E+04;  0.0000000E+00;  0.0000000E+00;  1.0000000E+04;  0.0000000E+00;  1.0000000E+04;0.0;0.0;0.0;0.0
  2.0400000E+00;  9.9999998E-03; -7.9999998E-02;674;0.0;0.0;0.0;1000.0;  4.0000001E-01;0.0;0;0.0;0.0;0.0;0;0.0;  1.0000000E+04;  0.0000000E+00;  0.0000000E+00;  1.0000000E+04;  0.0000000E+00;  1.0000000E+04;0.0;0.0;0.0;0.0
  2.0400000E+00;  9.9999998E-03; -5.9999999E-02;675;0.0;0.0;0.0;1000.0;  4.0000001E-01;0.0;0;0.0;0.0;0.0;0;0.0;  1.0000000E+04;  0.0000000E+00;  0.0000000E+00;  1.0000000E+04;  0.0000000E+00;  1.0000000E+04;0.0;0.0;0.0;0.0
  2.0400000E+00;  9.9999998E-03; -3.9999999E-02;676;0.0;0.0;0.0;1000.0;  4.0000001E-01;0.0;0;0.0;0.0;0.0;0;0.0;  1.0000000E+04;  0.0000000E+00;  0.0000000E+00;  1.0000000E+04;  0.0000000E+00;  1.0000000E+04;0.0;0.0;0.0;0.0
  2.0400000E+00;  9.9999998E-03; -2.0000000E-02;677;0.0;0.0;0.0;1000.0;  4.0000001E-01;0.0;0;0.0;0.0;0.0;0;0.0;  1.0000000E+04;  0.0000000E+00;  0.0000000E+00;  1.0000000E+04;  0.0000000E+00;  1.0000000E+04;0.0;0.0;0.0;0.0
  2.0400000E+00;  9.9999998E-03;  0.0000000E+00;678;0.0;0.0;0.0;1000.0;  4.0000001E-01;0.0;0;0.0;0.0;0.0;0;0.0;  1.0000000E+04;  0.0000000E+00;  0.0000000E+00;  1.0000000E+04;  0.0000000E+00;  1.0000000E+04;0.0;0.0;0.0;0.0
  2.0400000E+00;  9.9999998E-03;  2.0000000E-02;679;0.0;0.0;0.0;1000.0;  4.0000001E-01;0.0;0;0.0;0.0;0.0;0;0.0;  1.0000000E+04;  0.0000000E+00;  0.0000000E+00;  1.0000000E+04;  0.0000000E+00;  1.0000000E+04;0.0;0.0;0.0;0.0
  2.0400000E+00;  9.9999998E-03;  3.9999999E-02;680;0.0;0.0;0.0;1000.0;  4.0000001E-01;0.0;0;0.0;0.0;0.0;0;0.0;  1.0000000E+04;  0.0000000E+00;  0.0000000E+00;  1.0000000E+04;  0.0000000E+00;  1.0000000E+04;0.0;0.0;0.0;0.0
  2.0400000E+00;  9.9999998E-03;  5.9999999E-02;681;0.0;0.0;0.0;1000.0;  4.0000001E-01;0.0;0;0.0;0.0;0.0;0;0.0;  1.0000000E+04;  0.0000000E+00;  0.0000000E+00;  1.0000000E+04;  0.0000000E+00;  1.0000000E+04;0.0;0.0;0.0;0.0
  2.0400000E+00;  9.9999998E-03;  7.9999998E-02;682;0.0;0.0;0.0;1000.0;  4.0000001E-01;0.0;0;0.0;0.0;0.0;0;0.0;  1.0000000E+04;  0.0000000E+00;  0.0000000E+00;  1.0000000E+04;  0.0000000E+00;  1.0000000E+04;0.0;0.0;0.0;0.0
  2.0400000E+00;  9.9999998E-03;  1.0000000E-01;683;0.0;0.0;0.0;1000.0;  4.0000001E-01;0.0;0;0.0;0.0;0.0;0;0.0;  1.0000000E+04;  0.0000000E+00;  0.0000000E+00;  1.0000000E+04;  0.0000000E+00;  1.0000000E+04;0.0;0.0;0.0;0.0
  2.0400000E+00;  9.9999998E-03;  1.2000000E-01;684;0.0;0.0;0.0;1000.0;  4.0000001E-01;0.0;0;0.0;0.0;0.0;0;0.0;  1.0000000E+04;  0.0000000E+00;  0.0000000E+00;  1.0000000E+04;  0.0000000E+00;  1.0000000E+04;0.0;0.0;0.0;0.0
  2.0400000E+00;  9.9999998E-03;  1.4000000E-01;685;0.0;0.0;0.0;1000.0;  4.0000001E-01;0.0;0;0.0;0.0;0.0;0;0.0;  1.0000000E+04;  0.0000000E+00;  0.0000000E+00;  1.0000000E+04;  0.0000000E+00;  1.0000000E+04;0.0;0.0;0.0;0.0
  2.0400000E+00;  9.9999998E-03;  1.6000000E-01;686;0.0;0.0;0.0;1000.0;  4.0000001E-01;0.0;0;0.0;0.0;0.0;0;0.0;  1.0000000E+04;  0.0000000E+00;  0.0000000E+00;  1.0000000E+04;  0.0000000E+00;  1.0000000E+04;0.0;0.0;0.0;0.0
  2.0400000E+00;  9.9999998E-03;  1.8000001E-01;687;0.0;0.0;0.0;1000.0;  4.0000001E-01;0.0;0;0.0;0.0;0.0;0;0.0;  1.0000000E+04;  0.0000000E+00;  0.0000000E+00;  1.0000000E+04;  0.0000000E+00;  1.0000000E+04;0.0;0.0;0.0;0.0
  2.0400000E+00;  9.9999998E-03;  2.0000000E-01;688;0.0;0.0;0.0;1000.0;  4.0000001E-01;0.0;0;0.0;0.0;0.0;0;0.0;  1.0000000E+04;  0.0000000E+00;  0.0000000E+00;  1.0000000E+04;  0.0000000E+00;  1.0000000E+04;0.0;0.0;0.0;0.0
  2.0400000E+00;  9.9999998E-03;  2.2000000E-01;689;0.0;0.0;0.0;1000.0;  4.0000001E-01;0.0;0;0.0;0.0;0.0;0;0.0;  1.0000000E+04;  0.0000000E+00;  0.0000000E+00;  1.0000000E+04;  0.0000000E+00;  1.0000000E+04;0.0;0.0;0.0;0.0
  2.0400000E+00;  9.9999998E-03;  2.3999999E-01;690;0.0;0.0;0.0;1000.0;  4.0000001E-01;0.0;0;0.0;0.0;0.0;0;0.0;  1.0000000E+04;  0.0000000E+00;  0.0000000E+00;  1.0000000E+04;  0.0000000E+00;  1.0000000E+04;0.0;0.0;0.0;0.0
  2.0400000E+00;  9.9999998E-03;  2.5999999E-01;691;0.0;0.0;0.0;1000.0;  4.0000001E-01;0.0;0;0.0;0.0;0.0;0;0.0;  1.0000000E+04;  0.0000000E+00;  0.0000000E+00;  1.0000000E+04;  0.0000000E+00;  1.0000000E+04;0.0;0.0;0.0;0.0
  2.0400000E+00;  9.9999998E-03;  2.8000000E-01;692;0.0;0.0;0.0;1000.0;  4.0000001E-01;0.0;0;0.0;0.0;0.0;0;0.0;  1.0000000E+04;  0.0000000E+00;  0.0000000E+00;  1.0000000E+04;  0.0000000E+00;  1.0000000E+04;0.0;0.0;0.0;0.0
  2.0599999E+00;  9.9999998E-03; -4.0000001E-01;693;0.0;0.0;0.0;1000.0;  4.0000001E-01;0.0;0;0.0;0.0;0.0;0;0.0;  1.0000000E+04;  0.0000000E+00;  0.0000000E+00;  1.0000000E+04;  0.0000000E+00;  1.0000000E+04;0.0;0.0;0.0;0.0
  2.0599999E+00;  9.9999998E-03; -3.8000000E-01;694;0.0;0.0;0.0;1000.0;  4.0000001E-01;0.0;0;0.0;0.0;0.0;0;0.0;  1.0000000E+04;  0.0000000E+00;  0.0000000E+00;  1.0000000E+04;  0.0000000E+00;  1.0000000E+04;0.0;0.0;0.0;0.0
  2.0599999E+00;  9.9999998E-03; -3.6000001E-01;695;0.0;0.0;0.0;1000.0;  4.0000001E-01;0.0;0;0.0;0.0;0.0;0;0.0;  1.0000000E+04;  0.0000000E+00;  0.0000000E+00;  1.0000000E+04;  0.0000000E+00;  1.0000000E+04;0.0;0.0;0.0;0.0
  2.0599999E+00;  9.9999998E-03; -3.4000000E-01;696;0.0;0.0;0.0;1000.0;  4.0000001E-01;0.0;0;0.0;0.0;0.0;0;0.0;  1.0000000E+04;  0.0000000E+00;  0.0000000E+00;  1.0000000E+04;  0.0000000E+00;  1.0000000E+04;0.0;0.0;0.0;0.0
  2.0599999E+00;  9.9999998E-03; -3.1999999E-01;697;0.0;0.0;0.0;1000.0;  4.0000001E-01;0.0;0;0.0;0.0;0.0;0;0.0;  1.0000000E+04;  0.0000000E+00;  0.0000000E+00;  1.0000000E+04;  0.0000000E+00;  1.0000000E+04;0.0;0.0;0.0;0.0
  2.0599999E+00;  9.9999998E-03; -3.0000001E-01;698;0.0;0.0;0.0;1000.0;  4.0000001E-01;0.0;0;0.0;0.0;0.0;0;0.0;  1.0000000E+04;  0.0000000E+00;  0.0000000E+00;  1.0000000E+04;  0.0000000E+00;  1.0000000E+04;0.0;0.0;0.0;0.0
  2.0599999E+00;  9.9999998E-03; -2.8000000E-01;699;0.0;0.0;0.0;1000.0;  4.0000001E-01;0.0;0;0.0;0.0;0.0;0;0.0;  1.0000000E+04;  0.0000000E+00;  0.0000000E+00;  1.0000000E+04;  0.0000000E+00;  1.0000000E+04;0.0;0.0;0.0;0.0
  2.0599999E+00;  9.9999998E-03; -2.5999999E-01;700;0.0;0.0;0.0;1000.0;  4.0000001E-01;0.0;0;0.0;0.0;0.0;0;0.0;  1.0000000E+04;  0.0000000E+00;  0.0000000E+00;  1.0000000E+04;  0.0000000E+00;  1.0000000E+04;0.0;0.0;0.0;0.0
  2.0599999E+00;  9.9999998E-03; -2.3999999E-01;701;0.0;0.0;0.0;1000.0;  4.0000001E-01;0.0;0;0.0;0.0;0.0;0;0.0;  1.0000000E+04;  0.0000000E+00;  0.0000000E+00;  1.0000000E+04;  0.0000000E+00;  1.0000000E+04;0.0;0.0;0.0;0.0
  2.0599999E+00;  9.9999998E-03; -2.2000000E-01;702;0.0;0.0;0.0;1000.0;  4.0000001E-01;0.0;0;0.0;0.0;0.0;0;0.0;  1.0000000E+04;  0.0000000E+00;  0.0000000E+00;  1.0000000E+04;  0.0000000E+00;  1.0000000E+04;0.0;0.0;0.0;0.0
  2.0599999E+00;  9.9999998E-03; -2.0000000E-01;703;0.0;0.0;0.0;1000.0;  4.0000001E-01;0.0;0;0.0;0.0;0.0;0;0.0;  1.0000000E+04;  0.0000000E+00;  0.0000000E+00;  1.0000000E+04;  0.0000000E+00;  1.0000000E+04;0.0;0.0;0.0;0.0
  2.0599999E+00;  9.9999998E-03; -1.8000001E-01;704;0.0;0.0;0.0;1000.0;  4.0000001E-01;0.0;0;0.0;0.0;0.0;0;0.0;  1.0000000E+04;  0.0000000E+00;  0.0000000E+00;  1.0000000E+04;  0.0000000E+00;  1.0000000E+04;0.0;0.0;0.0;0.0
  2.0599999E+00;  9.9999998E-03; -1.6000000E-01;705;0.0;0.0;0.0;1000.0;  4.0000001E-01;0.0;0;0.0;0.0;0.0;0;0.0;  1.0000000E+04;  0.0000000E+00;  0.0000000E+00;  1.0000000E+04;  0.0000000E+00;  1.0000000E+04;0.0;0.0;0.0;0.0
  2.0599999E+00;  9.9999998E-03; -1.4000000E-01;706;0.0;0.0;0.0;1000.0;  4.0000001E-01;0.0;0;0.0;0.0;0.0;0;0.0;  1.0000000E+04;  0.0000000E+00;  0.0000000E+00;  1.0000000E+04;  0.0000000E+00;  1.0000000E+04;0.0;0.0;0.0;0.0
  2.0599999E+00;  9.9999998E-03; -1.2000000E-01;707;0.0;0.0;0.0;1000.0;  4.0000001E-01;0.0;0;0.0;0.0;0.0;0;0.0;  1.0000000E+04;  0.0000000E+00;  0.0000000E+00;  1.0000000E+04;  0.0000000E+00;  1.0000000E+04;0.0;0.0;0.0;0.0
  2.0599999E+00;  9.9999998E-03; -1.0000000E-01;708;0.0;0.0;0.0;1000.0;  4.0000001E-01;0.0;0;0.0;0.0;0.0;0;0.0;  1.0000000E+04;  0.0000000E+00;  0.0000000E+00;  1.0000000E+04;  0.0000000E+00;  1.0000000E+04;0.0;0.0;0.0;0.0
  2.0599999E+00;  9.9999998E-03; -7.9999998E-02;709;0.0;0.0;0.0;1000.0;  4.0000001E-01;0.0;0;0.0;0.0;0.0;0;0.0;  1.0000000E+04;  0.0000000E+00;  0.0000000E+00;  1.0000000E+04;  0.0000000E+00;  1.0000000E+04;0.0;0.0;0.0;0.0
  2.0599999E+00;  9.9999998E-03; -5.9999999E-02;710;0.0;0.0;0.0;1000.0;  4.0000001E-01;0.0;0;0.0;0.0;0.0;0;0.0;  1.0000000E+04;  0.0000000E+00;  0.0000000E+00;  1.0000000E+04;  0.0000000E+00;  1.0000000E+04;0.0;0.0;0.0;0.0
  2.0599999E+00;  9.9999998E-03; -3.9999999E-02;711;0.0;0.0;0.0;1000.0;  4.0000001E-01;0.0;0;0.0;0.0;0.0;0;0.0;  1.0000000E+04;  0.0000000E+00;  0.0000000E+00;  1.0000000E+04;  0.0000000E+00;  1.0000000E+04;0.0;0.0;0.0;0.0
  2.0599999E+00;  9.9999998E-03; -2.0000000E-02;712;0.0;0.0;0.0;1000.0;  4.0000001E-01;0.0;0;0.0;0.0;0.0;0;0.0;  1.0000000E+04;  0.0000000E+00;  0.0000000E+00;  1.0000000E+04;  0.0000000E+00;  1.0000000E+04;0.0;0.0;0.0;0.0
  2.0599999E+00;  9.9999998E-03;  0.0000000E+00;713;0.0;0.0;0.0;1000.0;  4.0000001E-01;0.0;0;0.0;0.0;0.0;0;0.0;  1.0000000E+04;  0.0000000E+00;  0.0000000E+00;  1.0000000E+04;  0.0000000E+00;  1.0000000E+04;0.0;0.0;0.0;0.0
  2.0599999E+00;  9.9999998E-03;  2.0000000E-02;714;0.0;0.0;0.0;1000.0;  4.0000001E-01;0.0;0;0.0;0.0;0.0;0;0.0;  1.0000000E+04;  0.0000000E+00;  0.0000000E+00;  1.0000000E+04;  0.0000000E+00;  1.0000000E+04;0.0;0.0;0.0;0.0
  2.0599999E+00;  9.9999998E-03;  3.9999999E-02;715;0.0;0.0;0.0;1000.0;  4.0000001E-01;0.0;0;0.0;0.0;0.0;0;0.0;  1.0000000E+04;  0.0000000E+00;  0.0000000E+00;  1.0000000E+04;  0.0000000E+00;  1.0000000E+04;0.0;0.0;0.0;0.0
  2.0599999E+00;  9.9999998E-03;  5.9999999E-02;716;0.0;0.0;0.0;1000.0;  4.0000001E-01;0.0;0;0.0;0.0;0.0;0;0.0;  1.0000000E+04;  0.0000000E+00;  0.0000000E+00;  1.0000000E+04;  0.0000000E+00;  1.0000000E+04;0.0;0.0;0.0;0.0
  2.0599999E+00;  9.9999998E-03;  7.9999998E-02;717;0.0;0.0;0.0;1000.0;  4.0000001E-01;0.0;0;0.0;0.0;0.0;0;0.0;  1.0000000E+04;  0.0000000E+00;  0.0000000E+00;  1.0000000E+04;  0.0000000E+00;  1.0000000E+04;0.0;0.0;0.0;0.0
  2.0599999E+00;  9.9999998E-03;  1.0000000E-01;718;0.0;0.0;0.0;1000.0;  4.0000001E-01;0.0;0;0.0;0.0;0.0;0;0.0;  1.0000000E+04;  0.0000000E+00;  0.0000000E+00;  1.0000000E+04;  0.0000000E+00;  1.0000000E+04;0.0;0.0;0.0;0.0
  2.0599999E+00;  9.9999998E-03;  1.2000000E-01;719;0.0;0.0;0.0;1000.0;  4.0000001E-01;0.0;0;0.0;0.0;0.0;0;0.0;  1.0000000E+04;  0.0000000E+00;  0.0000000E+00;  1.0000000E+04;  0.0000000E+00;  1.0000000E+04;0.0;0.0;0.0;0.0
  2.0599999E+00;  9.9999998E-03;  1.4000000E-01;720;0.0;0.0;0.0;1000.0;  4.0000001E-01;0.0;0;0.0;0.0;0.0;0;0.0;  1.0000000E+04;  0.0000000E+00;  0.0000000E+00;  1.0000000E+04;  0.0000000E+00;  1.0000000E+04;0.0;0.0;0.0;0.0
  2.0599999E+00;  9.9999998E-03;  1.6000000E-01;721;0.0;0.0;0.0;1000.0;  4.0000001E-01;0.0;0;0.0;0.0;0.0;0;0.0;  1.0000000E+04;  0.0000000E+00;  0.0000000E+00;  1.0000000E+04;  0.0000000E+00;  1.0000000E+04;0.0;0.0;0.0;0.0
  2.0599999E+00;  9.9999998E-03;  1.8000001E-01;722;0.0;0.0;0.0;1000.0;  4.0000001E-01;0.0;0;0.0;0.0;0.0;0;0.0;  1.0000000E+04;  0.0000000E+00;  0.0000000E+00;  1.0000000E+04;  0.0000000E+00;  1.0000000E+04;0.0;0.0;0.0;0.0
  2.0599999E+00;  9.9999998E-03;  2.0000000E-01;723;0.0;0.0;0.0;1000.0;  4.0000001E-01;0.0;0;0.0;0.0;0.0;0;0.0;  1.0000000E+04;  0.0000000E+00;  0.0000000E+00;  1.0000000E+04;  0.0000000E+00;  1.0000000E+04;0.0;0.0;0.0;0.0
  2.0599999E+00;  9.9999998E-03;  2.2000000E-01;724;0.0;0.0;0.0;1000.0;  4.0000001E-01;0.0;0;0.0;0.0;0.0;0;0.0;  1.0000000E+04;  0.0000000E+00;  0.0000000E+00;  1.0000000E+04;  0.0000000E+00;  1.0000000E+04;0.0;0.0;0.0;0.0
  2.0599999E+00;  9.9999998E-03;  2.3999999E-01;725;0.0;0.0;0.0;1000.0;  4.0000001E-01;0.0;0;0.0;0.0;0.0;0;0.0;  1.0000000E+04;  0.0000000E+00;  0.0000000E+00;  1.0000000E+04;  0.0000000E+00;  1.0000000E+04;0.0;0.0;0.0;0.0
  2.0599999E+00;  9.9999998E-03;  2.5999999E-01;726;0.0;0.0;0.0;1000.0;  4.0000001E-01;0.0;0;0.0;0.0;0.0;0;0.0;  1.0000000E+04;  0.0000000E+00;  0.0000000E+00;  1.0000000E+04;  0.0000000E+00;  1.0000000E+04;0.0;0.0;0.0;0.0
  2.0599999E+00;  9.9999998E-03;  2.8000000E-01;727;0.0;0.0;0.0;1000.0;  4.0000001E-01;0.0;0;0.0;0.0;0.0;0;0.0;  1.0000000E+04;  0.0000000E+00;  0.0000000E+00;  1.0000000E+04;  0.0000000E+00;  1.0000000E+04;0.0;0.0;0.0;0.0
  2.0599999E+00;  9.9999998E-03;  3.0000001E-01;728;0.0;0.0;0.0;1000.0;  4.0000001E-01;0.0;0;0.0;0.0;0.0;0;0.0;  1.0000000E+04;  0.0000000E+00;  0.0000000E+00;  1.0000000E+04;  0.0000000E+00;  1.0000000E+04;0.0;0.0;0.0;0.0
  2.0599999E+00;  9.9999998E-03;  3.1999999E-01;729;0.0;0.0;0.0;1000.0;  4.0000001E-01;0.0;0;0.0;0.0;0.0;0;0.0;  1.0000000E+04;  0.0000000E+00;  0.0000000E+00;  1.0000000E+04;  0.0000000E+00;  1.0000000E+04;0.0;0.0;0.0;0.0
  2.0599999E+00;  9.9999998E-03;  3.4000000E-01;730;0.0;0.0;0.0;1000.0;  4.0000001E-01;0.0;0;0.0;0.0;0.0;0;0.0;  1.0000000E+04;  0.0000000E+00;  0.0000000E+00;  1.0000000E+04;  0.0000000E+00;  1.0000000E+04;0.0;0.0;0.0;0.0
  2.0599999E+00;  9.9999998E-03;  3.6000001E-01;731;0.0;0.0;0.0;1000.0;  4.0000001E-01;0.0;0;0.0;0.0;0.0;0;0.0;  1.0000000E+04;  0.0000000E+00;  0.0000000E+00;  1.0000000E+04;  0.0000000E+00;  1.0000000E+04;0.0;0.0;0.0;0.0
  2.0599999E+00;  9.9999998E-03;  3.8000000E-01;732;0.0;0.0;0.0;1000.0;  4.0000001E-01;0.0;0;0.0;0.0;0.0;0;0.0;  1.0000000E+04;  0.0000000E+00;  0.0000000E+00;  1.0000000E+04;  0.0000000E+00;  1.0000000E+04;0.0;0.0;0.0;0.0
  2.0799999E+00;  9.9999998E-03; -4.0000001E-01;733;0.0;0.0;0.0;1000.0;  4.0000001E-01;0.0;0;0.0;0.0;0.0;0;0.0;  1.0000000E+04;  0.0000000E+00;  0.0000000E+00;  1.0000000E+04;  0.0000000E+00;  1.0000000E+04;0.0;0.0;0.0;0.0
  2.0799999E+00;  9.9999998E-03; -3.8000000E-01;734;0.0;0.0;0.0;1000.0;  4.0000001E-01;0.0;0;0.0;0.0;0.0;0;0.0;  1.0000000E+04;  0.0000000E+00;  0.0000000E+00;  1.0000000E+04;  0.0000000E+00;  1.0000000E+04;0.0;0.0;0.0;0.0
  2.0799999E+00;  9.9999998E-03; -3.6000001E-01;735;0.0;0.0;0.0;1000.0;  4.0000001E-01;0.0;0;0.0;0.0;0.0;0;0.0;  1.0000000E+04;  0.0000000E+00;  0.0000000E+00;  1.0000000E+04;  0.0000000E+00;  1.0000000E+04;0.0;0.0;0.0;0.0
  2.0799999E+00;  9.9999998E-03; -3.4000000E-01;736;0.0;0.0;0.0;1000.0;  4.0000001E-01;0.0;0;0.0;0.0;0.0;0;0.0;  1.0000000E+04;  0.0000000E+00;  0.0000000E+00;  1.0000000E+04;  0.0000000E+00;  1.0000000E+04;0.0;0.0;0.0;0.0
  2.0799999E+00;  9.9999998E-03; -3.1999999E-01;737;0.0;0.0;0.0;1000.0;  4.0000001E-01;0.0;0;0.0;0.0;0.0;0;0.0;  1.0000000E+04;  0.0000000E+00;  0.0000000E+00;  1.0000000E+04;  0.0000000E+00;  1.0000000E+04;0.0;0.0;0.0;0.0
  2.0799999E+00;  9.9999998E-03; -3.0000001E-01;738;0.0;0.0;0.0;1000.0;  4.0000001E-01;0.0;0;0.0;0.0;0.0;0;0.0;  1.0000000E+04;  0.0000000E+00;  0.0000000E+00;  1.0000000E+04;  0.0000000E+00;  1.0000000E+04;0.0;0.0;0.0;0.0
  2.0799999E+00;  9.9999998E-03; -2.8000000E-01;739;0.0;0.0;0.0;1000.0;  4.0000001E-01;0.0;0;0.0;0.0;0.0;0;0.0;  1.0000000E+04;  0.0000000E+00;  0.0000000E+00;  1.0000000E+04;  0.0000000E+00;  1.0000000E+04;0.0;0.0;0.0;0.0
  2.0799999E+00;  9.9999998E-03; -2.5999999E-01;740;0.0;0.0;0.0;1000.0;  4.0000001E-01;0.0;0;0.0;0.0;0.0;0;0.0;  1.0000000E+04;  0.0000000E+00;  0.0000000E+00;  1.0000000E+04;  0.0000000E+00;  1.0000000E+04;0.0;0.0;0.0;0.0
  2.0799999E+00;  9.9999998E-03; -2.3999999E-01;741;0.0;0.0;0.0;1000.0;  4.0000001E-01;0.0;0;0.0;0.0;0.0;0;0.0;  1.0000000E+04;  0.0000000E+00;  0.0000000E+00;  1.0000000E+04;  0.0000000E+00;  1.0000000E+04;0.0;0.0;0.0;0.0
  2.0799999E+00;  9.9999998E-03; -2.2000000E-01;742;0.0;0.0;0.0;1000.0;  4.0000001E-01;0.0;0;0.0;0.0;0.0;0;0.0;  1.0000000E+04;  0.0000000E+00;  0.0000000E+00;  1.0000000E+04;  0.0000000E+00;  1.0000000E+04;0.0;0.0;0.0;0.0
  2.0799999E+00;  9.9999998E-03; -2.0000000E-01;743;0.0;0.0;0.0;1000.0;  4.0000001E-01;0.0;0;0.0;0.0;0.0;0;0.0;  1.0000000E+04;  0.0000000E+00;  0.0000000E+00;  1.0000000E+04;  0.0000000E+00;  1.0000000E+04;0.0;0.0;0.0;0.0
  2.0799999E+00;  9.9999998E-03; -1.8000001E-01;744;0.0;0.0;0.0;1000.0;  4.0000001E-01;0.0;0;0.0;0.0;0.0;0;0.0;  1.0000000E+04;  0.0000000E+00;  0.0000000E+00;  1.0000000E+04;  0.0000000E+00;  1.0000000E+04;0.0;0.0;0.0;0.0
  2.0799999E+00;  9.9999998E-03; -1.6000000E-01;745;0.0;0.0;0.0;1000.0;  4.0000001E-01;0.0;0;0.0;0.0;0.0;0;0.0;  1.0000000E+04;  0.0000000E+00;  0.0000000E+00;  1.0000000E+04;  0.0000000E+00;  1.0000000E+04;0.0;0.0;0.0;0.0
  2.0799999E+00;  9.9999998E-03; -1.4000000E-01;746;0.0;0.0;0.0;1000.0;  4.0000001E-01;0.0;0;0.0;0.0;0.0;0;0.0;  1.0000000E+04;  0.0000000E+00;  0.0000000E+00;  1.0000000E+04;  0.0000000E+00;  1.0000000E+04;0.0;0.0;0.0;0.0
  2.0799999E+00;  9.9999998E-03; -1.2000000E-01;747;0.0;0.0;0.0;1000.0;  4.0000001E-01;0.0;0;0.0;0.0;0.0;0;0.0;  1.0000000E+04;  0.0000000E+00;  0.0000000E+00;  1.0000000E+04;  0.0000000E+00;  1.0000000E+04;0.0;0.0;0.0;0.0
  2.0799999E+00;  9.9999998E-03; -1.0000000E-01;748;0.0;0.0;0.0;1000.0;  4.0000001E-01;0.0;0;0.0;0.0;0.0;0;0.0;  1.0000000E+04;  0.0000000E+00;  0.0000000E+00;  1.0000000E+04;  0.0000000E+00;  1.0000000E+04;0.0;0.0;0.0;0.0
  2.0799999E+00;  9.9999998E-03; -7.9999998E-02;749;0.0;0.0;0.0;1000.0;  4.0000001E-01;0.0;0;0.0;0.0;0.0;0;0.0;  1.0000000E+04;  0.0000000E+00;  0.0000000E+00;  1.0000000E+04;  0.0000000E+00;  1.0000000E+04;0.0;0.0;0.0;0.0
  2.0799999E+00;  9.9999998E-03; -5.9999999E-02;750;0.0;0.0;0.0;1000.0;  4.0000001E-01;0.0;0;0.0;0.0;0.0;0;0.0;  1.0000000E+04;  0.0000000E+00;  0.0000000E+00;  1.0000000E+04;  0.0000000E+00;  1.0000000E+04;0.0;0.0;0.0;0.0
  2.0799999E+00;  9.9999998E-03; -3.9999999E-02;751;0.0;0.0;0.0;1000.0;  4.0000001E-01;0.0;0;0.0;0.0;0.0;0;0.0;  1.0000000E+04;  0.0000000E+00;  0.0000000E+00;  1.0000000E+04;  0.0000000E+00;  1.0000000E+04;0.0;0.0;0.0;0.0
  2.0799999E+00;  9.9999998E-03; -2.0000000E-02;752;0.0;0.0;0.0;1000.0;  4.0000001E-01;0.0;0;0.0;0.0;0.0;0;0.0;  1.0000000E+04;  0.0000000E+00;  0.0000000E+00;  1.0000000E+04;  0.0000000E+00;  1.0000000E+04;0.0;0.0;0.0;0.0
  2.0799999E+00;  9.9999998E-03;  0.0000000E+00;753;0.0;0.0;0.0;1000.0;  4.0000001E-01;0.0;0;0.0;0.0;0.0;0;0.0;  1.0000000E+04;  0.0000000E+00;  0.0000000E+00;  1.0000000E+04;  0.0000000E+00;  1.0000000E+04;0.0;0.0;0.0;0.0
  2.0799999E+00;  9.9999998E-03;  2.0000000E-02;754;0.0;0.0;0.0;1000.0;  4.0000001E-01;0.0;0;0.0;0.0;0.0;0;0.0;  1.0000000E+04;  0.0000000E+00;  0.0000000E+00;  1.0000000E+04;  0.0000000E+00;  1.0000000E+04;0.0;0.0;0.0;0.0
  2.0799999E+00;  9.9999998E-03;  3.9999999E-02;755;0.0;0.0;0.0;1000.0;  4.0000001E-01;0.0;0;0.0;0.0;0.0;0;0.0;  1.0000000E+04;  0.0000000E+00;  0.0000000E+00;  1.0000000E+04;  0.0000000E+00;  1.0000000E+04;0.0;0.0;0.0;0.0
  2.0799999E+00;  9.9999998E-03;  5.9999999E-02;756;0.0;0.0;0.0;1000.0;  4.0000001E-01;0.0;0;0.0;0.0;0.0;0;0.0;  1.0000000E+04;  0.0000000E+00;  0.0000000E+00;  1.0000000E+04;  0.0000000E+00;  1.0000000E+04;0.0;0.0;0.0;0.0
  2.0799999E+00;  9.9999998E-03;  7.9999998E-02;757;0.0;0.0;0.0;1000.0;  4.0000001E-01;0.0;0;0.0;0.0;0.0;0;0.0;  1.0000000E+04;  0.0000000E+00;  0.0000000E+00;  1.0000000E+04;  0.0000000E+00;  1.0000000E+04;0.0;0.0;0.0;0.0
  2.0799999E+00;  9.9999998E-03;  1.0000000E-01;758;0.0;0.0;0.0;1000.0;  4.0000001E-01;0.0;0;0.0;0.0;0.0;0;0.0;  1.0000000E+04;  0.0000000E+00;  0.0000000E+00;  1.0000000E+04;  0.0000000E+00;  1.0000000E+04;0.0;0.0;0.0;0.0
  2.0799999E+00;  9.9999998E-03;  1.2000000E-01;759;0.0;0.0;0.0;1000.0;  4.0000001E-01;0.0;0;0.0;0.0;0.0;0;0.0;  1.0000000E+04;  0.0000000E+00;  0.0000000E+00;  1.0000000E+04;  0.0000000E+00;  1.0000000E+04;0.0;0.0;0.0;0.0
  2.0799999E+00;  9.9999998E-03;  1.4000000E-01;760;0.0;0.0;0.0;1000.0;  4.0000001E-01;0.0;0;0.0;0.0;0.0;0;0.0;  1.0000000E+04;  0.0000000E+00;  0.0000000E+00;  1.0000000E+04;  0.0000000E+00;  1.0000000E+04;0.0;0.0;0.0;0.0
  2.0799999E+00;  9.9999998E-03;  1.6000000E-01;761;0.0;0.0;0.0;1000.0;  4.0000001E-01;0.0;0;0.0;0.0;0.0;0;0.0;  1.0000000E+04;  0.0000000E+00;  0.0000000E+00;  1.0000000E+04;  0.0000000E+00;  1.0000000E+04;0.0;0.0;0.0;0.0
  2.0799999E+00;  9.9999998E-03;  1.8000001E-01;762;0.0;0.0;0.0;1000.0;  4.0000001E-01;0.0;0;0.0;0.0;0.0;0;0.0;  1.0000000E+04;  0.0000000E+00;  0.0000000E+00;  1.0000000E+04;  0.0000000E+00;  1.0000000E+04;0.0;0.0;0.0;0.0
  2.0799999E+00;  9.9999998E-03;  2.0000000E-01;763;0.0;0.0;0.0;1000.0;  4.0000001E-01;0.0;0;0.0;0.0;0.0;0;0.0;  1.0000000E+04;  0.0000000E+00;  0.0000000E+00;  1.0000000E+04;  0.0000000E+00;  1.0000000E+04;0.0;0.0;0.0;0.0
  2.0799999E+00;  9.9999998E-03;  2.2000000E-01;764;0.0;0.0;0.0;1000.0;  4.0000001E-01;0.0;0;0.0;0.0;0.0;0;0.0;  1.0000000E+04;  0.0000000E+00;  0.0000000E+00;  1.0000000E+04;  0.0000000E+00;  1.0000000E+04;0.0;0.0;0.0;0.0
  2.0799999E+00;  9.9999998E-03;  2.3999999E-01;765;0.0;0.0;0.0;1000.0;  4.0000001E-01;0.0;0;0.0;0.0;0.0;0;0.0;  1.0000000E+04;  0.0000000E+00;  0.0000000E+00;  1.0000000E+04;  0.0000000E+00;  1.0000000E+04;0.0;0.0;0.0;0.0
  2.0799999E+00;  9.9999998E-03;  2.5999999E-01;766;0.0;0.0;0.0;1000.0;  4.0000001E-01;0.0;0;0.0;0.0;0.0;0;0.0;  1.0000000E+04;  0.0000000E+00;  0.0000000E+00;  1.0000000E+04;  0.0000000E+00;  1.0000000E+04;0.0;0.0;0.0;0.0
  2.0799999E+00;  9.9999998E-03;  2.8000000E-01;767;0.0;0.0;0.0;1000.0;  4.0000001E-01;0.0;0;0.0;0.0;0.0;0;0.0;  1.0000000E+04;  0.0000000E+00;  0.0000000E+00;  1.0000000E+04;  0.0000000E+00;  1.0000000E+04;0.0;0.0;0.0;0.0
  2.0799999E+00;  9.9999998E-03;  3.0000001E-01;768;0.0;0.0;0.0;1000.0;  4.0000001E-01;0.0;0;0.0;0.0;0.0;0;0.0;  1.0000000E+04;  0.0000000E+00;  0.0000000E+00;  1.0000000E+04;  0.0000000E+00;  1.0000000E+04;0.0;0.0;0.0;0.0
  2.0799999E+00;  9.9999998E-03;  3.1999999E-01;769;0.0;0.0;0.0;1000.0;  4.0000001E-01;0.0;0;0.0;0.0;0.0;0;0.0;  1.0000000E+04;  0.0000000E+00;  0.0000000E+00;  1.0000000E+04;  0.0000000E+00;  1.0000000E+04;0.0;0.0;0.0;0.0
  2.0799999E+00;  9.9999998E-03;  3.4000000E-01;770;0.0;0.0;0.0;1000.0;  4.0000001E-01;0.0;0;0.0;0.0;0.0;0;0.0;  1.0000000E+04;  0.0000000E+00;  0.0000000E+00;  1.0000000E+04;  0.0000000E+00;  1.0000000E+04;0.0;0.0;0.0;0.0
  2.0799999E+00;  9.9999998E-03;  3.6000001E-01;771;0.0;0.0;0.0;1000.0;  4.0000001E-01;0.0;0;0.0;0.0;0.0;0;0.0;  1.0000000E+04;  0.0000000E+00;  0.0000000E+00;  1.0000000E+04;  0.0000000E+00;  1.0000000E+04;0.0;0.0;0.0;0.0
  2.0799999E+00;  9.9999998E-03;  3.8000000E-01;772;0.0;0.0;0.0;1000.0;  4.0000001E-01;0.0;0;0.0;0.0;0.0;0;0.0;  1.0000000E+04;  0.0000000E+00;  0.0000000E+00;  1.0000000E+04;  0.0000000E+00;  1.0000000E+04;0.0;0.0;0.0;0.0
  2.0799999E+00;  9.9999998E-03;  4.0000001E-01;773;0.0;0.0;0.0;1000.0;  4.0000001E-01;0.0;0;0.0;0.0;0.0;0;0.0;  1.0000000E+04;  0.0000000E+00;  0.0000000E+00;  1.0000000E+04;  0.0000000E+00;  1.0000000E+04;0.0;0.0;0.0;0.0
  2.0999999E+00;  9.9999998E-03; -4.0000001E-01;774;0.0;0.0;0.0;1000.0;  4.0000001E-01;0.0;0;0.0;0.0;0.0;0;0.0;  1.0000000E+04;  0.0000000E+00;  0.0000000E+00;  1.0000000E+04;  0.0000000E+00;  1.0000000E+04;0.0;0.0;0.0;0.0
  2.0999999E+00;  9.9999998E-03; -3.8000000E-01;775;0.0;0.0;0.0;1000.0;  4.0000001E-01;0.0;0;0.0;0.0;0.0;0;0.0;  1.0000000E+04;  0.0000000E+00;  0.0000000E+00;  1.0000000E+04;  0.0000000E+00;  1.0000000E+04;0.0;0.0;0.0;0.0
  2.0999999E+00;  9.9999998E-03; -3.6000001E-01;776;0.0;0.0;0.0;1000.0;  4.0000001E-01;0.0;0;0.0;0.0;0.0;0;0.0;  1.0000000E+04;  0.0000000E+00;  0.0000000E+00;  1.0000000E+04;  0.0000000E+00;  1.0000000E+04;0.0;0.0;0.0;0.0
  2.0999999E+00;  9.9999998E-03; -3.4000000E-01;777;0.0;0.0;0.0;1000.0;  4.0000001E-01;0.0;0;0.0;0.0;0.0;0;0.0;  1.0000000E+04;  0.0000000E+00;  0.0000000E+00;  1.0000000E+04;  0.0000000E+00;  1.0000000E+04;0.0;0.0;0.0;0.0
  2.0999999E+00;  9.9999998E-03; -3.1999999E-01;778;0.0;0.0;0.0;1000.0;  4.0000001E-01;0.0;0;0.0;0.0;0.0;0;0.0;  1.0000000E+04;  0.0000000E+00;  0.0000000E+00;  1.0000000E+04;  0.0000000E+00;  1.0000000E+04;0.0;0.0;0.0;0.0
  2.0999999E+00;  9.9999998E-03; -3.0000001E-01;779;0.0;0.0;0.0;1000.0;  4.0000001E-01;0.0;0;0.0;0.0;0.0;0;0.0;  1.0000000E+04;  0.0000000E+00;  0.0000000E+00;  1.0000000E+04;  0.0000000E+00;  1.0000000E+04;0.0;0.0;0.0;0.0
  2.0999999E+00;  9.9999998E-03; -2.8000000E-01;780;0.0;0.0;0.0;1000.0;  4.0000001E-01;0.0;0;0.0;0.0;0.0;0;0.0;  1.0000000E+04;  0.0000000E+00;  0.0000000E+00;  1.0000000E+04;  0.0000000E+00;  1.0000000E+04;0.0;0.0;0.0;0.0
  2.0999999E+00;  9.9999998E-03; -2.5999999E-01;781;0.0;0.0;0.0;1000.0;  4.0000001E-01;0.0;0;0.0;0.0;0.0;0;0.0;  1.0000000E+04;  0.0000000E+00;  0.0000000E+00;  1.0000000E+04;  0.0000000E+00;  1.0000000E+04;0.0;0.0;0.0;0.0
  2.0999999E+00;  9.9999998E-03; -2.3999999E-01;782;0.0;0.0;0.0;1000.0;  4.0000001E-01;0.0;0;0.0;0.0;0.0;0;0.0;  1.0000000E+04;  0.0000000E+00;  0.0000000E+00;  1.0000000E+04;  0.0000000E+00;  1.0000000E+04;0.0;0.0;0.0;0.0
  2.0999999E+00;  9.9999998E-03; -2.2000000E-01;783;0.0;0.0;0.0;1000.0;  4.0000001E-01;0.0;0;0.0;0.0;0.0;0;0.0;  1.0000000E+04;  0.0000000E+00;  0.0000000E+00;  1.0000000E+04;  0.0000000E+00;  1.0000000E+04;0.0;0.0;0.0;0.0
  2.0999999E+00;  9.9999998E-03; -2.0000000E-01;784;0.0;0.0;0.0;1000.0;  4.0000001E-01;0.0;0;0.0;0.0;0.0;0;0.0;  1.0000000E+04;  0.0000000E+00;  0.0000000E+00;  1.0000000E+04;  0.0000000E+00;  1.0000000E+04;0.0;0.0;0.0;0.0
  2.0999999E+00;  9.9999998E-03; -1.8000001E-01;785;0.0;0.0;0.0;1000.0;  4.0000001E-01;0.0;0;0.0;0.0;0.0;0;0.0;  1.0000000E+04;  0.0000000E+00;  0.0000000E+00;  1.0000000E+04;  0.0000000E+00;  1.0000000E+04;0.0;0.0;0.0;0.0
  2.0999999E+00;  9.9999998E-03; -1.6000000E-01;786;0.0;0.0;0.0;1000.0;  4.0000001E-01;0.0;0;0.0;0.0;0.0;0;0.0;  1.0000000E+04;  0.0000000E+00;  0.0000000E+00;  1.0000000E+04;  0.0000000E+00;  1.0000000E+04;0.0;0.0;0.0;0.0
  2.0999999E+00;  9.9999998E-03; -1.4000000E-01;787;0.0;0.0;0.0;1000.0;  4.0000001E-01;0.0;0;0.0;0.0;0.0;0;0.0;  1.0000000E+04;  0.0000000E+00;  0.0000000E+00;  1.0000000E+04;  0.0000000E+00;  1.0000000E+04;0.0;0.0;0.0;0.0
  2.0999999E+00;  9.9999998E-03; -1.2000000E-01;788;0.0;0.0;0.0;1000.0;  4.0000001E-01;0.0;0;0.0;0.0;0.0;0;0.0;  1.0000000E+04;  0.0000000E+00;  0.0000000E+00;  1.0000000E+04;  0.0000000E+00;  1.0000000E+04;0.0;0.0;0.0;0.0
  2.0999999E+00;  9.9999998E-03; -1.0000000E-01;789;0.0;0.0;0.0;1000.0;  4.0000001E-01;0.0;0;0.0;0.0;0.0;0;0.0;  1.0000000E+04;  0.0000000E+00;  0.0000000E+00;  1.0000000E+04;  0.0000000E+00;  1.0000000E+04;0.0;0.0;0.0;0.0
  2.0999999E+00;  9.9999998E-03; -7.9999998E-02;790;0.0;0.0;0.0;1000.0;  4.0000001E-01;0.0;0;0.0;0.0;0.0;0;0.0;  1.0000000E+04;  0.0000000E+00;  0.0000000E+00;  1.0000000E+04;  0.0000000E+00;  1.0000000E+04;0.0;0.0;0.0;0.0
  2.0999999E+00;  9.9999998E-03; -5.9999999E-02;791;0.0;0.0;0.0;1000.0;  4.0000001E-01;0.0;0;0.0;0.0;0.0;0;0.0;  1.0000000E+04;  0.0000000E+00;  0.0000000E+00;  1.0000000E+04;  0.0000000E+00;  1.0000000E+04;0.0;0.0;0.0;0.0
  2.0999999E+00;  9.9999998E-03; -3.9999999E-02;792;0.0;0.0;0.0;1000.0;  4.0000001E-01;0.0;0;0.0;0.0;0.0;0;0.0;  1.0000000E+04;  0.0000000E+00;  0.0000000E+00;  1.0000000E+04;  0.0000000E+00;  1.0000000E+04;0.0;0.0;0.0;0.0
  2.0999999E+00;  9.9999998E-03; -2.0000000E-02;793;0.0;0.0;0.0;1000.0;  4.0000001E-01;0.0;0;0.0;0.0;0.0;0;0.0;  1.0000000E+04;  0.0000000E+00;  0.0000000E+00;  1.0000000E+04;  0.0000000E+00;  1.0000000E+04;0.0;0.0;0.0;0.0
  2.0999999E+00;  9.9999998E-03;  0.0000000E+00;794;0.0;0.0;0.0;1000.0;  4.0000001E-01;0.0;0;0.0;0.0;0.0;0;0.0;  1.0000000E+04;  0.0000000E+00;  0.0000000E+00;  1.0000000E+04;  0.0000000E+00;  1.0000000E+04;0.0;0.0;0.0;0.0
  2.0999999E+00;  9.9999998E-03;  2.0000000E-02;795;0.0;0.0;0.0;1000.0;  4.0000001E-01;0.0;0;0.0;0.0;0.0;0;0.0;  1.0000000E+04;  0.0000000E+00;  0.0000000E+00;  1.0000000E+04;  0.0000000E+00;  1.0000000E+04;0.0;0.0;0.0;0.0
  2.0999999E+00;  9.9999998E-03;  3.9999999E-02;796;0.0;0.0;0.0;1000.0;  4.0000001E-01;0.0;0;0.0;0.0;0.0;0;0.0;  1.0000000E+04;  0.0000000E+00;  0.0000000E+00;  1.0000000E+04;  0.0000000E+00;  1.0000000E+04;0.0;0.0;0.0;0.0
  2.0999999E+00;  9.9999998E-03;  5.9999999E-02;797;0.0;0.0;0.0;1000.0;  4.0000001E-01;0.0;0;0.0;0.0;0.0;0;0.0;  1.0000000E+04;  0.0000000E+00;  0.0000000E+00;  1.0000000E+04;  0.0000000E+00;  1.0000000E+04;0.0;0.0;0.0;0.0
  2.0999999E+00;  9.9999998E-03;  7.9999998E-02;798;0.0;0.0;0.0;1000.0;  4.0000001E-01;0.0;0;0.0;0.0;0.0;0;0.0;  1.0000000E+04;  0.0000000E+00;  0.0000000E+00;  1.0000000E+04;  0.0000000E+00;  1.0000000E+04;0.0;0.0;0.0;0.0
  2.0999999E+00;  9.9999998E-03;  1.0000000E-01;799;0.0;0.0;0.0;1000.0;  4.0000001E-01;0.0;0;0.0;0.0;0.0;0;0.0;  1.0000000E+04;  0.0000000E+00;  0.0000000E+00;  1.0000000E+04;  0.0000000E+00;  1.0000000E+04;0.0;0.0;0.0;0.0
  2.0999999E+00;  9.9999998E-03;  1.2000000E-01;800;0.0;0.0;0.0;1000.0;  4.0000001E-01;0.0;0;0.0;0.0;0.0;0;0.0;  1.0000000E+04;  0.0000000E+00;  0.0000000E+00;  1.0000000E+04;  0.0000000E+00;  1.0000000E+04;0.0;0.0;0.0;0.0
  2.0999999E+00;  9.9999998E-03;  1.4000000E-01;801;0.0;0.0;0.0;1000.0;  4.0000001E-01;0.0;0;0.0;0.0;0.0;0;0.0;  1.0000000E+04;  0.0000000E+00;  0.0000000E+00;  1.0000000E+04;  0.0000000E+00;  1.0000000E+04;0.0;0.0;0.0;0.0
  2.0999999E+00;  9.9999998E-03;  1.6000000E-01;802;0.0;0.0;0.0;1000.0;  4.0000001E-01;0.0;0;0.0;0.0;0.0;0;0.0;  1.0000000E+04;  0.0000000E+00;  0.0000000E+00;  1.0000000E+04;  0.0000000E+00;  1.0000000E+04;0.0;0.0;0.0;0.0
  2.0999999E+00;  9.9999998E-03;  1.8000001E-01;803;0.0;0.0;0.0;1000.0;  4.0000001E-01;0.0;0;0.0;0.0;0.0;0;0.0;  1.0000000E+04;  0.0000000E+00;  0.0000000E+00;  1.0000000E+04;  0.0000000E+00;  1.0000000E+04;0.0;0.0;0.0;0.0
  2.0999999E+00;  9.9999998E-03;  2.0000000E-01;804;0.0;0.0;0.0;1000.0;  4.0000001E-01;0.0;0;0.0;0.0;0.0;0;0.0;  1.0000000E+04;  0.0000000E+00;  0.0000000E+00;  1.0000000E+04;  0.0000000E+00;  1.0000000E+04;0.0;0.0;0.0;0.0
  2.0999999E+00;  9.9999998E-03;  2.2000000E-01;805;0.0;0.0;0.0;1000.0;  4.0000001E-01;0.0;0;0.0;0.0;0.0;0;0.0;  1.0000000E+04;  0.0000000E+00;  0.0000000E+00;  1.0000000E+04;  0.0000000E+00;  1.0000000E+04;0.0;0.0;0.0;0.0
  2.0999999E+00;  9.9999998E-03;  2.3999999E-01;806;0.0;0.0;0.0;1000.0;  4.0000001E-01;0.0;0;0.0;0.0;0.0;0;0.0;  1.0000000E+04;  0.0000000E+00;  0.0000000E+00;  1.0000000E+04;  0.0000000E+00;  1.0000000E+04;0.0;0.0;0.0;0.0
  2.0999999E+00;  9.9999998E-03;  2.5999999E-01;807;0.0;0.0;0.0;1000.0;  4.0000001E-01;0.0;0;0.0;0.0;0.0;0;0.0;  1.0000000E+04;  0.0000000E+00;  0.0000000E+00;  1.0000000E+04;  0.0000000E+00;  1.0000000E+04;0.0;0.0;0.0;0.0
  2.0999999E+00;  9.9999998E-03;  2.8000000E-01;808;0.0;0.0;0.0;1000.0;  4.0000001E-01;0.0;0;0.0;0.0;0.0;0;0.0;  1.0000000E+04;  0.0000000E+00;  0.0000000E+00;  1.0000000E+04;  0.0000000E+00;  1.0000000E+04;0.0;0.0;0.0;0.0
  2.0999999E+00;  9.9999998E-03;  3.0000001E-01;809;0.0;0.0;0.0;1000.0;  4.0000001E-01;0.0;0;0.0;0.0;0.0;0;0.0;  1.0000000E+04;  0.0000000E+00;  0.0000000E+00;  1.0000000E+04;  0.0000000E+00;  1.0000000E+04;0.0;0.0;0.0;0.0
  2.0999999E+00;  9.9999998E-03;  3.1999999E-01;810;0.0;0.0;0.0;1000.0;  4.0000001E-01;0.0;0;0.0;0.0;0.0;0;0.0;  1.0000000E+04;  0.0000000E+00;  0.0000000E+00;  1.0000000E+04;  0.0000000E+00;  1.0000000E+04;0.0;0.0;0.0;0.0
  2.0999999E+00;  9.9999998E-03;  3.4000000E-01;811;0.0;0.0;0.0;1000.0;  4.0000001E-01;0.0;0;0.0;0.0;0.0;0;0.0;  1.0000000E+04;  0.0000000E+00;  0.0000000E+00;  1.0000000E+04;  0.0000000E+00;  1.0000000E+04;0.0;0.0;0.0;0.0
  2.0999999E+00;  9.9999998E-03;  3.6000001E-01;812;0.0;0.0;0.0;1000.0;  4.0000001E-01;0.0;0;0.0;0.0;0.0;0;0.0;  1.0000000E+04;  0.0000000E+00;  0.0000000E+00;  1.0000000E+04;  0.0000000E+00;  1.0000000E+04;0.0;0.0;0.0;0.0
  2.0999999E+00;  9.9999998E-03;  3.8000000E-01;813;0.0;0.0;0.0;1000.0;  4.0000001E-01;0.0;0;0.0;0.0;0.0;0;0.0;  1.0000000E+04;  0.0000000E+00;  0.0000000E+00;  1.0000000E+04;  0.0000000E+00;  1.0000000E+04;0.0;0.0;0.0;0.0
  2.0999999E+00;  9.9999998E-03;  4.0000001E-01;814;0.0;0.0;0.0;1000.0;  4.0000001E-01;0.0;0;0.0;0.0;0.0;0;0.0;  1.0000000E+04;  0.0000000E+00;  0.0000000E+00;  1.0000000E+04;  0.0000000E+00;  1.0000000E+04;0.0;0.0;0.0;0.0
  2.1199999E+00;  9.9999998E-03; -4.1999999E-01;815;0.0;0.0;0.0;1000.0;  4.0000001E-01;0.0;0;0.0;0.0;0.0;0;0.0;  1.0000000E+04;  0.0000000E+00;  0.0000000E+00;  1.0000000E+04;  0.0000000E+00;  1.0000000E+04;0.0;0.0;0.0;0.0
  2.1199999E+00;  9.9999998E-03; -4.0000001E-01;816;0.0;0.0;0.0;1000.0;  4.0000001E-01;0.0;0;0.0;0.0;0.0;0;0.0;  1.0000000E+04;  0.0000000E+00;  0.0000000E+00;  1.0000000E+04;  0.0000000E+00;  1.0000000E+04;0.0;0.0;0.0;0.0
  2.1199999E+00;  9.9999998E-03; -3.8000000E-01;817;0.0;0.0;0.0;1000.0;  4.0000001E-01;0.0;0;0.0;0.0;0.0;0;0.0;  1.0000000E+04;  0.0000000E+00;  0.0000000E+00;  1.0000000E+04;  0.0000000E+00;  1.0000000E+04;0.0;0.0;0.0;0.0
  2.1199999E+00;  9.9999998E-03; -3.6000001E-01;818;0.0;0.0;0.0;1000.0;  4.0000001E-01;0.0;0;0.0;0.0;0.0;0;0.0;  1.0000000E+04;  0.0000000E+00;  0.0000000E+00;  1.0000000E+04;  0.0000000E+00;  1.0000000E+04;0.0;0.0;0.0;0.0
  2.1199999E+00;  9.9999998E-03; -3.4000000E-01;819;0.0;0.0;0.0;1000.0;  4.0000001E-01;0.0;0;0.0;0.0;0.0;0;0.0;  1.0000000E+04;  0.0000000E+00;  0.0000000E+00;  1.0000000E+04;  0.0000000E+00;  1.0000000E+04;0.0;0.0;0.0;0.0
  2.1199999E+00;  9.9999998E-03; -3.1999999E-01;820;0.0;0.0;0.0;1000.0;  4.0000001E-01;0.0;0;0.0;0.0;0.0;0;0.0;  1.0000000E+04;  0.0000000E+00;  0.0000000E+00;  1.0000000E+04;  0.0000000E+00;  1.0000000E+04;0.0;0.0;0.0;0.0
  2.1199999E+00;  9.9999998E-03; -3.0000001E-01;821;0.0;0.0;0.0;1000.0;  4.0000001E-01;0.0;0;0.0;0.0;0.0;0;0.0;  1.0000000E+04;  0.0000000E+00;  0.0000000E+00;  1.0000000E+04;  0.0000000E+00;  1.0000000E+04;0.0;0.0;0.0;0.0
  2.1199999E+00;  9.9999998E-03; -2.8000000E-01;822;0.0;0.0;0.0;1000.0;  4.0000001E-01;0.0;0;0.0;0.0;0.0;0;0.0;  1.0000000E+04;  0.0000000E+00;  0.0000000E+00;  1.0000000E+04;  0.0000000E+00;  1.0000000E+04;0.0;0.0;0.0;0.0
  2.1199999E+00;  9.9999998E-03; -2.5999999E-01;823;0.0;0.0;0.0;1000.0;  4.0000001E-01;0.0;0;0.0;0.0;0.0;0;0.0;  1.0000000E+04;  0.0000000E+00;  0.0000000E+00;  1.0000000E+04;  0.0000000E+00;  1.0000000E+04;0.0;0.0;0.0;0.0
  2.1199999E+00;  9.9999998E-03; -2.3999999E-01;824;0.0;0.0;0.0;1000.0;  4.0000001E-01;0.0;0;0.0;0.0;0.0;0;0.0;  1.0000000E+04;  0.0000000E+00;  0.0000000E+00;  1.0000000E+04;  0.0000000E+00;  1.0000000E+04;0.0;0.0;0.0;0.0
  2.1199999E+00;  9.9999998E-03; -2.2000000E-01;825;0.0;0.0;0.0;1000.0;  4.0000001E-01;0.0;0;0.0;0.0;0.0;0;0.0;  1.0000000E+04;  0.0000000E+00;  0.0000000E+00;  1.0000000E+04;  0.0000000E+00;  1.0000000E+04;0.0;0.0;0.0;0.0
  2.1199999E+00;  9.9999998E-03; -2.0000000E-01;826;0.0;0.0;0.0;1000.0;  4.0000001E-01;0.0;0;0.0;0.0;0.0;0;0.0;  1.0000000E+04;  0.0000000E+00;  0.0000000E+00;  1.0000000E+04;  0.0000000E+00;  1.0000000E+04;0.0;0.0;0.0;0.0
  2.1199999E+00;  9.9999998E-03; -1.8000001E-01;827;0.0;0.0;0.0;1000.0;  4.0000001E-01;0.0;0;0.0;0.0;0.0;0;0.0;  1.0000000E+04;  0.0000000E+00;  0.0000000E+00;  1.0000000E+04;  0.0000000E+00;  1.0000000E+04;0.0;0.0;0.0;0.0
  2.1199999E+00;  9.9999998E-03; -1.6000000E-01;828;0.0;0.0;0.0;1000.0;  4.0000001E-01;0.0;0;0.0;0.0;0.0;0;0.0;  1.0000000E+04;  0.0000000E+00;  0.0000000E+00;  1.0000000E+04;  0.0000000E+00;  1.0000000E+04;0.0;0.0;0.0;0.0
  2.1199999E+00;  9.9999998E-03; -1.4000000E-01;829;0.0;0.0;0.0;1000.0;  4.0000001E-01;0.0;0;0.0;0.0;0.0;0;0.0;  1.0000000E+04;  0.0000000E+00;  0.0000000E+00;  1.0000000E+04;  0.0000000E+00;  1.0000000E+04;0.0;0.0;0.0;0.0
  2.1199999E+00;  9.9999998E-03; -1.2000000E-01;830;0.0;0.0;0.0;1000.0;  4.0000001E-01;0.0;0;0.0;0.0;0.0;0;0.0;  1.0000000E+04;  0.0000000E+00;  0.0000000E+00;  1.0000000E+04;  0.0000000E+00;  1.0000000E+04;0.0;0.0;0.0;0.0
  2.1199999E+00;  9.9999998E-03; -1.0000000E-01;831;0.0;0.0;0.0;1000.0;  4.0000001E-01;0.0;0;0.0;0.0;0.0;0;0.0;  1.0000000E+04;  0.0000000E+00;  0.0000000E+00;  1.0000000E+04;  0.0000000E+00;  1.0000000E+04;0.0;0.0;0.0;0.0
  2.1199999E+00;  9.9999998E-03; -7.9999998E-02;832;0.0;0.0;0.0;1000.0;  4.0000001E-01;0.0;0;0.0;0.0;0.0;0;0.0;  1.0000000E+04;  0.0000000E+00;  0.0000000E+00;  1.0000000E+04;  0.0000000E+00;  1.0000000E+04;0.0;0.0;0.0;0.0
  2.1199999E+00;  9.9999998E-03; -5.9999999E-02;833;0.0;0.0;0.0;1000.0;  4.0000001E-01;0.0;0;0.0;0.0;0.0;0;0.0;  1.0000000E+04;  0.0000000E+00;  0.0000000E+00;  1.0000000E+04;  0.0000000E+00;  1.0000000E+04;0.0;0.0;0.0;0.0
  2.1199999E+00;  9.9999998E-03; -3.9999999E-02;834;0.0;0.0;0.0;1000.0;  4.0000001E-01;0.0;0;0.0;0.0;0.0;0;0.0;  1.0000000E+04;  0.0000000E+00;  0.0000000E+00;  1.0000000E+04;  0.0000000E+00;  1.0000000E+04;0.0;0.0;0.0;0.0
  2.1199999E+00;  9.9999998E-03; -2.0000000E-02;835;0.0;0.0;0.0;1000.0;  4.0000001E-01;0.0;0;0.0;0.0;0.0;0;0.0;  1.0000000E+04;  0.0000000E+00;  0.0000000E+00;  1.0000000E+04;  0.0000000E+00;  1.0000000E+04;0.0;0.0;0.0;0.0
  2.1199999E+00;  9.9999998E-03;  0.0000000E+00;836;0.0;0.0;0.0;1000.0;  4.0000001E-01;0.0;0;0.0;0.0;0.0;0;0.0;  1.0000000E+04;  0.0000000E+00;  0.0000000E+00;  1.0000000E+04;  0.0000000E+00;  1.0000000E+04;0.0;0.0;0.0;0.0
  2.1199999E+00;  9.9999998E-03;  2.0000000E-02;837;0.0;0.0;0.0;1000.0;  4.0000001E-01;0.0;0;0.0;0.0;0.0;0;0.0;  1.0000000E+04;  0.0000000E+00;  0.0000000E+00;  1.0000000E+04;  0.0000000E+00;  1.0000000E+04;0.0;0.0;0.0;0.0
  2.1199999E+00;  9.9999998E-03;  3.9999999E-02;838;0.0;0.0;0.0;1000.0;  4.0000001E-01;0.0;0;0.0;0.0;0.0;0;0.0;  1.0000000E+04;  0.0000000E+00;  0.0000000E+00;  1.0000000E+04;  0.0000000E+00;  1.0000000E+04;0.0;0.0;0.0;0.0
  2.1199999E+00;  9.9999998E-03;  5.9999999E-02;839;0.0;0.0;0.0;1000.0;  4.0000001E-01;0.0;0;0.0;0.0;0.0;0;0.0;  1.0000000E+04;  0.0000000E+00;  0.0000000E+00;  1.0000000E+04;  0.0000000E+00;  1.0000000E+04;0.0;0.0;0.0;0.0
  2.1199999E+00;  9.9999998E-03;  7.9999998E-02;840;0.0;0.0;0.0;1000.0;  4.0000001E-01;0.0;0;0.0;0.0;0.0;0;0.0;  1.0000000E+04;  0.0000000E+00;  0.0000000E+00;  1.0000000E+04;  0.0000000E+00;  1.0000000E+04;0.0;0.0;0.0;0.0
  2.1199999E+00;  9.9999998E-03;  1.0000000E-01;841;0.0;0.0;0.0;1000.0;  4.0000001E-01;0.0;0;0.0;0.0;0.0;0;0.0;  1.0000000E+04;  0.0000000E+00;  0.0000000E+00;  1.0000000E+04;  0.0000000E+00;  1.0000000E+04;0.0;0.0;0.0;0.0
  2.1199999E+00;  9.9999998E-03;  1.2000000E-01;842;0.0;0.0;0.0;1000.0;  4.0000001E-01;0.0;0;0.0;0.0;0.0;0;0.0;  1.0000000E+04;  0.0000000E+00;  0.0000000E+00;  1.0000000E+04;  0.0000000E+00;  1.0000000E+04;0.0;0.0;0.0;0.0
  2.1199999E+00;  9.9999998E-03;  1.4000000E-01;843;0.0;0.0;0.0;1000.0;  4.0000001E-01;0.0;0;0.0;0.0;0.0;0;0.0;  1.0000000E+04;  0.0000000E+00;  0.0000000E+00;  1.0000000E+04;  0.0000000E+00;  1.0000000E+04;0.0;0.0;0.0;0.0
  2.1199999E+00;  9.9999998E-03;  1.6000000E-01;844;0.0;0.0;0.0;1000.0;  4.0000001E-01;0.0;0;0.0;0.0;0.0;0;0.0;  1.0000000E+04;  0.0000000E+00;  0.0000000E+00;  1.0000000E+04;  0.0000000E+00;  1.0000000E+04;0.0;0.0;0.0;0.0
  2.1199999E+00;  9.9999998E-03;  1.8000001E-01;845;0.0;0.0;0.0;1000.0;  4.0000001E-01;0.0;0;0.0;0.0;0.0;0;0.0;  1.0000000E+04;  0.0000000E+00;  0.0000000E+00;  1.0000000E+04;  0.0000000E+00;  1.0000000E+04;0.0;0.0;0.0;0.0
  2.1199999E+00;  9.9999998E-03;  2.0000000E-01;846;0.0;0.0;0.0;1000.0;  4.0000001E-01;0.0;0;0.0;0.0;0.0;0;0.0;  1.0000000E+04;  0.0000000E+00;  0.0000000E+00;  1.0000000E+04;  0.0000000E+00;  1.0000000E+04;0.0;0.0;0.0;0.0
  2.1199999E+00;  9.9999998E-03;  2.2000000E-01;847;0.0;0.0;0.0;1000.0;  4.0000001E-01;0.0;0;0.0;0.0;0.0;0;0.0;  1.0000000E+04;  0.0000000E+00;  0.0000000E+00;  1.0000000E+04;  0.0000000E+00;  1.0000000E+04;0.0;0.0;0.0;0.0
  2.1199999E+00;  9.9999998E-03;  2.3999999E-01;848;0.0;0.0;0.0;1000.0;  4.0000001E-01;0.0;0;0.0;0.0;0.0;0;0.0;  1.0000000E+04;  0.0000000E+00;  0.0000000E+00;  1.0000000E+04;  0.0000000E+00;  1.0000000E+04;0.0;0.0;0.0;0.0
  2.1199999E+00;  9.9999998E-03;  2.5999999E-01;849;0.0;0.0;0.0;1000.0;  4.0000001E-01;0.0;0;0.0;0.0;0.0;0;0.0;  1.0000000E+04;  0.0000000E+00;  0.0000000E+00;  1.0000000E+04;  0.0000000E+00;  1.0000000E+04;0.0;0.0;0.0;0.0
  2.1199999E+00;  9.9999998E-03;  2.8000000E-01;850;0.0;0.0;0.0;1000.0;  4.0000001E-01;0.0;0;0.0;0.0;0.0;0;0.0;  1.0000000E+04;  0.0000000E+00;  0.0000000E+00;  1.0000000E+04;  0.0000000E+00;  1.0000000E+04;0.0;0.0;0.0;0.0
  2.1199999E+00;  9.9999998E-03;  3.0000001E-01;851;0.0;0.0;0.0;1000.0;  4.0000001E-01;0.0;0;0.0;0.0;0.0;0;0.0;  1.0000000E+04;  0.0000000E+00;  0.0000000E+00;  1.0000000E+04;  0.0000000E+00;  1.0000000E+04;0.0;0.0;0.0;0.0
  2.1199999E+00;  9.9999998E-03;  3.1999999E-01;852;0.0;0.0;0.0;1000.0;  4.0000001E-01;0.0;0;0.0;0.0;0.0;0;0.0;  1.0000000E+04;  0.0000000E+00;  0.0000000E+00;  1.0000000E+04;  0.0000000E+00;  1.0000000E+04;0.0;0.0;0.0;0.0
  2.1199999E+00;  9.9999998E-03;  3.4000000E-01;853;0.0;0.0;0.0;1000.0;  4.0000001E-01;0.0;0;0.0;0.0;0.0;0;0.0;  1.0000000E+04;  0.0000000E+00;  0.0000000E+00;  1.0000000E+04;  0.0000000E+00;  1.0000000E+04;0.0;0.0;0.0;0.0
  2.1199999E+00;  9.9999998E-03;  3.6000001E-01;854;0.0;0.0;0.0;1000.0;  4.0000001E-01;0.0;0;0.0;0.0;0.0;0;0.0;  1.0000000E+04;  0.0000000E+00;  0.0000000E+00;  1.0000000E+04;  0.0000000E+00;  1.0000000E+04;0.0;0.0;0.0;0.0
  2.1199999E+00;  9.9999998E-03;  3.8000000E-01;855;0.0;0.0;0.0;1000.0;  4.0000001E-01;0.0;0;0.0;0.0;0.0;0;0.0;  1.0000000E+04;  0.0000000E+00;  0.0000000E+00;  1.0000000E+04;  0.0000000E+00;  1.0000000E+04;0.0;0.0;0.0;0.0
  2.1199999E+00;  9.9999998E-03;  4.0000001E-01;856;0.0;0.0;0.0;1000.0;  4.0000001E-01;0.0;0;0.0;0.0;0.0;0;0.0;  1.0000000E+04;  0.0000000E+00;  0.0000000E+00;  1.0000000E+04;  0.0000000E+00;  1.0000000E+04;0.0;0.0;0.0;0.0
  2.1400001E+00;  9.9999998E-03; -3.8000000E-01;857;0.0;0.0;0.0;1000.0;  4.0000001E-01;0.0;0;0.0;0.0;0.0;0;0.0;  1.0000000E+04;  0.0000000E+00;  0.0000000E+00;  1.0000000E+04;  0.0000000E+00;  1.0000000E+04;0.0;0.0;0.0;0.0
  2.1400001E+00;  9.9999998E-03; -3.6000001E-01;858;0.0;0.0;0.0;1000.0;  4.0000001E-01;0.0;0;0.0;0.0;0.0;0;0.0;  1.0000000E+04;  0.0000000E+00;  0.0000000E+00;  1.0000000E+04;  0.0000000E+00;  1.0000000E+04;0.0;0.0;0.0;0.0
  2.1400001E+00;  9.9999998E-03; -3.4000000E-01;859;0.0;0.0;0.0;1000.0;  4.0000001E-01;0.0;0;0.0;0.0;0.0;0;0.0;  1.0000000E+04;  0.0000000E+00;  0.0000000E+00;  1.0000000E+04;  0.0000000E+00;  1.0000000E+04;0.0;0.0;0.0;0.0
  2.1400001E+00;  9.9999998E-03; -3.1999999E-01;860;0.0;0.0;0.0;1000.0;  4.0000001E-01;0.0;0;0.0;0.0;0.0;0;0.0;  1.0000000E+04;  0.0000000E+00;  0.0000000E+00;  1.0000000E+04;  0.0000000E+00;  1.0000000E+04;0.0;0.0;0.0;0.0
  2.1400001E+00;  9.9999998E-03; -3.0000001E-01;861;0.0;0.0;0.0;1000.0;  4.0000001E-01;0.0;0;0.0;0.0;0.0;0;0.0;  1.0000000E+04;  0.0000000E+00;  0.0000000E+00;  1.0000000E+04;  0.0000000E+00;  1.0000000E+04;0.0;0.0;0.0;0.0
  2.1400001E+00;  9.9999998E-03; -2.8000000E-01;862;0.0;0.0;0.0;1000.0;  4.0000001E-01;0.0;0;0.0;0.0;0.0;0;0.0;  1.0000000E+04;  0.0000000E+00;  0.0000000E+00;  1.0000000E+04;  0.0000000E+00;  1.0000000E+04;0.0;0.0;0.0;0.0
  2.1400001E+00;  9.9999998E-03; -2.5999999E-01;863;0.0;0.0;0.0;1000.0;  4.0000001E-01;0.0;0;0.0;0.0;0.0;0;0.0;  1.0000000E+04;  0.0000000E+00;  0.0000000E+00;  1.0000000E+04;  0.0000000E+00;  1.0000000E+04;0.0;0.0;0.0;0.0
  2.1400001E+00;  9.9999998E-03; -2.3999999E-01;864;0.0;0.0;0.0;1000.0;  4.0000001E-01;0.0;0;0.0;0.0;0.0;0;0.0;  1.0000000E+04;  0.0000000E+00;  0.0000000E+00;  1.0000000E+04;  0.0000000E+00;  1.0000000E+04;0.0;0.0;0.0;0.0
  2.1400001E+00;  9.9999998E-03; -2.2000000E-01;865;0.0;0.0;0.0;1000.0;  4.0000001E-01;0.0;0;0.0;0.0;0.0;0;0.0;  1.0000000E+04;  0.0000000E+00;  0.0000000E+00;  1.0000000E+04;  0.0000000E+00;  1.0000000E+04;0.0;0.0;0.0;0.0
  2.1400001E+00;  9.9999998E-03; -2.0000000E-01;866;0.0;0.0;0.0;1000.0;  4.0000001E-01;0.0;0;0.0;0.0;0.0;0;0.0;  1.0000000E+04;  0.0000000E+00;  0.0000000E+00;  1.0000000E+04;  0.0000000E+00;  1.0000000E+04;0.0;0.0;0.0;0.0
  2.1400001E+00;  9.9999998E-03; -1.8000001E-01;867;0.0;0.0;0.0;1000.0;  4.0000001E-01;0.0;0;0.0;0.0;0.0;0;0.0;  1.0000000E+04;  0.0000000E+00;  0.0000000E+00;  1.0000000E+04;  0.0000000E+00;  1.0000000E+04;0.0;0.0;0.0;0.0
  2.1400001E+00;  9.9999998E-03; -1.6000000E-01;868;0.0;0.0;0.0;1000.0;  4.0000001E-01;0.0;0;0.0;0.0;0.0;0;0.0;  1.0000000E+04;  0.0000000E+00;  0.0000000E+00;  1.0000000E+04;  0.0000000E+00;  1.0000000E+04;0.0;0.0;0.0;0.0
  2.1400001E+00;  9.9999998E-03; -1.4000000E-01;869;0.0;0.0;0.0;1000.0;  4.0000001E-01;0.0;0;0.0;0.0;0.0;0;0.0;  1.0000000E+04;  0.0000000E+00;  0.0000000E+00;  1.0000000E+04;  0.0000000E+00;  1.0000000E+04;0.0;0.0;0.0;0.0
  2.1400001E+00;  9.9999998E-03; -1.2000000E-01;870;0.0;0.0;0.0;1000.0;  4.0000001E-01;0.0;0;0.0;0.0;0.0;0;0.0;  1.0000000E+04;  0.0000000E+00;  0.0000000E+00;  1.0000000E+04;  0.0000000E+00;  1.0000000E+04;0.0;0.0;0.0;0.0
  2.1400001E+00;  9.9999998E-03; -1.0000000E-01;871;0.0;0.0;0.0;1000.0;  4.0000001E-01;0.0;0;0.0;0.0;0.0;0;0.0;  1.0000000E+04;  0.0000000E+00;  0.0000000E+00;  1.0000000E+04;  0.0000000E+00;  1.0000000E+04;0.0;0.0;0.0;0.0
  2.1400001E+00;  9.9999998E-03; -7.9999998E-02;872;0.0;0.0;0.0;1000.0;  4.0000001E-01;0.0;0;0.0;0.0;0.0;0;0.0;  1.0000000E+04;  0.0000000E+00;  0.0000000E+00;  1.0000000E+04;  0.0000000E+00;  1.0000000E+04;0.0;0.0;0.0;0.0
  2.1400001E+00;  9.9999998E-03; -5.9999999E-02;873;0.0;0.0;0.0;1000.0;  4.0000001E-01;0.0;0;0.0;0.0;0.0;0;0.0;  1.0000000E+04;  0.0000000E+00;  0.0000000E+00;  1.0000000E+04;  0.0000000E+00;  1.0000000E+04;0.0;0.0;0.0;0.0
  2.1400001E+00;  9.9999998E-03; -3.9999999E-02;874;0.0;0.0;0.0;1000.0;  4.0000001E-01;0.0;0;0.0;0.0;0.0;0;0.0;  1.0000000E+04;  0.0000000E+00;  0.0000000E+00;  1.0000000E+04;  0.0000000E+00;  1.0000000E+04;0.0;0.0;0.0;0.0
  2.1400001E+00;  9.9999998E-03; -2.0000000E-02;875;0.0;0.0;0.0;1000.0;  4.0000001E-01;0.0;0;0.0;0.0;0.0;0;0.0;  1.0000000E+04;  0.0000000E+00;  0.0000000E+00;  1.0000000E+04;  0.0000000E+00;  1.0000000E+04;0.0;0.0;0.0;0.0
  2.1400001E+00;  9.9999998E-03;  0.0000000E+00;876;0.0;0.0;0.0;1000.0;  4.0000001E-01;0.0;0;0.0;0.0;0.0;0;0.0;  1.0000000E+04;  0.0000000E+00;  0.0000000E+00;  1.0000000E+04;  0.0000000E+00;  1.0000000E+04;0.0;0.0;0.0;0.0
  2.1400001E+00;  9.9999998E-03;  2.0000000E-02;877;0.0;0.0;0.0;1000.0;  4.0000001E-01;0.0;0;0.0;0.0;0.0;0;0.0;  1.0000000E+04;  0.0000000E+00;  0.0000000E+00;  1.0000000E+04;  0.0000000E+00;  1.0000000E+04;0.0;0.0;0.0;0.0
  2.1400001E+00;  9.9999998E-03;  3.9999999E-02;878;0.0;0.0;0.0;1000.0;  4.0000001E-01;0.0;0;0.0;0.0;0.0;0;0.0;  1.0000000E+04;  0.0000000E+00;  0.0000000E+00;  1.0000000E+04;  0.0000000E+00;  1.0000000E+04;0.0;0.0;0.0;0.0
  2.1400001E+00;  9.9999998E-03;  5.9999999E-02;879;0.0;0.0;0.0;1000.0;  4.0000001E-01;0.0;0;0.0;0.0;0.0;0;0.0;  1.0000000E+04;  0.0000000E+00;  0.0000000E+00;  1.0000000E+04;  0.0000000E+00;  1.0000000E+04;0.0;0.0;0.0;0.0
  2.1400001E+00;  9.9999998E-03;  7.9999998E-02;880;0.0;0.0;0.0;1000.0;  4.0000001E-01;0.0;0;0.0;0.0;0.0;0;0.0;  1.0000000E+04;  0.0000000E+00;  0.0000000E+00;  1.0000000E+04;  0.0000000E+00;  1.0000000E+04;0.0;0.0;0.0;0.0
  2.1400001E+00;  9.9999998E-03;  1.0000000E-01;881;0.0;0.0;0.0;1000.0;  4.0000001E-01;0.0;0;0.0;0.0;0.0;0;0.0;  1.0000000E+04;  0.0000000E+00;  0.0000000E+00;  1.0000000E+04;  0.0000000E+00;  1.0000000E+04;0.0;0.0;0.0;0.0
  2.1400001E+00;  9.9999998E-03;  1.2000000E-01;882;0.0;0.0;0.0;1000.0;  4.0000001E-01;0.0;0;0.0;0.0;0.0;0;0.0;  1.0000000E+04;  0.0000000E+00;  0.0000000E+00;  1.0000000E+04;  0.0000000E+00;  1.0000000E+04;0.0;0.0;0.0;0.0
  2.1400001E+00;  9.9999998E-03;  1.4000000E-01;883;0.0;0.0;0.0;1000.0;  4.0000001E-01;0.0;0;0.0;0.0;0.0;0;0.0;  1.0000000E+04;  0.0000000E+00;  0.0000000E+00;  1.0000000E+04;  0.0000000E+00;  1.0000000E+04;0.0;0.0;0.0;0.0
  2.1400001E+00;  9.9999998E-03;  1.6000000E-01;884;0.0;0.0;0.0;1000.0;  4.0000001E-01;0.0;0;0.0;0.0;0.0;0;0.0;  1.0000000E+04;  0.0000000E+00;  0.0000000E+00;  1.0000000E+04;  0.0000000E+00;  1.0000000E+04;0.0;0.0;0.0;0.0
  2.1400001E+00;  9.9999998E-03;  1.8000001E-01;885;0.0;0.0;0.0;1000.0;  4.0000001E-01;0.0;0;0.0;0.0;0.0;0;0.0;  1.0000000E+04;  0.0000000E+00;  0.0000000E+00;  1.0000000E+04;  0.0000000E+00;  1.0000000E+04;0.0;0.0;0.0;0.0
  2.1400001E+00;  9.9999998E-03;  2.0000000E-01;886;0.0;0.0;0.0;1000.0;  4.0000001E-01;0.0;0;0.0;0.0;0.0;0;0.0;  1.0000000E+04;  0.0000000E+00;  0.0000000E+00;  1.0000000E+04;  0.0000000E+00;  1.0000000E+04;0.0;0.0;0.0;0.0
  2.1400001E+00;  9.9999998E-03;  2.2000000E-01;887;0.0;0.0;0.0;1000.0;  4.0000001E-01;0.0;0;0.0;0.0;0.0;0;0.0;  1.0000000E+04;  0.0000000E+00;  0.0000000E+00;  1.0000000E+04;  0.0000000E+00;  1.0000000E+04;0.0;0.0;0.0;0.0
  2.1400001E+00;  9.9999998E-03;  2.3999999E-01;888;0.0;0.0;0.0;1000.0;  4.0000001E-01;0.0;0;0.0;0.0;0.0;0;0.0;  1.0000000E+04;  0.0000000E+00;  0.0000000E+00;  1.0000000E+04;  0.0000000E+00;  1.0000000E+04;0.0;0.0;0.0;0.0
  2.1400001E+00;  9.9999998E-03;  2.5999999E-01;889;0.0;0.0;0.0;1000.0;  4.0000001E-01;0.0;0;0.0;0.0;0.0;0;0.0;  1.0000000E+04;  0.0000000E+00;  0.0000000E+00;  1.0000000E+04;  0.0000000E+00;  1.0000000E+04;0.0;0.0;0.0;0.0
  2.1400001E+00;  9.9999998E-03;  2.8000000E-01;890;0.0;0.0;0.0;1000.0;  4.0000001E-01;0.0;0;0.0;0.0;0.0;0;0.0;  1.0000000E+04;  0.0000000E+00;  0.0000000E+00;  1.0000000E+04;  0.0000000E+00;  1.0000000E+04;0.0;0.0;0.0;0.0
  2.1400001E+00;  9.9999998E-03;  3.0000001E-01;891;0.0;0.0;0.0;1000.0;  4.0000001E-01;0.0;0;0.0;0.0;0.0;0;0.0;  1.0000000E+04;  0.0000000E+00;  0.0000000E+00;  1.0000000E+04;  0.0000000E+00;  1.0000000E+04;0.0;0.0;0.0;0.0
  2.1400001E+00;  9.9999998E-03;  3.1999999E-01;892;0.0;0.0;0.0;1000.0;  4.0000001E-01;0.0;0;0.0;0.0;0.0;0;0.0;  1.0000000E+04;  0.0000000E+00;  0.0000000E+00;  1.0000000E+04;  0.0000000E+00;  1.0000000E+04;0.0;0.0;0.0;0.0
  2.1400001E+00;  9.9999998E-03;  3.4000000E-01;893;0.0;0.0;0.0;1000.0;  4.0000001E-01;0.0;0;0.0;0.0;0.0;0;0.0;  1.0000000E+04;  0.0000000E+00;  0.0000000E+00;  1.0000000E+04;  0.0000000E+00;  1.0000000E+04;0.0;0.0;0.0;0.0
  2.1400001E+00;  9.9999998E-03;  3.6000001E-01;894;0.0;0.0;0.0;1000.0;  4.0000001E-01;0.0;0;0.0;0.0;0.0;0;0.0;  1.0000000E+04;  0.0000000E+00;  0.0000000E+00;  1.0000000E+04;  0.0000000E+00;  1.0000000E+04;0.0;0.0;0.0;0.0
  2.1400001E+00;  9.9999998E-03;  3.8000000E-01;895;0.0;0.0;0.0;1000.0;  4.0000001E-01;0.0;0;0.0;0.0;0.0;0;0.0;  1.0000000E+04;  0.0000000E+00;  0.0000000E+00;  1.0000000E+04;  0.0000000E+00;  1.0000000E+04;0.0;0.0;0.0;0.0
  2.1400001E+00;  9.9999998E-03;  4.0000001E-01;896;0.0;0.0;0.0;1000.0;  4.0000001E-01;0.0;0;0.0;0.0;0.0;0;0.0;  1.0000000E+04;  0.0000000E+00;  0.0000000E+00;  1.0000000E+04;  0.0000000E+00;  1.0000000E+04;0.0;0.0;0.0;0.0
  2.1600001E+00;  9.9999998E-03; -2.8000000E-01;897;0.0;0.0;0.0;1000.0;  4.0000001E-01;0.0;0;0.0;0.0;0.0;0;0.0;  1.0000000E+04;  0.0000000E+00;  0.0000000E+00;  1.0000000E+04;  0.0000000E+00;  1.0000000E+04;0.0;0.0;0.0;0.0
  2.1600001E+00;  9.9999998E-03; -2.5999999E-01;898;0.0;0.0;0.0;1000.0;  4.0000001E-01;0.0;0;0.0;0.0;0.0;0;0.0;  1.0000000E+04;  0.0000000E+00;  0.0000000E+00;  1.0000000E+04;  0.0000000E+00;  1.0000000E+04;0.0;0.0;0.0;0.0
  2.1600001E+00;  9.9999998E-03; -2.3999999E-01;899;0.0;0.0;0.0;1000.0;  4.0000001E-01;0.0;0;0.0;0.0;0.0;0;0.0;  1.0000000E+04;  0.0000000E+00;  0.0000000E+00;  1.0000000E+04;  0.0000000E+00;  1.0000000E+04;0.0;0.0;0.0;0.0
  2.1600001E+00;  9.9999998E-03; -2.2000000E-01;900;0.0;0.0;0.0;1000.0;  4.0000001E-01;0.0;0;0.0;0.0;0.0;0;0.0;  1.0000000E+04;  0.0000000E+00;  0.0000000E+00;  1.0000000E+04;  0.0000000E+00;  1.0000000E+04;0.0;0.0;0.0;0.0
  2.1600001E+00;  9.9999998E-03; -2.0000000E-01;901;0.0;0.0;0.0;1000.0;  4.0000001E-01;0.0;0;0.0;0.0;0.0;0;0.0;  1.0000000E+04;  0.0000000E+00;  0.0000000E+00;  1.0000000E+04;  0.0000000E+00;  1.0000000E+04;0.0;0.0;0.0;0.0
  2.1600001E+00;  9.9999998E-03; -1.8000001E-01;902;0.0;0.0;0.0;1000.0;  4.0000001E-01;0.0;0;0.0;0.0;0.0;0;0.0;  1.0000000E+04;  0.0000000E+00;  0.0000000E+00;  1.0000000E+04;  0.0000000E+00;  1.0000000E+04;0.0;0.0;0.0;0.0
  2.1600001E+00;  9.9999998E-03; -1.6000000E-01;903;0.0;0.0;0.0;1000.0;  4.0000001E-01;0.0;0;0.0;0.0;0.0;0;0.0;  1.0000000E+04;  0.0000000E+00;  0.0000000E+00;  1.0000000E+04;  0.0000000E+00;  1.0000000E+04;0.0;0.0;0.0;0.0
  2.1600001E+00;  9.9999998E-03; -1.4000000E-01;904;0.0;0.0;0.0;1000.0;  4.0000001E-01;0.0;0;0.0;0.0;0.0;0;0.0;  1.0000000E+04;  0.0000000E+00;  0.0000000E+00;  1.0000000E+04;  0.0000000E+00;  1.0000000E+04;0.0;0.0;0.0;0.0
  2.1600001E+00;  9.9999998E-03; -1.2000000E-01;905;0.0;0.0;0.0;1000.0;  4.0000001E-01;0.0;0;0.0;0.0;0.0;0;0.0;  1.0000000E+04;  0.0000000E+00;  0.0000000E+00;  1.0000000E+04;  0.0000000E+00;  1.0000000E+04;0.0;0.0;0.0;0.0
  2.1600001E+00;  9.9999998E-03; -1.0000000E-01;906;0.0;0.0;0.0;1000.0;  4.0000001E-01;0.0;0;0.0;0.0;0.0;0;0.0;  1.0000000E+04;  0.0000000E+00;  0.0000000E+00;  1.0000000E+04;  0.0000000E+00;  1.0000000E+04;0.0;0.0;0.0;0.0
  2.1600001E+00;  9.9999998E-03; -7.9999998E-02;907;0.0;0.0;0.0;1000.0;  4.0000001E-01;0.0;0;0.0;0.0;0.0;0;0.0;  1.0000000E+04;  0.0000000E+00;  0.0000000E+00;  1.0000000E+04;  0.0000000E+00;  1.0000000E+04;0.0;0.0;0.0;0.0
  2.1600001E+00;  9.9999998E-03; -5.9999999E-02;908;0.0;0.0;0.0;1000.0;  4.0000001E-01;0.0;0;0.0;0.0;0.0;0;0.0;  1.0000000E+04;  0.0000000E+00;  0.0000000E+00;  1.0000000E+04;  0.0000000E+00;  1.0000000E+04;0.0;0.0;0.0;0.0
  2.1600001E+00;  9.9999998E-03; -3.9999999E-02;909;0.0;0.0;0.0;1000.0;  4.0000001E-01;0.0;0;0.0;0.0;0.0;0;0.0;  1.0000000E+04;  0.0000000E+00;  0.0000000E+00;  1.0000000E+04;  0.0000000E+00;  1.0000000E+04;0.0;0.0;0.0;0.0
  2.1600001E+00;  9.9999998E-03; -2.0000000E-02;910;0.0;0.0;0.0;1000.0;  4.0000001E-01;0.0;0;0.0;0.0;0.0;0;0.0;  1.0000000E+04;  0.0000000E+00;  0.0000000E+00;  1.0000000E+04;  0.0000000E+00;  1.0000000E+04;0.0;0.0;0.0;0.0
  2.1600001E+00;  9.9999998E-03;  0.0000000E+00;911;0.0;0.0;0.0;1000.0;  4.0000001E-01;0.0;0;0.0;0.0;0.0;0;0.0;  1.0000000E+04;  0.0000000E+00;  0.0000000E+00;  1.0000000E+04;  0.0000000E+00;  1.0000000E+04;0.0;0.0;0.0;0.0
  2.1600001E+00;  9.9999998E-03;  2.0000000E-02;912;0.0;0.0;0.0;1000.0;  4.0000001E-01;0.0;0;0.0;0.0;0.0;0;0.0;  1.0000000E+04;  0.0000000E+00;  0.0000000E+00;  1.0000000E+04;  0.0000000E+00;  1.0000000E+04;0.0;0.0;0.0;0.0
  2.1600001E+00;  9.9999998E-03;  3.9999999E-02;913;0.0;0.0;0.0;1000.0;  4.0000001E-01;0.0;0;0.0;0.0;0.0;0;0.0;  1.0000000E+04;  0.0000000E+00;  0.0000000E+00;  1.0000000E+04;  0.0000000E+00;  1.0000000E+04;0.0;0.0;0.0;0.0
  2.1600001E+00;  9.9999998E-03;  5.9999999E-02;914;0.0;0.0;0.0;1000.0;  4.0000001E-01;0.0;0;0.0;0.0;0.0;0;0.0;  1.0000000E+04;  0.0000000E+00;  0.0000000E+00;  1.0000000E+04;  0.0000000E+00;  1.0000000E+04;0.0;0.0;0.0;0.0
  2.1600001E+00;  9.9999998E-03;  7.9999998E-02;915;0.0;0.0;0.0;1000.0;  4.0000001E-01;0.0;0;0.0;0.0;0.0;0;0.0;  1.0000000E+04;  0.0000000E+00;  0.0000000E+00;  1.0000000E+04;  0.0000000E+00;  1.0000000E+04;0.0;0.0;0.0;0.0
  2.1600001E+00;  9.9999998E-03;  1.0000000E-01;916;0.0;0.0;0.0;1000.0;  4.0000001E-01;0.0;0;0.0;0.0;0.0;0;0.0;  1.0000000E+04;  0.0000000E+00;  0.0000000E+00;  1.0000000E+04;  0.0000000E+00;  1.0000000E+04;0.0;0.0;0.0;0.0
  2.1600001E+00;  9.9999998E-03;  1.2000000E-01;917;0.0;0.0;0.0;1000.0;  4.0000001E-01;0.0;0;0.0;0.0;0.0;0;0.0;  1.0000000E+04;  0.0000000E+00;  0.0000000E+00;  1.0000000E+04;  0.0000000E+00;  1.0000000E+04;0.0;0.0;0.0;0.0
  2.1600001E+00;  9.9999998E-03;  1.4000000E-01;918;0.0;0.0;0.0;1000.0;  4.0000001E-01;0.0;0;0.0;0.0;0.0;0;0.0;  1.0000000E+04;  0.0000000E+00;  0.0000000E+00;  1.0000000E+04;  0.0000000E+00;  1.0000000E+04;0.0;0.0;0.0;0.0
  2.1600001E+00;  9.9999998E-03;  1.6000000E-01;919;0.0;0.0;0.0;1000.0;  4.0000001E-01;0.0;0;0.0;0.0;0.0;0;0.0;  1.0000000E+04;  0.0000000E+00;  0.0000000E+00;  1.0000000E+04;  0.0000000E+00;  1.0000000E+04;0.0;0.0;0.0;0.0
  2.1600001E+00;  9.9999998E-03;  1.8000001E-01;920;0.0;0.0;0.0;1000.0;  4.0000001E-01;0.0;0;0.0;0.0;0.0;0;0.0;  1.0000000E+04;  0.0000000E+00;  0.0000000E+00;  1.0000000E+04;  0.0000000E+00;  1.0000000E+04;0.0;0.0;0.0;0.0
  2.1600001E+00;  9.9999998E-03;  2.0000000E-01;921;0.0;0.0;0.0;1000.0;  4.0000001E-01;0.0;0;0.0;0.0;0.0;0;0.0;  1.0000000E+04;  0.0000000E+00;  0.0000000E+00;  1.0000000E+04;  0.0000000E+00;  1.0000000E+04;0.0;0.0;0.0;0.0
  2.1600001E+00;  9.9999998E-03;  2.2000000E-01;922;0.0;0.0;0.0;1000.0;  4.0000001E-01;0.0;0;0.0;0.0;0.0;0;0.0;  1.0000000E+04;  0.0000000E+00;  0.0000000E+00;  1.0000000E+04;  0.0000000E+00;  1.0000000E+04;0.0;0.0;0.0;0.0
  2.1600001E+00;  9.9999998E-03;  2.3999999E-01;923;0.0;0.0;0.0;1000.0;  4.0000001E-01;0.0;0;0.0;0.0;0.0;0;0.0;  1.0000000E+04;  0.0000000E+00;  0.0000000E+00;  1.0000000E+04;  0.0000000E+00;  1.0000000E+04;0.0;0.0;0.0;0.0
  2.1600001E+00;  9.9999998E-03;  2.5999999E-01;924;0.0;0.0;0.0;1000.0;  4.0000001E-01;0.0;0;0.0;0.0;0.0;0;0.0;  1.0000000E+04;  0.0000000E+00;  0.0000000E+00;  1.0000000E+04;  0.0000000E+00;  1.0000000E+04;0.0;0.0;0.0;0.0
  2.1600001E+00;  9.9999998E-03;  2.8000000E-01;925;0.0;0.0;0.0;1000.0;  4.0000001E-01;0.0;0;0.0;0.0;0.0;0;0.0;  1.0000000E+04;  0.0000000E+00;  0.0000000E+00;  1.0000000E+04;  0.0000000E+00;  1.0000000E+04;0.0;0.0;0.0;0.0
  2.1600001E+00;  9.9999998E-03;  3.0000001E-01;926;0.0;0.0;0.0;1000.0;  4.0000001E-01;0.0;0;0.0;0.0;0.0;0;0.0;  1.0000000E+04;  0.0000000E+00;  0.0000000E+00;  1.0000000E+04;  0.0000000E+00;  1.0000000E+04;0.0;0.0;0.0;0.0
  2.1600001E+00;  9.9999998E-03;  3.1999999E-01;927;0.0;0.0;0.0;1000.0;  4.0000001E-01;0.0;0;0.0;0.0;0.0;0;0.0;  1.0000000E+04;  0.0000000E+00;  0.0000000E+00;  1.0000000E+04;  0.0000000E+00;  1.0000000E+04;0.0;0.0;0.0;0.0
  2.1600001E+00;  9.9999998E-03;  3.4000000E-01;928;0.0;0.0;0.0;1000.0;  4.0000001E-01;0.0;0;0.0;0.0;0.0;0;0.0;  1.0000000E+04;  0.0000000E+00;  0.0000000E+00;  1.0000000E+04;  0.0000000E+00;  1.0000000E+04;0.0;0.0;0.0;0.0
  2.1600001E+00;  9.9999998E-03;  3.6000001E-01;929;0.0;0.0;0.0;1000.0;  4.0000001E-01;0.0;0;0.0;0.0;0.0;0;0.0;  1.0000000E+04;  0.0000000E+00;  0.0000000E+00;  1.0000000E+04;  0.0000000E+00;  1.0000000E+04;0.0;0.0;0.0;0.0
  2.1600001E+00;  9.9999998E-03;  3.8000000E-01;930;0.0;0.0;0.0;1000.0;  4.0000001E-01;0.0;0;0.0;0.0;0.0;0;0.0;  1.0000000E+04;  0.0000000E+00;  0.0000000E+00;  1.0000000E+04;  0.0000000E+00;  1.0000000E+04;0.0;0.0;0.0;0.0
  2.1600001E+00;  9.9999998E-03;  4.0000001E-01;931;0.0;0.0;0.0;1000.0;  4.0000001E-01;0.0;0;0.0;0.0;0.0;0;0.0;  1.0000000E+04;  0.0000000E+00;  0.0000000E+00;  1.0000000E+04;  0.0000000E+00;  1.0000000E+04;0.0;0.0;0.0;0.0
  2.1800001E+00;  9.9999998E-03; -1.8000001E-01;932;0.0;0.0;0.0;1000.0;  4.0000001E-01;0.0;0;0.0;0.0;0.0;0;0.0;  1.0000000E+04;  0.0000000E+00;  0.0000000E+00;  1.0000000E+04;  0.0000000E+00;  1.0000000E+04;0.0;0.0;0.0;0.0
  2.1800001E+00;  9.9999998E-03; -1.6000000E-01;933;0.0;0.0;0.0;1000.0;  4.0000001E-01;0.0;0;0.0;0.0;0.0;0;0.0;  1.0000000E+04;  0.0000000E+00;  0.0000000E+00;  1.0000000E+04;  0.0000000E+00;  1.0000000E+04;0.0;0.0;0.0;0.0
  2.1800001E+00;  9.9999998E-03; -1.4000000E-01;934;0.0;0.0;0.0;1000.0;  4.0000001E-01;0.0;0;0.0;0.0;0.0;0;0.0;  1.0000000E+04;  0.0000000E+00;  0.0000000E+00;  1.0000000E+04;  0.0000000E+00;  1.0000000E+04;0.0;0.0;0.0;0.0
  2.1800001E+00;  9.9999998E-03; -1.2000000E-01;935;0.0;0.0;0.0;1000.0;  4.0000001E-01;0.0;0;0.0;0.0;0.0;0;0.0;  1.0000000E+04;  0.0000000E+00;  0.0000000E+00;  1.0000000E+04;  0.0000000E+00;  1.0000000E+04;0.0;0.0;0.0;0.0
  2.1800001E+00;  9.9999998E-03; -1.0000000E-01;936;0.0;0.0;0.0;1000.0;  4.0000001E-01;0.0;0;0.0;0.0;0.0;0;0.0;  1.0000000E+04;  0.0000000E+00;  0.0000000E+00;  1.0000000E+04;  0.0000000E+00;  1.0000000E+04;0.0;0.0;0.0;0.0
  2.1800001E+00;  9.9999998E-03; -7.9999998E-02;937;0.0;0.0;0.0;1000.0;  4.0000001E-01;0.0;0;0.0;0.0;0.0;0;0.0;  1.0000000E+04;  0.0000000E+00;  0.0000000E+00;  1.0000000E+04;  0.0000000E+00;  1.0000000E+04;0.0;0.0;0.0;0.0
  2.1800001E+00;  9.9999998E-03; -5.9999999E-02;938;0.0;0.0;0.0;1000.0;  4.0000001E-01;0.0;0;0.0;0.0;0.0;0;0.0;  1.0000000E+04;  0.0000000E+00;  0.0000000E+00;  1.0000000E+04;  0.0000000E+00;  1.0000000E+04;0.0;0.0;0.0;0.0
  2.1800001E+00;  9.9999998E-03; -3.9999999E-02;939;0.0;0.0;0.0;1000.0;  4.0000001E-01;0.0;0;0.0;0.0;0.0;0;0.0;  1.0000000E+04;  0.0000000E+00;  0.0000000E+00;  1.0000000E+04;  0.0000000E+00;  1.0000000E+04;0.0;0.0;0.0;0.0
  2.1800001E+00;  9.9999998E-03; -2.0000000E-02;940;0.0;0.0;0.0;1000.0;  4.0000001E-01;0.0;0;0.0;0.0;0.0;0;0.0;  1.0000000E+04;  0.0000000E+00;  0.0000000E+00;  1.0000000E+04;  0.0000000E+00;  1.0000000E+04;0.0;0.0;0.0;0.0
  2.1800001E+00;  9.9999998E-03;  0.0000000E+00;941;0.0;0.0;0.0;1000.0;  4.0000001E-01;0.0;0;0.0;0.0;0.0;0;0.0;  1.0000000E+04;  0.0000000E+00;  0.0000000E+00;  1.0000000E+04;  0.0000000E+00;  1.0000000E+04;0.0;0.0;0.0;0.0
  2.1800001E+00;  9.9999998E-03;  2.0000000E-02;942;0.0;0.0;0.0;1000.0;  4.0000001E-01;0.0;0;0.0;0.0;0.0;0;0.0;  1.0000000E+04;  0.0000000E+00;  0.0000000E+00;  1.0000000E+04;  0.0000000E+00;  1.0000000E+04;0.0;0.0;0.0;0.0
  2.1800001E+00;  9.9999998E-03;  3.9999999E-02;943;0.0;0.0;0.0;1000.0;  4.0000001E-01;0.0;0;0.0;0.0;0.0;0;0.0;  1.0000000E+04;  0.0000000E+00;  0.0000000E+00;  1.0000000E+04;  0.0000000E+00;  1.0000000E+04;0.0;0.0;0.0;0.0
  2.1800001E+00;  9.9999998E-03;  5.9999999E-02;944;0.0;0.0;0.0;1000.0;  4.0000001E-01;0.0;0;0.0;0.0;0.0;0;0.0;  1.0000000E+04;  0.0000000E+00;  0.0000000E+00;  1.0000000E+04;  0.0000000E+00;  1.0000000E+04;0.0;0.0;0.0;0.0
  2.1800001E+00;  9.9999998E-03;  7.9999998E-02;945;0.0;0.0;0.0;1000.0;  4.0000001E-01;0.0;0;0.0;0.0;0.0;0;0.0;  1.0000000E+04;  0.0000000E+00;  0.0000000E+00;  1.0000000E+04;  0.0000000E+00;  1.0000000E+04;0.0;0.0;0.0;0.0
  2.1800001E+00;  9.9999998E-03;  1.0000000E-01;946;0.0;0.0;0.0;1000.0;  4.0000001E-01;0.0;0;0.0;0.0;0.0;0;0.0;  1.0000000E+04;  0.0000000E+00;  0.0000000E+00;  1.0000000E+04;  0.0000000E+00;  1.0000000E+04;0.0;0.0;0.0;0.0
  2.1800001E+00;  9.9999998E-03;  1.2000000E-01;947;0.0;0.0;0.0;1000.0;  4.0000001E-01;0.0;0;0.0;0.0;0.0;0;0.0;  1.0000000E+04;  0.0000000E+00;  0.0000000E+00;  1.0000000E+04;  0.0000000E+00;  1.0000000E+04;0.0;0.0;0.0;0.0
  2.1800001E+00;  9.9999998E-03;  1.4000000E-01;948;0.0;0.0;0.0;1000.0;  4.0000001E-01;0.0;0;0.0;0.0;0.0;0;0.0;  1.0000000E+04;  0.0000000E+00;  0.0000000E+00;  1.0000000E+04;  0.0000000E+00;  1.0000000E+04;0.0;0.0;0.0;0.0
  2.1800001E+00;  9.9999998E-03;  1.6000000E-01;949;0.0;0.0;0.0;1000.0;  4.0000001E-01;0.0;0;0.0;0.0;0.0;0;0.0;  1.0000000E+04;  0.0000000E+00;  0.0000000E+00;  1.0000000E+04;  0.0000000E+00;  1.0000000E+04;0.0;0.0;0.0;0.0
  2.1800001E+00;  9.9999998E-03;  1.8000001E-01;950;0.0;0.0;0.0;1000.0;  4.0000001E-01;0.0;0;0.0;0.0;0.0;0;0.0;  1.0000000E+04;  0.0000000E+00;  0.0000000E+00;  1.0000000E+04;  0.0000000E+00;  1.0000000E+04;0.0;0.0;0.0;0.0
  2.1800001E+00;  9.9999998E-03;  2.0000000E-01;951;0.0;0.0;0.0;1000.0;  4.0000001E-01;0.0;0;0.0;0.0;0.0;0;0.0;  1.0000000E+04;  0.0000000E+00;  0.0000000E+00;  1.0000000E+04;  0.0000000E+00;  1.0000000E+04;0.0;0.0;0.0;0.0
  2.1800001E+00;  9.9999998E-03;  2.2000000E-01;952;0.0;0.0;0.0;1000.0;  4.0000001E-01;0.0;0;0.0;0.0;0.0;0;0.0;  1.0000000E+04;  0.0000000E+00;  0.0000000E+00;  1.0000000E+04;  0.0000000E+00;  1.0000000E+04;0.0;0.0;0.0;0.0
  2.1800001E+00;  9.9999998E-03;  2.3999999E-01;953;0.0;0.0;0.0;1000.0;  4.0000001E-01;0.0;0;0.0;0.0;0.0;0;0.0;  1.0000000E+04;  0.0000000E+00;  0.0000000E+00;  1.0000000E+04;  0.0000000E+00;  1.0000000E+04;0.0;0.0;0.0;0.0
  2.1800001E+00;  9.9999998E-03;  2.5999999E-01;954;0.0;0.0;0.0;1000.0;  4.0000001E-01;0.0;0;0.0;0.0;0.0;0;0.0;  1.0000000E+04;  0.0000000E+00;  0.0000000E+00;  1.0000000E+04;  0.0000000E+00;  1.0000000E+04;0.0;0.0;0.0;0.0
  2.1800001E+00;  9.9999998E-03;  2.8000000E-01;955;0.0;0.0;0.0;1000.0;  4.0000001E-01;0.0;0;0.0;0.0;0.0;0;0.0;  1.0000000E+04;  0.0000000E+00;  0.0000000E+00;  1.0000000E+04;  0.0000000E+00;  1.0000000E+04;0.0;0.0;0.0;0.0
  2.1800001E+00;  9.9999998E-03;  3.0000001E-01;956;0.0;0.0;0.0;1000.0;  4.0000001E-01;0.0;0;0.0;0.0;0.0;0;0.0;  1.0000000E+04;  0.0000000E+00;  0.0000000E+00;  1.0000000E+04;  0.0000000E+00;  1.0000000E+04;0.0;0.0;0.0;0.0
  2.1800001E+00;  9.9999998E-03;  3.1999999E-01;957;0.0;0.0;0.0;1000.0;  4.0000001E-01;0.0;0;0.0;0.0;0.0;0;0.0;  1.0000000E+04;  0.0000000E+00;  0.0000000E+00;  1.0000000E+04;  0.0000000E+00;  1.0000000E+04;0.0;0.0;0.0;0.0
  2.1800001E+00;  9.9999998E-03;  3.4000000E-01;958;0.0;0.0;0.0;1000.0;  4.0000001E-01;0.0;0;0.0;0.0;0.0;0;0.0;  1.0000000E+04;  0.0000000E+00;  0.0000000E+00;  1.0000000E+04;  0.0000000E+00;  1.0000000E+04;0.0;0.0;0.0;0.0
  2.1800001E+00;  9.9999998E-03;  3.6000001E-01;959;0.0;0.0;0.0;1000.0;  4.0000001E-01;0.0;0;0.0;0.0;0.0;0;0.0;  1.0000000E+04;  0.0000000E+00;  0.0000000E+00;  1.0000000E+04;  0.0000000E+00;  1.0000000E+04;0.0;0.0;0.0;0.0
  2.1800001E+00;  9.9999998E-03;  3.8000000E-01;960;0.0;0.0;0.0;1000.0;  4.0000001E-01;0.0;0;0.0;0.0;0.0;0;0.0;  1.0000000E+04;  0.0000000E+00;  0.0000000E+00;  1.0000000E+04;  0.0000000E+00;  1.0000000E+04;0.0;0.0;0.0;0.0
  2.1800001E+00;  9.9999998E-03;  4.0000001E-01;961;0.0;0.0;0.0;1000.0;  4.0000001E-01;0.0;0;0.0;0.0;0.0;0;0.0;  1.0000000E+04;  0.0000000E+00;  0.0000000E+00;  1.0000000E+04;  0.0000000E+00;  1.0000000E+04;0.0;0.0;0.0;0.0
  2.2000000E+00;  9.9999998E-03; -7.9999998E-02;962;0.0;0.0;0.0;1000.0;  4.0000001E-01;0.0;0;0.0;0.0;0.0;0;0.0;  1.0000000E+04;  0.0000000E+00;  0.0000000E+00;  1.0000000E+04;  0.0000000E+00;  1.0000000E+04;0.0;0.0;0.0;0.0
  2.2000000E+00;  9.9999998E-03; -5.9999999E-02;963;0.0;0.0;0.0;1000.0;  4.0000001E-01;0.0;0;0.0;0.0;0.0;0;0.0;  1.0000000E+04;  0.0000000E+00;  0.0000000E+00;  1.0000000E+04;  0.0000000E+00;  1.0000000E+04;0.0;0.0;0.0;0.0
  2.2000000E+00;  9.9999998E-03; -3.9999999E-02;964;0.0;0.0;0.0;1000.0;  4.0000001E-01;0.0;0;0.0;0.0;0.0;0;0.0;  1.0000000E+04;  0.0000000E+00;  0.0000000E+00;  1.0000000E+04;  0.0000000E+00;  1.0000000E+04;0.0;0.0;0.0;0.0
  2.2000000E+00;  9.9999998E-03; -2.0000000E-02;965;0.0;0.0;0.0;1000.0;  4.0000001E-01;0.0;0;0.0;0.0;0.0;0;0.0;  1.0000000E+04;  0.0000000E+00;  0.0000000E+00;  1.0000000E+04;  0.0000000E+00;  1.0000000E+04;0.0;0.0;0.0;0.0
  2.2000000E+00;  9.9999998E-03;  0.0000000E+00;966;0.0;0.0;0.0;1000.0;  4.0000001E-01;0.0;0;0.0;0.0;0.0;0;0.0;  1.0000000E+04;  0.0000000E+00;  0.0000000E+00;  1.0000000E+04;  0.0000000E+00;  1.0000000E+04;0.0;0.0;0.0;0.0
  2.2000000E+00;  9.9999998E-03;  2.0000000E-02;967;0.0;0.0;0.0;1000.0;  4.0000001E-01;0.0;0;0.0;0.0;0.0;0;0.0;  1.0000000E+04;  0.0000000E+00;  0.0000000E+00;  1.0000000E+04;  0.0000000E+00;  1.0000000E+04;0.0;0.0;0.0;0.0
  2.2000000E+00;  9.9999998E-03;  3.9999999E-02;968;0.0;0.0;0.0;1000.0;  4.0000001E-01;0.0;0;0.0;0.0;0.0;0;0.0;  1.0000000E+04;  0.0000000E+00;  0.0000000E+00;  1.0000000E+04;  0.0000000E+00;  1.0000000E+04;0.0;0.0;0.0;0.0
  2.2000000E+00;  9.9999998E-03;  5.9999999E-02;969;0.0;0.0;0.0;1000.0;  4.0000001E-01;0.0;0;0.0;0.0;0.0;0;0.0;  1.0000000E+04;  0.0000000E+00;  0.0000000E+00;  1.0000000E+04;  0.0000000E+00;  1.0000000E+04;0.0;0.0;0.0;0.0
  2.2000000E+00;  9.9999998E-03;  7.9999998E-02;970;0.0;0.0;0.0;1000.0;  4.0000001E-01;0.0;0;0.0;0.0;0.0;0;0.0;  1.0000000E+04;  0.0000000E+00;  0.0000000E+00;  1.0000000E+04;  0.0000000E+00;  1.0000000E+04;0.0;0.0;0.0;0.0
  2.2000000E+00;  9.9999998E-03;  1.0000000E-01;971;0.0;0.0;0.0;1000.0;  4.0000001E-01;0.0;0;0.0;0.0;0.0;0;0.0;  1.0000000E+04;  0.0000000E+00;  0.0000000E+00;  1.0000000E+04;  0.0000000E+00;  1.0000000E+04;0.0;0.0;0.0;0.0
  2.2000000E+00;  9.9999998E-03;  1.2000000E-01;972;0.0;0.0;0.0;1000.0;  4.0000001E-01;0.0;0;0.0;0.0;0.0;0;0.0;  1.0000000E+04;  0.0000000E+00;  0.0000000E+00;  1.0000000E+04;  0.0000000E+00;  1.0000000E+04;0.0;0.0;0.0;0.0
  2.2000000E+00;  9.9999998E-03;  1.4000000E-01;973;0.0;0.0;0.0;1000.0;  4.0000001E-01;0.0;0;0.0;0.0;0.0;0;0.0;  1.0000000E+04;  0.0000000E+00;  0.0000000E+00;  1.0000000E+04;  0.0000000E+00;  1.0000000E+04;0.0;0.0;0.0;0.0
  2.2000000E+00;  9.9999998E-03;  1.6000000E-01;974;0.0;0.0;0.0;1000.0;  4.0000001E-01;0.0;0;0.0;0.0;0.0;0;0.0;  1.0000000E+04;  0.0000000E+00;  0.0000000E+00;  1.0000000E+04;  0.0000000E+00;  1.0000000E+04;0.0;0.0;0.0;0.0
  2.2000000E+00;  9.9999998E-03;  1.8000001E-01;975;0.0;0.0;0.0;1000.0;  4.0000001E-01;0.0;0;0.0;0.0;0.0;0;0.0;  1.0000000E+04;  0.0000000E+00;  0.0000000E+00;  1.0000000E+04;  0.0000000E+00;  1.0000000E+04;0.0;0.0;0.0;0.0
  2.2000000E+00;  9.9999998E-03;  2.0000000E-01;976;0.0;0.0;0.0;1000.0;  4.0000001E-01;0.0;0;0.0;0.0;0.0;0;0.0;  1.0000000E+04;  0.0000000E+00;  0.0000000E+00;  1.0000000E+04;  0.0000000E+00;  1.0000000E+04;0.0;0.0;0.0;0.0
  2.2000000E+00;  9.9999998E-03;  2.2000000E-01;977;0.0;0.0;0.0;1000.0;  4.0000001E-01;0.0;0;0.0;0.0;0.0;0;0.0;  1.0000000E+04;  0.0000000E+00;  0.0000000E+00;  1.0000000E+04;  0.0000000E+00;  1.0000000E+04;0.0;0.0;0.0;0.0
  2.2000000E+00;  9.9999998E-03;  2.3999999E-01;978;0.0;0.0;0.0;1000.0;  4.0000001E-01;0.0;0;0.0;0.0;0.0;0;0.0;  1.0000000E+04;  0.0000000E+00;  0.0000000E+00;  1.0000000E+04;  0.0000000E+00;  1.0000000E+04;0.0;0.0;0.0;0.0
  2.2000000E+00;  9.9999998E-03;  2.5999999E-01;979;0.0;0.0;0.0;1000.0;  4.0000001E-01;0.0;0;0.0;0.0;0.0;0;0.0;  1.0000000E+04;  0.0000000E+00;  0.0000000E+00;  1.0000000E+04;  0.0000000E+00;  1.0000000E+04;0.0;0.0;0.0;0.0
  2.2000000E+00;  9.9999998E-03;  2.8000000E-01;980;0.0;0.0;0.0;1000.0;  4.0000001E-01;0.0;0;0.0;0.0;0.0;0;0.0;  1.0000000E+04;  0.0000000E+00;  0.0000000E+00;  1.0000000E+04;  0.0000000E+00;  1.0000000E+04;0.0;0.0;0.0;0.0
  2.2000000E+00;  9.9999998E-03;  3.0000001E-01;981;0.0;0.0;0.0;1000.0;  4.0000001E-01;0.0;0;0.0;0.0;0.0;0;0.0;  1.0000000E+04;  0.0000000E+00;  0.0000000E+00;  1.0000000E+04;  0.0000000E+00;  1.0000000E+04;0.0;0.0;0.0;0.0
  2.2000000E+00;  9.9999998E-03;  3.1999999E-01;982;0.0;0.0;0.0;1000.0;  4.0000001E-01;0.0;0;0.0;0.0;0.0;0;0.0;  1.0000000E+04;  0.0000000E+00;  0.0000000E+00;  1.0000000E+04;  0.0000000E+00;  1.0000000E+04;0.0;0.0;0.0;0.0
  2.2000000E+00;  9.9999998E-03;  3.4000000E-01;983;0.0;0.0;0.0;1000.0;  4.0000001E-01;0.0;0;0.0;0.0;0.0;0;0.0;  1.0000000E+04;  0.0000000E+00;  0.0000000E+00;  1.0000000E+04;  0.0000000E+00;  1.0000000E+04;0.0;0.0;0.0;0.0
  2.2000000E+00;  9.9999998E-03;  3.6000001E-01;984;0.0;0.0;0.0;1000.0;  4.0000001E-01;0.0;0;0.0;0.0;0.0;0;0.0;  1.0000000E+04;  0.0000000E+00;  0.0000000E+00;  1.0000000E+04;  0.0000000E+00;  1.0000000E+04;0.0;0.0;0.0;0.0
  2.2000000E+00;  9.9999998E-03;  3.8000000E-01;985;0.0;0.0;0.0;1000.0;  4.0000001E-01;0.0;0;0.0;0.0;0.0;0;0.0;  1.0000000E+04;  0.0000000E+00;  0.0000000E+00;  1.0000000E+04;  0.0000000E+00;  1.0000000E+04;0.0;0.0;0.0;0.0
  2.2200000E+00;  9.9999998E-03;  2.0000000E-02;986;0.0;0.0;0.0;1000.0;  4.0000001E-01;0.0;0;0.0;0.0;0.0;0;0.0;  1.0000000E+04;  0.0000000E+00;  0.0000000E+00;  1.0000000E+04;  0.0000000E+00;  1.0000000E+04;0.0;0.0;0.0;0.0
  2.2200000E+00;  9.9999998E-03;  3.9999999E-02;987;0.0;0.0;0.0;1000.0;  4.0000001E-01;0.0;0;0.0;0.0;0.0;0;0.0;  1.0000000E+04;  0.0000000E+00;  0.0000000E+00;  1.0000000E+04;  0.0000000E+00;  1.0000000E+04;0.0;0.0;0.0;0.0
  2.2200000E+00;  9.9999998E-03;  5.9999999E-02;988;0.0;0.0;0.0;1000.0;  4.0000001E-01;0.0;0;0.0;0.0;0.0;0;0.0;  1.0000000E+04;  0.0000000E+00;  0.0000000E+00;  1.0000000E+04;  0.0000000E+00;  1.0000000E+04;0.0;0.0;0.0;0.0
  2.2200000E+00;  9.9999998E-03;  7.9999998E-02;989;0.0;0.0;0.0;1000.0;  4.0000001E-01;0.0;0;0.0;0.0;0.0;0;0.0;  1.0000000E+04;  0.0000000E+00;  0.0000000E+00;  1.0000000E+04;  0.0000000E+00;  1.0000000E+04;0.0;0.0;0.0;0.0
  2.2200000E+00;  9.9999998E-03;  1.0000000E-01;990;0.0;0.0;0.0;1000.0;  4.0000001E-01;0.0;0;0.0;0.0;0.0;0;0.0;  1.0000000E+04;  0.0000000E+00;  0.0000000E+00;  1.0000000E+04;  0.0000000E+00;  1.0000000E+04;0.0;0.0;0.0;0.0
  2.2200000E+00;  9.9999998E-03;  1.2000000E-01;991;0.0;0.0;0.0;1000.0;  4.0000001E-01;0.0;0;0.0;0.0;0.0;0;0.0;  1.0000000E+04;  0.0000000E+00;  0.0000000E+00;  1.0000000E+04;  0.0000000E+00;  1.0000000E+04;0.0;0.0;0.0;0.0
  2.2200000E+00;  9.9999998E-03;  1.4000000E-01;992;0.0;0.0;0.0;1000.0;  4.0000001E-01;0.0;0;0.0;0.0;0.0;0;0.0;  1.0000000E+04;  0.0000000E+00;  0.0000000E+00;  1.0000000E+04;  0.0000000E+00;  1.0000000E+04;0.0;0.0;0.0;0.0
  2.2200000E+00;  9.9999998E-03;  1.6000000E-01;993;0.0;0.0;0.0;1000.0;  4.0000001E-01;0.0;0;0.0;0.0;0.0;0;0.0;  1.0000000E+04;  0.0000000E+00;  0.0000000E+00;  1.0000000E+04;  0.0000000E+00;  1.0000000E+04;0.0;0.0;0.0;0.0
  2.2200000E+00;  9.9999998E-03;  1.8000001E-01;994;0.0;0.0;0.0;1000.0;  4.0000001E-01;0.0;0;0.0;0.0;0.0;0;0.0;  1.0000000E+04;  0.0000000E+00;  0.0000000E+00;  1.0000000E+04;  0.0000000E+00;  1.0000000E+04;0.0;0.0;0.0;0.0
  2.2200000E+00;  9.9999998E-03;  2.0000000E-01;995;0.0;0.0;0.0;1000.0;  4.0000001E-01;0.0;0;0.0;0.0;0.0;0;0.0;  1.0000000E+04;  0.0000000E+00;  0.0000000E+00;  1.0000000E+04;  0.0000000E+00;  1.0000000E+04;0.0;0.0;0.0;0.0
  2.2200000E+00;  9.9999998E-03;  2.2000000E-01;996;0.0;0.0;0.0;1000.0;  4.0000001E-01;0.0;0;0.0;0.0;0.0;0;0.0;  1.0000000E+04;  0.0000000E+00;  0.0000000E+00;  1.0000000E+04;  0.0000000E+00;  1.0000000E+04;0.0;0.0;0.0;0.0
  2.2200000E+00;  9.9999998E-03;  2.3999999E-01;997;0.0;0.0;0.0;1000.0;  4.0000001E-01;0.0;0;0.0;0.0;0.0;0;0.0;  1.0000000E+04;  0.0000000E+00;  0.0000000E+00;  1.0000000E+04;  0.0000000E+00;  1.0000000E+04;0.0;0.0;0.0;0.0
  2.2200000E+00;  9.9999998E-03;  2.5999999E-01;998;0.0;0.0;0.0;1000.0;  4.0000001E-01;0.0;0;0.0;0.0;0.0;0;0.0;  1.0000000E+04;  0.0000000E+00;  0.0000000E+00;  1.0000000E+04;  0.0000000E+00;  1.0000000E+04;0.0;0.0;0.0;0.0
  2.2200000E+00;  9.9999998E-03;  2.8000000E-01;999;0.0;0.0;0.0;1000.0;  4.0000001E-01;0.0;0;0.0;0.0;0.0;0;0.0;  1.0000000E+04;  0.0000000E+00;  0.0000000E+00;  1.0000000E+04;  0.0000000E+00;  1.0000000E+04;0.0;0.0;0.0;0.0
  2.2200000E+00;  9.9999998E-03;  3.0000001E-01;1000;0.0;0.0;0.0;1000.0;  4.0000001E-01;0.0;0;0.0;0.0;0.0;0;0.0;  1.0000000E+04;  0.0000000E+00;  0.0000000E+00;  1.0000000E+04;  0.0000000E+00;  1.0000000E+04;0.0;0.0;0.0;0.0
  2.2200000E+00;  9.9999998E-03;  3.1999999E-01;1001;0.0;0.0;0.0;1000.0;  4.0000001E-01;0.0;0;0.0;0.0;0.0;0;0.0;  1.0000000E+04;  0.0000000E+00;  0.0000000E+00;  1.0000000E+04;  0.0000000E+00;  1.0000000E+04;0.0;0.0;0.0;0.0
  2.2200000E+00;  9.9999998E-03;  3.4000000E-01;1002;0.0;0.0;0.0;1000.0;  4.0000001E-01;0.0;0;0.0;0.0;0.0;0;0.0;  1.0000000E+04;  0.0000000E+00;  0.0000000E+00;  1.0000000E+04;  0.0000000E+00;  1.0000000E+04;0.0;0.0;0.0;0.0
  2.2200000E+00;  9.9999998E-03;  3.6000001E-01;1003;0.0;0.0;0.0;1000.0;  4.0000001E-01;0.0;0;0.0;0.0;0.0;0;0.0;  1.0000000E+04;  0.0000000E+00;  0.0000000E+00;  1.0000000E+04;  0.0000000E+00;  1.0000000E+04;0.0;0.0;0.0;0.0
  2.2200000E+00;  9.9999998E-03;  3.8000000E-01;1004;0.0;0.0;0.0;1000.0;  4.0000001E-01;0.0;0;0.0;0.0;0.0;0;0.0;  1.0000000E+04;  0.0000000E+00;  0.0000000E+00;  1.0000000E+04;  0.0000000E+00;  1.0000000E+04;0.0;0.0;0.0;0.0
  2.2400000E+00;  9.9999998E-03;  1.2000000E-01;1005;0.0;0.0;0.0;1000.0;  4.0000001E-01;0.0;0;0.0;0.0;0.0;0;0.0;  1.0000000E+04;  0.0000000E+00;  0.0000000E+00;  1.0000000E+04;  0.0000000E+00;  1.0000000E+04;0.0;0.0;0.0;0.0
  2.2400000E+00;  9.9999998E-03;  1.4000000E-01;1006;0.0;0.0;0.0;1000.0;  4.0000001E-01;0.0;0;0.0;0.0;0.0;0;0.0;  1.0000000E+04;  0.0000000E+00;  0.0000000E+00;  1.0000000E+04;  0.0000000E+00;  1.0000000E+04;0.0;0.0;0.0;0.0
  2.2400000E+00;  9.9999998E-03;  1.6000000E-01;1007;0.0;0.0;0.0;1000.0;  4.0000001E-01;0.0;0;0.0;0.0;0.0;0;0.0;  1.0000000E+04;  0.0000000E+00;  0.0000000E+00;  1.0000000E+04;  0.0000000E+00;  1.0000000E+04;0.0;0.0;0.0;0.0
  2.2400000E+00;  9.9999998E-03;  1.8000001E-01;1008;0.0;0.0;0.0;1000.0;  4.0000001E-01;0.0;0;0.0;0.0;0.0;0;0.0;  1.0000000E+04;  0.0000000E+00;  0.0000000E+00;  1.0000000E+04;  0.0000000E+00;  1.0000000E+04;0.0;0.0;0.0;0.0
  2.2400000E+00;  9.9999998E-03;  2.0000000E-01;1009;0.0;0.0;0.0;1000.0;  4.0000001E-01;0.0;0;0.0;0.0;0.0;0;0.0;  1.0000000E+04;  0.0000000E+00;  0.0000000E+00;  1.0000000E+04;  0.0000000E+00;  1.0000000E+04;0.0;0.0;0.0;0.0
  2.2400000E+00;  9.9999998E-03;  2.2000000E-01;1010;0.0;0.0;0.0;1000.0;  4.0000001E-01;0.0;0;0.0;0.0;0.0;0;0.0;  1.0000000E+04;  0.0000000E+00;  0.0000000E+00;  1.0000000E+04;  0.0000000E+00;  1.0000000E+04;0.0;0.0;0.0;0.0
  2.2400000E+00;  9.9999998E-03;  2.3999999E-01;1011;0.0;0.0;0.0;1000.0;  4.0000001E-01;0.0;0;0.0;0.0;0.0;0;0.0;  1.0000000E+04;  0.0000000E+00;  0.0000000E+00;  1.0000000E+04;  0.0000000E+00;  1.0000000E+04;0.0;0.0;0.0;0.0
  2.2400000E+00;  9.9999998E-03;  2.5999999E-01;1012;0.0;0.0;0.0;1000.0;  4.0000001E-01;0.0;0;0.0;0.0;0.0;0;0.0;  1.0000000E+04;  0.0000000E+00;  0.0000000E+00;  1.0000000E+04;  0.0000000E+00;  1.0000000E+04;0.0;0.0;0.0;0.0
  2.2400000E+00;  9.9999998E-03;  2.8000000E-01;1013;0.0;0.0;0.0;1000.0;  4.0000001E-01;0.0;0;0.0;0.0;0.0;0;0.0;  1.0000000E+04;  0.0000000E+00;  0.0000000E+00;  1.0000000E+04;  0.0000000E+00;  1.0000000E+04;0.0;0.0;0.0;0.0
  2.2400000E+00;  9.9999998E-03;  3.0000001E-01;1014;0.0;0.0;0.0;1000.0;  4.0000001E-01;0.0;0;0.0;0.0;0.0;0;0.0;  1.0000000E+04;  0.0000000E+00;  0.0000000E+00;  1.0000000E+04;  0.0000000E+00;  1.0000000E+04;0.0;0.0;0.0;0.0
  2.2400000E+00;  9.9999998E-03;  3.1999999E-01;1015;0.0;0.0;0.0;1000.0;  4.0000001E-01;0.0;0;0.0;0.0;0.0;0;0.0;  1.0000000E+04;  0.0000000E+00;  0.0000000E+00;  1.0000000E+04;  0.0000000E+00;  1.0000000E+04;0.0;0.0;0.0;0.0
  2.2400000E+00;  9.9999998E-03;  3.4000000E-01;1016;0.0;0.0;0.0;1000.0;  4.0000001E-01;0.0;0;0.0;0.0;0.0;0;0.0;  1.0000000E+04;  0.0000000E+00;  0.0000000E+00;  1.0000000E+04;  0.0000000E+00;  1.0000000E+04;0.0;0.0;0.0;0.0
  2.2400000E+00;  9.9999998E-03;  3.6000001E-01;1017;0.0;0.0;0.0;1000.0;  4.0000001E-01;0.0;0;0.0;0.0;0.0;0;0.0;  1.0000000E+04;  0.0000000E+00;  0.0000000E+00;  1.0000000E+04;  0.0000000E+00;  1.0000000E+04;0.0;0.0;0.0;0.0
  2.2400000E+00;  9.9999998E-03;  3.8000000E-01;1018;0.0;0.0;0.0;1000.0;  4.0000001E-01;0.0;0;0.0;0.0;0.0;0;0.0;  1.0000000E+04;  0.0000000E+00;  0.0000000E+00;  1.0000000E+04;  0.0000000E+00;  1.0000000E+04;0.0;0.0;0.0;0.0
  2.2600000E+00;  9.9999998E-03;  2.2000000E-01;1019;0.0;0.0;0.0;1000.0;  4.0000001E-01;0.0;0;0.0;0.0;0.0;0;0.0;  1.0000000E+04;  0.0000000E+00;  0.0000000E+00;  1.0000000E+04;  0.0000000E+00;  1.0000000E+04;0.0;0.0;0.0;0.0
  2.2600000E+00;  9.9999998E-03;  2.3999999E-01;1020;0.0;0.0;0.0;1000.0;  4.0000001E-01;0.0;0;0.0;0.0;0.0;0;0.0;  1.0000000E+04;  0.0000000E+00;  0.0000000E+00;  1.0000000E+04;  0.0000000E+00;  1.0000000E+04;0.0;0.0;0.0;0.0
  2.2600000E+00;  9.9999998E-03;  2.5999999E-01;1021;0.0;0.0;0.0;1000.0;  4.0000001E-01;0.0;0;0.0;0.0;0.0;0;0.0;  1.0000000E+04;  0.0000000E+00;  0.0000000E+00;  1.0000000E+04;  0.0000000E+00;  1.0000000E+04;0.0;0.0;0.0;0.0
  2.2600000E+00;  9.9999998E-03;  2.8000000E-01;1022;0.0;0.0;0.0;1000.0;  4.0000001E-01;0.0;0;0.0;0.0;0.0;0;0.0;  1.0000000E+04;  0.0000000E+00;  0.0000000E+00;  1.0000000E+04;  0.0000000E+00;  1.0000000E+04;0.0;0.0;0.0;0.0
  2.2600000E+00;  9.9999998E-03;  3.0000001E-01;1023;0.0;0.0;0.0;1000.0;  4.0000001E-01;0.0;0;0.0;0.0;0.0;0;0.0;  1.0000000E+04;  0.0000000E+00;  0.0000000E+00;  1.0000000E+04;  0.0000000E+00;  1.0000000E+04;0.0;0.0;0.0;0.0
  2.2600000E+00;  9.9999998E-03;  3.1999999E-01;1024;0.0;0.0;0.0;1000.0;  4.0000001E-01;0.0;0;0.0;0.0;0.0;0;0.0;  1.0000000E+04;  0.0000000E+00;  0.0000000E+00;  1.0000000E+04;  0.0000000E+00;  1.0000000E+04;0.0;0.0;0.0;0.0
  2.2600000E+00;  9.9999998E-03;  3.4000000E-01;1025;0.0;0.0;0.0;1000.0;  4.0000001E-01;0.0;0;0.0;0.0;0.0;0;0.0;  1.0000000E+04;  0.0000000E+00;  0.0000000E+00;  1.0000000E+04;  0.0000000E+00;  1.0000000E+04;0.0;0.0;0.0;0.0
  2.2600000E+00;  9.9999998E-03;  3.6000001E-01;1026;0.0;0.0;0.0;1000.0;  4.0000001E-01;0.0;0;0.0;0.0;0.0;0;0.0;  1.0000000E+04;  0.0000000E+00;  0.0000000E+00;  1.0000000E+04;  0.0000000E+00;  1.0000000E+04;0.0;0.0;0.0;0.0
  2.2600000E+00;  9.9999998E-03;  3.8000000E-01;1027;0.0;0.0;0.0;1000.0;  4.0000001E-01;0.0;0;0.0;0.0;0.0;0;0.0;  1.0000000E+04;  0.0000000E+00;  0.0000000E+00;  1.0000000E+04;  0.0000000E+00;  1.0000000E+04;0.0;0.0;0.0;0.0
  2.2800000E+00;  9.9999998E-03;  3.1999999E-01;1028;0.0;0.0;0.0;1000.0;  4.0000001E-01;0.0;0;0.0;0.0;0.0;0;0.0;  1.0000000E+04;  0.0000000E+00;  0.0000000E+00;  1.0000000E+04;  0.0000000E+00;  1.0000000E+04;0.0;0.0;0.0;0.0
  2.2800000E+00;  9.9999998E-03;  3.4000000E-01;1029;0.0;0.0;0.0;1000.0;  4.0000001E-01;0.0;0;0.0;0.0;0.0;0;0.0;  1.0000000E+04;  0.0000000E+00;  0.0000000E+00;  1.0000000E+04;  0.0000000E+00;  1.0000000E+04;0.0;0.0;0.0;0.0
  2.2800000E+00;  9.9999998E-03;  3.6000001E-01;1030;0.0;0.0;0.0;1000.0;  4.0000001E-01;0.0;0;0.0;0.0;0.0;0;0.0;  1.0000000E+04;  0.0000000E+00;  0.0000000E+00;  1.0000000E+04;  0.0000000E+00;  1.0000000E+04;0.0;0.0;0.0;0.0
 -2.4651511E-12;  9.9999998E-03; -2.8000000E-01;1031;-1.756251e-08;0.0;-5.496072e-09;1000.0;  4.0000001E-01;0.0;3;-6.443559e-05;0.0;-2.0261559e-05;0;-3.2885387e-07;  1.0000000E+04;  0.0000000E+00;  4.9159467E-15;  1.0000000E+04;  0.0000000E+00;  1.0000000E+04;-3.1513565e-07;0.0;-1.3718234e-08;3.2304615e-06
 -3.0514046E-12;  9.9999998E-03; -2.5999999E-01;1032;-2.1722222e-08;0.0;-5.1256452e-09;1000.0;  4.0000001E-01;0.0;3;-7.9641635e-05;0.0;-1.8907489e-05;0;-4.0353262e-07;  1.0000000E+04;  0.0000000E+00; -8.8452792E-16;  1.0000000E+04;  0.0000000E+00;  1.0000000E+04;-3.9998605e-07;0.0;-3.5465775e-09;1.060949e-06
 -3.5542550E-12;  9.9999998E-03; -2.3999999E-01;1033;-2.5294437e-08;0.0;-4.6044835e-09;1000.0;  4.0000001E-01;0.0;3;-9.2705443e-05;0.0;-1.7005181e-05;0;-4.693639e-07;  1.0000000E+04;  0.0000000E+00;  9.9322999E-16;  1.0000000E+04;  0.0000000E+00;  1.0000000E+04;-4.7490741e-07;0.0;5.5435141e-09;4.747561e-06
 -3.9786395E-12;  9.9999998E-03; -2.2000000E-01;1034;-2.8317881e-08;0.0;-4.0000265e-09;1000.0;  4.0000001E-01;0.0;3;-0.00010378029;0.0;-1.4793116e-05;0;-5.2539718e-07;  1.0000000E+04;  0.0000000E+00;  1.6331544E-14;  1.0000000E+04;  0.0000000E+00;  1.0000000E+04;-5.368758e-07;0.0;1.1478608e-08;7.0232231e-06
 -4.3298503E-12;  9.9999998E-03; -2.0000000E-01;1035;-3.0828588e-08;0.0;-3.3923901e-09;1000.0;  4.0000001E-01;0.0;3;-0.00011299604;0.0;-1.256589e-05;0;-5.7242283e-07;  1.0000000E+04;  0.0000000E+00; -1.0356980E-14;  1.0000000E+04;  0.0000000E+00;  1.0000000E+04;-5.8640461e-07;0.0;1.3981769e-08;7.8599269e-06
  2.0000000E-02;  9.9999998E-03; -3.0000001E-01;1060;-2.4238052e-08;0.0;-1.0449721e-08;1000.0;  4.0000001E-01;0.0;3;-8.8256696e-05;0.0;-3.8242844e-05;0;-4.7090165e-07;  1.0000000E+04;  0.0000000E+00;  1.3194146E-14;  1.0000000E+04;  0.0000000E+00;  1.0000000E+04;-4.2742639e-07;0.0;-4.3475257e-08;1.5612546e-05
  2.0000000E-02;  9.9999998E-03; -2.8000000E-01;1061;-3.3058416e-08;0.0;-1.0286153e-08;1000.0;  4.0000001E-01;0.0;3;-0.0001202181;0.0;-3.7625003e-05;0;-6.1553914e-07;  1.0000000E+04;  0.0000000E+00;  1.1514402E-14;  1.0000000E+04;  0.0000000E+00;  1.0000000E+04;-5.8872951e-07;0.0;-2.6809655e-08;7.3208735e-06
  2.0000000E-02;  9.9999998E-03; -2.5999999E-01;1062;-4.0879481e-08;0.0;-9.5896109e-09;1000.0;  4.0000001E-01;0.0;3;-0.00014851576;0.0;-3.5103367e-05;0;-7.5168339e-07;  1.0000000E+04;  0.0000000E+00; -9.2325973E-15;  1.0000000E+04;  0.0000000E+00;  1.0000000E+04;-7.4509569e-07;0.0;-6.5876997e-09;2.2760794e-06
  2.0000000E-02;  9.9999998E-03; -2.3999999E-01;1063;-4.7510472e-08;0.0;-8.6181302e-09;1000.0;  4.0000001E-01;0.0;3;-0.00017250987;0.0;-3.1595217e-05;0;-8.7108879e-07;  1.0000000E+04;  0.0000000E+00;  4.7621954E-15;  1.0000000E+04;  0.0000000E+00;  1.0000000E+04;-8.8243394e-07;0.0;1.134516e-08;1.0490505e-05
  2.0000000E-02;  9.9999998E-03; -2.2000000E-01;1064;-5.3075549e-08;0.0;-7.4930826e-09;1000.0;  4.0000001E-01;0.0;3;-0.00019268539;0.0;-2.751986e-05;0;-9.7238944e-07;  1.0000000E+04;  0.0000000E+00;  3.1353602E-14;  1.0000000E+04;  0.0000000E+00;  1.0000000E+04;-9.9538477e-07;0.0;2.2995302e-08;1.5549791e-05
  2.0000000E-02;  9.9999998E-03; -2.0000000E-01;1065;-5.7668835e-08;0.0;-6.3634138e-09;1000.0;  4.0000001E-01;0.0;3;-0.00020938148;0.0;-2.3420005e-05;0;-1.0573001e-06;  1.0000000E+04;  0.0000000E+00;  8.6482208E-15;  1.0000000E+04;  0.0000000E+00;  1.0000000E+04;-1.0851636e-06;0.0;2.7863511e-08;1.7395292e-05
  3.9999999E-02;  9.9999998E-03; -3.0000001E-01;1091;-4.4894112e-08;0.0;-1.9037579e-08;1000.0;  4.0000001E-01;0.0;3;-0.00016175906;0.0;-6.8973954e-05;0;-8.6568946e-07;  1.0000000E+04;  0.0000000E+00;  3.9514429E-14;  1.0000000E+04;  0.0000000E+00;  1.0000000E+04;-7.8275076e-07;0.0;-8.2938698e-08;3.4017368e-05
  3.9999999E-02;  9.9999998E-03; -2.8000000E-01;1092;-6.0934731e-08;0.0;-1.8809731e-08;1000.0;  4.0000001E-01;0.0;3;-0.00021914361;0.0;-6.8106354e-05;0;-1.1261327e-06;  1.0000000E+04;  0.0000000E+00;  8.2986435E-15;  1.0000000E+04;  0.0000000E+00;  1.0000000E+04;-1.0754003e-06;0.0;-5.0732453e-08;1.6030737e-05
  3.9999999E-02;  9.9999998E-03; -2.5999999E-01;1093;-7.5045783e-08;0.0;-1.7469263e-08;1000.0;  4.0000001E-01;0.0;3;-0.00026950784;0.0;-6.3303356e-05;0;-1.3695545e-06;  1.0000000E+04;  0.0000000E+00; -1.7342192E-14;  1.0000000E+04;  0.0000000E+00;  1.0000000E+04;-1.3575676e-06;0.0;-1.1986901e-08;4.7021276e-06
  3.9999999E-02;  9.9999998E-03; -2.3999999E-01;1094;-8.6959936e-08;0.0;-1.5665231e-08;1000.0;  4.0000001E-01;0.0;3;-0.00031202889;0.0;-5.6872246e-05;0;-1.5816338e-06;  1.0000000E+04;  0.0000000E+00;  1.6268452E-14;  1.0000000E+04;  0.0000000E+00;  1.0000000E+04;-1.6038118e-06;0.0;2.2177986e-08;2.239885e-05
  3.9999999E-02;  9.9999998E-03; -2.2000000E-01;1095;-9.6899342e-08;0.0;-1.3608912e-08;1000.0;  4.0000001E-01;0.0;3;-0.00034758265;0.0;-4.9519633e-05;0;-1.7606635e-06;  1.0000000E+04;  0.0000000E+00;  1.5394947E-14;  1.0000000E+04;  0.0000000E+00;  1.0000000E+04;-1.8049394e-06;0.0;4.4275851e-08;3.327541e-05
  3.9999999E-02;  9.9999998E-03; -2.0000000E-01;1096;-1.0505852e-07;0.0;-1.1554073e-08;1000.0;  4.0000001E-01;0.0;3;-0.00037686361;0.0;-4.2156691e-05;0;-1.9103147e-06;  1.0000000E+04;  0.0000000E+00;  2.5478097E-14;  1.0000000E+04;  0.0000000E+00;  1.0000000E+04;-1.9637446e-06;0.0;5.3429837e-08;3.7212369e-05
  5.9999999E-02;  9.9999998E-03; -3.0000001E-01;1122;-8.1171542e-08;0.0;-3.4034439e-08;1000.0;  4.0000001E-01;0.0;3;-0.00028869879;0.0;-0.00012175512;0;-1.5616423e-06;  1.0000000E+04;  0.0000000E+00; -4.1005182E-11;  1.0000000E+04;  0.0000000E+00;  1.0000000E+04;-1.4079349e-06;0.0;-1.537074e-07;7.1737159e-05
  5.9999999E-02;  9.9999998E-03; -2.8000000E-01;1123;-1.0976901e-07;0.0;-3.356708e-08;1000.0;  4.0000001E-01;0.0;3;-0.00038941781;0.0;-0.00011997797;0;-2.0222396e-06;  1.0000000E+04;  0.0000000E+00; -1.1176960E-11;  1.0000000E+04;  0.0000000E+00;  1.0000000E+04;-1.928775e-06;0.0;-9.3464564e-08;3.395601e-05
  5.9999999E-02;  9.9999998E-03; -2.5999999E-01;1124;-1.3467486e-07;0.0;-3.1104772e-08;1000.0;  4.0000001E-01;0.0;3;-0.00047683131;0.0;-0.00011127628;0;-2.4493393e-06;  1.0000000E+04;  0.0000000E+00; -5.8845797E-15;  1.0000000E+04;  0.0000000E+00;  1.0000000E+04;-2.4280218e-06;0.0;-2.1317387e-08;9.4771012e-06
  5.9999999E-02;  9.9999998E-03; -2.3999999E-01;1125;-1.5554403e-07;0.0;-2.783192e-08;1000.0;  4.0000001E-01;0.0;3;-0.00055004534;0.0;-9.9791745e-05;0;-2.8186282e-06;  1.0000000E+04;  0.0000000E+00;  2.9730331E-14;  1.0000000E+04;  0.0000000E+00;  1.0000000E+04;-2.8606298e-06;0.0;4.2001567e-08;4.6446181e-05
  5.9999999E-02;  9.9999998E-03; -2.2000000E-01;1126;-1.7282936e-07;0.0;-2.4154314e-08;1000.0;  4.0000001E-01;0.0;3;-0.00061084121;0.0;-8.6852473e-05;0;-3.1284364e-06;  1.0000000E+04;  0.0000000E+00; -3.3047824E-14;  1.0000000E+04;  0.0000000E+00;  1.0000000E+04;-3.2112114e-06;0.0;8.2774967e-08;6.9105503e-05
  5.9999999E-02;  9.9999998E-03; -2.0000000E-01;1127;-1.8693977e-07;0.0;-2.0488223e-08;1000.0;  4.0000001E-01;0.0;3;-0.00066066498;0.0;-7.3921576e-05;0;-3.3863876e-06;  1.0000000E+04;  0.0000000E+00;  1.1910640E-14;  1.0000000E+04;  0.0000000E+00;  1.0000000E+04;-3.4858992e-06;0.0;9.9511794e-08;7.7230558e-05
  7.9999998E-02;  9.9999998E-03; -3.0000001E-01;1153;-1.4401918e-07;0.0;-5.9798154e-08;1000.0;  4.0000001E-01;0.0;3;-0.00050437188;0.0;-0.00021063515;0;-2.7785211e-06;  1.0000000E+04;  0.0000000E+00; -6.3919545E-09;  1.0000000E+04;  0.0000000E+00;  1.0000000E+04;-2.5004522e-06;0.0;-2.7806885e-07;0.00014695915
  7.9999998E-02;  9.9999998E-03; -2.8000000E-01;1154;-1.9405255e-07;0.0;-5.873726e-08;1000.0;  4.0000001E-01;0.0;3;-0.00067737018;0.0;-0.0002066382;0;-3.5745379e-06;  1.0000000E+04;  0.0000000E+00; -3.7769032E-09;  1.0000000E+04;  0.0000000E+00;  1.0000000E+04;-3.4066138e-06;0.0;-1.679241e-07;6.9681373e-05
  7.9999998E-02;  9.9999998E-03; -2.5999999E-01;1155;-2.3720676e-07;0.0;-5.425834e-08;1000.0;  4.0000001E-01;0.0;3;-0.0008258642;0.0;-0.000191064;0;-4.305894e-06;  1.0000000E+04;  0.0000000E+00; -1.4062480E-09;  1.0000000E+04;  0.0000000E+00;  1.0000000E+04;-4.2692577e-06;0.0;-3.6636241e-08;1.9043269e-05
  7.9999998E-02;  9.9999998E-03; -2.3999999E-01;1156;-2.7304901e-07;0.0;-4.8427268e-08;1000.0;  4.0000001E-01;0.0;3;-0.00094906881;0.0;-0.00017098036;0;-4.9343089e-06;  1.0000000E+04;  0.0000000E+00; -1.6589048E-10;  1.0000000E+04;  0.0000000E+00;  1.0000000E+04;-5.0122376e-06;0.0;7.7928476e-08;9.3911891e-05
  7.9999998E-02;  9.9999998E-03; -2.2000000E-01;1157;-3.024762e-07;0.0;-4.1980691e-08;1000.0;  4.0000001E-01;0.0;3;-0.0010504856;0.0;-0.00014873694;0;-5.459166e-06;  1.0000000E+04;  0.0000000E+00; -1.9814853E-14;  1.0000000E+04;  0.0000000E+00;  1.0000000E+04;-5.6104259e-06;0.0;1.5125981e-07;0.0001396389
  7.9999998E-02;  9.9999998E-03; -2.0000000E-01;1158;-3.2634597e-07;0.0;-3.5569567e-08;1000.0;  4.0000001E-01;0.0;3;-0.001133122;0.0;-0.00012654715;0;-5.8942073e-06;  1.0000000E+04;  0.0000000E+00; -5.1033146E-15;  1.0000000E+04;  0.0000000E+00;  1.0000000E+04;-6.0752213e-06;0.0;1.8101395e-07;0.00015581396
  1.0000000E-01;  9.9999998E-03; -3.0000001E-01;1184;-2.5176493e-07;0.0;-1.0351064e-07;1000.0;  4.0000001E-01;0.0;3;-0.00086622982;0.0;-0.00035798986;0;-4.9305331e-06;  1.0000000E+04;  0.0000000E+00; -8.2543309E-08;  1.0000000E+04;  0.0000000E+00;  1.0000000E+04;-4.4376952e-06;0.0;-4.928379e-07;0.00031570563
  1.0000000E-01;  9.9999998E-03; -2.8000000E-01;1185;-3.3781575e-07;0.0;-1.0110247e-07;1000.0;  4.0000001E-01;0.0;3;-0.0011575916;0.0;-0.00034904771;0;-6.2636241e-06;  1.0000000E+04;  0.0000000E+00; -5.5426550E-08;  1.0000000E+04;  0.0000000E+00;  1.0000000E+04;-5.9695521e-06;0.0;-2.9407204e-07;0.0001594278
  1.0000000E-01;  9.9999998E-03; -2.5999999E-01;1186;-4.1128095e-07;0.0;-9.2988735e-08;1000.0;  4.0000001E-01;0.0;3;-0.0014047548;0.0;-0.00032134543;0;-7.4691611e-06;  1.0000000E+04;  0.0000000E+00; -2.7649461E-08;  1.0000000E+04;  0.0000000E+00;  1.0000000E+04;-7.4100071e-06;0.0;-5.9153827e-08;5.6167137e-05
  1.0000000E-01;  9.9999998E-03; -2.3999999E-01;1187;-4.7172551e-07;0.0;-8.2733209e-08;1000.0;  4.0000001E-01;0.0;3;-0.0016077333;0.0;-0.00028676397;0;-8.4983531e-06;  1.0000000E+04;  0.0000000E+00; -8.4153244E-09;  1.0000000E+04;  0.0000000E+00;  1.0000000E+04;-8.6421587e-06;0.0;1.4380592e-07;0.00018687946
  1.0000000E-01;  9.9999998E-03; -2.2000000E-01;1188;-5.2090348e-07;0.0;-7.1592574e-08;1000.0;  4.0000001E-01;0.0;3;-0.0017732743;0.0;-0.00024918569;0;-9.3600538e-06;  1.0000000E+04;  0.0000000E+00; -1.0610209E-09;  1.0000000E+04;  0.0000000E+00;  1.0000000E+04;-9.6322192e-06;0.0;2.7216524e-07;0.00027561537
  1.0000000E-01;  9.9999998E-03; -2.0000000E-01;1189;-5.6050953e-07;0.0;-6.0573136e-08;1000.0;  4.0000001E-01;0.0;3;-0.0019072582;0.0;-0.00021186656;0;-1.007697e-05;  1.0000000E+04;  0.0000000E+00;  1.4279828E-13;  1.0000000E+04;  0.0000000E+00;  1.0000000E+04;-1.0400076e-05;0.0;3.231066e-07;0.00030633251
  1.2000000E-01;  9.9999998E-03; -3.0000001E-01;1215;-4.3471888e-07;0.0;-1.7702749e-07;1000.0;  4.0000001E-01;0.0;3;-0.0014667974;0.0;-0.00059961784;0;-8.8133065e-06;  1.0000000E+04;  0.0000000E+00; -5.0393851E-07;  1.0000000E+04;  0.0000000E+00;  1.0000000E+04;-7.955111e-06;0.0;-8.581959e-07;0.0009816325
  1.2000000E-01;  9.9999998E-03; -2.8000000E-01;1216;-5.8047192e-07;0.0;-1.7171723e-07;1000.0;  4.0000001E-01;0.0;3;-0.0019491217;0.0;-0.00058026292;0;-1.0963517e-05;  1.0000000E+04;  0.0000000E+00; -3.6743103E-07;  1.0000000E+04;  0.0000000E+00;  1.0000000E+04;-1.0462871e-05;0.0;-5.0064551e-07;0.0006421755
  1.2000000E-01;  9.9999998E-03; -2.5999999E-01;1217;-7.0355765e-07;0.0;-1.5707992e-07;1000.0;  4.0000001E-01;0.0;3;-0.0023531625;0.0;-0.00053128955;0;-1.284645e-05;  1.0000000E+04;  0.0000000E+00; -2.0057431E-07;  1.0000000E+04;  0.0000000E+00;  1.0000000E+04;-1.27621e-05;0.0;-8.4350319e-08;0.00033170584
  1.2000000E-01;  9.9999998E-03; -2.3999999E-01;1218;-8.0380249e-07;0.0;-1.392026e-07;1000.0;  4.0000001E-01;0.0;3;-0.0026812856;0.0;-0.00047238034;0;-1.4440393e-05;  1.0000000E+04;  0.0000000E+00; -7.7387071E-08;  1.0000000E+04;  0.0000000E+00;  1.0000000E+04;-1.4709439e-05;0.0;2.6904598e-07;0.00038758843
  1.2000000E-01;  9.9999998E-03; -2.2000000E-01;1219;-8.8459376e-07;0.0;-1.2007631e-07;1000.0;  4.0000001E-01;0.0;3;-0.0029462329;0.0;-0.00040943178;0;-1.5789232e-05;  1.0000000E+04;  0.0000000E+00; -1.7666103E-08;  1.0000000E+04;  0.0000000E+00;  1.0000000E+04;-1.6276366e-05;0.0;4.8713514e-07;0.00053553242
  1.2000000E-01;  9.9999998E-03; -2.0000000E-01;1220;-9.4907682e-07;0.0;-1.0133422e-07;1000.0;  4.0000001E-01;0.0;3;-0.0031587617;0.0;-0.00034744141;0;-1.6931594e-05;  1.0000000E+04;  0.0000000E+00; -1.4655062E-09;  1.0000000E+04;  0.0000000E+00;  1.0000000E+04;-1.7500983e-05;0.0;5.6938927e-07;0.00058925286
  1.4000000E-01;  9.9999998E-03; -3.0000001E-01;1246;-7.4306996e-07;0.0;-2.9952054e-07;1000.0;  4.0000001E-01;0.0;3;-0.0024562397;0.0;-0.00099175726;0;-1.5900734e-05;  1.0000000E+04;  0.0000000E+00; -2.1258011E-06;  1.0000000E+04;  0.0000000E+00;  1.0000000E+04;-1.4429781e-05;0.0;-1.4709526e-06;0.0038022499
  1.4000000E-01;  9.9999998E-03; -2.8000000E-01;1247;-9.8576095e-07;0.0;-2.8817479e-07;1000.0;  4.0000001E-01;0.0;3;-0.0032399164;0.0;-0.00095130858;0;-1.9201285e-05;  1.0000000E+04;  0.0000000E+00; -1.5995203E-06;  1.0000000E+04;  0.0000000E+00;  1.0000000E+04;-1.8377263e-05;0.0;-8.2402238e-07;0.0027976125
  1.4000000E-01;  9.9999998E-03; -2.5999999E-01;1248;-1.1880943e-06;0.0;-2.6196119e-07;1000.0;  4.0000001E-01;0.0;3;-0.0038868089;0.0;-0.00086550007;0;-2.1942133e-05;  1.0000000E+04;  0.0000000E+00; -9.0784016E-07;  1.0000000E+04;  0.0000000E+00;  1.0000000E+04;-2.1853761e-05;0.0;-8.8371422e-08;0.0015799192
  1.4000000E-01;  9.9999998E-03; -2.3999999E-01;1249;-1.3511939e-06;0.0;-2.3113478e-07;1000.0;  4.0000001E-01;0.0;3;-0.0044062552;0.0;-0.00076636206;0;-2.424155e-05;  1.0000000E+04;  0.0000000E+00; -3.8210456E-07;  1.0000000E+04;  0.0000000E+00;  1.0000000E+04;-2.4759638e-05;0.0;5.1808786e-07;0.0009794631
  1.4000000E-01;  9.9999998E-03; -2.2000000E-01;1250;-1.4816175e-06;0.0;-1.9854477e-07;1000.0;  4.0000001E-01;0.0;3;-0.0048222328;0.0;-0.00066178694;0;-2.6236887e-05;  1.0000000E+04;  0.0000000E+00; -1.0844025E-07;  1.0000000E+04;  0.0000000E+00;  1.0000000E+04;-2.7113121e-05;0.0;8.7623391e-07;0.0010438041
  1.4000000E-01;  9.9999998E-03; -2.0000000E-01;1251;-1.5848756e-06;0.0;-1.6690929e-07;1000.0;  4.0000001E-01;0.0;3;-0.0051532146;0.0;-0.00055965118;0;-2.798573e-05;  1.0000000E+04;  0.0000000E+00; -1.6293560E-08;  1.0000000E+04;  0.0000000E+00;  1.0000000E+04;-2.8983239e-05;0.0;9.9750889e-07;0.0011148304
  1.6000000E-01;  9.9999998E-03; -3.0000001E-01;1277;-1.2575091e-06;0.0;-5.0013966e-07;1000.0;  4.0000001E-01;0.0;3;-0.0040709325;0.0;-0.0016170086;0;-2.8687678e-05;  1.0000000E+04;  0.0000000E+00; -7.0328470E-06;  1.0000000E+04;  0.0000000E+00;  1.0000000E+04;-2.6207872e-05;0.0;-2.4798064e-06;0.013071997
  1.6000000E-01;  9.9999998E-03; -2.8000000E-01;1278;-1.6531618e-06;0.0;-4.7687047e-07;1000.0;  4.0000001E-01;0.0;3;-0.0053154938;0.0;-0.0015361144;0;-3.3421235e-05;  1.0000000E+04;  0.0000000E+00; -5.2847113E-06;  1.0000000E+04;  0.0000000E+00;  1.0000000E+04;-3.2124855e-05;0.0;-1.2963789e-06;0.0097972956
  1.6000000E-01;  9.9999998E-03; -2.5999999E-01;1279;-1.9784065e-06;0.0;-4.3085257e-07;1000.0;  4.0000001E-01;0.0;3;-0.0063265618;0.0;-0.0013890445;0;-3.7067952e-05;  1.0000000E+04;  0.0000000E+00; -3.0148583E-06;  1.0000000E+04;  0.0000000E+00;  1.0000000E+04;-3.7072296e-05;0.0;4.3430646e-09;0.0056034485
  1.6000000E-01;  9.9999998E-03; -2.3999999E-01;1280;-2.2381851e-06;0.0;-3.7870899e-07;1000.0;  4.0000001E-01;0.0;3;-0.0071305279;0.0;-0.0012256082;0;-4.0136641e-05;  1.0000000E+04;  0.0000000E+00; -1.3058808E-06;  1.0000000E+04;  0.0000000E+00;  1.0000000E+04;-4.1166033e-05;0.0;1.0293902e-06;0.0028119835
  1.6000000E-01;  9.9999998E-03; -2.2000000E-01;1281;-2.4447668e-06;0.0;-3.2400948e-07;1000.0;  4.0000001E-01;0.0;3;-0.0077708084;0.0;-0.0010545286;0;-4.2942644e-05;  1.0000000E+04;  0.0000000E+00; -4.0683392E-07;  1.0000000E+04;  0.0000000E+00;  1.0000000E+04;-4.4535649e-05;0.0;1.5930038e-06;0.0020989995
  1.6000000E-01;  9.9999998E-03; -2.0000000E-01;1282;-2.6073731e-06;0.0;-2.7119199e-07;1000.0;  4.0000001E-01;0.0;3;-0.0082774926;0.0;-0.00088797527;0;-4.5534664e-05;  1.0000000E+04;  0.0000000E+00; -7.7836205E-08;  1.0000000E+04;  0.0000000E+00;  1.0000000E+04;-4.7280642e-05;0.0;1.7459777e-06;0.0020852706
  1.7999999E-01;  9.9999998E-03; -3.0000001E-01;1308;-2.1055869e-06;0.0;-8.2169385e-07;1000.0;  4.0000001E-01;0.0;3;-0.0066729756;0.0;-0.0025921981;0;-5.0697832e-05;  1.0000000E+04;  0.0000000E+00; -1.8908218E-05;  1.0000000E+04;  0.0000000E+00;  1.0000000E+04;-4.6616289e-05;0.0;-4.0815412e-06;0.037225336
  1.7999999E-01;  9.9999998E-03; -2.8000000E-01;1309;-2.7365857e-06;0.0;-7.7603687e-07;1000.0;  4.0000001E-01;0.0;3;-0.0086022001;0.0;-0.0024381096;0;-5.7006713e-05;  1.0000000E+04;  0.0000000E+00; -1.3964869E-05;  1.0000000E+04;  0.0000000E+00;  1.0000000E+04;-5.5105844e-05;0.0;-1.9008689e-06;0.027580202
  1.7999999E-01;  9.9999998E-03; -2.5999999E-01;1310;-3.2475243e-06;0.0;-6.976851e-07;1000.0;  4.0000001E-01;0.0;3;-0.010143587;0.0;-0.0021945173;0;-6.1422455e-05;  1.0000000E+04;  0.0000000E+00; -7.8427729E-06;  1.0000000E+04;  0.0000000E+00;  1.0000000E+04;-6.1813e-05;0.0;3.9054669e-07;0.015558486
  1.7999999E-01;  9.9999998E-03; -2.3999999E-01;1311;-3.6529248e-06;0.0;-6.1089344e-07;1000.0;  4.0000001E-01;0.0;3;-0.011361944;0.0;-0.0019293125;0;-6.5284665e-05;  1.0000000E+04;  0.0000000E+00; -3.3918341E-06;  1.0000000E+04;  0.0000000E+00;  1.0000000E+04;-6.7367866e-05;0.0;2.0831981e-06;0.007294924
  1.7999999E-01;  9.9999998E-03; -2.2000000E-01;1312;-3.9731999e-06;0.0;-5.2139433e-07;1000.0;  4.0000001E-01;0.0;3;-0.012326205;0.0;-0.0016567524;0;-6.9146918e-05;  1.0000000E+04;  0.0000000E+00; -1.0922057E-06;  1.0000000E+04;  0.0000000E+00;  1.0000000E+04;-7.206406e-05;0.0;2.9171429e-06;0.0042999308
  1.7999999E-01;  9.9999998E-03; -2.0000000E-01;1313;-4.2245902e-06;0.0;-4.3457311e-07;1000.0;  4.0000001E-01;0.0;3;-0.013088144;0.0;-0.0013889559;0;-7.2946685e-05;  1.0000000E+04;  0.0000000E+00; -2.3221746E-07;  1.0000000E+04;  0.0000000E+00;  1.0000000E+04;-7.5998738e-05;0.0;3.0520564e-06;0.003864724
  2.0000000E-01;  9.9999998E-03; -3.0000001E-01;1339;-3.4837462e-06;0.0;-1.3331429e-06;1000.0;  4.0000001E-01;0.0;3;-0.010803039;0.0;-0.0041040834;0;-8.5631385e-05;  1.0000000E+04;  0.0000000E+00; -4.1080479E-05;  1.0000000E+04;  0.0000000E+00;  1.0000000E+04;-7.9209123e-05;0.0;-6.4222622e-06;0.085982837
  2.0000000E-01;  9.9999998E-03; -2.8000000E-01;1340;-4.4705334e-06;0.0;-1.2435352e-06;1000.0;  4.0000001E-01;0.0;3;-0.013730049;0.0;-0.0038109994;0;-9.3866387e-05;  1.0000000E+04;  0.0000000E+00; -2.9816236E-05;  1.0000000E+04;  0.0000000E+00;  1.0000000E+04;-9.1413393e-05;0.0;-2.4529911e-06;0.06274531
  2.0000000E-01;  9.9999998E-03; -2.5999999E-01;1341;-5.2573168e-06;0.0;-1.1104333e-06;1000.0;  4.0000001E-01;0.0;3;-0.016029721;0.0;-0.0034083594;0;-9.9048906e-05;  1.0000001E+04;  0.0000000E+00; -1.6353699E-05;  1.0000000E+04;  0.0000000E+00;  1.0000000E+04;-0.00010056177;0.0;1.5128653e-06;0.034609631
  2.0000000E-01;  9.9999998E-03; -2.3999999E-01;1342;-5.8773458e-06;0.0;-9.6836516e-07;1000.0;  4.0000001E-01;0.0;3;-0.017837515;0.0;-0.0029849338;0;-0.00010397457;  1.0000001E+04;  0.0000000E+00; -6.9452485E-06;  1.0000000E+04;  0.0000000E+00;  1.0000000E+04;-0.00010817881;0.0;4.2042352e-06;0.015725372
  2.0000000E-01;  9.9999998E-03; -2.2000000E-01;1343;-6.36303e-06;0.0;-8.2591532e-07;1000.0;  4.0000001E-01;0.0;3;-0.019256527;0.0;-0.002563637;0;-0.00010944029;  1.0000001E+04;  0.0000000E+00; -2.2349946E-06;  1.0000000E+04;  0.0000000E+00;  1.0000000E+04;-0.00011476596;0.0;5.3256631e-06;0.0084434031
  2.0000000E-01;  9.9999998E-03; -2.0000000E-01;1344;-6.7439078e-06;0.0;-6.8543687e-07;1000.0001;  4.0000001E-01;0.098762624;3;-0.020380028;0.0;-0.0021389602;0;-0.00011508507;  1.0000001E+04;  0.0000000E+00; -4.9187645E-07;  1.0000000E+04;  0.0000000E+00;  1.0000000E+04;-0.00012038299;0.0;5.2979203e-06;0.0070669283
  2.2000000E-01;  9.9999998E-03; -3.0000001E-01;1370;-5.6694885e-06;0.0;-2.3055441e-06;1000.0001;  4.0000001E-01;0.098762624;3;-0.01719258;0.0;-0.0069847098;0;-0.00013654353;  1.0000001E+04;  0.0000000E+00; -7.1319431E-05;  1.0000000E+04;  0.0000000E+00;  1.0000000E+04;-0.0001276385;0.0;-8.9050263e-06;0.15867163
  2.2000000E-01;  9.9999998E-03; -2.8000000E-01;1371;-7.1977893e-06;0.0;-2.0574994e-06;1000.0001;  4.0000001E-01;0.098762624;3;-0.021591868;0.0;-0.006181723;0;-0.00014835622;  1.0000001E+04;  0.0000000E+00; -5.1321014E-05;  1.0000000E+04;  0.0000000E+00;  1.0000000E+04;-0.00014613505;0.0;-2.2211784e-06;0.11499711
  2.2000000E-01;  9.9999998E-03; -2.5999999E-01;1372;-8.3918476e-06;0.0;-1.782609e-06;1000.0001;  4.0000001E-01;0.098762624;3;-0.024970319;0.0;-0.0053535672;0;-0.00015522512;  1.0000001E+04;  0.0000000E+00; -2.7490270E-05;  1.0000000E+04;  0.0000000E+00;  1.0000000E+04;-0.00015949317;0.0;4.2680467e-06;0.0621062
  2.2000000E-01;  9.9999998E-03; -2.3999999E-01;1373;-9.3228837e-06;0.0;-1.5272553e-06;1000.0001;  4.0000001E-01;0.098762624;3;-0.027599899;0.0;-0.0046013766;0;-0.000162208;  1.0000001E+04;  0.0000000E+00; -1.1350361E-05;  1.0000000E+04;  0.0000000E+00;  1.0000000E+04;-0.00017048897;0.0;8.280972e-06;0.027898323
  2.2000000E-01;  9.9999998E-03; -2.2000000E-01;1374;-1.0044509e-05;0.0;-1.2923433e-06;1000.0001;  4.0000001E-01;0.098762624;3;-0.029641815;0.0;-0.0039217477;0;-0.00017039594;  1.0000001E+04;  0.0000000E+00; -3.5657604E-06;  1.0000000E+04;  0.0000000E+00;  1.0000000E+04;-0.0001799602;0.0;9.5642636e-06;0.015297576
  2.2000000E-01;  9.9999998E-03; -2.0000000E-01;1375;-1.0609624e-05;0.0;-1.0640912e-06;1000.0001;  4.0000001E-01;0.098762624;3;-0.031261545;0.0;-0.0032434883;0;-0.00017894016;  1.0000001E+04;  0.0000000E+00; -7.7294709E-07;  1.0000000E+04;  0.0000000E+00;  1.0000000E+04;-0.00018799817;0.0;9.0580161e-06;0.012660463
  2.3999999E-01;  9.9999998E-03; -3.0000001E-01;1401;-9.3208118e-06;0.0;-4.1594094e-06;1000.0001;  4.0000001E-01;0.098762624;3;-0.027679365;0.0;-0.012459643;0;-0.00020984121;  1.0000001E+04;  0.0000000E+00; -9.9854966E-05;  1.0000000E+04;  0.0000000E+00;  1.0000000E+04;-0.00020041529;0.0;-9.4259167e-06;0.23623037
  2.3999999E-01;  9.9999998E-03; -2.8000000E-01;1402;-1.1516599e-05;0.0;-3.5279124e-06;1000.0001;  4.0000001E-01;0.098762624;3;-0.033744127;0.0;-0.010435118;0;-0.00022765783;  1.0000001E+04;  0.0000000E+00; -7.1412986E-05;  1.0000000E+04;  0.0000000E+00;  1.0000000E+04;-0.00022826112;0.0;6.0329967e-07;0.17025799
  2.3999999E-01;  9.9999998E-03; -2.5999999E-01;1403;-1.3249132e-05;0.0;-2.9081866e-06;1000.0001;  4.0000001E-01;0.098762624;3;-0.03845495;0.0;-0.0085645337;0;-0.00023821402;  1.0000001E+04;  0.0000000E+00; -3.7266131E-05;  1.0000000E+04;  0.0000000E+00;  1.0000000E+04;-0.00024843664;0.0;1.0222616e-05;0.090243846
  2.3999999E-01;  9.9999998E-03; -2.3999999E-01;1404;-1.4605024e-05;0.0;-2.4074891e-06;1000.0001;  4.0000001E-01;0.098762624;3;-0.042145144;0.0;-0.0070948154;0;-0.0002490551;  1.0000001E+04;  0.0000000E+00; -1.4793831E-05;  1.0000000E+04;  0.0000000E+00;  1.0000000E+04;-0.00026470624;0.0;1.5651145e-05;0.041595824
  2.3999999E-01;  9.9999998E-03; -2.2000000E-01;1405;-1.5648262e-05;0.0;-2.0012369e-06;1000.0001;  4.0000001E-01;0.098762624;3;-0.044990234;0.0;-0.0059353039;0;-0.00026165659;  1.0000002E+04;  0.0000000E+00; -4.4331300E-06;  1.0000000E+04;  0.0000000E+00;  1.0000000E+04;-0.00027835157;0.0;1.6694989e-05;0.025999349
  2.3999999E-01;  9.9999998E-03; -2.0000000E-01;1406;-1.6466813e-05;0.0;-1.6270038e-06;1000.0001;  4.0000001E-01;0.098762624;3;-0.047259819;0.0;-0.0048415139;0;-0.00027456612;  1.0000002E+04;  0.0000000E+00; -9.0109717E-07;  1.0000000E+04;  0.0000000E+00;  1.0000000E+04;-0.0002897048;0.0;1.5138683e-05;0.022167573
  2.5999999E-01;  9.9999998E-03; -3.0000001E-01;1432;-1.5241756e-05;0.0;-7.1554919e-06;1000.0001;  4.0000001E-01;0.098762617;3;-0.044303797;0.0;-0.02109273;0;-0.00032125512;  1.0000002E+04;  0.0000000E+00; -1.1469926E-04;  1.0000000E+04;  0.0000000E+00;  1.0000000E+04;-0.00031550805;0.0;-5.7470652e-06;0.28853559
  2.5999999E-01;  9.9999998E-03; -2.8000000E-01;1433;-1.8317005e-05;0.0;-5.9335084e-06;1000.0001;  4.0000001E-01;0.098762617;3;-0.052379198;0.0;-0.017242134;0;-0.00034614422;  1.0000003E+04;  0.0000000E+00; -8.0479658E-05;  1.0000000E+04;  0.0000000E+00;  1.0000000E+04;-0.00035464726;0.0;8.5030442e-06;0.20408823
  2.5999999E-01;  9.9999998E-03; -2.5999999E-01;1434;-2.0737501e-05;0.0;-4.7006292e-06;1000.0001;  4.0000001E-01;0.098762617;3;-0.05863991;0.0;-0.01355441;0;-0.00036208244;  1.0000003E+04;  0.0000000E+00; -4.0435076E-05;  1.0000000E+04;  0.0000000E+00;  1.0000000E+04;-0.00038360493;0.0;2.1522501e-05;0.10699622
  2.5999999E-01;  9.9999998E-03; -2.3999999E-01;1435;-2.2631117e-05;0.0;-3.8437443e-06;1000.0001;  4.0000001E-01;0.098762617;3;-0.063543566;0.0;-0.011138021;0;-0.00037855431;  1.0000003E+04;  0.0000000E+00; -1.5148236E-05;  1.0000000E+04;  0.0000000E+00;  1.0000000E+04;-0.00040663881;0.0;2.8084491e-05;0.056143329
  2.5999999E-01;  9.9999998E-03; -2.2000000E-01;1436;-2.410474e-05;0.0;-3.0895183e-06;1000.0001;  4.0000001E-01;0.098762617;3;-0.06739343;0.0;-0.0089655481;0;-0.0003973571;  1.0000003E+04;  0.0000000E+00; -4.1943849E-06;  1.0000000E+04;  0.0000000E+00;  1.0000000E+04;-0.00042548025;0.0;2.8123155e-05;0.043376978
  2.5999999E-01;  9.9999998E-03; -2.0000000E-01;1437;-2.5263282e-05;0.0;-2.4577284e-06;1000.0002;  4.0000001E-01;0.19752523;3;-0.070480965;0.0;-0.0071320594;0;-0.00041630585;  1.0000003E+04;  0.0000000E+00; -7.4593305E-07;  1.0000000E+04;  0.0000000E+00;  1.0000000E+04;-0.00044093322;0.0;2.4627361e-05;0.037981741
  2.8000000E-01;  9.9999998E-03; -3.0000001E-01;1463;-2.4444631e-05;0.0;-1.2014943e-05;1000.0002;  4.0000001E-01;0.19752523;3;-0.069363169;0.0;-0.034948956;0;-0.00049473962;  1.0000004E+04;  0.0000000E+00; -1.0702232E-04;  1.0000000E+04;  0.0000000E+00;  1.0000000E+04;-0.00050224108;0.0;7.5014705e-06;0.2850242
  2.8000000E-01;  9.9999998E-03; -2.8000000E-01;1464;-2.8793203e-05;0.0;-9.7950006e-06;1000.0002;  4.0000001E-01;0.19752523;3;-0.080192171;0.0;-0.02803313;0;-0.00052591553;  1.0000004E+04;  0.0000000E+00; -7.2105315E-05;  1.0000000E+04;  0.0000000E+00;  1.0000000E+04;-0.00055177341;0.0;2.5857884e-05;0.19533926
  2.8000000E-01;  9.9999998E-03; -2.5999999E-01;1465;-3.2140812e-05;0.0;-7.5214407e-06;1000.0002;  4.0000001E-01;0.19752523;3;-0.088356614;0.0;-0.02127656;0;-0.00054792373;  1.0000004E+04;  0.0000000E+00; -3.4107994E-05;  1.0000000E+04;  0.0000000E+00;  1.0000000E+04;-0.00058918499;0.0;4.1261235e-05;0.10899445
  2.8000000E-01;  9.9999998E-03; -2.3999999E-01;1466;-3.4764471e-05;0.0;-5.8282753e-06;1000.0002;  4.0000001E-01;0.19752523;3;-0.094784416;0.0;-0.016391376;0;-0.00057106162;  1.0000004E+04;  0.0000000E+00; -1.1696889E-05;  1.0000000E+04;  0.0000000E+00;  1.0000000E+04;-0.00061894319;0.0;4.788156e-05;0.079677261
  2.8000000E-01;  9.9999998E-03; -2.2000000E-01;1467;-3.6795438e-05;0.0;-4.620701e-06;1000.0002;  4.0000001E-01;0.19752523;3;-0.09980385;0.0;-0.013018772;0;-0.00059750176;  1.0000004E+04;  0.0000000E+00; -2.8324878E-06;  1.0000000E+04;  0.0000000E+00;  1.0000000E+04;-0.00064319238;0.0;4.5690649e-05;0.072635092
  2.8000000E-01;  9.9999998E-03; -2.0000000E-01;1468;-3.8398794e-05;0.0;-3.6495096e-06;1000.0002;  4.0000001E-01;0.19752523;3;-0.10386836;0.0;-0.010292358;0;-0.00062424433;  1.0000005E+04;  0.0000000E+00; -3.8593018E-07;  1.0000000E+04;  0.0000000E+00;  1.0000000E+04;-0.00066322408;0.0;3.897975e-05;0.063718185
  2.9999998E-01;  9.9999998E-03; -3.0000001E-01;1494;-3.8531634e-05;0.0;-1.8727149e-05;1000.0002;  4.0000001E-01;0.1975252;3;-0.10655116;0.0;-0.052983038;0;-0.00077302154;  1.0000005E+04;  0.0000000E+00; -7.6383694E-05;  1.0000000E+04;  0.0000000E+00;  1.0000000E+04;-0.00079979887;0.0;2.6777303e-05;0.21473572
  2.9999998E-01;  9.9999998E-03; -2.8000000E-01;1495;-4.4675828e-05;0.0;-1.5140544e-05;1000.0002;  4.0000001E-01;0.1975252;3;-0.12095119;0.0;-0.042117316;0;-0.00080261042;  1.0000006E+04;  0.0000000E+00; -4.8242102E-05;  1.0000000E+04;  0.0000000E+00;  1.0000000E+04;-0.00085440505;0.0;5.179465e-05;0.15027586
  2.9999998E-01;  9.9999998E-03; -2.5999999E-01;1496;-4.9310918e-05;0.0;-1.1467194e-05;1000.0003;  4.0000001E-01;0.2962878;3;-0.13152033;0.0;-0.031497363;0;-0.00082624354;  1.0000007E+04;  0.0000000E+00; -2.0733356E-05;  1.0000000E+04;  0.0000000E+00;  1.0000000E+04;-0.00089712237;0.0;7.0878858e-05;0.12284328
  2.9999998E-01;  9.9999998E-03; -2.3999999E-01;1497;-5.2918193e-05;0.0;-8.7551616e-06;1000.0003;  4.0000001E-01;0.2962878;3;-0.13977961;0.0;-0.023902245;0;-0.00085453788;  1.0000007E+04;  0.0000000E+00; -6.1842825E-06;  1.0000000E+04;  0.0000000E+00;  1.0000000E+04;-0.00093198847;0.0;7.7450612e-05;0.12702037
  2.9999998E-01;  9.9999998E-03; -2.2000000E-01;1498;-5.5702229e-05;0.0;-6.8515083e-06;1000.0003;  4.0000001E-01;0.2962878;3;-0.14624012;0.0;-0.018725388;0;-0.00088942662;  1.0000007E+04;  0.0000000E+00; -1.1661933E-06;  1.0000000E+04;  0.0000000E+00;  1.0000000E+04;-0.00096122938;0.0;7.180278e-05;0.1207072
  2.9999998E-01;  9.9999998E-03; -2.0000000E-01;1499;-5.7891251e-05;0.0;-5.3644421e-06;1000.0003;  4.0000001E-01;0.2962878;3;-0.15147127;0.0;-0.014668392;0;-0.00092595565;  1.0000007E+04;  0.0000000E+00; -8.6015156E-08;  1.0000000E+04;  0.0000000E+00;  1.0000000E+04;-0.00098617293;0.0;6.0217302e-05;0.10473436
  3.1999999E-01;  9.9999998E-03; -3.0000001E-01;1525;-5.9579517e-05;0.0;-2.9207353e-05;1000.0004;  4.0000001E-01;0.39505041;3;-0.16016747;0.0;-0.079281881;0;-0.0011863853;  1.0000009E+04;  0.0000000E+00; -3.6675003E-05;  1.0000000E+04;  0.0000000E+00;  1.0000000E+04;-0.0012502675;0.0;6.3882217e-05;0.11878381
  3.1999999E-01;  9.9999998E-03; -2.8000000E-01;1526;-6.8320012e-05;0.0;-2.3352059e-05;1000.0004;  4.0000001E-01;0.39505041;3;-0.17941591;0.0;-0.062240608;0;-0.0012086504;  1.0000009E+04;  0.0000000E+00; -2.0789739E-05;  1.0000000E+04;  0.0000000E+00;  9.9999990E+03;-0.0013028533;0.0;9.4202893e-05;0.14346424
  3.1999999E-01;  9.9999998E-03; -2.5999999E-01;1527;-7.4796619e-05;0.0;-1.7399982e-05;1000.0004;  4.0000001E-01;0.39505041;3;-0.19317515;0.0;-0.045863759;0;-0.0012316512;  1.0000010E+04;  0.0000000E+00; -7.6682618E-06;  1.0000000E+04;  0.0000000E+00;  9.9999990E+03;-0.0013471352;0.0;0.00011548398;0.19019605
  3.1999999E-01;  9.9999998E-03; -2.4000001E-01;1528;-7.9777332e-05;0.0;-1.3059556e-05;1000.0004;  4.0000001E-01;0.39505041;3;-0.20381136;0.0;-0.034305993;0;-0.0012646399;  1.0000011E+04;  0.0000000E+00; -1.7402040E-06;  1.0000000E+04;  0.0000000E+00;  9.9999990E+03;-0.0013856133;0.0;0.0001209734;0.20979567
  3.1999999E-01;  9.9999998E-03; -2.2000000E-01;1529;-8.3576939e-05;0.0;-1.0080756e-05;1000.0005;  4.0000001E-01;0.39505041;3;-0.21204259;0.0;-0.02657464;0;-0.0013096783;  1.0000012E+04;  0.0000000E+00; -1.7712286E-07;  1.0000000E+04;  0.0000000E+00;  9.9999990E+03;-0.0014196733;0.0;0.00010999502;0.19708827
  3.1999999E-01;  9.9999998E-03; -2.0000000E-01;1530;-8.6543558e-05;0.0;-7.8151497e-06;1000.0005;  4.0000001E-01;0.39505041;3;-0.21869652;0.0;-0.020625558;0;-0.0013588271;  1.0000012E+04;  0.0000000E+00;  8.6121058E-12;  1.0000000E+04;  0.0000000E+00;  1.0000000E+04;-0.0014500309;0.0;9.1203889e-05;0.1691236
  3.3999997E-01;  9.9999998E-03; -3.0000001E-01;1556;-9.0704612e-05;0.0;-4.4152977e-05;1000.0007;  4.0000001E-01;0.59257555;3;-0.23657633;0.0;-0.11766231;0;-0.001782719;  1.0000015E+04;  0.0000000E+00; -8.2635688E-06;  1.0000000E+04;  0.0000000E+00;  9.9999990E+03;-0.0018980355;0.0;0.00011531653;0.12099998
  3.3999997E-01;  9.9999998E-03; -2.8000000E-01;1557;-0.00010314699;0.0;-3.4888471e-05;1000.0007;  4.0000001E-01;0.59257555;3;-0.26232168;0.0;-0.091284916;0;-0.0017929046;  1.0000016E+04;  0.0000000E+00; -3.9501938E-06;  1.0000000E+04;  0.0000000E+00;  9.9999990E+03;-0.0019461917;0.0;0.00015328705;0.23271208
  3.3999997E-01;  9.9999998E-03; -2.6000002E-01;1558;-0.00011220127;0.0;-2.5659721e-05;1000.0007;  4.0000001E-01;0.59257555;3;-0.28031233;0.0;-0.066216543;0;-0.0018121528;  1.0000016E+04;  0.0000000E+00; -1.0286101E-06;  1.0000000E+04;  0.0000000E+00;  9.9999990E+03;-0.0019914194;0.0;0.00017926662;0.31486869
  3.3999997E-01;  9.9999998E-03; -2.4000001E-01;1559;-0.00011903061;0.0;-1.906627e-05;1000.0007;  4.0000001E-01;0.59257555;3;-0.29394001;0.0;-0.048788581;0;-0.0018496956;  1.0000016E+04;  0.0000000E+00; -8.8624418E-08;  1.0000000E+04;  0.0000000E+00;  9.9999990E+03;-0.002033547;0.0;0.00018385141;0.34096384
  3.3999997E-01;  9.9999998E-03; -2.2000000E-01;1560;-0.0001241647;0.0;-1.4601373e-05;1000.0007;  4.0000001E-01;0.59257555;3;-0.30430165;0.0;-0.037338644;0;-0.0019074293;  1.0000016E+04;  0.0000000E+00; -4.1936486E-11;  1.0000000E+04;  0.0000000E+00;  9.9999990E+03;-0.0020726861;0.0;0.00016525682;0.3163636
  3.3999997E-01;  9.9999998E-03; -2.0000000E-01;1561;-0.0001281102;0.0;-1.1274678e-05;1000.0008;  4.0000001E-01;0.69133818;3;-0.31256244;0.0;-0.028739177;0;-0.0019727566;  1.0000016E+04;  0.0000000E+00; -2.9583131E-11;  1.0000000E+04;  0.0000000E+00;  9.9999990E+03;-0.0021087504;0.0;0.0001359938;0.26926249
  3.5999995E-01;  9.9999998E-03; -3.0000001E-01;1587;-0.00013643815;0.0;-6.5052693e-05;1000.001;  4.0000001E-01;0.88886321;3;-0.34476453;0.0;-0.16809244;0;-0.0026123025;  1.0000021E+04;  0.0000000E+00; -1.6564219E-07;  1.0000000E+04;  0.0000000E+00;  9.9999990E+03;-0.0028086237;0.0;0.00019632113;0.2260035
  3.5999995E-01;  9.9999998E-03; -2.8000000E-01;1588;-0.0001539962;0.0;-5.0760609e-05;1000.001;  4.0000001E-01;0.88886321;3;-0.37904227;0.0;-0.12864837;0;-0.0026161252;  1.0000023E+04;  0.0000000E+00; -3.0632812E-08;  1.0000000E+04;  0.0000000E+00;  9.9999990E+03;-0.0028566727;0.0;0.00024054751;0.39092305
  3.5999995E-01;  9.9999998E-03; -2.6000002E-01;1589;-0.00016645598;0.0;-3.6950209e-05;1000.001;  4.0000001E-01;0.88886321;3;-0.40230966;0.0;-0.092208378;0;-0.0026327886;  1.0000023E+04;  0.0000000E+00;  4.1834103E-10;  1.0000000E+04;  0.0000000E+00;  9.9999990E+03;-0.0029041592;0.0;0.00027137069;0.51104957
  3.5999995E-01;  9.9999998E-03; -2.4000001E-01;1590;-0.00017559099;0.0;-2.7319855e-05;1000.0011;  4.0000001E-01;0.88886321;3;-0.4193517;0.0;-0.067498676;0;-0.0026751391;  1.0000023E+04;  0.0000000E+00;  1.7129975E-10;  1.0000000E+04;  0.0000000E+00;  9.9999990E+03;-0.0029494294;0.0;0.00027429042;0.54567432
  3.5999995E-01;  9.9999998E-03; -2.2000000E-01;1591;-0.00018230919;0.0;-2.0884223e-05;1000.0011;  4.0000001E-01;0.88886321;3;-0.43194288;0.0;-0.051506914;0;-0.0027475946;  1.0000024E+04;  0.0000000E+00;  4.0279127E-11;  1.0000000E+04;  0.0000000E+00;  9.9999990E+03;-0.0029922661;0.0;0.00024467157;0.50191331
  3.5999995E-01;  9.9999998E-03; -2.0000000E-01;1592;-0.00018737275;0.0;-1.6171829e-05;1000.0011;  4.0000001E-01;0.88886321;3;-0.44175076;0.0;-0.039685905;0;-0.0028322919;  1.0000024E+04;  0.0000000E+00;  2.4553536E-11;  1.0000000E+04;  0.0000000E+00;  9.9999990E+03;-0.0030326867;0.0;0.00020039473;0.42448616
  3.7999994E-01;  9.9999998E-03; -3.0000001E-01;1618;-0.00020329653;0.0;-9.5938674e-05;1000.0015;  4.0000001E-01;1.2839134;3;-0.49736127;0.0;-0.23960136;0;-0.00376616;  1.0000033E+04;  0.0000000E+00;  1.8195755E-09;  1.0000000E+04;  0.0000000E+00;  9.9999980E+03;-0.0040957984;0.0;0.00032963839;0.42018437
  3.7999994E-01;  9.9999998E-03; -2.8000003E-01;1619;-0.00022753004;0.0;-7.3673385e-05;1000.0015;  4.0000001E-01;1.2839134;3;-0.54210281;0.0;-0.18033041;0;-0.0037709572;  1.0000034E+04;  0.0000000E+00;  1.3025798E-09;  1.0000000E+04;  0.0000000E+00;  9.9999971E+03;-0.0041427719;0.0;0.00037181465;0.64838415
  3.7999994E-01;  9.9999998E-03; -2.6000002E-01;1620;-0.00024408549;0.0;-5.2863848e-05;1000.0015;  4.0000001E-01;1.2839134;3;-0.57106906;0.0;-0.12739907;0;-0.003783626;  1.0000035E+04;  0.0000000E+00;  7.2499701E-10;  1.0000000E+04;  0.0000000E+00;  9.9999971E+03;-0.0041877679;0.0;0.00040414176;0.8196739
  3.7999994E-01;  9.9999998E-03; -2.4000001E-01;1621;-0.00025574572;0.0;-3.8811559e-05;1000.0016;  4.0000001E-01;1.2839134;3;-0.5912261;0.0;-0.092597894;0;-0.0038259809;  1.0000035E+04;  0.0000000E+00;  1.8637814E-10;  1.0000000E+04;  0.0000000E+00;  9.9999971E+03;-0.0042298869;0.0;0.00040390593;0.86589772
  3.7999994E-01;  9.9999998E-03; -2.2000001E-01;1622;-0.00026408129;0.0;-2.9637213e-05;1000.0016;  4.0000001E-01;1.2839134;3;-0.60550529;0.0;-0.070546269;0;-0.0039120968;  1.0000035E+04;  0.0000000E+00; -4.9194357E-11;  1.0000000E+04;  0.0000000E+00;  9.9999971E+03;-0.0042706621;0.0;0.00035856545;0.79129851
  3.7999994E-01;  9.9999998E-03; -2.0000000E-01;1623;-0.00027025305;0.0;-2.3105917e-05;1000.0016;  4.0000001E-01;1.3826759;3;-0.61633784;0.0;-0.054663867;0;-0.0040184474;  1.0000035E+04;  0.0000000E+00; -6.8387948E-11;  1.0000000E+04;  0.0000000E+00;  9.9999971E+03;-0.0043116044;0.0;0.00029315727;0.66599858
  3.9999992E-01;  9.9999998E-03; -3.0000004E-01;1649;-0.00030053683;0.0;-0.00013939921;1000.0023;  4.0000001E-01;1.8764883;3;-0.7114014;0.0;-0.33454785;0;-0.0053830533;  1.0000049E+04;  0.0000000E+00;  2.7163674E-09;  1.0000000E+04;  0.0000000E+00;  9.9999961E+03;-0.0059120702;0.0;0.00052901701;0.76605129
  3.9999992E-01;  9.9999998E-03; -2.8000003E-01;1650;-0.0003329686;0.0;-0.00010480882;1000.0023;  4.0000001E-01;1.8764883;3;-0.7676267;0.0;-0.24750297;0;-0.0053900899;  1.0000049E+04;  0.0000000E+00;  2.6212084E-09;  1.0000000E+04;  0.0000000E+00;  9.9999961E+03;-0.0059438087;0.0;0.00055371871;1.0587238
  3.9999992E-01;  9.9999998E-03; -2.6000002E-01;1651;-0.00035391597;0.0;-7.4140313e-05;1000.0023;  4.0000001E-01;1.8764883;3;-0.80140448;0.0;-0.17266689;0;-0.005380542;  1.0000050E+04;  0.0000000E+00;  1.2422975E-09;  1.0000000E+04;  0.0000000E+00;  9.9999961E+03;-0.005971441;0.0;0.00059089909;1.3050057
  3.9999989E-01;  9.9999998E-03; -2.4000001E-01;1652;-0.00036782798;0.0;-5.4271102e-05;1000.0023;  4.0000001E-01;1.8764883;3;-0.82304156;0.0;-0.12518679;0;-0.0054068239;  1.0000052E+04;  0.0000000E+00;  3.0879924E-10;  1.0000000E+04;  0.0000000E+00;  9.9999961E+03;-0.0059965262;0.0;0.00058970228;1.3714609
  3.9999989E-01;  9.9999998E-03; -2.2000001E-01;1653;-0.00037740869;0.0;-4.1674841e-05;1000.0023;  4.0000001E-01;1.8764883;3;-0.83732885;0.0;-0.095798634;0;-0.0055007813;  1.0000052E+04;  0.0000000E+00; -6.4672300E-12;  1.0000000E+04;  0.0000000E+00;  9.9999961E+03;-0.006024065;0.0;0.00052328379;1.2480856
  3.9999989E-01;  9.9999998E-03; -2.0000000E-01;1654;-0.00038442318;0.0;-3.2919994e-05;1000.0024;  4.0000001E-01;1.9752508;3;-0.84791064;0.0;-0.075238094;0;-0.0056298617;  1.0000052E+04;  0.0000000E+00; -3.5049918E-11;  1.0000000E+04;  0.0000000E+00;  9.9999971E+03;-0.0060581504;0.0;0.00042828851;1.0460958
  4.1999987E-01;  9.9999998E-03; -3.0000004E-01;1680;-0.00044141107;0.0;-0.0002009164;1000.0034;  4.0000001E-01;2.8641129;3;-1.0094019;0.0;-0.46653306;0;-0.0076289135;  1.0000073E+04;  0.0000000E+00;  4.7162048E-09;  1.0000000E+04;  0.0000000E+00;  9.9999951E+03;-0.008439268;0.0;0.0008103546;1.2762923
  4.1999987E-01;  9.9999998E-03; -2.8000003E-01;1681;-0.00048330548;0.0;-0.00014788227;1000.0034;  4.0000001E-01;2.8641129;3;-1.0764487;0.0;-0.33727881;0;-0.0076198364;  1.0000074E+04;  0.0000000E+00;  4.8051048E-09;  1.0000000E+04;  0.0000000E+00;  9.9999951E+03;-0.0084298719;0.0;0.00081003556;1.6775948
  4.1999987E-01;  9.9999998E-03; -2.6000002E-01;1682;-0.00050823623;0.0;-0.00010288339;1000.0034;  4.0000001E-01;2.7653503;3;-1.1120174;0.0;-0.23119104;0;-0.0075554443;  1.0000074E+04;  0.0000000E+00;  2.6620017E-09;  1.0000000E+04;  0.0000000E+00;  9.9999932E+03;-0.0084143057;0.0;0.00085886137;2.0708256
  4.1999984E-01;  9.9999998E-03; -2.4000002E-01;1683;-0.00052341231;0.0;-7.5294149e-05;1000.0034;  4.0000001E-01;2.7653503;3;-1.131444;0.0;-0.16775148;0;-0.0075369021;  1.0000074E+04;  0.0000000E+00;  7.9869161E-10;  1.0000000E+04;  0.0000000E+00;  9.9999922E+03;-0.0083989399;0.0;0.000862038;2.1847107
  4.1999984E-01;  9.9999998E-03; -2.2000001E-01;1684;-0.00053335715;0.0;-5.8259553e-05;1000.0034;  4.0000001E-01;2.8641129;3;-1.1425627;0.0;-0.1294771;0;-0.0076276949;  1.0000074E+04;  0.0000000E+00; -9.8159439E-11;  1.0000000E+04;  0.0000000E+00;  9.9999941E+03;-0.0083946008;0.0;0.00076690596;1.9837718
  4.1999984E-01;  9.9999998E-03; -2.0000002E-01;1685;-0.00054061052;0.0;-4.697598e-05;1000.0035;  4.0000001E-01;2.8641129;3;-1.1505506;0.0;-0.1040225;0;-0.0077799377;  1.0000074E+04;  0.0000000E+00; -2.6490071E-10;  1.0000000E+04;  0.0000000E+00;  9.9999961E+03;-0.0084092747;0.0;0.0006293371;1.6545773
  4.3999982E-01;  9.9999998E-03; -3.0000007E-01;1711;-0.00064537709;0.0;-0.00028650233;1000.0049;  4.0000001E-01;4.0492616;3;-1.4224941;0.0;-0.64138514;0;-0.010704519;  1.0000107E+04;  0.0000000E+00;  4.3170454E-09;  1.0000000E+04;  0.0000000E+00;  9.9999922E+03;-0.011888004;0.0;0.0011834846;1.9599512
  4.3999979E-01;  9.9999998E-03; -2.8000006E-01;1712;-0.00069705828;0.0;-0.00020563114;1000.0048;  4.0000001E-01;3.9504991;3;-1.4963568;0.0;-0.45066825;0;-0.010641353;  1.0000106E+04;  0.0000000E+00;  9.8166364E-09;  1.0000000E+04;  0.0000000E+00;  9.9999922E+03;-0.011796858;0.0;0.0011555054;2.6193337
  4.3999979E-01;  9.9999998E-03; -2.6000005E-01;1713;-0.00072438404;0.0;-0.00014122015;1000.0047;  4.0000001E-01;3.8517365;3;-1.5271312;0.0;-0.30547655;0;-0.010447864;  1.0000106E+04;  0.0000000E+00;  5.7696181E-09;  1.0000000E+04;  0.0000000E+00;  9.9999893E+03;-0.011698493;0.0;0.0012506281;3.3175476
  4.3999979E-01;  9.9999998E-03; -2.4000002E-01;1714;-0.00073886837;0.0;-0.00010421993;1000.0047;  4.0000001E-01;3.8517365;3;-1.5377424;0.0;-0.22389382;0;-0.010331767;  1.0000105E+04;  0.0000000E+00;  1.9514743E-09;  1.0000000E+04;  0.0000000E+00;  9.9999893E+03;-0.011607343;0.0;0.0012755767;3.5319293
  4.3999979E-01;  9.9999998E-03; -2.2000003E-01;1715;-0.00074783259;0.0;-8.1993108e-05;1000.0048;  4.0000001E-01;3.9504991;3;-1.5408345;0.0;-0.17578924;0;-0.010403123;  1.0000105E+04;  0.0000000E+00;  4.2775641E-10;  1.0000000E+04;  0.0000000E+00;  9.9999902E+03;-0.01154297;0.0;0.0011398477;3.1984174
  4.3999976E-01;  9.9999998E-03; -2.0000002E-01;1716;-0.00075457018;0.0;-6.7483466e-05;1000.0048;  4.0000001E-01;3.9504991;3;-1.542984;0.0;-0.14495495;0;-0.010581877;  1.0000106E+04;  0.0000000E+00; -1.5604838E-10;  1.0000000E+04;  0.0000000E+00;  9.9999922E+03;-0.011518604;0.0;0.00093672692;2.6460612
  4.5999971E-01;  9.9999998E-03; -3.0000013E-01;1742;-0.00094042765;0.0;-0.00040722627;1000.0074;  4.0000013E-01;6.1232696;3;-1.9936643;0.0;-0.87019593;0;-0.014750699;  1.0000152E+04;  0.0000000E+00;  7.4098101E-09;  1.0000000E+04;  0.0000000E+00;  9.9999883E+03;-0.016461762;0.0;0.001711063;3.0945642
  4.5999968E-01;  9.9999998E-03; -2.8000009E-01;1743;-0.00099979003;0.0;-0.00028446622;1000.0071;  4.0000013E-01;5.8269825;3;-2.0635033;0.0;-0.5947845;0;-0.014585086;  1.0000150E+04;  0.0000000E+00;  2.0910910E-08;  1.0000000E+04;  0.0000000E+00;  9.9999863E+03;-0.016232638;0.0;0.0016475512;4.1537066
  4.5999968E-01;  9.9999998E-03; -2.6000005E-01;1744;-0.0010256188;0.0;-0.00019405391;1000.0069;  4.0000013E-01;5.72822;3;-2.0770199;0.0;-0.40076268;0;-0.01413635;  1.0000149E+04;  0.0000000E+00;  1.4277969E-08;  1.0000000E+04;  0.0000000E+00;  9.9999834E+03;-0.015997211;0.0;0.0018608606;5.4365139
  4.5999968E-01;  9.9999998E-03; -2.4000004E-01;1745;-0.0010362328;0.0;-0.00014597125;1000.0068;  4.0000013E-01;5.6294575;3;-2.0685365;0.0;-0.30066288;0;-0.013846079;  1.0000148E+04;  0.0000000E+00;  5.6289049E-09;  1.0000000E+04;  0.0000000E+00;  9.9999824E+03;-0.015782168;0.0;0.0019360889;5.8340912
  4.5999968E-01;  9.9999998E-03; -2.2000003E-01;1746;-0.0010427189;0.0;-0.00011735418;1000.0068;  4.0000013E-01;5.6294575;3;-2.0573606;0.0;-0.24209352;0;-0.013884615;  1.0000147E+04;  0.0000000E+00;  1.3847198E-09;  1.0000000E+04;  0.0000000E+00;  9.9999844E+03;-0.015618534;0.0;0.0017339186;5.250114
  4.5999968E-01;  9.9999998E-03; -2.0000003E-01;1747;-0.0010484986;0.0;-9.8249031e-05;1000.007;  4.0000013E-01;5.72822;3;-2.0499625;0.0;-0.20475671;0;-0.01410595;  1.0000146E+04;  0.0000000E+00;  1.8227729E-10;  1.0000000E+04;  0.0000000E+00;  9.9999873E+03;-0.015525946;0.0;0.0014199973;4.2849689
  4.7999957E-01;  9.9999998E-03; -3.0000019E-01;1773;-0.001366565;0.0;-0.00057863735;1000.0107;  4.0000042E-01;8.8886108;3;-2.7821977;0.0;-1.1744968;0;-0.019880181;  1.0000214E+04;  0.0000000E+00;  1.6691281E-08;  1.0000000E+04;  0.0000000E+00;  9.9999834E+03;-0.022270428;0.0;0.0023902473;4.7302847
  4.7999954E-01;  9.9999998E-03; -2.8000012E-01;1774;-0.0014248028;0.0;-0.00039464107;1000.0104;  4.0000042E-01;8.5923233;3;-2.8228121;0.0;-0.7800917;0;-0.019453244;  1.0000210E+04;  0.0000000E+00;  4.9228564E-08;  1.0000000E+04;  0.0000000E+00;  9.9999795E+03;-0.021836134;0.0;0.0023828889;6.734973
  4.7999954E-01;  9.9999998E-03; -2.6000008E-01;1775;-0.0014405739;0.0;-0.00027017423;1000.0099;  4.0000039E-01;8.1972742;3;-2.7971675;0.0;-0.52776343;0;-0.018529909;  1.0000206E+04;  0.0000000E+00;  3.5374352E-08;  1.0000000E+04;  0.0000000E+00;  9.9999727E+03;-0.021399474;0.0;0.0028695655;9.154479
  4.7999951E-01;  9.9999998E-03; -2.4000007E-01;1776;-0.0014421715;0.0;-0.00020931878;1000.0096;  4.0000042E-01;7.9009871;3;-2.7543149;0.0;-0.41045704;0;-0.017962018;  1.0000203E+04;  0.0000000E+00;  1.5351876E-08;  1.0000000E+04;  0.0000000E+00;  9.9999697E+03;-0.021003736;0.0;0.0030417179;9.8580933
  4.7999951E-01;  9.9999998E-03; -2.2000006E-01;1777;-0.0014451166;0.0;-0.00017256242;1000.0096;  4.0000042E-01;7.9997497;3;-2.7221959;0.0;-0.34205624;0;-0.017977023;  1.0000200E+04;  0.0000000E+00;  4.3555537E-09;  1.0000000E+04;  0.0000000E+00;  9.9999736E+03;-0.020692457;0.0;0.0027154328;8.773469
  4.7999951E-01;  9.9999998E-03; -2.0000005E-01;1778;-0.0014506161;0.0;-0.00014557513;1000.0099;  4.0000036E-01;8.1972742;3;-2.7021112;0.0;-0.29512593;0;-0.018292818;  1.0000199E+04;  0.0000000E+00;  1.2975007E-09;  1.0000000E+04;  0.0000000E+00;  9.9999805E+03;-0.020491429;0.0;0.0021986112;7.0202909
  4.9999934E-01;  9.9999998E-03; -3.0000028E-01;1804;-0.0019783992;0.0;-0.00082515058;1000.0152;  4.0000090E-01;12.542805;3;-3.8658848;0.0;-1.5815749;0;-0.025895847;  1.0000286E+04;  0.0000000E+00;  3.5030521E-08;  1.0000000E+04;  0.0000000E+00;  9.9999746E+03;-0.029183358;0.0;0.0032875114;7.2363062
  4.9999931E-01;  9.9999998E-03; -2.8000018E-01;1805;-0.0020115902;0.0;-0.00055435958;1000.0145;  4.0000090E-01;11.950232;3;-3.8258159;0.0;-1.0262336;0;-0.024912367;  1.0000280E+04;  0.0000000E+00;  1.2629836E-07;  1.0000000E+04;  0.0000000E+00;  9.9999668E+03;-0.028482068;0.0;0.0035697019;11.271756
  4.9999931E-01;  9.9999998E-03; -2.6000014E-01;1806;-0.0019993612;0.0;-0.00038669689;1000.0136;  4.0000087E-01;11.258896;3;-3.7230229;0.0;-0.71009529;0;-0.023159944;  1.0000274E+04;  0.0000000E+00;  9.2837396E-08;  1.0000000E+04;  0.0000000E+00;  9.9999551E+03;-0.027785709;0.0;0.0046257647;15.80996
  4.9999931E-01;  9.9999998E-03; -2.4000010E-01;1807;-0.0019838214;0.0;-0.00031000123;1000.0132;  4.0000090E-01;10.962609;3;-3.6246941;0.0;-0.57753307;0;-0.022201341;  1.0000271E+04;  0.0000000E+00;  4.0730662E-08;  1.0000000E+04;  0.0000000E+00;  9.9999512E+03;-0.027157223;0.0;0.0049558822;16.963734
  4.9999931E-01;  9.9999998E-03; -2.2000009E-01;1808;-0.0019829888;0.0;-0.00026119011;1000.0133;  4.0000090E-01;11.061371;3;-3.5657814;0.0;-0.49745125;0;-0.022268271;  1.0000266E+04;  0.0000000E+00;  1.1694631E-08;  1.0000000E+04;  0.0000000E+00;  9.9999570E+03;-0.026649846;0.0;0.0043815742;14.875377
  4.9999931E-01;  9.9999998E-03; -2.0000006E-01;1809;-0.0019913679;0.0;-0.00021764009;1000.0136;  4.0000087E-01;11.258896;3;-3.5323405;0.0;-0.43020767;0;-0.022814011;  1.0000263E+04;  0.0000000E+00;  4.0993995E-09;  1.0000000E+04;  0.0000000E+00;  9.9999668E+03;-0.026292829;0.0;0.0034788169;11.615328
  5.1999903E-01;  9.9999998E-03; -3.0000043E-01;1835;-0.0028437967;0.0;-0.0011975103;1000.0225;  4.0000245E-01;18.666039;3;-5.341114;0.0;-2.1456437;0;-0.031960979;  1.0000367E+04;  0.0000000E+00;  1.2313443E-07;  1.0000000E+04;  0.0000000E+00;  9.9999609E+03;-0.036655959;0.0;0.0046949801;11.954861
  5.1999903E-01;  9.9999998E-03; -2.8000030E-01;1836;-0.0027994448;0.0;-0.00080272765;1000.0212;  4.0000251E-01;17.579655;3;-5.1230283;0.0;-1.3770965;0;-0.029963737;  1.0000358E+04;  0.0000000E+00;  3.3886292E-07;  1.0000000E+04;  0.0000000E+00;  9.9999434E+03;-0.035661884;0.0;0.0056981468;19.742758
  5.1999903E-01;  9.9999998E-03; -2.6000020E-01;1837;-0.0027253532;0.0;-0.00057737052;1000.0196;  4.0000245E-01;16.196985;3;-4.8804498;0.0;-0.99252135;0;-0.026910627;  1.0000350E+04;  0.0000000E+00;  2.4911384E-07;  1.0000000E+04;  0.0000000E+00;  9.9999219E+03;-0.034681287;0.0;0.0077706594;27.793831
  5.1999903E-01;  9.9999998E-03; -2.4000016E-01;1838;-0.0026813934;0.0;-0.00047420859;1000.019;  4.0000245E-01;15.801937;3;-4.7001386;0.0;-0.84390509;0;-0.02549929;  1.0000344E+04;  0.0000000E+00;  1.0610265E-07;  1.0000000E+04;  0.0000000E+00;  9.9999150E+03;-0.033796299;0.0;0.0082970094;29.421268
  5.1999903E-01;  9.9999998E-03; -2.2000013E-01;1839;-0.0026788348;0.0;-0.00039899049;1000.0193;  4.0000245E-01;15.999462;3;-4.6048388;0.0;-0.74574471;0;-0.025838448;  1.0000337E+04;  0.0000000E+00;  3.0251080E-08;  1.0000000E+04;  0.0000000E+00;  9.9999277E+03;-0.033062182;0.0;0.0072237346;25.356932
  5.1999903E-01;  9.9999998E-03; -2.0000011E-01;1840;-0.0026962692;0.0;-0.00032257775;1000.02;  4.0000251E-01;16.592035;3;-4.5685396;0.0;-0.62560773;0;-0.026898634;  1.0000333E+04;  0.0000000E+00;  7.4122761E-09;  1.0000000E+04;  0.0000000E+00;  9.9999453E+03;-0.032507554;0.0;0.00560892;19.335928
  5.3999853E-01;  9.9999998E-03; -3.0000070E-01;1866;-0.0040290416;0.0;-0.0017751042;1000.0352;  4.0000647E-01;29.134768;3;-7.3017497;0.0;-2.9691164;0;-0.036507916;  1.0000442E+04;  0.0000000E+00;  4.1410286E-07;  1.0000000E+04;  0.0000000E+00;  9.9999365E+03;-0.043592781;0.0;0.0070848665;21.157654
  5.3999859E-01;  9.9999998E-03; -2.8000048E-01;1867;-0.0038122968;0.0;-0.0012155616;1000.0328;  4.0000650E-01;27.159529;3;-6.7420316;0.0;-1.9330648;0;-0.032672577;  1.0000432E+04;  0.0000000E+00;  9.0412959E-07;  1.0000000E+04;  0.0000000E+00;  9.9998984E+03;-0.042353611;0.0;0.0096810348;35.660004
  5.3999865E-01;  9.9999998E-03; -2.6000035E-01;1868;-0.0036222381;0.0;-0.00090216851;1000.0304;  4.0000650E-01;25.18429;3;-6.2697411;0.0;-1.4630262;0;-0.027798992;  1.0000421E+04;  0.0000000E+00;  6.5028831E-07;  1.0000000E+04;  0.0000000E+00;  9.9998604E+03;-0.041133307;0.0;0.013334315;48.767952
  5.3999871E-01;  9.9999998E-03; -2.4000026E-01;1869;-0.0035500827;0.0;-0.00072135282;1000.0296;  4.0000653E-01;24.492956;3;-5.9871273;0.0;-1.2524732;0;-0.026097264;  1.0000413E+04;  0.0000000E+00;  2.6377418E-07;  1.0000000E+04;  0.0000000E+00;  9.9998555E+03;-0.040025566;0.0;0.013928303;50.371258
  5.3999865E-01;  9.9999998E-03; -2.2000019E-01;1870;-0.0035550292;0.0;-0.00058147672;1000.0303;  4.0000653E-01;25.085529;3;-5.8734722;0.0;-1.0692528;0;-0.027103562;  1.0000405E+04;  0.0000000E+00;  6.6439398E-08;  1.0000000E+04;  0.0000000E+00;  9.9998770E+03;-0.039077982;0.0;0.01197442;42.876984
  5.3999865E-01;  9.9999998E-03; -2.0000015E-01;1871;-0.0035798158;0.0;-0.00046279925;1000.0316;  4.0000650E-01;26.171909;3;-5.8277655;0.0;-0.88544542;0;-0.029184794;  1.0000399E+04;  0.0000000E+00;  1.0975558E-08;  1.0000000E+04;  0.0000000E+00;  9.9999072E+03;-0.038314525;0.0;0.009129731;32.11158
  5.5999792E-01;  9.9999998E-03; -3.0000111E-01;1897;-0.0055662831;0.0;-0.002719125;1000.0626;  4.0001747E-01;51.849884;3;-9.7935009;0.0;-4.2752109;0;-0.036340322;  1.0000496E+04;  0.0000000E+00;  1.1518116E-06;  1.0000000E+04;  0.0000000E+00;  9.9998828E+03;-0.048326369;0.0;0.011986048;40.508587
  5.5999810E-01;  9.9999998E-03; -2.8000081E-01;1898;-0.005035365;0.0;-0.0019192818;1000.0588;  4.0001747E-01;48.68951;3;-8.649333;0.0;-2.871578;0;-0.029931046;  1.0000484E+04;  0.0000000E+00;  2.2462702E-06;  1.0000000E+04;  0.0000000E+00;  9.9998184E+03;-0.046989843;0.0;0.017058797;64.712837
  5.5999821E-01;  9.9999998E-03; -2.6000056E-01;1899;-0.0047075436;0.0;-0.0014027157;1000.0555;  4.0001747E-01;45.924183;3;-7.8613601;0.0;-2.2168574;0;-0.023330959;  1.0000474E+04;  0.0000000E+00;  1.5915664E-06;  1.0000000E+04;  0.0000000E+00;  9.9997637E+03;-0.045668133;0.0;0.022337174;82.665718
  5.5999821E-01;  9.9999998E-03; -2.4000038E-01;1900;-0.0046097762;0.0;-0.001049465;1000.0548;  4.0001747E-01;45.430374;3;-7.5157413;0.0;-1.7922615;0;-0.021548538;  1.0000465E+04;  0.0000000E+00;  6.2937187E-07;  1.0000000E+04;  0.0000000E+00;  9.9997598E+03;-0.044453684;0.0;0.022905147;83.697769
  5.5999821E-01;  9.9999998E-03; -2.2000028E-01;1901;-0.0046104095;0.0;-0.00081017253;1000.0562;  4.0001747E-01;46.615517;3;-7.3792233;0.0;-1.4753251;0;-0.023788156;  1.0000455E+04;  0.0000000E+00;  1.3692345E-07;  1.0000000E+04;  0.0000000E+00;  9.9997969E+03;-0.043377507;0.0;0.019589351;70.816811
  5.5999821E-01;  9.9999998E-03; -2.0000021E-01;1902;-0.0046313568;0.0;-0.00063345645;1000.0584;  4.0001747E-01;48.393227;3;-7.3003049;0.0;-1.2092446;0;-0.027689416;  1.0000448E+04;  0.0000000E+00;  1.5390911E-09;  1.0000000E+04;  0.0000000E+00;  9.9998486E+03;-0.042454336;0.0;0.014764919;52.468594
  5.7999718E-01;  9.9999998E-03; -3.0000183E-01;1928;-0.0073943501;0.0;-0.0042878217;1000.1301;  4.0004665E-01;107.8474;3;-12.725042;0.0;-6.3820882;0;-0.026399095;  1.0000504E+04;  0.0000000E+00;  2.7558774E-06;  1.0000000E+04;  0.0000000E+00;  9.9997646E+03;-0.048821155;0.0;0.02242206;81.893776
  5.7999754E-01;  9.9999998E-03; -2.8000134E-01;1929;-0.0064391545;0.0;-0.0031326371;1000.1249;  4.0004665E-01;103.50189;3;-10.757468;0.0;-4.5061455;0;-0.017262101;  1.0000494E+04;  0.0000000E+00;  4.9482196E-06;  1.0000000E+04;  0.0000000E+00;  9.9996709E+03;-0.047626749;0.0;0.030364648;116.01357
  5.7999766E-01;  9.9999998E-03; -2.6000085E-01;1930;-0.0059856535;0.0;-0.0021426626;1000.1214;  4.0004665E-01;100.53905;3;-9.7383919;0.0;-3.2503581;0;-0.010158412;  1.0000484E+04;  0.0000000E+00;  3.4622451E-06;  1.0000000E+04;  0.0000000E+00;  9.9996123E+03;-0.046432447;0.0;0.036274035;135.23796
  5.7999772E-01;  9.9999998E-03; -2.4000055E-01;1931;-0.0058485158;0.0;-0.0014813353;1000.1211;  4.0004665E-01;100.34153;3;-9.2953529;0.0;-2.4828892;0;-0.0089080706;  1.0000475E+04;  0.0000000E+00;  1.3606583E-06;  1.0000000E+04;  0.0000000E+00;  9.9996152E+03;-0.045312092;0.0;0.036404021;133.57986
  5.7999772E-01;  9.9999998E-03; -2.2000037E-01;1932;-0.0058086496;0.0;-0.0010843511;1000.1236;  4.0004665E-01;102.41552;3;-9.0627203;0.0;-1.9802101;0;-0.013225973;  1.0000467E+04;  0.0000000E+00;  2.6485978E-07;  1.0000000E+04;  0.0000000E+00;  9.9996738E+03;-0.044273235;0.0;0.031047262;112.58421
  5.7999772E-01;  9.9999998E-03; -2.0000027E-01;1933;-0.0058028884;0.0;-0.00082412176;1000.1274;  4.0004665E-01;105.57588;3;-8.9226971;0.0;-1.5982319;0;-0.020030759;  1.0000459E+04;  0.0000000E+00; -2.6742915E-08;  1.0000000E+04;  0.0000000E+00;  9.9997588E+03;-0.043316279;0.0;0.023285519;83.027847
  5.9999639E-01;  9.9999998E-03; -3.0000302E-01;1959;-0.0092955083;0.0;-0.0069729993;1000.3;  4.0012076E-01;248.58119;3;-15.76042;0.0;-9.957448;0;0.0017268062;  1.0000447E+04;  0.0000000E+00;  5.4652874E-06;  1.0000000E+04;  0.0000000E+00;  9.9995166E+03;-0.043192532;0.0;0.044919338;169.0963
  5.9999686E-01;  9.9999998E-03; -2.8000224E-01;1960;-0.0080544073;0.0;-0.00516285;1000.2948;  4.0012074E-01;244.23572;3;-13.22358;0.0;-7.1747627;0;0.010885384;  1.0000439E+04;  0.0000000E+00;  9.2472801E-06;  1.0000000E+04;  0.0000000E+00;  9.9994180E+03;-0.042410452;0.0;0.053295836;204.20012
  5.9999704E-01;  9.9999998E-03; -2.6000136E-01;1961;-0.0074789925;0.0;-0.0033217787;1000.293;  4.0012076E-01;242.7543;3;-11.91876;0.0;-4.8533468;0;0.015367426;  1.0000434E+04;  0.0000000E+00;  6.4629321E-06;  1.0000000E+04;  0.0000000E+00;  9.9993887E+03;-0.041616295;0.0;0.056983721;213.19582
  5.9999716E-01;  9.9999998E-03; -2.4000080E-01;1962;-0.0071898182;0.0;-0.0021044698;1000.2938;  4.0012076E-01;243.34686;3;-11.196057;0.0;-3.4569154;0;0.014612619;  1.0000428E+04;  0.0000000E+00;  2.5607083E-06;  1.0000000E+04;  0.0000000E+00;  9.9994121E+03;-0.040842045;0.0;0.055454664;203.59004
  5.9999716E-01;  9.9999998E-03; -2.2000049E-01;1963;-0.0070730913;0.0;-0.0014197357;1000.2981;  4.0012074E-01;247.00102;3;-10.827201;0.0;-2.6096623;0;0.007017795;  1.0000422E+04;  0.0000000E+00;  4.8916223E-07;  1.0000000E+04;  0.0000000E+00;  9.9995039E+03;-0.040059857;0.0;0.047077652;170.58595
  5.9999716E-01;  9.9999998E-03; -2.0000033E-01;1964;-0.0070184558;0.0;-0.0010279664;1000.3043;  4.0012074E-01;252.03783;3;-10.597013;0.0;-2.0468383;0;-0.0040006153;  1.0000415E+04;  0.0000000E+00; -8.5143064E-08;  1.0000000E+04;  0.0000000E+00;  9.9996328E+03;-0.039253298;0.0;0.035252683;125.60878
  6.1999571E-01;  9.9999998E-03; -3.0000508E-01;1990;-0.010956842;0.0;-0.011443197;1000.6929;  4.0029040E-01;574.09363;3;-18.437971;0.0;-15.859105;0;0.059131302;  1.0000314E+04;  0.0000000E+00;  8.9160167E-06;  1.0000000E+04;  0.0000000E+00;  9.9990244E+03;-0.030479947;0.0;0.089611247;340.99554
  6.1999625E-01;  9.9999998E-03; -2.8000382E-01;1991;-0.0095106456;0.0;-0.008742108;1000.6905;  4.0029040E-01;572.01965;3;-15.427962;0.0;-11.927835;0;0.063560724;  1.0000313E+04;  0.0000000E+00;  1.4497410E-05;  1.0000000E+04;  0.0000000E+00;  9.9989795E+03;-0.030322015;0.0;0.09388274;356.90555
  6.1999649E-01;  9.9999998E-03; -2.6000234E-01;1992;-0.0088783288;0.0;-0.0055517699;1000.6942;  4.0029034E-01;575.08124;3;-13.923289;0.0;-7.9411054;0;0.058104627;  1.0000313E+04;  0.0000000E+00;  1.0121134E-05;  1.0000000E+04;  0.0000000E+00;  9.9990537E+03;-0.030148512;0.0;0.08825314;328.659
  6.1999655E-01;  9.9999998E-03; -2.4000123E-01;1993;-0.0085786441;0.0;-0.0031787015;1000.6985;  4.0029040E-01;578.73535;3;-13.125919;0.0;-5.0507207;0;0.050899357;  1.0000311E+04;  0.0000000E+00;  4.0645341E-06;  1.0000000E+04;  0.0000000E+00;  9.9991416E+03;-0.029931428;0.0;0.080830783;296.17899
  6.1999661E-01;  9.9999998E-03; -2.2000065E-01;1994;-0.0083504329;0.0;-0.0018963033;1000.7057;  4.0029043E-01;584.66095;3;-12.553699;0.0;-3.4732077;0;0.038174145;  1.0000309E+04;  0.0000000E+00;  7.9890896E-07;  1.0000000E+04;  0.0000000E+00;  9.9992871E+03;-0.029604631;0.0;0.067778774;244.95233
  6.1999667E-01;  9.9999998E-03; -2.0000039E-01;1995;-0.0082002059;0.0;-0.0012536942;1000.7148;  4.0029040E-01;592.16675;3;-12.180833;0.0;-2.5603812;0;0.021564597;  1.0000305E+04;  0.0000000E+00; -1.3765477E-07;  1.0000000E+04;  0.0000000E+00;  9.9994727E+03;-0.029135639;0.0;0.050700236;180.1431
  6.3999528E-01;  9.9999998E-03; -3.0000821E-01;2021;-0.011997947;0.0;-0.018348908;1001.4172;  4.0060100E-01;1174.0527;3;-20.140533;0.0;-25.045801;0;0.1555452;  1.0000117E+04;  0.0000000E+00;  1.1768132E-05;  1.0000000E+04;  0.0000000E+00;  9.9981826E+03;-0.011347274;0.0;0.16689248;633.28949
  6.3999581E-01;  9.9999998E-03; -2.8000638E-01;2022;-0.010500485;0.0;-0.014561594;1001.4223;  4.0060097E-01;1178.2994;3;-16.870483;0.0;-19.866276;0;0.14742956;  1.0000121E+04;  0.0000000E+00;  1.8698276E-05;  1.0000000E+04;  0.0000000E+00;  9.9982813E+03;-0.011878171;0.0;0.15930773;596.8576
  6.3999599E-01;  9.9999998E-03; -2.6000392E-01;2023;-0.010005552;0.0;-0.009348928;1001.4379;  4.0060097E-01;1191.2369;3;-15.479813;0.0;-13.356271;0;0.11993386;  1.0000126E+04;  0.0000000E+00;  1.2997290E-05;  1.0000000E+04;  0.0000000E+00;  9.9985879E+03;-0.012385902;0.0;0.13231976;487.68335
  6.3999605E-01;  9.9999998E-03; -2.4000204E-01;2024;-0.0097906068;0.0;-0.0051625087;1001.4489;  4.0060094E-01;1200.3228;3;-14.772485;0.0;-8.0199432;0;0.099914186;  1.0000129E+04;  0.0000000E+00;  5.2936225E-06;  1.0000000E+04;  0.0000000E+00;  9.9988057E+03;-0.012787581;0.0;0.11270177;410.86325
  6.3999611E-01;  9.9999998E-03; -2.2000098E-01;2025;-0.009546726;0.0;-0.002748366;1001.4601;  4.0060094E-01;1209.705;3;-14.164519;0.0;-4.8703961;0;0.079423122;  1.0000131E+04;  0.0000000E+00;  1.0754708E-06;  1.0000000E+04;  0.0000000E+00;  9.9990293E+03;-0.012999804;0.0;0.092422925;332.82205
  6.3999617E-01;  9.9999998E-03; -2.0000049E-01;2026;-0.0093090655;0.0;-0.0015978462;1001.473;  4.0060091E-01;1220.2722;3;-13.652967;0.0;-3.280108;0;0.055929538;  1.0000131E+04;  0.0000000E+00; -1.7364324E-07;  1.0000000E+04;  0.0000000E+00;  9.9992832E+03;-0.012982998;0.0;0.068912536;243.9545
  6.5999526E-01;  9.9999998E-03; -3.0001196E-01;2052;-0.01215819;0.0;-0.026696756;1002.3277;  4.0099090E-01;1928.3562;3;-20.48229;0.0;-36.25066;0;0.27528119;  9.9998809E+03;  0.0000000E+00;  1.2365002E-05;  1.0000000E+04;  0.0000000E+00;  9.9971377E+03;0.011669235;0.0;0.26361194;995.31689
  6.5999568E-01;  9.9999998E-03; -2.8000951E-01;2053;-0.010917337;0.0;-0.02183613;1002.3427;  4.0099090E-01;1940.7998;3;-17.55759;0.0;-30.001808;0;0.25087067;  9.9998896E+03;  0.0000000E+00;  1.9250707E-05;  1.0000000E+04;  0.0000000E+00;  9.9974277E+03;0.010581912;0.0;0.24028875;888.55334
  6.5999573E-01;  9.9999998E-03; -2.6000592E-01;2054;-0.010610522;0.0;-0.014213845;1002.3741;  4.0099084E-01;1966.8719;3;-16.456966;0.0;-20.527916;0;0.19348705;  9.9998975E+03;  0.0000000E+00;  1.3443793E-05;  1.0000000E+04;  0.0000000E+00;  9.9980488E+03;0.0095298821;0.0;0.18395716;670.63361
  6.5999573E-01;  9.9999998E-03; -2.4000306E-01;2055;-0.010528293;0.0;-0.0077529862;1002.394;  4.0099087E-01;1983.3646;3;-15.947397;0.0;-12.062469;0;0.15646479;  9.9999063E+03;  0.0000000E+00;  5.5633063E-06;  1.0000000E+04;  0.0000000E+00;  9.9984375E+03;0.0086309873;0.0;0.14783379;535.73871
  6.5999579E-01;  9.9999998E-03; -2.2000143E-01;2056;-0.010317477;0.0;-0.0039593712;1002.41;  4.0099087E-01;1996.5983;3;-15.348579;0.0;-6.9321427;0;0.12691602;  9.9999111E+03;  0.0000000E+00;  1.1873448E-06;  1.0000000E+04;  0.0000000E+00;  9.9987510E+03;0.0079573756;0.0;0.11895865;426.62384
  6.5999591E-01;  9.9999998E-03; -2.0000066E-01;2057;-0.010062413;0.0;-0.0021253268;1002.4268;  4.0099084E-01;2010.4244;3;-14.765557;0.0;-4.3145561;0;0.095936492;  9.9999150E+03;  0.0000000E+00; -1.5844284E-07;  1.0000000E+04;  0.0000000E+00;  9.9990811E+03;0.0075389012;0.0;0.088397592;311.7446
  6.7999566E-01;  9.9999998E-03; -3.0001521E-01;2083;-0.011153543;0.0;-0.033970445;1003.049;  4.0130153E-01;2525.9053;3;-18.959909;0.0;-46.122974;0;0.37903109;  9.9996484E+03;  0.0000000E+00;  1.0439252E-05;  1.0000000E+04;  0.0000000E+00;  9.9962676E+03;0.034547005;0.0;0.34448409;1296.4387
  6.7999595E-01;  9.9999998E-03; -2.8001225E-01;2084;-0.01035763;0.0;-0.028219018;1003.0709;  4.0130159E-01;2543.9778;3;-16.897892;0.0;-39.024212;0;0.3436228;  9.9996602E+03;  0.0000000E+00;  1.5983529E-05;  1.0000000E+04;  0.0000000E+00;  9.9966914E+03;0.033184394;0.0;0.31043842;1139.5745
  6.7999595E-01;  9.9999998E-03; -2.6000768E-01;2085;-0.010243398;0.0;-0.018532803;1003.1149;  4.0130150E-01;2580.4192;3;-16.157795;0.0;-26.980375;0;0.26267606;  9.9996719E+03;  0.0000000E+00;  1.1222094E-05;  1.0000000E+04;  0.0000000E+00;  9.9975596E+03;0.03186477;0.0;0.2308113;835.89996
  6.7999589E-01;  9.9999998E-03; -2.4000399E-01;2086;-0.010310949;0.0;-0.010138593;1003.1419;  4.0130150E-01;2602.8369;3;-15.93825;0.0;-15.847277;0;0.21180087;  9.9996807E+03;  0.0000000E+00;  4.6945156E-06;  1.0000000E+04;  0.0000000E+00;  9.9980898E+03;0.030718928;0.0;0.18108195;653.3443
  6.7999595E-01;  9.9999998E-03; -2.2000183E-01;2087;-0.010199248;0.0;-0.0050880499;1003.1622;  4.0130150E-01;2619.6255;3;-15.522489;0.0;-8.8955984;0;0.17417745;  9.9996875E+03;  0.0000000E+00;  1.0397672E-06;  1.0000000E+04;  0.0000000E+00;  9.9984863E+03;0.029786583;0.0;0.14439087;516.14789
  6.7999601E-01;  9.9999998E-03; -2.0000081E-01;2088;-0.0099853296;0.0;-0.0025980957;1003.1825;  4.0130147E-01;2636.5129;3;-14.9846;0.0;-5.2811685;0;0.13623679;  9.9996943E+03;  0.0000000E+00; -1.0197425E-07;  1.0000000E+04;  0.0000000E+00;  9.9988877E+03;0.029074958;0.0;0.10716183;376.71063
  6.9999659E-01;  9.9999998E-03; -3.0001736E-01;2114;-0.0088719977;0.0;-0.038752984;1003.4383;  4.0147123E-01;2848.2891;3;-15.165544;0.0;-52.593216;0;0.44442439;  9.9994678E+03;  0.0000000E+00;  7.1710374E-06;  1.0000000E+04;  0.0000000E+00;  9.9957539E+03;0.05291535;0.0;0.39150903;1474.0453
  6.9999665E-01;  9.9999998E-03; -2.8001407E-01;2115;-0.0086736875;0.0;-0.032427885;1003.4616;  4.0147120E-01;2867.645;3;-14.385921;0.0;-44.947163;0;0.40764299;  9.9994785E+03;  0.0000000E+00;  1.0802652E-05;  1.0000000E+04;  0.0000000E+00;  9.9962080E+03;0.05158899;0.0;0.35605401;1304.3621
  6.9999665E-01;  9.9999998E-03; -2.6000887E-01;2116;-0.0086804936;0.0;-0.021441581;1003.5115;  4.0147117E-01;2909.0232;3;-14.034059;0.0;-31.38105;0;0.31600058;  9.9994893E+03;  0.0000000E+00;  7.6076249E-06;  1.0000000E+04;  0.0000000E+00;  9.9971963E+03;0.050300114;0.0;0.26570046;959.50665
  6.9999659E-01;  9.9999998E-03; -2.4000461E-01;2117;-0.0087228641;0.0;-0.011772937;1003.5425;  4.0147117E-01;2934.6008;3;-13.869243;0.0;-18.516697;0;0.25762114;  9.9994980E+03;  0.0000000E+00;  3.1907803E-06;  1.0000000E+04;  0.0000000E+00;  9.9978037E+03;0.04916599;0.0;0.20845515;750.33124
  6.9999659E-01;  9.9999998E-03; -2.2000213E-01;2118;-0.0086583346;0.0;-0.0059086308;1003.5656;  4.0147114E-01;2953.8579;3;-13.583467;0.0;-10.376158;0;0.21445385;  9.9995049E+03;  0.0000000E+00;  7.1366657E-07;  1.0000000E+04;  0.0000000E+00;  9.9982578E+03;0.048196815;0.0;0.16625704;593.00763
  6.9999665E-01;  9.9999998E-03; -2.0000093E-01;2119;-0.0085321087;0.0;-0.0029843657;1003.5891;  4.0147111E-01;2973.3127;3;-13.234961;0.0;-6.0920057;0;0.17084767;  9.9995127E+03;  0.0000000E+00; -5.3115002E-08;  1.0000000E+04;  0.0000000E+00;  9.9987188E+03;0.047379106;0.0;0.12346856;433.00613
  7.1999758E-01;  9.9999998E-03; -3.0001864E-01;2145;-0.006195704;0.0;-0.041551095;1003.6058;  4.0154538E-01;2986.9575;3;-10.638775;0.0;-56.363304;0;0.47769666;  9.9993633E+03;  0.0000000E+00;  3.7271634E-06;  1.0000000E+04;  0.0000000E+00;  9.9955049E+03;0.06373556;0.0;0.41396111;1561.069
  7.1999758E-01;  9.9999998E-03; -2.8001508E-01;2146;-0.0062333257;0.0;-0.034805555;1003.6279;  4.0154535E-01;3005.3254;3;-10.445774;0.0;-48.213799;0;0.4440951;  9.9993730E+03;  0.0000000E+00;  5.9113418E-06;  1.0000000E+04;  0.0000000E+00;  9.9959346E+03;0.062657453;0.0;0.38143766;1398.4751
  7.1999758E-01;  9.9999998E-03; -2.6000953E-01;2147;-0.0062449933;0.0;-0.023059029;1003.6792;  4.0154532E-01;3047.7888;3;-10.234976;0.0;-33.763088;0;0.35034552;  9.9993809E+03;  0.0000000E+00;  4.1666476E-06;  1.0000000E+04;  0.0000000E+00;  9.9969521E+03;0.061599489;0.0;0.28874603;1042.745
  7.1999758E-01;  9.9999998E-03; -2.4000496E-01;2148;-0.0062187519;0.0;-0.012691217;1003.7115;  4.0154529E-01;3074.5508;3;-10.016648;0.0;-19.999689;0;0.28943205;  9.9993887E+03;  0.0000000E+00;  1.7297425E-06;  1.0000000E+04;  0.0000000E+00;  9.9975898E+03;0.060639866;0.0;0.22879219;822.9538
  7.1999764E-01;  9.9999998E-03; -2.2000229E-01;2149;-0.0061397497;0.0;-0.0063983463;1003.7365;  4.0154529E-01;3095.2888;3;-9.7498732;0.0;-11.276817;0;0.24299936;  9.9993945E+03;  0.0000000E+00;  3.7460117E-07;  1.0000000E+04;  0.0000000E+00;  9.9980811E+03;0.059776191;0.0;0.18322317;652.73944
  7.1999764E-01;  9.9999998E-03; -2.0000102E-01;2150;-0.0060369107;0.0;-0.0032532995;1003.7621;  4.0154529E-01;3116.5205;3;-9.4708681;0.0;-6.6654491;0;0.19523463;  9.9994014E+03;  0.0000000E+00; -2.5870277E-08;  1.0000000E+04;  0.0000000E+00;  9.9985869E+03;0.058989301;0.0;0.13624533;477.08755
  7.3999852E-01;  9.9999998E-03; -3.0001932E-01;2176;-0.0037921064;0.0;-0.04310501;1003.6722;  4.0157449E-01;3041.8501;3;-6.5535059;0.0;-58.448364;0;0.48987922;  9.9993418E+03;  0.0000000E+00;  1.2852429E-06;  1.0000000E+04;  0.0000000E+00;  9.9953955E+03;0.066496052;0.0;0.42338318;1599.057
  7.3999852E-01;  9.9999998E-03; -2.8001565E-01;2177;-0.003835419;0.0;-0.036074888;1003.6921;  4.0157449E-01;3058.3411;3;-6.4725323;0.0;-49.907619;0;0.46045005;  9.9993477E+03;  0.0000000E+00;  2.4547221E-06;  1.0000000E+04;  0.0000000E+00;  9.9957891E+03;0.065730244;0.0;0.39471981;1449.1455
  7.3999852E-01;  9.9999998E-03; -2.6000988E-01;2178;-0.0038474344;0.0;-0.023906445;1003.743;  4.0157452E-01;3100.5068;3;-6.3595066;0.0;-34.968151;0;0.36806121;  9.9993525E+03;  0.0000000E+00;  1.7462422E-06;  1.0000000E+04;  0.0000000E+00;  9.9967979E+03;0.064967044;0.0;0.30309418;1095.396
  7.3999852E-01;  9.9999998E-03; -2.4000515E-01;2179;-0.0038208489;0.0;-0.013183627;1003.7756;  4.0157446E-01;3127.5637;3;-6.2076731;0.0;-20.786705;0;0.30689874;  9.9993594E+03;  0.0000000E+00;  7.0608490E-07;  1.0000000E+04;  0.0000000E+00;  9.9974434E+03;0.064233549;0.0;0.24266519;872.75446
  7.3999858E-01;  9.9999998E-03; -2.2000238E-01;2180;-0.0037628238;0.0;-0.0066777072;1003.8016;  4.0157443E-01;3149.0911;3;-6.0254722;0.0;-11.799898;0;0.25863346;  9.9993643E+03;  0.0000000E+00;  1.4399335E-07;  1.0000000E+04;  0.0000000E+00;  9.9979561E+03;0.063521922;0.0;0.19511154;694.66138
  7.3999858E-01;  9.9999998E-03; -2.0000106E-01;2181;-0.0036891494;0.0;-0.0034234042;1003.8289;  4.0157443E-01;3171.7043;3;-5.8325887;0.0;-7.0374956;0;0.20804712;  9.9993691E+03;  0.0000000E+00; -1.0903619E-08;  1.0000000E+04;  0.0000000E+00;  9.9984951E+03;0.062822193;0.0;0.14522493;508.08633
  7.5999928E-01;  9.9999998E-03; -3.0001968E-01;2207;-0.0019221046;0.0;-0.043904841;1003.6995;  4.0158552E-01;3064.4097;3;-3.3548822;0.0;-59.527252;0;0.48970804;  9.9993789E+03;  0.0000000E+00;  1.6848112E-07;  1.0000000E+04;  0.0000000E+00;  9.9953564E+03;0.063070528;0.0;0.4266375;1612.6332
  7.5999928E-01;  9.9999998E-03; -2.8001595E-01;2208;-0.0019521344;0.0;-0.036710426;1003.7177;  4.0158555E-01;3079.4187;3;-3.3318202;0.0;-50.739552;0;0.46378332;  9.9993828E+03;  0.0000000E+00;  6.5222491E-07;  1.0000000E+04;  0.0000000E+00;  9.9957158E+03;0.062583268;0.0;0.40120006;1474.1276
  7.5999928E-01;  9.9999998E-03; -2.6001006E-01;2209;-0.0019614592;0.0;-0.024323385;1003.7677;  4.0158552E-01;3120.8911;3;-3.2832446;0.0;-35.545372;0;0.37336949;  9.9993867E+03;  0.0000000E+00;  4.8443650E-07;  1.0000000E+04;  0.0000000E+00;  9.9967090E+03;0.062079344;0.0;0.31129014;1125.55
  7.5999928E-01;  9.9999998E-03; -2.4000525E-01;2210;-0.0019465836;0.0;-0.013431175;1003.8002;  4.0158546E-01;3147.8479;3;-3.205565;0.0;-21.182356;0;0.31264329;  9.9993906E+03;  0.0000000E+00;  1.8984106E-07;  1.0000000E+04;  0.0000000E+00;  9.9973535E+03;0.061544582;0.0;0.25109872;902.99091
  7.5999928E-01;  9.9999998E-03; -2.2000244E-01;2211;-0.0019124129;0.0;-0.0068270178;1003.8268;  4.0158549E-01;3169.8679;3;-3.104775;0.0;-12.086849;0;0.26341033;  9.9993955E+03;  0.0000000E+00;  3.4244781E-08;  1.0000000E+04;  0.0000000E+00;  9.9978789E+03;0.060969293;0.0;0.20244104;720.45319
  7.5999928E-01;  9.9999998E-03; -2.0000109E-01;2212;-0.001868865;0.0;-0.0035231824;1003.855;  4.0158549E-01;3193.1714;3;-2.9940174;0.0;-7.2611103;0;0.21110746;  9.9993994E+03;  0.0000000E+00; -4.2981059E-09;  1.0000000E+04;  0.0000000E+00;  9.9984375E+03;0.060359679;0.0;0.15074778;527.11792
  7.7999979E-01;  9.9999998E-03; -3.0001983E-01;2238;-0.00055137154;0.0;-0.044241261;1003.7127;  4.0158960E-01;3075.0642;3;-0.9903717;0.0;-59.991634;0;0.48376173;  9.9994473E+03;  0.0000000E+00; -8.7199666E-08;  1.0000000E+04;  0.0000000E+00;  9.9953477E+03;0.056492519;0.0;0.42726922;1614.7328
  7.7999979E-01;  9.9999998E-03; -2.8001606E-01;2239;-0.0005674971;0.0;-0.036964044;1003.7297;  4.0158963E-01;3089.1836;3;-1.0013735;0.0;-51.064785;0;0.45990819;  9.9994502E+03;  0.0000000E+00;  2.9113831E-08;  1.0000000E+04;  0.0000000E+00;  9.9956865E+03;0.056206077;0.0;0.40370211;1483.2495
  7.7999979E-01;  9.9999998E-03; -2.6001015E-01;2240;-0.00057384989;0.0;-0.02448315;1003.7791;  4.0158957E-01;3130.0608;3;-0.99758476;0.0;-35.758476;0;0.37092659;  9.9994512E+03;  0.0000000E+00;  3.6826091E-08;  1.0000000E+04;  0.0000000E+00;  9.9966680E+03;0.055879015;0.0;0.31504756;1138.9878
  7.7999979E-01;  9.9999998E-03; -2.4000528E-01;2241;-0.00056984264;0.0;-0.013527229;1003.8114;  4.0158954E-01;3156.8184;3;-0.97816008;0.0;-21.334646;0;0.31065989;  9.9994551E+03;  0.0000000E+00;  1.3791973E-08;  1.0000000E+04;  0.0000000E+00;  9.9973096E+03;0.055478748;0.0;0.25518113;917.29608
  7.7999979E-01;  9.9999998E-03; -2.2000246E-01;2242;-0.00055770739;0.0;-0.0068897526;1003.8383;  4.0158951E-01;3179.1331;3;-0.94570994;0.0;-12.210381;0;0.26101628;  9.9994580E+03;  0.0000000E+00;  1.6858490E-09;  1.0000000E+04;  0.0000000E+00;  9.9978418E+03;0.054999169;0.0;0.20601712;732.77655
  7.7999979E-01;  9.9999998E-03; -2.0000111E-01;2243;-0.0005413398;0.0;-0.0035704528;1003.8669;  4.0158954E-01;3202.8298;3;-0.90570164;0.0;-7.3691754;0;0.20788382;  9.9994619E+03;  0.0000000E+00; -4.2040296E-10;  1.0000000E+04;  0.0000000E+00;  9.9984102E+03;0.054461282;0.0;0.15342253;536.16461
  8.0000019E-01;  9.9999998E-03; -3.0001983E-01;2269;0.00051458372;0.0;-0.044247098;1003.7176;  4.0158993E-01;3078.8328;3;0.86158818;0.0;-60.035591;0;0.475925;  9.9995176E+03;  0.0000000E+00; -1.3617731E-09;  1.0000000E+04;  0.0000000E+00;  9.9953574E+03;0.049500324;0.0;0.42642468;1609.2338
  8.0000019E-01;  9.9999998E-03; -2.8001603E-01;2270;0.00051100925;0.0;-0.036950503;1003.7342;  4.0158996E-01;3092.6545;3;0.8281973;0.0;-51.057705;0;0.4527573;  9.9995186E+03;  0.0000000E+00;  8.0434539E-09;  1.0000000E+04;  0.0000000E+00;  9.9956904E+03;0.049328733;0.0;0.40342855;1480.5417
  8.0000019E-01;  9.9999998E-03; -2.6001012E-01;2271;0.000507013;0.0;-0.02446463;1003.7832;  4.0158990E-01;3133.2319;3;0.79799098;0.0;-35.731354;0;0.36449242;  9.9995195E+03;  0.0000000E+00;  1.0245517E-08;  1.0000000E+04;  0.0000000E+00;  9.9966631E+03;0.049094517;0.0;0.31539789;1139.1392
  8.0000019E-01;  9.9999998E-03; -2.4000528E-01;2272;0.00050148153;0.0;-0.013516737;1003.8153;  4.0158993E-01;3159.7898;3;0.77054197;0.0;-21.319344;0;0.30456397;  9.9995225E+03;  0.0000000E+00;  5.9769705E-09;  1.0000000E+04;  0.0000000E+00;  9.9973027E+03;0.048767034;0.0;0.25579694;918.62042
  8.0000019E-01;  9.9999998E-03; -2.2000246E-01;2273;0.00049483741;0.0;-0.0068886867;1003.8422;  4.0158987E-01;3182.1023;3;0.74666458;0.0;-12.212685;0;0.25493035;  9.9995254E+03;  0.0000000E+00;  1.6031594E-09;  1.0000000E+04;  0.0000000E+00;  9.9978359E+03;0.048346404;0.0;0.20658393;734.08783
  8.0000019E-01;  9.9999998E-03; -2.0000111E-01;2274;0.00048822456;0.0;-0.0035760882;1003.871;  4.0158987E-01;3205.8958;3;0.72747982;0.0;-7.3843937;0;0.20168793;  9.9995283E+03;  0.0000000E+00; -1.7981004E-10;  1.0000000E+04;  0.0000000E+00;  9.9984063E+03;0.047861572;0.0;0.15382636;537.08801
  8.2000059E-01;  9.9999998E-03; -3.0001974E-01;2300;0.0014839502;0.0;-0.044030331;1003.7187;  4.0158898E-01;3079.4426;3;2.5466826;0.0;-59.75631;0;0.46891624;  9.9995752E+03;  0.0000000E+00;  1.8314522E-07;  1.0000000E+04;  0.0000000E+00;  9.9953711E+03;0.043603618;0.0;0.42531261;1601.7228
  8.2000059E-01;  9.9999998E-03; -2.8001598E-01;2301;0.0014908337;0.0;-0.03676445;1003.7357;  4.0158892E-01;3093.4602;3;2.4916003;0.0;-50.809681;0;0.44494331;  9.9995762E+03;  0.0000000E+00;  2.8071815E-07;  1.0000000E+04;  0.0000000E+00;  9.9957109E+03;0.043476738;0.0;0.40146658;1470.499
  8.2000059E-01;  9.9999998E-03; -2.6001006E-01;2302;0.0014880609;0.0;-0.024331599;1003.7847;  4.0158892E-01;3134.1311;3;2.4292314;0.0;-35.534088;0;0.35639092;  9.9995781E+03;  0.0000000E+00;  2.0039973E-07;  1.0000000E+04;  0.0000000E+00;  9.9966875E+03;0.043274682;0.0;0.31311625;1128.8912
  8.2000059E-01;  9.9999998E-03; -2.4000525E-01;2303;0.0014741183;0.0;-0.013434244;1003.817;  4.0158892E-01;3160.7844;3;2.359906;0.0;-21.179741;0;0.29653266;  9.9995811E+03;  0.0000000E+00;  8.4447564E-08;  1.0000000E+04;  0.0000000E+00;  9.9973271E+03;0.042978365;0.0;0.25355428;909.05994
  8.2000059E-01;  9.9999998E-03; -2.2000244E-01;2304;0.0014516978;0.0;-0.006840351;1003.8436;  4.0158886E-01;3182.8967;3;2.2872875;0.0;-12.118506;0;0.24723558;  9.9995830E+03;  0.0000000E+00;  1.6216317E-08;  1.0000000E+04;  0.0000000E+00;  9.9978555E+03;0.042592008;0.0;0.20464358;726.04767
  8.2000053E-01;  9.9999998E-03; -2.0000109E-01;2305;0.0014256445;0.0;-0.003547397;1003.8721;  4.0158889E-01;3206.3911;3;2.2169447;0.0;-7.3207855;0;0.19448411;  9.9995859E+03;  0.0000000E+00; -2.8673017E-09;  1.0000000E+04;  0.0000000E+00;  9.9984199E+03;0.042144336;0.0;0.15233977;531.1037
  8.4000093E-01;  9.9999998E-03; -3.0001938E-01;2331;0.0024703927;0.0;-0.043234881;1003.6608;  4.0156326E-01;3030.9653;3;4.2540908;0.0;-58.712902;0;0.4570978;  9.9996201E+03;  0.0000000E+00;  4.8624929E-07;  1.0000000E+04;  0.0000000E+00;  9.9954502E+03;0.0389552;0.0;0.41814259;1570.1324
  8.4000093E-01;  9.9999998E-03; -2.8001568E-01;2332;0.0024858762;0.0;-0.036094118;1003.6778;  4.0156326E-01;3045.0793;3;4.172874;0.0;-49.907349;0;0.43301332;  9.9996221E+03;  0.0000000E+00;  7.9483237E-07;  1.0000000E+04;  0.0000000E+00;  9.9957900E+03;0.038826585;0.0;0.39418674;1439.882
  8.4000093E-01;  9.9999998E-03; -2.6000988E-01;2333;0.0024832203;0.0;-0.02387942;1003.7261;  4.0156329E-01;3085.0527;3;4.0755634;0.0;-34.879974;0;0.34563389;  9.9996240E+03;  0.0000000E+00;  5.6642330E-07;  1.0000000E+04;  0.0000000E+00;  9.9967520E+03;0.038619667;0.0;0.30701423;1104.054
  8.4000093E-01;  9.9999998E-03; -2.4000515E-01;2334;0.0024614618;0.0;-0.013177604;1003.7578;  4.0156320E-01;3111.208;3;3.9650211;0.0;-20.77198;0;0.28670639;  9.9996260E+03;  0.0000000E+00;  2.3228597E-07;  1.0000000E+04;  0.0000000E+00;  9.9973818E+03;0.038326152;0.0;0.24838023;888.34229
  8.4000093E-01;  9.9999998E-03; -2.2000240E-01;2335;0.00242517;0.0;-0.0067050979;1003.784;  4.0156323E-01;3132.9219;3;3.8470049;0.0;-11.873771;0;0.23833464;  9.9996289E+03;  0.0000000E+00;  4.8194295E-08;  1.0000000E+04;  0.0000000E+00;  9.9979004E+03;0.037951197;0.0;0.20038344;709.26404
  8.4000093E-01;  9.9999998E-03; -2.0000108E-01;2336;0.0023819085;0.0;-0.0034742411;1003.8118;  4.0156323E-01;3156.0176;3;3.7298796;0.0;-7.1667595;0;0.1866568;  9.9996318E+03;  0.0000000E+00; -5.8714926E-09;  1.0000000E+04;  0.0000000E+00;  9.9984541E+03;0.03751877;0.0;0.14913803;518.76672
  8.6000133E-01;  9.9999998E-03; -3.0001876E-01;2362;0.0034731014;0.0;-0.041859828;1003.5438;  4.0151274E-01;2933.4866;3;5.9828954;0.0;-56.885868;0;0.43967056;  9.9996611E+03;  0.0000000E+00;  9.6499582E-07;  1.0000000E+04;  0.0000000E+00;  9.9955967E+03;0.034870759;0.0;0.40479979;1514.3855
  8.6000133E-01;  9.9999998E-03; -2.8001517E-01;2363;0.0034956126;0.0;-0.034937132;1003.5604;  4.0151277E-01;2947.104;3;5.8714542;0.0;-48.331017;0;0.41626576;  9.9996621E+03;  0.0000000E+00;  1.5744325E-06;  1.0000000E+04;  0.0000000E+00;  9.9959248E+03;0.034708224;0.0;0.38155752;1388.8009
  8.6000133E-01;  9.9999998E-03; -2.6000956E-01;2364;0.0034925365;0.0;-0.023105588;1003.6072;  4.0151274E-01;2985.8843;3;5.7372389;0.0;-33.756237;0;0.33162099;  9.9996641E+03;  0.0000000E+00;  1.1101724E-06;  1.0000000E+04;  0.0000000E+00;  9.9968574E+03;0.034465861;0.0;0.29715514;1064.9481
  8.6000133E-01;  9.9999998E-03; -2.4000499E-01;2365;0.003463449;0.0;-0.012746131;1003.6378;  4.0151268E-01;3011.2444;3;5.5856404;0.0;-20.091013;0;0.27453294;  9.9996670E+03;  0.0000000E+00;  4.5745119E-07;  1.0000000E+04;  0.0000000E+00;  9.9974658E+03;0.034141619;0.0;0.24039133;856.89441
  8.6000133E-01;  9.9999998E-03; -2.2000231E-01;2366;0.0034145056;0.0;-0.00648276;1003.6631;  4.0151268E-01;3032.1641;3;5.4241943;0.0;-11.47762;0;0.22765493;  9.9996699E+03;  0.0000000E+00;  9.5735025E-08;  1.0000000E+04;  0.0000000E+00;  9.9979697E+03;0.033740878;0.0;0.19391406;684.12012
  8.6000133E-01;  9.9999998E-03; -2.0000103E-01;2367;0.0033555112;0.0;-0.003357626;1003.6901;  4.0151265E-01;3054.564;3;5.2631717;0.0;-6.9247971;0;0.17758615;  9.9996719E+03;  0.0000000E+00; -8.9352916E-09;  1.0000000E+04;  0.0000000E+00;  9.9985039E+03;0.033285096;0.0;0.14430106;500.34521
  8.8000172E-01;  9.9999998E-03; -3.0001789E-01;2393;0.0044256272;0.0;-0.03994922;1003.3752;  4.0144026E-01;2793.1155;3;7.6224484;0.0;-54.33744;0;0.4163318;  9.9997021E+03;  0.0000000E+00;  1.6439739E-06;  1.0000000E+04;  0.0000000E+00;  9.9958057E+03;0.030570675;0.0;0.38576111;1436.2537
  8.8000172E-01;  9.9999998E-03; -2.8001446E-01;2394;0.0044537419;0.0;-0.033328958;1003.3908;  4.0144029E-01;2805.9397;3;7.4799085;0.0;-46.130627;0;0.39428872;  9.9997041E+03;  0.0000000E+00;  2.5554939E-06;  1.0000000E+04;  0.0000000E+00;  9.9961143E+03;0.030338176;0.0;0.36395055;1318.6123
  8.8000172E-01;  9.9999998E-03; -2.6000911E-01;2395;0.0044500045;0.0;-0.022032181;1003.4352;  4.0144023E-01;2842.7354;3;7.3097119;0.0;-32.193523;0;0.31379583;  9.9997061E+03;  0.0000000E+00;  1.7920273E-06;  1.0000000E+04;  0.0000000E+00;  9.9969990E+03;0.030016787;0.0;0.28377905;1012.4321
  8.8000172E-01;  9.9999998E-03; -2.4000475E-01;2396;0.0044141212;0.0;-0.012150633;1003.4645;  4.0144020E-01;2866.9043;3;7.1190987;0.0;-19.152328;0;0.25936562;  9.9997100E+03;  0.0000000E+00;  7.4454653E-07;  1.0000000E+04;  0.0000000E+00;  9.9975791E+03;0.029607283;0.0;0.22975834;815.33124
  8.8000166E-01;  9.9999998E-03; -2.2000220E-01;2397;0.0043535829;0.0;-0.0061788387;1003.4887;  4.0144017E-01;2886.9297;3;6.9170218;0.0;-10.939344;0;0.21448593;  9.9997139E+03;  0.0000000E+00;  1.5967896E-07;  1.0000000E+04;  0.0000000E+00;  9.9980576E+03;0.029119482;0.0;0.18536645;651.08344
  8.8000166E-01;  9.9999998E-03; -2.0000099E-01;2398;0.0042802086;0.0;-0.0032003357;1003.5145;  4.0144017E-01;2908.3362;3;6.7154503;0.0;-6.6007133;0;0.16650215;  9.9997178E+03;  0.0000000E+00; -1.1666017E-08;  1.0000000E+04;  0.0000000E+00;  9.9985713E+03;0.028581372;0.0;0.13792078;476.16724
  9.0000200E-01;  9.9999998E-03; -3.0001682E-01;2424;0.0052468744;0.0;-0.037579563;1003.1642;  4.0134969E-01;2617.4465;3;9.0371265;0.0;-51.171574;0;0.38760373;  9.9997490E+03;  0.0000000E+00;  2.3807274E-06;  1.0000000E+04;  0.0000000E+00;  9.9960664E+03;0.025725367;0.0;0.36187837;1338.8475
  9.0000200E-01;  9.9999998E-03; -2.8001359E-01;2425;0.0052787769;0.0;-0.031333014;1003.1786;  4.0134969E-01;2629.2795;3;8.8664417;0.0;-43.394756;0;0.36741126;  9.9997529E+03;  0.0000000E+00;  3.6041317E-06;  1.0000000E+04;  0.0000000E+00;  9.9963477E+03;0.025365632;0.0;0.34204563;1231.7355
  9.0000200E-01;  9.9999998E-03; -2.6000857E-01;2426;0.0052746665;0.0;-0.02070049;1003.2202;  4.0134966E-01;2663.6938;3;8.6642923;0.0;-30.252275;0;0.29221547;  9.9997568E+03;  0.0000000E+00;  2.5084928E-06;  1.0000000E+04;  0.0000000E+00;  9.9971738E+03;0.024895614;0.0;0.26731986;948.05426
  9.0000200E-01;  9.9999998E-03; -2.4000446E-01;2427;0.0052326098;0.0;-0.011412471;1003.2475;  4.0134963E-01;2686.2749;3;8.4391069;0.0;-17.989346;0;0.24110201;  9.9997617E+03;  0.0000000E+00;  1.0430879E-06;  1.0000000E+04;  0.0000000E+00;  9.9977148E+03;0.024319462;0.0;0.21678254;764.72858
  9.0000200E-01;  9.9999998E-03; -2.2000207E-01;2428;0.0051617133;0.0;-0.005803498;1003.2704;  4.0134966E-01;2705.2075;3;8.2011051;0.0;-10.276005;0;0.19863251;  9.9997666E+03;  0.0000000E+00;  2.3097746E-07;  1.0000000E+04;  0.0000000E+00;  9.9981670E+03;0.023660712;0.0;0.1749718;610.97717
  9.0000200E-01;  9.9999998E-03; -2.0000093E-01;2429;0.0050756177;0.0;-0.0030074783;1003.295;  4.0134963E-01;2725.5208;3;7.9638767;0.0;-6.2044983;0;0.15313418;  9.9997725E+03;  0.0000000E+00; -1.3469959E-08;  1.0000000E+04;  0.0000000E+00;  9.9986514E+03;0.022967219;0.0;0.13016696;446.83289
  9.2000228E-01;  9.9999998E-03; -3.0001557E-01;2455;0.0058728317;0.0;-0.034857024;1002.9222;  4.0124577E-01;2415.8523;3;10.119232;0.0;-47.531761;0;0.35493183;  9.9997988E+03;  0.0000000E+00;  3.0218373E-06;  1.0000000E+04;  0.0000000E+00;  9.9963672E+03;0.020621145;0.0;0.33431068;1226.5031
  9.2000228E-01;  9.9999998E-03; -2.8001258E-01;2456;0.0058929618;0.0;-0.029035527;1002.9351;  4.0124577E-01;2426.5947;3;9.8937769;0.0;-40.23885;0;0.33681712;  9.9998047E+03;  0.0000000E+00;  4.5116612E-06;  1.0000000E+04;  0.0000000E+00;  9.9966182E+03;0.020044532;0.0;0.31677258;1131.6151
  9.2000228E-01;  9.9999998E-03; -2.6000795E-01;2457;0.0059024403;0.0;-0.019168979;1002.9732;  4.0124580E-01;2458.0334;3;9.6984749;0.0;-28.016521;0;0.26772723;  9.9998115E+03;  0.0000000E+00;  3.1289164E-06;  1.0000000E+04;  0.0000000E+00;  9.9973740E+03;0.019323593;0.0;0.24840364;874.04401
  9.2000228E-01;  9.9999998E-03; -2.4000414E-01;2458;0.0058549861;0.0;-0.010563688;1002.9986;  4.0124577E-01;2479.0254;3;9.445344;0.0;-16.650648;0;0.22038928;  9.9998193E+03;  0.0000000E+00;  1.2890291E-06;  1.0000000E+04;  0.0000000E+00;  9.9978711E+03;0.018473322;0.0;0.20191595;706.69464
  9.2000222E-01;  9.9999998E-03; -2.2000192E-01;2459;0.0057722828;0.0;-0.0053721024;1003.02;  4.0124577E-01;2496.7651;3;9.171422;0.0;-9.5135164;0;0.18062872;  9.9998271E+03;  0.0000000E+00;  2.8110787E-07;  1.0000000E+04;  0.0000000E+00;  9.9982910E+03;0.017544296;0.0;0.16308442;565.05383
  9.2000222E-01;  9.9999998E-03; -2.0000087E-01;2460;0.0056622881;0.0;-0.0027876238;1003.043;  4.0124574E-01;2515.6875;3;8.8759975;0.0;-5.7529097;0;0.13792859;  9.9998350E+03;  0.0000000E+00; -1.6138566E-08;  1.0000000E+04;  0.0000000E+00;  9.9987422E+03;0.016619056;0.0;0.12130953;413.28143
  9.4000238E-01;  9.9999998E-03; -3.0001426E-01;2486;0.0062722103;0.0;-0.03190149;1002.6601;  4.0113345E-01;2197.5122;3;10.815381;0.0;-43.581562;0;0.32026476;  9.9998447E+03;  0.0000000E+00;  3.4260356E-06;  1.0000000E+04;  0.0000000E+00;  9.9966953E+03;0.015984837;0.0;0.30427992;1103.8948
  9.4000238E-01;  9.9999998E-03; -2.8001150E-01;2487;0.0062839696;0.0;-0.02654111;1002.6715;  4.0113345E-01;2206.9663;3;10.555595;0.0;-36.812996;0;0.30428258;  9.9998535E+03;  0.0000000E+00;  1.0477472E-05;  1.0000000E+04;  0.0000000E+00;  9.9969131E+03;0.01507006;0.0;0.28921252;1022.1558
  9.4000244E-01;  9.9999998E-03; -2.6000723E-01;2488;0.0062990692;0.0;-0.017504076;1002.706;  4.0113348E-01;2235.5259;3;10.356723;0.0;-25.585257;0;0.24171989;  9.9998633E+03;  0.0000000E+00;  4.8395477E-06;  1.0000000E+04;  0.0000000E+00;  9.9975928E+03;0.013967609;0.0;0.22775228;793.01288
  9.4000238E-01;  9.9999998E-03; -2.4000376E-01;2489;0.0062433095;0.0;-0.0096397074;1002.7291;  4.0113339E-01;2254.6313;3;10.076511;0.0;-15.191675;0;0.1984324;  9.9998750E+03;  0.0000000E+00;  1.4342460E-06;  1.0000000E+04;  0.0000000E+00;  9.9980430E+03;0.012717575;0.0;0.18571483;643.22009
  9.4000238E-01;  9.9999998E-03; -2.2000176E-01;2490;0.0061150356;0.0;-0.0049039158;1002.749;  4.0113342E-01;2270.9792;3;9.6989059;0.0;-8.6853342;0;0.16157885;  9.9998877E+03;  0.0000000E+00;  3.1375617E-07;  1.0000000E+04;  0.0000000E+00;  9.9984268E+03;0.01141426;0.0;0.15016459;514.93622
  9.4000232E-01;  9.9999998E-03; -2.0000079E-01;2491;0.005937126;0.0;-0.0025576658;1002.7703;  4.0113342E-01;2288.6074;3;9.2602797;0.0;-5.2788815;0;0.12189621;  9.9998984E+03;  0.0000000E+00; -1.4847577E-08;  1.0000000E+04;  0.0000000E+00;  9.9988418E+03;0.010187394;0.0;0.11170881;376.75793
  9.6000248E-01;  9.9999998E-03; -3.0001286E-01;2517;0.0065041338;0.0;-0.028835708;1002.3892;  4.0101761E-01;1971.8053;3;11.226476;0.0;-39.486771;0;0.28554678;  9.9998779E+03;  0.0000000E+00;  3.4927639E-06;  1.0000000E+04;  0.0000000E+00;  9.9970361E+03;0.012561439;0.0;0.27298534;975.67615
  9.6000248E-01;  9.9999998E-03; -2.8001037E-01;2518;0.0065114186;0.0;-0.023966527;1002.3991;  4.0101758E-01;1979.9711;3;10.955057;0.0;-33.282661;0;0.2717796;  9.9998906E+03;  0.0000000E+00;  1.8811597E-04;  1.0000000E+04;  0.0000000E+00;  9.9972188E+03;0.011185233;0.0;0.26059437;907.83783
  9.6000248E-01;  9.9999998E-03; -2.6000655E-01;2519;0.0064845295;0.0;-0.015781745;1002.4299;  4.0101758E-01;2005.4525;3;10.670975;0.0;-23.067278;0;0.21579754;  9.9999072E+03;  0.0000000E+00;  1.5314649E-04;  1.0000000E+04;  0.0000000E+00;  9.9978213E+03;0.0095784329;0.0;0.20621911;708.04285
  9.6000248E-01;  9.9999998E-03; -2.4000339E-01;2520;0.0063785543;0.0;-0.0086822063;1002.4509;  4.0101752E-01;2022.7679;3;10.291357;0.0;-13.67695;0;0.17663603;  9.9999238E+03;  0.0000000E+00;  5.1669649E-05;  1.0000000E+04;  0.0000000E+00;  9.9982217E+03;0.0078185163;0.0;0.16881751;576.60077
  9.6000242E-01;  9.9999998E-03; -2.2000158E-01;2521;0.0061819614;0.0;-0.0044202381;1002.4691;  4.0101755E-01;2037.7223;3;9.7779903;0.0;-7.8283496;0;0.14278957;  9.9999404E+03;  0.0000000E+00;  4.5980737E-06;  1.0000000E+04;  0.0000000E+00;  9.9985684E+03;0.0060506496;0.0;0.13673893;462.48508
  9.6000236E-01;  9.9999998E-03; -2.0000072E-01;2522;0.0059459265;0.0;-0.0023256328;1002.4887;  4.0101758E-01;2053.9558;3;9.2397175;0.0;-4.7943444;0;0.10624009;  9.9999551E+03;  0.0000000E+00; -1.1798698E-08;  1.0000000E+04;  0.0000000E+00;  9.9989453E+03;0.0044574616;0.0;0.10178263;338.70746
  9.8000258E-01;  9.9999998E-03; -3.0001149E-01;2548;0.0067024636;0.0;-0.025777334;1002.1202;  4.0090272E-01;1747.42;3;11.586897;0.0;-35.415524;0;0.25214675;  9.9998965E+03;  0.0000000E+00; -3.5134365E-06;  1.0000000E+04;  0.0000000E+00;  9.9973809E+03;0.010667912;0.0;0.24147883;846.05072
  9.8000252E-01;  9.9999998E-03; -2.8000927E-01;2549;0.0066403933;0.0;-0.021408722;1002.1285;  4.0090272E-01;1754.2977;3;11.187584;0.0;-29.774368;0;0.24075772;  9.9999141E+03;  0.0000000E+00;  8.9777244E-04;  1.0000000E+04;  0.0000000E+00;  9.9975264E+03;0.0087562175;0.0;0.2320015;792.9715
  9.8000252E-01;  9.9999998E-03; -2.6000583E-01;2550;0.006537762;0.0;-0.014088615;1002.1556;  4.0090263E-01;1776.6992;3;10.769654;0.0;-20.588638;0;0.19134921;  9.9999365E+03;  0.0000000E+00;  8.4358105E-04;  1.0000000E+04;  0.0000000E+00;  9.9980459E+03;0.0065802336;0.0;0.18476897;622.68134
  9.8000246E-01;  9.9999998E-03; -2.4000303E-01;2551;0.0063599944;0.0;-0.0077449833;1002.1744;  4.0090263E-01;1792.1249;3;10.265606;0.0;-12.188199;0;0.15620604;  9.9999600E+03;  0.0000000E+00;  3.8766381E-04;  1.0000000E+04;  0.0000000E+00;  9.9983994E+03;0.0042635794;0.0;0.15194246;509.41525
  9.8000234E-01;  9.9999998E-03; -2.2000141E-01;2552;0.0060866526;0.0;-0.0039474536;1002.1909;  4.0090266E-01;1805.782;3;9.6234322;0.0;-6.9851737;0;0.12536536;  9.9999805E+03;  0.0000000E+00;  9.2744893E-05;  1.0000000E+04;  0.0000000E+00;  9.9987090E+03;0.0019958338;0.0;0.12336953;409.68613
  9.8000228E-01;  9.9999998E-03; -2.0000064E-01;2553;0.0058077727;0.0;-0.0021001322;1002.2089;  4.0090266E-01;1820.5199;3;9.0253611;0.0;-4.3199167;0;0.091968626;  1.0000000E+04;  0.0000000E+00;  7.7843479E-06;  1.0000000E+04;  0.0000000E+00;  9.9990459E+03;-9.9499431e-08;0.0;0.091968723;300.63773
  1.0000027E+00;  9.9999998E-03; -3.0001014E-01;2579;0.0070364764;0.0;-0.022829263;1001.862;  4.0079248E-01;1531.9546;3;12.180182;0.0;-31.513765;0;0.22070253;  9.9999014E+03;  0.0000000E+00; -1.9717874E-04;  1.0000000E+04;  0.0000000E+00;  9.9977178E+03;0.01008909;0.0;0.21061344;718.67676
  1.0000026E+00;  9.9999998E-03; -2.8000820E-01;2580;0.00680352;0.0;-0.018967928;1001.8682;  4.0079254E-01;1537.0546;3;11.476692;0.0;-26.431686;0;0.21207894;  9.9999268E+03;  0.0000000E+00;  2.3211015E-03;  1.0000000E+04;  0.0000000E+00;  9.9978193E+03;0.0076107993;0.0;0.20446815;681.62476
  1.0000025E+00;  9.9999998E-03; -2.6000518E-01;2581;0.0065609594;0.0;-0.012510944;1001.8918;  4.0079251E-01;1556.3756;3;10.82012;0.0;-18.272327;0;0.16919658;  9.9999531E+03;  0.0000000E+00;  2.3930161E-03;  1.0000000E+04;  0.0000000E+00;  9.9982627E+03;0.0048793769;0.0;0.16431721;540.29077
  1.0000024E+00;  9.9999998E-03; -2.4000271E-01;2582;0.0062882057;0.0;-0.0068898308;1001.9085;  4.0079248E-01;1570.2045;3;10.16402;0.0;-10.818757;0;0.1378269;  9.9999814E+03;  0.0000000E+00;  1.2188159E-03;  1.0000000E+04;  0.0000000E+00;  9.9985693E+03;0.0020572578;0.0;0.13576965;444.11844
  1.0000023E+00;  9.9999998E-03; -2.2000127E-01;2583;0.005917016;0.0;-0.0035193253;1001.9235;  4.0079248E-01;1582.562;3;9.3704977;0.0;-6.2086277;0;0.10992975;  1.0000008E+04;  0.0000000E+00;  3.4976864E-04;  1.0000000E+04;  0.0000000E+00;  9.9988418E+03;-0.00065131002;0.0;0.11058106;358.38843
  1.0000021E+00;  9.9999998E-03; -2.0000058E-01;2584;0.0055907168;0.0;-0.0018901639;1001.9398;  4.0079245E-01;1595.9004;3;8.7078648;0.0;-3.8685944;0;0.079662293;  1.0000031E+04;  0.0000000E+00;  4.6413967E-05;  1.0000000E+04;  0.0000000E+00;  9.9991426E+03;-0.0030144288;0.0;0.082676724;263.94086
  1.0200030E+00;  9.9999998E-03; -3.0000889E-01;2610;0.0075811874;0.0;-0.020051034;1001.6221;  4.0069005E-01;1331.3217;3;13.123378;0.0;-27.866457;0;0.19104065;  9.9998984E+03;  0.0000000E+00; -8.0065435E-04;  1.0000000E+04;  0.0000000E+00;  9.9980449E+03;0.010343296;0.0;0.18069735;595.76447
  1.0200027E+00;  9.9999998E-03; -2.8000724E-01;2611;0.0071077105;0.0;-0.016730992;1001.6262;  4.0069008E-01;1334.6482;3;12.005206;0.0;-23.379215;0;0.18604365;  9.9999307E+03;  0.0000000E+00;  4.0526739E-03;  1.0000000E+04;  0.0000000E+00;  9.9980938E+03;0.0072067413;0.0;0.17883691;577.14362
  1.0200025E+00;  9.9999998E-03; -2.6000461E-01;2612;0.0066391611;0.0;-0.011131914;1001.6461;  4.0069011E-01;1351.0854;3;10.962993;0.0;-16.242216;0;0.14959447;  9.9999609E+03;  0.0000000E+00;  4.6031023E-03;  1.0000000E+04;  0.0000000E+00;  9.9984609E+03;0.0039701629;0.0;0.14562431;463.71414
  1.0200024E+00;  9.9999998E-03; -2.4000244E-01;2613;0.0062101125;0.0;-0.0061810706;1001.6611;  4.0069008E-01;1363.4135;3;10.056618;0.0;-9.6653128;0;0.12163671;  9.9999932E+03;  0.0000000E+00;  2.4301196E-03;  1.0000000E+04;  0.0000000E+00;  9.9987285E+03;0.00079569494;0.0;0.12084102;382.6944
  1.0200022E+00;  9.9999998E-03; -2.2000115E-01;2614;0.0057114358;0.0;-0.003177881;1001.6745;  4.0069005E-01;1374.3718;3;9.069726;0.0;-5.5639901;0;0.096598752;  1.0000023E+04;  0.0000000E+00;  6.8573555E-04;  1.0000000E+04;  0.0000000E+00;  9.9989658E+03;-0.0021787421;0.0;0.098777495;310.01852
  1.0200021E+00;  9.9999998E-03; -2.0000054E-01;2615;0.0053354166;0.0;-0.0017276392;1001.6891;  4.0069005E-01;1386.3085;3;8.3409348;0.0;-3.4915872;0;0.069463573;  1.0000051E+04;  0.0000000E+00;  6.7678629E-05;  1.0000000E+04;  0.0000000E+00;  9.9992305E+03;-0.0047649089;0.0;0.07422848;229.6756
  1.0400032E+00;  9.9999998E-03; -3.0000773E-01;2641;0.0083932951;0.0;-0.017501447;1001.4057;  4.0059745E-01;1150.0338;3;14.528751;0.0;-24.562943;0;0.16340153;  9.9998887E+03;  0.0000000E+00; -1.5218502E-03;  1.0000000E+04;  0.0000000E+00;  9.9983555E+03;0.011243617;0.0;0.15215792;479.88239
  1.0400029E+00;  9.9999998E-03; -2.8000638E-01;2642;0.0075905947;0.0;-0.014758673;1001.407;  4.0059742E-01;1151.1066;3;12.837989;0.0;-20.709591;0;0.16260271;  9.9999316E+03;  0.0000000E+00;  4.8941132E-03;  1.0000000E+04;  0.0000000E+00;  9.9983428E+03;0.0070394767;0.0;0.15556324;481.48795
  1.0400026E+00;  9.9999998E-03; -2.6000416E-01;2643;0.0068133222;0.0;-0.010017564;1001.4237;  4.0059742E-01;1164.7605;3;11.267809;0.0;-14.596714;0;0.13246322;  9.9999678E+03;  0.0000000E+00;  6.4728740E-03;  1.0000000E+04;  0.0000000E+00;  9.9986357E+03;0.0032591601;0.0;0.12920405;394.75598
  1.0400023E+00;  9.9999998E-03; -2.4000224E-01;2644;0.0061462624;0.0;-0.0056713154;1001.437;  4.0059748E-01;1175.5859;3;9.9701309;0.0;-8.8090086;0;0.10741927;  1.0000002E+04;  0.0000000E+00;  3.4175622E-03;  1.0000000E+04;  0.0000000E+00;  9.9988682E+03;-6.8882975e-05;0.0;0.10748815;326.36768
  1.0400021E+00;  9.9999998E-03; -2.2000109E-01;2645;0.0055055479;0.0;-0.0029634333;1001.449;  4.0059745E-01;1185.4362;3;8.7708549;0.0;-5.1157069;0;0.085156567;  1.0000032E+04;  0.0000000E+00;  7.1382930E-04;  1.0000000E+04;  0.0000000E+00;  9.9990771E+03;-0.00302783;0.0;0.088184394;265.39218
  1.0400020E+00;  9.9999998E-03; -2.0000052E-01;2646;0.0050709331;0.0;-0.0016183965;1001.4618;  4.0059745E-01;1195.8716;3;7.9650373;0.0;-3.1971257;0;0.061209358;  1.0000059E+04;  0.0000000E+00; -1.3684141E-04;  1.0000000E+04;  0.0000000E+00;  9.9993066E+03;-0.0055830684;0.0;0.066792428;198.38173
  1.0600036E+00;  9.9999998E-03; -3.0000669E-01;2672;0.0094120568;0.0;-0.015213046;1001.2153;  4.0051588E-01;989.92682;3;16.289953;0.0;-21.645666;0;0.13874133;  9.9998672E+03;  0.0000000E+00; -6.9504249E-04;  1.0000000E+04;  0.0000000E+00;  9.9986484E+03;0.013379914;0.0;0.12536141;373.42963
  1.0600032E+00;  9.9999998E-03; -2.8000566E-01;2673;0.0082122181;0.0;-0.013088046;1001.2143;  4.0051588E-01;989.15015;3;13.911181;0.0;-18.485477;0;0.1418471;  9.9999297E+03;  0.0000000E+00;  3.4031940E-03;  1.0000000E+04;  0.0000000E+00;  9.9985645E+03;0.0070552034;0.0;0.1347919;395.31863
  1.0600027E+00;  9.9999998E-03; -2.6000383E-01;2674;0.0070831752;0.0;-0.0092049204;1001.2276;  4.0051585E-01;1000.0264;3;11.737392;0.0;-13.395832;0;0.11773358;  9.9999756E+03;  0.0000000E+00;  6.3985446E-03;  1.0000000E+04;  0.0000000E+00;  9.9987842E+03;0.0024330204;0.0;0.11530056;333.85886
  1.0600023E+00;  9.9999998E-03; -2.4000216E-01;2675;0.0061160829;0.0;-0.0053958562;1001.2397;  4.0051588E-01;1009.9316;3;9.9370451;0.0;-8.3043385;0;0.094938084;  1.0000010E+04;  0.0000000E+00;  3.3102741E-03;  1.0000000E+04;  0.0000000E+00;  9.9989922E+03;-0.00094317592;0.0;0.095881261;275.6828
  1.0600021E+00;  9.9999998E-03; -2.2000107E-01;2676;0.0053260042;0.0;-0.0028887982;1001.2502;  4.0051588E-01;1018.4772;3;8.5155745;0.0;-4.8792758;0;0.075268634;  1.0000036E+04;  0.0000000E+00; -8.3543106E-05;  1.0000000E+04;  0.0000000E+00;  9.9991768E+03;-0.0035712016;0.0;0.078839839;224.76924
  1.0600019E+00;  9.9999998E-03; -2.0000052E-01;2677;0.0048149698;0.0;-0.0015761685;1001.2614;  4.0051588E-01;1027.5083;3;7.6059155;0.0;-3.0063066;0;0.054609343;  1.0000061E+04;  0.0000000E+00; -9.0296369E-04;  1.0000000E+04;  0.0000000E+00;  9.9993750E+03;-0.0057753385;0.0;0.060384683;170.13237
  1.0800040E+00;  9.9999998E-03; -3.0000579E-01;2703;0.010347026;0.0;-0.013194122;1001.0515;  4.0044582E-01;851.72241;3;17.906473;0.0;-19.101854;0;0.1180566;  9.9998262E+03;  0.0000000E+00;  5.1190346E-03;  1.0000000E+04;  0.0000000E+00;  9.9989160E+03;0.01732688;0.0;0.10072971;279.44904
  1.0800034E+00;  9.9999998E-03; -2.8000507E-01;2704;0.0088084918;0.0;-0.011715924;1001.0487;  4.0044585E-01;849.40521;3;14.952545;0.0;-16.70697;0;0.12386622;  9.9999229E+03;  0.0000000E+00; -1.7795633E-04;  1.0000000E+04;  0.0000000E+00;  9.9987607E+03;0.0076176454;0.0;0.11624858;318.48669
  1.0800028E+00;  9.9999998E-03; -2.6000363E-01;2705;0.0073803086;0.0;-0.0086772637;1001.0588;  4.0044582E-01;857.61267;3;12.262753;0.0;-12.626731;0;0.10541666;  9.9999814E+03;  0.0000000E+00;  3.1019612E-03;  1.0000000E+04;  0.0000000E+00;  9.9989063E+03;0.0016543494;0.0;0.10376231;280.32797
  1.0800023E+00;  9.9999998E-03; -2.4000216E-01;2706;0.0061388817;0.0;-0.0053539579;1001.0702;  4.0044579E-01;866.78564;3;9.9930191;0.0;-8.1530104;0;0.084232241;  1.0000018E+04;  0.0000000E+00;  1.3459248E-03;  1.0000000E+04;  0.0000000E+00;  9.9990967E+03;-0.0018496064;0.0;0.086081848;230.86772
  1.0800020E+00;  9.9999998E-03; -2.2000113E-01;2707;0.0051926337;0.0;-0.0029661704;1001.0796;  4.0044579E-01;874.4137;3;8.3346338;0.0;-4.8728633;0;0.066764168;  1.0000040E+04;  0.0000000E+00; -2.0723385E-03;  1.0000000E+04;  0.0000000E+00;  9.9992617E+03;-0.0039396989;0.0;0.070703864;188.31352
  1.0800018E+00;  9.9999998E-03; -2.0000055E-01;2708;0.004587363;0.0;-0.0016120669;1001.0889;  4.0044582E-01;881.94519;3;7.2920246;0.0;-2.9394255;0;0.04939498;  1.0000056E+04;  0.0000000E+00; -2.5600842E-03;  1.0000000E+04;  0.0000000E+00;  9.9994316E+03;-0.0055029802;0.0;0.05489796;144.77686
  1.1000035E+00;  9.9999998E-03; -2.8000456E-01;2734;0.0091238609;0.0;-0.010570316;1000.9105;  4.0038714E-01;731.95367;3;15.533919;0.0;-15.285731;0;0.10754349;  9.9999111E+03;  0.0000000E+00; -2.0174719E-03;  1.0000000E+04;  0.0000000E+00;  9.9989473E+03;0.0086451396;0.0;0.098898351;249.09303
  1.1000029E+00;  9.9999998E-03; -2.6000351E-01;2735;0.0076035121;0.0;-0.0083361138;1000.9175;  4.0038708E-01;737.51196;3;12.677907;0.0;-12.161008;0;0.095149562;  9.9999824E+03;  0.0000000E+00; -2.7966376E-03;  1.0000000E+04;  0.0000000E+00;  9.9990127E+03;0.0013826947;0.0;0.093766868;232.85876
  1.1000024E+00;  9.9999998E-03; -2.4000224E-01;2736;0.0062144664;0.0;-0.0055047651;1000.9279;  4.0038708E-01;745.94531;3;10.149542;0.0;-8.3030643;0;0.075699933;  1.0000021E+04;  0.0000000E+00; -2.7623829E-03;  1.0000000E+04;  0.0000000E+00;  9.9991836E+03;-0.0024104004;0.0;0.07811033;192.37888
  1.1000019E+00;  9.9999998E-03; -2.2000124E-01;2737;0.0051258691;0.0;-0.0031895612;1000.9364;  4.0038714E-01;752.74939;3;8.2630911;0.0;-5.0894675;0;0.059743673;  1.0000038E+04;  0.0000000E+00; -5.2415384E-03;  1.0000000E+04;  0.0000000E+00;  9.9993369E+03;-0.0040052887;0.0;0.063748963;156.44586
  1.1000017E+00;  9.9999998E-03; -2.0000063E-01;2738;0.0044152676;0.0;-0.0017473649;1000.9442;  4.0038714E-01;759.07428;3;7.0595956;0.0;-3.0292962;0;0.045398392;  1.0000049E+04;  0.0000000E+00; -5.2331579E-03;  1.0000000E+04;  0.0000000E+00;  9.9994814E+03;-0.0047865184;0.0;0.050184909;122.299
  1.1200036E+00;  9.9999998E-03; -2.8000411E-01;2763;0.0091673192;0.0;-0.0095242439;1000.7985;  4.0033889E-01;635.54602;3;15.658961;0.0;-14.037675;0;0.091786429;  9.9998936E+03;  0.0000000E+00;  2.7828170E-03;  1.0000000E+04;  0.0000000E+00;  9.9991309E+03;0.01019241;0.0;0.08159402;185.29922
  1.1200030E+00;  9.9999998E-03; -2.6000339E-01;2764;0.0077321609;0.0;-0.0080393832;1000.8017;  4.0033889E-01;638.10815;3;12.948203;0.0;-11.812529;0;0.086152583;  9.9999736E+03;  0.0000000E+00; -7.8055277E-03;  1.0000000E+04;  0.0000000E+00;  9.9991162E+03;0.0021704144;0.0;0.08398217;189.17372
  1.1200025E+00;  9.9999998E-03; -2.4000236E-01;2765;0.0063396934;0.0;-0.0057564531;1000.8105;  4.0033889E-01;645.12994;3;10.40525;0.0;-8.6289577;0;0.06973394;  1.0000016E+04;  0.0000000E+00; -8.3804186E-03;  1.0000000E+04;  0.0000000E+00;  9.9992520E+03;-0.0020369245;0.0;0.071770862;160.40863
  1.1200020E+00;  9.9999998E-03; -2.2000141E-01;2766;0.0051541119;0.0;-0.0035470538;1000.8187;  4.0033889E-01;651.58234;3;8.3440542;0.0;-5.5193954;0;0.054597627;  1.0000032E+04;  0.0000000E+00; -9.2389155E-03;  1.0000000E+04;  0.0000000E+00;  9.9993965E+03;-0.0034798591;0.0;0.058077488;129.80978
  1.1200017E+00;  9.9999998E-03; -2.0000075E-01;2767;0.0043220338;0.0;-0.0019904335;1000.8251;  4.0033892E-01;656.7063;3;6.9424958;0.0;-3.2859066;0;0.042519357;  1.0000034E+04;  0.0000000E+00; -8.7106125E-03;  1.0000000E+04;  0.0000000E+00;  9.9995225E+03;-0.0036104789;0.0;0.046129838;102.87669
  1.1400031E+00;  9.9999998E-03; -2.6000327E-01;2792;0.0077800215;0.0;-0.0076938001;1000.7095;  4.0030029E-01;557.43457;3;13.092942;0.0;-11.450202;0;0.077975988;  9.9999512E+03;  0.0000000E+00; -6.3175731E-03;  1.0000000E+04;  0.0000000E+00;  9.9992256E+03;0.0044218116;0.0;0.073554181;146.75792
  1.1400025E+00;  9.9999998E-03; -2.4000248E-01;2793;0.0065189945;0.0;-0.0059892614;1000.7158;  4.0030023E-01;562.49298;3;10.746458;0.0;-8.9774036;0;0.066250697;  9.9999961E+03;  0.0000000E+00; -1.3217429E-02;  1.0000000E+04;  0.0000000E+00;  9.9993086E+03;-9.4133618e-05;0.0;0.066344827;133.04373
  1.1400020E+00;  9.9999998E-03; -2.2000162E-01;2794;0.0053160139;0.0;-0.0040045381;1000.7234;  4.0030026E-01;568.39447;3;8.6353035;0.0;-6.1322703;0;0.051931385;  1.0000015E+04;  0.0000000E+00; -1.3574943E-02;  1.0000000E+04;  0.0000000E+00;  9.9994414E+03;-0.001928766;0.0;0.05386015;108.56139
  1.1400017E+00;  9.9999998E-03; -2.0000093E-01;2795;0.0043563503;0.0;-0.0023681025;1000.7293;  4.0030023E-01;573.07813;3;7.0146871;0.0;-3.7574925;0;0.0408879;  1.0000015E+04;  0.0000000E+00; -1.2484710E-02;  1.0000000E+04;  0.0000000E+00;  9.9995586E+03;-0.0019149189;0.0;0.042802818;86.683212
  1.1600031E+00;  9.9999998E-03; -2.6000309E-01;2819;0.0078259325;0.0;-0.0072532371;1000.6372;  4.0026996E-01;492.43802;3;13.23587;0.0;-10.986717;0;0.071076527;  9.9999063E+03;  0.0000000E+00;  6.4306716E-03;  1.0000000E+04;  0.0000000E+00;  9.9993428E+03;0.0085705323;0.0;0.062505998;108.22925
  1.1600027E+00;  9.9999998E-03; -2.4000254E-01;2820;0.006755556;0.0;-0.006095984;1000.6409;  4.0026996E-01;495.29431;3;11.196893;0.0;-9.2025919;0;0.064561717;  9.9999551E+03;  0.0000000E+00; -1.2560173E-02;  1.0000000E+04;  0.0000000E+00;  9.9993672E+03;0.0038279882;0.0;0.060733728;105.86749
  1.1600022E+00;  9.9999998E-03; -2.2000183E-01;2821;0.0056302552;0.0;-0.004469519;1000.6475;  4.0026993E-01;500.36166;3;9.1677628;0.0;-6.8094125;0;0.052119106;  9.9999814E+03;  0.0000000E+00; -1.7060507E-02;  1.0000000E+04;  0.0000000E+00;  9.9994746E+03;0.0012302556;0.0;0.050888851;91.013344
  1.1600018E+00;  9.9999998E-03; -2.0000115E-01;2822;0.0045899902;0.0;-0.0028678975;1000.6534;  4.0026993E-01;504.96844;3;7.3869758;0.0;-4.4523187;0;0.041009486;  9.9999893E+03;  0.0000000E+00; -1.6003363E-02;  1.0000000E+04;  0.0000000E+00;  9.9995850E+03;0.00059162144;0.0;0.040417865;73.395096
  1.1800028E+00;  9.9999998E-03; -2.4000254E-01;2846;0.0069782636;0.0;-0.0060633901;1000.5828;  4.0024659E-01;441.06317;3;11.637804;0.0;-9.276803;0;0.064099506;  9.9998984E+03;  0.0000000E+00; -1.1978351E-04;  1.0000000E+04;  0.0000000E+00;  9.9994307E+03;0.0093429377;0.0;0.054756567;79.234024
  1.1800023E+00;  9.9999998E-03; -2.2000200E-01;2847;0.0060428535;0.0;-0.0048357164;1000.588;  4.0024662E-01;444.9426;3;9.8798075;0.0;-7.3945079;0;0.054755237;  9.9999297E+03;  0.0000000E+00; -1.5785636E-02;  1.0000000E+04;  0.0000000E+00;  9.9995010E+03;0.0063446085;0.0;0.048410628;73.198616
  1.1800020E+00;  9.9999998E-03; -2.0000137E-01;2848;0.0050543225;0.0;-0.0033967202;1000.5938;  4.0024659E-01;449.3634;3;8.1290998;0.0;-5.2375708;0;0.043576665;  9.9999463E+03;  0.0000000E+00; -1.8433765E-02;  1.0000000E+04;  0.0000000E+00;  9.9995996E+03;0.0046399352;0.0;0.03893673;61.68449
  1.2000026E+00;  9.9999998E-03; -2.2000210E-01;2871;0.0064312923;0.0;-0.0050400314;1000.5423;  4.0022910E-01;399.80807;3;10.590878;0.0;-7.7915001;0;0.058462583;  9.9998643E+03;  0.0000000E+00; -2.4848736E-03;  1.0000000E+04;  0.0000000E+00;  9.9995273E+03;0.012715054;0.0;0.04574753;54.386482
  1.2000023E+00;  9.9999998E-03; -2.0000157E-01;2872;0.0056840959;0.0;-0.0038314885;1000.5475;  4.0022910E-01;403.67538;3;9.1886473;0.0;-5.9215026;0;0.048721477;  9.9998828E+03;  0.0000000E+00; -1.6342383E-02;  1.0000000E+04;  0.0000000E+00;  9.9996133E+03;0.010926203;0.0;0.037795275;48.601795
  1.2200027E+00;  9.9999998E-03; -2.2000213E-01;2894;0.0067155822;0.0;-0.0050984379;1000.508;  4.0021619E-01;362.79535;3;11.143819;0.0;-7.9973044;0;0.062342487;  9.9997988E+03;  0.0000000E+00;  2.7546145E-02;  1.0000000E+04;  0.0000000E+00;  9.9995498E+03;0.0189484;0.0;0.043394089;50.082394
  1.2200025E+00;  9.9999998E-03; -2.0000170E-01;2895;0.0062109358;0.0;-0.0041302936;1000.5123;  4.0021622E-01;365.86063;3;10.12757;0.0;-6.454659;0;0.054495748;  9.9998135E+03;  0.0000000E+00; -2.4494978E-03;  1.0000000E+04;  0.0000000E+00;  9.9996240E+03;0.017821871;0.0;0.036673877;34.553596
 -4.6160914E-12;  9.9999998E-03; -1.8000001E-01;1036;-3.2883303e-08;0.0;-2.8067244e-09;1000.0;  4.0000001E-01;0.0;3;-0.00012055614;0.0;-1.0414288e-05;0;-6.1146983e-07;  1.0000000E+04;  0.0000000E+00; -1.2346847E-14;  1.0000000E+04;  0.0000000E+00;  1.0000000E+04;-6.2547525e-07;0.0;1.4005449e-08;7.716153e-06
 -4.8451247E-12;  9.9999998E-03; -1.6000000E-01;1037;-3.4534953e-08;0.0;-2.2646571e-09;1000.0;  4.0000001E-01;0.0;3;-0.00012664846;0.0;-8.4176845e-06;0;-6.4337405e-07;  1.0000000E+04;  0.0000000E+00;  6.1295793E-15;  1.0000000E+04;  0.0000000E+00;  1.0000000E+04;-6.5613813e-07;0.0;1.2764058e-08;7.1086697e-06
 -5.0247454E-12;  9.9999998E-03; -1.4000000E-01;1038;-3.5836536e-08;0.0;-1.7901636e-09;1000.0;  4.0000001E-01;0.0;3;-0.00013146148;0.0;-6.6657835e-06;0;-6.6888464e-07;  1.0000000E+04;  0.0000000E+00;  3.7998838E-15;  1.0000000E+04;  0.0000000E+00;  1.0000000E+04;-6.7995967e-07;0.0;1.1075012e-08;6.3624225e-06
 -5.1633073E-12;  9.9999998E-03; -1.2000000E-01;1039;-3.6845577e-08;0.0;-1.3796759e-09;1000.0;  4.0000001E-01;0.0;3;-0.00013520195;0.0;-5.1459001e-06;0;-6.8884856e-07;  1.0000000E+04;  0.0000000E+00;  1.5508981E-16;  1.0000000E+04;  0.0000000E+00;  1.0000000E+04;-6.9815388e-07;0.0;9.3052988e-09;5.6226691e-06
 -5.2679384E-12;  9.9999998E-03; -1.0000000E-01;1040;-3.7611123e-08;0.0;-1.0371782e-09;1000.0;  4.0000001E-01;0.0;3;-0.00013804639;0.0;-3.8744515e-06;0;-7.0413239e-07;  1.0000000E+04;  0.0000000E+00; -3.7479561E-16;  1.0000000E+04;  0.0000000E+00;  1.0000000E+04;-7.1177084e-07;0.0;7.6384312e-09;4.9599576e-06
 -5.3450421E-12;  9.9999998E-03; -7.9999998E-02;1041;-3.817771e-08;0.0;-7.5333628e-10;1000.0;  4.0000001E-01;0.0;3;-0.00014015607;0.0;-2.8179472e-06;0;-7.1552188e-07;  1.0000000E+04;  0.0000000E+00; -6.1019862E-16;  1.0000000E+04;  0.0000000E+00;  1.0000000E+04;-7.2170712e-07;0.0;6.1852568e-09;4.4098633e-06
 -5.3997406E-12;  9.9999998E-03; -5.9999999E-02;1042;-3.8581156e-08;0.0;-5.1975496e-10;1000.0;  4.0000001E-01;0.0;3;-0.00014166102;0.0;-1.9463776e-06;0;-7.2367988e-07;  1.0000000E+04;  0.0000000E+00;  1.7839346E-15;  1.0000000E+04;  0.0000000E+00;  1.0000000E+04;-7.2869329e-07;0.0;5.013447e-09;3.9862853e-06
 -5.4360093E-12;  9.9999998E-03; -3.9999999E-02;1043;-3.8849461e-08;0.0;-3.2471409e-10;1000.0;  4.0000001E-01;0.0;3;-0.00014266331;0.0;-1.2170013e-06;0;-7.291294e-07;  1.0000000E+04;  0.0000000E+00;  7.2111351E-16;  1.0000000E+04;  0.0000000E+00;  1.0000000E+04;-7.3328982e-07;0.0;4.1604271e-09;3.6899755e-06
 -5.4566642E-12;  9.9999998E-03; -2.0000000E-02;1044;-3.9002572e-08;0.0;-1.5575778e-10;1000.0;  4.0000001E-01;0.0;3;-0.00014323583;0.0;-5.8406744e-07;0;-7.32248e-07;  1.0000000E+04;  0.0000000E+00; -4.1724390E-16;  1.0000000E+04;  0.0000000E+00;  1.0000000E+04;-7.3589206e-07;0.0;3.6440426e-09;3.5158307e-06
  2.0000000E-02;  9.9999998E-03; -1.8000001E-01;1066;-6.1411647e-08;0.0;-5.274913e-09;1000.0;  4.0000001E-01;0.0;3;-0.0002230286;0.0;-1.945801e-05;0;-1.1278346e-06;  1.0000000E+04;  0.0000000E+00; -6.7699272E-16;  1.0000000E+04;  0.0000000E+00;  1.0000000E+04;-1.1556739e-06;0.0;2.7839349e-08;1.7049004e-05
  2.0000000E-02;  9.9999998E-03; -1.6000000E-01;1067;-6.4410997e-08;0.0;-4.2659676e-09;1000.0;  4.0000001E-01;0.0;3;-0.00023400053;0.0;-1.5772854e-05;0;-1.1855328e-06;  1.0000000E+04;  0.0000000E+00;  1.6832428E-14;  1.0000000E+04;  0.0000000E+00;  1.0000000E+04;-1.2108663e-06;0.0;2.5333485e-08;1.5671561e-05
  2.0000000E-02;  9.9999998E-03; -1.4000000E-01;1068;-6.6770269e-08;0.0;-3.3825998e-09;1000.0;  4.0000001E-01;0.0;3;-0.00024265885;0.0;-1.2536309e-05;0;-1.2317203e-06;  1.0000000E+04;  0.0000000E+00;  4.0529938E-15;  1.0000000E+04;  0.0000000E+00;  1.0000000E+04;-1.2537016e-06;0.0;2.198137e-08;1.3996878e-05
  2.0000000E-02;  9.9999998E-03; -1.2000000E-01;1069;-6.8598595e-08;0.0;-2.6153451e-09;1000.0;  4.0000001E-01;0.0;3;-0.00024939052;0.0;-9.7144475e-06;0;-1.2679166e-06;  1.0000000E+04;  0.0000000E+00;  6.3534189E-16;  1.0000000E+04;  0.0000000E+00;  1.0000000E+04;-1.286417e-06;0.0;1.8500534e-08;1.2344894e-05
  2.0000000E-02;  9.9999998E-03; -1.0000000E-01;1070;-6.9986051e-08;0.0;-1.9745143e-09;1000.0;  4.0000001E-01;0.0;3;-0.00025451474;0.0;-7.3494407e-06;0;-1.2956889e-06;  1.0000000E+04;  0.0000000E+00; -4.7346055E-17;  1.0000000E+04;  0.0000000E+00;  1.0000000E+04;-1.3109221e-06;0.0;1.5233288e-08;1.0865254e-05
  2.0000000E-02;  9.9999998E-03; -7.9999998E-02;1071;-7.1014483e-08;0.0;-1.440107e-09;1000.0;  4.0000001E-01;0.0;3;-0.00025832388;0.0;-5.3700619e-06;0;-1.3164407e-06;  1.0000000E+04;  0.0000000E+00; -1.1830022E-15;  1.0000000E+04;  0.0000000E+00;  1.0000000E+04;-1.3288329e-06;0.0;1.2392154e-08;9.6350559e-06
  2.0000000E-02;  9.9999998E-03; -5.9999999E-02;1072;-7.1748268e-08;0.0;-9.9800002e-10;1000.0;  4.0000001E-01;0.0;3;-0.00026104841;0.0;-3.7270986e-06;0;-1.3313509e-06;  1.0000000E+04;  0.0000000E+00;  1.4864759E-15;  1.0000000E+04;  0.0000000E+00;  1.0000000E+04;-1.3414566e-06;0.0;1.0105726e-08;8.6853188e-06
  2.0000000E-02;  9.9999998E-03; -3.9999999E-02;1073;-7.2237505e-08;0.0;-6.2576155e-10;1000.0;  4.0000001E-01;0.0;3;-0.00026286853;0.0;-2.3395837e-06;0;-1.3413409e-06;  1.0000000E+04;  0.0000000E+00;  2.2084648E-15;  1.0000000E+04;  0.0000000E+00;  1.0000000E+04;-1.3497845e-06;0.0;8.4436262e-09;8.0190111e-06
  2.0000000E-02;  9.9999998E-03; -2.0000000E-02;1074;-7.2517203e-08;0.0;-3.0094352e-10;1000.0;  4.0000001E-01;0.0;3;-0.00026391051;0.0;-1.1259464e-06;0;-1.3470718e-06;  1.0000000E+04;  0.0000000E+00;  3.5457379E-16;  1.0000000E+04;  0.0000000E+00;  1.0000000E+04;-1.35451e-06;0.0;7.4382283e-09;7.6264355e-06
  3.9999999E-02;  9.9999998E-03; -1.8000001E-01;1097;-1.1167802e-07;0.0;-9.5820063e-09;1000.0;  4.0000001E-01;0.0;3;-0.00040071242;0.0;-3.5065143e-05;0;-2.0345306e-06;  1.0000000E+04;  0.0000000E+00;  1.2918710E-14;  1.0000000E+04;  0.0000000E+00;  1.0000000E+04;-2.0877953e-06;0.0;5.3264895e-08;3.6415171e-05
  3.9999999E-02;  9.9999998E-03; -1.6000000E-01;1098;-1.1696494e-07;0.0;-7.7569844e-09;1000.0;  4.0000001E-01;0.0;3;-0.00041983832;0.0;-2.847295e-05;0;-2.1361573e-06;  1.0000000E+04;  0.0000000E+00; -3.0201758E-15;  1.0000000E+04;  0.0000000E+00;  1.0000000E+04;-2.184559e-06;0.0;4.8401727e-08;3.340458e-05
  3.9999999E-02;  9.9999998E-03; -1.4000000E-01;1099;-1.2111525e-07;0.0;-6.1593592e-09;1000.0;  4.0000001E-01;0.0;3;-0.00043491373;0.0;-2.2679109e-05;0;-2.2175336e-06;  1.0000000E+04;  0.0000000E+00; -4.3471755E-15;  1.0000000E+04;  0.0000000E+00;  1.0000000E+04;-2.2595227e-06;0.0;4.1989189e-08;2.9780811e-05
  3.9999999E-02;  9.9999998E-03; -1.2000000E-01;1100;-1.2432625e-07;0.0;-4.7759747e-09;1000.0;  4.0000001E-01;0.0;3;-0.00044662584;0.0;-1.763766e-05;0;-2.2813458e-06;  1.0000000E+04;  0.0000000E+00;  2.3179546E-15;  1.0000000E+04;  0.0000000E+00;  1.0000000E+04;-2.3167286e-06;0.0;3.5382676e-08;2.6225112e-05
  3.9999999E-02;  9.9999998E-03; -1.0000000E-01;1101;-1.2676226e-07;0.0;-3.6165499e-09;1000.0;  4.0000001E-01;0.0;3;-0.00045554707;0.0;-1.339305e-05;0;-2.3303696e-06;  1.0000000E+04;  0.0000000E+00;  5.1937011E-16;  1.0000000E+04;  0.0000000E+00;  1.0000000E+04;-2.3595755e-06;0.0;2.9205884e-08;2.3044313e-05
  3.9999999E-02;  9.9999998E-03; -7.9999998E-02;1102;-1.2856837e-07;0.0;-2.6466864e-09;1000.0;  4.0000001E-01;0.0;3;-0.00046218646;0.0;-9.8253395e-06;0;-2.3670661e-06;  1.0000000E+04;  0.0000000E+00;  4.7735320E-16;  1.0000000E+04;  0.0000000E+00;  1.0000000E+04;-2.3909186e-06;0.0;2.3852435e-08;2.0397551e-05
  3.9999999E-02;  9.9999998E-03; -5.9999999E-02;1103;-1.2985807e-07;0.0;-1.840758e-09;1000.0;  4.0000001E-01;0.0;3;-0.00046694308;0.0;-6.8474224e-06;0;-2.3934772e-06;  1.0000000E+04;  0.0000000E+00; -2.0998504E-15;  1.0000000E+04;  0.0000000E+00;  1.0000000E+04;-2.4130347e-06;0.0;1.9557563e-08;1.8350029e-05
  3.9999999E-02;  9.9999998E-03; -3.9999999E-02;1104;-1.3071923e-07;0.0;-1.1575783e-09;1000.0;  4.0000001E-01;0.0;3;-0.00047012771;0.0;-4.3126356e-06;0;-2.4112073e-06;  1.0000000E+04;  0.0000000E+00; -4.2439334E-16;  1.0000000E+04;  0.0000000E+00;  1.0000000E+04;-2.4276512e-06;0.0;1.644386e-08;1.6909977e-05
  3.9999999E-02;  9.9999998E-03; -2.0000000E-02;1105;-1.3121205e-07;0.0;-5.5793153e-10;1000.0;  4.0000001E-01;0.0;3;-0.00047195356;0.0;-2.0805826e-06;0;-2.4213928e-06;  1.0000000E+04;  0.0000000E+00;  1.3892378E-15;  1.0000000E+04;  0.0000000E+00;  1.0000000E+04;-2.4359567e-06;0.0;1.4564052e-08;1.6059657e-05
  5.9999999E-02;  9.9999998E-03; -1.8000001E-01;1128;-1.9833625e-07;0.0;-1.6978777e-08;1000.0;  4.0000001E-01;0.0;3;-0.0007010983;0.0;-6.1489576e-05;0;-3.6001327e-06;  1.0000000E+04;  0.0000000E+00; -2.2791888E-15;  1.0000000E+04;  0.0000000E+00;  1.0000000E+04;-3.69912e-06;0.0;9.8987321e-08;7.5444848e-05
  5.9999999E-02;  9.9999998E-03; -1.6000000E-01;1129;-2.0739969e-07;0.0;-1.3756177e-08;1000.0;  4.0000001E-01;0.0;3;-0.00073341327;0.0;-5.001311e-05;0;-3.7749305e-06;  1.0000000E+04;  0.0000000E+00; -1.5810459E-14;  1.0000000E+04;  0.0000000E+00;  1.0000000E+04;-3.8647463e-06;0.0;8.9815678e-08;6.9059352e-05
  5.9999999E-02;  9.9999998E-03; -1.4000000E-01;1130;-2.1449939e-07;0.0;-1.0928085e-08;1000.0;  4.0000001E-01;0.0;3;-0.00075885316;0.0;-3.9889965e-05;0;-3.9148667e-06;  1.0000000E+04;  0.0000000E+00;  2.2245093E-15;  1.0000000E+04;  0.0000000E+00;  1.0000000E+04;-3.9927472e-06;0.0;7.7880706e-08;6.1456383e-05
  5.9999999E-02;  9.9999998E-03; -1.2000000E-01;1131;-2.1997911e-07;0.0;-8.4892422e-09;1000.0;  4.0000001E-01;0.0;3;-0.00077858975;0.0;-3.110712e-05;0;-4.0246191e-06;  1.0000000E+04;  0.0000000E+00; -1.4196747E-15;  1.0000000E+04;  0.0000000E+00;  1.0000000E+04;-4.0902905e-06;0.0;6.567145e-08;5.404219e-05
  5.9999999E-02;  9.9999998E-03; -1.0000000E-01;1132;-2.2413212e-07;0.0;-6.4381731e-09;1000.0;  4.0000001E-01;0.0;3;-0.00079362426;0.0;-2.3676768e-05;0;-4.108997e-06;  1.0000000E+04;  0.0000000E+00;  3.1815347E-15;  1.0000000E+04;  0.0000000E+00;  1.0000000E+04;-4.1633002e-06;0.0;5.430314e-08;4.7425488e-05
  5.9999999E-02;  9.9999998E-03; -7.9999998E-02;1133;-2.2720808e-07;0.0;-4.7228079e-09;1000.0;  4.0000001E-01;0.0;3;-0.00080481364;0.0;-1.742431e-05;0;-4.1722183e-06;  1.0000000E+04;  0.0000000E+00; -1.5338492E-15;  1.0000000E+04;  0.0000000E+00;  1.0000000E+04;-4.2167053e-06;0.0;4.4486814e-08;4.1920481e-05
  5.9999999E-02;  9.9999998E-03; -5.9999999E-02;1134;-2.2940424e-07;0.0;-3.2926968e-09;1000.0;  4.0000001E-01;0.0;3;-0.00081283692;0.0;-1.2180943e-05;0;-4.2177735e-06;  1.0000000E+04;  0.0000000E+00; -4.7915738E-16;  1.0000000E+04;  0.0000000E+00;  1.0000000E+04;-4.2544148e-06;0.0;3.6641165e-08;3.7656446e-05
  5.9999999E-02;  9.9999998E-03; -3.9999999E-02;1135;-2.3087073e-07;0.0;-2.0747231e-09;1000.0;  4.0000001E-01;0.0;3;-0.00081821339;0.0;-7.6907872e-06;0;-4.2483803e-06;  1.0000000E+04;  0.0000000E+00; -7.6869458E-16;  1.0000000E+04;  0.0000000E+00;  1.0000000E+04;-4.279354e-06;0.0;3.0973801e-08;3.4651839e-05
  5.9999999E-02;  9.9999998E-03; -2.0000000E-02;1136;-2.3171052e-07;0.0;-1.0015252e-09;1000.0;  4.0000001E-01;0.0;3;-0.00082129985;0.0;-3.7172736e-06;0;-4.2659744e-06;  1.0000000E+04;  0.0000000E+00; -1.1427835E-16;  1.0000000E+04;  0.0000000E+00;  1.0000000E+04;-4.2935367e-06;0.0;2.7562413e-08;3.2874494e-05
  7.9999998E-02;  9.9999998E-03; -1.8000001E-01;1159;-3.4552582e-07;0.0;-2.9444003e-08;1000.0;  4.0000001E-01;0.0;3;-0.0011998914;0.0;-0.00010523691;0;-6.2537811e-06;  1.0000000E+04;  0.0000000E+00;  4.1234472E-14;  1.0000000E+04;  0.0000000E+00;  1.0000000E+04;-6.4333713e-06;0.0;1.7959019e-07;0.0001518778
  7.9999998E-02;  9.9999998E-03; -1.6000000E-01;1160;-3.6070728e-07;0.0;-2.3862944e-08;1000.0;  4.0000001E-01;0.0;3;-0.0012530417;0.0;-8.570357e-05;0;-6.5475501e-06;  1.0000000E+04;  0.0000000E+00; -2.7878788E-14;  1.0000000E+04;  0.0000000E+00;  1.0000000E+04;-6.7102064e-06;0.0;1.6265636e-07;0.00013868956
  7.9999998E-02;  9.9999998E-03; -1.4000000E-01;1161;-3.7256848e-07;0.0;-1.895188e-08;1000.0;  4.0000001E-01;0.0;3;-0.0012948122;0.0;-6.8404079e-05;0;-6.7826099e-06;  1.0000000E+04;  0.0000000E+00; -1.1205765E-14;  1.0000000E+04;  0.0000000E+00;  1.0000000E+04;-6.9235316e-06;0.0;1.4092187e-07;0.00012318199
  7.9999998E-02;  9.9999998E-03; -1.2000000E-01;1162;-3.8169597e-07;0.0;-1.4735244e-08;1000.0;  4.0000001E-01;0.0;3;-0.0013271529;0.0;-5.3442916e-05;0;-6.9669477e-06;  1.0000000E+04;  0.0000000E+00; -3.1551956E-15;  1.0000000E+04;  0.0000000E+00;  1.0000000E+04;-7.0857927e-06;0.0;1.1884489e-07;0.00010816969
  7.9999998E-02;  9.9999998E-03; -1.0000000E-01;1163;-3.8860114e-07;0.0;-1.1179575e-08;1000.0;  4.0000001E-01;0.0;3;-0.0013517715;0.0;-4.0732302e-05;0;-7.1087406e-06;  1.0000000E+04;  0.0000000E+00;  7.5402111E-15;  1.0000000E+04;  0.0000000E+00;  1.0000000E+04;-7.2071189e-06;0.0;9.837828e-08;9.481881e-05
  7.9999998E-02;  9.9999998E-03; -7.9999998E-02;1164;-3.9370542e-07;0.0;-8.2106615e-09;1000.0;  4.0000001E-01;0.0;3;-0.0013700782;0.0;-3.0038593e-05;0;-7.2150424e-06;  1.0000000E+04;  0.0000000E+00;  1.5172885E-15;  1.0000000E+04;  0.0000000E+00;  1.0000000E+04;-7.2958173e-06;0.0;8.0774996e-08;8.372368e-05
  7.9999998E-02;  9.9999998E-03; -5.9999999E-02;1165;-3.9734533e-07;0.0;-5.7303371e-09;1000.0;  4.0000001E-01;0.0;3;-0.0013832033;0.0;-2.103758e-05;0;-7.2916887e-06;  1.0000000E+04;  0.0000000E+00; -2.8102677E-15;  1.0000000E+04;  0.0000000E+00;  1.0000000E+04;-7.3584515e-06;0.0;6.6762695e-08;7.5126431e-05
  7.9999998E-02;  9.9999998E-03; -3.9999999E-02;1166;-3.997738e-07;0.0;-3.6150292e-09;1000.0;  4.0000001E-01;0.0;3;-0.0013919994;0.0;-1.3306872e-05;0;-7.3432066e-06;  1.0000000E+04;  0.0000000E+00; -1.3548940E-15;  1.0000000E+04;  0.0000000E+00;  1.0000000E+04;-7.3998881e-06;0.0;5.66815e-08;6.9061454e-05
  7.9999998E-02;  9.9999998E-03; -2.0000000E-02;1167;-4.0116285e-07;0.0;-1.7466661e-09;1000.0;  4.0000001E-01;0.0;3;-0.0013970467;0.0;-6.4401684e-06;0;-7.3728297e-06;  1.0000000E+04;  0.0000000E+00;  2.1207918E-15;  1.0000000E+04;  0.0000000E+00;  1.0000000E+04;-7.4234636e-06;0.0;5.0633815e-08;6.5469183e-05
  1.0000000E-01;  9.9999998E-03; -1.8000001E-01;1190;-5.9215154e-07;0.0;-5.0077016e-08;1000.0;  4.0000001E-01;0.0;3;-0.0020149597;0.0;-0.00017611595;0;-1.0668938e-05;  1.0000000E+04;  0.0000000E+00;  7.1379365E-14;  1.0000000E+04;  0.0000000E+00;  1.0000000E+04;-1.0988133e-05;0.0;3.1919518e-07;0.00029758585
  1.0000000E-01;  9.9999998E-03; -1.6000000E-01;1191;-6.1707397e-07;0.0;-4.0576762e-08;1000.0;  4.0000001E-01;0.0;3;-0.0021003201;0.0;-0.00014353839;0;-1.1151828e-05;  1.0000000E+04;  0.0000000E+00; -4.8120985E-14;  1.0000000E+04;  0.0000000E+00;  1.0000000E+04;-1.1440128e-05;0.0;2.8830004e-07;0.0002709277
  1.0000000E-01;  9.9999998E-03; -1.4000000E-01;1192;-6.3649117e-07;0.0;-3.2199189e-08;1000.0;  4.0000001E-01;0.0;3;-0.0021672668;0.0;-0.0001145837;0;-1.1537881e-05;  1.0000000E+04;  0.0000000E+00; -1.9311269E-14;  1.0000000E+04;  0.0000000E+00;  1.0000000E+04;-1.178727e-05;0.0;2.4938893e-07;0.00024009976
  1.0000000E-01;  9.9999998E-03; -1.2000000E-01;1193;-6.5138306e-07;0.0;-2.5037044e-08;1000.0;  4.0000001E-01;0.0;3;-0.0022189678;0.0;-8.9622263e-05;0;-1.1840549e-05;  1.0000000E+04;  0.0000000E+00; -9.0991551E-16;  1.0000000E+04;  0.0000000E+00;  1.0000000E+04;-1.2050765e-05;0.0;2.1021576e-07;0.00021053226
  1.0000000E-01;  9.9999998E-03; -1.0000000E-01;1194;-6.626251e-07;0.0;-1.8986144e-08;1000.0;  4.0000001E-01;0.0;3;-0.0022582789;0.0;-6.8341426e-05;0;-1.2073439e-05;  1.0000000E+04;  0.0000000E+00;  1.2969442E-14;  1.0000000E+04;  0.0000000E+00;  1.0000000E+04;-1.224753e-05;0.0;1.7409057e-07;0.00018436128
  1.0000000E-01;  9.9999998E-03; -7.9999998E-02;1195;-6.7091503e-07;0.0;-1.3946817e-08;1000.0;  4.0000001E-01;0.0;3;-0.0022874698;0.0;-5.0458922e-05;0;-1.2248137e-05;  1.0000000E+04;  0.0000000E+00;  2.6670651E-15;  1.0000000E+04;  0.0000000E+00;  1.0000000E+04;-1.2391289e-05;0.0;1.4315214e-07;0.00016265856
  1.0000000E-01;  9.9999998E-03; -5.9999999E-02;1196;-6.7681515e-07;0.0;-9.7330428e-09;1000.0;  4.0000001E-01;0.0;3;-0.0023083799;0.0;-3.5367138e-05;0;-1.2374158e-05;  1.0000000E+04;  0.0000000E+00;  1.8359206E-15;  1.0000000E+04;  0.0000000E+00;  1.0000000E+04;-1.2492785e-05;0.0;1.1862663e-07;0.00014585108
  1.0000000E-01;  9.9999998E-03; -3.9999999E-02;1197;-6.8074354e-07;0.0;-6.1424417e-09;1000.0;  4.0000001E-01;0.0;3;-0.0023223779;0.0;-2.2394557e-05;0;-1.2458883e-05;  1.0000000E+04;  0.0000000E+00; -2.3306380E-15;  1.0000000E+04;  0.0000000E+00;  1.0000000E+04;-1.2559935e-05;0.0;1.0105187e-07;0.00013398989
  1.0000000E-01;  9.9999998E-03; -2.0000000E-02;1198;-6.829888e-07;0.0;-2.9686882e-09;1000.0;  4.0000001E-01;0.0;3;-0.0023304098;0.0;-1.0846416e-05;0;-1.2507601e-05;  1.0000000E+04;  0.0000000E+00;  3.6512609E-15;  1.0000000E+04;  0.0000000E+00;  1.0000000E+04;-1.2598144e-05;0.0;9.0543367e-08;0.0001269597
  1.2000000E-01;  9.9999998E-03; -1.8000001E-01;1221;-1.0001795e-06;0.0;-8.3617337e-08;1000.0;  4.0000001E-01;0.0;3;-0.003328244;0.0;-0.00028849934;0;-1.7884915e-05;  1.0000000E+04;  0.0000000E+00;  1.2232873E-13;  1.0000000E+04;  0.0000000E+00;  1.0000000E+04;-1.8442764e-05;0.0;5.5785034e-07;0.00056901784
  1.2000000E-01;  9.9999998E-03; -1.6000000E-01;1222;-1.0401978e-06;0.0;-6.7721501e-08;1000.0;  4.0000001E-01;0.0;3;-0.0034618308;0.0;-0.00023524575;0;-1.8662693e-05;  1.0000000E+04;  0.0000000E+00; -8.0798757E-14;  1.0000000E+04;  0.0000000E+00;  1.0000000E+04;-1.9164021e-05;0.0;5.0132758e-07;0.00051578146
  1.2000000E-01;  9.9999998E-03; -1.4000000E-01;1223;-1.0713371e-06;0.0;-5.3689625e-08;1000.0;  4.0000001E-01;0.0;3;-0.0035665499;0.0;-0.00018779805;0;-1.9283669e-05;  1.0000000E+04;  0.0000000E+00; -3.2032899E-14;  1.0000000E+04;  0.0000000E+00;  1.0000000E+04;-1.971607e-05;0.0;4.3240169e-07;0.00045577832
  1.2000000E-01;  9.9999998E-03; -1.2000000E-01;1224;-1.095186e-06;0.0;-4.1734229e-08;1000.0;  4.0000001E-01;0.0;3;-0.003647367;0.0;-0.00014698852;0;-1.9770257e-05;  1.0000000E+04;  0.0000000E+00; -1.5436575E-15;  1.0000000E+04;  0.0000000E+00;  1.0000000E+04;-2.0134245e-05;0.0;3.6398686e-07;0.00039898322
  1.2000000E-01;  9.9999998E-03; -1.0000000E-01;1225;-1.1131619e-06;0.0;-3.1615581e-08;1000.0;  4.0000001E-01;0.0;3;-0.0037087686;0.0;-0.00011207849;0;-2.0144747e-05;  1.0000000E+04;  0.0000000E+00;  1.6187233E-14;  1.0000000E+04;  0.0000000E+00;  1.0000000E+04;-2.0446127e-05;0.0;3.0137866e-07;0.00034904986
  1.2000000E-01;  9.9999998E-03; -7.9999998E-02;1226;-1.1263866e-06;0.0;-2.3214392e-08;1000.0;  4.0000001E-01;0.0;3;-0.003754291;0.0;-8.2797917e-05;0;-2.0425858e-05;  1.0000000E+04;  0.0000000E+00; -3.8887185E-15;  1.0000000E+04;  0.0000000E+00;  1.0000000E+04;-2.0673899e-05;0.0;2.4804052e-07;0.00030777938
  1.2000000E-01;  9.9999998E-03; -5.9999999E-02;1227;-1.1357814e-06;0.0;-1.6188743e-08;1000.0;  4.0000001E-01;0.0;3;-0.0037868673;0.0;-5.8041591e-05;0;-2.0628762e-05;  1.0000000E+04;  0.0000000E+00;  1.4385166E-14;  1.0000000E+04;  0.0000000E+00;  1.0000000E+04;-2.0834703e-05;0.0;2.0593987e-07;0.00027586397
  1.2000000E-01;  9.9999998E-03; -3.9999999E-02;1228;-1.1420249e-06;0.0;-1.0214021e-08;1000.0;  4.0000001E-01;0.0;3;-0.0038086504;0.0;-3.6769343e-05;0;-2.0765252e-05;  1.0000000E+04;  0.0000000E+00; -3.8350374E-15;  1.0000000E+04;  0.0000000E+00;  1.0000000E+04;-2.0941134e-05;0.0;1.7588208e-07;0.00025335094
  1.2000000E-01;  9.9999998E-03; -2.0000000E-02;1229;-1.1455893e-06;0.0;-4.9357221e-09;1000.0;  4.0000001E-01;0.0;3;-0.0038211441;0.0;-1.7814187e-05;0;-2.0843756e-05;  1.0000000E+04;  0.0000000E+00; -5.2708838E-16;  1.0000000E+04;  0.0000000E+00;  1.0000000E+04;-2.1001717e-05;0.0;1.5796095e-07;0.0002400071
  1.4000000E-01;  9.9999998E-03; -1.8000001E-01;1252;-1.6660559e-06;0.0;-1.3724579e-07;1000.0;  4.0000001E-01;0.0;3;-0.0054150061;0.0;-0.00046329782;0;-2.9481385e-05;  1.0000000E+04;  0.0000000E+00; -4.4458029E-10;  1.0000000E+04;  0.0000000E+00;  1.0000000E+04;-3.0444162e-05;0.0;9.627762e-07;0.0010654045
  1.4000000E-01;  9.9999998E-03; -1.6000000E-01;1253;-1.729119e-06;0.0;-1.1095205e-07;1000.0;  4.0000001E-01;0.0;3;-0.0056196013;0.0;-0.00037737461;0;-3.0711308e-05;  1.0000000E+04;  0.0000000E+00; -1.2809499E-13;  1.0000000E+04;  0.0000000E+00;  1.0000000E+04;-3.1568827e-05;0.0;8.5751753e-07;0.00095933641
  1.4000000E-01;  9.9999998E-03; -1.4000000E-01;1254;-1.7779666e-06;0.0;-8.7906898e-08;1000.0;  4.0000001E-01;0.0;3;-0.0057792678;0.0;-0.00030133437;0;-3.1691739e-05;  1.0000000E+04;  0.0000000E+00; -5.0237507E-14;  1.0000000E+04;  0.0000000E+00;  1.0000000E+04;-3.2427521e-05;0.0;7.3578218e-07;0.00084428885
  1.4000000E-01;  9.9999998E-03; -1.2000000E-01;1255;-1.8153839e-06;0.0;-6.834388e-08;1000.0;  4.0000001E-01;0.0;3;-0.0059025898;0.0;-0.00023611188;0;-3.2459149e-05;  1.0000000E+04;  0.0000000E+00;  1.8126266E-15;  1.0000000E+04;  0.0000000E+00;  1.0000000E+04;-3.30769e-05;0.0;6.1774938e-07;0.00073748676
  1.4000000E-01;  9.9999998E-03; -1.0000000E-01;1256;-1.8436566e-06;0.0;-5.1732165e-08;1000.0;  4.0000001E-01;0.0;3;-0.0059965984;0.0;-0.00018004327;0;-3.3049924e-05;  1.0000000E+04;  0.0000000E+00;  2.6867167E-14;  1.0000000E+04;  0.0000000E+00;  1.0000000E+04;-3.3560962e-05;0.0;5.1103814e-07;0.000644513
  1.4000000E-01;  9.9999998E-03; -7.9999998E-02;1257;-1.8644448e-06;0.0;-3.7968015e-08;1000.0;  4.0000001E-01;0.0;3;-0.0060662879;0.0;-0.00013306031;0;-3.3493699e-05;  1.0000000E+04;  0.0000000E+00;  8.6605678E-16;  1.0000000E+04;  0.0000000E+00;  1.0000000E+04;-3.3914486e-05;0.0;4.2078767e-07;0.00056804734
  1.4000000E-01;  9.9999998E-03; -5.9999999E-02;1258;-1.8791943e-06;0.0;-2.6454526e-08;1000.0;  4.0000001E-01;0.0;3;-0.0061161169;0.0;-9.3266812e-05;0;-3.3814362e-05;  1.0000000E+04;  0.0000000E+00;  2.4652706E-14;  1.0000000E+04;  0.0000000E+00;  1.0000000E+04;-3.4164263e-05;0.0;3.4990012e-07;0.00050905353
  1.4000000E-01;  9.9999998E-03; -3.9999999E-02;1259;-1.8889851e-06;0.0;-1.6684726e-08;1000.0;  4.0000001E-01;0.0;3;-0.0061494145;0.0;-5.9101574e-05;0;-3.403025e-05;  1.0000000E+04;  0.0000000E+00; -5.4822869E-15;  1.0000000E+04;  0.0000000E+00;  1.0000000E+04;-3.4329714e-05;0.0;2.9946392e-07;0.00046748412
  1.4000000E-01;  9.9999998E-03; -2.0000000E-02;1260;-1.8945677e-06;0.0;-8.0595335e-09;1000.0;  4.0000001E-01;0.0;3;-0.0061684949;0.0;-2.8635763e-05;0;-3.4154524e-05;  1.0000000E+04;  0.0000000E+00; -2.1410294E-16;  1.0000000E+04;  0.0000000E+00;  1.0000000E+04;-3.4423985e-05;0.0;2.6946287e-07;0.00044285716
  1.6000000E-01;  9.9999998E-03; -1.8000001E-01;1283;-2.7343963e-06;0.0;-2.2204246e-07;1000.0;  4.0000001E-01;0.0;3;-0.0086756293;0.0;-0.00073201559;0;-4.7827067e-05;  1.0000000E+04;  0.0000000E+00; -5.4862253E-09;  1.0000000E+04;  0.0000000E+00;  1.0000000E+04;-4.947426e-05;0.0;1.6471931e-06;0.0019595784
  1.6000000E-01;  9.9999998E-03; -1.6000000E-01;1284;-2.8325117e-06;0.0;-1.7893143e-07;1000.0;  4.0000001E-01;0.0;3;-0.0089848181;0.0;-0.00059462758;0;-4.9738122e-05;  1.0000000E+04;  0.0000000E+00; -4.6737435E-13;  1.0000000E+04;  0.0000000E+00;  1.0000000E+04;-5.1184619e-05;0.0;1.4464968e-06;0.0017478042
  1.6000000E-01;  9.9999998E-03; -1.4000000E-01;1285;-2.9082489e-06;0.0;-1.4159272e-07;1000.0;  4.0000001E-01;0.0;3;-0.0092252493;0.0;-0.00047449244;0;-5.1261093e-05;  1.0000000E+04;  0.0000000E+00; -6.6724661E-14;  1.0000000E+04;  0.0000000E+00;  1.0000000E+04;-5.2491934e-05;0.0;1.2308425e-06;0.0015295505
  1.6000000E-01;  9.9999998E-03; -1.2000000E-01;1286;-2.9662517e-06;0.0;-1.1018968e-07;1000.0;  4.0000001E-01;0.0;3;-0.0094109429;0.0;-0.00037245356;0;-5.2450825e-05;  1.0000000E+04;  0.0000000E+00;  6.7717648E-16;  1.0000000E+04;  0.0000000E+00;  1.0000000E+04;-5.3479795e-05;0.0;1.0289707e-06;0.0013321873
  1.6000000E-01;  9.9999998E-03; -1.0000000E-01;1287;-3.0102881e-06;0.0;-8.3479719e-08;1000.0;  4.0000001E-01;0.0;3;-0.0095532956;0.0;-0.00028447219;0;-5.336645e-05;  1.0000000E+04;  0.0000000E+00;  4.4706473E-14;  1.0000000E+04;  0.0000000E+00;  1.0000000E+04;-5.42163e-05;0.0;8.4985112e-07;0.0011627553
  1.6000000E-01;  9.9999998E-03; -7.9999998E-02;1288;-3.0428214e-06;0.0;-6.1267407e-08;1000.0;  4.0000001E-01;0.0;3;-0.0096593881;0.0;-0.00021036543;0;-5.4054904e-05;  1.0000000E+04;  0.0000000E+00; -6.0164204E-15;  1.0000000E+04;  0.0000000E+00;  1.0000000E+04;-5.4754808e-05;0.0;6.9990193e-07;0.0010243698
  1.6000000E-01;  9.9999998E-03; -5.9999999E-02;1289;-3.0659126e-06;0.0;-4.2640846e-08;1000.0;  4.0000001E-01;0.0;3;-0.0097352648;0.0;-0.00014735965;0;-5.4553097e-05;  1.0000000E+04;  0.0000000E+00;  3.1382984E-14;  1.0000000E+04;  0.0000000E+00;  1.0000000E+04;-5.5135926e-05;0.0;5.8283086e-07;0.00091794936
  1.6000000E-01;  9.9999998E-03; -3.9999999E-02;1290;-3.0811839e-06;0.0;-2.6872497e-08;1000.0;  4.0000001E-01;0.0;3;-0.0097857509;0.0;-9.3349714e-05;0;-5.4888995e-05;  1.0000000E+04;  0.0000000E+00; -3.9608382E-14;  1.0000000E+04;  0.0000000E+00;  1.0000000E+04;-5.538882e-05;0.0;4.9982435e-07;0.0008430687
  1.6000000E-01;  9.9999998E-03; -2.0000000E-02;1291;-3.08986e-06;0.0;-1.2974629e-08;1000.0;  4.0000001E-01;0.0;3;-0.0098145623;0.0;-4.5222998e-05;0;-5.5082535e-05;  1.0000000E+04;  0.0000000E+00; -1.2745139E-14;  1.0000000E+04;  0.0000000E+00;  1.0000000E+04;-5.5533077e-05;0.0;4.5054352e-07;0.00079873524
  1.7999999E-01;  9.9999998E-03; -1.8000001E-01;1314;-4.4200674e-06;0.0;-3.5457691e-07;1000.0;  4.0000001E-01;0.0;3;-0.013684122;0.0;-0.0011409702;0;-7.6416014e-05;  1.0000000E+04;  0.0000000E+00; -2.2620060E-08;  1.0000000E+04;  0.0000000E+00;  1.0000000E+04;-7.9212572e-05;0.0;2.7965593e-06;0.0035470487
  1.7999999E-01;  9.9999998E-03; -1.6000000E-01;1315;-4.5707534e-06;0.0;-2.8498977e-07;1000.0;  4.0000001E-01;0.0;3;-0.014146011;0.0;-0.00092460436;0;-7.9342099e-05;  1.0000000E+04;  0.0000000E+00; -9.4127463E-11;  1.0000000E+04;  0.0000000E+00;  1.0000000E+04;-8.1751758e-05;0.0;2.4096603e-06;0.0031252452
  1.7999999E-01;  9.9999998E-03; -1.4000000E-01;1316;-4.6870327e-06;0.0;-2.2529262e-07;1000.0;  4.0000001E-01;0.0;3;-0.014505125;0.0;-0.00073725055;0;-8.1673083e-05;  1.0000000E+04;  0.0000000E+00; -2.1848373E-13;  1.0000000E+04;  0.0000000E+00;  1.0000000E+04;-8.3700004e-05;0.0;2.0269222e-06;0.0027154833
  1.7999999E-01;  9.9999998E-03; -1.2000000E-01;1317;-4.7761923e-06;0.0;-1.7559529e-07;1000.0;  4.0000001E-01;0.0;3;-0.014782812;0.0;-0.00057993818;0;-8.3488449e-05;  1.0000000E+04;  0.0000000E+00;  9.9582453E-15;  1.0000000E+04;  0.0000000E+00;  1.0000000E+04;-8.5172622e-05;0.0;1.6841726e-06;0.0023563199
  1.7999999E-01;  9.9999998E-03; -1.0000000E-01;1318;-4.8441725e-06;0.0;-1.3337849e-07;1000.0;  4.0000001E-01;0.0;3;-0.014996679;0.0;-0.00044439238;0;-8.4884181e-05;  1.0000000E+04;  0.0000000E+00;  9.5265091E-14;  1.0000000E+04;  0.0000000E+00;  1.0000000E+04;-8.6271961e-05;0.0;1.3877809e-06;0.00205338
  1.7999999E-01;  9.9999998E-03; -7.9999998E-02;1319;-4.8947459e-06;0.0;-9.8078253e-08;1000.0;  4.0000001E-01;0.0;3;-0.015157263;0.0;-0.00032940335;0;-8.5934531e-05;  1.0000000E+04;  0.0000000E+00; -5.2614345E-15;  1.0000000E+04;  0.0000000E+00;  1.0000000E+04;-8.7077635e-05;0.0;1.1431006e-06;0.001808148
  1.7999999E-01;  9.9999998E-03; -5.9999999E-02;1320;-4.9308733e-06;0.0;-6.8243295e-08;1000.0;  4.0000001E-01;0.0;3;-0.015272876;0.0;-0.00023071773;0;-8.6695858e-05;  1.0000000E+04;  0.0000000E+00;  6.5999357E-14;  1.0000000E+04;  0.0000000E+00;  1.0000000E+04;-8.7649321e-05;0.0;9.5346439e-07;0.0016203125
  1.7999999E-01;  9.9999998E-03; -3.9999999E-02;1321;-4.9548044e-06;0.0;-4.2941654e-08;1000.0;  4.0000001E-01;0.0;3;-0.015349865;0.0;-0.0001459356;0;-8.7210232e-05;  1.0000000E+04;  0.0000000E+00; -2.6782706E-14;  1.0000000E+04;  0.0000000E+00;  1.0000000E+04;-8.8029738e-05;0.0;8.1950856e-07;0.0014883468
  1.7999999E-01;  9.9999998E-03; -2.0000000E-02;1322;-4.9683608e-06;0.0;-2.068346e-08;1000.0;  4.0000001E-01;0.0;3;-0.01539362;0.0;-7.0521317e-05;0;-8.7507113e-05;  1.0000000E+04;  0.0000000E+00; -6.2066441E-15;  1.0000000E+04;  0.0000000E+00;  1.0000000E+04;-8.8247223e-05;0.0;7.4010825e-07;0.001410253
  2.0000000E-01;  9.9999998E-03; -1.8000001E-01;1345;-7.0383821e-06;0.0;-5.5831066e-07;1000.0001;  4.0000001E-01;0.098762624;3;-0.021253694;0.0;-0.0017543262;0;-0.00012032241;  1.0000001E+04;  0.0000000E+00; -5.3931764E-08;  1.0000000E+04;  0.0000000E+00;  1.0000000E+04;-0.00012502252;0.0;4.700109e-06;0.0063211797
  2.0000000E-01;  9.9999998E-03; -1.6000000E-01;1346;-7.2652192e-06;0.0;-4.4814956e-07;1000.0001;  4.0000001E-01;0.098762624;3;-0.021930836;0.0;-0.001419939;0;-0.00012475146;  1.0000001E+04;  0.0000000E+00; -5.5973631E-10;  1.0000000E+04;  0.0000000E+00;  1.0000000E+04;-0.00012871395;0.0;3.9624897e-06;0.0054912195
  2.0000000E-01;  9.9999998E-03; -1.4000000E-01;1347;-7.4403565e-06;0.0;-3.5418034e-07;1000.0001;  4.0000001E-01;0.098762624;3;-0.022457812;0.0;-0.0011319506;0;-0.00012826701;  1.0000001E+04;  0.0000000E+00; -1.1373419E-13;  1.0000000E+04;  0.0000000E+00;  1.0000000E+04;-0.00013155463;0.0;3.2876137e-06;0.0047318381
  2.0000000E-01;  9.9999998E-03; -1.2000000E-01;1348;-7.5748444e-06;0.0;-2.766684e-07;1000.0001;  4.0000001E-01;0.098762624;3;-0.022865836;0.0;-0.00089285796;0;-0.0001309934;  1.0000001E+04;  0.0000000E+00;  1.1299344E-14;  1.0000000E+04;  0.0000000E+00;  1.0000000E+04;-0.00013370474;0.0;2.711344e-06;0.0040881136
  2.0000000E-01;  9.9999998E-03; -1.0000000E-01;1349;-7.6778424e-06;0.0;-2.1091741e-07;1000.0001;  4.0000001E-01;0.098762624;3;-0.023181578;0.0;-0.00068694033;0;-0.00013308581;  1.0000001E+04;  0.0000000E+00;  1.1154104E-13;  1.0000000E+04;  0.0000000E+00;  1.0000000E+04;-0.00013531381;0.0;2.228006e-06;0.003555927
  2.0000000E-01;  9.9999998E-03; -7.9999998E-02;1350;-7.7549821e-06;0.0;-1.5568187e-07;1000.0001;  4.0000001E-01;0.098762624;3;-0.0234203;0.0;-0.00051125995;0;-0.00013466099;  1.0000001E+04;  0.0000000E+00;  1.4186367E-14;  1.0000000E+04;  0.0000000E+00;  1.0000000E+04;-0.00013649683;0.0;1.835835e-06;0.0031295288
  2.0000000E-01;  9.9999998E-03; -5.9999999E-02;1351;-7.8105377e-06;0.0;-1.0855546e-07;1000.0001;  4.0000001E-01;0.098762624;3;-0.023593586;0.0;-0.00035884642;0;-0.00013580499;  1.0000001E+04;  0.0000000E+00;  1.6221639E-13;  1.0000000E+04;  0.0000000E+00;  1.0000000E+04;-0.00013733952;0.0;1.5345327e-06;0.0028043468
  2.0000000E-01;  9.9999998E-03; -3.9999999E-02;1352;-7.8475905e-06;0.0;-6.8325114e-08;1000.0001;  4.0000001E-01;0.098762624;3;-0.023709744;0.0;-0.00022698176;0;-0.00013657974;  1.0000001E+04;  0.0000000E+00; -2.1431497E-14;  1.0000000E+04;  0.0000000E+00;  1.0000000E+04;-0.00013790226;0.0;1.3225224e-06;0.002576188
  2.0000000E-01;  9.9999998E-03; -2.0000000E-02;1353;-7.8686935e-06;0.0;-3.2865941e-08;1000.0001;  4.0000001E-01;0.098762624;3;-0.023776093;0.0;-0.00010949928;0;-0.00013702788;  1.0000001E+04;  0.0000000E+00; -1.1135774E-15;  1.0000000E+04;  0.0000000E+00;  1.0000000E+04;-0.00013822492;0.0;1.197034e-06;0.0024411823
  2.2000000E-01;  9.9999998E-03; -1.8000001E-01;1376;-1.1043276e-05;0.0;-8.6470396e-07;1000.0001;  4.0000001E-01;0.098762624;3;-0.032511529;0.0;-0.0026543094;0;-0.00018683016;  1.0000001E+04;  0.0000000E+00; -8.4088278E-08;  1.0000000E+04;  0.0000000E+00;  1.0000000E+04;-0.00019461478;0.0;7.7846225e-06;0.011080673
  2.2000000E-01;  9.9999998E-03; -1.6000000E-01;1377;-1.1376579e-05;0.0;-6.9373823e-07;1000.0001;  4.0000001E-01;0.098762624;3;-0.033479139;0.0;-0.0021478764;0;-0.00019345376;  1.0000001E+04;  0.0000000E+00; -8.6925694E-10;  1.0000000E+04;  0.0000000E+00;  1.0000000E+04;-0.00019987412;0.0;6.4203659e-06;0.0094854375
  2.2000000E-01;  9.9999998E-03; -1.4000000E-01;1378;-1.1633747e-05;0.0;-5.4839563e-07;1000.0001;  4.0000001E-01;0.098762624;3;-0.034232326;0.0;-0.0017125746;0;-0.00019867279;  1.0000001E+04;  0.0000000E+00; -1.4775216E-13;  1.0000000E+04;  0.0000000E+00;  1.0000000E+04;-0.00020392361;0.0;5.2508221e-06;0.0081023918
  2.2000000E-01;  9.9999998E-03; -1.2000000E-01;1379;-1.1831081e-05;0.0;-4.2952723e-07;1000.0001;  4.0000001E-01;0.098762624;3;-0.034815058;0.0;-0.0013551773;0;-0.00020269828;  1.0000001E+04;  0.0000000E+00;  1.6913717E-13;  1.0000000E+04;  0.0000000E+00;  1.0000000E+04;-0.00020699452;0.0;4.2962392e-06;0.0069676703
  2.2000000E-01;  9.9999998E-03; -1.0000000E-01;1380;-1.1982624e-05;0.0;-3.2876906e-07;1000.0001;  4.0000001E-01;0.098762624;3;-0.03526748;0.0;-0.0010470486;0;-0.00020577938;  1.0000001E+04;  0.0000000E+00;  3.5503536E-13;  1.0000000E+04;  0.0000000E+00;  1.0000000E+04;-0.00020930012;0.0;3.5207449e-06;0.0060486509
  2.2000000E-01;  9.9999998E-03; -7.9999998E-02;1381;-1.2096722e-05;0.0;-2.4385992e-07;1000.0001;  4.0000001E-01;0.098762624;3;-0.035611339;0.0;-0.00078322861;0;-0.00020809927;  1.0000001E+04;  0.0000000E+00;  2.7641944E-15;  1.0000000E+04;  0.0000000E+00;  1.0000000E+04;-0.00021100261;0.0;2.903342e-06;0.0053200377
  2.2000000E-01;  9.9999998E-03; -5.9999999E-02;1382;-1.2179545e-05;0.0;-1.7073853e-07;1000.0001;  4.0000001E-01;0.098762624;3;-0.03586293;0.0;-0.00055195729;0;-0.00020978738;  1.0000001E+04;  0.0000000E+00;  2.7829526E-13;  1.0000000E+04;  0.0000000E+00;  1.0000000E+04;-0.0002122209;0.0;2.4335106e-06;0.0047666305
  2.2000000E-01;  9.9999998E-03; -3.9999999E-02;1383;-1.2235272e-05;0.0;-1.0775332e-07;1000.0001;  4.0000001E-01;0.098762624;3;-0.036033109;0.0;-0.00034997868;0;-0.00021093385;  1.0000001E+04;  0.0000000E+00; -1.1692736E-13;  1.0000000E+04;  0.0000000E+00;  1.0000000E+04;-0.00021303803;0.0;2.1041776e-06;0.0043786177
  2.2000000E-01;  9.9999998E-03; -2.0000000E-02;1384;-1.2267291e-05;0.0;-5.1925337e-08;1000.0001;  4.0000001E-01;0.098762624;3;-0.036131199;0.0;-0.00016910133;0;-0.00021159867;  1.0000001E+04;  0.0000000E+00; -2.8917207E-14;  1.0000000E+04;  0.0000000E+00;  1.0000000E+04;-0.00021350813;0.0;1.9094548e-06;0.0041489163
  2.3999999E-01;  9.9999998E-03; -1.8000001E-01;1407;-1.7090972e-05;0.0;-1.3162878e-06;1000.0001;  4.0000001E-01;0.098762624;3;-0.048999954;0.0;-0.0039449125;0;-0.00028630506;  1.0000002E+04;  0.0000000E+00; -8.5755026E-08;  1.0000000E+04;  0.0000000E+00;  1.0000000E+04;-0.0002989551;0.0;1.2650047e-05;0.019076021
  2.3999999E-01;  9.9999998E-03; -1.6000000E-01;1408;-1.7569095e-05;0.0;-1.0545625e-06;1000.0001;  4.0000001E-01;0.098762624;3;-0.050343659;0.0;-0.0031886839;0;-0.00029605089;  1.0000002E+04;  0.0000000E+00; -3.5352229E-10;  1.0000000E+04;  0.0000000E+00;  1.0000000E+04;-0.00030627934;0.0;1.0228452e-05;0.016107129
  2.3999999E-01;  9.9999998E-03; -1.4000000E-01;1409;-1.7936585e-05;0.0;-8.3425095e-07;1000.0001;  4.0000001E-01;0.098762624;3;-0.051385876;0.0;-0.0025447283;0;-0.00030366264;  1.0000002E+04;  0.0000000E+00; -4.3279293E-13;  1.0000000E+04;  0.0000000E+00;  1.0000000E+04;-0.00031191646;0.0;8.2538227e-06;0.013643841
  2.3999999E-01;  9.9999998E-03; -1.2000000E-01;1410;-1.8217903e-05;0.0;-6.5507595e-07;1000.0001;  4.0000001E-01;0.098762624;3;-0.052190296;0.0;-0.0020204589;0;-0.00030949645;  1.0000002E+04;  0.0000000E+00;  4.6037143E-13;  1.0000000E+04;  0.0000000E+00;  1.0000000E+04;-0.0003162006;0.0;6.7041542e-06;0.011681191
  2.3999999E-01;  9.9999998E-03; -1.0000000E-01;1411;-1.8433951e-05;0.0;-5.0313412e-07;1000.0001;  4.0000001E-01;0.098762624;3;-0.052815743;0.0;-0.0015669324;0;-0.00031394677;  1.0000002E+04;  0.0000000E+00;  4.2477770E-13;  1.0000000E+04;  0.0000000E+00;  1.0000000E+04;-0.00031942924;0.0;5.4824704e-06;0.01012155
  2.3999999E-01;  9.9999998E-03; -7.9999998E-02;1412;-1.8596755e-05;0.0;-3.7490324e-07;1000.0001;  4.0000001E-01;0.098762624;3;-0.053291809;0.0;-0.0011777339;0;-0.00031729758;  1.0000002E+04;  0.0000000E+00;  8.3492058E-14;  1.0000000E+04;  0.0000000E+00;  1.0000000E+04;-0.00032182527;0.0;4.527687e-06;0.0088965055
  2.3999999E-01;  9.9999998E-03; -5.9999999E-02;1413;-1.8715415e-05;0.0;-2.6372709e-07;1000.0001;  4.0000001E-01;0.098762624;3;-0.053641673;0.0;-0.0008338152;0;-0.00031974108;  1.0000002E+04;  0.0000000E+00;  3.1340997E-13;  1.0000000E+04;  0.0000000E+00;  1.0000000E+04;-0.00032354885;0.0;3.8077585e-06;0.0079686707
  2.3999999E-01;  9.9999998E-03; -3.9999999E-02;1414;-1.8795807e-05;0.0;-1.6716575e-07;1000.0001;  4.0000001E-01;0.098762624;3;-0.053879961;0.0;-0.00053094263;0;-0.00032140571;  1.0000002E+04;  0.0000000E+00; -1.5942792E-13;  1.0000000E+04;  0.0000000E+00;  1.0000000E+04;-0.00032471048;0.0;3.3047609e-06;0.0073178913
  2.3999999E-01;  9.9999998E-03; -2.0000000E-02;1415;-1.8842342e-05;0.0;-8.0824918e-08;1000.0001;  4.0000001E-01;0.098762624;3;-0.054018401;0.0;-0.00025738194;0;-0.00032237353;  1.0000002E+04;  0.0000000E+00;  2.0567210E-14;  1.0000000E+04;  0.0000000E+00;  1.0000000E+04;-0.000325381;0.0;3.0074843e-06;0.0069321357
  2.5999999E-01;  9.9999998E-03; -1.8000001E-01;1438;-2.614348e-05;0.0;-1.9705899e-06;1000.0002;  4.0000001E-01;0.19752523;3;-0.072840407;0.0;-0.0057549947;0;-0.00043336221;  1.0000003E+04;  0.0000000E+00; -5.0615981E-08;  1.0000000E+04;  0.0000000E+00;  1.0000000E+04;-0.0004534793;0.0;2.0117091e-05;0.032212358
  2.5999999E-01;  9.9999998E-03; -1.6000000E-01;1439;-2.6812155e-05;0.0;-1.5752236e-06;1000.0002;  4.0000001E-01;0.19752523;3;-0.074646272;0.0;-0.0046429415;0;-0.00044741656;  1.0000004E+04;  0.0000000E+00; -9.9109555E-13;  1.0000000E+04;  0.0000000E+00;  1.0000000E+04;-0.00046341951;0.0;1.6002939e-05;0.026884109
  2.5999999E-01;  9.9999998E-03; -1.4000000E-01;1440;-2.7323134e-05;0.0;-1.2461317e-06;1000.0002;  4.0000001E-01;0.19752523;3;-0.076039217;0.0;-0.0037057311;0;-0.00045830765;  1.0000004E+04;  0.0000000E+00; -9.5480850E-13;  1.0000000E+04;  0.0000000E+00;  1.0000000E+04;-0.00047107626;0.0;1.2768612e-05;0.022608874
  2.5999999E-01;  9.9999998E-03; -1.2000000E-01;1441;-2.7712431e-05;0.0;-9.8033195e-07;1000.0002;  4.0000001E-01;0.19752523;3;-0.07710848;0.0;-0.0029511009;0;-0.00046659639;  1.0000004E+04;  0.0000000E+00;  9.2527060E-13;  1.0000000E+04;  0.0000000E+00;  1.0000000E+04;-0.00047690811;0.0;1.0311726e-05;0.019285627
  2.5999999E-01;  9.9999998E-03; -1.0000000E-01;1442;-2.801092e-05;0.0;-7.55023e-07;1000.0002;  4.0000001E-01;0.19752523;3;-0.077939734;0.0;-0.0022966363;0;-0.00047289734;  1.0000004E+04;  0.0000000E+00;  3.2208158E-13;  1.0000000E+04;  0.0000000E+00;  1.0000000E+04;-0.00048132174;0.0;8.424402e-06;0.016685603
  2.5999999E-01;  9.9999998E-03; -7.9999998E-02;1443;-2.8235627e-05;0.0;-5.6433169e-07;1000.0002;  4.0000001E-01;0.19752523;3;-0.078572564;0.0;-0.0017326275;0;-0.00047764147;  1.0000004E+04;  0.0000000E+00;  1.3830343E-13;  1.0000000E+04;  0.0000000E+00;  1.0000000E+04;-0.00048461417;0.0;6.972698e-06;0.014656568
  2.5999999E-01;  9.9999998E-03; -5.9999999E-02;1444;-2.8399427e-05;0.0;-3.9846307e-07;1000.0002;  4.0000001E-01;0.19752523;3;-0.079038359;0.0;-0.0012314006;0;-0.00048110948;  1.0000004E+04;  0.0000000E+00;  1.3505091E-13;  1.0000000E+04;  0.0000000E+00;  1.0000000E+04;-0.00048699553;0.0;5.8860501e-06;0.013120654
  2.5999999E-01;  9.9999998E-03; -3.9999999E-02;1445;-2.8510687e-05;0.0;-2.5362419e-07;1000.0002;  4.0000001E-01;0.19752523;3;-0.079356685;0.0;-0.00078741205;0;-0.00048348002;  1.0000004E+04;  0.0000000E+00; -9.7823842E-14;  1.0000000E+04;  0.0000000E+00;  1.0000000E+04;-0.00048860826;0.0;5.1282509e-06;0.012041164
  2.5999999E-01;  9.9999998E-03; -2.0000000E-02;1446;-2.8575361e-05;0.0;-1.2303592e-07;1000.0002;  4.0000001E-01;0.19752523;3;-0.07954254;0.0;-0.00038299413;0;-0.00048486207;  1.0000004E+04;  0.0000000E+00; -4.0039020E-14;  1.0000000E+04;  0.0000000E+00;  1.0000000E+04;-0.0004895422;0.0;4.6801342e-06;0.011399786
  2.8000000E-01;  9.9999998E-03; -1.8000001E-01;1469;-3.961266e-05;0.0;-2.9080315e-06;1000.0002;  4.0000001E-01;0.19752523;3;-0.10696928;0.0;-0.008252521;0;-0.00064837624;  1.0000005E+04;  0.0000000E+00; -1.0006207E-08;  1.0000000E+04;  0.0000000E+00;  1.0000000E+04;-0.00067968591;0.0;3.1309683e-05;0.053354971
  2.8000000E-01;  9.9999998E-03; -1.6000000E-01;1470;-4.0527189e-05;0.0;-2.3175487e-06;1000.0002;  4.0000001E-01;0.19752523;3;-0.10932172;0.0;-0.0066401549;0;-0.00066823722;  1.0000005E+04;  0.0000000E+00; -1.7021705E-12;  1.0000000E+04;  0.0000000E+00;  1.0000000E+04;-0.00069283409;0.0;2.4596888e-05;0.044124164
  2.8000000E-01;  9.9999998E-03; -1.4000000E-01;1471;-4.1219573e-05;0.0;-1.8320919e-06;1000.0002;  4.0000001E-01;0.19752523;3;-0.11111924;0.0;-0.0052983812;0;-0.00068352115;  1.0000005E+04;  0.0000000E+00; -1.2908340E-12;  1.0000000E+04;  0.0000000E+00;  1.0000000E+04;-0.00070297974;0.0;1.9458581e-05;0.036900636
  2.8000000E-01;  9.9999998E-03; -1.2000000E-01;1472;-4.174342e-05;0.0;-1.44214e-06;1000.0002;  4.0000001E-01;0.19752523;3;-0.11248896;0.0;-0.004226875;0;-0.00069506792;  1.0000005E+04;  0.0000000E+00;  7.4976809E-13;  1.0000000E+04;  0.0000000E+00;  1.0000000E+04;-0.00071072602;0.0;1.5658106e-05;0.031397123
  2.8000000E-01;  9.9999998E-03; -1.0000000E-01;1473;-4.2143842e-05;0.0;-1.1123085e-06;1000.0002;  4.0000001E-01;0.19752523;3;-0.11355229;0.0;-0.0032972728;0;-0.00070381793;  1.0000005E+04;  0.0000000E+00;  8.9371506E-13;  1.0000000E+04;  0.0000000E+00;  1.0000000E+04;-0.00071661553;0.0;1.2797586e-05;0.027137913
  2.8000000E-01;  9.9999998E-03; -7.9999998E-02;1474;-4.2444728e-05;0.0;-8.3271249e-07;1000.0002;  4.0000001E-01;0.19752523;3;-0.11436126;0.0;-0.0024941275;0;-0.00071041001;  1.0000005E+04;  0.0000000E+00; -1.0461341E-13;  1.0000000E+04;  0.0000000E+00;  1.0000000E+04;-0.00072103215;0.0;1.0622118e-05;0.023821687
  2.8000000E-01;  9.9999998E-03; -5.9999999E-02;1475;-4.2664255e-05;0.0;-5.8945659e-07;1000.0002;  4.0000001E-01;0.19752523;3;-0.11495878;0.0;-0.0017783629;0;-0.00071524316;  1.0000005E+04;  0.0000000E+00; -9.7140610E-15;  1.0000000E+04;  0.0000000E+00;  1.0000000E+04;-0.00072424312;0.0;8.9999594e-06;0.021304749
  2.8000000E-01;  9.9999998E-03; -3.9999999E-02;1476;-4.2813746e-05;0.0;-3.7634811e-07;1000.0002;  4.0000001E-01;0.19752523;3;-0.11536925;0.0;-0.001141254;0;-0.00071855832;  1.0000005E+04;  0.0000000E+00; -6.9628832E-14;  1.0000000E+04;  0.0000000E+00;  1.0000000E+04;-0.00072642643;0.0;7.8681314e-06;0.019528501
  2.8000000E-01;  9.9999998E-03; -2.0000000E-02;1477;-4.29008e-05;0.0;-1.8305853e-07;1000.0002;  4.0000001E-01;0.19752523;3;-0.11560977;0.0;-0.00055672094;0;-0.00072049722;  1.0000005E+04;  0.0000000E+00; -2.1233137E-13;  1.0000000E+04;  0.0000000E+00;  1.0000000E+04;-0.00072769471;0.0;7.1974982e-06;0.018469442
  2.9999998E-01;  9.9999998E-03; -1.8000001E-01;1500;-5.9536324e-05;0.0;-4.2479451e-06;1000.0003;  4.0000001E-01;0.2962878;3;-0.15543528;0.0;-0.011682657;0;-0.00095940422;  1.0000007E+04;  0.0000000E+00; -2.2176642E-12;  1.0000000E+04;  0.0000000E+00;  1.0000000E+04;-0.0010071989;0.0;4.7794703e-05;0.086814716
  2.9999998E-01;  9.9999998E-03; -1.6000000E-01;1501;-6.0763672e-05;0.0;-3.373664e-06;1000.0003;  4.0000001E-01;0.2962878;3;-0.15841135;0.0;-0.0093692699;0;-0.00098696549;  1.0000008E+04;  0.0000000E+00; -5.7328404E-12;  1.0000000E+04;  0.0000000E+00;  1.0000000E+04;-0.0010241736;0.0;3.7208123e-05;0.071303762
  2.9999998E-01;  9.9999998E-03; -1.4000000E-01;1502;-6.1684674e-05;0.0;-2.6606003e-06;1000.0003;  4.0000001E-01;0.2962878;3;-0.16066529;0.0;-0.0074616037;0;-0.0010080192;  1.0000008E+04;  0.0000000E+00; -6.6150785E-13;  1.0000000E+04;  0.0000000E+00;  1.0000000E+04;-0.0010372949;0.0;2.927567e-05;0.059408762
  2.9999998E-01;  9.9999998E-03; -1.2000000E-01;1503;-6.237482e-05;0.0;-2.0916227e-06;1000.0003;  4.0000001E-01;0.2962878;3;-0.16236471;0.0;-0.005952145;0;-0.0010238168;  1.0000008E+04;  0.0000000E+00;  5.7491333E-13;  1.0000000E+04;  0.0000000E+00;  1.0000000E+04;-0.0010473487;0.0;2.3531968e-05;0.050485216
  2.9999998E-01;  9.9999998E-03; -1.0000000E-01;1504;-6.2898755e-05;0.0;-1.6135301e-06;1000.0004;  4.0000001E-01;0.39505041;3;-0.16367728;0.0;-0.0046496615;0;-0.0010357619;  1.0000008E+04;  0.0000000E+00;  1.4950938E-12;  1.0000000E+04;  0.0000000E+00;  1.0000000E+04;-0.0010550295;0.0;1.9267547e-05;0.043615248
  2.9999998E-01;  9.9999998E-03; -7.9999998E-02;1505;-6.3292508e-05;0.0;-1.208861e-06;1000.0004;  4.0000001E-01;0.39505041;3;-0.16467936;0.0;-0.0035250706;0;-0.0010447778;  1.0000008E+04;  0.0000000E+00;  1.4379044E-13;  1.0000000E+04;  0.0000000E+00;  1.0000000E+04;-0.001060818;0.0;1.6040223e-05;0.038251426
  2.9999998E-01;  9.9999998E-03; -5.9999999E-02;1506;-6.3581014e-05;0.0;-8.574699e-07;1000.0004;  4.0000001E-01;0.39505041;3;-0.16542642;0.0;-0.0025221601;0;-0.0010514121;  1.0000008E+04;  0.0000000E+00;  6.7449993E-14;  1.0000000E+04;  0.0000000E+00;  1.0000000E+04;-0.001065043;0.0;1.3630909e-05;0.034155041
  2.9999998E-01;  9.9999998E-03; -3.9999999E-02;1507;-6.3778309e-05;0.0;-5.4875824e-07;1000.0004;  4.0000001E-01;0.39505041;3;-0.1659441;0.0;-0.0016243634;0;-0.0010559825;  1.0000008E+04;  0.0000000E+00;  1.4768263E-14;  1.0000000E+04;  0.0000000E+00;  1.0000000E+04;-0.0010679261;0.0;1.1943542e-05;0.031246347
  2.9999998E-01;  9.9999998E-03; -2.0000000E-02;1508;-6.3893604e-05;0.0;-2.6735958e-07;1000.0004;  4.0000001E-01;0.39505041;3;-0.16624965;0.0;-0.00079427264;0;-0.0010586646;  1.0000008E+04;  0.0000000E+00;  2.7849261E-14;  1.0000000E+04;  0.0000000E+00;  1.0000000E+04;-0.0010696047;0.0;1.0939965e-05;0.029504389
  3.1999999E-01;  9.9999998E-03; -1.8000001E-01;1531;-8.8745823e-05;0.0;-6.1526348e-06;1000.0005;  4.0000001E-01;0.39505041;3;-0.22366156;0.0;-0.016338741;0;-0.0014044896;  1.0000012E+04;  0.0000000E+00;  3.3669495E-12;  1.0000000E+04;  0.0000000E+00;  1.0000000E+04;-0.001476282;0.0;7.1792361e-05;0.13911478
  3.1999999E-01;  9.9999998E-03; -1.6000000E-01;1532;-9.0371374e-05;0.0;-4.8708198e-06;1000.0005;  4.0000001E-01;0.39505041;3;-0.22734073;0.0;-0.013069496;0;-0.0014420806;  1.0000012E+04;  0.0000000E+00;  3.4162898E-12;  1.0000000E+04;  0.0000000E+00;  1.0000000E+04;-0.0014976424;0.0;5.556181e-05;0.11369637
  3.1999999E-01;  9.9999998E-03; -1.4000000E-01;1533;-9.15829e-05;0.0;-3.8358726e-06;1000.0005;  4.0000001E-01;0.39505041;3;-0.23010764;0.0;-0.010401514;0;-0.0014706003;  1.0000012E+04;  0.0000000E+00;  2.8091258E-12;  1.0000000E+04;  0.0000000E+00;  1.0000000E+04;-0.0015142271;0.0;4.3626886e-05;0.094549045
  3.1999996E-01;  9.9999998E-03; -1.2000000E-01;1534;-9.2485883e-05;0.0;-3.0082231e-06;1000.0005;  4.0000001E-01;0.39505041;3;-0.23218052;0.0;-0.0082879672;0;-0.0014918856;  1.0000012E+04;  0.0000000E+00; -1.0568173E-12;  1.0000000E+04;  0.0000000E+00;  1.0000000E+04;-0.0015270045;0.0;3.5118937e-05;0.080336183
  3.1999996E-01;  9.9999998E-03; -1.0000000E-01;1535;-9.3168856e-05;0.0;-2.3185523e-06;1000.0005;  4.0000001E-01;0.49381301;3;-0.23378062;0.0;-0.0064807576;0;-0.001507977;  1.0000012E+04;  0.0000000E+00;  2.7979474E-12;  1.0000000E+04;  0.0000000E+00;  1.0000000E+04;-0.001536814;0.0;2.8836976e-05;0.069382608
  3.1999996E-01;  9.9999998E-03; -7.9999998E-02;1536;-9.3682567e-05;0.0;-1.7376752e-06;1000.0005;  4.0000001E-01;0.49381301;3;-0.23501074;0.0;-0.004926099;0;-0.0015201689;  1.0000012E+04;  0.0000000E+00;  1.0334952E-12;  1.0000000E+04;  0.0000000E+00;  1.0000000E+04;-0.0015442362;0.0;2.4067374e-05;0.060760979
  3.1999996E-01;  9.9999998E-03; -5.9999999E-02;1537;-9.4060175e-05;0.0;-1.2342798e-06;1000.0005;  4.0000001E-01;0.49381301;3;-0.23593742;0.0;-0.0035369601;0;-0.0015291874;  1.0000012E+04;  0.0000000E+00; -2.5645116E-13;  1.0000000E+04;  0.0000000E+00;  1.0000000E+04;-0.0015496681;0.0;2.0480691e-05;0.054114651
  3.1999996E-01;  9.9999998E-03; -3.9999999E-02;1538;-9.4319315e-05;0.0;-7.9098027e-07;1000.0005;  4.0000001E-01;0.49381301;3;-0.23658583;0.0;-0.0022852491;0;-0.00153543;  1.0000012E+04;  0.0000000E+00; -5.7332540E-13;  1.0000000E+04;  0.0000000E+00;  1.0000000E+04;-0.0015533802;0.0;1.7950153e-05;0.049359903
  3.1999996E-01;  9.9999998E-03; -2.0000000E-02;1539;-9.4471019e-05;0.0;-3.8567214e-07;1000.0005;  4.0000001E-01;0.49381301;3;-0.2369708;0.0;-0.0011195971;0;-0.0015391064;  1.0000012E+04;  0.0000000E+00;  1.1792653E-13;  1.0000000E+04;  0.0000000E+00;  1.0000000E+04;-0.0015555433;0.0;1.6436859e-05;0.046498772
  3.3999997E-01;  9.9999998E-03; -1.8000001E-01;1562;-0.00013100763;0.0;-8.8685601e-06;1000.0008;  4.0000001E-01;0.69133818;3;-0.31863123;0.0;-0.022708183;0;-0.0020339957;  1.0000017E+04;  0.0000000E+00;  8.2025853E-12;  1.0000000E+04;  0.0000000E+00;  9.9999990E+03;-0.0021404803;0.0;0.00010648466;0.22021542
  3.3999997E-01;  9.9999998E-03; -1.6000000E-01;1563;-0.00013313364;0.0;-7.0142064e-06;1000.0009;  4.0000001E-01;0.69133818;3;-0.32308212;0.0;-0.018136777;0;-0.0020844073;  1.0000018E+04;  0.0000000E+00; -2.3977166E-11;  1.0000000E+04;  0.0000000E+00;  1.0000000E+04;-0.0021666242;0.0;8.2217011e-05;0.1794188
  3.3999997E-01;  9.9999998E-03; -1.4000000E-01;1564;-0.00013471484;0.0;-5.5272826e-06;1000.0009;  4.0000001E-01;0.69133818;3;-0.32641113;0.0;-0.014462039;0;-0.0021224848;  1.0000018E+04;  0.0000000E+00; -4.8779288E-12;  1.0000000E+04;  0.0000000E+00;  1.0000000E+04;-0.0021871382;0.0;6.4653352e-05;0.14913981
  3.3999997E-01;  9.9999998E-03; -1.2000000E-01;1565;-0.00013589773;0.0;-4.32663e-06;1000.0009;  4.0000001E-01;0.69133818;3;-0.32891655;0.0;-0.011518718;0;-0.0021508245;  1.0000018E+04;  0.0000000E+00;  2.5967104E-12;  1.0000000E+04;  0.0000000E+00;  1.0000000E+04;-0.0022030666;0.0;5.2242143e-05;0.12677658
  3.3999997E-01;  9.9999998E-03; -1.0000000E-01;1566;-0.00013679586;0.0;-3.3302351e-06;1000.0009;  4.0000001E-01;0.69133818;3;-0.33086944;0.0;-0.0090178316;0;-0.0021723183;  1.0000018E+04;  0.0000000E+00;  2.2613782E-12;  1.0000000E+04;  0.0000000E+00;  1.0000000E+04;-0.0022153568;0.0;4.3038603e-05;0.10941318
  3.3999997E-01;  9.9999998E-03; -7.9999998E-02;1567;-0.00013747354;0.0;-2.4929766e-06;1000.0009;  4.0000001E-01;0.79010075;3;-0.33238819;0.0;-0.0068653072;0;-0.0021887089;  1.0000018E+04;  0.0000000E+00;  1.2681207E-12;  1.0000000E+04;  0.0000000E+00;  1.0000000E+04;-0.0022246731;0.0;3.5964116e-05;0.095575169
  3.3999997E-01;  9.9999998E-03; -5.9999999E-02;1568;-0.00013797193;0.0;-1.7701362e-06;1000.0009;  4.0000001E-01;0.79010075;3;-0.33354211;0.0;-0.0049409796;0;-0.0022009166;  1.0000018E+04;  0.0000000E+00; -1.4302326E-12;  1.0000000E+04;  0.0000000E+00;  1.0000000E+04;-0.0022314896;0.0;3.0573025e-05;0.084788553
  3.3999997E-01;  9.9999998E-03; -3.9999999E-02;1569;-0.00013831415;0.0;-1.1340363e-06;1000.0009;  4.0000001E-01;0.79010075;3;-0.33435583;0.0;-0.0031986681;0;-0.0022094152;  1.0000018E+04;  0.0000000E+00; -4.7846366E-16;  1.0000000E+04;  0.0000000E+00;  1.0000000E+04;-0.0022361451;0.0;2.6729953e-05;0.077013947
  3.3999997E-01;  9.9999998E-03; -2.0000000E-02;1570;-0.00013851466;0.0;-5.5279133e-07;1000.0009;  4.0000001E-01;0.79010075;3;-0.33484215;0.0;-0.0015689057;0;-0.0022144401;  1.0000018E+04;  0.0000000E+00; -6.7202510E-13;  1.0000000E+04;  0.0000000E+00;  1.0000000E+04;-0.0022388569;0.0;2.441677e-05;0.072316103
  3.5999995E-01;  9.9999998E-03; -1.8000001E-01;1593;-0.00019107168;0.0;-1.2766819e-05;1000.0012;  4.0000001E-01;0.98762578;3;-0.44886029;0.0;-0.031459883;0;-0.002912747;  1.0000025E+04;  0.0000000E+00; -1.6846026E-11;  1.0000000E+04;  0.0000000E+00;  9.9999990E+03;-0.0030693344;0.0;0.0001565874;0.34570968
  3.5999995E-01;  9.9999998E-03; -1.6000000E-01;1594;-0.00019379181;0.0;-1.0128852e-05;1000.0012;  4.0000001E-01;0.98762578;3;-0.45405251;0.0;-0.02520832;0;-0.0029792874;  1.0000025E+04;  0.0000000E+00;  2.6785350E-11;  1.0000000E+04;  0.0000000E+00;  9.9999990E+03;-0.0031003708;0.0;0.00012108325;0.28119692
  3.5999995E-01;  9.9999998E-03; -1.4000000E-01;1595;-0.00019582841;0.0;-8.0032924e-06;1000.0012;  4.0000001E-01;0.98762578;3;-0.45793745;0.0;-0.020186896;0;-0.0030295108;  1.0000025E+04;  0.0000000E+00;  1.4368141E-11;  1.0000000E+04;  0.0000000E+00;  9.9999990E+03;-0.0031251914;0.0;9.568048e-05;0.23380953
  3.5999995E-01;  9.9999998E-03; -1.2000000E-01;1596;-0.00019737562;0.0;-6.2600238e-06;1000.0012;  4.0000001E-01;0.98762578;3;-0.46092084;0.0;-0.016093541;0;-0.003066943;  1.0000025E+04;  0.0000000E+00;  1.1608271E-11;  1.0000000E+04;  0.0000000E+00;  1.0000000E+04;-0.0031446731;0.0;7.7730132e-05;0.19877043
  3.5999995E-01;  9.9999998E-03; -1.0000000E-01;1597;-0.00019856395;0.0;-4.8103238e-06;1000.0012;  4.0000001E-01;0.98762578;3;-0.463294;0.0;-0.012614158;0;-0.0030955356;  1.0000025E+04;  0.0000000E+00;  6.5055756E-12;  1.0000000E+04;  0.0000000E+00;  1.0000000E+04;-0.0031597514;0.0;6.4215965e-05;0.17121924
  3.5999995E-01;  9.9999998E-03; -7.9999998E-02;1598;-0.0001994682;0.0;-3.590415e-06;1000.0013;  4.0000001E-01;1.0863883;3;-0.46517655;0.0;-0.0096031716;0;-0.0031175453;  1.0000025E+04;  0.0000000E+00;  2.4104848E-12;  1.0000000E+04;  0.0000000E+00;  1.0000000E+04;-0.0031711569;0.0;5.3611566e-05;0.14894384
  3.5999995E-01;  9.9999998E-03; -6.0000002E-02;1599;-0.00020013447;0.0;-2.5426161e-06;1000.0013;  4.0000001E-01;1.0863883;3;-0.46662402;0.0;-0.0069139125;0;-0.0031340832;  1.0000025E+04;  0.0000000E+00;  1.6243519E-12;  1.0000000E+04;  0.0000000E+00;  1.0000000E+04;-0.0031794717;0.0;4.538853e-05;0.1313999
  3.5999995E-01;  9.9999998E-03; -3.9999999E-02;1600;-0.00020059178;0.0;-1.6251731e-06;1000.0013;  4.0000001E-01;1.0863883;3;-0.46765369;0.0;-0.0044768341;0;-0.0031456714;  1.0000025E+04;  0.0000000E+00;  6.8650359E-13;  1.0000000E+04;  0.0000000E+00;  1.0000000E+04;-0.0031851314;0.0;3.9459959e-05;0.11868321
  3.5999995E-01;  9.9999998E-03; -2.0000000E-02;1601;-0.0002008593;0.0;-7.9103694e-07;1000.0013;  4.0000001E-01;1.0863883;3;-0.46827182;0.0;-0.0021960873;0;-0.0031525493;  1.0000025E+04;  0.0000000E+00; -7.3947809E-13;  1.0000000E+04;  0.0000000E+00;  1.0000000E+04;-0.0031884185;0.0;3.5869281e-05;0.1109799
  3.7999994E-01;  9.9999998E-03; -1.8000001E-01;1624;-0.00027477543;0.0;-1.8379034e-05;1000.0017;  4.0000001E-01;1.3826759;3;-0.62410706;0.0;-0.043656226;0;-0.0041219885;  1.0000036E+04;  0.0000000E+00; -5.4073131E-11;  1.0000000E+04;  0.0000000E+00;  9.9999990E+03;-0.0043513672;0.0;0.00022937874;0.54070187
  3.7999994E-01;  9.9999998E-03; -1.6000000E-01;1625;-0.00027814583;0.0;-1.4680229e-05;1000.0017;  4.0000001E-01;1.3826759;3;-0.6298191;0.0;-0.035212874;0;-0.0042085941;  1.0000036E+04;  0.0000000E+00;  2.2004914E-11;  1.0000000E+04;  0.0000000E+00;  9.9999990E+03;-0.0043868665;0.0;0.00017827257;0.43928316
  3.7999994E-01;  9.9999998E-03; -1.4000000E-01;1626;-0.00028071378;0.0;-1.1655603e-05;1000.0018;  4.0000001E-01;1.4814385;3;-0.6341511;0.0;-0.028369104;0;-0.0042742556;  1.0000037E+04;  0.0000000E+00; -4.3742839E-12;  1.0000000E+04;  0.0000000E+00;  9.9999990E+03;-0.0044161552;0.0;0.00014189957;0.36516878
  3.7999994E-01;  9.9999998E-03; -1.2000000E-01;1627;-0.00028271673;0.0;-9.1204038e-06;1000.0018;  4.0000001E-01;1.4814385;3;-0.6376071;0.0;-0.022664096;0;-0.0043234951;  1.0000037E+04;  0.0000000E+00;  1.6971747E-11;  1.0000000E+04;  0.0000000E+00;  9.9999990E+03;-0.0044394243;0.0;0.00011592905;0.3099868
  3.7999994E-01;  9.9999998E-03; -1.0000000E-01;1628;-0.00028428668;0.0;-6.9931775e-06;1000.0018;  4.0000001E-01;1.4814385;3;-0.64045596;0.0;-0.017768884;0;-0.0043615215;  1.0000037E+04;  0.0000000E+00;  9.8832253E-12;  1.0000000E+04;  0.0000000E+00;  9.9999990E+03;-0.0044574067;0.0;9.5885407e-05;0.26595399
  3.7999994E-01;  9.9999998E-03; -7.9999998E-02;1629;-0.00028549795;0.0;-5.1978095e-06;1000.0018;  4.0000001E-01;1.4814385;3;-0.64278227;0.0;-0.01350936;0;-0.004391137;  1.0000037E+04;  0.0000000E+00;  2.5549246E-12;  1.0000000E+04;  0.0000000E+00;  1.0000000E+04;-0.0044708918;0.0;7.975458e-05;0.22990763
  3.7999994E-01;  9.9999998E-03; -6.0000002E-02;1630;-0.00028639581;0.0;-3.6638708e-06;1000.0018;  4.0000001E-01;1.4814385;3;-0.64460564;0.0;-0.009709198;0;-0.0044136131;  1.0000037E+04;  0.0000000E+00; -4.3438164E-13;  1.0000000E+04;  0.0000000E+00;  1.0000000E+04;-0.0044806353;0.0;6.702196e-05;0.20132974
  3.7999994E-01;  9.9999998E-03; -3.9999999E-02;1631;-0.00028701185;0.0;-2.3321938e-06;1000.0018;  4.0000001E-01;1.4814385;3;-0.6459142;0.0;-0.0062766639;0;-0.0044294689;  1.0000037E+04;  0.0000000E+00;  1.5965856E-12;  1.0000000E+04;  0.0000000E+00;  1.0000000E+04;-0.0044872207;0.0;5.7751553e-05;0.18057202
  3.7999994E-01;  9.9999998E-03; -2.0000000E-02;1632;-0.00028737134;0.0;-1.1320975e-06;1000.0018;  4.0000001E-01;1.4814385;3;-0.6467033;0.0;-0.0030756064;0;-0.0044389199;  1.0000037E+04;  0.0000000E+00; -1.9340228E-12;  1.0000000E+04;  0.0000000E+00;  1.0000000E+04;-0.0044910321;0.0;5.2112347e-05;0.1679991
  3.9999989E-01;  9.9999998E-03; -1.8000001E-01;1655;-0.00038964002;0.0;-2.6504178e-05;1000.0025;  4.0000001E-01;2.0740135;3;-0.85546988;0.0;-0.060840372;0;-0.0057607689;  1.0000052E+04;  0.0000000E+00; -5.2584100E-11;  1.0000000E+04;  0.0000000E+00;  9.9999971E+03;-0.0060972366;0.0;0.00033646793;0.84641361
  3.9999989E-01;  9.9999998E-03; -1.6000001E-01;1656;-0.00039363551;0.0;-2.1366577e-05;1000.0026;  4.0000001E-01;2.172776;3;-0.86117125;0.0;-0.049549252;0;-0.0058724205;  1.0000052E+04;  0.0000000E+00; -3.8846270E-12;  1.0000000E+04;  0.0000000E+00;  9.9999980E+03;-0.0061358316;0.0;0.00026341109;0.6860016
  3.9999989E-01;  9.9999998E-03; -1.4000000E-01;1657;-0.00039677482;0.0;-1.7053506e-05;1000.0026;  4.0000001E-01;2.172776;3;-0.86567408;0.0;-0.040172826;0;-0.0059579401;  1.0000054E+04;  0.0000000E+00;  3.6569948E-11;  1.0000000E+04;  0.0000000E+00;  9.9999990E+03;-0.0061692405;0.0;0.00021130052;0.56884724
  3.9999989E-01;  9.9999998E-03; -1.2000000E-01;1658;-0.00039930621;0.0;-1.3348053e-05;1000.0026;  4.0000001E-01;2.172776;3;-0.86948651;0.0;-0.03215652;0;-0.0060227537;  1.0000054E+04;  0.0000000E+00;  1.3078401E-11;  1.0000000E+04;  0.0000000E+00;  9.9999990E+03;-0.0061960872;0.0;0.00017333339;0.4808003
  3.9999989E-01;  9.9999998E-03; -1.0000000E-01;1659;-0.00040134101;0.0;-1.019972e-05;1000.0026;  4.0000001E-01;2.172776;3;-0.87279975;0.0;-0.025163144;0;-0.0060734753;  1.0000054E+04;  0.0000000E+00;  1.3428420E-11;  1.0000000E+04;  0.0000000E+00;  9.9999990E+03;-0.0062166112;0.0;0.00014313596;0.40968671
  3.9999989E-01;  9.9999998E-03; -7.9999998E-02;1660;-0.00040293796;0.0;-7.5409262e-06;1000.0026;  4.0000001E-01;2.172776;3;-0.87560773;0.0;-0.019077776;0;-0.0061134589;  1.0000054E+04;  0.0000000E+00;  1.6357609E-12;  1.0000000E+04;  0.0000000E+00;  9.9999990E+03;-0.0062317052;0.0;0.00011824629;0.35110861
  3.9999989E-01;  9.9999998E-03; -6.0000002E-02;1661;-0.00040413332;0.0;-5.2826654e-06;1000.0027;  4.0000001E-01;2.2715385;3;-0.87786555;0.0;-0.013657004;0;-0.0061440831;  1.0000054E+04;  0.0000000E+00; -2.2563830E-12;  1.0000000E+04;  0.0000000E+00;  9.9999990E+03;-0.0062424107;0.0;9.8327735e-05;0.30464563
  3.9999989E-01;  9.9999998E-03; -3.9999999E-02;1662;-0.0004049564;0.0;-3.3447884e-06;1000.0027;  4.0000001E-01;2.2715385;3;-0.87950891;0.0;-0.0088029997;0;-0.0061658304;  1.0000054E+04;  0.0000000E+00; -5.0509787E-12;  1.0000000E+04;  0.0000000E+00;  1.0000000E+04;-0.0062495689;0.0;8.3738443e-05;0.27098569
  3.9999989E-01;  9.9999998E-03; -2.0000000E-02;1663;-0.00040543632;0.0;-1.6176665e-06;1000.0027;  4.0000001E-01;2.2715385;3;-0.88050622;0.0;-0.0043038926;0;-0.0061788401;  1.0000054E+04;  0.0000000E+00; -1.0204856E-12;  1.0000000E+04;  0.0000000E+00;  1.0000000E+04;-0.0062536891;0.0;7.4848991e-05;0.25066289
  4.1999984E-01;  9.9999998E-03; -1.8000001E-01;1686;-0.0005462275;0.0;-3.8361144e-05;1000.0036;  4.0000001E-01;2.9628754;3;-1.1564535;0.0;-0.085392669;0;-0.0079441182;  1.0000075E+04;  0.0000000E+00; -4.4358310E-12;  1.0000000E+04;  0.0000000E+00;  9.9999961E+03;-0.0084408289;0.0;0.00049671094;1.3309083
  4.1999984E-01;  9.9999998E-03; -1.6000001E-01;1687;-0.00055070192;0.0;-3.1207157e-05;1000.0036;  4.0000001E-01;2.9628754;3;-1.1612104;0.0;-0.07030423;0;-0.0080880309;  1.0000075E+04;  0.0000000E+00; -6.7371525E-11;  1.0000000E+04;  0.0000000E+00;  9.9999971E+03;-0.0084794862;0.0;0.00039145519;1.0721115
  4.1999984E-01;  9.9999998E-03; -1.4000000E-01;1688;-0.00055435597;0.0;-2.4982588e-05;1000.0037;  4.0000001E-01;3.0616379;3;-1.1653184;0.0;-0.057229578;0;-0.0081998343;  1.0000076E+04;  0.0000000E+00;  4.4876425E-12;  1.0000000E+04;  0.0000000E+00;  9.9999971E+03;-0.0085155861;0.0;0.00031575223;0.88309336
  4.1999984E-01;  9.9999998E-03; -1.2000000E-01;1689;-0.00055740296;0.0;-1.9522529e-05;1000.0037;  4.0000001E-01;3.0616379;3;-1.1691302;0.0;-0.045820702;0;-0.0082856324;  1.0000076E+04;  0.0000000E+00;  1.0874604E-11;  1.0000000E+04;  0.0000000E+00;  9.9999980E+03;-0.0085448455;0.0;0.00025921309;0.74029285
  4.1999984E-01;  9.9999998E-03; -1.0000000E-01;1690;-0.00055992254;0.0;-1.482763e-05;1000.0037;  4.0000001E-01;3.0616379;3;-1.1727268;0.0;-0.035670474;0;-0.0083536515;  1.0000077E+04;  0.0000000E+00;  1.0740734E-11;  1.0000000E+04;  0.0000000E+00;  9.9999990E+03;-0.0085666263;0.0;0.00021297474;0.62450105
  4.1999984E-01;  9.9999998E-03; -8.0000006E-02;1691;-0.00056194054;0.0;-1.0887415e-05;1000.0038;  4.0000001E-01;3.1604004;3;-1.1759411;0.0;-0.02689342;0;-0.0084078098;  1.0000077E+04;  0.0000000E+00;  3.0888237E-12;  1.0000000E+04;  0.0000000E+00;  9.9999990E+03;-0.0085820248;0.0;0.00017421495;0.52934068
  4.1999984E-01;  9.9999998E-03; -6.0000002E-02;1692;-0.00056347472;0.0;-7.5745784e-06;1000.0038;  4.0000001E-01;3.1604004;3;-1.1786252;0.0;-0.019151019;0;-0.0084495703;  1.0000077E+04;  0.0000000E+00;  6.2873936E-13;  1.0000000E+04;  0.0000000E+00;  9.9999990E+03;-0.0085925702;0.0;0.00014300032;0.45437533
  4.1999984E-01;  9.9999998E-03; -4.0000003E-02;1693;-0.00056454277;0.0;-4.7659646e-06;1000.0038;  4.0000001E-01;3.1604004;3;-1.1806288;0.0;-0.012286839;0;-0.0084793577;  1.0000077E+04;  0.0000000E+00; -1.8316126E-11;  1.0000000E+04;  0.0000000E+00;  9.9999990E+03;-0.0085994722;0.0;0.00012011491;0.40046832
  4.1999984E-01;  9.9999998E-03; -2.0000001E-02;1694;-0.00056516903;0.0;-2.2975314e-06;1000.0038;  4.0000001E-01;3.1604004;3;-1.181862;0.0;-0.0059970808;0;-0.008497227;  1.0000077E+04;  0.0000000E+00; -3.7133482E-12;  1.0000000E+04;  0.0000000E+00;  9.9999990E+03;-0.0086034145;0.0;0.00010618756;0.36812052
  4.3999976E-01;  9.9999998E-03; -1.8000002E-01;1717;-0.00076019199;0.0;-5.5830507e-05;1000.0049;  4.0000001E-01;4.0492616;3;-1.5451351;0.0;-0.12099052;0;-0.010790261;  1.0000106E+04;  0.0000000E+00; -1.7431333E-10;  1.0000000E+04;  0.0000000E+00;  9.9999932E+03;-0.011530869;0.0;0.00074060768;2.1051137
  4.3999976E-01;  9.9999998E-03; -1.6000001E-01;1718;-0.00076489005;0.0;-4.5649507e-05;1000.0051;  4.0000001E-01;4.1480241;3;-1.5475502;0.0;-0.10049613;0;-0.010978386;  1.0000106E+04;  0.0000000E+00;  3.4894795E-11;  1.0000000E+04;  0.0000000E+00;  9.9999961E+03;-0.011563356;0.0;0.00058497058;1.674729
  4.3999976E-01;  9.9999998E-03; -1.4000002E-01;1719;-0.00076884899;0.0;-3.6447607e-05;1000.0051;  4.0000001E-01;4.1480241;3;-1.5502653;0.0;-0.081749395;0;-0.01112654;  1.0000106E+04;  0.0000000E+00;  8.1835337E-11;  1.0000000E+04;  0.0000000E+00;  9.9999961E+03;-0.011598527;0.0;0.00047198744;1.3619237
  4.3999976E-01;  9.9999998E-03; -1.2000000E-01;1720;-0.00077221898;0.0;-2.8343682e-05;1000.0052;  4.0000001E-01;4.3455491;3;-1.5533079;0.0;-0.065226577;0;-0.011241306;  1.0000107E+04;  0.0000000E+00;  5.1759892E-11;  1.0000000E+04;  0.0000000E+00;  9.9999971E+03;-0.011627262;0.0;0.00038595719;1.1271363
  4.3999976E-01;  9.9999998E-03; -1.0000001E-01;1721;-0.00077509938;0.0;-2.1328655e-05;1000.0052;  4.0000001E-01;4.3455491;3;-1.5567007;0.0;-0.050342649;0;-0.01133308;  1.0000107E+04;  0.0000000E+00; -6.3325270E-12;  1.0000000E+04;  0.0000000E+00;  9.9999971E+03;-0.011647501;0.0;0.00031442076;0.93848437
  4.3999976E-01;  9.9999998E-03; -8.0000006E-02;1722;-0.00077747327;0.0;-1.55162e-05;1000.0053;  4.0000001E-01;4.4443111;3;-1.5600595;0.0;-0.037583321;0;-0.011406592;  1.0000107E+04;  0.0000000E+00;  1.6240127E-11;  1.0000000E+04;  0.0000000E+00;  9.9999990E+03;-0.011660664;0.0;0.00025407251;0.78524953
  4.3999976E-01;  9.9999998E-03; -6.0000002E-02;1723;-0.00077932159;0.0;-1.0728489e-05;1000.0053;  4.0000001E-01;4.4443111;3;-1.5630314;0.0;-0.026657578;0;-0.011463461;  1.0000107E+04;  0.0000000E+00; -5.4945107E-12;  1.0000000E+04;  0.0000000E+00;  9.9999990E+03;-0.01166899;0.0;0.00020553019;0.66604435
  4.3999976E-01;  9.9999998E-03; -4.0000003E-02;1724;-0.00078063883;0.0;-6.7081482e-06;1000.0053;  4.0000001E-01;4.4443111;3;-1.565365;0.0;-0.017003054;0;-0.011504092;  1.0000107E+04;  0.0000000E+00; -1.6329682E-11;  1.0000000E+04;  0.0000000E+00;  9.9999990E+03;-0.011674176;0.0;0.00017008344;0.58129328
  4.3999976E-01;  9.9999998E-03; -2.0000001E-02;1725;-0.00078142021;0.0;-3.2250334e-06;1000.0053;  4.0000001E-01;4.4443111;3;-1.5668302;0.0;-0.0082877809;0;-0.011528505;  1.0000107E+04;  0.0000000E+00; -9.9974586E-12;  1.0000000E+04;  0.0000000E+00;  9.9999990E+03;-0.011677097;0.0;0.00014859201;0.53086174
  4.5999965E-01;  9.9999998E-03; -1.8000002E-01;1748;-0.0010540517;0.0;-8.1732564e-05;1000.0072;  4.0000015E-01;5.925745;3;-2.046344;0.0;-0.17304359;0;-0.01438266;  1.0000146E+04;  0.0000000E+00;  6.3123000E-11;  1.0000000E+04;  0.0000000E+00;  9.9999902E+03;-0.015499411;0.0;0.0011167509;3.3462811
  4.5999965E-01;  9.9999998E-03; -1.6000001E-01;1749;-0.0010587435;0.0;-6.6678011e-05;1000.0073;  4.0000015E-01;6.0245075;3;-2.0446327;0.0;-0.14430597;0;-0.014636967;  1.0000146E+04;  0.0000000E+00;  3.5506495E-10;  1.0000000E+04;  0.0000000E+00;  9.9999922E+03;-0.015513615;0.0;0.00087664759;2.6060073
  4.5999965E-01;  9.9999998E-03; -1.4000002E-01;1750;-0.0010626576;0.0;-5.2685471e-05;1000.0073;  4.0000015E-01;6.0245075;3;-2.0444663;0.0;-0.11660074;0;-0.014837855;  1.0000146E+04;  0.0000000E+00;  2.8132366E-10;  1.0000000E+04;  0.0000000E+00;  9.9999941E+03;-0.015539957;0.0;0.00070210197;2.0761464
  4.5999965E-01;  9.9999998E-03; -1.2000001E-01;1751;-0.0010659496;0.0;-4.0478586e-05;1000.0074;  4.0000015E-01;6.1232696;3;-2.0455837;0.0;-0.091788165;0;-0.01499329;  1.0000148E+04;  0.0000000E+00;  1.2390626E-10;  1.0000000E+04;  0.0000000E+00;  9.9999961E+03;-0.015562098;0.0;0.00056880823;1.6876998
  4.5999965E-01;  9.9999998E-03; -1.0000001E-01;1752;-0.0010688194;0.0;-3.0187392e-05;1000.0075;  4.0000013E-01;6.2220321;3;-2.0477464;0.0;-0.070410788;0;-0.015117668;  1.0000148E+04;  0.0000000E+00;  5.1533122E-11;  1.0000000E+04;  0.0000000E+00;  9.9999971E+03;-0.015575754;0.0;0.00045808713;1.3832506
  4.5999965E-01;  9.9999998E-03; -8.0000006E-02;1753;-0.0010713114;0.0;-2.1734122e-05;1000.0076;  4.0000013E-01;6.2220321;3;-2.0506649;0.0;-0.051966645;0;-0.015217386;  1.0000148E+04;  0.0000000E+00;  2.4061796E-11;  1.0000000E+04;  0.0000000E+00;  9.9999971E+03;-0.015582558;0.0;0.00036517199;1.141035
  4.5999965E-01;  9.9999998E-03; -6.0000002E-02;1754;-0.0010733411;0.0;-1.4931541e-05;1000.0076;  4.0000013E-01;6.2220321;3;-2.0535975;0.0;-0.036692172;0;-0.01529455;  1.0000148E+04;  0.0000000E+00;  1.3225299E-11;  1.0000000E+04;  0.0000000E+00;  9.9999971E+03;-0.015585532;0.0;0.00029098263;0.95574492
  4.5999965E-01;  9.9999998E-03; -4.0000003E-02;1755;-0.0010748493;0.0;-9.2783484e-06;1000.0076;  4.0000015E-01;6.3207946;3;-2.0561216;0.0;-0.023251165;0;-0.015349679;  1.0000148E+04;  0.0000000E+00; -1.1404554E-11;  1.0000000E+04;  0.0000000E+00;  9.9999990E+03;-0.015586865;0.0;0.00023718682;0.82571566
  4.5999965E-01;  9.9999998E-03; -2.0000001E-02;1756;-0.0010757665;0.0;-4.4498825e-06;1000.0076;  4.0000015E-01;6.3207946;3;-2.0577714;0.0;-0.011320283;0;-0.0153828;  1.0000148E+04;  0.0000000E+00; -6.1430991E-12;  1.0000000E+04;  0.0000000E+00;  9.9999990E+03;-0.015587542;0.0;0.00020474206;0.74905515
  4.7999951E-01;  9.9999998E-03; -1.8000004E-01;1779;-0.0014569325;0.0;-0.00012007354;1000.0101;  4.0000042E-01;8.2960367;3;-2.6914399;0.0;-0.2495631;0;-0.018692425;  1.0000199E+04;  0.0000000E+00;  8.1848439E-10;  1.0000000E+04;  0.0000000E+00;  9.9999844E+03;-0.020394713;0.0;0.0017022884;5.3355284
  4.7999951E-01;  9.9999998E-03; -1.6000003E-01;1780;-0.0014616353;0.0;-9.6937474e-05;1000.0103;  4.0000045E-01;8.5923233;3;-2.6838648;0.0;-0.20724343;0;-0.019055609;  1.0000200E+04;  0.0000000E+00;  9.4773411E-10;  1.0000000E+04;  0.0000000E+00;  9.9999893E+03;-0.020368317;0.0;0.0013127081;4.0248151
  4.7999951E-01;  9.9999998E-03; -1.4000002E-01;1781;-0.0014650861;0.0;-7.5231721e-05;1000.0104;  4.0000045E-01;8.6910858;3;-2.6789553;0.0;-0.16519356;0;-0.01933708;  1.0000200E+04;  0.0000000E+00;  7.5053702E-10;  1.0000000E+04;  0.0000000E+00;  9.9999912E+03;-0.020370491;0.0;0.0010334111;3.111527
  4.7999951E-01;  9.9999998E-03; -1.2000001E-01;1782;-0.0014676675;0.0;-5.6861401e-05;1000.0106;  4.0000039E-01;8.7898483;3;-2.6763401;0.0;-0.12801625;0;-0.019550297;  1.0000200E+04;  0.0000000E+00;  3.7096928E-10;  1.0000000E+04;  0.0000000E+00;  9.9999941E+03;-0.020374941;0.0;0.00082464423;2.4698038
  4.7999951E-01;  9.9999998E-03; -1.0000001E-01;1783;-0.00146992;0.0;-4.1965443e-05;1000.0107;  4.0000042E-01;8.8886108;3;-2.6758053;0.0;-0.097388953;0;-0.019718744;  1.0000200E+04;  0.0000000E+00;  1.8219157E-10;  1.0000000E+04;  0.0000000E+00;  9.9999951E+03;-0.020373758;0.0;0.00065501395;1.9875571
  4.7999951E-01;  9.9999998E-03; -8.0000006E-02;1784;-0.0014721137;0.0;-2.98623e-05;1000.0107;  4.0000042E-01;8.8886108;3;-2.6773407;0.0;-0.071062945;0;-0.019853216;  1.0000200E+04;  0.0000000E+00;  3.5277278E-11;  1.0000000E+04;  0.0000000E+00;  9.9999961E+03;-0.020368205;0.0;0.00051498885;1.6152371
  4.7999951E-01;  9.9999998E-03; -6.0000006E-02;1785;-0.0014740706;0.0;-2.0335316e-05;1000.0107;  4.0000042E-01;8.8886108;3;-2.6797111;0.0;-0.049697738;0;-0.019957196;  1.0000200E+04;  0.0000000E+00; -3.2546164E-13;  1.0000000E+04;  0.0000000E+00;  9.9999971E+03;-0.020361656;0.0;0.0004044605;1.3358897
  4.7999951E-01;  9.9999998E-03; -4.0000003E-02;1786;-0.0014756323;0.0;-1.2581433e-05;1000.0107;  4.0000042E-01;8.8886108;3;-2.6821425;0.0;-0.031371642;0;-0.020031441;  1.0000200E+04;  0.0000000E+00; -1.9831336E-11;  1.0000000E+04;  0.0000000E+00;  9.9999971E+03;-0.020356422;0.0;0.00032498184;1.1424335
  4.7999951E-01;  9.9999998E-03; -2.0000001E-02;1787;-0.0014766279;0.0;-6.0138063e-06;1000.0107;  4.0000042E-01;8.8886108;3;-2.6838689;0.0;-0.015230223;0;-0.020076049;  1.0000200E+04;  0.0000000E+00; -1.7182657E-12;  1.0000000E+04;  0.0000000E+00;  9.9999980E+03;-0.020353349;0.0;0.00027729952;1.0293375
  4.9999928E-01;  9.9999998E-03; -1.8000005E-01;1810;-0.0020004418;0.0;-0.00017617813;1000.014;  4.0000087E-01;11.653945;3;-3.5144308;0.0;-0.36037746;0;-0.023458816;  1.0000262E+04;  0.0000000E+00;  2.9349232E-09;  1.0000000E+04;  0.0000000E+00;  9.9999766E+03;-0.026081678;0.0;0.0026228609;8.5277138
  4.9999928E-01;  9.9999998E-03; -1.6000004E-01;1811;-0.0020060851;0.0;-0.00013843784;1000.0143;  4.0000090E-01;11.851469;3;-3.5003252;0.0;-0.29251567;0;-0.024017923;  1.0000262E+04;  0.0000000E+00;  3.1120122E-09;  1.0000000E+04;  0.0000000E+00;  9.9999824E+03;-0.025978269;0.0;0.0019603455;6.1619663
  4.9999928E-01;  9.9999998E-03; -1.4000003E-01;1812;-0.0020083981;0.0;-0.00010607156;1000.0145;  4.0000087E-01;12.048994;3;-3.4876862;0.0;-0.23189697;0;-0.024430702;  1.0000262E+04;  0.0000000E+00;  2.0095690E-09;  1.0000000E+04;  0.0000000E+00;  9.9999873E+03;-0.02592987;0.0;0.0014991683;4.569397
  4.9999928E-01;  9.9999998E-03; -1.2000002E-01;1813;-0.0020094838;0.0;-7.8756537e-05;1000.0147;  4.0000087E-01;12.147756;3;-3.4789331;0.0;-0.17716929;0;-0.024727996;  1.0000262E+04;  0.0000000E+00;  1.0025684E-09;  1.0000000E+04;  0.0000000E+00;  9.9999902E+03;-0.025898326;0.0;0.0011703304;3.5140448
  4.9999928E-01;  9.9999998E-03; -1.0000002E-01;1814;-0.0020103839;0.0;-5.7289777e-05;1000.0148;  4.0000087E-01;12.246518;3;-3.474021;0.0;-0.13274378;0;-0.024955126;  1.0000263E+04;  0.0000000E+00;  4.7100707E-10;  1.0000000E+04;  0.0000000E+00;  9.9999932E+03;-0.025869882;0.0;0.00091475627;2.7672982
  4.9999928E-01;  9.9999998E-03; -8.0000013E-02;1815;-0.0020116949;0.0;-4.0369192e-05;1000.0149;  4.0000084E-01;12.345281;3;-3.4728439;0.0;-0.096175745;0;-0.025134128;  1.0000262E+04;  0.0000000E+00;  1.3719442E-10;  1.0000000E+04;  0.0000000E+00;  9.9999951E+03;-0.025843799;0.0;0.00070967217;2.2142639
  4.9999928E-01;  9.9999998E-03; -6.0000006E-02;1816;-0.0020132372;0.0;-2.7204271e-05;1000.015;  4.0000084E-01;12.345281;3;-3.4739735;0.0;-0.066504873;0;-0.02527233;  1.0000262E+04;  0.0000000E+00;  1.4850563E-11;  1.0000000E+04;  0.0000000E+00;  9.9999961E+03;-0.025822535;0.0;0.00055020547;1.8087236
  4.9999928E-01;  9.9999998E-03; -4.0000003E-02;1817;-0.002014657;0.0;-1.6731989e-05;1000.015;  4.0000090E-01;12.444043;3;-3.4759393;0.0;-0.041758236;0;-0.025371194;  1.0000262E+04;  0.0000000E+00;  5.7988432E-12;  1.0000000E+04;  0.0000000E+00;  9.9999971E+03;-0.025807634;0.0;0.00043644008;1.5312456
  4.9999928E-01;  9.9999998E-03; -2.0000001E-02;1818;-0.0020156463;0.0;-7.9590482e-06;1000.0151;  4.0000090E-01;12.542805;3;-3.4775987;0.0;-0.020172782;0;-0.02543064;  1.0000262E+04;  0.0000000E+00; -6.5562646E-12;  1.0000000E+04;  0.0000000E+00;  9.9999971E+03;-0.025799142;0.0;0.00036850129;1.3701564
  5.1999903E-01;  9.9999998E-03; -1.8000008E-01;1841;-0.0027117538;0.0;-0.00025373767;1000.0207;  4.0000248E-01;17.184607;3;-4.5452251;0.0;-0.51210243;0;-0.028044388;  1.0000331E+04;  0.0000000E+00;  5.6918577E-09;  1.0000000E+04;  0.0000000E+00;  9.9999609E+03;-0.032133017;0.0;0.0040886286;13.672267
  5.1999897E-01;  9.9999998E-03; -1.6000006E-01;1842;-0.0027184174;0.0;-0.0001961394;1000.0212;  4.0000245E-01;17.579655;3;-4.5214114;0.0;-0.41083586;0;-0.028979665;  1.0000328E+04;  0.0000000E+00;  6.0107137E-09;  1.0000000E+04;  0.0000000E+00;  9.9999736E+03;-0.031905558;0.0;0.0029258926;9.379509
  5.1999897E-01;  9.9999998E-03; -1.4000005E-01;1843;-0.0027194668;0.0;-0.00014779154;1000.0216;  4.0000248E-01;17.875942;3;-4.498837;0.0;-0.32166043;0;-0.029624462;  1.0000328E+04;  0.0000000E+00;  4.3915969E-09;  1.0000000E+04;  0.0000000E+00;  9.9999814E+03;-0.031769015;0.0;0.0021445518;6.5842962
  5.1999897E-01;  9.9999998E-03; -1.2000003E-01;1844;-0.002718315;0.0;-0.00010801815;1000.0219;  4.0000251E-01;18.073465;3;-4.4813366;0.0;-0.24326667;0;-0.030052206;  1.0000327E+04;  0.0000000E+00;  2.2546864E-09;  1.0000000E+04;  0.0000000E+00;  9.9999863E+03;-0.03167516;0.0;0.0016229548;4.8513641
  5.1999897E-01;  9.9999998E-03; -1.0000002E-01;1845;-0.0027170824;0.0;-7.7313322e-05;1000.022;  4.0000248E-01;18.172228;3;-4.4700136;0.0;-0.17962356;0;-0.030358654;  1.0000327E+04;  0.0000000E+00;  9.3858132E-10;  1.0000000E+04;  0.0000000E+00;  9.9999893E+03;-0.031602599;0.0;0.0012439449;3.7169902
  5.1999897E-01;  9.9999998E-03; -8.0000013E-02;1846;-0.0027168884;0.0;-5.3802109e-05;1000.022;  4.0000248E-01;18.27099;3;-4.4647441;0.0;-0.12876192;0;-0.030593237;  1.0000327E+04;  0.0000000E+00;  2.9355407E-10;  1.0000000E+04;  0.0000000E+00;  9.9999932E+03;-0.031545736;0.0;0.00095249829;2.9235785
  5.1999897E-01;  9.9999998E-03; -6.0000010E-02;1847;-0.0027176307;0.0;-3.5826561e-05;1000.0222;  4.0000251E-01;18.369753;3;-4.4638996;0.0;-0.087967344;0;-0.030773407;  1.0000327E+04;  0.0000000E+00;  9.1878762E-11;  1.0000000E+04;  0.0000000E+00;  9.9999951E+03;-0.031503759;0.0;0.00073035277;2.3588293
  5.1999897E-01;  9.9999998E-03; -4.0000007E-02;1848;-0.0027186919;0.0;-2.1881497e-05;1000.0222;  4.0000251E-01;18.369753;3;-4.4650135;0.0;-0.054899078;0;-0.030902697;  1.0000327E+04;  0.0000000E+00;  1.7989873E-11;  1.0000000E+04;  0.0000000E+00;  9.9999961E+03;-0.031475797;0.0;0.00057310075;1.9771262
  5.1999897E-01;  9.9999998E-03; -2.0000003E-02;1849;-0.0027195716;0.0;-1.0343772e-05;1000.0223;  4.0000251E-01;18.468515;3;-4.4664421;0.0;-0.026341693;0;-0.030980708;  1.0000327E+04;  0.0000000E+00; -1.5845976E-12;  1.0000000E+04;  0.0000000E+00;  9.9999961E+03;-0.031460177;0.0;0.00047946841;1.7565811
  5.3999865E-01;  9.9999998E-03; -1.8000011E-01;1872;-0.0035991655;0.0;-0.00036031505;1000.0328;  4.0000647E-01;27.159529;3;-5.7918434;0.0;-0.71960229;0;-0.031307891;  1.0000396E+04;  0.0000000E+00;  7.4619750E-09;  1.0000000E+04;  0.0000000E+00;  9.9999365E+03;-0.037744738;0.0;0.0064368458;21.946426
  5.3999859E-01;  9.9999998E-03; -1.6000009E-01;1873;-0.0036084652;0.0;-0.00027322932;1000.0338;  4.0000650E-01;27.949625;3;-5.7571921;0.0;-0.56948733;0;-0.032969356;  1.0000393E+04;  0.0000000E+00;  1.0054281E-08;  1.0000000E+04;  0.0000000E+00;  9.9999590E+03;-0.037351791;0.0;0.0043824352;14.255857
  5.3999859E-01;  9.9999998E-03; -1.4000006E-01;1874;-0.0036079059;0.0;-0.00020264603;1000.0344;  4.0000647E-01;28.443434;3;-5.7217765;0.0;-0.44061396;0;-0.034047514;  1.0000392E+04;  0.0000000E+00;  7.7124174E-09;  1.0000000E+04;  0.0000000E+00;  9.9999727E+03;-0.037088428;0.0;0.0030409121;9.366828
  5.3999859E-01;  9.9999998E-03; -1.2000004E-01;1875;-0.0036035879;0.0;-0.00014622565;1000.0347;  4.0000647E-01;28.739719;3;-5.6926031;0.0;-0.32997626;0;-0.034698043;  1.0000391E+04;  0.0000000E+00;  4.3021333E-09;  1.0000000E+04;  0.0000000E+00;  9.9999814E+03;-0.03690308;0.0;0.0022050354;6.5177302
  5.3999859E-01;  9.9999998E-03; -1.0000002E-01;1876;-0.0035994449;0.0;-0.00010304832;1000.035;  4.0000650E-01;28.937244;3;-5.6728601;0.0;-0.24055444;0;-0.035120308;  1.0000390E+04;  0.0000000E+00;  1.8495198E-09;  1.0000000E+04;  0.0000000E+00;  9.9999863E+03;-0.036767572;0.0;0.0016472645;4.8107505
  5.3999859E-01;  9.9999998E-03; -8.0000021E-02;1877;-0.0035971343;0.0;-7.0811373e-05;1000.0351;  4.0000650E-01;29.036005;3;-5.6622453;0.0;-0.17056699;0;-0.03542557;  1.0000388E+04;  0.0000000E+00;  5.8799104E-10;  1.0000000E+04;  0.0000000E+00;  9.9999902E+03;-0.036669049;0.0;0.0012434806;3.7042513
  5.3999859E-01;  9.9999998E-03; -6.0000010E-02;1878;-0.003596649;0.0;-4.6552475e-05;1000.0352;  4.0000650E-01;29.134768;3;-5.6585155;0.0;-0.11508492;0;-0.035656184;  1.0000388E+04;  0.0000000E+00;  1.5026197E-10;  1.0000000E+04;  0.0000000E+00;  9.9999932E+03;-0.03660037;0.0;0.00094418414;2.9487865
  5.3999859E-01;  9.9999998E-03; -4.0000007E-02;1879;-0.0035971403;0.0;-2.8187938e-05;1000.0353;  4.0000650E-01;29.23353;3;-5.6584244;0.0;-0.071248241;0;-0.035821997;  1.0000388E+04;  0.0000000E+00;  3.3206389E-11;  1.0000000E+04;  0.0000000E+00;  9.9999951E+03;-0.036556214;0.0;0.00073421712;2.4459999
  5.3999859E-01;  9.9999998E-03; -2.0000003E-02;1880;-0.0035978032;0.0;-1.3222739e-05;1000.0353;  4.0000653E-01;29.23353;3;-5.6594481;0.0;-0.033892266;0;-0.035922553;  1.0000387E+04;  0.0000000E+00; -7.6397184E-13;  1.0000000E+04;  0.0000000E+00;  9.9999961E+03;-0.036531959;0.0;0.00060940621;2.1564951
  5.5999815E-01;  9.9999998E-03; -1.8000016E-01;1903;-0.004650671;0.0;-0.00048753983;1000.0607;  4.0001747E-01;50.269699;3;-7.2418499;0.0;-0.97627044;0;-0.031565279;  1.0000443E+04;  0.0000000E+00; -1.1605434E-09;  1.0000000E+04;  0.0000000E+00;  9.9998984E+03;-0.041704696;0.0;0.010139416;34.961468
  5.5999815E-01;  9.9999998E-03; -1.6000012E-01;1904;-0.0046545258;0.0;-0.00037058874;1000.0624;  4.0001747E-01;51.652363;3;-7.1836782;0.0;-0.76974076;0;-0.034552488;  1.0000439E+04;  0.0000000E+00;  1.0445564E-08;  1.0000000E+04;  0.0000000E+00;  9.9999365E+03;-0.041137308;0.0;0.0065848189;21.624146
  5.5999815E-01;  9.9999998E-03; -1.4000008E-01;1905;-0.0046505635;0.0;-0.00027247667;1000.0635;  4.0001747E-01;52.541218;3;-7.1306343;0.0;-0.59174788;0;-0.036429346;  1.0000436E+04;  0.0000000E+00;  1.0210162E-08;  1.0000000E+04;  0.0000000E+00;  9.9999619E+03;-0.04072798;0.0;0.0042986358;13.240455
  5.5999815E-01;  9.9999998E-03; -1.2000005E-01;1906;-0.00464225;0.0;-0.00019414703;1000.064;  4.0001747E-01;53.035027;3;-7.0865431;0.0;-0.43967915;0;-0.03748022;  1.0000434E+04;  0.0000000E+00;  5.9994476E-09;  1.0000000E+04;  0.0000000E+00;  9.9999756E+03;-0.040432915;0.0;0.0029526956;8.5794039
  5.5999815E-01;  9.9999998E-03; -1.0000003E-01;1907;-0.0046342523;0.0;-0.0001349651;1000.0643;  4.0001750E-01;53.33131;3;-7.0560336;0.0;-0.31625634;0;-0.038090587;  1.0000433E+04;  0.0000000E+00;  2.7213067E-09;  1.0000000E+04;  0.0000000E+00;  9.9999824E+03;-0.040221773;0.0;0.0021311848;6.0152454
  5.5999815E-01;  9.9999998E-03; -8.0000021E-02;1908;-0.0046291444;0.0;-9.1663591e-05;1000.0645;  4.0001747E-01;53.430073;3;-7.0384412;0.0;-0.22239456;0;-0.038493954;  1.0000431E+04;  0.0000000E+00;  9.5119801E-10;  1.0000000E+04;  0.0000000E+00;  9.9999873E+03;-0.040074553;0.0;0.0015805992;4.4981389
  5.5999815E-01;  9.9999998E-03; -6.0000014E-02;1909;-0.0046270359;0.0;-5.9564842e-05;1000.0647;  4.0001753E-01;53.627594;3;-7.0310864;0.0;-0.14828745;0;-0.038787518;  1.0000429E+04;  0.0000000E+00;  2.7790931E-10;  1.0000000E+04;  0.0000000E+00;  9.9999922E+03;-0.039975859;0.0;0.0011883433;3.5210536
  5.5999815E-01;  9.9999998E-03; -4.0000007E-02;1910;-0.0046267197;0.0;-3.5716745e-05;1000.0648;  4.0001753E-01;53.627594;3;-7.0293045;0.0;-0.09091384;0;-0.038997509;  1.0000429E+04;  0.0000000E+00;  7.1959647E-11;  1.0000000E+04;  0.0000000E+00;  9.9999932E+03;-0.039914005;0.0;0.00091649673;2.8850994
  5.5999815E-01;  9.9999998E-03; -2.0000003E-02;1911;-0.0046270778;0.0;-1.6657847e-05;1000.0648;  4.0001750E-01;53.726357;3;-7.0297608;0.0;-0.042994928;0;-0.039125364;  1.0000429E+04;  0.0000000E+00;  1.4160196E-11;  1.0000000E+04;  0.0000000E+00;  9.9999951E+03;-0.039880451;0.0;0.00075508741;2.5203233
  5.7999772E-01;  9.9999998E-03; -1.8000020E-01;1934;-0.0057983985;0.0;-0.00064009399;1000.1312;  4.0004665E-01;108.73624;3;-8.8151951;0.0;-1.291446;0;-0.026744017;  1.0000453E+04;  0.0000000E+00; -2.7457856E-08;  1.0000000E+04;  0.0000000E+00;  9.9998418E+03;-0.042470429;0.0;0.015726412;54.480198
  5.7999766E-01;  9.9999998E-03; -1.6000015E-01;1935;-0.005795809;0.0;-0.00047718987;1000.1342;  4.0004665E-01;111.10652;3;-8.7285471;0.0;-1.0041304;0;-0.031937916;  1.0000447E+04;  0.0000000E+00;  4.5714819E-09;  1.0000000E+04;  0.0000000E+00;  9.9999053E+03;-0.041775413;0.0;0.0098374961;32.453735
  5.7999766E-01;  9.9999998E-03; -1.4000010E-01;1936;-0.0057807928;0.0;-0.0003525381;1000.136;  4.0004662E-01;112.6867;3;-8.6456499;0.0;-0.76991385;0;-0.035182837;  1.0000443E+04;  0.0000000E+00;  1.1125596E-08;  1.0000000E+04;  0.0000000E+00;  9.9999453E+03;-0.041242413;0.0;0.0060595749;18.613976
  5.7999766E-01;  9.9999998E-03; -1.2000006E-01;1937;-0.0057648942;0.0;-0.00025137028;1000.137;  4.0004665E-01;113.47679;3;-8.5816755;0.0;-0.57246578;0;-0.036930211;  1.0000439E+04;  0.0000000E+00;  7.1447745E-09;  1.0000000E+04;  0.0000000E+00;  9.9999678E+03;-0.040847737;0.0;0.0039175274;11.14204
  5.7999766E-01;  9.9999998E-03; -1.0000005E-01;1938;-0.005751899;0.0;-0.00017305365;1000.1374;  4.0004665E-01;113.87183;3;-8.5383005;0.0;-0.40755552;0;-0.03785897;  1.0000438E+04;  0.0000000E+00;  3.2712242E-09;  1.0000000E+04;  0.0000000E+00;  9.9999775E+03;-0.040566325;0.0;0.0027073561;7.3066087
  5.7999766E-01;  9.9999998E-03; -8.0000028E-02;1939;-0.0057433392;0.0;-0.00011595226;1000.1376;  4.0004662E-01;114.06936;3;-8.5123377;0.0;-0.28259385;0;-0.03841221;  1.0000437E+04;  0.0000000E+00;  1.1682444E-09;  1.0000000E+04;  0.0000000E+00;  9.9999844E+03;-0.040374208;0.0;0.0019619996;5.2417135
  5.7999766E-01;  9.9999998E-03; -6.0000017E-02;1940;-0.0057392051;0.0;-7.4776348e-05;1000.1378;  4.0004665E-01;114.16812;3;-8.5005159;0.0;-0.18716714;0;-0.038790677;  1.0000436E+04;  0.0000000E+00;  3.4380257E-10;  1.0000000E+04;  0.0000000E+00;  9.9999893E+03;-0.040248536;0.0;0.0014578606;4.0075612
  5.7999766E-01;  9.9999998E-03; -4.0000010E-02;1941;-0.0057379291;0.0;-4.427712e-05;1000.1379;  4.0004665E-01;114.26688;3;-8.4967346;0.0;-0.11319224;0;-0.039056703;  1.0000435E+04;  0.0000000E+00;  1.0684996E-10;  1.0000000E+04;  0.0000000E+00;  9.9999922E+03;-0.040171251;0.0;0.0011145481;3.2301092
  5.7999766E-01;  9.9999998E-03; -2.0000005E-02;1942;-0.0057378891;0.0;-2.058415e-05;1000.138;  4.0004665E-01;114.36565;3;-8.4964046;0.0;-0.053391427;0;-0.039218776;  1.0000435E+04;  0.0000000E+00;  1.7169448E-11;  1.0000000E+04;  0.0000000E+00;  9.9999941E+03;-0.04012977;0.0;0.00091099308;2.7868266
  5.9999716E-01;  9.9999998E-03; -1.8000023E-01;1965;-0.0069763088;0.0;-0.00077181432;1000.3103;  4.0012074E-01;257.07462;3;-10.420918;0.0;-1.6103853;0;-0.014854023;  1.0000408E+04;  0.0000000E+00; -7.8953875E-08;  1.0000000E+04;  0.0000000E+00;  9.9997607E+03;-0.03845783;0.0;0.023603806;81.786537
  5.9999716E-01;  9.9999998E-03; -1.6000018E-01;1966;-0.006935257;0.0;-0.00059267791;1000.3149;  4.0012074E-01;260.9263;3;-10.269828;0.0;-1.2790229;0;-0.023347881;  1.0000403E+04;  0.0000000E+00; -1.1445825E-08;  1.0000000E+04;  0.0000000E+00;  9.9998594E+03;-0.037742384;0.0;0.014394502;47.515465
  5.9999716E-01;  9.9999998E-03; -1.4000012E-01;1967;-0.0069041569;0.0;-0.00043249791;1000.3179;  4.0012076E-01;263.29657;3;-10.154697;0.0;-0.9615826;0;-0.028705321;  1.0000397E+04;  0.0000000E+00;  9.0832808E-09;  1.0000000E+04;  0.0000000E+00;  9.9999219E+03;-0.037158616;0.0;0.0084532937;25.845032
  5.9999722E-01;  9.9999998E-03; -1.2000008E-01;1968;-0.0068744132;0.0;-0.0003095358;1000.3193;  4.0012074E-01;264.58044;3;-10.060894;0.0;-0.71281523;0;-0.031560451;  1.0000394E+04;  0.0000000E+00;  7.1065802E-09;  1.0000000E+04;  0.0000000E+00;  9.9999561E+03;-0.036713097;0.0;0.0051526478;14.317186
  5.9999722E-01;  9.9999998E-03; -1.0000005E-01;1969;-0.0068526291;0.0;-0.0002143576;1000.3201;  4.0012074E-01;265.17303;3;-9.9989567;0.0;-0.50946444;0;-0.033002611;  1.0000393E+04;  0.0000000E+00;  3.1833398E-09;  1.0000000E+04;  0.0000000E+00;  9.9999736E+03;-0.036393244;0.0;0.0033906342;8.6779766
  5.9999722E-01;  9.9999998E-03; -8.0000035E-02;1970;-0.0068395524;0.0;-0.00014287936;1000.3204;  4.0012079E-01;265.4693;3;-9.9634552;0.0;-0.34915072;0;-0.033789232;  1.0000391E+04;  0.0000000E+00;  1.1282620E-09;  1.0000000E+04;  0.0000000E+00;  9.9999814E+03;-0.036176428;0.0;0.0023871954;5.8840232
  5.9999722E-01;  9.9999998E-03; -6.0000021E-02;1971;-0.0068329941;0.0;-9.1317597e-05;1000.3206;  4.0012082E-01;265.66684;3;-9.9462538;0.0;-0.22925887;0;-0.034288999;  1.0000390E+04;  0.0000000E+00;  2.9864550E-10;  1.0000000E+04;  0.0000000E+00;  9.9999873E+03;-0.036036514;0.0;0.0017475137;4.3470893
  5.9999722E-01;  9.9999998E-03; -4.0000014E-02;1972;-0.0068306495;0.0;-5.3586667e-05;1000.3208;  4.0012076E-01;265.76559;3;-9.9403105;0.0;-0.13723817;0;-0.034629505;  1.0000389E+04;  0.0000000E+00;  7.0041341E-11;  1.0000000E+04;  0.0000000E+00;  9.9999912E+03;-0.035951458;0.0;0.0013219527;3.4203243
  5.9999722E-01;  9.9999998E-03; -2.0000005E-02;1973;-0.0068301363;0.0;-2.4705823e-05;1000.3209;  4.0012076E-01;265.86435;3;-9.9390039;0.0;-0.064082332;0;-0.034835815;  1.0000389E+04;  0.0000000E+00;  6.4079588E-12;  1.0000000E+04;  0.0000000E+00;  9.9999922E+03;-0.03590611;0.0;0.001070296;2.8969884
  6.1999667E-01;  9.9999998E-03; -1.8000026E-01;1996;-0.0081099067;0.0;-0.0009067363;1000.7237;  4.0029037E-01;599.57379;3;-11.923964;0.0;-1.9796079;0;0.005264746;  1.0000299E+04;  0.0000000E+00; -1.5007501E-07;  1.0000000E+04;  0.0000000E+00;  9.9996553E+03;-0.028561829;0.0;0.033826575;116.92924
  6.1999673E-01;  9.9999998E-03; -1.6000019E-01;1997;-0.0080267843;0.0;-0.00068167114;1000.7306;  4.0029037E-01;605.30188;3;-11.708785;0.0;-1.5299104;0;-0.0076551996;  1.0000295E+04;  0.0000000E+00; -3.2668840E-08;  1.0000000E+04;  0.0000000E+00;  9.9997988E+03;-0.027971191;0.0;0.020315992;66.920349
  6.1999673E-01;  9.9999998E-03; -1.4000013E-01;1998;-0.0079610478;0.0;-0.00050956616;1000.735;  4.0029040E-01;608.95599;3;-11.536392;0.0;-1.170314;0;-0.015925389;  1.0000291E+04;  0.0000000E+00;  5.6012004E-09;  1.0000000E+04;  0.0000000E+00;  9.9998916E+03;-0.027448744;0.0;0.011523354;35.019531
  6.1999673E-01;  9.9999998E-03; -1.2000009E-01;1999;-0.0079143923;0.0;-0.00036273125;1000.7374;  4.0029037E-01;610.93121;3;-11.414213;0.0;-0.85021859;0;-0.020352542;  1.0000287E+04;  0.0000000E+00;  6.1596079E-09;  1.0000000E+04;  0.0000000E+00;  9.9999424E+03;-0.027034163;0.0;0.0066816206;18.143696
  6.1999673E-01;  9.9999998E-03; -1.0000006E-01;2000;-0.0078800404;0.0;-0.00025140692;1000.7385;  4.0029040E-01;611.82007;3;-11.326435;0.0;-0.60395694;0;-0.022542939;  1.0000284E+04;  0.0000000E+00;  2.6966618E-09;  1.0000000E+04;  0.0000000E+00;  9.9999668E+03;-0.026732083;0.0;0.0041891439;10.128677
  6.1999673E-01;  9.9999998E-03; -8.0000043E-02;2001;-0.0078597171;0.0;-0.00016713046;1000.7391;  4.0029037E-01;612.31384;3;-11.276808;0.0;-0.40921393;0;-0.02367154;  1.0000283E+04;  0.0000000E+00;  8.3176599E-10;  1.0000000E+04;  0.0000000E+00;  9.9999785E+03;-0.026526939;0.0;0.0028553999;6.4010072
  6.1999673E-01;  9.9999998E-03; -6.0000025E-02;2002;-0.0078492397;0.0;-0.00010563255;1000.7394;  4.0029037E-01;612.51135;3;-11.251163;0.0;-0.26419547;0;-0.024342669;  1.0000281E+04;  0.0000000E+00;  2.5805946E-10;  1.0000000E+04;  0.0000000E+00;  9.9999844E+03;-0.026395233;0.0;0.0020525639;4.5056357
  6.1999673E-01;  9.9999998E-03; -4.0000014E-02;2003;-0.0078444751;0.0;-6.1369763e-05;1000.7396;  4.0029034E-01;612.70892;3;-11.239468;0.0;-0.15648499;0;-0.024783136;  1.0000281E+04;  0.0000000E+00;  5.3667487E-11;  1.0000000E+04;  0.0000000E+00;  9.9999902E+03;-0.026315721;0.0;0.0015325848;3.4190712
  6.1999673E-01;  9.9999998E-03; -2.0000007E-02;2004;-0.0078428406;0.0;-2.8072478e-05;1000.7396;  4.0029034E-01;612.70892;3;-11.235513;0.0;-0.072616674;0;-0.025047114;  1.0000281E+04;  0.0000000E+00;  5.2973695E-13;  1.0000000E+04;  0.0000000E+00;  9.9999912E+03;-0.026273523;0.0;0.0012264076;2.8138466
  6.3999623E-01;  9.9999998E-03; -1.8000029E-01;2027;-0.0091296295;0.0;-0.0010802385;1001.4852;  4.0060094E-01;1230.4445;3;-13.261804;0.0;-2.4350932;0;0.033152178;  1.0000129E+04;  0.0000000E+00; -2.0372435E-07;  1.0000000E+04;  0.0000000E+00;  9.9995313E+03;-0.012766538;0.0;0.045918718;158.15916
  6.3999629E-01;  9.9999998E-03; -1.6000021E-01;2028;-0.0090054292;0.0;-0.00079570845;1001.4951;  4.0060097E-01;1238.5427;3;-12.985985;0.0;-1.8599061;0;0.014911469;  1.0000127E+04;  0.0000000E+00; -5.3088385E-08;  1.0000000E+04;  0.0000000E+00;  9.9997285E+03;-0.012436679;0.0;0.027348148;89.755913
  6.3999629E-01;  9.9999998E-03; -1.4000015E-01;2029;-0.0089095086;0.0;-0.00058730837;1001.5013;  4.0060094E-01;1243.777;3;-12.767698;0.0;-1.3917774;0;0.0030664662;  1.0000124E+04;  0.0000000E+00;  1.3121799E-09;  1.0000000E+04;  0.0000000E+00;  9.9998584E+03;-0.012092779;0.0;0.015159246;45.759834
  6.3999635E-01;  9.9999998E-03; -1.2000010E-01;2030;-0.0088392291;0.0;-0.00041696083;1001.5046;  4.0060091E-01;1246.5422;3;-12.601194;0.0;-1.0013119;0;-0.0033362238;  1.0000122E+04;  0.0000000E+00;  5.0773812E-09;  1.0000000E+04;  0.0000000E+00;  9.9999258E+03;-0.01180023;0.0;0.0084640058;22.504147
  6.3999635E-01;  9.9999998E-03; -1.0000007E-01;2031;-0.0087929498;0.0;-0.00028100546;1001.5062;  4.0060094E-01;1247.8262;3;-12.492167;0.0;-0.6841749;0;-0.0064917491;  1.0000119E+04;  0.0000000E+00;  1.9784390E-09;  1.0000000E+04;  0.0000000E+00;  9.9999580E+03;-0.011581164;0.0;0.0050894148;11.639982
  6.3999635E-01;  9.9999998E-03; -8.0000043E-02;2032;-0.0087650772;0.0;-0.000180576;1001.507;  4.0060091E-01;1248.4187;3;-12.426506;0.0;-0.4443523;0;-0.0080705471;  1.0000118E+04;  0.0000000E+00;  5.0857801E-10;  1.0000000E+04;  0.0000000E+00;  9.9999756E+03;-0.011431171;0.0;0.0033606237;6.7996359
  6.3999635E-01;  9.9999998E-03; -6.0000025E-02;2033;-0.0087485127;0.0;-0.00011056574;1001.5073;  4.0060091E-01;1248.715;3;-12.386722;0.0;-0.27716291;0;-0.0089668976;  1.0000117E+04;  0.0000000E+00;  7.2249061E-11;  1.0000000E+04;  0.0000000E+00;  9.9999824E+03;-0.011335077;0.0;0.0023681789;4.4917574
  6.3999635E-01;  9.9999998E-03; -4.0000014E-02;2034;-0.0087399203;0.0;-6.3281565e-05;1001.5075;  4.0060091E-01;1248.9125;3;-12.366383;0.0;-0.16172387;0;-0.009535715;  1.0000116E+04;  0.0000000E+00;  2.1915268E-11;  1.0000000E+04;  0.0000000E+00;  9.9999883E+03;-0.011277405;0.0;0.0017416895;3.2324843
  6.3999635E-01;  9.9999998E-03; -2.0000007E-02;2035;-0.0087360265;0.0;-2.8201359e-05;1001.5077;  4.0060094E-01;1249.0112;3;-12.357109;0.0;-0.072820403;0;-0.0098722801;  1.0000116E+04;  0.0000000E+00;  1.4818988E-12;  1.0000000E+04;  0.0000000E+00;  9.9999912E+03;-0.011246959;0.0;0.0013746788;2.5421386
  6.5999597E-01;  9.9999998E-03; -1.8000036E-01;2058;-0.009837307;0.0;-0.0013266536;1002.4427;  4.0099087E-01;2023.6581;3;-14.279116;0.0;-3.0146134;0;0.066233456;  9.9999170E+03;  0.0000000E+00; -2.0330818E-07;  1.0000000E+04;  0.0000000E+00;  9.9993984E+03;0.0073596076;0.0;0.058873847;201.99788
  6.5999597E-01;  9.9999998E-03; -1.6000025E-01;2059;-0.0096776895;0.0;-0.00095721969;1002.4555;  4.0099084E-01;2034.2252;3;-13.930432;0.0;-2.267302;0;0.042269837;  9.9999170E+03;  0.0000000E+00; -5.6118665E-08;  1.0000000E+04;  0.0000000E+00;  9.9996533E+03;0.0073584071;0.0;0.034911431;114.09501
  6.5999603E-01;  9.9999998E-03; -1.4000018E-01;2060;-0.0095655601;0.0;-0.00070379011;1002.4638;  4.0099087E-01;2041.1383;3;-13.676425;0.0;-1.685239;0;0.026527191;  9.9999160E+03;  0.0000000E+00;  6.4873140E-10;  1.0000000E+04;  0.0000000E+00;  9.9998193E+03;0.0074479613;0.0;0.019079229;57.201309
  6.5999603E-01;  9.9999998E-03; -1.2000012E-01;2061;-0.0094865598;0.0;-0.00049272686;1002.4682;  4.0099084E-01;2044.7924;3;-13.493901;0.0;-1.1958518;0;0.017933914;  9.9999141E+03;  0.0000000E+00;  4.2070094E-09;  1.0000000E+04;  0.0000000E+00;  9.9999092E+03;0.0075531956;0.0;0.010380719;27.099344
  6.5999609E-01;  9.9999998E-03; -1.0000008E-01;2062;-0.009431202;0.0;-0.00032371841;1002.4702;  4.0099084E-01;2046.4712;3;-13.362407;0.0;-0.79351848;0;0.01368583;  9.9999131E+03;  0.0000000E+00;  1.4368970E-09;  1.0000000E+04;  0.0000000E+00;  9.9999502E+03;0.0076394742;0.0;0.0060463557;13.159424
  6.5999609E-01;  9.9999998E-03; -8.0000050E-02;2063;-0.009393679;0.0;-0.00020052477;1002.4712;  4.0099087E-01;2047.2614;3;-13.271539;0.0;-0.49718922;0;0.011585845;  9.9999131E+03;  0.0000000E+00;  2.5016506E-10;  1.0000000E+04;  0.0000000E+00;  9.9999717E+03;0.007699558;0.0;0.0038862864;7.113543
  6.5999609E-01;  9.9999998E-03; -6.0000028E-02;2064;-0.0093697878;0.0;-0.00011708139;1002.4717;  4.0099078E-01;2047.6564;3;-13.213362;0.0;-0.29531446;0;0.010424863;  9.9999121E+03;  0.0000000E+00; -2.9264386E-11;  1.0000000E+04;  0.0000000E+00;  9.9999805E+03;0.0077373637;0.0;0.0026874992;4.3608975
  6.5999609E-01;  9.9999998E-03; -4.0000014E-02;2065;-0.0093558952;0.0;-6.3599618e-05;1002.4719;  4.0099084E-01;2047.8539;3;-13.179522;0.0;-0.16393004;0;0.0097052082;  9.9999121E+03;  0.0000000E+00; -1.5009769E-11;  1.0000000E+04;  0.0000000E+00;  9.9999863E+03;0.007759315;0.0;0.0019458935;2.9188221
  6.5999609E-01;  9.9999998E-03; -2.0000007E-02;2066;-0.0093484605;0.0;-2.7331977e-05;1002.4721;  4.0099084E-01;2048.0513;3;-13.161001;0.0;-0.071247578;0;0.0092838937;  9.9999121E+03;  0.0000000E+00;  1.9698063E-12;  1.0000000E+04;  0.0000000E+00;  9.9999902E+03;0.0077705667;0.0;0.0015133271;2.1397469
  6.7999601E-01;  9.9999998E-03; -1.8000041E-01;2089;-0.0097834021;0.0;-0.0015398533;1003.2019;  4.0130147E-01;2652.6104;3;-14.503519;0.0;-3.5660343;0;0.099970467;  9.9996982E+03;  0.0000000E+00; -1.6324162E-07;  1.0000000E+04;  0.0000000E+00;  9.9992705E+03;0.028579941;0.0;0.071390525;244.09064
  6.7999607E-01;  9.9999998E-03; -1.6000026E-01;2090;-0.0096348887;0.0;-0.0010933352;1003.2176;  4.0130150E-01;2665.5476;3;-14.152361;0.0;-2.6567478;0;0.070519038;  9.9996992E+03;  0.0000000E+00; -4.1729539E-08;  1.0000000E+04;  0.0000000E+00;  9.9995801E+03;0.028276781;0.0;0.042242259;137.49394
  6.7999613E-01;  9.9999998E-03; -1.4000019E-01;2091;-0.0095275203;0.0;-0.00080656819;1003.2278;  4.0130150E-01;2674.0405;3;-13.898112;0.0;-1.9750425;0;0.051007561;  9.9997012E+03;  0.0000000E+00;  1.2230351E-09;  1.0000000E+04;  0.0000000E+00;  9.9997842E+03;0.028110851;0.0;0.022896709;68.218941
  6.7999613E-01;  9.9999998E-03; -1.2000014E-01;2092;-0.0094512012;0.0;-0.00055768515;1003.2332;  4.0130147E-01;2678.4846;3;-13.712188;0.0;-1.3742409;0;0.040275224;  9.9997021E+03;  0.0000000E+00;  3.8350967E-09;  1.0000000E+04;  0.0000000E+00;  9.9998916E+03;0.028016739;0.0;0.012258484;31.527504
  6.7999613E-01;  9.9999998E-03; -1.0000008E-01;2093;-0.0093983579;0.0;-0.00035896938;1003.2359;  4.0130147E-01;2680.7561;3;-13.581045;0.0;-0.89266759;0;0.034946375;  9.9997021E+03;  0.0000000E+00;  1.0713651E-09;  1.0000000E+04;  0.0000000E+00;  9.9999434E+03;0.027957132;0.0;0.0069892425;14.61569
  6.7999613E-01;  9.9999998E-03; -8.0000050E-02;2094;-0.0093633244;0.0;-0.00021465866;1003.2371;  4.0130144E-01;2681.645;3;-13.493949;0.0;-0.54177827;0;0.032321569;  9.9997021E+03;  0.0000000E+00;  1.1821991E-10;  1.0000000E+04;  0.0000000E+00;  9.9999668E+03;0.027916718;0.0;0.0044048508;7.3970618
  6.7999613E-01;  9.9999998E-03; -6.0000028E-02;2095;-0.009341741;0.0;-0.00011975582;1003.2376;  4.0130144E-01;2682.1387;3;-13.439575;0.0;-0.30847016;0;0.030888971;  9.9997021E+03;  0.0000000E+00; -3.5408242E-11;  1.0000000E+04;  0.0000000E+00;  9.9999785E+03;0.027888875;0.0;0.0030000946;4.2063613
  6.7999613E-01;  9.9999998E-03; -4.0000014E-02;2096;-0.0093291225;0.0;-6.1136532e-05;1003.238;  4.0130144E-01;2682.4351;3;-13.406795;0.0;-0.1606738;0;0.030012669;  9.9997031E+03;  0.0000000E+00; -1.4513724E-11;  1.0000000E+04;  0.0000000E+00;  9.9999854E+03;0.02787059;0.0;0.0021420785;2.5811541
  6.7999613E-01;  9.9999998E-03; -2.0000005E-02;2097;-0.009322729;0.0;-2.5303912e-05;1003.2381;  4.0130144E-01;2682.5337;3;-13.390346;0.0;-0.067900702;0;0.029503005;  9.9997031E+03;  0.0000000E+00; -3.9554852E-12;  1.0000000E+04;  0.0000000E+00;  9.9999893E+03;0.027860248;0.0;0.0016427557;1.7121446
  6.9999671E-01;  9.9999998E-03; -1.8000045E-01;2120;-0.0083978288;0.0;-0.0017306271;1003.6115;  4.0147114E-01;2991.7798;3;-12.898725;0.0;-4.039722;0;0.12900129;  9.9995166E+03;  0.0000000E+00; -9.5019402E-08;  1.0000000E+04;  0.0000000E+00;  9.9991611E+03;0.046716008;0.0;0.082285278;280.57513
  6.9999671E-01;  9.9999998E-03; -1.6000029E-01;2121;-0.0082843844;0.0;-0.0012202809;1003.6295;  4.0147111E-01;3006.7905;3;-12.620126;0.0;-2.9958503;0;0.09484759;  9.9995205E+03;  0.0000000E+00; -1.9684039E-08;  1.0000000E+04;  0.0000000E+00;  9.9995176E+03;0.046214517;0.0;0.048633069;157.76735
  6.9999671E-01;  9.9999998E-03; -1.4000022E-01;2122;-0.0081976829;0.0;-0.00090110436;1003.6414;  4.0147114E-01;3016.5674;3;-12.406713;0.0;-2.222379;0;0.072103329;  9.9995234E+03;  0.0000000E+00;  3.8836516E-09;  1.0000000E+04;  0.0000000E+00;  9.9997510E+03;0.045857839;0.0;0.026245488;77.803673
  6.9999677E-01;  9.9999998E-03; -1.2000015E-01;2123;-0.0081359278;0.0;-0.00061966729;1003.6478;  4.0147114E-01;3021.9001;3;-12.254158;0.0;-1.5343752;0;0.059531078;  9.9995244E+03;  0.0000000E+00;  3.0058458E-09;  1.0000000E+04;  0.0000000E+00;  9.9998770E+03;0.045604166;0.0;0.01392691;35.430546
  6.9999677E-01;  9.9999998E-03; -1.0000009E-01;2124;-0.0080948919;0.0;-0.00039172155;1003.6509;  4.0147108E-01;3024.4678;3;-12.152247;0.0;-0.97567439;0;0.053267967;  9.9995254E+03;  0.0000000E+00;  8.2262630E-10;  1.0000000E+04;  0.0000000E+00;  9.9999365E+03;0.045424026;0.0;0.0078439415;15.953286
  6.9999677E-01;  9.9999998E-03; -8.0000058E-02;2125;-0.0080698272;0.0;-0.00022611713;1003.6522;  4.0147114E-01;3025.554;3;-12.089551;0.0;-0.56825483;0;0.050184373;  9.9995273E+03;  0.0000000E+00;  1.2745970E-10;  1.0000000E+04;  0.0000000E+00;  9.9999629E+03;0.045299586;0.0;0.0048847855;7.7144008
  6.9999677E-01;  9.9999998E-03; -6.0000028E-02;2126;-0.0080558565;0.0;-0.00011885448;1003.653;  4.0147117E-01;3026.1465;3;-12.054211;0.0;-0.30270731;0;0.048509948;  9.9995273E+03;  0.0000000E+00; -3.0911239E-11;  1.0000000E+04;  0.0000000E+00;  9.9999766E+03;0.045216937;0.0;0.0032930113;4.1332836
  6.9999677E-01;  9.9999998E-03; -4.0000014E-02;2127;-0.0080487924;0.0;-5.62967e-05;1003.6533;  4.0147117E-01;3026.4429;3;-12.036087;0.0;-0.14598551;0;0.047491536;  9.9995283E+03;  0.0000000E+00; -1.8524390E-11;  1.0000000E+04;  0.0000000E+00;  9.9999844E+03;0.045165338;0.0;0.002326197;2.3375888
  6.9999677E-01;  9.9999998E-03; -2.0000005E-02;2128;-0.0080456696;0.0;-2.1708889e-05;1003.6535;  4.0147111E-01;3026.6404;3;-12.02794;0.0;-0.057315242;0;0.04690076;  9.9995283E+03;  0.0000000E+00; -8.8467489E-12;  1.0000000E+04;  0.0000000E+00;  9.9999873E+03;0.045137256;0.0;0.0017635055;1.3820673
  7.1999764E-01;  9.9999998E-03; -1.8000050E-01;2151;-0.0059333062;0.0;-0.0018982021;1003.7868;  4.0154523E-01;3136.9622;3;-9.2108011;0.0;-4.4402857;0;0.14910419;  9.9994063E+03;  0.0000000E+00; -4.0822609E-08;  1.0000000E+04;  0.0000000E+00;  9.9990742E+03;0.058288142;0.0;0.090816051;309.09058
  7.1999770E-01;  9.9999998E-03; -1.6000032E-01;2152;-0.0058441726;0.0;-0.0013426095;1003.8068;  4.0154523E-01;3153.4539;3;-8.9911766;0.0;-3.2992561;0;0.11133741;  9.9994111E+03;  0.0000000E+00; -4.3120894E-09;  1.0000000E+04;  0.0000000E+00;  9.9994688E+03;0.057700552;0.0;0.053636853;173.59251
  7.1999770E-01;  9.9999998E-03; -1.4000024E-01;2153;-0.0057747886;0.0;-0.00099210127;1003.8199;  4.0154526E-01;3164.4153;3;-8.8200655;0.0;-2.4487181;0;0.086127676;  9.9994131E+03;  0.0000000E+00;  4.6490745E-09;  1.0000000E+04;  0.0000000E+00;  9.9997266E+03;0.057239372;0.0;0.028888306;85.346176
  7.1999770E-01;  9.9999998E-03; -1.2000017E-01;2154;-0.0057247449;0.0;-0.00068210025;1003.827;  4.0154526E-01;3170.2417;3;-8.6961889;0.0;-1.6900022;0;0.072158806;  9.9994160E+03;  0.0000000E+00;  2.3258235E-09;  1.0000000E+04;  0.0000000E+00;  9.9998652E+03;0.056889139;0.0;0.015269666;38.592636
  7.1999770E-01;  9.9999998E-03; -1.0000011E-01;2155;-0.0056915781;0.0;-0.00043073366;1003.8304;  4.0154523E-01;3173.1055;3;-8.6137094;0.0;-1.073272;0;0.065188035;  9.9994170E+03;  0.0000000E+00;  6.4139477E-10;  1.0000000E+04;  0.0000000E+00;  9.9999316E+03;0.056633394;0.0;0.0085546421;17.140219
  7.1999776E-01;  9.9999998E-03; -8.0000058E-02;2156;-0.0056715752;0.0;-0.00024807069;1003.8319;  4.0154523E-01;3174.2905;3;-8.5636349;0.0;-0.62352121;0;0.061754383;  9.9994189E+03;  0.0000000E+00;  1.2046039E-10;  1.0000000E+04;  0.0000000E+00;  9.9999609E+03;0.056455784;0.0;0.0052986005;8.1086216
  7.1999776E-01;  9.9999998E-03; -6.0000032E-02;2157;-0.0056606564;0.0;-0.00012991972;1003.8327;  4.0154520E-01;3174.9817;3;-8.5360107;0.0;-0.33083922;0;0.059891202;  9.9994199E+03;  0.0000000E+00; -8.1918404E-12;  1.0000000E+04;  0.0000000E+00;  9.9999746E+03;0.056338612;0.0;0.0035525903;4.2131581
  7.1999776E-01;  9.9999998E-03; -4.0000014E-02;2158;-0.0056553008;0.0;-6.1225481e-05;1003.8331;  4.0154523E-01;3175.3767;3;-8.5222473;0.0;-0.15870297;0;0.058758639;  9.9994199E+03;  0.0000000E+00;  2.7794505E-12;  1.0000000E+04;  0.0000000E+00;  9.9999824E+03;0.05626633;0.0;0.0024923082;2.2711959
  7.1999776E-01;  9.9999998E-03; -2.0000005E-02;2159;-0.0056530093;0.0;-2.3492927e-05;1003.8334;  4.0154523E-01;3175.5742;3;-8.516243;0.0;-0.062010903;0;0.058101594;  9.9994209E+03;  0.0000000E+00; -2.6314953E-12;  1.0000000E+04;  0.0000000E+00;  9.9999873E+03;0.056227595;0.0;0.0018740003;1.2379534
  7.3999858E-01;  9.9999998E-03; -1.8000053E-01;2182;-0.003615801;0.0;-0.0020170428;1003.855;  4.0157437E-01;3193.3303;3;-5.6509237;0.0;-4.7257462;0;0.15894338;  9.9993730E+03;  0.0000000E+00; -1.1487152E-08;  1.0000000E+04;  0.0000000E+00;  9.9990127E+03;0.06215423;0.0;0.096789151;329.06091
  7.3999858E-01;  9.9999998E-03; -1.6000035E-01;2183;-0.003552642;0.0;-0.0014342342;1003.8763;  4.0157440E-01;3211.0063;3;-5.4956369;0.0;-3.525064;0;0.11869523;  9.9993779E+03;  0.0000000E+00;  1.9066806E-09;  1.0000000E+04;  0.0000000E+00;  9.9994336E+03;0.061558217;0.0;0.057137016;184.66879
  7.3999864E-01;  9.9999998E-03; -1.4000025E-01;2184;-0.0035027722;0.0;-0.001061097;1003.8904;  4.0157440E-01;3222.6587;3;-5.3726101;0.0;-2.6193757;0;0.091819912;  9.9993818E+03;  0.0000000E+00;  3.1513867E-09;  1.0000000E+04;  0.0000000E+00;  9.9997090E+03;0.061063625;0.0;0.030756291;90.702263
  7.3999864E-01;  9.9999998E-03; -1.2000018E-01;2185;-0.0034664245;0.0;-0.00072992127;1003.8979;  4.0157440E-01;3228.8799;3;-5.2826262;0.0;-1.8087807;0;0.076920033;  9.9993848E+03;  0.0000000E+00;  1.3989462E-09;  1.0000000E+04;  0.0000000E+00;  9.9998574E+03;0.060675208;0.0;0.016244825;40.949669
  7.3999864E-01;  9.9999998E-03; -1.0000011E-01;2186;-0.0034422411;0.0;-0.00046093503;1003.9016;  4.0157440E-01;3231.9412;3;-5.2224894;0.0;-1.1487399;0;0.069481775;  9.9993867E+03;  0.0000000E+00;  4.2912168E-10;  1.0000000E+04;  0.0000000E+00;  9.9999277E+03;0.060387697;0.0;0.0090940753;18.149683
  7.3999864E-01;  9.9999998E-03; -8.0000065E-02;2187;-0.0034276512;0.0;-0.00026535249;1003.9031;  4.0157437E-01;3233.2249;3;-5.1859698;0.0;-0.66709214;0;0.065815002;  9.9993887E+03;  0.0000000E+00;  9.0395191E-11;  1.0000000E+04;  0.0000000E+00;  9.9999580E+03;0.060187273;0.0;0.0056277304;8.5706396
  7.3999864E-01;  9.9999998E-03; -6.0000032E-02;2188;-0.0034196966;0.0;-0.0001388466;1003.904;  4.0157434E-01;3233.916;3;-5.1658578;0.0;-0.35366195;0;0.063821845;  9.9993896E+03;  0.0000000E+00;  2.6494891E-11;  1.0000000E+04;  0.0000000E+00;  9.9999736E+03;0.060055446;0.0;0.0037663977;4.4471345
  7.3999864E-01;  9.9999998E-03; -4.0000014E-02;2189;-0.0034157925;0.0;-6.534619e-05;1003.9044;  4.0157440E-01;3234.311;3;-5.1558323;0.0;-0.16943085;0;0.062607296;  9.9993896E+03;  0.0000000E+00; -6.8883519E-12;  1.0000000E+04;  0.0000000E+00;  9.9999824E+03;0.0599747;0.0;0.0026325965;2.3902428
  7.3999864E-01;  9.9999998E-03; -2.0000005E-02;2190;-0.003414127;0.0;-2.5046749e-05;1003.9047;  4.0157440E-01;3234.5085;3;-5.151474;0.0;-0.066128597;0;0.061901178;  9.9993896E+03;  0.0000000E+00;  5.8452982E-12;  1.0000000E+04;  0.0000000E+00;  9.9999863E+03;0.059931688;0.0;0.0019694888;1.2927997
  7.5999928E-01;  9.9999998E-03; -1.8000054E-01;2213;-0.0018252244;0.0;-0.0020931466;1003.8823;  4.0158540E-01;3215.7837;3;-2.8869221;0.0;-4.9097672;0;0.16018941;  9.9994033E+03;  0.0000000E+00; -1.0126689E-09;  1.0000000E+04;  0.0000000E+00;  9.9989756E+03;0.059749339;0.0;0.10044007;341.26038
  7.5999928E-01;  9.9999998E-03; -1.6000037E-01;2214;-0.0017868835;0.0;-0.0014955836;1003.9043;  4.0158540E-01;3234.0513;3;-2.792798;0.0;-3.6761539;0;0.11846052;  9.9994072E+03;  0.0000000E+00;  2.3785334E-09;  1.0000000E+04;  0.0000000E+00;  9.9994121E+03;0.059185091;0.0;0.05927543;191.45332
  7.5999933E-01;  9.9999998E-03; -1.4000027E-01;2215;-0.0017559172;0.0;-0.0011080592;1003.9188;  4.0158543E-01;3245.9993;3;-2.7164302;0.0;-2.735503;0;0.09061677;  9.9994111E+03;  0.0000000E+00;  1.6546677E-09;  1.0000000E+04;  0.0000000E+00;  9.9996992E+03;0.058702402;0.0;0.031914368;94.065056
  7.5999933E-01;  9.9999998E-03; -1.2000018E-01;2216;-0.0017330862;0.0;-0.00076266157;1003.9266;  4.0158540E-01;3252.4175;3;-2.6599369;0.0;-1.8901279;0;0.075188704;  9.9994131E+03;  0.0000000E+00;  7.0043404E-10;  1.0000000E+04;  0.0000000E+00;  9.9998525E+03;0.058316726;0.0;0.016871976;42.539646
  7.5999933E-01;  9.9999998E-03; -1.0000011E-01;2217;-0.0017178445;0.0;-0.00048160757;1003.9304;  4.0158543E-01;3255.5774;3;-2.622072;0.0;-1.2004585;0;0.06748978;  9.9994160E+03;  0.0000000E+00;  1.9635941E-10;  1.0000000E+04;  0.0000000E+00;  9.9999248E+03;0.058029108;0.0;0.0094606737;18.946871
  7.5999933E-01;  9.9999998E-03; -8.0000065E-02;2218;-0.0017086631;0.0;-0.00027713898;1003.9321;  4.0158537E-01;3257.0583;3;-2.5991275;0.0;-0.69689476;0;0.063691601;  9.9994170E+03;  0.0000000E+00;  4.5400694E-11;  1.0000000E+04;  0.0000000E+00;  9.9999570E+03;0.057828028;0.0;0.0058635706;9.039794
  7.5999933E-01;  9.9999998E-03; -6.0000036E-02;2219;-0.0017036644;0.0;-0.00014491245;1003.9329;  4.0158540E-01;3257.6509;3;-2.58652;0.0;-0.36924046;0;0.061621159;  9.9994180E+03;  0.0000000E+00;  1.2897865E-11;  1.0000000E+04;  0.0000000E+00;  9.9999727E+03;0.057695899;0.0;0.0039252602;4.7700667
  7.5999933E-01;  9.9999998E-03; -4.0000014E-02;2220;-0.0017012171;0.0;-6.8149937e-05;1003.9333;  4.0158543E-01;3258.0459;3;-2.580255;0.0;-0.17679068;0;0.060354806;  9.9994180E+03;  0.0000000E+00; -2.7141672E-12;  1.0000000E+04;  0.0000000E+00;  9.9999814E+03;0.05761537;0.0;0.0027394358;2.6322653
  7.5999933E-01;  9.9999998E-03; -2.0000005E-02;2221;-0.0017001707;0.0;-2.6099498e-05;1003.9336;  4.0158540E-01;3258.2434;3;-2.5775237;0.0;-0.068971165;0;0.059616651;  9.9994180E+03;  0.0000000E+00;  1.4983559E-12;  1.0000000E+04;  0.0000000E+00;  9.9999863E+03;0.057572804;0.0;0.0020438479;1.4873629
  7.7999979E-01;  9.9999998E-03; -1.8000056E-01;2244;-0.00052401202;0.0;-0.0021329075;1003.8947;  4.0158945E-01;3225.8357;3;-0.86356777;0.0;-5.0062399;0;0.15610215;  9.9994648E+03;  0.0000000E+00;  8.9482294E-10;  1.0000000E+04;  0.0000000E+00;  9.9989590E+03;0.053908981;0.0;0.10219317;347.03326
  7.7999979E-01;  9.9999998E-03; -1.6000037E-01;2245;-0.00050778128;0.0;-0.0015291813;1003.9171;  4.0158951E-01;3244.3982;3;-0.8237533;0.0;-3.7588255;0;0.11369523;  9.9994697E+03;  0.0000000E+00;  7.2376627E-10;  1.0000000E+04;  0.0000000E+00;  9.9994023E+03;0.053390838;0.0;0.060304388;194.69926
  7.7999979E-01;  9.9999998E-03; -1.4000027E-01;2246;-0.00049406127;0.0;-0.0011342604;1003.9318;  4.0158948E-01;3256.6416;3;-0.78995335;0.0;-2.8002789;0;0.085427552;  9.9994727E+03;  0.0000000E+00;  4.4152318E-10;  1.0000000E+04;  0.0000000E+00;  9.9996934E+03;0.05294168;0.0;0.032485876;95.752655
  7.7999979E-01;  9.9999998E-03; -1.2000019E-01;2247;-0.00048376221;0.0;-0.00078101252;1003.9398;  4.0158951E-01;3263.2568;3;-0.76449579;0.0;-1.9357681;0;0.069779754;  9.9994746E+03;  0.0000000E+00;  1.4434078E-10;  1.0000000E+04;  0.0000000E+00;  9.9998496E+03;0.052580118;0.0;0.017199634;43.435009
  7.7999979E-01;  9.9999998E-03; -1.0000012E-01;2248;-0.00047688035;0.0;-0.00049315795;1003.9435;  4.0158951E-01;3266.3179;3;-0.74744898;0.0;-1.229432;0;0.061976679;  9.9994775E+03;  0.0000000E+00;  4.9418872E-11;  1.0000000E+04;  0.0000000E+00;  9.9999219E+03;0.052309349;0.0;0.0096673286;19.490496
  7.7999979E-01;  9.9999998E-03; -8.0000065E-02;2249;-0.00047275014;0.0;-0.00028367719;1003.9453;  4.0158945E-01;3267.7988;3;-0.73718387;0.0;-0.71351653;0;0.058124736;  9.9994785E+03;  0.0000000E+00;  1.7922039E-11;  1.0000000E+04;  0.0000000E+00;  9.9999561E+03;0.052119538;0.0;0.0060051992;9.4327087
  7.7999979E-01;  9.9999998E-03; -6.0000036E-02;2250;-0.00047051886;0.0;-0.00014825702;1003.946;  4.0158945E-01;3268.3911;3;-0.73158562;0.0;-0.3779012;0;0.056019105;  9.9994795E+03;  0.0000000E+00;  9.2012222E-12;  1.0000000E+04;  0.0000000E+00;  9.9999717E+03;0.051994838;0.0;0.0040242686;5.0878401
  7.7999979E-01;  9.9999998E-03; -4.0000018E-02;2251;-0.00046943245;0.0;-6.9682159e-05;1003.9465;  4.0158948E-01;3268.7861;3;-0.72883803;0.0;-0.18086733;0;0.054726597;  9.9994795E+03;  0.0000000E+00;  3.3313765E-13;  1.0000000E+04;  0.0000000E+00;  9.9999814E+03;0.051919173;0.0;0.0028074221;2.9030001
  7.7999979E-01;  9.9999998E-03; -2.0000005E-02;2252;-0.00046896926;0.0;-2.6666141e-05;1003.9468;  4.0158945E-01;3268.9836;3;-0.72763473;0.0;-0.070516586;0;0.053971298;  9.9994805E+03;  0.0000000E+00; -2.5574896E-12;  1.0000000E+04;  0.0000000E+00;  9.9999863E+03;0.051879387;0.0;0.0020919109;1.7289703
  8.0000019E-01;  9.9999998E-03; -1.8000056E-01;2275;0.00048304096;0.0;-0.0021416226;1003.8987;  4.0158981E-01;3228.8992;3;0.71410215;0.0;-5.0277195;0;0.14980195;  9.9995322E+03;  0.0000000E+00; -6.2989269E-10;  1.0000000E+04;  0.0000000E+00;  9.9989551E+03;0.047359269;0.0;0.10244268;347.6011
  8.0000019E-01;  9.9999998E-03; -1.6000037E-01;2276;0.00047986375;0.0;-0.0015381444;1003.9212;  4.0158987E-01;3247.4602;3;0.70623332;0.0;-3.7808318;0;0.10733931;  9.9995352E+03;  0.0000000E+00; -2.7443167E-10;  1.0000000E+04;  0.0000000E+00;  9.9994014E+03;0.0468859;0.0;0.060453411;195.06447
  8.0000019E-01;  9.9999998E-03; -1.4000028E-01;2277;0.00047815652;0.0;-0.0011417294;1003.9359;  4.0158984E-01;3259.7024;3;0.70199347;0.0;-2.8187673;0;0.079058275;  9.9995391E+03;  0.0000000E+00; -6.8791889E-11;  1.0000000E+04;  0.0000000E+00;  9.9996924E+03;0.046474293;0.0;0.032583982;96.036102
  8.0000019E-01;  9.9999998E-03; -1.2000019E-01;2278;0.00047716094;0.0;-0.00078629964;1003.9439;  4.0158978E-01;3266.3171;3;0.69947457;0.0;-1.9489843;0;0.06341739;  9.9995400E+03;  0.0000000E+00; -8.1022463E-12;  1.0000000E+04;  0.0000000E+00;  9.9998486E+03;0.046142332;0.0;0.017275058;43.695248
  8.0000019E-01;  9.9999998E-03; -1.0000012E-01;2279;0.00047650535;0.0;-0.00049642386;1003.9476;  4.0158981E-01;3269.3777;3;0.69775409;0.0;-1.2377274;0;0.055623002;  9.9995420E+03;  0.0000000E+00; -1.2715516E-13;  1.0000000E+04;  0.0000000E+00;  9.9999219E+03;0.045892954;0.0;0.0097300466;19.74428
  8.0000019E-01;  9.9999998E-03; -8.0000065E-02;2280;0.00047606902;0.0;-0.00028546283;1003.9493;  4.0158981E-01;3270.76;3;0.69659728;0.0;-0.71816337;0;0.051773764;  9.9995439E+03;  0.0000000E+00;  2.3159209E-13;  1.0000000E+04;  0.0000000E+00;  9.9999561E+03;0.045717645;0.0;0.0060561174;9.6779547
  8.0000019E-01;  9.9999998E-03; -6.0000036E-02;2281;0.00047580147;0.0;-0.00014913161;1003.9502;  4.0158987E-01;3271.5498;3;0.69584852;0.0;-0.38027668;0;0.049665015;  9.9995439E+03;  0.0000000E+00; -2.6994254E-13;  1.0000000E+04;  0.0000000E+00;  9.9999717E+03;0.045602359;0.0;0.0040626554;5.3195701
  8.0000019E-01;  9.9999998E-03; -4.0000018E-02;2282;0.00047566797;0.0;-7.0071801e-05;1003.9506;  4.0158984E-01;3271.8459;3;0.69545615;0.0;-0.18198764;0;0.048366942;  9.9995449E+03;  0.0000000E+00; -5.5075864E-14;  1.0000000E+04;  0.0000000E+00;  9.9999814E+03;0.045532547;0.0;0.0028343936;3.120311
  8.0000019E-01;  9.9999998E-03; -2.0000007E-02;2283;0.00047561032;0.0;-2.6813697e-05;1003.9509;  4.0158981E-01;3272.1421;3;0.69528913;0.0;-0.070949599;0;0.04760696;  9.9995449E+03;  0.0000000E+00;  4.5285878E-14;  1.0000000E+04;  0.0000000E+00;  9.9999863E+03;0.045495976;0.0;0.0021109853;1.9357333
  8.2000053E-01;  9.9999998E-03; -1.8000056E-01;2306;0.0014008621;0.0;-0.0021232683;1003.8996;  4.0158883E-01;3229.1946;3;2.1547308;0.0;-4.9835591;0;0.14311853;  9.9995898E+03;  0.0000000E+00; -3.5136190E-09;  1.0000000E+04;  0.0000000E+00;  9.9989658E+03;0.041678645;0.0;0.10143988;343.72635
  8.2000053E-01;  9.9999998E-03; -1.6000037E-01;2307;0.0013803745;0.0;-0.0015252641;1003.9218;  4.0158883E-01;3247.6545;3;2.1042566;0.0;-3.7491047;0;0.10110356;  9.9995918E+03;  0.0000000E+00; -7.4177664E-10;  1.0000000E+04;  0.0000000E+00;  9.9994072E+03;0.041238673;0.0;0.059864882;192.94232
  8.2000053E-01;  9.9999998E-03; -1.4000027E-01;2308;0.0013648289;0.0;-0.0011325147;1003.9364;  4.0158883E-01;3259.6978;3;2.0658884;0.0;-2.7960598;0;0.07313551;  9.9995947E+03;  0.0000000E+00;  7.6884110E-11;  1.0000000E+04;  0.0000000E+00;  9.9996963E+03;0.040856197;0.0;0.032279316;95.074554
  8.2000053E-01;  9.9999998E-03; -1.2000019E-01;2309;0.0013537299;0.0;-0.00077996281;1003.9443;  4.0158883E-01;3266.2131;3;2.0383627;0.0;-1.9333634;0;0.057677582;  9.9995967E+03;  0.0000000E+00;  7.5096207E-11;  1.0000000E+04;  0.0000000E+00;  9.9998496E+03;0.040547732;0.0;0.01712985;43.357189
  8.2000053E-01;  9.9999998E-03; -1.0000012E-01;2310;0.0013463466;0.0;-0.00049233949;1003.948;  4.0158880E-01;3269.2732;3;2.0199428;0.0;-1.2276502;0;0.049977854;  9.9995986E+03;  0.0000000E+00;  2.2706791E-11;  1.0000000E+04;  0.0000000E+00;  9.9999229E+03;0.040315598;0.0;0.0096622556;19.692184
  8.2000053E-01;  9.9999998E-03; -8.0000065E-02;2311;0.0013418454;0.0;-0.00028304092;1003.9498;  4.0158883E-01;3270.7539;3;2.0085907;0.0;-0.71219015;0;0.046174135;  9.9995996E+03;  0.0000000E+00;  8.0042925E-12;  1.0000000E+04;  0.0000000E+00;  9.9999561E+03;0.040151887;0.0;0.0060222484;9.7407827
  8.2000053E-01;  9.9999998E-03; -6.0000036E-02;2312;0.0013393622;0.0;-0.00014782205;1003.9506;  4.0158883E-01;3271.4451;3;2.0022302;0.0;-0.37706009;0;0.044087179;  9.9995996E+03;  0.0000000E+00;  5.5711243E-12;  1.0000000E+04;  0.0000000E+00;  9.9999717E+03;0.040043913;0.0;0.004043268;5.4251657
  8.2000053E-01;  9.9999998E-03; -4.0000018E-02;2313;0.0013381309;0.0;-6.9439418e-05;1003.951;  4.0158883E-01;3271.7412;3;1.9990278;0.0;-0.18042341;0;0.04279992;  9.9996006E+03;  0.0000000E+00; -1.4773657E-13;  1.0000000E+04;  0.0000000E+00;  9.9999814E+03;0.039978243;0.0;0.0028216755;3.2426205
  8.2000053E-01;  9.9999998E-03; -2.0000005E-02;2314;0.0013376054;0.0;-2.6575648e-05;1003.9513;  4.0158883E-01;3272.0374;3;1.9976109;0.0;-0.070354432;0;0.042045254;  9.9996006E+03;  0.0000000E+00;  8.9052957E-13;  1.0000000E+04;  0.0000000E+00;  9.9999863E+03;0.039943725;0.0;0.002101528;2.0654242
  8.4000093E-01;  9.9999998E-03; -1.8000054E-01;2337;0.0023394504;0.0;-0.0020781143;1003.8388;  4.0156317E-01;3178.3237;3;3.6230054;0.0;-4.8767929;0;0.13636518;  9.9996357E+03;  0.0000000E+00; -6.3652510E-09;  1.0000000E+04;  0.0000000E+00;  9.9989883E+03;0.037067458;0.0;0.099297717;335.74789
  8.4000093E-01;  9.9999998E-03; -1.6000037E-01;2338;0.0023031805;0.0;-0.0014927267;1003.8607;  4.0156320E-01;3196.4846;3;3.5335631;0.0;-3.6691325;0;0.095240638;  9.9996377E+03;  0.0000000E+00; -1.0311918E-09;  1.0000000E+04;  0.0000000E+00;  9.9994189E+03;0.03663988;0.0;0.058600757;188.50174
  8.4000093E-01;  9.9999998E-03; -1.4000027E-01;2339;0.002275106;0.0;-0.0011084764;1003.8749;  4.0156317E-01;3208.2297;3;3.4643357;0.0;-2.7367547;0;0.067873076;  9.9996406E+03;  0.0000000E+00;  5.0361487E-10;  1.0000000E+04;  0.0000000E+00;  9.9997012E+03;0.036268886;0.0;0.031604193;92.941948
  8.4000093E-01;  9.9999998E-03; -1.2000018E-01;2340;0.0022549357;0.0;-0.00076335383;1003.8825;  4.0156320E-01;3214.5466;3;3.4143746;0.0;-1.8922607;0;0.052751936;  9.9996426E+03;  0.0000000E+00;  3.3760231E-10;  1.0000000E+04;  0.0000000E+00;  9.9998535E+03;0.035970528;0.0;0.016781408;42.451275
  8.4000087E-01;  9.9999998E-03; -1.0000011E-01;2341;0.0022415584;0.0;-0.000481772;1003.8862;  4.0156317E-01;3217.6062;3;3.3810556;0.0;-1.2013811;0;0.045220897;  9.9996445E+03;  0.0000000E+00;  1.1094608E-10;  1.0000000E+04;  0.0000000E+00;  9.9999258E+03;0.035746068;0.0;0.0094748298;19.348034
  8.4000087E-01;  9.9999998E-03; -8.0000065E-02;2342;0.0022334387;0.0;-0.00027690938;1003.8878;  4.0156314E-01;3218.8894;3;3.3606627;0.0;-0.69685572;0;0.041498851;  9.9996455E+03;  0.0000000E+00;  1.4701927E-11;  1.0000000E+04;  0.0000000E+00;  9.9999570E+03;0.035587389;0.0;0.0059114634;9.6293983
  8.4000087E-01;  9.9999998E-03; -6.0000036E-02;2343;0.0022289758;0.0;-0.00014459316;1003.8887;  4.0156314E-01;3219.679;3;3.3492947;0.0;-0.36890909;0;0.03945411;  9.9996455E+03;  0.0000000E+00; -2.5220702E-12;  1.0000000E+04;  0.0000000E+00;  9.9999717E+03;0.035482015;0.0;0.0039720936;5.4103947
  8.4000087E-01;  9.9999998E-03; -4.0000014E-02;2344;0.0022267606;0.0;-6.7915338e-05;1003.8892;  4.0156314E-01;3220.0737;3;3.3435411;0.0;-0.17652567;0;0.03819114;  9.9996465E+03;  0.0000000E+00; -3.1180108E-12;  1.0000000E+04;  0.0000000E+00;  9.9999814E+03;0.035417303;0.0;0.0027738372;3.2739449
  8.4000087E-01;  9.9999998E-03; -2.0000005E-02;2345;0.0022258107;0.0;-2.5987147e-05;1003.8894;  4.0156314E-01;3220.271;3;3.341011;0.0;-0.068848833;0;0.037450068;  9.9996465E+03;  0.0000000E+00; -1.6832162E-12;  1.0000000E+04;  0.0000000E+00;  9.9999863E+03;0.035382904;0.0;0.0020671645;2.1207986
  8.6000127E-01;  9.9999998E-03; -1.8000053E-01;2368;0.0032968081;0.0;-0.0020078418;1003.7161;  4.0151268E-01;3076.0757;3;5.1148391;0.0;-4.7116408;0;0.12887536;  9.9996758E+03;  0.0000000E+00; -1.2198170E-08;  1.0000000E+04;  0.0000000E+00;  9.9990205E+03;0.032812085;0.0;0.096063279;323.81992
  8.6000127E-01;  9.9999998E-03; -1.6000035E-01;2369;0.0032460792;0.0;-0.0014423477;1003.7372;  4.0151262E-01;3093.5415;3;4.9896388;0.0;-3.5453641;0;0.089053556;  9.9996797E+03;  0.0000000E+00; -1.8708433E-09;  1.0000000E+04;  0.0000000E+00;  9.9994385E+03;0.032366671;0.0;0.056686882;181.82483
  8.6000127E-01;  9.9999998E-03; -1.4000025E-01;2370;0.0032066642;0.0;-0.0010711746;1003.751;  4.0151262E-01;3104.988;3;4.8924661;0.0;-2.6447055;0;0.062558696;  9.9996826E+03;  0.0000000E+00;  9.5202646E-10;  1.0000000E+04;  0.0000000E+00;  9.9997119E+03;0.031983968;0.0;0.030574726;89.690796
  8.6000127E-01;  9.9999998E-03; -1.2000018E-01;2371;0.0031783823;0.0;-0.00073762116;1003.7586;  4.0151262E-01;3111.2048;3;4.8224769;0.0;-1.8285139;0;0.047921278;  9.9996846E+03;  0.0000000E+00;  5.7109778E-10;  1.0000000E+04;  0.0000000E+00;  9.9998584E+03;0.031678818;0.0;0.016242458;41.020416
  8.6000127E-01;  9.9999998E-03; -1.0000011E-01;2372;0.0031596485;0.0;-0.0004654626;1003.7621;  4.0151262E-01;3114.165;3;4.7758722;0.0;-1.160759;0;0.040629473;  9.9996855E+03;  0.0000000E+00;  1.4746511E-10;  1.0000000E+04;  0.0000000E+00;  9.9999268E+03;0.031450365;0.0;0.0091791088;18.752726
  8.6000127E-01;  9.9999998E-03; -8.0000065E-02;2373;0.0031483162;0.0;-0.00026749546;1003.7637;  4.0151265E-01;3115.448;3;4.7474332;0.0;-0.67321986;0;0.037022557;  9.9996875E+03;  0.0000000E+00;  2.4869492E-12;  1.0000000E+04;  0.0000000E+00;  9.9999580E+03;0.031288747;0.0;0.0057338113;9.3835306
  8.6000127E-01;  9.9999998E-03; -6.0000032E-02;2374;0.0031420889;0.0;-0.00013966158;1003.7645;  4.0151262E-01;3116.1387;3;4.7316108;0.0;-0.35639027;0;0.035038419;  9.9996885E+03;  0.0000000E+00; -7.9835921E-12;  1.0000000E+04;  0.0000000E+00;  9.9999727E+03;0.031180713;0.0;0.0038577074;5.3129187
  8.6000127E-01;  9.9999998E-03; -4.0000014E-02;2375;0.0031389953;0.0;-6.5594329e-05;1003.765;  4.0151262E-01;3116.5334;3;4.7236142;0.0;-0.17053735;0;0.033811618;  9.9996885E+03;  0.0000000E+00;  5.3633167E-13;  1.0000000E+04;  0.0000000E+00;  9.9999814E+03;0.031113541;0.0;0.0026980762;3.2495701
  8.6000127E-01;  9.9999998E-03; -2.0000005E-02;2376;0.0031376544;0.0;-2.5103078e-05;1003.7652;  4.0151262E-01;3116.7307;3;4.720057;0.0;-0.066534773;0;0.033091497;  9.9996885E+03;  0.0000000E+00;  3.9387374E-13;  1.0000000E+04;  0.0000000E+00;  9.9999863E+03;0.031077353;0.0;0.002014142;2.1354117
  8.8000166E-01;  9.9999998E-03; -1.8000050E-01;2399;0.0042067301;0.0;-0.0019145362;1003.5396;  4.0144020E-01;2929.0522;3;6.5292926;0.0;-4.4929833;0;0.11983267;  9.9997217E+03;  0.0000000E+00; -1.7976635E-08;  1.0000000E+04;  0.0000000E+00;  9.9990635E+03;0.028038263;0.0;0.091794409;308.14899
  8.8000166E-01;  9.9999998E-03; -1.6000034E-01;2400;0.0041430229;0.0;-0.0013759679;1003.5598;  4.0144017E-01;2945.7239;3;6.371985;0.0;-3.3822694;0;0.081698194;  9.9997256E+03;  0.0000000E+00; -3.1054193E-09;  1.0000000E+04;  0.0000000E+00;  9.9994629E+03;0.027540218;0.0;0.054157976;173.03688
  8.8000160E-01;  9.9999998E-03; -1.4000025E-01;2401;0.0040935655;0.0;-0.0010221069;1003.5729;  4.0144017E-01;2956.6738;3;6.2500854;0.0;-2.5235763;0;0.056336001;  9.9997295E+03;  0.0000000E+00;  1.1381783E-09;  1.0000000E+04;  0.0000000E+00;  9.9997236E+03;0.027122436;0.0;0.029213564;85.403229
  8.8000160E-01;  9.9999998E-03; -1.2000017E-01;2402;0.004058165;0.0;-0.00070386421;1003.5801;  4.0144017E-01;2962.5925;3;6.1625266;0.0;-1.7448174;0;0.042325601;  9.9997305E+03;  0.0000000E+00;  6.5340894E-10;  1.0000000E+04;  0.0000000E+00;  9.9998643E+03;0.026795527;0.0;0.015530073;39.128262
  8.8000160E-01;  9.9999998E-03; -1.0000011E-01;2403;0.0040347585;0.0;-0.00044413257;1003.5835;  4.0144017E-01;2965.4534;3;6.1043334;0.0;-1.1075594;0;0.035343129;  9.9997334E+03;  0.0000000E+00;  1.0154173E-10;  1.0000000E+04;  0.0000000E+00;  9.9999297E+03;0.026553731;0.0;0.0087893987;17.962215
  8.8000160E-01;  9.9999998E-03; -8.0000058E-02;2404;0.0040206099;0.0;-0.00025521737;1003.585;  4.0144020E-01;2966.6372;3;6.0688949;0.0;-0.64232326;0;0.031885039;  9.9997344E+03;  0.0000000E+00; -4.8154886E-11;  1.0000000E+04;  0.0000000E+00;  9.9999600E+03;0.026383439;0.0;0.0055015991;9.0546732
  8.8000160E-01;  9.9999998E-03; -6.0000032E-02;2405;0.0040128385;0.0;-0.00013325275;1003.5858;  4.0144017E-01;2967.229;3;6.0491905;0.0;-0.34004921;0;0.029979851;  9.9997344E+03;  0.0000000E+00; -3.9970274E-11;  1.0000000E+04;  0.0000000E+00;  9.9999736E+03;0.026269253;0.0;0.0037105982;5.1804051
  8.8000160E-01;  9.9999998E-03; -4.0000014E-02;2406;0.00400898;0.0;-6.2589919e-05;1003.5862;  4.0144017E-01;2967.6235;3;6.0392303;0.0;-0.16274309;0;0.028800935;  9.9997363E+03;  0.0000000E+00; -9.0041481E-12;  1.0000000E+04;  0.0000000E+00;  9.9999824E+03;0.026197603;0.0;0.0026033313;3.2138598
  8.8000160E-01;  9.9999998E-03; -2.0000005E-02;2407;0.0040073046;0.0;-2.3953149e-05;1003.5864;  4.0144017E-01;2967.821;3;6.0348063;0.0;-0.063476592;0;0.028108992;  9.9997363E+03;  0.0000000E+00; -7.2031209E-12;  1.0000000E+04;  0.0000000E+00;  9.9999863E+03;0.026158584;0.0;0.0019504082;2.1514382
  9.0000194E-01;  9.9999998E-03; -1.8000047E-01;2430;0.004988933;0.0;-0.0018011758;1003.3185;  4.0134963E-01;2745.0452;3;7.7441568;0.0;-4.227622;0;0.10890744;  9.9997783E+03;  0.0000000E+00; -2.5587465E-08;  1.0000000E+04;  0.0000000E+00;  9.9991162E+03;0.022301564;0.0;0.086605877;289.13458
  9.0000194E-01;  9.9999998E-03; -1.6000032E-01;2431;0.0049138274;0.0;-0.00129582;1003.3377;  4.0134960E-01;2760.9211;3;7.5587506;0.0;-3.185288;0;0.072805449;  9.9997822E+03;  0.0000000E+00; -4.1163677E-09;  1.0000000E+04;  0.0000000E+00;  9.9994932E+03;0.021720197;0.0;0.051085256;162.37985
  9.0000194E-01;  9.9999998E-03; -1.4000024E-01;2432;0.0048557119;0.0;-0.000963055;1003.3503;  4.0134969E-01;2771.2749;3;7.415576;0.0;-2.377697;0;0.048815601;  9.9997861E+03;  0.0000000E+00;  1.4498063E-09;  1.0000000E+04;  0.0000000E+00;  9.9997393E+03;0.021252383;0.0;0.027563216;80.218613
  9.0000194E-01;  9.9999998E-03; -1.2000016E-01;2433;0.0048141615;0.0;-0.00066334277;1003.3569;  4.0134963E-01;2776.7969;3;7.3128586;0.0;-1.6442671;0;0.035569098;  9.9997881E+03;  0.0000000E+00;  4.7363941E-10;  1.0000000E+04;  0.0000000E+00;  9.9998711E+03;0.020898079;0.0;0.014671017;36.859634
  9.0000188E-01;  9.9999998E-03; -1.0000010E-01;2434;0.0047867335;0.0;-0.00041860918;1003.3602;  4.0134960E-01;2779.4592;3;7.24473;0.0;-1.0438139;0;0.028966326;  9.9997910E+03;  0.0000000E+00; -1.4024655E-10;  1.0000000E+04;  0.0000000E+00;  9.9999336E+03;0.020641899;0.0;0.0083244285;17.0355
  9.0000188E-01;  9.9999998E-03; -8.0000058E-02;2435;0.0047700778;0.0;-0.00024058449;1003.3616;  4.0134963E-01;2780.6426;3;7.2029576;0.0;-0.60542792;0;0.025692906;  9.9997930E+03;  0.0000000E+00; -1.8628687E-10;  1.0000000E+04;  0.0000000E+00;  9.9999619E+03;0.020463727;0.0;0.0052291784;8.6895275
  9.0000188E-01;  9.9999998E-03; -6.0000028E-02;2436;0.0047608903;0.0;-0.00012565781;1003.3624;  4.0134966E-01;2781.333;3;7.1796274;0.0;-0.32064208;0;0.023886904;  9.9997930E+03;  0.0000000E+00; -9.1501133E-11;  1.0000000E+04;  0.0000000E+00;  9.9999756E+03;0.020344645;0.0;0.0035422603;5.0525856
  9.0000188E-01;  9.9999998E-03; -4.0000014E-02;2437;0.0047562891;0.0;-5.905229e-05;1003.3628;  4.0134966E-01;2781.6287;3;7.167707;0.0;-0.15354881;0;0.022768835;  9.9997939E+03;  0.0000000E+00; -4.3146011E-11;  1.0000000E+04;  0.0000000E+00;  9.9999824E+03;0.020269714;0.0;0.0024991205;3.2019873
  9.0000188E-01;  9.9999998E-03; -2.0000005E-02;2438;0.0047542853;0.0;-2.2617154e-05;1003.363;  4.0134966E-01;2781.8259;3;7.1624088;0.0;-0.05995011;0;0.02211294;  9.9997939E+03;  0.0000000E+00; -1.4279715E-11;  1.0000000E+04;  0.0000000E+00;  9.9999873E+03;0.020228678;0.0;0.0018842602;2.201297
  9.2000216E-01;  9.9999998E-03; -1.8000044E-01;2461;0.0055454778;0.0;-0.001675882;1003.0651;  4.0124571E-01;2534.0186;3;8.5876999;0.0;-3.9326975;0;0.096470408;  9.9998418E+03;  0.0000000E+00; -3.1088774E-08;  1.0000000E+04;  0.0000000E+00;  9.9991768E+03;0.015785689;0.0;0.080684721;267.41406
  9.2000216E-01;  9.9999998E-03; -1.6000029E-01;2462;0.0054487335;0.0;-0.0012099972;1003.0831;  4.0124571E-01;2548.9001;3;8.3531513;0.0;-2.9711742;0;0.062689528;  9.9998477E+03;  0.0000000E+00; -4.6952202E-09;  1.0000000E+04;  0.0000000E+00;  9.9995273E+03;0.015104152;0.0;0.047585372;150.23491
  9.2000216E-01;  9.9999998E-03; -1.4000022E-01;2463;0.0053748488;0.0;-0.00090077659;1003.0947;  4.0124571E-01;2558.46;3;8.1728907;0.0;-2.2212636;0;0.040278219;  9.9998516E+03;  0.0000000E+00;  8.8767443E-10;  1.0000000E+04;  0.0000000E+00;  9.9997568E+03;0.014587538;0.0;0.025690679;74.340988
  9.2000210E-01;  9.9999998E-03; -1.2000015E-01;2464;0.005321118;0.0;-0.00062239805;1003.101;  4.0124568E-01;2563.6833;3;8.0402632;0.0;-1.5410062;0;0.02791841;  9.9998545E+03;  0.0000000E+00;  1.5021619E-11;  1.0000000E+04;  0.0000000E+00;  9.9998809E+03;0.01421504;0.0;0.013703369;34.318478
  9.2000210E-01;  9.9999998E-03; -1.0000010E-01;2465;0.0052836081;0.0;-0.00039494119;1003.104;  4.0124571E-01;2566.1472;3;7.9466124;0.0;-0.98396641;0;0.021762908;  9.9998564E+03;  0.0000000E+00; -5.2292382E-10;  1.0000000E+04;  0.0000000E+00;  9.9999375E+03;0.013955599;0.0;0.0078073097;16.027729
  9.2000210E-01;  9.9999998E-03; -8.0000058E-02;2466;0.0052594715;0.0;-0.00022934876;1003.1053;  4.0124571E-01;2567.2312;3;7.8854618;0.0;-0.57706517;0;0.018711619;  9.9998574E+03;  0.0000000E+00; -3.8873252E-10;  1.0000000E+04;  0.0000000E+00;  9.9999629E+03;0.013779565;0.0;0.0049320539;8.3210955
  9.2000210E-01;  9.9999998E-03; -6.0000028E-02;2467;0.0052444683;0.0;-0.00012201944;1003.106;  4.0124571E-01;2567.8225;3;7.8463187;0.0;-0.31182623;0;0.017027363;  9.9998584E+03;  0.0000000E+00; -1.6352147E-10;  1.0000000E+04;  0.0000000E+00;  9.9999766E+03;0.013663435;0.0;0.0033639269;4.9519086
  9.2000210E-01;  9.9999998E-03; -4.0000014E-02;2468;0.0052359449;0.0;-5.8861177e-05;1003.1063;  4.0124574E-01;2568.1182;3;7.8237596;0.0;-0.15359601;0;0.015984725;  9.9998584E+03;  0.0000000E+00; -2.7011676E-11;  1.0000000E+04;  0.0000000E+00;  9.9999834E+03;0.013590774;0.0;0.0023939507;3.2305396
  9.2000210E-01;  9.9999998E-03; -2.0000005E-02;2469;0.0052319621;0.0;-2.3260665e-05;1003.1066;  4.0124571E-01;2568.3152;3;7.8133531;0.0;-0.062064786;0;0.015373627;  9.9998584E+03;  0.0000000E+00; -1.4464210E-11;  1.0000000E+04;  0.0000000E+00;  9.9999873E+03;0.013551048;0.0;0.0018225792;2.2982559
  9.4000226E-01;  9.9999998E-03; -1.8000041E-01;2492;0.0057604453;0.0;-0.0015590776;1002.7908;  4.0113339E-01;2305.5461;3;8.8593597;0.0;-3.6443539;0;0.08343868;  9.9999072E+03;  0.0000000E+00; -2.9611925E-08;  1.0000000E+04;  0.0000000E+00;  9.9992422E+03;0.0091537405;0.0;0.074284941;243.83997
  9.4000226E-01;  9.9999998E-03; -1.6000028E-01;2493;0.0056267874;0.0;-0.001136166;1002.8074;  4.0113339E-01;2319.2351;3;8.5553083;0.0;-2.7687633;0;0.052186333;  9.9999160E+03;  0.0000000E+00; -4.6476538E-09;  1.0000000E+04;  0.0000000E+00;  9.9995654E+03;0.0083693787;0.0;0.043816954;137.11035
  9.4000220E-01;  9.9999998E-03; -1.4000021E-01;2494;0.0055307825;0.0;-0.00084812386;1002.8182;  4.0113342E-01;2328.1968;3;8.3336315;0.0;-2.0759392;0;0.031503782;  9.9999199E+03;  0.0000000E+00;  7.1320927E-10;  1.0000000E+04;  0.0000000E+00;  9.9997764E+03;0.0078183804;0.0;0.023685399;68.032997
  9.4000220E-01;  9.9999998E-03; -1.2000015E-01;2495;0.0054609133;0.0;-0.00058937451;1002.824;  4.0113339E-01;2332.9241;3;8.1700649;0.0;-1.4474584;0;0.020122763;  9.9999229E+03;  0.0000000E+00; -5.9639199E-10;  1.0000000E+04;  0.0000000E+00;  9.9998887E+03;0.0074477158;0.0;0.012675046;31.624966
  9.4000220E-01;  9.9999998E-03; -1.0000009E-01;2496;0.00541102;0.0;-0.00037995755;1002.8267;  4.0113336E-01;2335.189;3;8.0496473;0.0;-0.93793386;0;0.014468164;  9.9999238E+03;  0.0000000E+00; -9.1606422E-10;  1.0000000E+04;  0.0000000E+00;  9.9999424E+03;0.007204059;0.0;0.0072641051;14.988092
  9.4000220E-01;  9.9999998E-03; -8.0000058E-02;2497;0.0053776726;0.0;-0.00022741167;1002.828;  4.0113342E-01;2336.2725;3;7.970017;0.0;-0.56618929;0;0.011671063;  9.9999268E+03;  0.0000000E+00; -5.6875349E-10;  1.0000000E+04;  0.0000000E+00;  9.9999658E+03;0.007045669;0.0;0.004625394;7.9670215
  9.4000214E-01;  9.9999998E-03; -6.0000032E-02;2498;0.0053555449;0.0;-0.00012791311;1002.8286;  4.0113336E-01;2336.7646;3;7.9166832;0.0;-0.32314673;0;0.01012895;  9.9999268E+03;  0.0000000E+00; -2.3283092E-10;  1.0000000E+04;  0.0000000E+00;  9.9999775E+03;0.0069440147;0.0;0.0031849353;4.8822627
  9.4000214E-01;  9.9999998E-03; -4.0000014E-02;2499;0.0053416253;0.0;-6.6127031e-05;1002.829;  4.0113336E-01;2337.0603;3;7.8820033;0.0;-0.16948594;0;0.0091750398;  9.9999277E+03;  0.0000000E+00; -2.5595463E-11;  1.0000000E+04;  0.0000000E+00;  9.9999854E+03;0.0068814247;0.0;0.0022936151;3.2966652
  9.4000214E-01;  9.9999998E-03; -2.0000007E-02;2500;0.0053339526;0.0;-2.7718879e-05;1002.8292;  4.0113342E-01;2337.2571;3;7.8632765;0.0;-0.072252452;0;0.0086165676;  9.9999277E+03;  0.0000000E+00; -2.4598006E-11;  1.0000000E+04;  0.0000000E+00;  9.9999873E+03;0.0068475334;0.0;0.0017690345;2.4358439
  9.6000224E-01;  9.9999998E-03; -1.8000038E-01;2523;0.005731768;0.0;-0.0014431204;1002.5076;  4.0101755E-01;2069.5005;3;8.7827425;0.0;-3.3469224;0;0.070895478;  9.9999678E+03;  0.0000000E+00; -2.6286633E-08;  1.0000000E+04;  0.0000000E+00;  9.9993086E+03;0.0031898068;0.0;0.067705669;219.41435
  9.6000224E-01;  9.9999998E-03; -1.6000026E-01;2524;0.0055801827;0.0;-0.0010590384;1002.5228;  4.0101752E-01;2081.9954;3;8.4581566;0.0;-2.548588;0;0.042264204;  9.9999756E+03;  0.0000000E+00; -3.2431726E-09;  1.0000000E+04;  0.0000000E+00;  9.9996035E+03;0.0022946752;0.0;0.03996953;123.60935
  9.6000218E-01;  9.9999998E-03; -1.4000019E-01;2525;0.0054741725;0.0;-0.00079259649;1002.5326;  4.0101755E-01;2090.1611;3;8.2205429;0.0;-1.9163295;0;0.023370607;  9.9999814E+03;  0.0000000E+00;  1.6521867E-11;  1.0000000E+04;  0.0000000E+00;  9.9997949E+03;0.0017168071;0.0;0.021653799;61.6054
  9.6000218E-01;  9.9999998E-03; -1.2000014E-01;2526;0.0053975;0.0;-0.00055503316;1002.5378;  4.0101755E-01;2094.49;3;8.0479546;0.0;-1.3501682;0;0.013002091;  9.9999844E+03;  0.0000000E+00; -1.1896381E-09;  1.0000000E+04;  0.0000000E+00;  9.9998984E+03;0.0013609587;0.0;0.011641133;28.915421
  9.6000218E-01;  9.9999998E-03; -1.0000009E-01;2527;0.0053441706;0.0;-0.00036332189;1002.5405;  4.0101755E-01;2096.6545;3;7.9268308;0.0;-0.89158237;0;0.007867978;  9.9999863E+03;  0.0000000E+00; -1.3743910E-09;  1.0000000E+04;  0.0000000E+00;  9.9999453E+03;0.0011456793;0.0;0.0067222985;13.964305
  9.6000212E-01;  9.9999998E-03; -8.0000058E-02;2528;0.0053058942;0.0;-0.00022130529;1002.5416;  4.0101755E-01;2097.6382;3;7.8357811;0.0;-0.54553246;0;0.0053377622;  9.9999863E+03;  0.0000000E+00; -7.3939987E-10;  1.0000000E+04;  0.0000000E+00;  9.9999678E+03;0.0010147785;0.0;0.0043229838;7.6357737
  9.6000212E-01;  9.9999998E-03; -6.0000032E-02;2529;0.0052807936;0.0;-0.00012677812;1002.5421;  4.0101755E-01;2098.0317;3;7.7759604;0.0;-0.31519979;0;0.0039463774;  9.9999883E+03;  0.0000000E+00; -2.7834696E-10;  1.0000000E+04;  0.0000000E+00;  9.9999785E+03;0.00093430461;0.0;0.0030120728;4.8360829
  9.6000212E-01;  9.9999998E-03; -4.0000018E-02;2530;0.0052669537;0.0;-6.7734531e-05;1002.5425;  4.0101755E-01;2098.3269;3;7.7436533;0.0;-0.17032769;0;0.0030867811;  9.9999883E+03;  0.0000000E+00; -1.0234336E-10;  1.0000000E+04;  0.0000000E+00;  9.9999854E+03;0.00088592607;0.0;0.0022008549;3.3859205
  9.6000212E-01;  9.9999998E-03; -2.0000007E-02;2531;0.0052593858;0.0;-2.9233828e-05;1002.5427;  4.0101752E-01;2098.4253;3;7.7262392;0.0;-0.074714415;0;0.0025841049;  9.9999883E+03;  0.0000000E+00; -3.2879300E-11;  1.0000000E+04;  0.0000000E+00;  9.9999883E+03;0.00086010405;0.0;0.0017240008;2.5963008
  9.8000222E-01;  9.9999998E-03; -1.8000035E-01;2554;0.0055782185;0.0;-0.0013226777;1002.226;  4.0090266E-01;1834.6682;3;8.554162;0.0;-3.0410473;0;0.059721261;  1.0000015E+04;  0.0000000E+00; -1.6145107E-08;  1.0000000E+04;  0.0000000E+00;  9.9993750E+03;-0.0015450435;0.0;0.061266303;195.1996
  9.8000216E-01;  9.9999998E-03; -1.6000025E-01;2555;0.0054211109;0.0;-0.00098130561;1002.2399;  4.0090266E-01;1846.0654;3;8.2197351;0.0;-2.3360388;0;0.033665054;  1.0000026E+04;  0.0000000E+00; -7.8888107E-10;  1.0000000E+04;  0.0000000E+00;  9.9996406E+03;-0.002584643;0.0;0.036249697;110.38548
  9.8000211E-01;  9.9999998E-03; -1.4000018E-01;2556;0.0053125792;0.0;-0.00073452236;1002.2488;  4.0090272E-01;1853.5327;3;7.9801817;0.0;-1.7647067;0;0.016504249;  1.0000031E+04;  0.0000000E+00; -1.0478127E-09;  1.0000000E+04;  0.0000000E+00;  9.9998135E+03;-0.0032095797;0.0;0.019713828;55.403469
  9.8000211E-01;  9.9999998E-03; -1.2000013E-01;2557;0.0052332832;0.0;-0.00051752501;1002.2537;  4.0090266E-01;1857.4629;3;7.8046837;0.0;-1.2516425;0;0.0070998855;  1.0000035E+04;  0.0000000E+00; -2.2758093E-09;  1.0000000E+04;  0.0000000E+00;  9.9999063E+03;-0.0035622052;0.0;0.010662091;26.344719
  9.8000211E-01;  9.9999998E-03; -1.0000008E-01;2558;0.0051784613;0.0;-0.00034080862;1002.2559;  4.0090263E-01;1859.3297;3;7.6780996;0.0;-0.826276;0;0.0024537845;  1.0000037E+04;  0.0000000E+00; -1.7219285E-09;  1.0000000E+04;  0.0000000E+00;  9.9999492E+03;-0.0037566028;0.0;0.0062103872;13.011178
  9.8000211E-01;  9.9999998E-03; -8.0000050E-02;2559;0.0051442357;0.0;-0.00021233845;1002.257;  4.0090263E-01;1860.214;3;7.6004596;0.0;-0.51784283;0;0.0001717289;  1.0000038E+04;  0.0000000E+00; -8.7753838E-10;  1.0000000E+04;  0.0000000E+00;  9.9999697E+03;-0.0038657733;0.0;0.0040375022;7.3370457
  9.8000211E-01;  9.9999998E-03; -6.0000032E-02;2560;0.0051236711;0.0;-0.00012604953;1002.2576;  4.0090263E-01;1860.7052;3;7.5536928;0.0;-0.30756319;0;-0.0010794725;  1.0000038E+04;  0.0000000E+00; -3.2178579E-10;  1.0000000E+04;  0.0000000E+00;  9.9999795E+03;-0.0039298916;0.0;0.0028504191;4.8054314
  9.8000211E-01;  9.9999998E-03; -4.0000018E-02;2561;0.0051118587;0.0;-6.9643029e-05;1002.2578;  4.0090266E-01;1860.9017;3;7.5265164;0.0;-0.1719508;0;-0.001851127;  1.0000039E+04;  0.0000000E+00; -1.6913194E-10;  1.0000000E+04;  0.0000000E+00;  9.9999854E+03;-0.0039679278;0.0;0.0021168008;3.484025
  9.8000211E-01;  9.9999998E-03; -2.0000007E-02;2562;0.005105936;0.0;-3.1395273e-05;1002.258;  4.0090266E-01;1861.0;3;7.5130539;0.0;-0.0781321;0;-0.0023017316;  1.0000039E+04;  0.0000000E+00; -3.6439605E-11;  1.0000000E+04;  0.0000000E+00;  9.9999883E+03;-0.0039882241;0.0;0.0016864926;2.7630219
  1.0000021E+00;  9.9999998E-03; -1.8000033E-01;2585;0.0053557958;0.0;-0.0012148232;1001.9553;  4.0079248E-01;1608.6505;3;8.2355738;0.0;-2.7598755;0;0.050426014;  1.0000050E+04;  0.0000000E+00;  1.1805693E-06;  1.0000000E+04;  0.0000000E+00;  9.9994365E+03;-0.0048499438;0.0;0.055275958;172.20021
  1.0000020E+00;  9.9999998E-03; -1.6000023E-01;2586;0.0052118269;0.0;-0.00090872648;1001.9679;  4.0079248E-01;1619.0466;3;7.9197893;0.0;-2.1304252;0;0.026781021;  1.0000062E+04;  0.0000000E+00;  6.7508737E-10;  1.0000000E+04;  0.0000000E+00;  9.9996729E+03;-0.0060848095;0.0;0.03286583;98.080658
  1.0000020E+00;  9.9999998E-03; -1.4000018E-01;2587;0.0051023271;0.0;-0.00068177871;1001.9761;  4.0079245E-01;1625.8138;3;7.6796265;0.0;-1.6140262;0;0.011181606;  1.0000070E+04;  0.0000000E+00; -3.4778094E-09;  1.0000000E+04;  0.0000000E+00;  9.9998291E+03;-0.0068068807;0.0;0.017988486;49.780827
  1.0000020E+00;  9.9999998E-03; -1.2000012E-01;2588;0.005024374;0.0;-0.0004828177;1001.9805;  4.0079245E-01;1629.4427;3;7.5075974;0.0;-1.1490512;0;0.0026067994;  1.0000074E+04;  0.0000000E+00; -3.9261563E-09;  1.0000000E+04;  0.0000000E+00;  9.9999141E+03;-0.0071957908;0.0;0.0098025901;24.080988
  1.0000020E+00;  9.9999998E-03; -1.0000008E-01;2589;0.004972579;0.0;-0.00032441696;1001.9826;  4.0079254E-01;1631.11;3;7.3920021;0.0;-0.77469999;0;-0.0016403035;  1.0000076E+04;  0.0000000E+00; -2.2635041E-09;  1.0000000E+04;  0.0000000E+00;  9.9999531E+03;-0.0073988927;0.0;0.0057585891;12.193927
  1.0000020E+00;  9.9999998E-03; -8.0000050E-02;2590;0.0049415589;0.0;-0.00020940276;1001.9836;  4.0079251E-01;1631.8947;3;7.3226066;0.0;-0.50219786;0;-0.0037265478;  1.0000077E+04;  0.0000000E+00; -9.4058494E-10;  1.0000000E+04;  0.0000000E+00;  9.9999707E+03;-0.0075079068;0.0;0.0037813589;7.0872688
  1.0000020E+00;  9.9999998E-03; -6.0000032E-02;2591;0.0049232896;0.0;-0.00012884253;1001.9841;  4.0079248E-01;1632.385;3;7.2809744;0.0;-0.31174099;0;-0.0048668245;  1.0000077E+04;  0.0000000E+00; -1.8571271E-10;  1.0000000E+04;  0.0000000E+00;  9.9999795E+03;-0.0075709154;0.0;0.0027040907;4.7875752
  1.0000020E+00;  9.9999998E-03; -4.0000018E-02;2592;0.0049132579;0.0;-7.4103285e-05;1001.9843;  4.0079248E-01;1632.5812;3;7.2580729;0.0;-0.18122637;0;-0.0055670892;  1.0000078E+04;  0.0000000E+00; -9.0183735E-11;  1.0000000E+04;  0.0000000E+00;  9.9999854E+03;-0.0076088854;0.0;0.0020417962;3.5823874
  1.0000020E+00;  9.9999998E-03; -2.0000009E-02;2593;0.0049086059;0.0;-3.3180895e-05;1001.9845;  4.0079254E-01;1632.6792;3;7.2476606;0.0;-0.081017427;0;-0.0059745498;  1.0000079E+04;  0.0000000E+00; -3.0057942E-11;  1.0000000E+04;  0.0000000E+00;  9.9999883E+03;-0.0076296921;0.0;0.0016551424;2.926127
  1.0200020E+00;  9.9999998E-03; -1.8000032E-01;2616;0.0051112119;0.0;-0.0011239401;1001.7031;  4.0069005E-01;1397.8536;3;7.8865018;0.0;-2.5025477;0;0.043155301;  1.0000071E+04;  0.0000000E+00; -8.0088284E-06;  1.0000000E+04;  0.0000000E+00;  9.9994883E+03;-0.0068281111;0.0;0.049983412;151.17189
  1.0200020E+00;  9.9999998E-03; -1.6000023E-01;2617;0.0049640243;0.0;-0.00084936974;1001.7145;  4.0069008E-01;1407.1486;3;7.5642648;0.0;-1.9465446;0;0.021723695;  1.0000087E+04;  0.0000000E+00; -4.4453199E-07;  1.0000000E+04;  0.0000000E+00;  9.9997012E+03;-0.0082827825;0.0;0.030006478;87.229576
  1.0200019E+00;  9.9999998E-03; -1.4000016E-01;2618;0.0048575574;0.0;-0.00063660933;1001.722;  4.0069005E-01;1413.3125;3;7.3328214;0.0;-1.4727163;0;0.0074317288;  1.0000096E+04;  0.0000000E+00; -8.8434433E-09;  1.0000000E+04;  0.0000000E+00;  9.9998418E+03;-0.0091654006;0.0;0.016597129;45.05188
  1.0200019E+00;  9.9999998E-03; -1.2000012E-01;2619;0.0047790017;0.0;-0.00045470276;1001.7261;  4.0069005E-01;1416.6392;3;7.1618977;0.0;-1.0603646;0;-0.00051978044;  1.0000100E+04;  0.0000000E+00; -6.4954606E-09;  1.0000000E+04;  0.0000000E+00;  9.9999180E+03;-0.0096485624;0.0;0.009128782;22.285397
  1.0200019E+00;  9.9999998E-03; -1.0000008E-01;2620;0.0047277636;0.0;-0.0003124777;1001.7281;  4.0069002E-01;1418.3024;3;7.0496898;0.0;-0.73576313;0;-0.0045062071;  1.0000104E+04;  0.0000000E+00; -3.0229363E-09;  1.0000000E+04;  0.0000000E+00;  9.9999551E+03;-0.0099048754;0.0;0.0053986683;11.582024
  1.0200019E+00;  9.9999998E-03; -8.0000050E-02;2621;0.0046957345;0.0;-0.00020631865;1001.7289;  4.0069005E-01;1418.9873;3;6.9795938;0.0;-0.49116945;0;-0.0064777248;  1.0000106E+04;  0.0000000E+00; -9.6590036E-10;  1.0000000E+04;  0.0000000E+00;  9.9999727E+03;-0.010044759;0.0;0.0035670344;6.9084692
  1.0200019E+00;  9.9999998E-03; -6.0000032E-02;2622;0.0046780165;0.0;-0.0001303601;1001.7295;  4.0069005E-01;1419.4764;3;6.9417849;0.0;-0.31511509;0;-0.0075505702;  1.0000106E+04;  0.0000000E+00; -1.7134595E-10;  1.0000000E+04;  0.0000000E+00;  9.9999805E+03;-0.010126884;0.0;0.0025763141;4.7843223
  1.0200019E+00;  9.9999998E-03; -4.0000018E-02;2623;0.0046684626;0.0;-7.5444179e-05;1001.7297;  4.0069005E-01;1419.6722;3;6.9214358;0.0;-0.18231104;0;-0.0082017304;  1.0000106E+04;  0.0000000E+00; -4.3687567E-11;  1.0000000E+04;  0.0000000E+00;  9.9999854E+03;-0.010177176;0.0;0.0019754453;3.6766939
  1.0200019E+00;  9.9999998E-03; -2.0000009E-02;2624;0.0046637114;0.0;-3.4342014e-05;1001.7299;  4.0069005E-01;1419.8679;3;6.9111547;0.0;-0.083805606;0;-0.0085769063;  1.0000106E+04;  0.0000000E+00; -2.4097908E-11;  1.0000000E+04;  0.0000000E+00;  9.9999883E+03;-0.010205261;0.0;0.0016283549;3.0804775
  1.0400019E+00;  9.9999998E-03; -1.8000031E-01;2647;0.0048363972;0.0;-0.0010590798;1001.4742;  4.0059751E-01;1206.1118;3;7.4962387;0.0;-2.2951517;0;0.037813287;  1.0000081E+04;  0.0000000E+00; -9.7864518E-05;  1.0000000E+04;  0.0000000E+00;  9.9995342E+03;-0.0077211005;0.0;0.045534387;132.47719
  1.0400019E+00;  9.9999998E-03; -1.6000022E-01;2648;0.0046834061;0.0;-0.000791686;1001.4846;  4.0059745E-01;1214.4991;3;7.1730485;0.0;-1.77134;0;0.018443093;  1.0000099E+04;  0.0000000E+00; -9.9919889E-06;  1.0000000E+04;  0.0000000E+00;  9.9997217E+03;-0.0093587348;0.0;0.027801828;78.107399
  1.0400019E+00;  9.9999998E-03; -1.4000016E-01;2649;0.0045731929;0.0;-0.00059684512;1001.4915;  4.0059742E-01;1220.1556;3;6.9399729;0.0;-1.3515012;0;0.0051929047;  1.0000110E+04;  0.0000000E+00; -1.8540888E-08;  1.0000000E+04;  0.0000000E+00;  9.9998496E+03;-0.010450653;0.0;0.015643558;41.42794
  1.0400017E+00;  9.9999998E-03; -1.2000012E-01;2650;0.004494153;0.0;-0.00043264843;1001.4954;  4.0059742E-01;1223.4716;3;6.7711792;0.0;-0.98994774;0;-0.0023878412;  1.0000117E+04;  0.0000000E+00; -1.1249467E-08;  1.0000000E+04;  0.0000000E+00;  9.9999209E+03;-0.01109321;0.0;0.0087053692;21.084286
  1.0400017E+00;  9.9999998E-03; -1.0000008E-01;2651;0.0044394769;0.0;-0.00030111038;1001.4974;  4.0059742E-01;1225.032;3;6.6535606;0.0;-0.69803709;0;-0.0062905056;  1.0000121E+04;  0.0000000E+00; -4.2188266E-09;  1.0000000E+04;  0.0000000E+00;  9.9999561E+03;-0.011455498;0.0;0.0051649921;11.241641
  1.0400017E+00;  9.9999998E-03; -8.0000050E-02;2652;0.0044058496;0.0;-0.00020164307;1001.4984;  4.0059742E-01;1225.8123;3;6.5845447;0.0;-0.47469252;0;-0.0082531013;  1.0000124E+04;  0.0000000E+00; -1.0504626E-09;  1.0000000E+04;  0.0000000E+00;  9.9999727E+03;-0.011662246;0.0;0.003409144;6.8280072
  1.0400017E+00;  9.9999998E-03; -6.0000032E-02;2653;0.0043864935;0.0;-0.00012893125;1001.4989;  4.0059742E-01;1226.2999;3;6.5457091;0.0;-0.30710396;0;-0.0093142241;  1.0000125E+04;  0.0000000E+00; -1.0078612E-10;  1.0000000E+04;  0.0000000E+00;  9.9999814E+03;-0.011785408;0.0;0.0024711832;4.8019753
  1.0400017E+00;  9.9999998E-03; -4.0000018E-02;2654;0.004375882;0.0;-7.5838565e-05;1001.4991;  4.0059742E-01;1226.3975;3;6.5237894;0.0;-0.18212467;0;-0.0099429525;  1.0000125E+04;  0.0000000E+00;  3.8587748E-11;  1.0000000E+04;  0.0000000E+00;  9.9999863E+03;-0.011860287;0.0;0.001917334;3.7641103
  1.0400017E+00;  9.9999998E-03; -2.0000009E-02;2655;0.0043707849;0.0;-3.507805e-05;1001.4992;  4.0059742E-01;1226.4949;3;6.5136189;0.0;-0.085083373;0;-0.010297452;  1.0000126E+04;  0.0000000E+00; -1.8861957E-11;  1.0000000E+04;  0.0000000E+00;  9.9999883E+03;-0.011901729;0.0;0.0016042771;3.2204666
  1.0600017E+00;  9.9999998E-03; -1.8000031E-01;2678;0.0045395028;0.0;-0.0010137262;1001.2722;  4.0051588E-01;1036.3453;3;7.082593;0.0;-2.1277864;0;0.034198642;  1.0000081E+04;  0.0000000E+00; -4.3339207E-04;  1.0000000E+04;  0.0000000E+00;  9.9995703E+03;-0.0077526341;0.0;0.041951276;116.05691
  1.0600017E+00;  9.9999998E-03; -1.6000021E-01;2679;0.0043750606;0.0;-0.00073905906;1001.2815;  4.0051588E-01;1043.9198;3;6.7471304;0.0;-1.6160246;0;0.016831901;  1.0000100E+04;  0.0000000E+00; -6.8278212E-05;  1.0000000E+04;  0.0000000E+00;  9.9997373E+03;-0.0094636651;0.0;0.026295565;70.641861
  1.0600017E+00;  9.9999998E-03; -1.4000016E-01;2680;0.0042628497;0.0;-0.00056075258;1001.288;  4.0051588E-01;1049.2607;3;6.5153213;0.0;-1.2420168;0;0.0044250162;  1.0000115E+04;  0.0000000E+00; -1.0565760E-06;  1.0000000E+04;  0.0000000E+00;  9.9998525E+03;-0.010776584;0.0;0.0152016;38.947361
  1.0600016E+00;  9.9999998E-03; -1.2000012E-01;2681;0.0041762232;0.0;-0.00041140447;1001.2919;  4.0051585E-01;1052.4653;3;6.3357224;0.0;-0.9215011;0;-0.0030513639;  1.0000124E+04;  0.0000000E+00; -1.9145935E-08;  1.0000000E+04;  0.0000000E+00;  9.9999209E+03;-0.011645021;0.0;0.0085936571;20.538218
  1.0600016E+00;  9.9999998E-03; -1.0000008E-01;2682;0.0041171662;0.0;-0.00029036435;1001.294;  4.0051588E-01;1054.1162;3;6.2182746;0.0;-0.66036141;0;-0.0070760399;  1.0000129E+04;  0.0000000E+00; -6.9447261E-09;  1.0000000E+04;  0.0000000E+00;  9.9999561E+03;-0.01217474;0.0;0.0050987005;11.227597
  1.0600016E+00;  9.9999998E-03; -8.0000050E-02;2683;0.0040797982;0.0;-0.00019766204;1001.295;  4.0051588E-01;1054.9902;3;6.1459751;0.0;-0.45715049;0;-0.0091622006;  1.0000134E+04;  0.0000000E+00; -1.5277610E-09;  1.0000000E+04;  0.0000000E+00;  9.9999736E+03;-0.012492211;0.0;0.0033300102;6.8809648
  1.0600016E+00;  9.9999998E-03; -6.0000032E-02;2684;0.0040569329;0.0;-0.00012832331;1001.2955;  4.0051588E-01;1055.3787;3;6.1018701;0.0;-0.30027807;0;-0.010285206;  1.0000135E+04;  0.0000000E+00; -4.2161177E-11;  1.0000000E+04;  0.0000000E+00;  9.9999814E+03;-0.012682932;0.0;0.0023977265;4.8547859
  1.0600016E+00;  9.9999998E-03; -4.0000018E-02;2685;0.0040443703;0.0;-7.6091899e-05;1001.2958;  4.0051588E-01;1055.5729;3;6.0778198;0.0;-0.17970866;0;-0.01092751;  1.0000137E+04;  0.0000000E+00;  1.7359529E-10;  1.0000000E+04;  0.0000000E+00;  9.9999863E+03;-0.012796497;0.0;0.0018689873;3.8437943
  1.0600016E+00;  9.9999998E-03; -2.0000009E-02;2686;0.004037986;0.0;-3.5769997e-05;1001.296;  4.0051582E-01;1055.6699;3;6.0656147;0.0;-0.085699596;0;-0.011276704;  1.0000137E+04;  0.0000000E+00;  1.5793790E-11;  1.0000000E+04;  0.0000000E+00;  9.9999873E+03;-0.012857811;0.0;0.0015811067;3.3371723
  1.0800016E+00;  9.9999998E-03; -1.8000031E-01;2709;0.0042468188;0.0;-0.00099142233;1001.0981;  4.0044579E-01;889.47662;3;6.6794772;0.0;-2.0013018;0;0.032074034;  1.0000073E+04;  0.0000000E+00; -1.2855900E-03;  1.0000000E+04;  0.0000000E+00;  9.9995986E+03;-0.0070616589;0.0;0.039135695;101.53731
  1.0800016E+00;  9.9999998E-03; -1.6000021E-01;2710;0.0040676259;0.0;-0.00069980917;1001.1063;  4.0044582E-01;896.04242;3;6.3309717;0.0;-1.4881318;0;0.016754691;  1.0000092E+04;  0.0000000E+00; -3.0262730E-04;  1.0000000E+04;  0.0000000E+00;  9.9997441E+03;-0.0086769965;0.0;0.025431687;64.424141
  1.0800016E+00;  9.9999998E-03; -1.4000015E-01;2711;0.0039388477;0.0;-0.00052238698;1001.1124;  4.0044582E-01;901.06335;3;6.0771036;0.0;-1.1334212;0;0.0051264009;  1.0000108E+04;  0.0000000E+00; -2.1529249E-05;  1.0000000E+04;  0.0000000E+00;  9.9998506E+03;-0.010158764;0.0;0.015285165;37.384609
  1.0800015E+00;  9.9999998E-03; -1.2000011E-01;2712;0.0038478915;0.0;-0.00038967939;1001.1164;  4.0044582E-01;904.24976;3;5.8954926;0.0;-0.85672641;0;-0.002458361;  1.0000120E+04;  0.0000000E+00; -3.3104236E-08;  1.0000000E+04;  0.0000000E+00;  9.9999180E+03;-0.011305558;0.0;0.0088471975;20.604677
  1.0800015E+00;  9.9999998E-03; -1.0000008E-01;2713;0.0037829832;0.0;-0.00028168585;1001.1187;  4.0044582E-01;906.08429;3;5.7703385;0.0;-0.62478775;0;-0.0068275323;  1.0000129E+04;  0.0000000E+00; -1.2323557E-08;  1.0000000E+04;  0.0000000E+00;  9.9999531E+03;-0.012078448;0.0;0.0052509159;11.564998
  1.0800015E+00;  9.9999998E-03; -8.0000050E-02;2714;0.003738567;0.0;-0.00019527064;1001.1198;  4.0044582E-01;907.04987;3;5.688446;0.0;-0.43953428;0;-0.0092025315;  1.0000134E+04;  0.0000000E+00; -3.1843446E-09;  1.0000000E+04;  0.0000000E+00;  9.9999727E+03;-0.012569064;0.0;0.0033665325;7.1070814
  1.0800015E+00;  9.9999998E-03; -6.0000036E-02;2715;0.003710768;0.0;-0.00012822266;1001.1204;  4.0044582E-01;907.53265;3;5.6387954;0.0;-0.29223359;0;-0.010492893;  1.0000137E+04;  0.0000000E+00; -2.0321288E-10;  1.0000000E+04;  0.0000000E+00;  9.9999814E+03;-0.012869582;0.0;0.0023766891;4.9693332
  1.0800015E+00;  9.9999998E-03; -4.0000021E-02;2716;0.0036946174;0.0;-7.7223776e-05;1001.1208;  4.0044582E-01;907.82233;3;5.610055;0.0;-0.17807911;0;-0.011207378;  1.0000140E+04;  0.0000000E+00;  1.9060224E-10;  1.0000000E+04;  0.0000000E+00;  9.9999854E+03;-0.01304619;0.0;0.0018388113;3.9229503
  1.0800015E+00;  9.9999998E-03; -2.0000009E-02;2717;0.003686225;0.0;-3.6308262e-05;1001.1209;  4.0044582E-01;907.91888;3;5.5951023;0.0;-0.08466664;0;-0.011578922;  1.0000140E+04;  0.0000000E+00;  4.2409003E-11;  1.0000000E+04;  0.0000000E+00;  9.9999883E+03;-0.01313914;0.0;0.0015602179;3.4235916
  1.1000016E+00;  9.9999998E-03; -1.8000033E-01;2739;0.0039945929;0.0;-0.0010166755;1000.9517;  4.0038708E-01;765.11169;3;6.3378391;0.0;-1.9456699;0;0.031190114;  1.0000060E+04;  0.0000000E+00; -2.9596610E-03;  1.0000000E+04;  0.0000000E+00;  9.9996230E+03;-0.0057136132;0.0;0.036903728;88.513504
  1.1000015E+00;  9.9999998E-03; -1.6000021E-01;2740;0.0037657965;0.0;-0.00066876295;1000.9587;  4.0038711E-01;770.66992;3;5.9216652;0.0;-1.3750461;0;0.018029021;  1.0000073E+04;  0.0000000E+00; -9.7258150E-04;  1.0000000E+04;  0.0000000E+00;  9.9997480E+03;-0.0070311353;0.0;0.025060156;58.856579
  1.1000015E+00;  9.9999998E-03; -1.4000015E-01;2741;0.0036281417;0.0;-0.00048885308;1000.9644;  4.0038714E-01;775.26978;3;5.6599994;0.0;-1.0364507;0;0.0072644334;  1.0000090E+04;  0.0000000E+00; -1.6026670E-04;  1.0000000E+04;  0.0000000E+00;  9.9998438E+03;-0.0085560977;0.0;0.015820531;36.235752
  1.1000013E+00;  9.9999998E-03; -1.2000011E-01;2742;0.0035276262;0.0;-0.00036733638;1000.9685;  4.0038708E-01;778.52802;3;5.4652267;0.0;-0.79055613;0;-0.00047552865;  1.0000105E+04;  0.0000000E+00; -7.4156901E-06;  1.0000000E+04;  0.0000000E+00;  9.9999092E+03;-0.0099707358;0.0;0.0094952071;21.088213
  1.1000013E+00;  9.9999998E-03; -1.0000008E-01;2743;0.003455176;0.0;-0.00026981111;1000.9709;  4.0038702E-01;780.54047;3;5.3321838;0.0;-0.58383173;0;-0.005384672;  1.0000117E+04;  0.0000000E+00; -2.3285578E-08;  1.0000000E+04;  0.0000000E+00;  9.9999482E+03;-0.011064498;0.0;0.0056798258;12.2156
  1.1000013E+00;  9.9999998E-03; -8.0000058E-02;2744;0.0034047458;0.0;-0.00019330364;1000.9725;  4.0038708E-01;781.78632;3;5.2430978;0.0;-0.42306495;0;-0.0082409047;  1.0000125E+04;  0.0000000E+00; -7.3454092E-09;  1.0000000E+04;  0.0000000E+00;  9.9999688E+03;-0.01181458;0.0;0.0035736756;7.530293
  1.1000013E+00;  9.9999998E-03; -6.0000036E-02;2745;0.0033702396;0.0;-0.00012992223;1000.9733;  4.0038708E-01;782.36133;3;5.1831117;0.0;-0.28622353;0;-0.0098470505;  1.0000131E+04;  0.0000000E+00; -1.5313547E-09;  1.0000000E+04;  0.0000000E+00;  9.9999805E+03;-0.012295119;0.0;0.0024480685;5.1792607
  1.1000013E+00;  9.9999998E-03; -4.0000021E-02;2746;0.0033488164;0.0;-7.9566053e-05;1000.9738;  4.0038714E-01;782.74463;3;5.1469941;0.0;-0.17701377;0;-0.010731451;  1.0000134E+04;  0.0000000E+00; -4.1608578E-11;  1.0000000E+04;  0.0000000E+00;  9.9999854E+03;-0.012582326;0.0;0.0018508756;4.0222759
  1.1000013E+00;  9.9999998E-03; -2.0000011E-02;2747;0.003337373;0.0;-3.7522677e-05;1000.9739;  4.0038711E-01;782.93628;3;5.1281867;0.0;-0.084004007;0;-0.011178264;  1.0000135E+04;  0.0000000E+00; -3.1659395E-12;  1.0000000E+04;  0.0000000E+00;  9.9999883E+03;-0.012732929;0.0;0.001554664;3.4855516
  1.1200014E+00;  9.9999998E-03; -1.8000039E-01;2768;0.0038044907;0.0;-0.0011145574;1000.8311;  4.0033889E-01;661.54553;3;6.0831327;0.0;-1.9993982;0;0.031217745;  1.0000038E+04;  0.0000000E+00; -5.6680278E-03;  1.0000000E+04;  0.0000000E+00;  9.9996416E+03;-0.0038121694;0.0;0.035029914;76.828735
  1.1200013E+00;  9.9999998E-03; -1.6000022E-01;2769;0.0035100211;0.0;-0.00066981057;1000.8369;  4.0033892E-01;666.19507;3;5.5780654;0.0;-1.3125783;0;0.020316724;  1.0000048E+04;  0.0000000E+00; -2.4861167E-03;  1.0000000E+04;  0.0000000E+00;  9.9997471E+03;-0.0046336288;0.0;0.024950352;53.436485
  1.1200013E+00;  9.9999998E-03; -1.4000013E-01;2770;0.0033406906;0.0;-0.00045828236;1000.842;  4.0033892E-01;670.27515;3;5.2776265;0.0;-0.94703346;0;0.010648399;  1.0000063E+04;  0.0000000E+00; -7.0522935E-04;  1.0000000E+04;  0.0000000E+00;  9.9998340E+03;-0.0059936075;0.0;0.016642006;34.876331
  1.1200012E+00;  9.9999998E-03; -1.2000010E-01;2771;0.0032299419;0.0;-0.00033985396;1000.846;  4.0033889E-01;673.40637;3;5.0705352;0.0;-0.71940821;0;0.0029491927;  1.0000079E+04;  0.0000000E+00; -1.1095862E-04;  1.0000000E+04;  0.0000000E+00;  9.9998984E+03;-0.0075412388;0.0;0.010490431;21.567295
  1.1200012E+00;  9.9999998E-03; -1.0000008E-01;2772;0.003151285;0.0;-0.00025535517;1000.8489;  4.0033889E-01;675.68365;3;4.926158;0.0;-0.54095358;0;-0.0025136988;  1.0000094E+04;  0.0000000E+00; -6.5668414E-06;  1.0000000E+04;  0.0000000E+00;  9.9999395E+03;-0.0089485683;0.0;0.0064348695;13.032495
  1.1200012E+00;  9.9999998E-03; -8.0000058E-02;2773;0.0030945356;0.0;-0.00018700864;1000.8506;  4.0033889E-01;677.10699;3;4.8262081;0.0;-0.3967635;0;-0.0060149292;  1.0000106E+04;  0.0000000E+00; -1.6685281E-08;  1.0000000E+04;  0.0000000E+00;  9.9999629E+03;-0.010036113;0.0;0.0040211836;8.1219511
  1.1200012E+00;  9.9999998E-03; -6.0000040E-02;2774;0.0030547888;0.0;-0.00013018811;1000.8517;  4.0033892E-01;677.86609;3;4.7599397;0.0;-0.27807429;0;-0.0081089037;  1.0000114E+04;  0.0000000E+00; -5.4165739E-09;  1.0000000E+04;  0.0000000E+00;  9.9999775E+03;-0.010783977;0.0;0.002675073;5.5004544
  1.1200012E+00;  9.9999998E-03; -4.0000025E-02;2775;0.0030281798;0.0;-8.1733713e-05;1000.8523;  4.0033889E-01;678.43542;3;4.7153606;0.0;-0.17468777;0;-0.00929779;  1.0000118E+04;  0.0000000E+00; -1.3840715E-09;  1.0000000E+04;  0.0000000E+00;  9.9999844E+03;-0.011251858;0.0;0.001954068;4.1653562
  1.1200012E+00;  9.9999998E-03; -2.0000011E-02;2776;0.0030134721;0.0;-3.9007638e-05;1000.8526;  4.0033892E-01;678.62518;3;4.692039;0.0;-0.083300903;0;-0.0099024074;  1.0000122E+04;  0.0000000E+00; -3.2063274E-10;  1.0000000E+04;  0.0000000E+00;  9.9999873E+03;-0.011503647;0.0;0.0016012399;3.5415604
  1.1400014E+00;  9.9999998E-03; -1.8000048E-01;2796;0.003710266;0.0;-0.001315369;1000.7343;  4.0030029E-01;576.91876;3;5.958499;0.0;-2.2109377;0;0.031802207;  1.0000013E+04;  0.0000000E+00; -9.2601972E-03;  1.0000000E+04;  0.0000000E+00;  9.9996592E+03;-0.0015328981;0.0;0.033335105;66.583946
  1.1400013E+00;  9.9999998E-03; -1.6000026E-01;2797;0.0033270835;0.0;-0.00073966064;1000.7388;  4.0030029E-01;580.47833;3;5.3312945;0.0;-1.3492147;0;0.023112345;  1.0000016E+04;  0.0000000E+00; -5.1876577E-03;  1.0000000E+04;  0.0000000E+00;  9.9997480E+03;-0.0017310664;0.0;0.024843412;48.121468
  1.1400012E+00;  9.9999998E-03; -1.4000015E-01;2798;0.0031016783;0.0;-0.00045159081;1000.7432;  4.0030029E-01;584.03784;3;4.9562397;0.0;-0.88755149;0;0.014826667;  1.0000027E+04;  0.0000000E+00; -2.1588882E-03;  1.0000000E+04;  0.0000000E+00;  9.9998252E+03;-0.0026811257;0.0;0.017507793;32.913395
  1.1400012E+00;  9.9999998E-03; -1.2000009E-01;2799;0.002965492;0.0;-0.00031448077;1000.7469;  4.0030032E-01;586.94171;3;4.7198095;0.0;-0.65070921;0;0.0075753308;  1.0000042E+04;  0.0000000E+00; -6.4658420E-04;  1.0000000E+04;  0.0000000E+00;  9.9998857E+03;-0.004104394;0.0;0.011679725;21.524252
  1.1400011E+00;  9.9999998E-03; -1.0000007E-01;2800;0.0028797893;0.0;-0.00023234963;1000.7499;  4.0030026E-01;589.18982;3;4.5684891;0.0;-0.48789504;0;0.0018568449;  1.0000059E+04;  0.0000000E+00; -1.3153198E-04;  1.0000000E+04;  0.0000000E+00;  9.9999277E+03;-0.0056371489;0.0;0.0074939937;13.684093
  1.1400011E+00;  9.9999998E-03; -8.0000050E-02;2801;0.0028165299;0.0;-0.00017205483;1000.752;  4.0030023E-01;590.87585;3;4.4559383;0.0;-0.36191773;0;-0.0022251159;  1.0000073E+04;  0.0000000E+00; -1.5550047E-05;  1.0000000E+04;  0.0000000E+00;  9.9999561E+03;-0.0069971378;0.0;0.0047720219;8.7508545
  1.1400011E+00;  9.9999998E-03; -6.0000036E-02;2802;0.0027741841;0.0;-0.00012307943;1000.7534;  4.0030032E-01;591.99994;3;4.3820848;0.0;-0.25812933;0;-0.0049027056;  1.0000084E+04;  0.0000000E+00; -6.5287958E-07;  1.0000000E+04;  0.0000000E+00;  9.9999717E+03;-0.0080432417;0.0;0.0031405361;5.8929281
  1.1400011E+00;  9.9999998E-03; -4.0000025E-02;2803;0.0027459431;0.0;-7.9576886e-05;1000.7542;  4.0030026E-01;592.65564;3;4.3345261;0.0;-0.16659507;0;-0.0065211486;  1.0000093E+04;  0.0000000E+00; -4.6271529E-09;  1.0000000E+04;  0.0000000E+00;  9.9999805E+03;-0.0087474762;0.0;0.0022263278;4.3473663
  1.1400011E+00;  9.9999998E-03; -2.0000013E-02;2804;0.0027291859;0.0;-3.8617964e-05;1000.7546;  4.0030023E-01;592.93665;3;4.3072104;0.0;-0.080085814;0;-0.0073732054;  1.0000096E+04;  0.0000000E+00; -1.0791379E-09;  1.0000000E+04;  0.0000000E+00;  9.9999854E+03;-0.0091425795;0.0;0.001769374;3.5983412
  1.1600015E+00;  9.9999998E-03; -1.8000065E-01;2823;0.0037820856;0.0;-0.0016612634;1000.6577;  4.0026993E-01;508.28528;3;6.0610809;0.0;-2.6558402;0;0.032830052;  9.9999863E+03;  0.0000000E+00; -1.3096793E-02;  1.0000000E+04;  0.0000000E+00;  9.9996738E+03;0.00099631341;0.0;0.031833738;57.709351
  1.1600013E+00;  9.9999998E-03; -1.6000034E-01;2824;0.0032578351;0.0;-0.00091713434;1000.6614;  4.0026993E-01;511.14145;3;5.2323961;0.0;-1.5441355;0;0.025876604;  9.9999834E+03;  0.0000000E+00; -8.9340964E-03;  1.0000000E+04;  0.0000000E+00;  9.9997520E+03;0.0013262578;0.0;0.024550347;43.216732
  1.1600012E+00;  9.9999998E-03; -1.4000018E-01;2825;0.0029480597;0.0;-0.00051430339;1000.665;  4.0026996E-01;513.9054;3;4.7481518;0.0;-0.93133616;0;0.019158412;  9.9999883E+03;  0.0000000E+00; -4.9182181E-03;  1.0000000E+04;  0.0000000E+00;  9.9998174E+03;0.00098782789;0.0;0.018170584;30.587002
  1.1600010E+00;  9.9999998E-03; -1.2000010E-01;2826;0.0027619647;0.0;-0.00031462367;1000.6682;  4.0026996E-01;516.39301;3;4.4520373;0.0;-0.61100531;0;0.01283465;  9.9999980E+03;  0.0000000E+00; -2.1792331E-03;  1.0000000E+04;  0.0000000E+00;  9.9998730E+03;-2.3513517e-06;0.0;0.012837002;20.783876
  1.1600010E+00;  9.9999998E-03; -1.0000006E-01;2827;0.0026459116;0.0;-0.00021041493;1000.6711;  4.0026990E-01;518.60413;3;4.2572408;0.0;-0.43242326;0;0.0073817186;  1.0000012E+04;  0.0000000E+00; -7.7708543E-04;  1.0000000E+04;  0.0000000E+00;  9.9999150E+03;-0.0013361815;0.0;0.0087179001;13.796184
  1.1600010E+00;  9.9999998E-03; -8.0000043E-02;2828;0.0025762303;0.0;-0.00015142688;1000.6732;  4.0026993E-01;520.26251;3;4.1404729;0.0;-0.31896591;0;0.0031086309;  1.0000027E+04;  0.0000000E+00; -2.1979638E-04;  1.0000000E+04;  0.0000000E+00;  9.9999434E+03;-0.0026977141;0.0;0.005806345;9.1324749
  1.1600009E+00;  9.9999998E-03; -6.0000032E-02;2829;0.0025268332;0.0;-0.00010478671;1000.6749;  4.0026990E-01;521.55237;3;4.055553;0.0;-0.22165787;0;4.0315557e-05;  1.0000038E+04;  0.0000000E+00; -4.5419805E-05;  1.0000000E+04;  0.0000000E+00;  9.9999639E+03;-0.0038692555;0.0;0.0039095711;6.2124224
  1.1600009E+00;  9.9999998E-03; -4.0000021E-02;2830;0.0024972677;0.0;-6.8558809e-05;1000.6759;  4.0026996E-01;522.38153;3;4.0029159;0.0;-0.14423545;0;-0.0019758868;  1.0000049E+04;  0.0000000E+00; -6.1382430E-06;  1.0000000E+04;  0.0000000E+00;  9.9999746E+03;-0.0047395737;0.0;0.0027636869;4.5015883
  1.1600009E+00;  9.9999998E-03; -2.0000011E-02;2831;0.0024804045;0.0;-3.3434964e-05;1000.6765;  4.0026990E-01;522.75006;3;3.9747624;0.0;-0.069952928;0;-0.0031049822;  1.0000055E+04;  0.0000000E+00; -2.4059165E-07;  1.0000000E+04;  0.0000000E+00;  9.9999805E+03;-0.0052650236;0.0;0.0021600414;3.6211324
  1.1800016E+00;  9.9999998E-03; -1.8000086E-01;2849;0.0041380073;0.0;-0.0021510927;1000.5983;  4.0024659E-01;452.79178;3;6.5952387;0.0;-3.3640883;0;0.034910765;  9.9999521E+03;  0.0000000E+00; -1.6467979E-02;  1.0000000E+04;  0.0000000E+00;  9.9996865E+03;0.0041501895;0.0;0.030760575;49.734085
  1.1800014E+00;  9.9999998E-03; -1.6000049E-01;2850;0.0034151303;0.0;-0.001261133;1000.6017;  4.0024656E-01;455.31799;3;5.438251;0.0;-2.0112123;0;0.028497552;  9.9999502E+03;  0.0000000E+00; -1.2919690E-02;  1.0000000E+04;  0.0000000E+00;  9.9997549E+03;0.0043634796;0.0;0.024134073;38.651096
  1.1800011E+00;  9.9999998E-03; -1.4000027E-01;2851;0.0029384859;0.0;-0.00070444652;1000.6046;  4.0024659E-01;457.57346;3;4.7114434;0.0;-1.1617088;0;0.023054846;  9.9999502E+03;  0.0000000E+00; -8.7356726E-03;  1.0000000E+04;  0.0000000E+00;  9.9998125E+03;0.0045441566;0.0;0.01851069;28.396854
  1.1800010E+00;  9.9999998E-03; -1.2000015E-01;2852;0.0026557548;0.0;-0.00039322101;1000.6072;  4.0024659E-01;459.55826;3;4.2963758;0.0;-0.68191379;0;0.017989635;  9.9999531E+03;  0.0000000E+00; -5.0317650E-03;  1.0000000E+04;  0.0000000E+00;  9.9998623E+03;0.0042362791;0.0;0.013753357;19.820677
  1.1800009E+00;  9.9999998E-03; -1.0000008E-01;2853;0.0024841223;0.0;-0.00022947074;1000.6096;  4.0024656E-01;461.36261;3;4.0367117;0.0;-0.4277828;0;0.01336366;  9.9999619E+03;  0.0000000E+00; -2.4669364E-03;  1.0000000E+04;  0.0000000E+00;  9.9999023E+03;0.0034568112;0.0;0.0099068489;13.435534
  1.1800009E+00;  9.9999998E-03; -8.0000043E-02;2854;0.0023792647;0.0;-0.00014029794;1000.6116;  4.0024662E-01;462.89633;3;3.875026;0.0;-0.28016439;0;0.0094476119;  9.9999717E+03;  0.0000000E+00; -1.0209910E-03;  1.0000000E+04;  0.0000000E+00;  9.9999316E+03;0.0024489546;0.0;0.0069986568;9.0702362
  1.1800009E+00;  9.9999998E-03; -6.0000025E-02;2855;0.0023167797;0.0;-8.7777255e-05;1000.6132;  4.0024656E-01;464.06912;3;3.7770779;0.0;-0.18506049;0;0.0064068185;  9.9999824E+03;  0.0000000E+00; -3.4176424E-04;  1.0000000E+04;  0.0000000E+00;  9.9999521E+03;0.0014534489;0.0;0.0049533695;6.242919
  1.1800009E+00;  9.9999998E-03; -4.0000014E-02;2856;0.0022803068;0.0;-5.3142048e-05;1000.6143;  4.0024659E-01;464.88107;3;3.7159886;0.0;-0.1161763;0;0.0042569814;  9.9999912E+03;  0.0000000E+00; -8.4487358E-05;  1.0000000E+04;  0.0000000E+00;  9.9999658E+03;0.00063650153;0.0;0.00362048;4.496079
  1.1800009E+00;  9.9999998E-03; -2.0000007E-02;2857;0.0022611867;0.0;-2.5055586e-05;1000.6149;  4.0024659E-01;465.33215;3;3.6822755;0.0;-0.056032415;0;0.0029779044;  9.9999961E+03;  0.0000000E+00; -1.1317809E-05;  1.0000000E+04;  0.0000000E+00;  9.9999727E+03;0.0001066124;0.0;0.0028712919;3.5409868
  1.2000020E+00;  9.9999998E-03; -1.8000108E-01;2873;0.0048232866;0.0;-0.0026689337;1000.5524;  4.0022916E-01;407.27905;3;7.681664;0.0;-4.1462593;0;0.039351154;  9.9999004E+03;  0.0000000E+00; -1.8644666E-02;  1.0000000E+04;  0.0000000E+00;  9.9996924E+03;0.0092164082;0.0;0.030134747;41.747322
  1.2000016E+00;  9.9999998E-03; -1.6000070E-01;2874;0.003954194;0.0;-0.0017433179;1000.5562;  4.0022907E-01;410.09171;3;6.236609;0.0;-2.73401;0;0.03202628;  9.9999102E+03;  0.0000000E+00; -1.6336404E-02;  1.0000000E+04;  0.0000000E+00;  9.9997578E+03;0.008168634;0.0;0.023857646;33.881985
  1.2000012E+00;  9.9999998E-03; -1.4000042E-01;2875;0.0032401555;0.0;-0.0010786867;1000.559;  4.0022913E-01;412.11334;3;5.111608;0.0;-1.7050803;0;0.026661096;  9.9999131E+03;  0.0000000E+00; -1.2608968E-02;  1.0000000E+04;  0.0000000E+00;  9.9998105E+03;0.0079581533;0.0;0.018702943;26.08091
  1.2000011E+00;  9.9999998E-03; -1.2000024E-01;2876;0.0027572042;0.0;-0.00062711671;1000.5612;  4.0022916E-01;413.69547;3;4.3910656;0.0;-0.99530548;0;0.022492323;  9.9999121E+03;  0.0000000E+00; -8.6057484E-03;  1.0000000E+04;  0.0000000E+00;  9.9998555E+03;0.00808137;0.0;0.014410952;18.912266
  1.2000009E+00;  9.9999998E-03; -1.0000014E-01;2877;0.0024562902;0.0;-0.00035387481;1000.563;  4.0022916E-01;415.10175;3;3.9604623;0.0;-0.57298851;0;0.018947344;  9.9999131E+03;  0.0000000E+00; -5.1309722E-03;  1.0000000E+04;  0.0000000E+00;  9.9998906E+03;0.0080171097;0.0;0.010930235;13.040895
  1.2000009E+00;  9.9999998E-03; -8.0000073E-02;2878;0.0022823154;0.0;-0.00019550965;1000.5646;  4.0022910E-01;416.24438;3;3.7218955;0.0;-0.33039829;0;0.015873196;  9.9999170E+03;  0.0000000E+00; -2.6208656E-03;  1.0000000E+04;  0.0000000E+00;  9.9999180E+03;0.0076732743;0.0;0.0081999218;8.76478
  1.2000008E+00;  9.9999998E-03; -6.0000036E-02;2879;0.0021793162;0.0;-0.00010434476;1000.5659;  4.0022916E-01;417.21121;3;3.5769875;0.0;-0.1875318;0;0.013326855;  9.9999219E+03;  0.0000000E+00; -1.1047104E-03;  1.0000000E+04;  0.0000000E+00;  9.9999385E+03;0.0071591046;0.0;0.0061677508;5.9519925
  1.2000008E+00;  9.9999998E-03; -4.0000018E-02;2880;0.0021223463;0.0;-5.2531446e-05;1000.5668;  4.0022910E-01;417.82645;3;3.4965215;0.0;-0.10043826;0;0.011402495;  9.9999277E+03;  0.0000000E+00; -3.5461938E-04;  1.0000000E+04;  0.0000000E+00;  9.9999531E+03;0.0066437824;0.0;0.0047587133;4.2275543
  1.2000008E+00;  9.9999998E-03; -2.0000007E-02;2881;0.0020942225;0.0;-2.1636275e-05;1000.5674;  4.0022913E-01;418.35382;3;3.4563668;0.0;-0.043172989;0;0.010195154;  9.9999316E+03;  0.0000000E+00; -6.6400433E-05;  1.0000000E+04;  0.0000000E+00;  9.9999619E+03;0.0062730429;0.0;0.0039221109;3.2787924
  1.2200022E+00;  9.9999998E-03; -1.8000129E-01;2896;0.0055763996;0.0;-0.0031455813;1000.5166;  4.0021616E-01;369.01108;3;8.9454718;0.0;-4.9017944;0;0.046198256;  9.9998291E+03;  0.0000000E+00; -1.5815115E-02;  1.0000000E+04;  0.0000000E+00;  9.9996943E+03;0.01627133;0.0;0.029926926;31.739403
  1.2200019E+00;  9.9999998E-03; -1.6000091E-01;2897;0.0048114266;0.0;-0.0022515007;1000.5208;  4.0021622E-01;371.90619;3;7.6174874;0.0;-3.5106571;0;0.038198769;  9.9998486E+03;  0.0000000E+00; -1.8020604E-02;  1.0000000E+04;  0.0000000E+00;  9.9997578E+03;0.014298577;0.0;0.023900192;28.090654
  1.2200016E+00;  9.9999998E-03; -1.4000061E-01;2898;0.004014276;0.0;-0.001540105;1000.524;  4.0021622E-01;374.29037;3;6.2928643;0.0;-2.4109974;0;0.031738274;  9.9998643E+03;  0.0000000E+00; -1.5552300E-02;  1.0000000E+04;  0.0000000E+00;  9.9998086E+03;0.012749846;0.0;0.018988427;22.847618
  1.2200013E+00;  9.9999998E-03; -1.2000040E-01;2899;0.003304647;0.0;-0.0010216241;1000.5264;  4.0021622E-01;375.99344;3;5.1539278;0.0;-1.6058909;0;0.027095784;  9.9998711E+03;  0.0000000E+00; -1.1729158E-02;  1.0000000E+04;  0.0000000E+00;  9.9998486E+03;0.012046445;0.0;0.015049339;17.365742
  1.2200011E+00;  9.9999998E-03; -1.0000025E-01;2900;0.0027725995;0.0;-0.00064646965;1000.5281;  4.0021619E-01;377.18558;3;4.3416805;0.0;-1.0112654;0;0.023876283;  9.9998711E+03;  0.0000000E+00; -7.8257388E-03;  1.0000000E+04;  0.0000000E+00;  9.9998809E+03;0.011997947;0.0;0.011878335;12.359761
  1.2200010E+00;  9.9999998E-03; -8.0000155E-02;2901;0.0024295037;0.0;-0.00038139991;1000.5292;  4.0021619E-01;378.03711;3;3.8532033;0.0;-0.58768803;0;0.021533284;  9.9998701E+03;  0.0000000E+00; -4.5197424E-03;  1.0000000E+04;  0.0000000E+00;  9.9999063E+03;0.012164508;0.0;0.0093687754;8.3137817
  1.2200009E+00;  9.9999998E-03; -6.0000084E-02;2902;0.0022266395;0.0;-0.00020676083;1000.5302;  4.0021622E-01;378.71832;3;3.5752993;0.0;-0.31598839;0;0.019707359;  9.9998691E+03;  0.0000000E+00; -2.1737278E-03;  1.0000000E+04;  0.0000000E+00;  9.9999248E+03;0.012252354;0.0;0.0074550044;5.4728713
  1.2200009E+00;  9.9999998E-03; -4.0000040E-02;2903;0.0021146825;0.0;-0.00010183568;1000.5309;  4.0021622E-01;379.14407;3;3.4269676;0.0;-0.15640919;0;0.018296698;  9.9998701E+03;  0.0000000E+00; -8.0408005E-04;  1.0000000E+04;  0.0000000E+00;  9.9999404E+03;0.012217114;0.0;0.0060795848;3.7340209
  1.2200007E+00;  9.9999998E-03; -2.0000016E-02;2904;0.0020603777;0.0;-4.0965995e-05;1000.5314;  4.0021616E-01;379.48468;3;3.3553715;0.0;-0.064477362;0;0.017372172;  9.9998701E+03;  0.0000000E+00; -1.7149700E-04;  1.0000000E+04;  0.0000000E+00;  9.9999482E+03;0.01214016;0.0;0.005232011;2.8188956
  1.2400024E+00;  9.9999998E-03; -1.8000145E-01;2917;0.0059958291;0.0;-0.0035429248;1000.4904;  4.0020674E-01;337.38458;3;9.7281208;0.0;-5.589695;0;0.051458254;  9.9997783E+03;  0.0000000E+00; -1.1462907E-04;  1.0000000E+04;  0.0000000E+00;  9.9996904E+03;0.021135362;0.0;0.030322893;21.872963
  1.2400023E+00;  9.9999998E-03; -1.6000111E-01;2918;0.005540133;0.0;-0.0027384069;1000.4935;  4.0020680E-01;339.51694;3;8.855979;0.0;-4.2972813;0;0.045500755;  9.9997803E+03;  0.0000000E+00; -1.2785411E-02;  1.0000000E+04;  0.0000000E+00;  9.9997520E+03;0.020990659;0.0;0.024510099;19.647375
  1.2400020E+00;  9.9999998E-03; -1.4000082E-01;2919;0.004959404;0.0;-0.0020244343;1000.4966;  4.0020680E-01;341.64932;3;7.8326144;0.0;-3.1661463;0;0.039480142;  9.9997930E+03;  0.0000000E+00; -1.5596445E-02;  1.0000000E+04;  0.0000000E+00;  9.9998008E+03;0.019817367;0.0;0.019662773;17.858973
  1.2400017E+00;  9.9999998E-03; -1.2000058E-01;2920;0.0043047001;0.0;-0.0014499468;1000.4994;  4.0020683E-01;343.53571;3;6.7353063;0.0;-2.2649603;0;0.03412044;  9.9998076E+03;  0.0000000E+00; -1.3454407E-02;  1.0000000E+04;  0.0000000E+00;  9.9998408E+03;0.018261148;0.0;0.015859295;14.544571
  1.2400014E+00;  9.9999998E-03; -1.0000040E-01;2921;0.0036799358;0.0;-0.0010028592;1000.5013;  4.0020680E-01;344.93005;3;5.718174;0.0;-1.568202;0;0.030066034;  9.9998184E+03;  0.0000000E+00; -9.6442290E-03;  1.0000000E+04;  0.0000000E+00;  9.9998711E+03;0.017183846;0.0;0.012882188;10.703826
  1.2400013E+00;  9.9999998E-03; -8.0000259E-02;2922;0.0031690253;0.0;-0.0006596524;1000.5027;  4.0020680E-01;345.83231;3;4.901567;0.0;-1.0342802;0;0.027338397;  9.9998223E+03;  0.0000000E+00; -5.9188944E-03;  1.0000000E+04;  0.0000000E+00;  9.9998936E+03;0.016779047;0.0;0.010559349;7.2575278
  1.2400011E+00;  9.9999998E-03; -6.0000159E-02;2923;0.002805033;0.0;-0.00040093434;1000.5037;  4.0020680E-01;346.48846;3;4.3303785;0.0;-0.63071746;0;0.025562705;  9.9998223E+03;  0.0000000E+00; -3.0385111E-03;  1.0000000E+04;  0.0000000E+00;  9.9999121E+03;0.01678272;0.0;0.0087799858;4.6661177
  1.2400011E+00;  9.9999998E-03; -4.0000085E-02;2924;0.0025784275;0.0;-0.00021779224;1000.5043;  4.0020683E-01;346.89859;3;3.9823656;0.0;-0.34376866;0;0.024393231;  9.9998193E+03;  0.0000000E+00; -1.2042904E-03;  1.0000000E+04;  0.0000000E+00;  9.9999248E+03;0.016911225;0.0;0.0074820044;3.0212383
  1.2400010E+00;  9.9999998E-03; -2.0000037E-02;2925;0.0024597454;0.0;-9.366827e-05;1000.5046;  4.0020680E-01;347.14465;3;3.8034661;0.0;-0.14886603;0;0.023683721;  9.9998193E+03;  0.0000000E+00; -2.7222559E-04;  1.0000000E+04;  0.0000000E+00;  9.9999346E+03;0.017015204;0.0;0.0066685178;2.1736279
  1.2600024E+00;  9.9999998E-03; -1.6000129E-01;2936;0.0057930849;0.0;-0.0031525269;1000.4754;  4.0020025E-01;313.31882;3;9.3915596;0.0;-5.0187445;0;0.048548214;  9.9997646E+03;  0.0000000E+00;  6.0479711E-03;  1.0000000E+04;  0.0000000E+00;  9.9997354E+03;0.022533344;0.0;0.02601487;14.553071
  1.2600023E+00;  9.9999998E-03; -1.4000101E-01;2937;0.0055610174;0.0;-0.0024904781;1000.4769;  4.0020022E-01;314.34024;3;8.8930864;0.0;-3.9380641;0;0.045757659;  9.9997432E+03;  0.0000000E+00; -6.6242390E-03;  1.0000000E+04;  0.0000000E+00;  9.9997861E+03;0.0246723;0.0;0.021085359;10.866611
  1.2600021E+00;  9.9999998E-03; -1.2000077E-01;2938;0.0052011986;0.0;-0.0019117297;1000.4787;  4.0020022E-01;315.51883;3;8.2234898;0.0;-3.0048277;0;0.042413734;  9.9997383E+03;  0.0000000E+00; -1.0685676E-02;  1.0000000E+04;  0.0000000E+00;  9.9998262E+03;0.025166752;0.0;0.017246982;9.8412485
  1.2600019E+00;  9.9999998E-03; -1.0000057E-01;2939;0.0047653234;0.0;-0.001399396;1000.4805;  4.0020022E-01;316.69745;3;7.4675851;0.0;-2.1910191;0;0.038815174;  9.9997441E+03;  0.0000000E+00; -9.4094379E-03;  1.0000000E+04;  0.0000000E+00;  9.9998574E+03;0.024619922;0.0;0.014195253;7.813972
  1.2600018E+00;  9.9999998E-03; -8.0000386E-02;2940;0.0043335357;0.0;-0.00096044305;1000.4821;  4.0020022E-01;317.7189;3;6.7451043;0.0;-1.501164;0;0.035708793;  9.9997510E+03;  0.0000000E+00; -6.2409556E-03;  1.0000000E+04;  0.0000000E+00;  9.9998818E+03;0.02386589;0.0;0.011842903;5.2912192
  1.2600017E+00;  9.9999998E-03; -6.0000241E-02;2941;0.0039835521;0.0;-0.00060134026;1000.4832;  4.0020022E-01;318.42609;3;6.1713977;0.0;-0.94062543;0;0.03354115;  9.9997549E+03;  0.0000000E+00; -3.2899284E-03;  1.0000000E+04;  0.0000000E+00;  9.9998994E+03;0.023443123;0.0;0.010098028;3.1455247
  1.2600015E+00;  9.9999998E-03; -4.0000133E-02;2942;0.0037467713;0.0;-0.00033463509;1000.4839;  4.0020025E-01;318.89758;3;5.7879119;0.0;-0.52481049;0;0.032220025;  9.9997549E+03;  0.0000000E+00; -1.3228438E-03;  1.0000000E+04;  0.0000000E+00;  9.9999121E+03;0.023358103;0.0;0.0088619227;1.7139679
  1.2600014E+00;  9.9999998E-03; -2.0000057E-02;2943;0.0036147938;0.0;-0.00014614753;1000.4842;  4.0020019E-01;319.1333;3;5.5748496;0.0;-0.22979702;0;0.031497121;  9.9997549E+03;  0.0000000E+00; -3.0293802E-04;  1.0000000E+04;  0.0000000E+00;  9.9999189E+03;0.023401527;0.0;0.0080955932;0.96352792
  1.2800022E+00;  9.9999998E-03; -1.2000097E-01;2953;0.00549741;0.0;-0.0023716581;1000.4662;  4.0019569E-01;293.08142;3;8.8351326;0.0;-3.7848911;0;0.044725984;  9.9997393E+03;  0.0000000E+00;  2.7510196E-03;  1.0000000E+04;  0.0000000E+00;  9.9998008E+03;0.024949906;0.0;0.01977608;6.7878857
  1.2800022E+00;  9.9999998E-03; -1.0000075E-01;2954;0.0053977249;0.0;-0.0018274389;1000.4664;  4.0019572E-01;293.15637;3;8.5813923;0.0;-2.8979132;0;0.044372752;  9.9997080E+03;  0.0000000E+00; -2.7600133E-03;  1.0000000E+04;  0.0000000E+00;  9.9998359E+03;0.028102549;0.0;0.016270204;4.139739
  1.2800021E+00;  9.9999998E-03; -8.0000527E-02;2955;0.0052357959;0.0;-0.0013048775;1000.4669;  4.0019566E-01;293.53113;3;8.2542248;0.0;-2.0602746;0;0.043364778;  9.9996914E+03;  0.0000000E+00; -3.4807096E-03;  1.0000000E+04;  0.0000000E+00;  9.9998643E+03;0.02988092;0.0;0.01348386;2.5544033
  1.2800021E+00;  9.9999998E-03; -6.0000334E-02;2956;0.0050801234;0.0;-0.00083008868;1000.4673;  4.0019566E-01;293.75595;3;7.9589663;0.0;-1.3079187;0;0.042507432;  9.9996787E+03;  0.0000000E+00; -2.1896497E-03;  1.0000000E+04;  0.0000000E+00;  9.9998848E+03;0.031040115;0.0;0.011467319;1.1755128
  1.2800020E+00;  9.9999998E-03; -4.0000185E-02;2957;0.0049658213;0.0;-0.00046447583;1000.4675;  4.0019569E-01;293.90588;3;7.7489362;0.0;-0.73182738;0;0.042055756;  9.9996709E+03;  0.0000000E+00; -9.2181406E-04;  1.0000000E+04;  0.0000000E+00;  9.9998984E+03;0.031889498;0.0;0.010166258;0.66790032
  1.2800020E+00;  9.9999998E-03; -2.0000082E-02;2958;0.0048986827;0.0;-0.00020315708;1000.4677;  4.0019569E-01;293.98083;3;7.6268525;0.0;-0.32031825;0;0.041845646;  9.9996650E+03;  0.0000000E+00; -2.1277207E-04;  1.0000000E+04;  0.0000000E+00;  9.9999063E+03;0.032431263;0.0;0.0094143823;1.0475816
  1.3000022E+00;  9.9999998E-03; -8.0000684E-02;2966;0.005342273;0.0;-0.0016738432;1000.4605;  4.0019250E-01;275.3584;3;8.5890045;0.0;-2.6892164;0;0.040435717;  9.9997441E+03;  0.0000000E+00;  5.5190539E-03;  1.0000000E+04;  0.0000000E+00;  9.9998379E+03;0.024499221;0.0;0.015936494;3.5810971
  1.3000022E+00;  9.9999998E-03; -6.0000438E-02;2967;0.0053950269;0.0;-0.0010735261;1000.4601;  4.0019253E-01;275.14456;3;8.6132889;0.0;-1.7200613;0;0.041232042;  9.9997080E+03;  0.0000000E+00;  1.6493712E-03;  1.0000000E+04;  0.0000000E+00;  9.9998682E+03;0.028205695;0.0;0.013026346;0.91144854
  1.3000022E+00;  9.9999998E-03; -4.0000245E-02;2968;0.0054268874;0.0;-0.00060114334;1000.4595;  4.0019253E-01;274.78815;3;8.6238985;0.0;-0.96205842;0;0.042310987;  9.9996797E+03;  0.0000000E+00;  3.6547595E-04;  1.0000000E+04;  0.0000000E+00;  9.9998857E+03;0.030924367;0.0;0.011386621;0.73874301
  1.3000022E+00;  9.9999998E-03; -2.0000106E-02;2969;0.0054421099;0.0;-0.00026225802;1000.4592;  4.0019250E-01;274.57431;3;8.6249838;0.0;-0.41961068;0;0.043114729;  9.9996631E+03;  0.0000000E+00;  5.0016486E-05;  1.0000000E+04;  0.0000000E+00;  9.9998936E+03;0.032546725;0.0;0.010568004;1.468424
 -5.4633598E-12;  9.9999998E-03;  4.5478711E-19;1045;-3.9052257e-08;0.0;3.4889509e-15;1000.0;  4.0000001E-01;0.0;3;-0.00014342171;0.0;1.325846e-11;0;-7.3326237e-07;  1.0000000E+04;  0.0000000E+00;  5.4825584E-21;  1.0000000E+04;  0.0000000E+00;  1.0000000E+04;-7.3673368e-07;0.0;3.4713379e-09;3.4585041e-06
 -5.4566581E-12;  9.9999998E-03;  2.0000000E-02;1046;-3.9002526e-08;0.0;1.5575952e-10;1000.0;  4.0000001E-01;0.0;3;-0.00014323565;0.0;5.8407403e-07;0;-7.3224788e-07;  1.0000000E+04;  0.0000000E+00; -4.8779992E-16;  1.0000000E+04;  0.0000000E+00;  1.0000000E+04;-7.3589194e-07;0.0;3.6440451e-09;3.5158314e-06
 -5.4360088E-12;  9.9999998E-03;  3.9999999E-02;1047;-3.8849457e-08;0.0;3.2471392e-10;1000.0;  4.0000001E-01;0.0;3;-0.0001426633;0.0;1.2170008e-06;0;-7.2912934e-07;  1.0000000E+04;  0.0000000E+00; -6.7039746E-16;  1.0000000E+04;  0.0000000E+00;  1.0000000E+04;-7.3328977e-07;0.0;4.1604307e-09;3.6899762e-06
 -5.3997375E-12;  9.9999998E-03;  5.9999999E-02;1048;-3.8581131e-08;0.0;5.1975535e-10;1000.0;  4.0000001E-01;0.0;3;-0.00014166093;0.0;1.9463791e-06;0;-7.2367942e-07;  1.0000000E+04;  0.0000000E+00; -7.2136403E-17;  1.0000000E+04;  0.0000000E+00;  1.0000000E+04;-7.286929e-07;0.0;5.0134488e-09;3.9862871e-06
 -5.3450399E-12;  9.9999998E-03;  7.9999998E-02;1049;-3.8177696e-08;0.0;7.5333523e-10;1000.0;  4.0000001E-01;0.0;3;-0.00014015603;0.0;2.8179434e-06;0;-7.1552199e-07;  1.0000000E+04;  0.0000000E+00;  1.1462649E-16;  1.0000000E+04;  0.0000000E+00;  1.0000000E+04;-7.2170724e-07;0.0;6.1852554e-09;4.4098665e-06
 -5.2679384E-12;  9.9999998E-03;  1.0000000E-01;1050;-3.7611123e-08;0.0;1.0371775e-09;1000.0;  4.0000001E-01;0.0;3;-0.00013804639;0.0;3.8744488e-06;0;-7.0413216e-07;  1.0000000E+04;  0.0000000E+00; -3.6444554E-15;  1.0000000E+04;  0.0000000E+00;  1.0000000E+04;-7.1177061e-07;0.0;7.6384294e-09;4.959963e-06
 -5.1633060E-12;  9.9999998E-03;  1.2000000E-01;1051;-3.6845567e-08;0.0;1.379677e-09;1000.0;  4.0000001E-01;0.0;3;-0.0001352019;0.0;5.1459042e-06;0;-6.8884867e-07;  1.0000000E+04;  0.0000000E+00; -3.2090171E-15;  1.0000000E+04;  0.0000000E+00;  1.0000000E+04;-6.9815394e-07;0.0;9.3052961e-09;5.6226727e-06
 -5.0247462E-12;  9.9999998E-03;  1.4000000E-01;1052;-3.5836543e-08;0.0;1.7901644e-09;1000.0;  4.0000001E-01;0.0;3;-0.00013146151;0.0;6.6657863e-06;0;-6.6888464e-07;  1.0000000E+04;  0.0000000E+00;  2.6707692E-15;  1.0000000E+04;  0.0000000E+00;  1.0000000E+04;-6.7995967e-07;0.0;1.1075007e-08;6.3624257e-06
  2.0000000E-02;  9.9999998E-03;  3.4255555E-19;1075;-7.2608096e-08;0.0;2.4525687e-15;1000.0;  4.0000001E-01;0.0;3;-0.00026424936;0.0;9.0080617e-12;0;-1.3489386e-06;  1.0000000E+04;  0.0000000E+00; -2.6088148E-21;  1.0000000E+04;  0.0000000E+00;  1.0000000E+04;-1.3560406e-06;0.0;7.1020656e-09;7.497013e-06
  2.0000000E-02;  9.9999998E-03;  2.0000000E-02;1076;-7.2517167e-08;0.0;3.0094727e-10;1000.0;  4.0000001E-01;0.0;3;-0.00026391036;0.0;1.1259602e-06;0;-1.3470718e-06;  1.0000000E+04;  0.0000000E+00; -1.4508904E-15;  1.0000000E+04;  0.0000000E+00;  1.0000000E+04;-1.35451e-06;0.0;7.4382314e-09;7.6264355e-06
  2.0000000E-02;  9.9999998E-03;  3.9999999E-02;1077;-7.223742e-08;0.0;6.2576011e-10;1000.0;  4.0000001E-01;0.0;3;-0.00026286821;0.0;2.3395787e-06;0;-1.3413414e-06;  1.0000000E+04;  0.0000000E+00; -5.3754267E-16;  1.0000000E+04;  0.0000000E+00;  1.0000000E+04;-1.3497851e-06;0.0;8.4436325e-09;8.019013e-06
  2.0000000E-02;  9.9999998E-03;  5.9999999E-02;1078;-7.1748268e-08;0.0;9.9800035e-10;1000.0;  4.0000001E-01;0.0;3;-0.00026104841;0.0;3.7270997e-06;0;-1.3313506e-06;  1.0000000E+04;  0.0000000E+00;  3.5029654E-16;  1.0000000E+04;  0.0000000E+00;  1.0000000E+04;-1.3414564e-06;0.0;1.0105727e-08;8.6853242e-06
  2.0000000E-02;  9.9999998E-03;  7.9999998E-02;1079;-7.1014519e-08;0.0;1.4401054e-09;1000.0;  4.0000001E-01;0.0;3;-0.00025832403;0.0;5.3700555e-06;0;-1.3164412e-06;  1.0000000E+04;  0.0000000E+00; -2.5666668E-16;  1.0000000E+04;  0.0000000E+00;  1.0000000E+04;-1.3288333e-06;0.0;1.2392147e-08;9.6350605e-06
  2.0000000E-02;  9.9999998E-03;  1.0000000E-01;1080;-6.9986029e-08;0.0;1.9745161e-09;1000.0;  4.0000001E-01;0.0;3;-0.00025451466;0.0;7.3494475e-06;0;-1.2956884e-06;  1.0000000E+04;  0.0000000E+00; -4.3469172E-15;  1.0000000E+04;  0.0000000E+00;  1.0000000E+04;-1.3109217e-06;0.0;1.5233287e-08;1.0865258e-05
  2.0000000E-02;  9.9999998E-03;  1.2000000E-01;1081;-6.8598609e-08;0.0;2.6153466e-09;1000.0;  4.0000001E-01;0.0;3;-0.00024939055;0.0;9.7144539e-06;0;-1.2679167e-06;  1.0000000E+04;  0.0000000E+00; -6.1492856E-15;  1.0000000E+04;  0.0000000E+00;  1.0000000E+04;-1.2864172e-06;0.0;1.850052e-08;1.2344899e-05
  2.0000000E-02;  9.9999998E-03;  1.4000000E-01;1082;-6.6770276e-08;0.0;3.3825962e-09;1000.0;  4.0000001E-01;0.0;3;-0.00024265889;0.0;1.2536296e-05;0;-1.2317198e-06;  1.0000000E+04;  0.0000000E+00; -4.2906767E-15;  1.0000000E+04;  0.0000000E+00;  1.0000000E+04;-1.2537012e-06;0.0;2.1981364e-08;1.399688e-05
  3.9999999E-02;  9.9999998E-03; -7.6220418E-19;1106;-1.3137245e-07;0.0;-5.4985029e-15;1000.0;  4.0000001E-01;0.0;3;-0.00047254845;0.0;-2.0272867e-11;0;-2.4247142e-06;  1.0000000E+04;  0.0000000E+00;  4.0056741E-20;  1.0000000E+04;  0.0000000E+00;  1.0000000E+04;-2.4386504e-06;0.0;1.3936137e-08;1.5778973e-05
  3.9999999E-02;  9.9999998E-03;  2.0000000E-02;1107;-1.3121205e-07;0.0;5.5792865e-10;1000.0;  4.0000001E-01;0.0;3;-0.00047195359;0.0;2.0805735e-06;0;-2.4213941e-06;  1.0000000E+04;  0.0000000E+00; -2.6874590E-16;  1.0000000E+04;  0.0000000E+00;  1.0000000E+04;-2.4359581e-06;0.0;1.456405e-08;1.6059657e-05
  3.9999999E-02;  9.9999998E-03;  3.9999999E-02;1108;-1.3071909e-07;0.0;1.1575757e-09;1000.0;  4.0000001E-01;0.0;3;-0.00047012721;0.0;4.3126274e-06;0;-2.4112069e-06;  1.0000000E+04;  0.0000000E+00;  8.6632095E-16;  1.0000000E+04;  0.0000000E+00;  1.0000000E+04;-2.4276508e-06;0.0;1.6443854e-08;1.6909979e-05
  3.9999999E-02;  9.9999998E-03;  5.9999999E-02;1109;-1.2985804e-07;0.0;1.8407552e-09;1000.0;  4.0000001E-01;0.0;3;-0.00046694296;0.0;6.8474124e-06;0;-2.3934774e-06;  1.0000000E+04;  0.0000000E+00; -2.5602145E-16;  1.0000000E+04;  0.0000000E+00;  1.0000000E+04;-2.413035e-06;0.0;1.9557557e-08;1.8350034e-05
  3.9999999E-02;  9.9999998E-03;  7.9999998E-02;1110;-1.2856833e-07;0.0;2.6466822e-09;1000.0;  4.0000001E-01;0.0;3;-0.00046218629;0.0;9.825324e-06;0;-2.3670657e-06;  1.0000000E+04;  0.0000000E+00;  1.2972371E-15;  1.0000000E+04;  0.0000000E+00;  1.0000000E+04;-2.3909181e-06;0.0;2.3852415e-08;2.039756e-05
  3.9999999E-02;  9.9999998E-03;  1.0000000E-01;1111;-1.2676225e-07;0.0;3.6165524e-09;1000.0;  4.0000001E-01;0.0;3;-0.00045554701;0.0;1.3393059e-05;0;-2.3303699e-06;  1.0000000E+04;  0.0000000E+00;  3.0209138E-15;  1.0000000E+04;  0.0000000E+00;  1.0000000E+04;-2.3595758e-06;0.0;2.9205854e-08;2.304432e-05
  3.9999999E-02;  9.9999998E-03;  1.2000000E-01;1112;-1.2432626e-07;0.0;4.775992e-09;1000.0;  4.0000001E-01;0.0;3;-0.0004466259;0.0;1.7637723e-05;0;-2.2813449e-06;  1.0000000E+04;  0.0000000E+00; -4.7675279E-15;  1.0000000E+04;  0.0000000E+00;  1.0000000E+04;-2.3167277e-06;0.0;3.5382666e-08;2.6225125e-05
  3.9999999E-02;  9.9999998E-03;  1.4000000E-01;1113;-1.2111522e-07;0.0;6.1593579e-09;1000.0;  4.0000001E-01;0.0;3;-0.00043491364;0.0;2.2679103e-05;0;-2.2175334e-06;  1.0000000E+04;  0.0000000E+00; -1.6654142E-14;  1.0000000E+04;  0.0000000E+00;  1.0000000E+04;-2.2595225e-06;0.0;4.1989178e-08;2.9780824e-05
  5.9999999E-02;  9.9999998E-03;  6.5076310E-19;1137;-2.3198376e-07;0.0;6.3280519e-15;1000.0;  4.0000001E-01;0.0;3;-0.00082230545;0.0;2.6501551e-11;0;-4.2717138e-06;  1.0000000E+04;  0.0000000E+00; -1.5207625E-21;  1.0000000E+04;  0.0000000E+00;  1.0000000E+04;-4.2981387e-06;0.0;2.6424795e-08;3.2287178e-05
  5.9999999E-02;  9.9999998E-03;  2.0000000E-02;1138;-2.3171052e-07;0.0;1.0015447e-09;1000.0;  4.0000001E-01;0.0;3;-0.00082129985;0.0;3.7173472e-06;0;-4.2659735e-06;  1.0000000E+04;  0.0000000E+00; -1.6705389E-17;  1.0000000E+04;  0.0000000E+00;  1.0000000E+04;-4.2935358e-06;0.0;2.7562423e-08;3.2874501e-05
  5.9999999E-02;  9.9999998E-03;  3.9999999E-02;1139;-2.308708e-07;0.0;2.0747213e-09;1000.0;  4.0000001E-01;0.0;3;-0.00081821362;0.0;7.6907845e-06;0;-4.2483789e-06;  1.0000000E+04;  0.0000000E+00;  1.9768436E-16;  1.0000000E+04;  0.0000000E+00;  1.0000000E+04;-4.2793527e-06;0.0;3.0973801e-08;3.4651839e-05
  5.9999999E-02;  9.9999998E-03;  5.9999999E-02;1140;-2.2940429e-07;0.0;3.2926817e-09;1000.0;  4.0000001E-01;0.0;3;-0.0008128371;0.0;1.2180891e-05;0;-4.2177717e-06;  1.0000000E+04;  0.0000000E+00; -1.0065542E-15;  1.0000000E+04;  0.0000000E+00;  1.0000000E+04;-4.2544129e-06;0.0;3.6641143e-08;3.7656457e-05
  5.9999999E-02;  9.9999998E-03;  7.9999998E-02;1141;-2.2720813e-07;0.0;4.7228017e-09;1000.0;  4.0000001E-01;0.0;3;-0.00080481381;0.0;1.7424289e-05;0;-4.1722192e-06;  1.0000000E+04;  0.0000000E+00; -5.3482458E-17;  1.0000000E+04;  0.0000000E+00;  1.0000000E+04;-4.2167057e-06;0.0;4.4486768e-08;4.1920492e-05
  5.9999999E-02;  9.9999998E-03;  1.0000000E-01;1142;-2.2413207e-07;0.0;6.438174e-09;1000.0;  4.0000001E-01;0.0;3;-0.00079362403;0.0;2.3676772e-05;0;-4.1089979e-06;  1.0000000E+04;  0.0000000E+00;  9.8902224E-16;  1.0000000E+04;  0.0000000E+00;  1.0000000E+04;-4.1633011e-06;0.0;5.4303126e-08;4.7425514e-05
  5.9999999E-02;  9.9999998E-03;  1.2000000E-01;1143;-2.1997909e-07;0.0;8.4892715e-09;1000.0;  4.0000001E-01;0.0;3;-0.00077858957;0.0;3.1107233e-05;0;-4.0246173e-06;  1.0000000E+04;  0.0000000E+00;  3.3533577E-15;  1.0000000E+04;  0.0000000E+00;  1.0000000E+04;-4.0902887e-06;0.0;6.567145e-08;5.4042204e-05
  5.9999999E-02;  9.9999998E-03;  1.4000000E-01;1144;-2.1449938e-07;0.0;1.0928084e-08;1000.0;  4.0000001E-01;0.0;3;-0.0007588531;0.0;3.9889961e-05;0;-3.9148672e-06;  1.0000000E+04;  0.0000000E+00; -1.4323071E-14;  1.0000000E+04;  0.0000000E+00;  1.0000000E+04;-3.9927477e-06;0.0;7.7880671e-08;6.1456398e-05
  7.9999998E-02;  9.9999998E-03;  4.8384205E-18;1168;-4.0161507e-07;0.0;3.8348302e-14;1000.0;  4.0000001E-01;0.0;3;-0.0013986926;0.0;1.4808185e-10;0;-7.3824904e-06;  1.0000000E+04;  0.0000000E+00;  2.8395052E-20;  1.0000000E+04;  0.0000000E+00;  1.0000000E+04;-7.4311115e-06;0.0;4.8620983e-08;6.4281128e-05
  7.9999998E-02;  9.9999998E-03;  2.0000000E-02;1169;-4.0116296e-07;0.0;1.7466629e-09;1000.0;  4.0000001E-01;0.0;3;-0.0013970472;0.0;6.4401584e-06;0;-7.3728279e-06;  1.0000000E+04;  0.0000000E+00; -3.4130314E-15;  1.0000000E+04;  0.0000000E+00;  1.0000000E+04;-7.4234617e-06;0.0;5.0633815e-08;6.546919e-05
  7.9999998E-02;  9.9999998E-03;  3.9999999E-02;1170;-3.9977351e-07;0.0;3.615007e-09;1000.0;  4.0000001E-01;0.0;3;-0.0013919984;0.0;1.3306782e-05;0;-7.3432061e-06;  1.0000000E+04;  0.0000000E+00; -8.6165279E-16;  1.0000000E+04;  0.0000000E+00;  1.0000000E+04;-7.3998876e-06;0.0;5.668149e-08;6.9061462e-05
  7.9999998E-02;  9.9999998E-03;  5.9999999E-02;1171;-3.9734525e-07;0.0;5.7303549e-09;1000.0;  4.0000001E-01;0.0;3;-0.0013832031;0.0;2.1037657e-05;0;-7.2916887e-06;  1.0000000E+04;  0.0000000E+00; -8.3044518E-16;  1.0000000E+04;  0.0000000E+00;  1.0000000E+04;-7.3584515e-06;0.0;6.6762659e-08;7.5126445e-05
  7.9999998E-02;  9.9999998E-03;  7.9999998E-02;1172;-3.9370539e-07;0.0;8.2106633e-09;1000.0;  4.0000001E-01;0.0;3;-0.0013700781;0.0;3.0038607e-05;0;-7.2150438e-06;  1.0000000E+04;  0.0000000E+00; -1.2122234E-16;  1.0000000E+04;  0.0000000E+00;  1.0000000E+04;-7.2958187e-06;0.0;8.077496e-08;8.3723702e-05
  7.9999998E-02;  9.9999998E-03;  1.0000000E-01;1173;-3.8860099e-07;0.0;1.1179576e-08;1000.0;  4.0000001E-01;0.0;3;-0.0013517711;0.0;4.0732313e-05;0;-7.1087397e-06;  1.0000000E+04;  0.0000000E+00;  5.6601084E-15;  1.0000000E+04;  0.0000000E+00;  1.0000000E+04;-7.207118e-06;0.0;9.8378187e-08;9.4818824e-05
  7.9999998E-02;  9.9999998E-03;  1.2000000E-01;1174;-3.8169594e-07;0.0;1.4735291e-08;1000.0;  4.0000001E-01;0.0;3;-0.0013271528;0.0;5.3443095e-05;0;-6.9669472e-06;  1.0000000E+04;  0.0000000E+00; -1.5124483E-14;  1.0000000E+04;  0.0000000E+00;  1.0000000E+04;-7.0857923e-06;0.0;1.1884485e-07;0.0001081697
  7.9999998E-02;  9.9999998E-03;  1.4000000E-01;1175;-3.7256876e-07;0.0;1.8951898e-08;1000.0;  4.0000001E-01;0.0;3;-0.0012948132;0.0;6.8404137e-05;0;-6.7826095e-06;  1.0000000E+04;  0.0000000E+00; -2.5222124E-14;  1.0000000E+04;  0.0000000E+00;  1.0000000E+04;-6.9235311e-06;0.0;1.4092183e-07;0.00012318199
  1.0000000E-01;  9.9999998E-03;  7.9365374E-18;1199;-6.8371918e-07;0.0;5.9909421e-14;1000.0;  4.0000001E-01;0.0;3;-0.0023330282;0.0;2.2580315e-10;0;-1.2523494e-05;  1.0000000E+04;  0.0000000E+00; -3.7121675E-20;  1.0000000E+04;  0.0000000E+00;  1.0000000E+04;-1.2610546e-05;0.0;8.705247e-08;0.0001246335
  1.0000000E-01;  9.9999998E-03;  2.0000000E-02;1200;-6.8298903e-07;0.0;2.9686871e-09;1000.0;  4.0000001E-01;0.0;3;-0.0023304105;0.0;1.0846421e-05;0;-1.2507601e-05;  1.0000000E+04;  0.0000000E+00; -5.8752666E-15;  1.0000000E+04;  0.0000000E+00;  1.0000000E+04;-1.2598145e-05;0.0;9.0543402e-08;0.00012695973
  1.0000000E-01;  9.9999998E-03;  3.9999999E-02;1201;-6.8074343e-07;0.0;6.1424301e-09;1000.0;  4.0000001E-01;0.0;3;-0.0023223774;0.0;2.239453e-05;0;-1.245888e-05;  1.0000000E+04;  0.0000000E+00;  3.7226124E-15;  1.0000000E+04;  0.0000000E+00;  1.0000000E+04;-1.2559932e-05;0.0;1.0105187e-07;0.00013398989
  1.0000000E-01;  9.9999998E-03;  5.9999999E-02;1202;-6.7681538e-07;0.0;9.7330428e-09;1000.0;  4.0000001E-01;0.0;3;-0.0023083808;0.0;3.5367149e-05;0;-1.2374157e-05;  1.0000000E+04;  0.0000000E+00; -3.0671304E-15;  1.0000000E+04;  0.0000000E+00;  1.0000000E+04;-1.2492784e-05;0.0;1.1862658e-07;0.00014585111
  1.0000000E-01;  9.9999998E-03;  7.9999998E-02;1203;-6.7091526e-07;0.0;1.3946808e-08;1000.0;  4.0000001E-01;0.0;3;-0.0022874707;0.0;5.045889e-05;0;-1.2248142e-05;  1.0000000E+04;  0.0000000E+00; -2.6092856E-15;  1.0000000E+04;  0.0000000E+00;  1.0000000E+04;-1.2391293e-05;0.0;1.4315206e-07;0.00016265865
  1.0000000E-01;  9.9999998E-03;  1.0000000E-01;1204;-6.6262498e-07;0.0;1.8986118e-08;1000.0;  4.0000001E-01;0.0;3;-0.0022582784;0.0;6.8341331e-05;0;-1.2073439e-05;  1.0000000E+04;  0.0000000E+00; -3.7078283E-15;  1.0000000E+04;  0.0000000E+00;  1.0000000E+04;-1.224753e-05;0.0;1.7409054e-07;0.00018436131
  1.0000000E-01;  9.9999998E-03;  1.2000000E-01;1205;-6.5138312e-07;0.0;2.5037078e-08;1000.0;  4.0000001E-01;0.0;3;-0.002218968;0.0;8.9622379e-05;0;-1.1840551e-05;  1.0000000E+04;  0.0000000E+00;  1.0154858E-14;  1.0000000E+04;  0.0000000E+00;  1.0000000E+04;-1.2050768e-05;0.0;2.1021573e-07;0.00021053228
  1.0000000E-01;  9.9999998E-03;  1.4000000E-01;1206;-6.3649111e-07;0.0;3.2199207e-08;1000.0;  4.0000001E-01;0.0;3;-0.0021672668;0.0;0.00011458375;0;-1.1537881e-05;  1.0000000E+04;  0.0000000E+00; -4.3467606E-14;  1.0000000E+04;  0.0000000E+00;  1.0000000E+04;-1.178727e-05;0.0;2.4938896e-07;0.00024009979
  1.2000000E-01;  9.9999998E-03; -9.2939466E-18;1230;-1.1467469e-06;0.0;-9.1800387e-14;1000.0;  4.0000001E-01;0.0;3;-0.0038252114;0.0;-3.8687631e-10;0;-2.0869364e-05;  1.0000000E+04;  0.0000000E+00;  1.6573703E-20;  1.0000000E+04;  0.0000000E+00;  1.0000000E+04;-2.102138e-05;0.0;1.5201704e-07;0.0002355913
  1.2000000E-01;  9.9999998E-03;  2.0000000E-02;1231;-1.1455892e-06;0.0;4.9356279e-09;1000.0;  4.0000001E-01;0.0;3;-0.0038211434;0.0;1.781388e-05;0;-2.0843752e-05;  1.0000000E+04;  0.0000000E+00; -3.1901688E-15;  1.0000000E+04;  0.0000000E+00;  1.0000000E+04;-2.1001713e-05;0.0;1.5796095e-07;0.00024000724
  1.2000000E-01;  9.9999998E-03;  3.9999999E-02;1232;-1.1420252e-06;0.0;1.0214045e-08;1000.0;  4.0000001E-01;0.0;3;-0.0038086518;0.0;3.6769467e-05;0;-2.0765252e-05;  1.0000000E+04;  0.0000000E+00;  6.2699132E-15;  1.0000000E+04;  0.0000000E+00;  1.0000000E+04;-2.0941134e-05;0.0;1.7588202e-07;0.000253351
  1.2000000E-01;  9.9999998E-03;  5.9999999E-02;1233;-1.135781e-06;0.0;1.6188723e-08;1000.0;  4.0000001E-01;0.0;3;-0.0037868656;0.0;5.8041544e-05;0;-2.0628764e-05;  1.0000000E+04;  0.0000000E+00; -8.0782650E-15;  1.0000000E+04;  0.0000000E+00;  1.0000000E+04;-2.0834705e-05;0.0;2.0593983e-07;0.00027586403
  1.2000000E-01;  9.9999998E-03;  7.9999998E-02;1234;-1.1263866e-06;0.0;2.3214382e-08;1000.0;  4.0000001E-01;0.0;3;-0.003754291;0.0;8.279788e-05;0;-2.0425856e-05;  1.0000000E+04;  0.0000000E+00;  3.7662858E-15;  1.0000000E+04;  0.0000000E+00;  1.0000000E+04;-2.0673897e-05;0.0;2.4804049e-07;0.00030777938
  1.2000000E-01;  9.9999998E-03;  1.0000000E-01;1235;-1.1131619e-06;0.0;3.1615553e-08;1000.0;  4.0000001E-01;0.0;3;-0.0037087686;0.0;0.00011207839;0;-2.0144742e-05;  1.0000000E+04;  0.0000000E+00; -1.7778244E-14;  1.0000000E+04;  0.0000000E+00;  1.0000000E+04;-2.0446121e-05;0.0;3.013788e-07;0.00034905004
  1.2000000E-01;  9.9999998E-03;  1.2000000E-01;1236;-1.0951861e-06;0.0;4.1734197e-08;1000.0;  4.0000001E-01;0.0;3;-0.0036473675;0.0;0.00014698837;0;-1.9770248e-05;  1.0000000E+04;  0.0000000E+00; -4.4293735E-14;  1.0000000E+04;  0.0000000E+00;  1.0000000E+04;-2.0134235e-05;0.0;3.6398686e-07;0.00039898342
  1.2000000E-01;  9.9999998E-03;  1.4000000E-01;1237;-1.0713375e-06;0.0;5.3689543e-08;1000.0;  4.0000001E-01;0.0;3;-0.0035665513;0.0;0.00018779778;0;-1.9283667e-05;  1.0000000E+04;  0.0000000E+00; -7.4053746E-14;  1.0000000E+04;  0.0000000E+00;  1.0000000E+04;-1.9716068e-05;0.0;4.3240178e-07;0.00045577838
  1.4000000E-01;  9.9999998E-03; -8.7100102E-19;1261;-1.8963815e-06;0.0;-2.7685562e-14;1000.0;  4.0000001E-01;0.0;3;-0.006174711;0.0;-1.4493251e-10;0;-3.4195058e-05;  1.0000000E+04;  0.0000000E+00; -2.1187797E-20;  1.0000000E+04;  0.0000000E+00;  1.0000000E+04;-3.4454584e-05;0.0;2.5952454e-07;0.00043470899
  1.4000000E-01;  9.9999998E-03;  2.0000000E-02;1262;-1.8945682e-06;0.0;8.0592848e-09;1000.0;  4.0000001E-01;0.0;3;-0.0061684968;0.0;2.8634857e-05;0;-3.4154513e-05;  1.0000000E+04;  0.0000000E+00; -5.6904415E-15;  1.0000000E+04;  0.0000000E+00;  1.0000000E+04;-3.4423974e-05;0.0;2.6946282e-07;0.00044285733
  1.4000000E-01;  9.9999998E-03;  3.9999999E-02;1263;-1.8889851e-06;0.0;1.6684766e-08;1000.0;  4.0000001E-01;0.0;3;-0.0061494149;0.0;5.910176e-05;0;-3.4030243e-05;  1.0000000E+04;  0.0000000E+00;  1.0033272E-14;  1.0000000E+04;  0.0000000E+00;  1.0000000E+04;-3.4329707e-05;0.0;2.9946392e-07;0.00046748412
  1.4000000E-01;  9.9999998E-03;  5.9999999E-02;1264;-1.8791932e-06;0.0;2.6454527e-08;1000.0;  4.0000001E-01;0.0;3;-0.0061161127;0.0;9.3266855e-05;0;-3.3814355e-05;  1.0000000E+04;  0.0000000E+00; -1.7954939E-14;  1.0000000E+04;  0.0000000E+00;  1.0000000E+04;-3.4164255e-05;0.0;3.4989984e-07;0.00050905376
  1.4000000E-01;  9.9999998E-03;  7.9999998E-02;1265;-1.8644445e-06;0.0;3.7967975e-08;1000.0;  4.0000001E-01;0.0;3;-0.0060662865;0.0;0.00013306015;0;-3.3493696e-05;  1.0000000E+04;  0.0000000E+00; -8.6606567E-16;  1.0000000E+04;  0.0000000E+00;  1.0000000E+04;-3.3914483e-05;0.0;4.2078753e-07;0.00056804763
  1.4000000E-01;  9.9999998E-03;  1.0000000E-01;1266;-1.8436569e-06;0.0;5.1732197e-08;1000.0;  4.0000001E-01;0.0;3;-0.0059965998;0.0;0.00018004335;0;-3.3049913e-05;  1.0000000E+04;  0.0000000E+00; -4.9723090E-14;  1.0000000E+04;  0.0000000E+00;  1.0000000E+04;-3.3560951e-05;0.0;5.1103802e-07;0.00064451335
  1.4000000E-01;  9.9999998E-03;  1.2000000E-01;1267;-1.8153842e-06;0.0;6.8343716e-08;1000.0;  4.0000001E-01;0.0;3;-0.0059025907;0.0;0.00023611129;0;-3.2459175e-05;  1.0000000E+04;  0.0000000E+00; -7.6971287E-14;  1.0000000E+04;  0.0000000E+00;  1.0000000E+04;-3.3076925e-05;0.0;6.1774944e-07;0.00073748699
  1.4000000E-01;  9.9999998E-03;  1.4000000E-01;1268;-1.7779674e-06;0.0;8.7906642e-08;1000.0;  4.0000001E-01;0.0;3;-0.005779271;0.0;0.00030133332;0;-3.1691743e-05;  1.0000000E+04;  0.0000000E+00;  4.3715193E-15;  1.0000000E+04;  0.0000000E+00;  1.0000000E+04;-3.2427524e-05;0.0;7.3578263e-07;0.00084428908
  1.6000000E-01;  9.9999998E-03; -4.3760944E-18;1292;-3.092674e-06;0.0;-5.2742739e-14;1000.0;  4.0000001E-01;0.0;3;-0.0098239304;0.0;-2.3993119e-10;0;-5.5145749e-05;  1.0000000E+04;  0.0000000E+00; -2.2089971E-21;  1.0000000E+04;  0.0000000E+00;  1.0000000E+04;-5.5579982e-05;0.0;4.3423233e-07;0.0007840707
  1.6000000E-01;  9.9999998E-03;  2.0000000E-02;1293;-3.0898593e-06;0.0;1.2974374e-08;1000.0;  4.0000001E-01;0.0;3;-0.0098145595;0.0;4.5221881e-05;0;-5.5082546e-05;  1.0000000E+04;  0.0000000E+00; -1.0214566E-14;  1.0000000E+04;  0.0000000E+00;  1.0000000E+04;-5.5533088e-05;0.0;4.5054327e-07;0.00079873553
  1.6000000E-01;  9.9999998E-03;  3.9999999E-02;1294;-3.0811846e-06;0.0;2.6872421e-08;1000.0;  4.0000001E-01;0.0;3;-0.0097857527;0.0;9.3349394e-05;0;-5.4888969e-05;  1.0000000E+04;  0.0000000E+00;  1.5189596E-14;  1.0000000E+04;  0.0000000E+00;  1.0000000E+04;-5.5388795e-05;0.0;4.9982413e-07;0.0008430687
  1.6000000E-01;  9.9999998E-03;  5.9999999E-02;1295;-3.0659146e-06;0.0;4.2640835e-08;1000.0;  4.0000001E-01;0.0;3;-0.0097352723;0.0;0.00014735961;0;-5.4553086e-05;  1.0000000E+04;  0.0000000E+00; -2.2925248E-14;  1.0000000E+04;  0.0000000E+00;  1.0000000E+04;-5.5135915e-05;0.0;5.8283024e-07;0.00091794936
  1.6000000E-01;  9.9999998E-03;  7.9999998E-02;1296;-3.0428205e-06;0.0;6.1267372e-08;1000.0;  4.0000001E-01;0.0;3;-0.0096593844;0.0;0.00021036531;0;-5.4054919e-05;  1.0000000E+04;  0.0000000E+00; -3.8482189E-15;  1.0000000E+04;  0.0000000E+00;  1.0000000E+04;-5.4754819e-05;0.0;6.9990136e-07;0.0010243698
  1.6000000E-01;  9.9999998E-03;  1.0000000E-01;1297;-3.0102894e-06;0.0;8.3479399e-08;1000.0;  4.0000001E-01;0.0;3;-0.0095533011;0.0;0.00028447094;0;-5.3366435e-05;  1.0000000E+04;  0.0000000E+00; -9.0367458E-14;  1.0000000E+04;  0.0000000E+00;  1.0000000E+04;-5.4216285e-05;0.0;8.4985084e-07;0.0011627552
  1.6000000E-01;  9.9999998E-03;  1.2000000E-01;1298;-2.9662535e-06;0.0;1.1018938e-07;1000.0;  4.0000001E-01;0.0;3;-0.0094109504;0.0;0.00037245275;0;-5.2450847e-05;  1.0000000E+04;  0.0000000E+00; -1.5854657E-13;  1.0000000E+04;  0.0000000E+00;  1.0000000E+04;-5.3479816e-05;0.0;1.0289709e-06;0.0013321876
  1.6000000E-01;  9.9999998E-03;  1.4000000E-01;1299;-2.9082466e-06;0.0;1.4159218e-07;1000.0;  4.0000001E-01;0.0;3;-0.0092252418;0.0;0.00047449049;0;-5.126109e-05;  1.0000000E+04;  0.0000000E+00; -5.8838161E-14;  1.0000000E+04;  0.0000000E+00;  1.0000000E+04;-5.2491931e-05;0.0;1.2308424e-06;0.0015295515
  1.7999999E-01;  9.9999998E-03; -7.1352547E-17;1323;-4.9727273e-06;0.0;-4.1821516e-13;1000.0;  4.0000001E-01;0.0;3;-0.015407729;0.0;-1.3587775e-09;0;-8.760413e-05;  1.0000000E+04;  0.0000000E+00; -5.9371399E-20;  1.0000000E+04;  0.0000000E+00;  1.0000000E+04;-8.8317975e-05;0.0;7.1384312e-07;0.0013844224
  1.7999999E-01;  9.9999998E-03;  2.0000000E-02;1324;-4.9683595e-06;0.0;2.0683689e-08;1000.0;  4.0000001E-01;0.0;3;-0.015393614;0.0;7.0522401e-05;0;-8.7507098e-05;  1.0000000E+04;  0.0000000E+00; -3.7642181E-14;  1.0000000E+04;  0.0000000E+00;  1.0000000E+04;-8.8247209e-05;0.0;7.4010779e-07;0.001410253
  1.7999999E-01;  9.9999998E-03;  3.9999999E-02;1325;-4.9548021e-06;0.0;4.294192e-08;1000.0;  4.0000001E-01;0.0;3;-0.015349856;0.0;0.00014593668;0;-8.7210195e-05;  1.0000000E+04;  0.0000000E+00;  3.0005431E-14;  1.0000000E+04;  0.0000000E+00;  1.0000000E+04;-8.8029701e-05;0.0;8.1950833e-07;0.0014883473
  1.7999999E-01;  9.9999998E-03;  5.9999999E-02;1326;-4.9308724e-06;0.0;6.8243438e-08;1000.0;  4.0000001E-01;0.0;3;-0.015272873;0.0;0.0002307181;0;-8.6695851e-05;  1.0000000E+04;  0.0000000E+00; -2.5751994E-14;  1.0000000E+04;  0.0000000E+00;  1.0000000E+04;-8.7649314e-05;0.0;9.53464e-07;0.0016203127
  1.7999999E-01;  9.9999998E-03;  7.9999998E-02;1327;-4.8947445e-06;0.0;9.8078196e-08;1000.0;  4.0000001E-01;0.0;3;-0.015157261;0.0;0.000329403;0;-8.5934524e-05;  1.0000000E+04;  0.0000000E+00;  5.8795572E-15;  1.0000000E+04;  0.0000000E+00;  1.0000000E+04;-8.707762e-05;0.0;1.1431e-06;0.0018081488
  1.7999999E-01;  9.9999998E-03;  1.0000000E-01;1328;-4.8441721e-06;0.0;1.3337825e-07;1000.0;  4.0000001E-01;0.0;3;-0.014996676;0.0;0.00044439142;0;-8.4884196e-05;  1.0000000E+04;  0.0000000E+00; -1.2371298E-13;  1.0000000E+04;  0.0000000E+00;  1.0000000E+04;-8.6271975e-05;0.0;1.3877802e-06;0.0020533802
  1.7999999E-01;  9.9999998E-03;  1.2000000E-01;1329;-4.776191e-06;0.0;1.7559523e-07;1000.0;  4.0000001E-01;0.0;3;-0.014782807;0.0;0.00057993806;0;-8.3488514e-05;  1.0000000E+04;  0.0000000E+00; -4.0453239E-13;  1.0000000E+04;  0.0000000E+00;  1.0000000E+04;-8.5172687e-05;0.0;1.6841724e-06;0.0023563199
  1.7999999E-01;  9.9999998E-03;  1.4000000E-01;1330;-4.6870332e-06;0.0;2.2529257e-07;1000.0;  4.0000001E-01;0.0;3;-0.014505127;0.0;0.00073725008;0;-8.1673061e-05;  1.0000000E+04;  0.0000000E+00; -2.6350588E-13;  1.0000000E+04;  0.0000000E+00;  1.0000000E+04;-8.3699982e-05;0.0;2.0269226e-06;0.0027154835
  2.0000000E-01;  9.9999998E-03; -1.0142367E-17;1354;-7.8755293e-06;0.0;1.54785e-13;1000.0001;  4.0000001E-01;0.098762624;3;-0.023797618;0.0;1.0292718e-09;0;-0.00013717452;  1.0000001E+04;  0.0000000E+00;  5.2629686E-20;  1.0000000E+04;  0.0000000E+00;  1.0000000E+04;-0.00013833006;0.0;1.1555377e-06;0.0023965205
  2.0000000E-01;  9.9999998E-03;  2.0000000E-02;1355;-7.8686971e-06;0.0;3.2866108e-08;1000.0001;  4.0000001E-01;0.098762624;3;-0.023776112;0.0;0.00010950021;0;-0.00013702782;  1.0000001E+04;  0.0000000E+00; -6.6732623E-14;  1.0000000E+04;  0.0000000E+00;  1.0000000E+04;-0.00013822486;0.0;1.1970334e-06;0.0024411827
  2.0000000E-01;  9.9999998E-03;  3.9999999E-02;1356;-7.8475896e-06;0.0;6.8325001e-08;1000.0001;  4.0000001E-01;0.098762624;3;-0.02370974;0.0;0.0002269809;0;-0.00013657972;  1.0000001E+04;  0.0000000E+00;  2.2986540E-14;  1.0000000E+04;  0.0000000E+00;  1.0000000E+04;-0.00013790224;0.0;1.3225217e-06;0.0025761884
  2.0000000E-01;  9.9999998E-03;  5.9999999E-02;1357;-7.8105359e-06;0.0;1.0855523e-07;1000.0001;  4.0000001E-01;0.098762624;3;-0.023593577;0.0;0.00035884514;0;-0.00013580498;  1.0000001E+04;  0.0000000E+00; -1.4937445E-14;  1.0000000E+04;  0.0000000E+00;  1.0000000E+04;-0.00013733951;0.0;1.5345317e-06;0.0028043475
  2.0000000E-01;  9.9999998E-03;  7.9999998E-02;1358;-7.7549848e-06;0.0;1.556818e-07;1000.0001;  4.0000001E-01;0.098762624;3;-0.02342031;0.0;0.00051125942;0;-0.00013466098;  1.0000001E+04;  0.0000000E+00; -5.7745391E-15;  1.0000000E+04;  0.0000000E+00;  1.0000000E+04;-0.00013649682;0.0;1.8358346e-06;0.0031295291
  2.0000000E-01;  9.9999998E-03;  1.0000000E-01;1359;-7.6778406e-06;0.0;2.1091745e-07;1000.0001;  4.0000001E-01;0.098762624;3;-0.023181574;0.0;0.0006869405;0;-0.00013308579;  1.0000001E+04;  0.0000000E+00; -1.6697933E-13;  1.0000000E+04;  0.0000000E+00;  1.0000000E+04;-0.00013531379;0.0;2.2280062e-06;0.0035559274
  2.0000000E-01;  9.9999998E-03;  1.2000000E-01;1360;-7.5748494e-06;0.0;2.766686e-07;1000.0001;  4.0000001E-01;0.098762624;3;-0.022865854;0.0;0.00089285924;0;-0.00013099343;  1.0000001E+04;  0.0000000E+00; -6.8917756E-13;  1.0000000E+04;  0.0000000E+00;  1.0000000E+04;-0.00013370477;0.0;2.7113426e-06;0.0040881136
  2.0000000E-01;  9.9999998E-03;  1.4000000E-01;1361;-7.4403579e-06;0.0;3.5417963e-07;1000.0001;  4.0000001E-01;0.098762624;3;-0.022457814;0.0;0.0011319476;0;-0.00012826697;  1.0000001E+04;  0.0000000E+00; -4.6871469E-13;  1.0000000E+04;  0.0000000E+00;  1.0000000E+04;-0.00013155458;0.0;3.2876128e-06;0.0047318414
  2.2000000E-01;  9.9999998E-03; -3.2483598E-17;1385;-1.2277716e-05;0.0;-5.1708746e-13;1000.0001;  4.0000001E-01;0.098762624;3;-0.036163192;0.0;-2.5238167e-09;0;-0.00021181644;  1.0000001E+04;  0.0000000E+00;  3.0628718E-20;  1.0000000E+04;  0.0000000E+00;  1.0000000E+04;-0.00021366151;0.0;1.8450702e-06;0.004072892
  2.2000000E-01;  9.9999998E-03;  2.0000000E-02;1386;-1.2267294e-05;0.0;5.1926385e-08;1000.0001;  4.0000001E-01;0.098762624;3;-0.036131211;0.0;0.00016910632;0;-0.00021159853;  1.0000001E+04;  0.0000000E+00; -1.8623810E-14;  1.0000000E+04;  0.0000000E+00;  1.0000000E+04;-0.00021350798;0.0;1.9094543e-06;0.0041489182
  2.2000000E-01;  9.9999998E-03;  3.9999999E-02;1387;-1.2235281e-05;0.0;1.0775418e-07;1000.0001;  4.0000001E-01;0.098762624;3;-0.036033139;0.0;0.00034998302;0;-0.00021093375;  1.0000001E+04;  0.0000000E+00;  2.6448853E-14;  1.0000000E+04;  0.0000000E+00;  1.0000000E+04;-0.00021303793;0.0;2.1041783e-06;0.0043786196
  2.2000000E-01;  9.9999998E-03;  5.9999999E-02;1388;-1.2179541e-05;0.0;1.7073828e-07;1000.0001;  4.0000001E-01;0.098762624;3;-0.035862926;0.0;0.00055195647;0;-0.00020978734;  1.0000001E+04;  0.0000000E+00; -1.6885185E-14;  1.0000000E+04;  0.0000000E+00;  1.0000000E+04;-0.00021222085;0.0;2.43351e-06;0.0047666319
  2.2000000E-01;  9.9999998E-03;  7.9999998E-02;1389;-1.2096718e-05;0.0;2.4385983e-07;1000.0001;  4.0000001E-01;0.098762624;3;-0.035611324;0.0;0.00078322843;0;-0.00020809927;  1.0000001E+04;  0.0000000E+00;  1.7070480E-13;  1.0000000E+04;  0.0000000E+00;  1.0000000E+04;-0.00021100261;0.0;2.9033422e-06;0.0053200386
  2.2000000E-01;  9.9999998E-03;  1.0000000E-01;1390;-1.1982629e-05;0.0;3.287694e-07;1000.0001;  4.0000001E-01;0.098762624;3;-0.035267502;0.0;0.0010470499;0;-0.00020577936;  1.0000001E+04;  0.0000000E+00; -2.3858487E-13;  1.0000000E+04;  0.0000000E+00;  1.0000000E+04;-0.00020930011;0.0;3.5207449e-06;0.0060486514
  2.2000000E-01;  9.9999998E-03;  1.2000000E-01;1391;-1.1831076e-05;0.0;4.295255e-07;1000.0001;  4.0000001E-01;0.098762624;3;-0.034815039;0.0;0.0013551709;0;-0.0002026983;  1.0000001E+04;  0.0000000E+00; -5.8871920E-14;  1.0000000E+04;  0.0000000E+00;  1.0000000E+04;-0.00020699453;0.0;4.2962388e-06;0.0069676703
  2.2000000E-01;  9.9999998E-03;  1.4000000E-01;1392;-1.1633748e-05;0.0;5.4839472e-07;1000.0001;  4.0000001E-01;0.098762624;3;-0.034232326;0.0;0.0017125716;0;-0.0001986728;  1.0000001E+04;  0.0000000E+00;  2.1449197E-14;  1.0000000E+04;  0.0000000E+00;  1.0000000E+04;-0.00020392363;0.0;5.2508203e-06;0.0081023974
  2.3999999E-01;  9.9999998E-03;  1.3279936E-16;1416;-1.8857565e-05;0.0;-8.8341247e-14;1000.0001;  4.0000001E-01;0.098762624;3;-0.054063778;0.0;-2.4315021e-09;0;-0.00032269111;  1.0000002E+04;  0.0000000E+00;  4.2150764E-19;  1.0000000E+04;  0.0000000E+00;  1.0000000E+04;-0.00032560027;0.0;2.9091634e-06;0.0068043433
  2.3999999E-01;  9.9999998E-03;  2.0000000E-02;1417;-1.8842346e-05;0.0;8.0825117e-08;1000.0001;  4.0000001E-01;0.098762624;3;-0.054018416;0.0;0.00025738354;0;-0.00032237335;  1.0000002E+04;  0.0000000E+00; -2.2801229E-14;  1.0000000E+04;  0.0000000E+00;  1.0000000E+04;-0.00032538082;0.0;3.0074841e-06;0.0069321375
  2.3999999E-01;  9.9999998E-03;  3.9999999E-02;1418;-1.8795801e-05;0.0;1.6716585e-07;1000.0001;  4.0000001E-01;0.098762624;3;-0.053879932;0.0;0.00053094333;0;-0.00032140556;  1.0000002E+04;  0.0000000E+00;  1.3151500E-13;  1.0000000E+04;  0.0000000E+00;  1.0000000E+04;-0.00032471033;0.0;3.3047609e-06;0.0073178909
  2.3999999E-01;  9.9999998E-03;  5.9999999E-02;1419;-1.8715411e-05;0.0;2.6372683e-07;1000.0001;  4.0000001E-01;0.098762624;3;-0.053641655;0.0;0.00083381415;0;-0.00031974108;  1.0000002E+04;  0.0000000E+00; -7.2220150E-14;  1.0000000E+04;  0.0000000E+00;  1.0000000E+04;-0.00032354885;0.0;3.8077594e-06;0.0079686707
  2.3999999E-01;  9.9999998E-03;  7.9999998E-02;1420;-1.8596751e-05;0.0;3.7490321e-07;1000.0001;  4.0000001E-01;0.098762624;3;-0.053291801;0.0;0.0011777336;0;-0.00031729753;  1.0000002E+04;  0.0000000E+00;  4.5044223E-13;  1.0000000E+04;  0.0000000E+00;  1.0000000E+04;-0.00032182521;0.0;4.5276911e-06;0.0088965027
  2.3999999E-01;  9.9999998E-03;  1.0000000E-01;1421;-1.8433953e-05;0.0;5.0313452e-07;1000.0001;  4.0000001E-01;0.098762624;3;-0.05281575;0.0;0.0015669343;0;-0.00031394683;  1.0000002E+04;  0.0000000E+00; -2.2506376E-13;  1.0000000E+04;  0.0000000E+00;  1.0000000E+04;-0.00031942929;0.0;5.4824709e-06;0.01012155
  2.3999999E-01;  9.9999998E-03;  1.2000000E-01;1422;-1.821789e-05;0.0;6.5507709e-07;1000.0001;  4.0000001E-01;0.098762624;3;-0.052190248;0.0;0.0020204643;0;-0.00030949648;  1.0000002E+04;  0.0000000E+00; -4.1862566E-13;  1.0000000E+04;  0.0000000E+00;  1.0000000E+04;-0.00031620063;0.0;6.7041556e-06;0.011681191
  2.3999999E-01;  9.9999998E-03;  1.4000000E-01;1423;-1.7936592e-05;0.0;8.3425124e-07;1000.0001;  4.0000001E-01;0.098762624;3;-0.051385902;0.0;0.0025447323;0;-0.0003036627;  1.0000002E+04;  0.0000000E+00; -1.7273643E-12;  1.0000000E+04;  0.0000000E+00;  1.0000000E+04;-0.00031191652;0.0;8.2538227e-06;0.013643843
  2.5999999E-01;  9.9999998E-03; -2.0796611E-16;1447;-2.8596589e-05;0.0;-1.0918489e-12;1000.0002;  4.0000001E-01;0.19752523;3;-0.079603665;0.0;-3.518231e-09;0;-0.0004853165;  1.0000004E+04;  0.0000000E+00; -6.3682419E-20;  1.0000000E+04;  0.0000000E+00;  1.0000000E+04;-0.00048984832;0.0;4.5318079e-06;0.011187012
  2.5999999E-01;  9.9999998E-03;  2.0000000E-02;1448;-2.8575361e-05;0.0;1.2303362e-07;1000.0002;  4.0000001E-01;0.19752523;3;-0.079542533;0.0;0.00038298557;0;-0.00048486219;  1.0000004E+04;  0.0000000E+00; -1.6953756E-13;  1.0000000E+04;  0.0000000E+00;  1.0000000E+04;-0.00048954232;0.0;4.6801374e-06;0.011399787
  2.5999999E-01;  9.9999998E-03;  3.9999999E-02;1449;-2.85107e-05;0.0;2.5362243e-07;1000.0002;  4.0000001E-01;0.19752523;3;-0.079356737;0.0;0.00078740763;0;-0.00048347993;  1.0000004E+04;  0.0000000E+00;  2.7758370E-13;  1.0000000E+04;  0.0000000E+00;  1.0000000E+04;-0.0004886082;0.0;5.1282555e-06;0.012041164
  2.5999999E-01;  9.9999998E-03;  5.9999999E-02;1450;-2.839943e-05;0.0;3.9846296e-07;1000.0002;  4.0000001E-01;0.19752523;3;-0.079038367;0.0;0.0012313988;0;-0.00048110969;  1.0000004E+04;  0.0000000E+00; -1.6335529E-13;  1.0000000E+04;  0.0000000E+00;  1.0000000E+04;-0.00048699573;0.0;5.8860519e-06;0.013120654
  2.5999999E-01;  9.9999998E-03;  7.9999998E-02;1451;-2.8235625e-05;0.0;5.6433151e-07;1000.0002;  4.0000001E-01;0.19752523;3;-0.078572556;0.0;0.0017326266;0;-0.00047764165;  1.0000004E+04;  0.0000000E+00;  6.3110547E-13;  1.0000000E+04;  0.0000000E+00;  1.0000000E+04;-0.00048461434;0.0;6.9727007e-06;0.01465657
  2.5999999E-01;  9.9999998E-03;  1.0000000E-01;1452;-2.8010934e-05;0.0;7.5502567e-07;1000.0002;  4.0000001E-01;0.19752523;3;-0.077939786;0.0;0.0022966471;0;-0.00047289726;  1.0000004E+04;  0.0000000E+00;  2.1596474E-13;  1.0000000E+04;  0.0000000E+00;  1.0000000E+04;-0.00048132165;0.0;8.4244066e-06;0.016685603
  2.5999999E-01;  9.9999998E-03;  1.2000000E-01;1453;-2.7712418e-05;0.0;9.8032979e-07;1000.0002;  4.0000001E-01;0.19752523;3;-0.077108428;0.0;0.0029510907;0;-0.00046659628;  1.0000004E+04;  0.0000000E+00; -1.9391181E-12;  1.0000000E+04;  0.0000000E+00;  1.0000000E+04;-0.000476908;0.0;1.0311731e-05;0.019285621
  2.5999999E-01;  9.9999998E-03;  1.4000000E-01;1454;-2.7323134e-05;0.0;1.2461328e-06;1000.0002;  4.0000001E-01;0.19752523;3;-0.076039217;0.0;0.0037057374;0;-0.00045830774;  1.0000004E+04;  0.0000000E+00; -1.9640528E-12;  1.0000000E+04;  0.0000000E+00;  1.0000000E+04;-0.00047107635;0.0;1.2768612e-05;0.02260888
  2.8000000E-01;  9.9999998E-03;  2.1654906E-16;1478;-4.2929401e-05;0.0;1.2432112e-12;1000.0002;  4.0000001E-01;0.19752523;3;-0.115689;0.0;3.624379e-09;0;-0.00072113588;  1.0000005E+04;  0.0000000E+00;  1.9053984E-19;  1.0000000E+04;  0.0000000E+00;  1.0000000E+04;-0.00072811107;0.0;6.9751968e-06;0.01811742
  2.8000000E-01;  9.9999998E-03;  2.0000000E-02;1479;-4.2900789e-05;0.0;1.8305555e-07;1000.0002;  4.0000001E-01;0.19752523;3;-0.11560972;0.0;0.00055671536;0;-0.00072049716;  1.0000005E+04;  0.0000000E+00; -1.1644193E-13;  1.0000000E+04;  0.0000000E+00;  1.0000000E+04;-0.00072769466;0.0;7.1975028e-06;0.018469444
  2.8000000E-01;  9.9999998E-03;  3.9999999E-02;1480;-4.2813735e-05;0.0;3.7634462e-07;1000.0002;  4.0000001E-01;0.19752523;3;-0.11536925;0.0;0.0011412425;0;-0.00071855786;  1.0000005E+04;  0.0000000E+00;  1.4629446E-13;  1.0000000E+04;  0.0000000E+00;  1.0000000E+04;-0.00072642602;0.0;7.8681369e-06;0.019528506
  2.8000000E-01;  9.9999998E-03;  5.9999999E-02;1481;-4.2664258e-05;0.0;5.8945415e-07;1000.0002;  4.0000001E-01;0.19752523;3;-0.1149588;0.0;0.0017783551;0;-0.00071524299;  1.0000005E+04;  0.0000000E+00; -8.7330493E-14;  1.0000000E+04;  0.0000000E+00;  1.0000000E+04;-0.00072424294;0.0;8.9999676e-06;0.021304753
  2.8000000E-01;  9.9999998E-03;  7.9999998E-02;1482;-4.2444728e-05;0.0;8.3271112e-07;1000.0002;  4.0000001E-01;0.19752523;3;-0.11436128;0.0;0.0024941217;0;-0.00071041007;  1.0000005E+04;  0.0000000E+00;  3.1705416E-13;  1.0000000E+04;  0.0000000E+00;  1.0000000E+04;-0.00072103221;0.0;1.0622123e-05;0.023821687
  2.8000000E-01;  9.9999998E-03;  1.0000000E-01;1483;-4.2143838e-05;0.0;1.1123092e-06;1000.0002;  4.0000001E-01;0.19752523;3;-0.11355229;0.0;0.0032972782;0;-0.00070381811;  1.0000005E+04;  0.0000000E+00;  1.6306652E-12;  1.0000000E+04;  0.0000000E+00;  1.0000000E+04;-0.0007166157;0.0;1.2797594e-05;0.027137913
  2.8000000E-01;  9.9999998E-03;  1.2000000E-01;1484;-4.1743417e-05;0.0;1.4421385e-06;1000.0002;  4.0000001E-01;0.19752523;3;-0.11248896;0.0;0.0042268732;0;-0.00069506816;  1.0000005E+04;  0.0000000E+00; -1.1628207E-12;  1.0000000E+04;  0.0000000E+00;  1.0000000E+04;-0.00071072625;0.0;1.5658105e-05;0.031397115
  2.8000000E-01;  9.9999998E-03;  1.4000000E-01;1485;-4.1219555e-05;0.0;1.8320916e-06;1000.0002;  4.0000001E-01;0.19752523;3;-0.11111919;0.0;0.0052983859;0;-0.00068352098;  1.0000005E+04;  0.0000000E+00; -1.6492326E-12;  1.0000000E+04;  0.0000000E+00;  1.0000000E+04;-0.00070297957;0.0;1.9458586e-05;0.036900647
  2.9999998E-01;  9.9999998E-03; -7.3637148E-16;1509;-6.3931446e-05;0.0;-3.5032229e-12;1000.0004;  4.0000001E-01;0.39505041;3;-0.16635033;0.0;-9.8881472e-09;0;-0.0010595495;  1.0000008E+04;  0.0000000E+00;  4.0004680E-18;  1.0000000E+04;  0.0000000E+00;  1.0000000E+04;-0.0010701561;0.0;1.060656e-05;0.028924074
  2.9999998E-01;  9.9999998E-03;  2.0000000E-02;1510;-6.3893589e-05;0.0;2.6735225e-07;1000.0004;  4.0000001E-01;0.39505041;3;-0.16624962;0.0;0.00079425838;0;-0.0010586649;  1.0000008E+04;  0.0000000E+00; -3.6116458E-13;  1.0000000E+04;  0.0000000E+00;  1.0000000E+04;-0.0010696049;0.0;1.0939972e-05;0.029504389
  2.9999998E-01;  9.9999998E-03;  3.9999999E-02;1511;-6.3778352e-05;0.0;5.4874886e-07;1000.0004;  4.0000001E-01;0.39505041;3;-0.16594429;0.0;0.0016243227;0;-0.0010559825;  1.0000008E+04;  0.0000000E+00; -2.5725773E-13;  1.0000000E+04;  0.0000000E+00;  1.0000000E+04;-0.0010679261;0.0;1.1943553e-05;0.031246355
  2.9999998E-01;  9.9999998E-03;  5.9999999E-02;1512;-6.3580999e-05;0.0;8.5746763e-07;1000.0004;  4.0000001E-01;0.39505041;3;-0.16542637;0.0;0.0025221505;0;-0.0010514121;  1.0000008E+04;  0.0000000E+00;  1.8031547E-13;  1.0000000E+04;  0.0000000E+00;  1.0000000E+04;-0.001065043;0.0;1.363092e-05;0.034155041
  2.9999998E-01;  9.9999998E-03;  7.9999998E-02;1513;-6.32925e-05;0.0;1.2088624e-06;1000.0004;  4.0000001E-01;0.39505041;3;-0.16467933;0.0;0.0035250755;0;-0.0010447778;  1.0000008E+04;  0.0000000E+00; -6.4985257E-13;  1.0000000E+04;  0.0000000E+00;  1.0000000E+04;-0.0010608181;0.0;1.6040234e-05;0.03825143
  2.9999998E-01;  9.9999998E-03;  1.0000000E-01;1514;-6.2898725e-05;0.0;1.6135343e-06;1000.0004;  4.0000001E-01;0.39505041;3;-0.16367717;0.0;0.0046496768;0;-0.0010357618;  1.0000008E+04;  0.0000000E+00;  2.4530723E-12;  1.0000000E+04;  0.0000000E+00;  1.0000000E+04;-0.0010550293;0.0;1.926756e-05;0.043615252
  2.9999998E-01;  9.9999998E-03;  1.2000000E-01;1515;-6.2374798e-05;0.0;2.0916191e-06;1000.0003;  4.0000001E-01;0.2962878;3;-0.16236459;0.0;0.0059521329;0;-0.0010238169;  1.0000008E+04;  0.0000000E+00; -2.6784666E-12;  1.0000000E+04;  0.0000000E+00;  1.0000000E+04;-0.0010473488;0.0;2.3531975e-05;0.050485212
  2.9999998E-01;  9.9999998E-03;  1.4000000E-01;1516;-6.1684637e-05;0.0;2.660599e-06;1000.0003;  4.0000001E-01;0.2962878;3;-0.16066517;0.0;0.0074616042;0;-0.001008019;  1.0000008E+04;  0.0000000E+00; -4.3654221E-12;  1.0000000E+04;  0.0000000E+00;  1.0000000E+04;-0.0010372946;0.0;2.9275681e-05;0.059408773
  3.1999996E-01;  9.9999998E-03; -8.0002246E-16;1540;-9.4520939e-05;0.0;-4.3572051e-12;1000.0005;  4.0000001E-01;0.49381301;3;-0.23709846;0.0;-1.5246634e-08;0;-0.0015403216;  1.0000012E+04;  0.0000000E+00;  7.2032480E-19;  1.0000000E+04;  0.0000000E+00;  1.0000000E+04;-0.0015562543;0.0;1.5932716e-05;0.045543496
  3.1999996E-01;  9.9999998E-03;  2.0000000E-02;1541;-9.4471026e-05;0.0;3.8566952e-07;1000.0005;  4.0000001E-01;0.49381301;3;-0.2369709;0.0;0.0011195856;0;-0.001539106;  1.0000012E+04;  0.0000000E+00; -3.7008780E-13;  1.0000000E+04;  0.0000000E+00;  1.0000000E+04;-0.0015555429;0.0;1.6436867e-05;0.046498772
  3.1999996E-01;  9.9999998E-03;  3.9999999E-02;1542;-9.4319294e-05;0.0;7.9099561e-07;1000.0005;  4.0000001E-01;0.49381301;3;-0.23658574;0.0;0.0022853049;0;-0.0015354303;  1.0000012E+04;  0.0000000E+00;  6.4969303E-13;  1.0000000E+04;  0.0000000E+00;  1.0000000E+04;-0.0015533805;0.0;1.7950171e-05;0.049359892
  3.1999996E-01;  9.9999998E-03;  5.9999999E-02;1543;-9.4060197e-05;0.0;1.2342761e-06;1000.0005;  4.0000001E-01;0.49381301;3;-0.23593752;0.0;0.0035369394;0;-0.0015291877;  1.0000012E+04;  0.0000000E+00; -7.7378967E-13;  1.0000000E+04;  0.0000000E+00;  1.0000000E+04;-0.0015496684;0.0;2.0480707e-05;0.054114647
  3.1999996E-01;  9.9999998E-03;  7.9999998E-02;1544;-9.368256e-05;0.0;1.7376717e-06;1000.0005;  4.0000001E-01;0.49381301;3;-0.23501071;0.0;0.0049260808;0;-0.0015201692;  1.0000012E+04;  0.0000000E+00;  2.1458163E-12;  1.0000000E+04;  0.0000000E+00;  1.0000000E+04;-0.0015442366;0.0;2.4067383e-05;0.060760982
  3.1999996E-01;  9.9999998E-03;  1.0000000E-01;1545;-9.3168848e-05;0.0;2.3185523e-06;1000.0005;  4.0000001E-01;0.49381301;3;-0.23378058;0.0;0.0064807567;0;-0.001507977;  1.0000012E+04;  0.0000000E+00;  5.0898179E-12;  1.0000000E+04;  0.0000000E+00;  1.0000000E+04;-0.001536814;0.0;2.8836981e-05;0.069382593
  3.1999996E-01;  9.9999998E-03;  1.2000000E-01;1546;-9.248592e-05;0.0;3.0082217e-06;1000.0005;  4.0000001E-01;0.39505041;3;-0.23218073;0.0;0.0082879746;0;-0.0014918846;  1.0000012E+04;  0.0000000E+00;  2.1562265E-13;  1.0000000E+04;  0.0000000E+00;  1.0000000E+04;-0.0015270035;0.0;3.511893e-05;0.080336161
  3.1999999E-01;  9.9999998E-03;  1.4000000E-01;1547;-9.1582937e-05;0.0;3.835863e-06;1000.0005;  4.0000001E-01;0.39505041;3;-0.23010781;0.0;0.010401505;0;-0.0014706001;  1.0000012E+04;  0.0000000E+00;  8.4032451E-12;  1.0000000E+04;  0.0000000E+00;  1.0000000E+04;-0.001514227;0.0;4.36269e-05;0.094549045
  3.3999997E-01;  9.9999998E-03;  2.0684966E-15;1571;-0.00013858058;0.0;1.440501e-11;1000.0009;  4.0000001E-01;0.79010075;3;-0.33500355;0.0;5.7419356e-08;0;-0.0022161037;  1.0000018E+04;  0.0000000E+00; -1.4946645E-18;  1.0000000E+04;  0.0000000E+00;  1.0000000E+04;-0.0022397474;0.0;2.3643786e-05;0.070744842
  3.3999997E-01;  9.9999998E-03;  2.0000000E-02;1572;-0.00013851465;0.0;5.5280822e-07;1000.0009;  4.0000001E-01;0.79010075;3;-0.33484218;0.0;0.0015689856;0;-0.0022144392;  1.0000018E+04;  0.0000000E+00; -3.3024999E-13;  1.0000000E+04;  0.0000000E+00;  1.0000000E+04;-0.0022388559;0.0;2.4416768e-05;0.072316095
  3.3999997E-01;  9.9999998E-03;  3.9999999E-02;1573;-0.00013831415;0.0;1.1340413e-06;1000.0009;  4.0000001E-01;0.79010075;3;-0.3343558;0.0;0.0031986847;0;-0.0022094147;  1.0000018E+04;  0.0000000E+00;  5.8705184E-13;  1.0000000E+04;  0.0000000E+00;  1.0000000E+04;-0.0022361446;0.0;2.6729962e-05;0.077013925
  3.3999997E-01;  9.9999998E-03;  5.9999999E-02;1574;-0.00013797196;0.0;1.770129e-06;1000.0009;  4.0000001E-01;0.79010075;3;-0.3335422;0.0;0.0049409471;0;-0.0022009178;  1.0000018E+04;  0.0000000E+00;  1.3417514E-12;  1.0000000E+04;  0.0000000E+00;  1.0000000E+04;-0.0022314908;0.0;3.0573039e-05;0.084788553
  3.3999997E-01;  9.9999998E-03;  7.9999998E-02;1575;-0.00013747351;0.0;2.4929745e-06;1000.0009;  4.0000001E-01;0.79010075;3;-0.33238801;0.0;0.0068652965;0;-0.0021887079;  1.0000018E+04;  0.0000000E+00; -7.8113060E-14;  1.0000000E+04;  0.0000000E+00;  1.0000000E+04;-0.0022246721;0.0;3.5964113e-05;0.095575131
  3.3999997E-01;  9.9999998E-03;  1.0000000E-01;1576;-0.00013679586;0.0;3.330239e-06;1000.0009;  4.0000001E-01;0.69133818;3;-0.33086947;0.0;0.0090178493;0;-0.002172319;  1.0000018E+04;  0.0000000E+00;  3.3509851E-12;  1.0000000E+04;  0.0000000E+00;  1.0000000E+04;-0.0022153575;0.0;4.3038621e-05;0.10941318
  3.3999997E-01;  9.9999998E-03;  1.2000000E-01;1577;-0.00013589778;0.0;4.3266341e-06;1000.0009;  4.0000001E-01;0.69133818;3;-0.32891676;0.0;0.011518737;0;-0.0021508243;  1.0000018E+04;  0.0000000E+00; -3.4611190E-12;  1.0000000E+04;  0.0000000E+00;  1.0000000E+04;-0.0022030664;0.0;5.2242143e-05;0.12677652
  3.3999997E-01;  9.9999998E-03;  1.4000000E-01;1578;-0.00013471482;0.0;5.5272894e-06;1000.0009;  4.0000001E-01;0.69133818;3;-0.3264111;0.0;0.01446206;0;-0.0021224841;  1.0000018E+04;  0.0000000E+00; -2.0257739E-12;  1.0000000E+04;  0.0000000E+00;  1.0000000E+04;-0.0021871375;0.0;6.4653388e-05;0.14913979
  3.5999995E-01;  9.9999998E-03; -1.6827219E-16;1602;-0.00020094719;0.0;-3.2950122e-11;1000.0013;  4.0000001E-01;1.0863883;3;-0.46847746;0.0;-1.7809356e-07;0;-0.0031548326;  1.0000025E+04;  0.0000000E+00; -1.8826215E-18;  1.0000000E+04;  0.0000000E+00;  1.0000000E+04;-0.0031894988;0.0;3.4666165e-05;0.10840121
  3.5999995E-01;  9.9999998E-03;  2.0000000E-02;1603;-0.00020085931;0.0;7.9100909e-07;1000.0013;  4.0000001E-01;1.0863883;3;-0.46827188;0.0;0.0021959378;0;-0.003152549;  1.0000025E+04;  0.0000000E+00; -6.7785865E-13;  1.0000000E+04;  0.0000000E+00;  1.0000000E+04;-0.0031884182;0.0;3.5869296e-05;0.11097988
  3.5999995E-01;  9.9999998E-03;  3.9999999E-02;1604;-0.00020059179;0.0;1.6251396e-06;1000.0013;  4.0000001E-01;1.0863883;3;-0.46765363;0.0;0.0044767344;0;-0.0031456703;  1.0000025E+04;  0.0000000E+00; -1.8929494E-14;  1.0000000E+04;  0.0000000E+00;  1.0000000E+04;-0.0031851302;0.0;3.945997e-05;0.1186832
  3.5999995E-01;  9.9999998E-03;  6.0000002E-02;1605;-0.0002001345;0.0;2.5426184e-06;1000.0013;  4.0000001E-01;1.0863883;3;-0.46662408;0.0;0.0069139111;0;-0.0031340828;  1.0000025E+04;  0.0000000E+00;  1.9422417E-12;  1.0000000E+04;  0.0000000E+00;  1.0000000E+04;-0.0031794712;0.0;4.5388555e-05;0.13139988
  3.5999995E-01;  9.9999998E-03;  7.9999998E-02;1606;-0.00019946824;0.0;3.590417e-06;1000.0013;  4.0000001E-01;1.0863883;3;-0.46517655;0.0;0.009603167;0;-0.0031175469;  1.0000025E+04;  0.0000000E+00; -3.3878821E-14;  1.0000000E+04;  0.0000000E+00;  1.0000000E+04;-0.0031711585;0.0;5.3611584e-05;0.14894378
  3.5999995E-01;  9.9999998E-03;  1.0000000E-01;1607;-0.00019856397;0.0;4.8103157e-06;1000.0012;  4.0000001E-01;0.98762578;3;-0.46329409;0.0;0.012614113;0;-0.0030955363;  1.0000025E+04;  0.0000000E+00;  1.4360378E-11;  1.0000000E+04;  0.0000000E+00;  1.0000000E+04;-0.0031597521;0.0;6.4215928e-05;0.17121923
  3.5999995E-01;  9.9999998E-03;  1.2000000E-01;1608;-0.00019737567;0.0;6.2600234e-06;1000.0012;  4.0000001E-01;0.98762578;3;-0.46092096;0.0;0.016093528;0;-0.0030669423;  1.0000025E+04;  0.0000000E+00;  1.2530688E-11;  1.0000000E+04;  0.0000000E+00;  1.0000000E+04;-0.0031446724;0.0;7.7730139e-05;0.19877043
  3.5999995E-01;  9.9999998E-03;  1.4000000E-01;1609;-0.00019582838;0.0;8.0032869e-06;1000.0012;  4.0000001E-01;0.98762578;3;-0.45793733;0.0;0.020186858;0;-0.003029512;  1.0000025E+04;  0.0000000E+00;  3.1186838E-11;  1.0000000E+04;  0.0000000E+00;  9.9999990E+03;-0.0031251924;0.0;9.5680422e-05;0.23380955
  3.7999994E-01;  9.9999998E-03; -1.7705657E-15;1633;-0.00028748941;0.0;-1.4298389e-12;1000.0018;  4.0000001E-01;1.4814385;3;-0.64696652;0.0;2.5132977e-08;0;-0.0044420627;  1.0000037E+04;  0.0000000E+00;  1.5270538E-17;  1.0000000E+04;  0.0000000E+00;  1.0000000E+04;-0.0044922824;0.0;5.0219744e-05;0.16379218
  3.7999994E-01;  9.9999998E-03;  2.0000000E-02;1634;-0.0002873714;0.0;1.1321387e-06;1000.0018;  4.0000001E-01;1.4814385;3;-0.64670342;0.0;0.0030757906;0;-0.0044389213;  1.0000037E+04;  0.0000000E+00; -5.2171386E-13;  1.0000000E+04;  0.0000000E+00;  1.0000000E+04;-0.0044910335;0.0;5.2112358e-05;0.1679991
  3.7999994E-01;  9.9999998E-03;  3.9999999E-02;1635;-0.00028701188;0.0;2.3321988e-06;1000.0018;  4.0000001E-01;1.4814385;3;-0.64591414;0.0;0.0062767277;0;-0.0044294694;  1.0000037E+04;  0.0000000E+00;  2.4038725E-12;  1.0000000E+04;  0.0000000E+00;  1.0000000E+04;-0.0044872211;0.0;5.77516e-05;0.18057197
  3.7999994E-01;  9.9999998E-03;  6.0000002E-02;1636;-0.00028639581;0.0;3.6638608e-06;1000.0018;  4.0000001E-01;1.4814385;3;-0.6446054;0.0;0.0097091328;0;-0.004413614;  1.0000037E+04;  0.0000000E+00;  2.0845079E-12;  1.0000000E+04;  0.0000000E+00;  1.0000000E+04;-0.0044806362;0.0;6.7021967e-05;0.20132972
  3.7999994E-01;  9.9999998E-03;  7.9999998E-02;1637;-0.00028549795;0.0;5.1978031e-06;1000.0018;  4.0000001E-01;1.4814385;3;-0.64278209;0.0;0.013509316;0;-0.0043911384;  1.0000037E+04;  0.0000000E+00;  1.9412618E-12;  1.0000000E+04;  0.0000000E+00;  1.0000000E+04;-0.0044708932;0.0;7.9754616e-05;0.22990759
  3.7999994E-01;  9.9999998E-03;  1.0000000E-01;1638;-0.00028428674;0.0;6.9931821e-06;1000.0018;  4.0000001E-01;1.4814385;3;-0.64045584;0.0;0.017768882;0;-0.0043615187;  1.0000037E+04;  0.0000000E+00;  1.3081088E-11;  1.0000000E+04;  0.0000000E+00;  9.9999990E+03;-0.0044574039;0.0;9.5885327e-05;0.26595387
  3.7999994E-01;  9.9999998E-03;  1.2000000E-01;1639;-0.00028271676;0.0;9.1204147e-06;1000.0018;  4.0000001E-01;1.4814385;3;-0.63760722;0.0;0.022664148;0;-0.0043234946;  1.0000037E+04;  0.0000000E+00;  1.6064780E-11;  1.0000000E+04;  0.0000000E+00;  9.9999990E+03;-0.0044394238;0.0;0.000115929;0.30998668
  3.7999994E-01;  9.9999998E-03;  1.4000000E-01;1640;-0.00028071387;0.0;1.1655609e-05;1000.0018;  4.0000001E-01;1.4814385;3;-0.63415158;0.0;0.028369186;0;-0.0042742556;  1.0000037E+04;  0.0000000E+00;  1.3342671E-11;  1.0000000E+04;  0.0000000E+00;  9.9999990E+03;-0.0044161552;0.0;0.00014189963;0.36516884
  3.9999989E-01;  9.9999998E-03; -5.0627773E-16;1664;-0.00040559366;0.0;-1.8686384e-11;1000.0027;  4.0000001E-01;2.2715385;3;-0.88083982;0.0;-7.949609e-08;0;-0.0061831721;  1.0000054E+04;  0.0000000E+00;  3.7956812E-18;  1.0000000E+04;  0.0000000E+00;  1.0000000E+04;-0.0062550376;0.0;7.1865594e-05;0.24387662
  3.9999989E-01;  9.9999998E-03;  2.0000000E-02;1665;-0.00040543638;0.0;1.6176713e-06;1000.0027;  4.0000001E-01;2.2715385;3;-0.88050622;0.0;0.0043040537;0;-0.0061788447;  1.0000054E+04;  0.0000000E+00;  1.6195225E-12;  1.0000000E+04;  0.0000000E+00;  1.0000000E+04;-0.0062536937;0.0;7.4849006e-05;0.25066286
  3.9999989E-01;  9.9999998E-03;  3.9999999E-02;1666;-0.00040495628;0.0;3.3447807e-06;1000.0027;  4.0000001E-01;2.2715385;3;-0.87950873;0.0;0.0088029578;0;-0.00616583;  1.0000054E+04;  0.0000000E+00;  2.3710109E-12;  1.0000000E+04;  0.0000000E+00;  1.0000000E+04;-0.0062495684;0.0;8.373848e-05;0.27098578
  3.9999989E-01;  9.9999998E-03;  6.0000002E-02;1667;-0.00040413335;0.0;5.2826204e-06;1000.0027;  4.0000001E-01;2.2715385;3;-0.87786579;0.0;0.013656862;0;-0.0061440854;  1.0000054E+04;  0.0000000E+00; -3.5876395E-12;  1.0000000E+04;  0.0000000E+00;  9.9999990E+03;-0.0062424131;0.0;9.8327735e-05;0.30464563
  3.9999989E-01;  9.9999998E-03;  7.9999998E-02;1668;-0.00040293791;0.0;7.5409275e-06;1000.0026;  4.0000001E-01;2.172776;3;-0.87560743;0.0;0.019077793;0;-0.0061134575;  1.0000054E+04;  0.0000000E+00;  3.6376915E-12;  1.0000000E+04;  0.0000000E+00;  9.9999990E+03;-0.0062317038;0.0;0.00011824634;0.35110855
  3.9999989E-01;  9.9999998E-03;  1.0000000E-01;1669;-0.00040134109;0.0;1.0199708e-05;1000.0026;  4.0000001E-01;2.172776;3;-0.87279999;0.0;0.025163079;0;-0.0060734758;  1.0000054E+04;  0.0000000E+00;  1.4518086E-11;  1.0000000E+04;  0.0000000E+00;  9.9999990E+03;-0.0062166117;0.0;0.00014313591;0.4096866
  3.9999989E-01;  9.9999998E-03;  1.2000000E-01;1670;-0.00039930621;0.0;1.3348007e-05;1000.0026;  4.0000001E-01;2.172776;3;-0.86948639;0.0;0.032156389;0;-0.0060227541;  1.0000054E+04;  0.0000000E+00;  3.2473666E-11;  1.0000000E+04;  0.0000000E+00;  9.9999990E+03;-0.0061960872;0.0;0.00017333332;0.48080015
  3.9999989E-01;  9.9999998E-03;  1.4000000E-01;1671;-0.0003967747;0.0;1.7053515e-05;1000.0026;  4.0000001E-01;2.172776;3;-0.86567378;0.0;0.040172819;0;-0.0059579401;  1.0000054E+04;  0.0000000E+00;  5.0630049E-11;  1.0000000E+04;  0.0000000E+00;  9.9999990E+03;-0.0061692405;0.0;0.0002113005;0.56884736
  4.1999984E-01;  9.9999998E-03; -5.3989677E-15;1695;-0.00056537479;0.0;-7.2070067e-12;1000.0038;  4.0000001E-01;3.1604004;3;-1.1822772;0.0;9.4486268e-09;0;-0.0085031865;  1.0000077E+04;  0.0000000E+00;  7.7925261E-18;  1.0000000E+04;  0.0000000E+00;  9.9999990E+03;-0.0086047063;0.0;0.00010151949;0.35735643
  4.1999984E-01;  9.9999998E-03;  2.0000001E-02;1696;-0.0005651688;0.0;2.2975698e-06;1000.0038;  4.0000001E-01;3.1604004;3;-1.1818609;0.0;0.005997241;0;-0.0084972316;  1.0000077E+04;  0.0000000E+00;  2.3325302E-12;  1.0000000E+04;  0.0000000E+00;  9.9999990E+03;-0.0086034192;0.0;0.00010618759;0.36812058
  4.1999984E-01;  9.9999998E-03;  4.0000003E-02;1697;-0.00056454295;0.0;4.765996e-06;1000.0038;  4.0000001E-01;3.1604004;3;-1.1806295;0.0;0.012286922;0;-0.0084793521;  1.0000077E+04;  0.0000000E+00; -2.9355379E-12;  1.0000000E+04;  0.0000000E+00;  9.9999990E+03;-0.0085994666;0.0;0.00012011495;0.40046847
  4.1999984E-01;  9.9999998E-03;  6.0000002E-02;1698;-0.00056347472;0.0;7.5745706e-06;1000.0038;  4.0000001E-01;3.1604004;3;-1.1786252;0.0;0.019151038;0;-0.0084495712;  1.0000077E+04;  0.0000000E+00; -2.6437268E-12;  1.0000000E+04;  0.0000000E+00;  9.9999990E+03;-0.0085925711;0.0;0.00014300038;0.45437542
  4.1999984E-01;  9.9999998E-03;  8.0000006E-02;1699;-0.00056194083;0.0;1.08874e-05;1000.0038;  4.0000001E-01;3.1604004;3;-1.1759421;0.0;0.026893366;0;-0.0084078116;  1.0000077E+04;  0.0000000E+00; -9.9077977E-12;  1.0000000E+04;  0.0000000E+00;  9.9999990E+03;-0.0085820267;0.0;0.00017421506;0.52934068
  4.1999984E-01;  9.9999998E-03;  1.0000000E-01;1700;-0.0005599226;0.0;1.4827609e-05;1000.0037;  4.0000001E-01;3.0616379;3;-1.172727;0.0;0.035670411;0;-0.0083536562;  1.0000077E+04;  0.0000000E+00; -1.1021697E-12;  1.0000000E+04;  0.0000000E+00;  9.9999990E+03;-0.008566631;0.0;0.00021297479;0.62450099
  4.1999984E-01;  9.9999998E-03;  1.2000000E-01;1701;-0.00055740273;0.0;1.9522518e-05;1000.0037;  4.0000001E-01;3.0616379;3;-1.1691294;0.0;0.045820709;0;-0.008285637;  1.0000076E+04;  0.0000000E+00;  1.5969222E-11;  1.0000000E+04;  0.0000000E+00;  9.9999980E+03;-0.0085448502;0.0;0.00025921303;0.74029261
  4.1999984E-01;  9.9999998E-03;  1.4000000E-01;1702;-0.00055435614;0.0;2.4982639e-05;1000.0037;  4.0000001E-01;3.0616379;3;-1.1653192;0.0;0.057229847;0;-0.0081998389;  1.0000076E+04;  0.0000000E+00;  5.2524169E-11;  1.0000000E+04;  0.0000000E+00;  9.9999971E+03;-0.0085155908;0.0;0.00031575214;0.88309336
  4.3999976E-01;  9.9999998E-03; -8.8305514E-15;1726;-0.00078167993;0.0;-3.6693943e-11;1000.0053;  4.0000001E-01;4.4443111;3;-1.5673325;0.0;-1.0899453e-07;0;-0.011536652;  1.0000107E+04;  0.0000000E+00; -2.1974910E-17;  1.0000000E+04;  0.0000000E+00;  9.9999990E+03;-0.011678057;0.0;0.00014140418;0.51415592
  4.3999976E-01;  9.9999998E-03;  2.0000001E-02;1727;-0.00078142044;0.0;3.2250246e-06;1000.0053;  4.0000001E-01;4.4443111;3;-1.5668303;0.0;0.008287766;0;-0.01152851;  1.0000107E+04;  0.0000000E+00;  3.3985557E-12;  1.0000000E+04;  0.0000000E+00;  9.9999990E+03;-0.011677102;0.0;0.00014859212;0.53086185
  4.3999976E-01;  9.9999998E-03;  4.0000003E-02;1728;-0.00078063871;0.0;6.7082256e-06;1000.0053;  4.0000001E-01;4.4443111;3;-1.5653642;0.0;0.017003331;0;-0.011504091;  1.0000107E+04;  0.0000000E+00;  1.9909322E-12;  1.0000000E+04;  0.0000000E+00;  9.9999990E+03;-0.011674175;0.0;0.00017008353;0.5812934
  4.3999976E-01;  9.9999998E-03;  6.0000002E-02;1729;-0.00077932188;0.0;1.0728462e-05;1000.0053;  4.0000001E-01;4.4443111;3;-1.5630322;0.0;0.026657498;0;-0.011463458;  1.0000107E+04;  0.0000000E+00;  2.0677854E-12;  1.0000000E+04;  0.0000000E+00;  9.9999990E+03;-0.011668989;0.0;0.00020553035;0.66604459
  4.3999976E-01;  9.9999998E-03;  8.0000006E-02;1730;-0.00077747315;0.0;1.5516185e-05;1000.0053;  4.0000001E-01;4.4443111;3;-1.5600592;0.0;0.037583303;0;-0.011406592;  1.0000107E+04;  0.0000000E+00;  4.5771052E-12;  1.0000000E+04;  0.0000000E+00;  9.9999990E+03;-0.011660664;0.0;0.00025407248;0.78524953
  4.3999976E-01;  9.9999998E-03;  1.0000001E-01;1731;-0.00077509956;0.0;2.1328651e-05;1000.0052;  4.0000001E-01;4.3455491;3;-1.5567012;0.0;0.050342627;0;-0.011333083;  1.0000107E+04;  0.0000000E+00; -9.0988207E-12;  1.0000000E+04;  0.0000000E+00;  9.9999971E+03;-0.011647504;0.0;0.00031442064;0.93848419
  4.3999976E-01;  9.9999998E-03;  1.2000000E-01;1732;-0.0007722188;0.0;2.8343713e-05;1000.0052;  4.0000001E-01;4.3455491;3;-1.5533072;0.0;0.065226696;0;-0.011241309;  1.0000107E+04;  0.0000000E+00;  3.0413092E-11;  1.0000000E+04;  0.0000000E+00;  9.9999971E+03;-0.011627266;0.0;0.00038595698;1.1271361
  4.3999976E-01;  9.9999998E-03;  1.4000002E-01;1733;-0.00076884928;0.0;3.6447593e-05;1000.0051;  4.0000001E-01;4.1480241;3;-1.550266;0.0;0.081749305;0;-0.011126547;  1.0000106E+04;  0.0000000E+00;  1.5455905E-10;  1.0000000E+04;  0.0000000E+00;  9.9999961E+03;-0.011598535;0.0;0.00047198732;1.3619238
  4.5999965E-01;  9.9999998E-03;  3.1315909E-14;1757;-0.0010760757;0.0;1.2762606e-10;1000.0076;  4.0000015E-01;6.3207946;3;-2.0583515;0.0;2.6741702e-07;0;-0.015393849;  1.0000148E+04;  0.0000000E+00; -1.5220161E-17;  1.0000000E+04;  0.0000000E+00;  9.9999990E+03;-0.015587769;0.0;0.00019392025;0.72378647
  4.5999965E-01;  9.9999998E-03;  2.0000001E-02;1758;-0.0010757663;0.0;4.4497469e-06;1000.0076;  4.0000015E-01;6.3207946;3;-2.0577707;0.0;0.011319627;0;-0.015382802;  1.0000148E+04;  0.0000000E+00;  2.0762875E-12;  1.0000000E+04;  0.0000000E+00;  9.9999990E+03;-0.015587544;0.0;0.00020474204;0.74905527
  4.5999965E-01;  9.9999998E-03;  4.0000003E-02;1759;-0.0010748492;0.0;9.278313e-06;1000.0076;  4.0000015E-01;6.3207946;3;-2.0561218;0.0;0.023251003;0;-0.015349679;  1.0000148E+04;  0.0000000E+00;  1.0394192E-11;  1.0000000E+04;  0.0000000E+00;  9.9999990E+03;-0.015586865;0.0;0.00023718688;0.82571566
  4.5999965E-01;  9.9999998E-03;  6.0000002E-02;1760;-0.0010733414;0.0;1.4931553e-05;1000.0076;  4.0000013E-01;6.2220321;3;-2.0535979;0.0;0.036692303;0;-0.01529455;  1.0000148E+04;  0.0000000E+00;  7.1807209E-12;  1.0000000E+04;  0.0000000E+00;  9.9999971E+03;-0.015585532;0.0;0.00029098272;0.95574474
  4.5999965E-01;  9.9999998E-03;  8.0000006E-02;1761;-0.0010713116;0.0;2.1734166e-05;1000.0076;  4.0000013E-01;6.2220321;3;-2.0506661;0.0;0.051966794;0;-0.015217382;  1.0000148E+04;  0.0000000E+00;  1.7901819E-11;  1.0000000E+04;  0.0000000E+00;  9.9999971E+03;-0.015582553;0.0;0.00036517184;1.1410347
  4.5999965E-01;  9.9999998E-03;  1.0000001E-01;1762;-0.0010688194;0.0;3.0187386e-05;1000.0075;  4.0000013E-01;6.2220321;3;-2.0477462;0.0;0.070410885;0;-0.015117669;  1.0000148E+04;  0.0000000E+00;  4.9417644E-11;  1.0000000E+04;  0.0000000E+00;  9.9999971E+03;-0.015575756;0.0;0.00045808704;1.3832502
  4.5999965E-01;  9.9999998E-03;  1.2000001E-01;1763;-0.0010659499;0.0;4.0478477e-05;1000.0074;  4.0000015E-01;6.1232696;3;-2.0455847;0.0;0.091787785;0;-0.014993289;  1.0000148E+04;  0.0000000E+00;  1.5598065E-10;  1.0000000E+04;  0.0000000E+00;  9.9999961E+03;-0.015562098;0.0;0.00056880794;1.6876993
  4.5999965E-01;  9.9999998E-03;  1.4000002E-01;1764;-0.0010626576;0.0;5.2685496e-05;1000.0073;  4.0000015E-01;6.0245075;3;-2.0444667;0.0;0.11660072;0;-0.014837856;  1.0000146E+04;  0.0000000E+00;  3.0970967E-10;  1.0000000E+04;  0.0000000E+00;  9.9999941E+03;-0.015539958;0.0;0.00070210174;2.0761464
  4.7999951E-01;  9.9999998E-03; -2.0707235E-14;1788;-0.0014769715;0.0;-1.2114747e-11;1000.0107;  4.0000042E-01;8.8886108;3;-2.6845002;0.0;1.2344992e-07;0;-0.020090923;  1.0000200E+04;  0.0000000E+00; -9.4438509E-17;  1.0000000E+04;  0.0000000E+00;  9.9999990E+03;-0.020352358;0.0;0.00026143563;0.99221975
  4.7999951E-01;  9.9999998E-03;  2.0000001E-02;1789;-0.001476628;0.0;6.0135076e-06;1000.0107;  4.0000042E-01;8.8886108;3;-2.6838686;0.0;0.015229817;0;-0.020076048;  1.0000200E+04;  0.0000000E+00; -5.7084797E-12;  1.0000000E+04;  0.0000000E+00;  9.9999980E+03;-0.020353347;0.0;0.0002772997;1.0293376
  4.7999951E-01;  9.9999998E-03;  4.0000003E-02;1790;-0.0014756323;0.0;1.2581467e-05;1000.0107;  4.0000042E-01;8.8886108;3;-2.682142;0.0;0.031371992;0;-0.020031439;  1.0000200E+04;  0.0000000E+00;  4.3386540E-13;  1.0000000E+04;  0.0000000E+00;  9.9999971E+03;-0.02035642;0.0;0.00032498216;1.1424334
  4.7999951E-01;  9.9999998E-03;  6.0000006E-02;1791;-0.0014740701;0.0;2.033533e-05;1000.0107;  4.0000042E-01;8.8886108;3;-2.6797101;0.0;0.04969791;0;-0.019957187;  1.0000200E+04;  0.0000000E+00;  3.3283205E-12;  1.0000000E+04;  0.0000000E+00;  9.9999971E+03;-0.020361647;0.0;0.00040446056;1.3358893
  4.7999951E-01;  9.9999998E-03;  8.0000006E-02;1792;-0.0014721132;0.0;2.9862285e-05;1000.0107;  4.0000042E-01;8.8886108;3;-2.6773388;0.0;0.071063116;0;-0.019853212;  1.0000200E+04;  0.0000000E+00;  3.0642919E-11;  1.0000000E+04;  0.0000000E+00;  9.9999961E+03;-0.020368202;0.0;0.00051498885;1.6152365
  4.7999951E-01;  9.9999998E-03;  1.0000001E-01;1793;-0.0014699193;0.0;4.1965341e-05;1000.0107;  4.0000042E-01;8.8886108;3;-2.6758037;0.0;0.097388856;0;-0.01971874;  1.0000200E+04;  0.0000000E+00;  1.4745537E-10;  1.0000000E+04;  0.0000000E+00;  9.9999951E+03;-0.020373754;0.0;0.00065501424;1.9875562
  4.7999951E-01;  9.9999998E-03;  1.2000001E-01;1794;-0.0014676669;0.0;5.686123e-05;1000.0106;  4.0000039E-01;8.7898483;3;-2.6763382;0.0;0.12801588;0;-0.019550305;  1.0000200E+04;  0.0000000E+00;  4.3762713E-10;  1.0000000E+04;  0.0000000E+00;  9.9999941E+03;-0.020374948;0.0;0.00082464365;2.4698033
  4.7999951E-01;  9.9999998E-03;  1.4000002E-01;1795;-0.0014650855;0.0;7.5231779e-05;1000.0104;  4.0000045E-01;8.6910858;3;-2.6789544;0.0;0.165194;0;-0.019337105;  1.0000200E+04;  0.0000000E+00;  6.7667172E-10;  1.0000000E+04;  0.0000000E+00;  9.9999912E+03;-0.020370515;0.0;0.0010334107;3.111526
  4.9999928E-01;  9.9999998E-03;  6.4463824E-15;1819;-0.0020159988;0.0;1.702012e-10;1000.0151;  4.0000090E-01;12.542805;3;-3.4782364;0.0;7.2742853e-07;0;-0.02545049;  1.0000262E+04;  0.0000000E+00; -3.0412516E-17;  1.0000000E+04;  0.0000000E+00;  9.9999971E+03;-0.025796434;0.0;0.00034594274;1.3174512
  4.9999928E-01;  9.9999998E-03;  2.0000001E-02;1820;-0.0020156458;0.0;7.9591064e-06;1000.0151;  4.0000090E-01;12.542805;3;-3.4775984;0.0;0.020173591;0;-0.025430648;  1.0000262E+04;  0.0000000E+00;  4.7494912E-12;  1.0000000E+04;  0.0000000E+00;  9.9999971E+03;-0.02579915;0.0;0.00036850153;1.3701562
  4.9999928E-01;  9.9999998E-03;  4.0000003E-02;1821;-0.0020146575;0.0;1.6732036e-05;1000.015;  4.0000090E-01;12.444043;3;-3.4759407;0.0;0.041758098;0;-0.025371203;  1.0000262E+04;  0.0000000E+00;  9.4826074E-12;  1.0000000E+04;  0.0000000E+00;  9.9999971E+03;-0.025807643;0.0;0.00043644043;1.5312452
  4.9999928E-01;  9.9999998E-03;  6.0000006E-02;1822;-0.0020132372;0.0;2.7204524e-05;1000.015;  4.0000084E-01;12.345281;3;-3.4739735;0.0;0.066505745;0;-0.025272349;  1.0000262E+04;  0.0000000E+00;  2.1692471E-11;  1.0000000E+04;  0.0000000E+00;  9.9999961E+03;-0.025822556;0.0;0.00055020588;1.8087229
  4.9999928E-01;  9.9999998E-03;  8.0000013E-02;1823;-0.0020116954;0.0;4.036917e-05;1000.0149;  4.0000084E-01;12.345281;3;-3.4728458;0.0;0.0961757;0;-0.025134124;  1.0000262E+04;  0.0000000E+00;  1.1465713E-10;  1.0000000E+04;  0.0000000E+00;  9.9999951E+03;-0.025843795;0.0;0.00070967234;2.2142627
  4.9999928E-01;  9.9999998E-03;  1.0000002E-01;1824;-0.0020103834;0.0;5.7289551e-05;1000.0148;  4.0000087E-01;12.246518;3;-3.4740202;0.0;0.132743;0;-0.024955116;  1.0000263E+04;  0.0000000E+00;  4.4039403E-10;  1.0000000E+04;  0.0000000E+00;  9.9999932E+03;-0.025869872;0.0;0.0009147565;2.7672977
  4.9999928E-01;  9.9999998E-03;  1.2000002E-01;1825;-0.0020094838;0.0;7.8756457e-05;1000.0147;  4.0000087E-01;12.147756;3;-3.4789314;0.0;0.17716874;0;-0.024727985;  1.0000262E+04;  0.0000000E+00;  8.8870689E-10;  1.0000000E+04;  0.0000000E+00;  9.9999902E+03;-0.025898317;0.0;0.0011703307;3.5140431
  4.9999928E-01;  9.9999998E-03;  1.4000003E-01;1826;-0.0020083978;0.0;0.00010607154;1000.0145;  4.0000087E-01;12.048994;3;-3.4876859;0.0;0.2318968;0;-0.024430694;  1.0000262E+04;  0.0000000E+00;  1.8967179E-09;  1.0000000E+04;  0.0000000E+00;  9.9999873E+03;-0.025929863;0.0;0.0014991679;4.5693955
  5.1999897E-01;  9.9999998E-03; -3.4913217E-14;1850;-0.0027199036;0.0;-5.9414015e-11;1000.0223;  4.0000251E-01;18.468515;3;-4.4670401;0.0;-2.068906e-07;0;-0.031006793;  1.0000327E+04;  0.0000000E+00;  1.1364525E-16;  1.0000000E+04;  0.0000000E+00;  9.9999971E+03;-0.031455215;0.0;0.00044842163;1.6845571
  5.1999897E-01;  9.9999998E-03;  2.0000003E-02;1851;-0.0027195709;0.0;1.034356e-05;1000.0223;  4.0000251E-01;18.468515;3;-4.4664388;0.0;0.026340595;0;-0.030980719;  1.0000327E+04;  0.0000000E+00; -4.7729442E-12;  1.0000000E+04;  0.0000000E+00;  9.9999961E+03;-0.031460188;0.0;0.00047946878;1.7565806
  5.1999897E-01;  9.9999998E-03;  4.0000007E-02;1852;-0.0027186919;0.0;2.1881573e-05;1000.0222;  4.0000251E-01;18.369753;3;-4.4650126;0.0;0.05489929;0;-0.030902708;  1.0000327E+04;  0.0000000E+00;  1.0103061E-11;  1.0000000E+04;  0.0000000E+00;  9.9999961E+03;-0.031475808;0.0;0.00057310116;1.9771254
  5.1999897E-01;  9.9999998E-03;  6.0000010E-02;1853;-0.0027176302;0.0;3.5826597e-05;1000.0222;  4.0000251E-01;18.369753;3;-4.4638968;0.0;0.087967336;0;-0.030773396;  1.0000327E+04;  0.0000000E+00;  6.5831951E-11;  1.0000000E+04;  0.0000000E+00;  9.9999951E+03;-0.031503748;0.0;0.00073035329;2.3588288
  5.1999897E-01;  9.9999998E-03;  8.0000013E-02;1854;-0.0027168898;0.0;5.3802061e-05;1000.022;  4.0000248E-01;18.27099;3;-4.4647508;0.0;0.12876193;0;-0.030593229;  1.0000327E+04;  0.0000000E+00;  3.0375838E-10;  1.0000000E+04;  0.0000000E+00;  9.9999932E+03;-0.031545728;0.0;0.00095249852;2.9235773
  5.1999897E-01;  9.9999998E-03;  1.0000002E-01;1855;-0.0027170824;0.0;7.7313183e-05;1000.022;  4.0000248E-01;18.172228;3;-4.4700136;0.0;0.17962329;0;-0.030358657;  1.0000327E+04;  0.0000000E+00;  9.2305957E-10;  1.0000000E+04;  0.0000000E+00;  9.9999893E+03;-0.031602602;0.0;0.0012439454;3.7169888
  5.1999897E-01;  9.9999998E-03;  1.2000003E-01;1856;-0.0027183148;0.0;0.00010801783;1000.0219;  4.0000251E-01;18.073465;3;-4.4813366;0.0;0.24326572;0;-0.030052194;  1.0000327E+04;  0.0000000E+00;  2.1136917E-09;  1.0000000E+04;  0.0000000E+00;  9.9999863E+03;-0.031675149;0.0;0.0016229547;4.8513622
  5.1999897E-01;  9.9999998E-03;  1.4000005E-01;1857;-0.0027194673;0.0;0.00014779158;1000.0216;  4.0000248E-01;17.875942;3;-4.4988379;0.0;0.32166135;0;-0.029624466;  1.0000328E+04;  0.0000000E+00;  3.9940162E-09;  1.0000000E+04;  0.0000000E+00;  9.9999814E+03;-0.031769019;0.0;0.0021445525;6.5842934
  5.3999859E-01;  9.9999998E-03;  1.9686404E-14;1881;-0.0035980823;0.0;-2.5610625e-10;1000.0353;  4.0000653E-01;29.23353;3;-5.6599569;0.0;-1.5221091e-06;0;-0.035956252;  1.0000387E+04;  0.0000000E+00; -3.5873202E-18;  1.0000000E+04;  0.0000000E+00;  9.9999961E+03;-0.036524277;0.0;0.00056802633;2.0619898
  5.3999859E-01;  9.9999998E-03;  2.0000003E-02;1882;-0.0035978041;0.0;1.3222172e-05;1000.0353;  4.0000653E-01;29.23353;3;-5.6594477;0.0;0.033889972;0;-0.03592255;  1.0000387E+04;  0.0000000E+00;  3.3545282E-12;  1.0000000E+04;  0.0000000E+00;  9.9999961E+03;-0.036531955;0.0;0.00060940685;2.1564951
  5.3999859E-01;  9.9999998E-03;  4.0000007E-02;1883;-0.0035971403;0.0;2.8188162e-05;1000.0353;  4.0000650E-01;29.23353;3;-5.6584229;0.0;0.071249314;0;-0.035822004;  1.0000388E+04;  0.0000000E+00;  2.8247384E-11;  1.0000000E+04;  0.0000000E+00;  9.9999951E+03;-0.036556222;0.0;0.00073421828;2.4459994
  5.3999859E-01;  9.9999998E-03;  6.0000010E-02;1884;-0.0035966488;0.0;4.6552541e-05;1000.0352;  4.0000650E-01;29.134768;3;-5.6585121;0.0;0.11508515;0;-0.035656191;  1.0000388E+04;  0.0000000E+00;  1.5105353E-10;  1.0000000E+04;  0.0000000E+00;  9.9999932E+03;-0.036600377;0.0;0.00094418536;2.948786
  5.3999859E-01;  9.9999998E-03;  8.0000021E-02;1885;-0.0035971354;0.0;7.0811147e-05;1000.0351;  4.0000650E-01;29.036005;3;-5.6622467;0.0;0.17056669;0;-0.035425548;  1.0000388E+04;  0.0000000E+00;  5.7555227E-10;  1.0000000E+04;  0.0000000E+00;  9.9999902E+03;-0.036669031;0.0;0.0012434816;3.7042501
  5.3999859E-01;  9.9999998E-03;  1.0000002E-01;1886;-0.0035994437;0.0;0.00010304808;1000.035;  4.0000650E-01;28.937244;3;-5.6728587;0.0;0.24055414;0;-0.035120297;  1.0000390E+04;  0.0000000E+00;  1.7788891E-09;  1.0000000E+04;  0.0000000E+00;  9.9999863E+03;-0.036767561;0.0;0.0016472643;4.8107471
  5.3999859E-01;  9.9999998E-03;  1.2000004E-01;1887;-0.0036035876;0.0;0.00014622552;1000.0347;  4.0000647E-01;28.739719;3;-5.6926041;0.0;0.32997602;0;-0.03469805;  1.0000391E+04;  0.0000000E+00;  3.9981143E-09;  1.0000000E+04;  0.0000000E+00;  9.9999814E+03;-0.036903083;0.0;0.002205034;6.5177264
  5.3999859E-01;  9.9999998E-03;  1.4000006E-01;1888;-0.0036079073;0.0;0.00020264555;1000.0344;  4.0000647E-01;28.443434;3;-5.7217808;0.0;0.44061333;0;-0.034047529;  1.0000392E+04;  0.0000000E+00;  7.5561868E-09;  1.0000000E+04;  0.0000000E+00;  9.9999727E+03;-0.037088443;0.0;0.0030409126;9.3668261
  5.5999815E-01;  9.9999998E-03; -1.6606110E-14;1912;-0.0046272762;0.0;2.7726019e-10;1000.0648;  4.0001750E-01;53.726357;3;-7.0301213;0.0;1.8044536e-06;0;-0.039168391;  1.0000429E+04;  0.0000000E+00;  1.1294912E-16;  1.0000000E+04;  0.0000000E+00;  9.9999951E+03;-0.039869908;0.0;0.00070151628;2.4011467
  5.5999815E-01;  9.9999998E-03;  2.0000003E-02;1913;-0.0046270788;0.0;1.6658918e-05;1000.0648;  4.0001750E-01;53.726357;3;-7.0297637;0.0;0.042996958;0;-0.039125383;  1.0000429E+04;  0.0000000E+00;  8.1422993E-12;  1.0000000E+04;  0.0000000E+00;  9.9999951E+03;-0.039880469;0.0;0.00075508811;2.5203228
  5.5999815E-01;  9.9999998E-03;  4.0000007E-02;1914;-0.0046267188;0.0;3.5716785e-05;1000.0648;  4.0001753E-01;53.627594;3;-7.029304;0.0;0.090912513;0;-0.038997512;  1.0000429E+04;  0.0000000E+00;  6.6902810E-11;  1.0000000E+04;  0.0000000E+00;  9.9999932E+03;-0.039914012;0.0;0.00091649842;2.8850989
  5.5999815E-01;  9.9999998E-03;  6.0000014E-02;1915;-0.0046270373;0.0;5.956474e-05;1000.0647;  4.0001753E-01;53.627594;3;-7.0310912;0.0;0.1482874;0;-0.038787518;  1.0000429E+04;  0.0000000E+00;  2.7272387E-10;  1.0000000E+04;  0.0000000E+00;  9.9999922E+03;-0.039975863;0.0;0.0011883449;3.5210533
  5.5999815E-01;  9.9999998E-03;  8.0000021E-02;1916;-0.004629144;0.0;9.1663438e-05;1000.0645;  4.0001747E-01;53.430073;3;-7.0384378;0.0;0.22239372;0;-0.038493961;  1.0000431E+04;  0.0000000E+00;  9.7280484E-10;  1.0000000E+04;  0.0000000E+00;  9.9999873E+03;-0.040074561;0.0;0.0015806009;4.4981365
  5.5999815E-01;  9.9999998E-03;  1.0000003E-01;1917;-0.0046342532;0.0;0.00013496513;1000.0643;  4.0001750E-01;53.33131;3;-7.0560346;0.0;0.3162562;0;-0.038090587;  1.0000433E+04;  0.0000000E+00;  2.7718556E-09;  1.0000000E+04;  0.0000000E+00;  9.9999824E+03;-0.040221773;0.0;0.0021311853;6.0152431
  5.5999815E-01;  9.9999998E-03;  1.2000005E-01;1918;-0.0046422505;0.0;0.00019414694;1000.064;  4.0001747E-01;53.035027;3;-7.0865493;0.0;0.43967938;0;-0.037480224;  1.0000434E+04;  0.0000000E+00;  5.9904708E-09;  1.0000000E+04;  0.0000000E+00;  9.9999756E+03;-0.040432919;0.0;0.0029526951;8.5794001
  5.5999815E-01;  9.9999998E-03;  1.4000008E-01;1919;-0.0046505639;0.0;0.00027247664;1000.0635;  4.0001747E-01;52.541218;3;-7.1306367;0.0;0.5917483;0;-0.036429364;  1.0000436E+04;  0.0000000E+00;  1.0346497E-08;  1.0000000E+04;  0.0000000E+00;  9.9999619E+03;-0.040727999;0.0;0.0042986362;13.240452
  5.7999766E-01;  9.9999998E-03; -2.4107880E-13;1943;-0.0057379925;0.0;-1.159246e-10;1000.138;  4.0004665E-01;114.36565;3;-8.4965954;0.0;2.252491e-06;0;-0.03927343;  1.0000435E+04;  0.0000000E+00; -1.2139782E-16;  1.0000000E+04;  0.0000000E+00;  9.9999941E+03;-0.040116746;0.0;0.0008433148;2.6417935
  5.7999766E-01;  9.9999998E-03;  2.0000005E-02;1944;-0.00573789;0.0;2.0584312e-05;1000.138;  4.0004665E-01;114.36565;3;-8.4964056;0.0;0.053392243;0;-0.039218772;  1.0000435E+04;  0.0000000E+00;  1.5298748E-11;  1.0000000E+04;  0.0000000E+00;  9.9999941E+03;-0.040129766;0.0;0.0009109939;2.7868278
  5.7999766E-01;  9.9999998E-03;  4.0000010E-02;1945;-0.0057379296;0.0;4.4277382e-05;1000.1379;  4.0004665E-01;114.26688;3;-8.4967365;0.0;0.11319427;0;-0.039056707;  1.0000435E+04;  0.0000000E+00;  8.2540287E-11;  1.0000000E+04;  0.0000000E+00;  9.9999922E+03;-0.040171258;0.0;0.0011145495;3.2301099
  5.7999766E-01;  9.9999998E-03;  6.0000017E-02;1946;-0.0057392074;0.0;7.4775773e-05;1000.1378;  4.0004665E-01;114.16812;3;-8.5005207;0.0;0.18716602;0;-0.038790677;  1.0000436E+04;  0.0000000E+00;  3.6663964E-10;  1.0000000E+04;  0.0000000E+00;  9.9999893E+03;-0.040248539;0.0;0.0014578622;4.0075617
  5.7999766E-01;  9.9999998E-03;  8.0000028E-02;1947;-0.0057433387;0.0;0.00011595197;1000.1376;  4.0004662E-01;114.06936;3;-8.5123329;0.0;0.28259316;0;-0.038412202;  1.0000437E+04;  0.0000000E+00;  1.1834072E-09;  1.0000000E+04;  0.0000000E+00;  9.9999844E+03;-0.040374205;0.0;0.0019620019;5.2417121
  5.7999766E-01;  9.9999998E-03;  1.0000005E-01;1948;-0.0057519018;0.0;0.00017305357;1000.1374;  4.0004665E-01;113.87183;3;-8.5383072;0.0;0.40755588;0;-0.037858967;  1.0000438E+04;  0.0000000E+00;  3.2340124E-09;  1.0000000E+04;  0.0000000E+00;  9.9999775E+03;-0.040566325;0.0;0.0027073575;7.3066068
  5.7999766E-01;  9.9999998E-03;  1.2000006E-01;1949;-0.0057648933;0.0;0.00025137037;1000.137;  4.0004665E-01;113.47679;3;-8.5816774;0.0;0.57246631;0;-0.036930189;  1.0000439E+04;  0.0000000E+00;  7.1977984E-09;  1.0000000E+04;  0.0000000E+00;  9.9999678E+03;-0.040847719;0.0;0.0039175306;11.142035
  5.7999766E-01;  9.9999998E-03;  1.4000010E-01;1950;-0.0057807919;0.0;0.00035253828;1000.136;  4.0004662E-01;112.6867;3;-8.6456442;0.0;0.76991642;0;-0.035182845;  1.0000443E+04;  0.0000000E+00;  1.1064729E-08;  1.0000000E+04;  0.0000000E+00;  9.9999453E+03;-0.041242421;0.0;0.0060595744;18.613974
  5.9999722E-01;  9.9999998E-03; -7.4312518E-14;1974;-0.0068301405;0.0;7.3719564e-10;1000.3209;  4.0012076E-01;265.86435;3;-9.9390116;0.0;6.1009487e-06;0;-0.034905486;  1.0000389E+04;  0.0000000E+00;  7.8814629E-17;  1.0000000E+04;  0.0000000E+00;  9.9999941E+03;-0.035891939;0.0;0.00098645338;2.7255206
  5.9999722E-01;  9.9999998E-03;  2.0000005E-02;1975;-0.0068301372;0.0;2.4703841e-05;1000.3209;  4.0012076E-01;265.86435;3;-9.939003;0.0;0.064076416;0;-0.034835793;  1.0000389E+04;  0.0000000E+00;  2.1361378E-11;  1.0000000E+04;  0.0000000E+00;  9.9999922E+03;-0.035906091;0.0;0.0010702967;2.8969903
  5.9999722E-01;  9.9999998E-03;  4.0000014E-02;1976;-0.0068306471;0.0;5.3585169e-05;1000.3208;  4.0012076E-01;265.76559;3;-9.9403;0.0;0.13723625;0;-0.034629505;  1.0000389E+04;  0.0000000E+00;  7.8244300E-11;  1.0000000E+04;  0.0000000E+00;  9.9999912E+03;-0.035951458;0.0;0.0013219542;3.4203277
  5.9999722E-01;  9.9999998E-03;  6.0000021E-02;1977;-0.006832995;0.0;9.131791e-05;1000.3206;  4.0012082E-01;265.66684;3;-9.9462481;0.0;0.22926083;0;-0.034288988;  1.0000390E+04;  0.0000000E+00;  3.5125644E-10;  1.0000000E+04;  0.0000000E+00;  9.9999873E+03;-0.036036503;0.0;0.0017475161;4.3470912
  5.9999722E-01;  9.9999998E-03;  8.0000035E-02;1978;-0.006839552;0.0;0.00014287888;1000.3204;  4.0012079E-01;265.4693;3;-9.9634533;0.0;0.34915027;0;-0.033789247;  1.0000391E+04;  0.0000000E+00;  1.1351960E-09;  1.0000000E+04;  0.0000000E+00;  9.9999814E+03;-0.036176447;0.0;0.0023871979;5.8840222
  5.9999722E-01;  9.9999998E-03;  1.0000005E-01;1979;-0.0068526291;0.0;0.00021435796;1000.3201;  4.0012074E-01;265.17303;3;-9.9989634;0.0;0.50946712;0;-0.033002608;  1.0000393E+04;  0.0000000E+00;  3.0838250E-09;  1.0000000E+04;  0.0000000E+00;  9.9999736E+03;-0.036393244;0.0;0.0033906365;8.6779766
  5.9999722E-01;  9.9999998E-03;  1.2000008E-01;1980;-0.0068744132;0.0;0.00030953519;1000.3193;  4.0012074E-01;264.58044;3;-10.060896;0.0;0.71281582;0;-0.031560477;  1.0000394E+04;  0.0000000E+00;  7.0887953E-09;  1.0000000E+04;  0.0000000E+00;  9.9999561E+03;-0.036713127;0.0;0.0051526506;14.31718
  5.9999716E-01;  9.9999998E-03;  1.4000012E-01;1981;-0.0069041564;0.0;0.00043249756;1000.3179;  4.0012076E-01;263.29657;3;-10.154699;0.0;0.96158129;0;-0.028705325;  1.0000397E+04;  0.0000000E+00;  9.2964889E-09;  1.0000000E+04;  0.0000000E+00;  9.9999219E+03;-0.037158616;0.0;0.0084532918;25.84503
  6.1999673E-01;  9.9999998E-03; -2.5100329E-13;2005;-0.0078424364;0.0;-2.0982331e-10;1000.7396;  4.0029034E-01;612.70892;3;-11.234511;0.0;-2.4650653e-06;0;-0.025136121;  1.0000281E+04;  0.0000000E+00;  4.5413006E-17;  1.0000000E+04;  0.0000000E+00;  9.9999922E+03;-0.026260328;0.0;0.0011242061;2.6153896
  6.1999673E-01;  9.9999998E-03;  2.0000007E-02;2006;-0.0078428416;0.0;2.8071127e-05;1000.7396;  4.0029034E-01;612.70892;3;-11.235517;0.0;0.072615638;0;-0.025047125;  1.0000281E+04;  0.0000000E+00;  6.9868018E-12;  1.0000000E+04;  0.0000000E+00;  9.9999912E+03;-0.026273534;0.0;0.0012264079;2.8138492
  6.1999673E-01;  9.9999998E-03;  4.0000014E-02;2007;-0.0078444751;0.0;6.136945e-05;1000.7396;  4.0029034E-01;612.70892;3;-11.239454;0.0;0.15648505;0;-0.024783138;  1.0000281E+04;  0.0000000E+00;  3.5350060E-11;  1.0000000E+04;  0.0000000E+00;  9.9999902E+03;-0.026315726;0.0;0.0015325873;3.4190736
  6.1999673E-01;  9.9999998E-03;  6.0000025E-02;2008;-0.0078492388;0.0;0.00010563278;1000.7394;  4.0029037E-01;612.51135;3;-11.251161;0.0;0.26419029;0;-0.02434268;  1.0000281E+04;  0.0000000E+00;  2.2157107E-10;  1.0000000E+04;  0.0000000E+00;  9.9999844E+03;-0.026395246;0.0;0.0020525667;4.5056381
  6.1999673E-01;  9.9999998E-03;  8.0000043E-02;2009;-0.0078597143;0.0;0.00016712955;1000.7391;  4.0029037E-01;612.31384;3;-11.276798;0.0;0.4092108;0;-0.023671521;  1.0000283E+04;  0.0000000E+00;  8.4707324E-10;  1.0000000E+04;  0.0000000E+00;  9.9999785E+03;-0.026526922;0.0;0.0028554017;6.4010077
  6.1999673E-01;  9.9999998E-03;  1.0000006E-01;2010;-0.0078800414;0.0;0.00025140715;1000.7385;  4.0029040E-01;611.82007;3;-11.326434;0.0;0.60395992;0;-0.022542942;  1.0000284E+04;  0.0000000E+00;  2.6780969E-09;  1.0000000E+04;  0.0000000E+00;  9.9999668E+03;-0.026732085;0.0;0.0041891434;10.128678
  6.1999673E-01;  9.9999998E-03;  1.2000009E-01;2011;-0.0079143932;0.0;0.00036273152;1000.7374;  4.0029037E-01;610.93121;3;-11.414217;0.0;0.85021907;0;-0.020352554;  1.0000287E+04;  0.0000000E+00;  6.2058847E-09;  1.0000000E+04;  0.0000000E+00;  9.9999424E+03;-0.027034171;0.0;0.0066816178;18.143692
  6.1999673E-01;  9.9999998E-03;  1.4000013E-01;2012;-0.0079610478;0.0;0.00050956663;1000.735;  4.0029040E-01;608.95599;3;-11.536391;0.0;1.1703193;0;-0.015925385;  1.0000291E+04;  0.0000000E+00;  5.6421823E-09;  1.0000000E+04;  0.0000000E+00;  9.9998916E+03;-0.027448744;0.0;0.011523359;35.019531
  6.3999635E-01;  9.9999998E-03;  6.0526067E-14;2036;-0.0087348642;0.0;7.5770779e-10;1001.5077;  4.0060094E-01;1249.0112;3;-12.354346;0.0;-6.3798507e-07;0;-0.0099854795;  1.0000116E+04;  0.0000000E+00;  2.9463379E-16;  1.0000000E+04;  0.0000000E+00;  9.9999912E+03;-0.011237473;0.0;0.0012519934;2.3157759
  6.3999635E-01;  9.9999998E-03;  2.0000007E-02;2037;-0.0087360283;0.0;2.8201601e-05;1001.5077;  4.0060094E-01;1249.0112;3;-12.357113;0.0;0.072831295;0;-0.0098722847;  1.0000116E+04;  0.0000000E+00;  3.8730954E-12;  1.0000000E+04;  0.0000000E+00;  9.9999912E+03;-0.011246963;0.0;0.0013746785;2.5421388
  6.3999635E-01;  9.9999998E-03;  4.0000014E-02;2038;-0.0087399203;0.0;6.3280611e-05;1001.5075;  4.0060091E-01;1248.9125;3;-12.366386;0.0;0.16172332;0;-0.0095357215;  1.0000116E+04;  0.0000000E+00;  1.7862331E-11;  1.0000000E+04;  0.0000000E+00;  9.9999883E+03;-0.011277412;0.0;0.0017416904;3.2324853
  6.3999635E-01;  9.9999998E-03;  6.0000025E-02;2039;-0.0087485118;0.0;0.0001105663;1001.5073;  4.0060091E-01;1248.715;3;-12.38672;0.0;0.27716243;0;-0.0089668985;  1.0000117E+04;  0.0000000E+00;  1.0194547E-10;  1.0000000E+04;  0.0000000E+00;  9.9999824E+03;-0.01133508;0.0;0.0023681822;4.4917607
  6.3999635E-01;  9.9999998E-03;  8.0000043E-02;2040;-0.0087650772;0.0;0.00018057584;1001.507;  4.0060091E-01;1248.4187;3;-12.426508;0.0;0.44434869;0;-0.0080705583;  1.0000118E+04;  0.0000000E+00;  4.9662924E-10;  1.0000000E+04;  0.0000000E+00;  9.9999756E+03;-0.011431184;0.0;0.0033606249;6.7996397
  6.3999635E-01;  9.9999998E-03;  1.0000007E-01;2041;-0.0087929498;0.0;0.00028100662;1001.5062;  4.0060094E-01;1247.8262;3;-12.49217;0.0;0.68417656;0;-0.0064917472;  1.0000119E+04;  0.0000000E+00;  1.9029511E-09;  1.0000000E+04;  0.0000000E+00;  9.9999580E+03;-0.011581165;0.0;0.0050894176;11.639988
  6.3999635E-01;  9.9999998E-03;  1.2000010E-01;2042;-0.0088392291;0.0;0.0004169629;1001.5046;  4.0060091E-01;1246.5422;3;-12.601185;0.0;1.001321;0;-0.0033362266;  1.0000122E+04;  0.0000000E+00;  5.0791158E-09;  1.0000000E+04;  0.0000000E+00;  9.9999258E+03;-0.011800235;0.0;0.0084640086;22.504139
  6.3999629E-01;  9.9999998E-03;  1.4000015E-01;2043;-0.0089095095;0.0;0.00058730977;1001.5013;  4.0060094E-01;1243.777;3;-12.767697;0.0;1.3917873;0;0.0030664587;  1.0000124E+04;  0.0000000E+00;  1.5739517E-09;  1.0000000E+04;  0.0000000E+00;  9.9998584E+03;-0.012092783;0.0;0.015159242;45.759838
  6.5999609E-01;  9.9999998E-03; -2.7177006E-14;2067;-0.0093463045;0.0;2.1046118e-09;1002.4722;  4.0099084E-01;2048.0513;3;-13.155749;0.0;1.3019308e-05;0;0.0091425776;  9.9999121E+03;  0.0000000E+00;  5.5207495E-16;  1.0000000E+04;  0.0000000E+00;  9.9999912E+03;0.0077740196;0.0;0.0013685583;1.8843974
  6.5999609E-01;  9.9999998E-03;  2.0000007E-02;2068;-0.0093484595;0.0;2.732879e-05;1002.4721;  4.0099084E-01;2048.0513;3;-13.161002;0.0;0.071231581;0;0.0092838928;  9.9999121E+03;  0.0000000E+00;  1.2296857E-12;  1.0000000E+04;  0.0000000E+00;  9.9999902E+03;0.0077705663;0.0;0.0015133268;2.1397443
  6.5999609E-01;  9.9999998E-03;  4.0000014E-02;2069;-0.009355898;0.0;6.3598818e-05;1002.4719;  4.0099084E-01;2047.8539;3;-13.179533;0.0;0.16392601;0;0.0097052054;  9.9999121E+03;  0.0000000E+00; -2.2611185E-11;  1.0000000E+04;  0.0000000E+00;  9.9999863E+03;0.0077593103;0.0;0.001945895;2.9188194
  6.5999609E-01;  9.9999998E-03;  6.0000028E-02;2070;-0.0093697868;0.0;0.00011707809;1002.4717;  4.0099078E-01;2047.6564;3;-13.213359;0.0;0.29530838;0;0.010424867;  9.9999121E+03;  0.0000000E+00; -2.9828113E-12;  1.0000000E+04;  0.0000000E+00;  9.9999805E+03;0.0077373651;0.0;0.0026875027;4.3608961
  6.5999609E-01;  9.9999998E-03;  8.0000050E-02;2071;-0.0093936799;0.0;0.00020052434;1002.4712;  4.0099087E-01;2047.2614;3;-13.271544;0.0;0.49718529;0;0.011585849;  9.9999131E+03;  0.0000000E+00;  2.5218033E-10;  1.0000000E+04;  0.0000000E+00;  9.9999717E+03;0.0076995604;0.0;0.0038862887;7.1135392
  6.5999609E-01;  9.9999998E-03;  1.0000008E-01;2072;-0.0094311982;0.0;0.00032371888;1002.4702;  4.0099084E-01;2046.4712;3;-13.362398;0.0;0.79352486;0;0.013685836;  9.9999131E+03;  0.0000000E+00;  1.4716889E-09;  1.0000000E+04;  0.0000000E+00;  9.9999502E+03;0.007639478;0.0;0.0060463585;13.159424
  6.5999603E-01;  9.9999998E-03;  1.2000012E-01;2073;-0.0094865579;0.0;0.00049272383;1002.4682;  4.0099084E-01;2044.7924;3;-13.493894;0.0;1.1958472;0;0.017933909;  9.9999141E+03;  0.0000000E+00;  4.4244213E-09;  1.0000000E+04;  0.0000000E+00;  9.9999092E+03;0.0075531937;0.0;0.010380715;27.099342
  6.5999603E-01;  9.9999998E-03;  1.4000018E-01;2074;-0.0095655601;0.0;0.00070379011;1002.4638;  4.0099087E-01;2041.1383;3;-13.676425;0.0;1.6852341;0;0.026527179;  9.9999160E+03;  0.0000000E+00;  1.3151109E-10;  1.0000000E+04;  0.0000000E+00;  9.9998193E+03;0.0074479617;0.0;0.019079218;57.201298
  6.7999613E-01;  9.9999998E-03;  4.4625601E-13;2098;-0.0093207862;0.0;9.9706292e-11;1003.2382;  4.0130144E-01;2682.6326;3;-13.385159;0.0;-2.5422778e-06;0;0.029332347;  9.9997031E+03;  0.0000000E+00;  3.0063605E-16;  1.0000000E+04;  0.0000000E+00;  9.9999902E+03;0.027856916;0.0;0.0014754302;1.4272989
  6.7999613E-01;  9.9999998E-03;  2.0000005E-02;2099;-0.0093227327;0.0;2.5308451e-05;1003.2381;  4.0130144E-01;2682.5337;3;-13.390358;0.0;0.067910001;0;0.029503008;  9.9997031E+03;  0.0000000E+00; -5.9860918E-12;  1.0000000E+04;  0.0000000E+00;  9.9999893E+03;0.027860254;0.0;0.0016427543;1.7121384
  6.7999613E-01;  9.9999998E-03;  4.0000014E-02;2100;-0.0093291188;0.0;6.1132174e-05;1003.238;  4.0130144E-01;2682.4351;3;-13.406787;0.0;0.16066326;0;0.030012671;  9.9997031E+03;  0.0000000E+00; -1.1046950E-11;  1.0000000E+04;  0.0000000E+00;  9.9999854E+03;0.027870594;0.0;0.0021420773;2.5811453
  6.7999613E-01;  9.9999998E-03;  6.0000028E-02;2101;-0.009341741;0.0;0.00011975782;1003.2376;  4.0130144E-01;2682.1387;3;-13.439574;0.0;0.30848154;0;0.030888973;  9.9997021E+03;  0.0000000E+00; -5.3023072E-11;  1.0000000E+04;  0.0000000E+00;  9.9999785E+03;0.027888877;0.0;0.0030000953;4.2063541
  6.7999613E-01;  9.9999998E-03;  8.0000050E-02;2102;-0.0093633253;0.0;0.0002146573;1003.2371;  4.0130144E-01;2681.645;3;-13.493952;0.0;0.54177278;0;0.032321557;  9.9997021E+03;  0.0000000E+00;  1.2022709E-10;  1.0000000E+04;  0.0000000E+00;  9.9999668E+03;0.027916709;0.0;0.0044048503;7.3970618
  6.7999613E-01;  9.9999998E-03;  1.0000008E-01;2103;-0.0093983561;0.0;0.00035896801;1003.2359;  4.0130147E-01;2680.7561;3;-13.581039;0.0;0.89266187;0;0.034946375;  9.9997021E+03;  0.0000000E+00;  1.1238809E-09;  1.0000000E+04;  0.0000000E+00;  9.9999434E+03;0.027957128;0.0;0.0069892458;14.615697
  6.7999613E-01;  9.9999998E-03;  1.2000014E-01;2104;-0.009451204;0.0;0.00055768673;1003.2332;  4.0130147E-01;2678.4846;3;-13.712188;0.0;1.3742502;0;0.040275235;  9.9997021E+03;  0.0000000E+00;  3.7687324E-09;  1.0000000E+04;  0.0000000E+00;  9.9998916E+03;0.028016752;0.0;0.012258483;31.527502
  6.7999613E-01;  9.9999998E-03;  1.4000019E-01;2105;-0.0095275193;0.0;0.0008065711;1003.2278;  4.0130150E-01;2674.0405;3;-13.898101;0.0;1.975055;0;0.05100755;  9.9997012E+03;  0.0000000E+00;  2.7406730E-09;  1.0000000E+04;  0.0000000E+00;  9.9997842E+03;0.028110854;0.0;0.022896696;68.218933
  6.9999677E-01;  9.9999998E-03;  1.1980676E-12;2129;-0.0080448044;0.0;2.3220506e-10;1003.6535;  4.0147111E-01;3026.6404;3;-12.025656;0.0;-1.1748023e-05;0;0.046703067;  9.9995283E+03;  0.0000000E+00; -3.0068224E-16;  1.0000000E+04;  0.0000000E+00;  9.9999893E+03;0.045128401;0.0;0.001574665;1.0685529
  6.9999677E-01;  9.9999998E-03;  2.0000005E-02;2130;-0.0080456696;0.0;2.1708909e-05;1003.6535;  4.0147111E-01;3026.6404;3;-12.027938;0.0;0.057326492;0;0.04690076;  9.9995283E+03;  0.0000000E+00; -1.1126294E-11;  1.0000000E+04;  0.0000000E+00;  9.9999873E+03;0.045137256;0.0;0.0017635028;1.3820575
  6.9999677E-01;  9.9999998E-03;  4.0000014E-02;2131;-0.0080487924;0.0;5.6295583e-05;1003.6533;  4.0147117E-01;3026.4429;3;-12.036085;0.0;0.14597532;0;0.047491521;  9.9995283E+03;  0.0000000E+00; -2.4187733E-11;  1.0000000E+04;  0.0000000E+00;  9.9999844E+03;0.045165326;0.0;0.0023261937;2.3375745
  6.9999677E-01;  9.9999998E-03;  6.0000028E-02;2132;-0.0080558555;0.0;0.00011885566;1003.653;  4.0147117E-01;3026.1465;3;-12.054207;0.0;0.3027049;0;0.048509941;  9.9995273E+03;  0.0000000E+00; -4.8615251E-11;  1.0000000E+04;  0.0000000E+00;  9.9999766E+03;0.045216933;0.0;0.0032930095;4.1332717
  6.9999677E-01;  9.9999998E-03;  8.0000058E-02;2133;-0.0080698319;0.0;0.00022611801;1003.6522;  4.0147114E-01;3025.554;3;-12.089554;0.0;0.56825471;0;0.050184391;  9.9995273E+03;  0.0000000E+00;  1.1278178E-10;  1.0000000E+04;  0.0000000E+00;  9.9999629E+03;0.045299605;0.0;0.0048847883;7.7143955
  6.9999677E-01;  9.9999998E-03;  1.0000009E-01;2134;-0.0080948891;0.0;0.00039172321;1003.6509;  4.0147108E-01;3024.4678;3;-12.152246;0.0;0.97567904;0;0.053267948;  9.9995254E+03;  0.0000000E+00;  8.5292506E-10;  1.0000000E+04;  0.0000000E+00;  9.9999365E+03;0.045424011;0.0;0.0078439359;15.953279
  6.9999677E-01;  9.9999998E-03;  1.2000015E-01;2135;-0.008135926;0.0;0.00061967713;1003.6478;  4.0147114E-01;3021.9001;3;-12.254154;0.0;1.5343831;0;0.059531074;  9.9995244E+03;  0.0000000E+00;  3.1153236E-09;  1.0000000E+04;  0.0000000E+00;  9.9998770E+03;0.045604166;0.0;0.013926909;35.430546
  6.9999671E-01;  9.9999998E-03;  1.4000022E-01;2136;-0.0081976848;0.0;0.00090110116;1003.6414;  4.0147114E-01;3016.5674;3;-12.406716;0.0;2.2223637;0;0.072103329;  9.9995234E+03;  0.0000000E+00;  3.9664734E-09;  1.0000000E+04;  0.0000000E+00;  9.9997510E+03;0.04585785;0.0;0.02624548;77.803658
  7.1999776E-01;  9.9999998E-03;  2.3641652E-13;2160;-0.0056523914;0.0;1.0404955e-09;1003.8334;  4.0154523E-01;3175.5742;3;-8.5145969;0.0;6.1898318e-06;0;0.057881568;  9.9994209E+03;  0.0000000E+00;  1.8190289E-16;  1.0000000E+04;  0.0000000E+00;  9.9999893E+03;0.056215405;0.0;0.0016661626;0.89835531
  7.1999776E-01;  9.9999998E-03;  2.0000005E-02;2161;-0.0056530111;0.0;2.349607e-05;1003.8334;  4.0154523E-01;3175.5742;3;-8.5162449;0.0;0.062025502;0;0.058101568;  9.9994209E+03;  0.0000000E+00; -2.4772343E-12;  1.0000000E+04;  0.0000000E+00;  9.9999873E+03;0.056227572;0.0;0.0018739973;1.2379402
  7.1999776E-01;  9.9999998E-03;  4.0000014E-02;2162;-0.0056553022;0.0;6.1221785e-05;1003.8331;  4.0154523E-01;3175.3767;3;-8.5222502;0.0;0.15869501;0;0.058758654;  9.9994199E+03;  0.0000000E+00; -1.7796599E-12;  1.0000000E+04;  0.0000000E+00;  9.9999824E+03;0.056266349;0.0;0.0024923042;2.2711763
  7.1999776E-01;  9.9999998E-03;  6.0000032E-02;2163;-0.0056606564;0.0;0.00012991911;1003.8327;  4.0154520E-01;3174.9817;3;-8.5360117;0.0;0.33084324;0;0.059891205;  9.9994199E+03;  0.0000000E+00;  8.2625974E-13;  1.0000000E+04;  0.0000000E+00;  9.9999746E+03;0.056338616;0.0;0.0035525882;4.213141
  7.1999776E-01;  9.9999998E-03;  8.0000058E-02;2164;-0.0056715775;0.0;0.00024807316;1003.8319;  4.0154523E-01;3174.2905;3;-8.563633;0.0;0.62352622;0;0.061754383;  9.9994189E+03;  0.0000000E+00;  1.0879099E-10;  1.0000000E+04;  0.0000000E+00;  9.9999609E+03;0.056455784;0.0;0.0052985977;8.1086092
  7.1999770E-01;  9.9999998E-03;  1.0000011E-01;2165;-0.00569158;0.0;0.00043073049;1003.8304;  4.0154523E-01;3173.1055;3;-8.6137123;0.0;1.0732713;0;0.065188043;  9.9994170E+03;  0.0000000E+00;  6.4250699E-10;  1.0000000E+04;  0.0000000E+00;  9.9999316E+03;0.056633417;0.0;0.0085546291;17.140205
  7.1999770E-01;  9.9999998E-03;  1.2000017E-01;2166;-0.005724743;0.0;0.00068209931;1003.827;  4.0154526E-01;3170.2417;3;-8.6961889;0.0;1.689997;0;0.072158799;  9.9994160E+03;  0.0000000E+00;  2.1520332E-09;  1.0000000E+04;  0.0000000E+00;  9.9998652E+03;0.056889147;0.0;0.015269652;38.592625
  7.1999770E-01;  9.9999998E-03;  1.4000024E-01;2167;-0.0057747886;0.0;0.00099210546;1003.8199;  4.0154526E-01;3164.4153;3;-8.8200665;0.0;2.448719;0;0.086127669;  9.9994131E+03;  0.0000000E+00;  4.2823411E-09;  1.0000000E+04;  0.0000000E+00;  9.9997266E+03;0.057239376;0.0;0.028888289;85.346123
  7.3999864E-01;  9.9999998E-03;  1.7255591E-12;2191;-0.0034136747;0.0;2.0462114e-09;1003.9047;  4.0157437E-01;3234.5085;3;-5.1502614;0.0;-4.1218591e-06;0;0.061664511;  9.9993896E+03;  0.0000000E+00; -1.6523970E-17;  1.0000000E+04;  0.0000000E+00;  9.9999883E+03;0.059918258;0.0;0.0017462536;0.93138814
  7.3999864E-01;  9.9999998E-03;  2.0000005E-02;2192;-0.0034141247;0.0;2.5048934e-05;1003.9047;  4.0157440E-01;3234.5085;3;-5.1514673;0.0;0.066141658;0;0.061901167;  9.9993896E+03;  0.0000000E+00; -3.5112651E-12;  1.0000000E+04;  0.0000000E+00;  9.9999863E+03;0.059931684;0.0;0.0019694841;1.292784
  7.3999864E-01;  9.9999998E-03;  4.0000014E-02;2193;-0.003415789;0.0;6.5349835e-05;1003.9044;  4.0157440E-01;3234.311;3;-5.155827;0.0;0.16943458;0;0.062607273;  9.9993896E+03;  0.0000000E+00; -7.0723206E-12;  1.0000000E+04;  0.0000000E+00;  9.9999824E+03;0.059974682;0.0;0.0026325912;2.3902235
  7.3999864E-01;  9.9999998E-03;  6.0000032E-02;2194;-0.003419694;0.0;0.00013884871;1003.904;  4.0157434E-01;3233.916;3;-5.1658497;0.0;0.35366383;0;0.063821808;  9.9993896E+03;  0.0000000E+00;  1.7366131E-11;  1.0000000E+04;  0.0000000E+00;  9.9999736E+03;0.06005542;0.0;0.0037663898;4.4471183
  7.3999864E-01;  9.9999998E-03;  8.0000065E-02;2195;-0.0034276508;0.0;0.00026534987;1003.9031;  4.0157437E-01;3233.2249;3;-5.1859708;0.0;0.66708404;0;0.065815009;  9.9993887E+03;  0.0000000E+00;  9.5775471E-11;  1.0000000E+04;  0.0000000E+00;  9.9999580E+03;0.06018728;0.0;0.0056277257;8.5706234
  7.3999864E-01;  9.9999998E-03;  1.0000011E-01;2196;-0.003442239;0.0;0.00046093538;1003.9016;  4.0157440E-01;3231.9412;3;-5.222487;0.0;1.1487446;0;0.069481783;  9.9993867E+03;  0.0000000E+00;  4.0355072E-10;  1.0000000E+04;  0.0000000E+00;  9.9999277E+03;0.060387712;0.0;0.0090940725;18.149673
  7.3999864E-01;  9.9999998E-03;  1.2000018E-01;2197;-0.0034664243;0.0;0.00072992453;1003.8979;  4.0157440E-01;3228.8799;3;-5.2826266;0.0;1.8087757;0;0.07692007;  9.9993848E+03;  0.0000000E+00;  1.5197056E-09;  1.0000000E+04;  0.0000000E+00;  9.9998574E+03;0.060675245;0.0;0.016244823;40.949642
  7.3999864E-01;  9.9999998E-03;  1.4000025E-01;2198;-0.0035027759;0.0;0.0010611069;1003.8904;  4.0157440E-01;3222.6587;3;-5.3726144;0.0;2.6194119;0;0.091819949;  9.9993818E+03;  0.0000000E+00;  3.3206988E-09;  1.0000000E+04;  0.0000000E+00;  9.9997090E+03;0.061063673;0.0;0.030756276;90.702225
  7.5999933E-01;  9.9999998E-03;  1.3358071E-12;2222;-0.0016998888;0.0;-3.0925551e-10;1003.9337;  4.0158540E-01;3258.342;3;-2.5767691;0.0;-9.3916024e-06;0;0.059368949;  9.9994180E+03;  0.0000000E+00;  2.8526018E-17;  1.0000000E+04;  0.0000000E+00;  9.9999873E+03;0.057559568;0.0;0.0018093821;1.1096566
  7.5999933E-01;  9.9999998E-03;  2.0000005E-02;2223;-0.0017001706;0.0;2.6101403e-05;1003.9336;  4.0158540E-01;3258.2434;3;-2.5775228;0.0;0.068961509;0;0.059616636;  9.9994180E+03;  0.0000000E+00; -1.5630607E-12;  1.0000000E+04;  0.0000000E+00;  9.9999863E+03;0.057572793;0.0;0.0020438428;1.487348
  7.5999933E-01;  9.9999998E-03;  4.0000014E-02;2224;-0.0017012183;0.0;6.8148118e-05;1003.9333;  4.0158543E-01;3258.0459;3;-2.5802591;0.0;0.17678183;0;0.060354818;  9.9994180E+03;  0.0000000E+00; -7.9275345E-12;  1.0000000E+04;  0.0000000E+00;  9.9999814E+03;0.057615392;0.0;0.0027394274;2.6322436
  7.5999933E-01;  9.9999998E-03;  6.0000036E-02;2225;-0.0017036651;0.0;0.00014491561;1003.9329;  4.0158540E-01;3257.6509;3;-2.5865195;0.0;0.36924767;0;0.061621148;  9.9994180E+03;  0.0000000E+00;  5.2619124E-12;  1.0000000E+04;  0.0000000E+00;  9.9999727E+03;0.057695895;0.0;0.0039252527;4.7700491
  7.5999933E-01;  9.9999998E-03;  8.0000065E-02;2226;-0.0017086599;0.0;0.00027713875;1003.9321;  4.0158537E-01;3257.0583;3;-2.5991206;0.0;0.69689345;0;0.063691601;  9.9994170E+03;  0.0000000E+00;  4.2730153E-11;  1.0000000E+04;  0.0000000E+00;  9.9999570E+03;0.057828035;0.0;0.0058635655;9.0397854
  7.5999933E-01;  9.9999998E-03;  1.0000011E-01;2227;-0.0017178418;0.0;0.00048161071;1003.9304;  4.0158543E-01;3255.5774;3;-2.6220701;0.0;1.2004682;0;0.067489773;  9.9994160E+03;  0.0000000E+00;  2.1436375E-10;  1.0000000E+04;  0.0000000E+00;  9.9999248E+03;0.058029108;0.0;0.0094606653;18.946861
  7.5999933E-01;  9.9999998E-03;  1.2000018E-01;2228;-0.0017330839;0.0;0.00076266122;1003.9266;  4.0158540E-01;3252.4175;3;-2.659936;0.0;1.8901252;0;0.075188719;  9.9994131E+03;  0.0000000E+00;  7.0514744E-10;  1.0000000E+04;  0.0000000E+00;  9.9998525E+03;0.058316745;0.0;0.016871972;42.539635
  7.5999933E-01;  9.9999998E-03;  1.4000027E-01;2229;-0.0017559195;0.0;0.001108059;1003.9188;  4.0158543E-01;3245.9993;3;-2.7164371;0.0;2.7355072;0;0.09061677;  9.9994111E+03;  0.0000000E+00;  1.6815334E-09;  1.0000000E+04;  0.0000000E+00;  9.9996992E+03;0.058702409;0.0;0.031914361;94.064995
  7.7999979E-01;  9.9999998E-03; -8.9654315E-13;2253;-0.00046884007;0.0;-5.9121441e-10;1003.9469;  4.0158948E-01;3269.0823;3;-0.72730464;0.0;6.6838693e-06;0;0.053717628;  9.9994805E+03;  0.0000000E+00; -2.9963002E-16;  1.0000000E+04;  0.0000000E+00;  9.9999873E+03;0.051867113;0.0;0.0018505143;1.3411516
  7.7999979E-01;  9.9999998E-03;  2.0000005E-02;2254;-0.00046896856;0.0;2.6671414e-05;1003.9468;  4.0158945E-01;3268.9836;3;-0.72763819;0.0;0.070518032;0;0.053971272;  9.9994805E+03;  0.0000000E+00; -2.5693490E-12;  1.0000000E+04;  0.0000000E+00;  9.9999863E+03;0.051879365;0.0;0.002091907;1.7289577
  7.7999979E-01;  9.9999998E-03;  4.0000018E-02;2255;-0.00046942916;0.0;6.9682006e-05;1003.9465;  4.0158948E-01;3268.7861;3;-0.72882676;0.0;0.18086031;0;0.054726586;  9.9994795E+03;  0.0000000E+00; -3.1788615E-12;  1.0000000E+04;  0.0000000E+00;  9.9999814E+03;0.051919173;0.0;0.0028074121;2.9029832
  7.7999979E-01;  9.9999998E-03;  6.0000036E-02;2256;-0.00047051921;0.0;0.00014825669;1003.946;  4.0158945E-01;3268.3911;3;-0.73159003;0.0;0.3779088;0;0.056019109;  9.9994795E+03;  0.0000000E+00;  1.4231233E-12;  1.0000000E+04;  0.0000000E+00;  9.9999717E+03;0.051994845;0.0;0.0040242621;5.0878243
  7.7999979E-01;  9.9999998E-03;  8.0000065E-02;2257;-0.0004727499;0.0;0.00028367547;1003.9453;  4.0158945E-01;3267.7988;3;-0.73717988;0.0;0.7135129;0;0.058124747;  9.9994785E+03;  0.0000000E+00;  1.7147088E-11;  1.0000000E+04;  0.0000000E+00;  9.9999561E+03;0.052119557;0.0;0.0060051894;9.4327068
  7.7999979E-01;  9.9999998E-03;  1.0000012E-01;2258;-0.00047687962;0.0;0.00049315917;1003.9435;  4.0158951E-01;3266.3179;3;-0.74744266;0.0;1.2294357;0;0.061976679;  9.9994775E+03;  0.0000000E+00;  4.4677095E-11;  1.0000000E+04;  0.0000000E+00;  9.9999219E+03;0.052309364;0.0;0.0096673146;19.490499
  7.7999979E-01;  9.9999998E-03;  1.2000019E-01;2259;-0.00048376614;0.0;0.00078101549;1003.9398;  4.0158951E-01;3263.2568;3;-0.7645151;0.0;1.9357688;0;0.069779739;  9.9994746E+03;  0.0000000E+00;  1.3570044E-10;  1.0000000E+04;  0.0000000E+00;  9.9998496E+03;0.052580111;0.0;0.017199632;43.435005
  7.7999979E-01;  9.9999998E-03;  1.4000027E-01;2260;-0.00049406092;0.0;0.001134259;1003.9318;  4.0158948E-01;3256.6416;3;-0.78994447;0.0;2.8002846;0;0.085427538;  9.9994727E+03;  0.0000000E+00;  4.6432774E-10;  1.0000000E+04;  0.0000000E+00;  9.9996934E+03;0.052941658;0.0;0.03248588;95.75264
  8.0000019E-01;  9.9999998E-03; -9.7666634E-13;2284;0.00047559678;0.0;-4.781036e-09;1003.9511;  4.0158981E-01;3272.241;3;0.69524807;0.0;-9.1614784e-06;0;0.047351461;  9.9995449E+03;  0.0000000E+00; -6.4472003E-16;  1.0000000E+04;  0.0000000E+00;  9.9999873E+03;0.045484673;0.0;0.0018667871;1.5441177
  8.0000019E-01;  9.9999998E-03;  2.0000007E-02;2285;0.00047560968;0.0;2.681664e-05;1003.9509;  4.0158981E-01;3272.1421;3;0.69528657;0.0;0.070953593;0;0.047606934;  9.9995449E+03;  0.0000000E+00;  1.0688626E-13;  1.0000000E+04;  0.0000000E+00;  9.9999863E+03;0.045495953;0.0;0.0021109795;1.9357275
  8.0000019E-01;  9.9999998E-03;  4.0000018E-02;2286;0.00047566849;0.0;7.0071386e-05;1003.9506;  4.0158984E-01;3271.8459;3;0.69546044;0.0;0.18197586;0;0.048366938;  9.9995449E+03;  0.0000000E+00; -1.4692933E-14;  1.0000000E+04;  0.0000000E+00;  9.9999814E+03;0.045532554;0.0;0.0028343843;3.1203036
  8.0000019E-01;  9.9999998E-03;  6.0000036E-02;2287;0.00047580388;0.0;0.00014913044;1003.9502;  4.0158987E-01;3271.5498;3;0.6958549;0.0;0.38027972;0;0.049665041;  9.9995439E+03;  0.0000000E+00; -7.6762392E-13;  1.0000000E+04;  0.0000000E+00;  9.9999717E+03;0.045602392;0.0;0.0040626489;5.319571
  8.0000019E-01;  9.9999998E-03;  8.0000065E-02;2288;0.00047606896;0.0;0.00028546277;1003.9493;  4.0158981E-01;3270.76;3;0.69659609;0.0;0.71816534;0;0.051773749;  9.9995439E+03;  0.0000000E+00;  1.8320758E-13;  1.0000000E+04;  0.0000000E+00;  9.9999561E+03;0.045717638;0.0;0.0060561099;9.6779585
  8.0000019E-01;  9.9999998E-03;  1.0000012E-01;2289;0.00047650692;0.0;0.00049642456;1003.9476;  4.0158981E-01;3269.3777;3;0.69776392;0.0;1.2377305;0;0.05562301;  9.9995420E+03;  0.0000000E+00; -6.4070190E-13;  1.0000000E+04;  0.0000000E+00;  9.9999219E+03;0.045892965;0.0;0.0097300448;19.744287
  8.0000019E-01;  9.9999998E-03;  1.2000019E-01;2290;0.00047716251;0.0;0.00078629761;1003.9439;  4.0158978E-01;3266.3171;3;0.69947511;0.0;1.948982;0;0.063417397;  9.9995400E+03;  0.0000000E+00; -6.6755243E-12;  1.0000000E+04;  0.0000000E+00;  9.9998486E+03;0.046142332;0.0;0.017275063;43.695244
  8.0000019E-01;  9.9999998E-03;  1.4000028E-01;2291;0.00047815766;0.0;0.0011417258;1003.9359;  4.0158984E-01;3259.7024;3;0.70199418;0.0;2.8187737;0;0.079058304;  9.9995391E+03;  0.0000000E+00; -7.0682134E-11;  1.0000000E+04;  0.0000000E+00;  9.9996924E+03;0.046474326;0.0;0.032583978;96.036095
  8.2000053E-01;  9.9999998E-03;  1.0019173E-12;2315;0.0013374644;0.0;6.3993494e-10;1003.9514;  4.0158883E-01;3272.136;3;1.9972222;0.0;-1.2885052e-05;0;0.041791413;  9.9996006E+03;  0.0000000E+00; -9.3007161E-16;  1.0000000E+04;  0.0000000E+00;  9.9999873E+03;0.039933056;0.0;0.001858359;1.6760806
  8.2000053E-01;  9.9999998E-03;  2.0000005E-02;2316;0.0013376066;0.0;2.6568325e-05;1003.9513;  4.0158883E-01;3272.0374;3;1.9976201;0.0;0.070342317;0;0.042045236;  9.9996006E+03;  0.0000000E+00; -1.3363120E-12;  1.0000000E+04;  0.0000000E+00;  9.9999863E+03;0.039943714;0.0;0.0021015222;2.0654202
  8.2000053E-01;  9.9999998E-03;  4.0000018E-02;2317;0.0013381358;0.0;6.9437345e-05;1003.951;  4.0158883E-01;3271.7412;3;1.9990351;0.0;0.18042009;0;0.04279992;  9.9996006E+03;  0.0000000E+00;  1.9333749E-12;  1.0000000E+04;  0.0000000E+00;  9.9999814E+03;0.039978251;0.0;0.0028216694;3.2426233
  8.2000053E-01;  9.9999998E-03;  6.0000036E-02;2318;0.001339359;0.0;0.00014782476;1003.9506;  4.0158883E-01;3271.4451;3;2.0022302;0.0;0.37707278;0;0.044087183;  9.9995996E+03;  0.0000000E+00;  2.9782925E-12;  1.0000000E+04;  0.0000000E+00;  9.9999717E+03;0.040043917;0.0;0.0040432652;5.4251733
  8.2000053E-01;  9.9999998E-03;  8.0000065E-02;2319;0.001341846;0.0;0.00028304072;1003.9498;  4.0158883E-01;3270.7539;3;2.0085895;0.0;0.71218908;0;0.04617412;  9.9995996E+03;  0.0000000E+00;  9.6718085E-12;  1.0000000E+04;  0.0000000E+00;  9.9999561E+03;0.040151875;0.0;0.0060222447;9.7407923
  8.2000053E-01;  9.9999998E-03;  1.0000012E-01;2320;0.0013463461;0.0;0.00049234158;1003.948;  4.0158880E-01;3269.2732;3;2.019937;0.0;1.2276534;0;0.04997785;  9.9995986E+03;  0.0000000E+00;  2.5055453E-11;  1.0000000E+04;  0.0000000E+00;  9.9999229E+03;0.040315602;0.0;0.0096622491;19.692192
  8.2000053E-01;  9.9999998E-03;  1.2000019E-01;2321;0.0013537279;0.0;0.00077996316;1003.9443;  4.0158883E-01;3266.2131;3;2.0383623;0.0;1.933347;0;0.057677571;  9.9995967E+03;  0.0000000E+00;  8.4357299E-11;  1.0000000E+04;  0.0000000E+00;  9.9998496E+03;0.040547714;0.0;0.017129857;43.357193
  8.2000053E-01;  9.9999998E-03;  1.4000027E-01;2322;0.001364826;0.0;0.0011325087;1003.9364;  4.0158883E-01;3259.6978;3;2.065887;0.0;2.7960391;0;0.073135532;  9.9995947E+03;  0.0000000E+00; -1.5092818E-11;  1.0000000E+04;  0.0000000E+00;  9.9996963E+03;0.040856212;0.0;0.03227932;95.074532
  8.4000087E-01;  9.9999998E-03;  9.0249070E-13;2346;0.0022255511;0.0;3.3264407e-09;1003.8895;  4.0156314E-01;3220.3699;3;3.3403151;0.0;6.8276131e-06;0;0.037200734;  9.9996465E+03;  0.0000000E+00; -1.2321067E-16;  1.0000000E+04;  0.0000000E+00;  9.9999873E+03;0.035372213;0.0;0.0018285207;1.7393391
  8.4000087E-01;  9.9999998E-03;  2.0000005E-02;2347;0.0022258062;0.0;2.5983632e-05;1003.8894;  4.0156314E-01;3220.271;3;3.3410046;0.0;0.068842568;0;0.037450057;  9.9996465E+03;  0.0000000E+00; -2.7000106E-12;  1.0000000E+04;  0.0000000E+00;  9.9999863E+03;0.035382897;0.0;0.0020671603;2.1207981
  8.4000087E-01;  9.9999998E-03;  4.0000014E-02;2348;0.0022267641;0.0;6.7908157e-05;1003.8892;  4.0156314E-01;3220.0737;3;3.3435509;0.0;0.17651938;0;0.038191114;  9.9996465E+03;  0.0000000E+00; -8.0463620E-13;  1.0000000E+04;  0.0000000E+00;  9.9999814E+03;0.035417277;0.0;0.0027738349;3.2739534
  8.4000087E-01;  9.9999998E-03;  6.0000036E-02;2349;0.0022289783;0.0;0.00014459193;1003.8887;  4.0156314E-01;3219.679;3;3.349297;0.0;0.36891466;0;0.039454088;  9.9996455E+03;  0.0000000E+00;  1.9194724E-12;  1.0000000E+04;  0.0000000E+00;  9.9999717E+03;0.035481997;0.0;0.0039720922;5.4104104
  8.4000087E-01;  9.9999998E-03;  8.0000065E-02;2350;0.0022334401;0.0;0.00027690694;1003.8878;  4.0156314E-01;3218.8894;3;3.3606625;0.0;0.69684899;0;0.04149884;  9.9996455E+03;  0.0000000E+00;  2.9261489E-11;  1.0000000E+04;  0.0000000E+00;  9.9999570E+03;0.035587378;0.0;0.0059114629;9.6294174
  8.4000087E-01;  9.9999998E-03;  1.0000011E-01;2351;0.0022415568;0.0;0.00048176755;1003.8862;  4.0156317E-01;3217.6062;3;3.3810501;0.0;1.2013713;0;0.045220897;  9.9996445E+03;  0.0000000E+00;  1.1371602E-10;  1.0000000E+04;  0.0000000E+00;  9.9999258E+03;0.035746064;0.0;0.0094748326;19.348049
  8.4000093E-01;  9.9999998E-03;  1.2000018E-01;2352;0.0022549401;0.0;0.00076335151;1003.8825;  4.0156320E-01;3214.5466;3;3.414392;0.0;1.8922541;0;0.052751943;  9.9996426E+03;  0.0000000E+00;  3.6834535E-10;  1.0000000E+04;  0.0000000E+00;  9.9998535E+03;0.035970539;0.0;0.016781405;42.451267
  8.4000093E-01;  9.9999998E-03;  1.4000027E-01;2353;0.0022751049;0.0;0.0011084741;1003.8749;  4.0156317E-01;3208.2297;3;3.4643223;0.0;2.7367465;0;0.067873076;  9.9996406E+03;  0.0000000E+00;  5.7347338E-10;  1.0000000E+04;  0.0000000E+00;  9.9997012E+03;0.036268901;0.0;0.031604171;92.941986
  8.6000127E-01;  9.9999998E-03;  1.6973216E-12;2377;0.0031372893;0.0;5.4958056e-09;1003.7653;  4.0151262E-01;3116.7307;3;4.7190776;0.0;1.108725e-05;0;0.032849181;  9.9996885E+03;  0.0000000E+00; -2.6285730E-16;  1.0000000E+04;  0.0000000E+00;  9.9999873E+03;0.031065986;0.0;0.0017831948;1.7668439
  8.6000127E-01;  9.9999998E-03;  2.0000005E-02;2378;0.0031376567;0.0;2.509094e-05;1003.7652;  4.0151262E-01;3116.7307;3;4.7200632;0.0;0.066496968;0;0.033091493;  9.9996885E+03;  0.0000000E+00; -2.0232882E-12;  1.0000000E+04;  0.0000000E+00;  9.9999863E+03;0.031077353;0.0;0.0020141411;2.1354139
  8.6000127E-01;  9.9999998E-03;  4.0000014E-02;2379;0.0031389934;0.0;6.559227e-05;1003.765;  4.0151262E-01;3116.5334;3;4.7236028;0.0;0.17053808;0;0.03381161;  9.9996885E+03;  0.0000000E+00; -5.8725052E-12;  1.0000000E+04;  0.0000000E+00;  9.9999814E+03;0.031113535;0.0;0.002698075;3.249579
  8.6000127E-01;  9.9999998E-03;  6.0000032E-02;2380;0.0031420898;0.0;0.00013966372;1003.7645;  4.0151262E-01;3116.1387;3;4.7316098;0.0;0.35639566;0;0.035038393;  9.9996885E+03;  0.0000000E+00; -5.8752530E-12;  1.0000000E+04;  0.0000000E+00;  9.9999727E+03;0.031180685;0.0;0.0038577083;5.3129325
  8.6000127E-01;  9.9999998E-03;  8.0000065E-02;2381;0.003148315;0.0;0.00026749657;1003.7637;  4.0151265E-01;3115.448;3;4.7474375;0.0;0.67322409;0;0.03702255;  9.9996875E+03;  0.0000000E+00;  1.2138572E-11;  1.0000000E+04;  0.0000000E+00;  9.9999580E+03;0.031288739;0.0;0.0057338094;9.3835449
  8.6000127E-01;  9.9999998E-03;  1.0000011E-01;2382;0.0031596506;0.0;0.0004654614;1003.7621;  4.0151262E-01;3114.165;3;4.7758703;0.0;1.1607593;0;0.040629454;  9.9996855E+03;  0.0000000E+00;  1.7731218E-10;  1.0000000E+04;  0.0000000E+00;  9.9999268E+03;0.031450346;0.0;0.0091791078;18.752739
  8.6000127E-01;  9.9999998E-03;  1.2000018E-01;2383;0.0031783774;0.0;0.00073761959;1003.7586;  4.0151262E-01;3111.2048;3;4.8224711;0.0;1.8285137;0;0.04792127;  9.9996846E+03;  0.0000000E+00;  5.1711191E-10;  1.0000000E+04;  0.0000000E+00;  9.9998584E+03;0.031678818;0.0;0.016242452;41.020409
  8.6000127E-01;  9.9999998E-03;  1.4000025E-01;2384;0.0032066666;0.0;0.0010711717;1003.751;  4.0151262E-01;3104.988;3;4.8924704;0.0;2.6447055;0;0.062558696;  9.9996826E+03;  0.0000000E+00;  1.1190154E-09;  1.0000000E+04;  0.0000000E+00;  9.9997119E+03;0.031983968;0.0;0.030574726;89.690773
  8.8000160E-01;  9.9999998E-03;  1.7997710E-13;2408;0.0040068473;0.0;4.9204979e-10;1003.5865;  4.0144017E-01;2967.9197;3;6.0335793;0.0;1.2005912e-06;0;0.027876202;  9.9997363E+03;  0.0000000E+00; -9.6764920E-18;  1.0000000E+04;  0.0000000E+00;  9.9999893E+03;0.026146216;0.0;0.001729985;1.8000154
  8.8000160E-01;  9.9999998E-03;  2.0000005E-02;2409;0.0040073055;0.0;2.3944864e-05;1003.5864;  4.0144017E-01;2967.821;3;6.0348101;0.0;0.063458301;0;0.028108981;  9.9997363E+03;  0.0000000E+00; -2.8657612E-12;  1.0000000E+04;  0.0000000E+00;  9.9999863E+03;0.026158573;0.0;0.0019504077;2.1514418
  8.8000160E-01;  9.9999998E-03;  4.0000014E-02;2410;0.0040089795;0.0;6.2583676e-05;1003.5862;  4.0144017E-01;2967.6235;3;6.0392241;0.0;0.16273317;0;0.02880094;  9.9997363E+03;  0.0000000E+00; -6.9072486E-12;  1.0000000E+04;  0.0000000E+00;  9.9999824E+03;0.026197609;0.0;0.0026033323;3.2138689
  8.8000160E-01;  9.9999998E-03;  6.0000032E-02;2411;0.0040128385;0.0;0.00013325051;1003.5858;  4.0144017E-01;2967.229;3;6.0491843;0.0;0.34004024;0;0.029979842;  9.9997344E+03;  0.0000000E+00; -3.5513301E-11;  1.0000000E+04;  0.0000000E+00;  9.9999736E+03;0.026269246;0.0;0.0037105966;5.1804171
  8.8000160E-01;  9.9999998E-03;  8.0000058E-02;2412;0.0040206108;0.0;0.00025521562;1003.585;  4.0144020E-01;2966.6372;3;6.0688992;0.0;0.64231861;0;0.031885024;  9.9997344E+03;  0.0000000E+00; -4.9320849E-11;  1.0000000E+04;  0.0000000E+00;  9.9999600E+03;0.026383432;0.0;0.0055015921;9.0546827
  8.8000160E-01;  9.9999998E-03;  1.0000011E-01;2413;0.0040347581;0.0;0.00044413315;1003.5835;  4.0144017E-01;2965.4534;3;6.1043358;0.0;1.1075594;0;0.035343103;  9.9997334E+03;  0.0000000E+00;  1.0593593E-10;  1.0000000E+04;  0.0000000E+00;  9.9999297E+03;0.026553715;0.0;0.0087893903;17.962214
  8.8000160E-01;  9.9999998E-03;  1.2000017E-01;2414;0.0040581604;0.0;0.00070385879;1003.5801;  4.0144017E-01;2962.5925;3;6.1625137;0.0;1.7448078;0;0.042325579;  9.9997305E+03;  0.0000000E+00;  6.3285555E-10;  1.0000000E+04;  0.0000000E+00;  9.9998643E+03;0.02679552;0.0;0.015530061;39.128254
  8.8000160E-01;  9.9999998E-03;  1.4000025E-01;2415;0.0040935627;0.0;0.0010221078;1003.5729;  4.0144017E-01;2956.6738;3;6.2500768;0.0;2.5235839;0;0.056335993;  9.9997295E+03;  0.0000000E+00;  1.1580922E-09;  1.0000000E+04;  0.0000000E+00;  9.9997236E+03;0.027122432;0.0;0.029213559;85.403206
  9.0000188E-01;  9.9999998E-03; -8.1752302E-13;2439;0.0047537354;0.0;-6.2399761e-09;1003.3631;  4.0134966E-01;2781.9246;3;7.1609249;0.0;-2.308382e-05;0;0.021892412;  9.9997939E+03;  0.0000000E+00;  5.9776947E-16;  1.0000000E+04;  0.0000000E+00;  9.9999893E+03;0.020215629;0.0;0.001676783;1.8703477
  9.0000188E-01;  9.9999998E-03;  2.0000005E-02;2440;0.0047542844;0.0;2.2614868e-05;1003.363;  4.0134966E-01;2781.8259;3;7.1624093;0.0;0.059947673;0;0.022112943;  9.9997939E+03;  0.0000000E+00; -4.7759904E-12;  1.0000000E+04;  0.0000000E+00;  9.9999873E+03;0.020228682;0.0;0.001884261;2.2012999
  9.0000188E-01;  9.9999998E-03;  4.0000014E-02;2441;0.0047562863;0.0;5.9051552e-05;1003.3628;  4.0134966E-01;2781.6287;3;7.1677012;0.0;0.15354501;0;0.022768829;  9.9997939E+03;  0.0000000E+00; -3.1788638E-11;  1.0000000E+04;  0.0000000E+00;  9.9999824E+03;0.020269709;0.0;0.0024991203;3.2019932
  9.0000188E-01;  9.9999998E-03;  6.0000028E-02;2442;0.0047608917;0.0;0.00012565458;1003.3624;  4.0134966E-01;2781.333;3;7.1796265;0.0;0.32063428;0;0.023886906;  9.9997930E+03;  0.0000000E+00; -1.0153153E-10;  1.0000000E+04;  0.0000000E+00;  9.9999756E+03;0.020344647;0.0;0.0035422598;5.0525904
  9.0000188E-01;  9.9999998E-03;  8.0000058E-02;2443;0.0047700778;0.0;0.00024058425;1003.3616;  4.0134963E-01;2780.6426;3;7.2029581;0.0;0.60542899;0;0.02569288;  9.9997930E+03;  0.0000000E+00; -2.0094899E-10;  1.0000000E+04;  0.0000000E+00;  9.9999619E+03;0.020463705;0.0;0.0052291742;8.6895323
  9.0000188E-01;  9.9999998E-03;  1.0000010E-01;2444;0.0047867312;0.0;0.00041861006;1003.3602;  4.0134960E-01;2779.4592;3;7.2447195;0.0;1.0438155;0;0.028966304;  9.9997910E+03;  0.0000000E+00; -1.7014636E-10;  1.0000000E+04;  0.0000000E+00;  9.9999336E+03;0.02064188;0.0;0.0083244229;17.035494
  9.0000194E-01;  9.9999998E-03;  1.2000016E-01;2445;0.0048141619;0.0;0.00066334172;1003.3569;  4.0134963E-01;2776.7969;3;7.3128653;0.0;1.6442693;0;0.035569079;  9.9997881E+03;  0.0000000E+00;  4.2878875E-10;  1.0000000E+04;  0.0000000E+00;  9.9998711E+03;0.020898072;0.0;0.014671007;36.859623
  9.0000194E-01;  9.9999998E-03;  1.4000024E-01;2446;0.0048557073;0.0;0.00096305087;1003.3503;  4.0134969E-01;2771.2749;3;7.4155684;0.0;2.3776927;0;0.048815615;  9.9997861E+03;  0.0000000E+00;  1.2606315E-09;  1.0000000E+04;  0.0000000E+00;  9.9997393E+03;0.021252407;0.0;0.027563207;80.218658
  9.2000210E-01;  9.9999998E-03;  1.7356573E-12;2470;0.0052305292;0.0;2.7667757e-09;1003.1066;  4.0124571E-01;2568.3152;3;7.8092947;0.0;1.5495752e-06;0;0.015168339;  9.9998594E+03;  0.0000000E+00;  1.8809073E-16;  1.0000000E+04;  0.0000000E+00;  9.9999893E+03;0.013538424;0.0;0.0016299154;1.9900007
  9.2000210E-01;  9.9999998E-03;  2.0000005E-02;2471;0.0052319653;0.0;2.3260833e-05;1003.1066;  4.0124571E-01;2568.3152;3;7.8133717;0.0;0.062075287;0;0.015373625;  9.9998584E+03;  0.0000000E+00; -1.0404741E-12;  1.0000000E+04;  0.0000000E+00;  9.9999873E+03;0.013551046;0.0;0.0018225791;2.2982583
  9.2000210E-01;  9.9999998E-03;  4.0000014E-02;2472;0.0052359435;0.0;5.8860191e-05;1003.1063;  4.0124574E-01;2568.1182;3;7.8237495;0.0;0.15360083;0;0.015984727;  9.9998584E+03;  0.0000000E+00; -4.2220373E-11;  1.0000000E+04;  0.0000000E+00;  9.9999834E+03;0.013590776;0.0;0.0023939514;3.2305393
  9.2000210E-01;  9.9999998E-03;  6.0000028E-02;2473;0.0052444688;0.0;0.00012201841;1003.106;  4.0124571E-01;2567.8225;3;7.846324;0.0;0.31182501;0;0.017027358;  9.9998584E+03;  0.0000000E+00; -1.8170178E-10;  1.0000000E+04;  0.0000000E+00;  9.9999766E+03;0.013663434;0.0;0.0033639239;4.9519048
  9.2000210E-01;  9.9999998E-03;  8.0000058E-02;2474;0.005259471;0.0;0.00022934841;1003.1053;  4.0124571E-01;2567.2312;3;7.8854661;0.0;0.57706434;0;0.01871161;  9.9998574E+03;  0.0000000E+00; -4.0053114E-10;  1.0000000E+04;  0.0000000E+00;  9.9999629E+03;0.01377956;0.0;0.0049320497;8.3210907
  9.2000210E-01;  9.9999998E-03;  1.0000010E-01;2475;0.0052836062;0.0;0.00039494294;1003.104;  4.0124571E-01;2566.1472;3;7.9466128;0.0;0.98397195;0;0.021762902;  9.9998564E+03;  0.0000000E+00; -5.2026672E-10;  1.0000000E+04;  0.0000000E+00;  9.9999375E+03;0.013955599;0.0;0.0078073037;16.027718
  9.2000210E-01;  9.9999998E-03;  1.2000015E-01;2476;0.0053211199;0.0;0.00062239746;1003.101;  4.0124568E-01;2563.6833;3;8.0402718;0.0;1.5410094;0;0.027918413;  9.9998545E+03;  0.0000000E+00;  9.5494848E-11;  1.0000000E+04;  0.0000000E+00;  9.9998809E+03;0.014215054;0.0;0.01370336;34.318459
  9.2000216E-01;  9.9999998E-03;  1.4000022E-01;2477;0.005374847;0.0;0.00090077356;1003.0947;  4.0124571E-01;2558.46;3;8.1728859;0.0;2.2212582;0;0.040278208;  9.9998516E+03;  0.0000000E+00;  9.4285013E-10;  1.0000000E+04;  0.0000000E+00;  9.9997568E+03;0.014587545;0.0;0.025690664;74.340988
  9.4000214E-01;  9.9999998E-03; -1.8281959E-13;2501;0.0053315251;0.0;-1.7547754e-09;1002.8292;  4.0113339E-01;2337.2571;3;7.8571196;0.0;-5.4036209e-06;0;0.0084291445;  9.9999277E+03;  0.0000000E+00;  4.1113904E-18;  1.0000000E+04;  0.0000000E+00;  9.9999893E+03;0.0068368241;0.0;0.0015923206;2.1512828
  9.4000214E-01;  9.9999998E-03;  2.0000007E-02;2502;0.0053339517;0.0;2.7717264e-05;1002.8292;  4.0113342E-01;2337.2571;3;7.8632755;0.0;0.072240293;0;0.0086165722;  9.9999277E+03;  0.0000000E+00; -8.6556838E-12;  1.0000000E+04;  0.0000000E+00;  9.9999873E+03;0.006847539;0.0;0.0017690329;2.435842
  9.4000214E-01;  9.9999998E-03;  4.0000014E-02;2503;0.0053416248;0.0;6.6130422e-05;1002.829;  4.0113336E-01;2337.0603;3;7.8820062;0.0;0.16948892;0;0.0091750408;  9.9999277E+03;  0.0000000E+00; -4.7233179E-11;  1.0000000E+04;  0.0000000E+00;  9.9999854E+03;0.0068814275;0.0;0.0022936133;3.2966614
  9.4000214E-01;  9.9999998E-03;  6.0000032E-02;2504;0.0053555444;0.0;0.00012791369;1002.8286;  4.0113336E-01;2336.7646;3;7.9166822;0.0;0.32314736;0;0.010128947;  9.9999268E+03;  0.0000000E+00; -2.1129554E-10;  1.0000000E+04;  0.0000000E+00;  9.9999775E+03;0.0069440147;0.0;0.0031849323;4.8822551
  9.4000220E-01;  9.9999998E-03;  8.0000058E-02;2505;0.0053776735;0.0;0.00022741324;1002.828;  4.0113342E-01;2336.2725;3;7.9700246;0.0;0.56619239;0;0.011671063;  9.9999268E+03;  0.0000000E+00; -5.7824340E-10;  1.0000000E+04;  0.0000000E+00;  9.9999658E+03;0.0070456755;0.0;0.004625388;7.9670105
  9.4000220E-01;  9.9999998E-03;  1.0000009E-01;2506;0.0054110182;0.0;0.00037995749;1002.8267;  4.0113336E-01;2335.189;3;8.0496426;0.0;0.93793625;0;0.014468159;  9.9999238E+03;  0.0000000E+00; -9.6160913E-10;  1.0000000E+04;  0.0000000E+00;  9.9999424E+03;0.0072040614;0.0;0.0072640972;14.988076
  9.4000220E-01;  9.9999998E-03;  1.2000015E-01;2507;0.0054609147;0.0;0.00058937346;1002.824;  4.0113339E-01;2332.9241;3;8.1700668;0.0;1.4474528;0;0.020122759;  9.9999229E+03;  0.0000000E+00; -6.1067773E-10;  1.0000000E+04;  0.0000000E+00;  9.9998887E+03;0.0074477182;0.0;0.01267504;31.624943
  9.4000220E-01;  9.9999998E-03;  1.4000021E-01;2508;0.0055307811;0.0;0.00084812415;1002.8182;  4.0113342E-01;2328.1968;3;8.3336191;0.0;2.0759304;0;0.031503782;  9.9999199E+03;  0.0000000E+00;  6.6035977E-10;  1.0000000E+04;  0.0000000E+00;  9.9997764E+03;0.0078183934;0.0;0.023685388;68.032967
  9.6000212E-01;  9.9999998E-03; -8.7263795E-13;2532;0.0052571604;0.0;-2.5470843e-09;1002.5427;  4.0101752E-01;2098.4253;3;7.7210517;0.0;-1.357228e-06;0;0.0024155721;  9.9999883E+03;  0.0000000E+00;  3.5208185E-17;  1.0000000E+04;  0.0000000E+00;  9.9999902E+03;0.00085200917;0.0;0.0015635629;2.3353388
  9.6000212E-01;  9.9999998E-03;  2.0000007E-02;2533;0.0052593881;0.0;2.923359e-05;1002.5427;  4.0101752E-01;2098.4253;3;7.7262483;0.0;0.074713565;0;0.0025841051;  9.9999883E+03;  0.0000000E+00;  6.1601566E-12;  1.0000000E+04;  0.0000000E+00;  9.9999883E+03;0.00086010655;0.0;0.0017239986;2.5962975
  9.6000212E-01;  9.9999998E-03;  4.0000018E-02;2534;0.0052669523;0.0;6.7739238e-05;1002.5425;  4.0101755E-01;2098.3269;3;7.743659;0.0;0.17034212;0;0.0030867849;  9.9999883E+03;  0.0000000E+00; -6.9899982E-11;  1.0000000E+04;  0.0000000E+00;  9.9999854E+03;0.00088593189;0.0;0.0022008528;3.3859129
  9.6000212E-01;  9.9999998E-03;  6.0000032E-02;2535;0.0052807955;0.0;0.00012677808;1002.5421;  4.0101755E-01;2098.0317;3;7.7759643;0.0;0.31520185;0;0.0039463784;  9.9999883E+03;  0.0000000E+00; -2.5189292E-10;  1.0000000E+04;  0.0000000E+00;  9.9999785E+03;0.00093431148;0.0;0.0030120669;4.8360715
  9.6000212E-01;  9.9999998E-03;  8.0000058E-02;2536;0.0053058979;0.0;0.00022130432;1002.5416;  4.0101755E-01;2097.6382;3;7.8357987;0.0;0.54552758;0;0.0053377636;  9.9999863E+03;  0.0000000E+00; -7.4539275E-10;  1.0000000E+04;  0.0000000E+00;  9.9999678E+03;0.0010147862;0.0;0.0043229773;7.6357608
  9.6000218E-01;  9.9999998E-03;  1.0000009E-01;2537;0.0053441725;0.0;0.00036332602;1002.5405;  4.0101755E-01;2096.6545;3;7.9268279;0.0;0.89159793;0;0.0078679733;  9.9999863E+03;  0.0000000E+00; -1.3547721E-09;  1.0000000E+04;  0.0000000E+00;  9.9999453E+03;0.0011456847;0.0;0.0067222887;13.964293
  9.6000218E-01;  9.9999998E-03;  1.2000014E-01;2538;0.0053974986;0.0;0.0005550335;1002.5378;  4.0101755E-01;2094.49;3;8.0479612;0.0;1.3501681;0;0.013002088;  9.9999844E+03;  0.0000000E+00; -1.3426815E-09;  1.0000000E+04;  0.0000000E+00;  9.9998984E+03;0.0013609653;0.0;0.011641123;28.915409
  9.6000218E-01;  9.9999998E-03;  1.4000019E-01;2539;0.0054741744;0.0;0.00079259975;1002.5326;  4.0101755E-01;2090.1611;3;8.2205477;0.0;1.9163389;0;0.023370605;  9.9999814E+03;  0.0000000E+00;  2.0445420E-10;  1.0000000E+04;  0.0000000E+00;  9.9997949E+03;0.0017168118;0.0;0.021653794;61.6054
  9.8000211E-01;  9.9999998E-03; -7.4560312E-14;2563;0.0051041404;0.0;-5.846762e-11;1002.2581;  4.0090266E-01;1861.0983;3;7.509304;0.0;8.7710214e-07;0;-0.0024526445;  1.0000039E+04;  0.0000000E+00;  6.9504255E-17;  1.0000000E+04;  0.0000000E+00;  9.9999902E+03;-0.0039945929;0.0;0.0015419485;2.5249166
  9.8000211E-01;  9.9999998E-03;  2.0000007E-02;2564;0.0051059355;0.0;3.1396154e-05;1002.258;  4.0090266E-01;1861.0;3;7.5130434;0.0;0.078139037;0;-0.0023017263;  1.0000039E+04;  0.0000000E+00; -1.5220479E-11;  1.0000000E+04;  0.0000000E+00;  9.9999883E+03;-0.0039882185;0.0;0.0016864922;2.7630184
  9.8000211E-01;  9.9999998E-03;  4.0000018E-02;2565;0.0051118582;0.0;6.9649235e-05;1002.2578;  4.0090266E-01;1860.9017;3;7.5265241;0.0;0.1719733;0;-0.0018511247;  1.0000039E+04;  0.0000000E+00; -1.3251708E-10;  1.0000000E+04;  0.0000000E+00;  9.9999854E+03;-0.0039679222;0.0;0.0021167975;3.4840162
  9.8000211E-01;  9.9999998E-03;  6.0000032E-02;2566;0.0051236707;0.0;0.00012605033;1002.2576;  4.0090263E-01;1860.7052;3;7.5536928;0.0;0.30756369;0;-0.0010794683;  1.0000038E+04;  0.0000000E+00; -3.0127192E-10;  1.0000000E+04;  0.0000000E+00;  9.9999795E+03;-0.0039298842;0.0;0.0028504159;4.805419
  9.8000211E-01;  9.9999998E-03;  8.0000050E-02;2567;0.0051442352;0.0;0.00021233859;1002.257;  4.0090263E-01;1860.214;3;7.6004605;0.0;0.51783681;0;0.00017173076;  1.0000038E+04;  0.0000000E+00; -8.6273533E-10;  1.0000000E+04;  0.0000000E+00;  9.9999697E+03;-0.0038657668;0.0;0.0040374976;7.3370304
  9.8000211E-01;  9.9999998E-03;  1.0000008E-01;2568;0.0051784632;0.0;0.00034080891;1002.2559;  4.0090263E-01;1859.3297;3;7.6781068;0.0;0.82627594;0;0.0024537845;  1.0000037E+04;  0.0000000E+00; -1.8301292E-09;  1.0000000E+04;  0.0000000E+00;  9.9999492E+03;-0.0037565958;0.0;0.0062103802;13.011166
  9.8000211E-01;  9.9999998E-03;  1.2000013E-01;2569;0.0052332832;0.0;0.00051752431;1002.2537;  4.0090266E-01;1857.4629;3;7.804687;0.0;1.2516392;0;0.0070998771;  1.0000035E+04;  0.0000000E+00; -2.4168116E-09;  1.0000000E+04;  0.0000000E+00;  9.9999063E+03;-0.0035622015;0.0;0.010662079;26.344696
  9.8000211E-01;  9.9999998E-03;  1.4000018E-01;2570;0.0053125811;0.0;0.00073451933;1002.2488;  4.0090272E-01;1853.5327;3;7.9801869;0.0;1.764709;0;0.016504234;  1.0000031E+04;  0.0000000E+00; -1.0391504E-09;  1.0000000E+04;  0.0000000E+00;  9.9998135E+03;-0.0032095776;0.0;0.019713812;55.403461
  1.0000020E+00;  9.9999998E-03; -9.4972706E-13;2594;0.0049071237;0.0;-3.3401952e-09;1001.9846;  4.0079254E-01;1632.7773;3;7.2441802;0.0;-2.4466281e-06;0;-0.0061107362;  1.0000079E+04;  0.0000000E+00; -1.2759731E-16;  1.0000000E+04;  0.0000000E+00;  9.9999902E+03;-0.0076363385;0.0;0.0015256022;2.7099738
  1.0000020E+00;  9.9999998E-03;  2.0000009E-02;2595;0.0049086036;0.0;3.3182609e-05;1001.9845;  4.0079254E-01;1632.6792;3;7.2476559;0.0;0.081014492;0;-0.0059745456;  1.0000079E+04;  0.0000000E+00; -5.8048002E-12;  1.0000000E+04;  0.0000000E+00;  9.9999883E+03;-0.0076296865;0.0;0.0016551409;2.926122
  1.0000020E+00;  9.9999998E-03;  4.0000018E-02;2596;0.0049132574;0.0;7.4103242e-05;1001.9843;  4.0079248E-01;1632.5812;3;7.2580709;0.0;0.18122856;0;-0.0055670831;  1.0000078E+04;  0.0000000E+00; -2.9029331E-11;  1.0000000E+04;  0.0000000E+00;  9.9999854E+03;-0.0076088766;0.0;0.0020417932;3.582376
  1.0000020E+00;  9.9999998E-03;  6.0000032E-02;2597;0.0049232906;0.0;0.00012884187;1001.9841;  4.0079248E-01;1632.385;3;7.2809749;0.0;0.31173944;0;-0.004866824;  1.0000077E+04;  0.0000000E+00; -2.8882988E-10;  1.0000000E+04;  0.0000000E+00;  9.9999795E+03;-0.0075709103;0.0;0.0027040862;4.7875609
  1.0000020E+00;  9.9999998E-03;  8.0000050E-02;2598;0.0049415561;0.0;0.00020940242;1001.9836;  4.0079251E-01;1631.8947;3;7.3225927;0.0;0.50219798;0;-0.0037265469;  1.0000077E+04;  0.0000000E+00; -9.0332042E-10;  1.0000000E+04;  0.0000000E+00;  9.9999707E+03;-0.0075079002;0.0;0.0037813534;7.0872531
  1.0000020E+00;  9.9999998E-03;  1.0000008E-01;2599;0.0049725766;0.0;0.00032441449;1001.9826;  4.0079254E-01;1631.11;3;7.3919868;0.0;0.77469504;0;-0.0016403021;  1.0000076E+04;  0.0000000E+00; -2.2207971E-09;  1.0000000E+04;  0.0000000E+00;  9.9999531E+03;-0.0073988861;0.0;0.005758584;12.193911
  1.0000020E+00;  9.9999998E-03;  1.2000012E-01;2600;0.0050243735;0.0;0.00048281526;1001.9805;  4.0079245E-01;1629.4427;3;7.5075898;0.0;1.1490366;0;0.0026067994;  1.0000074E+04;  0.0000000E+00; -3.9707087E-09;  1.0000000E+04;  0.0000000E+00;  9.9999141E+03;-0.007195788;0.0;0.0098025873;24.080969
  1.0000020E+00;  9.9999998E-03;  1.4000018E-01;2601;0.005102328;0.0;0.00068177702;1001.9761;  4.0079245E-01;1625.8138;3;7.6796284;0.0;1.6140205;0;0.01118161;  1.0000070E+04;  0.0000000E+00; -3.1706091E-09;  1.0000000E+04;  0.0000000E+00;  9.9998291E+03;-0.0068068826;0.0;0.017988492;49.780819
  1.0200019E+00;  9.9999998E-03; -5.8847859E-13;2625;0.0046625347;0.0;-1.4564566e-09;1001.73;  4.0069005E-01;1419.8679;3;6.9089127;0.0;-1.0076183e-06;0;-0.0087017044;  1.0000107E+04;  0.0000000E+00; -8.7371885E-17;  1.0000000E+04;  0.0000000E+00;  9.9999902E+03;-0.010214367;0.0;0.001512663;2.8855259
  1.0200019E+00;  9.9999998E-03;  2.0000009E-02;2626;0.0046637119;0.0;3.4346471e-05;1001.7299;  4.0069005E-01;1419.8679;3;6.9111466;0.0;0.083806351;0;-0.0085769035;  1.0000106E+04;  0.0000000E+00;  2.2555354E-12;  1.0000000E+04;  0.0000000E+00;  9.9999883E+03;-0.010205257;0.0;0.0016283534;3.0804696
  1.0200019E+00;  9.9999998E-03;  4.0000018E-02;2627;0.0046684635;0.0;7.5443051e-05;1001.7297;  4.0069005E-01;1419.6722;3;6.9214334;0.0;0.18230726;0;-0.0082017295;  1.0000106E+04;  0.0000000E+00;  2.9209114E-11;  1.0000000E+04;  0.0000000E+00;  9.9999854E+03;-0.010177171;0.0;0.0019754414;3.6766803
  1.0200019E+00;  9.9999998E-03;  6.0000032E-02;2628;0.0046780179;0.0;0.0001303582;1001.7295;  4.0069005E-01;1419.4764;3;6.9417801;0.0;0.31511298;0;-0.0075505646;  1.0000106E+04;  0.0000000E+00; -1.9441980E-10;  1.0000000E+04;  0.0000000E+00;  9.9999805E+03;-0.010126876;0.0;0.0025763114;4.7843065
  1.0200019E+00;  9.9999998E-03;  8.0000050E-02;2629;0.0046957335;0.0;0.00020632007;1001.7289;  4.0069005E-01;1418.9873;3;6.9795957;0.0;0.49117285;0;-0.0064777238;  1.0000106E+04;  0.0000000E+00; -9.1454216E-10;  1.0000000E+04;  0.0000000E+00;  9.9999727E+03;-0.010044754;0.0;0.00356703;6.9084516
  1.0200019E+00;  9.9999998E-03;  1.0000008E-01;2630;0.0047277645;0.0;0.00031247741;1001.7281;  4.0069002E-01;1418.3024;3;7.0496941;0.0;0.73576224;0;-0.0045062131;  1.0000104E+04;  0.0000000E+00; -3.1055629E-09;  1.0000000E+04;  0.0000000E+00;  9.9999551E+03;-0.0099048745;0.0;0.0053986614;11.582011
  1.0200019E+00;  9.9999998E-03;  1.2000012E-01;2631;0.0047790012;0.0;0.00045469965;1001.7261;  4.0069005E-01;1416.6392;3;7.1618891;0.0;1.0603592;0;-0.00051978789;  1.0000100E+04;  0.0000000E+00; -6.5357328E-09;  1.0000000E+04;  0.0000000E+00;  9.9999180E+03;-0.0096485624;0.0;0.0091287745;22.285379
  1.0200019E+00;  9.9999998E-03;  1.4000016E-01;2632;0.0048575597;0.0;0.00063660828;1001.722;  4.0069005E-01;1413.3125;3;7.3328195;0.0;1.472715;0;0.0074317204;  1.0000096E+04;  0.0000000E+00; -7.9479126E-09;  1.0000000E+04;  0.0000000E+00;  9.9998418E+03;-0.0091653997;0.0;0.01659712;45.051868
  1.0400017E+00;  9.9999998E-03;  1.3050463E-12;2656;0.004369277;0.0;2.0227149e-09;1001.4993;  4.0059742E-01;1226.5924;3;6.5105519;0.0;1.4256802e-06;0;-0.010414119;  1.0000127E+04;  0.0000000E+00; -1.9621775E-16;  1.0000000E+04;  0.0000000E+00;  9.9999893E+03;-0.011915118;0.0;0.0015009997;3.0455029
  1.0400017E+00;  9.9999998E-03;  2.0000009E-02;2657;0.0043707839;0.0;3.5078443e-05;1001.4992;  4.0059742E-01;1226.4949;3;6.5136127;0.0;0.085089497;0;-0.010297447;  1.0000126E+04;  0.0000000E+00;  4.2202280E-11;  1.0000000E+04;  0.0000000E+00;  9.9999883E+03;-0.011901723;0.0;0.0016042761;3.2204595
  1.0400017E+00;  9.9999998E-03;  4.0000018E-02;2658;0.004375882;0.0;7.5838565e-05;1001.4991;  4.0059742E-01;1226.3975;3;6.5237942;0.0;0.18212694;0;-0.009942947;  1.0000125E+04;  0.0000000E+00;  1.0456649E-10;  1.0000000E+04;  0.0000000E+00;  9.9999863E+03;-0.011860278;0.0;0.0019173315;3.7640967
  1.0400017E+00;  9.9999998E-03;  6.0000032E-02;2659;0.0043864916;0.0;0.00012893045;1001.4989;  4.0059742E-01;1226.2999;3;6.5456977;0.0;0.3071017;0;-0.009314226;  1.0000125E+04;  0.0000000E+00; -4.5842521E-11;  1.0000000E+04;  0.0000000E+00;  9.9999814E+03;-0.011785408;0.0;0.0024711816;4.8019605
  1.0400017E+00;  9.9999998E-03;  8.0000050E-02;2660;0.0044058487;0.0;0.0002016432;1001.4984;  4.0059742E-01;1225.8123;3;6.5845418;0.0;0.47469246;0;-0.0082530975;  1.0000124E+04;  0.0000000E+00; -1.0566045E-09;  1.0000000E+04;  0.0000000E+00;  9.9999727E+03;-0.011662238;0.0;0.0034091412;6.827991
  1.0400017E+00;  9.9999998E-03;  1.0000008E-01;2661;0.0044394745;0.0;0.00030111097;1001.4974;  4.0059742E-01;1225.032;3;6.6535592;0.0;0.69803697;0;-0.0062905024;  1.0000121E+04;  0.0000000E+00; -4.2859023E-09;  1.0000000E+04;  0.0000000E+00;  9.9999561E+03;-0.011455494;0.0;0.0051649916;11.241629
  1.0400017E+00;  9.9999998E-03;  1.2000012E-01;2662;0.0044941567;0.0;0.00043264995;1001.4954;  4.0059742E-01;1223.4716;3;6.7711911;0.0;0.98994803;0;-0.0023878552;  1.0000117E+04;  0.0000000E+00; -1.1389493E-08;  1.0000000E+04;  0.0000000E+00;  9.9999209E+03;-0.011093219;0.0;0.0087053636;21.084278
  1.0400019E+00;  9.9999998E-03;  1.4000016E-01;2663;0.0045731957;0.0;0.00059684378;1001.4915;  4.0059742E-01;1220.1556;3;6.9399815;0.0;1.3514951;0;0.0051928945;  1.0000110E+04;  0.0000000E+00; -1.9656097E-08;  1.0000000E+04;  0.0000000E+00;  9.9998496E+03;-0.010450659;0.0;0.015643554;41.427929
  1.0600016E+00;  9.9999998E-03;  8.3510179E-13;2687;0.0040362757;0.0;1.3293571e-11;1001.296;  4.0051585E-01;1055.7671;3;6.0625234;0.0;-7.4945274e-06;0;-0.011389424;  1.0000137E+04;  0.0000000E+00;  3.0339106E-16;  1.0000000E+04;  0.0000000E+00;  9.9999893E+03;-0.012877349;0.0;0.0014879248;3.1785715
  1.0600016E+00;  9.9999998E-03;  2.0000009E-02;2688;0.0040379879;0.0;3.5770736e-05;1001.296;  4.0051582E-01;1055.6699;3;6.0656147;0.0;0.085692413;0;-0.01127671;  1.0000137E+04;  0.0000000E+00;  6.7050601E-11;  1.0000000E+04;  0.0000000E+00;  9.9999873E+03;-0.012857815;0.0;0.0015811053;3.3371654
  1.0600016E+00;  9.9999998E-03;  4.0000018E-02;2689;0.0040443707;0.0;7.609075e-05;1001.2958;  4.0051588E-01;1055.5729;3;6.077817;0.0;0.17971164;0;-0.01092751;  1.0000137E+04;  0.0000000E+00;  2.1580940E-10;  1.0000000E+04;  0.0000000E+00;  9.9999863E+03;-0.012796494;0.0;0.0018689843;3.843781
  1.0600016E+00;  9.9999998E-03;  6.0000032E-02;2690;0.0040569343;0.0;0.00012832538;1001.2955;  4.0051588E-01;1055.3787;3;6.1018753;0.0;0.3002837;0;-0.010285198;  1.0000135E+04;  0.0000000E+00; -5.8276703E-11;  1.0000000E+04;  0.0000000E+00;  9.9999814E+03;-0.012682921;0.0;0.0023977233;4.8547721
  1.0600016E+00;  9.9999998E-03;  8.0000050E-02;2691;0.0040797982;0.0;0.00019766249;1001.295;  4.0051588E-01;1054.9902;3;6.1459708;0.0;0.45715228;0;-0.0091622053;  1.0000134E+04;  0.0000000E+00; -1.5442466E-09;  1.0000000E+04;  0.0000000E+00;  9.9999736E+03;-0.012492212;0.0;0.0033300074;6.8809505
  1.0600016E+00;  9.9999998E-03;  1.0000008E-01;2692;0.0041171657;0.0;0.00029036435;1001.294;  4.0051588E-01;1054.1162;3;6.2182779;0.0;0.66036171;0;-0.0070760432;  1.0000129E+04;  0.0000000E+00; -6.9995632E-09;  1.0000000E+04;  0.0000000E+00;  9.9999561E+03;-0.01217474;0.0;0.0050986963;11.227583
  1.0600016E+00;  9.9999998E-03;  1.2000012E-01;2693;0.004176225;0.0;0.00041140348;1001.2919;  4.0051585E-01;1052.4653;3;6.3357186;0.0;0.92149615;0;-0.0030513797;  1.0000124E+04;  0.0000000E+00; -1.9316609E-08;  1.0000000E+04;  0.0000000E+00;  9.9999209E+03;-0.01164503;0.0;0.0085936505;20.538198
  1.0600017E+00;  9.9999998E-03;  1.4000016E-01;2694;0.0042628497;0.0;0.00056075247;1001.288;  4.0051588E-01;1049.2607;3;6.5153174;0.0;1.2420176;0;0.0044250013;  1.0000115E+04;  0.0000000E+00; -1.0570624E-06;  1.0000000E+04;  0.0000000E+00;  9.9998525E+03;-0.010776589;0.0;0.01520159;38.947353
  1.0800015E+00;  9.9999998E-03;  2.9345122E-13;2718;0.003683873;0.0;1.4826996e-09;1001.121;  4.0044582E-01;907.91888;3;5.5912008;0.0;3.088724e-06;0;-0.011695607;  1.0000141E+04;  0.0000000E+00; -1.0731042E-16;  1.0000000E+04;  0.0000000E+00;  9.9999883E+03;-0.01316822;0.0;0.0014726137;3.2727528
  1.0800015E+00;  9.9999998E-03;  2.0000009E-02;2719;0.0036862255;0.0;3.6311314e-05;1001.1209;  4.0044582E-01;907.91888;3;5.5951023;0.0;0.084674887;0;-0.011578919;  1.0000140E+04;  0.0000000E+00;  8.3728260E-11;  1.0000000E+04;  0.0000000E+00;  9.9999883E+03;-0.013139136;0.0;0.0015602163;3.4235859
  1.0800015E+00;  9.9999998E-03;  4.0000021E-02;2720;0.0036946167;0.0;7.7224082e-05;1001.1208;  4.0044582E-01;907.82233;3;5.6100531;0.0;0.17808525;0;-0.011207378;  1.0000140E+04;  0.0000000E+00;  2.4383967E-10;  1.0000000E+04;  0.0000000E+00;  9.9999854E+03;-0.013046187;0.0;0.0018388091;3.9229391
  1.0800015E+00;  9.9999998E-03;  6.0000036E-02;2721;0.0037107673;0.0;0.00012822298;1001.1204;  4.0044582E-01;907.53265;3;5.6387873;0.0;0.29223081;0;-0.010492896;  1.0000137E+04;  0.0000000E+00; -2.4387964E-10;  1.0000000E+04;  0.0000000E+00;  9.9999814E+03;-0.012869583;0.0;0.0023766868;4.9693203
  1.0800015E+00;  9.9999998E-03;  8.0000050E-02;2722;0.0037385675;0.0;0.00019527036;1001.1198;  4.0044582E-01;907.04987;3;5.6884451;0.0;0.43953252;0;-0.0092025325;  1.0000134E+04;  0.0000000E+00; -3.1576000E-09;  1.0000000E+04;  0.0000000E+00;  9.9999727E+03;-0.012569063;0.0;0.0033665306;7.1070681
  1.0800015E+00;  9.9999998E-03;  1.0000008E-01;2723;0.0037829855;0.0;0.00028168588;1001.1187;  4.0044582E-01;906.08429;3;5.7703404;0.0;0.62478483;0;-0.0068275295;  1.0000129E+04;  0.0000000E+00; -1.2303564E-08;  1.0000000E+04;  0.0000000E+00;  9.9999531E+03;-0.012078446;0.0;0.0052509168;11.564986
  1.0800015E+00;  9.9999998E-03;  1.2000011E-01;2724;0.0038478926;0.0;0.00038968006;1001.1164;  4.0044582E-01;904.24976;3;5.8955016;0.0;0.85673308;0;-0.0024583787;  1.0000120E+04;  0.0000000E+00; -3.3425096E-08;  1.0000000E+04;  0.0000000E+00;  9.9999180E+03;-0.011305569;0.0;0.0088471901;20.604662
  1.0800016E+00;  9.9999998E-03;  1.4000015E-01;2725;0.0039388482;0.0;0.00052238756;1001.1124;  4.0044582E-01;901.06335;3;6.0770984;0.0;1.1334215;0;0.0051264018;  1.0000108E+04;  0.0000000E+00; -2.1530408E-05;  1.0000000E+04;  0.0000000E+00;  9.9998506E+03;-0.01015876;0.0;0.015285162;37.38459
  1.1000013E+00;  9.9999998E-03;  2.2583121E-13;2748;0.0033339371;0.0;9.8354647e-10;1000.9739;  4.0038711E-01;782.93628;3;5.1229062;0.0;2.6076377e-06;0;-0.011315368;  1.0000136E+04;  0.0000000E+00;  1.5217656E-16;  1.0000000E+04;  0.0000000E+00;  9.9999883E+03;-0.012779655;0.0;0.0014642871;3.3278797
  1.1000013E+00;  9.9999998E-03;  2.0000011E-02;2749;0.0033373719;0.0;3.7524274e-05;1000.9739;  4.0038711E-01;782.93628;3;5.1281824;0.0;0.084013328;0;-0.011178271;  1.0000135E+04;  0.0000000E+00;  6.8146058E-11;  1.0000000E+04;  0.0000000E+00;  9.9999883E+03;-0.012732933;0.0;0.0015546625;3.4855466
  1.1000013E+00;  9.9999998E-03;  4.0000021E-02;2750;0.0033488164;0.0;7.9566169e-05;1000.9738;  4.0038714E-01;782.74463;3;5.1469936;0.0;0.17701006;0;-0.010731451;  1.0000134E+04;  0.0000000E+00; -8.4199717E-11;  1.0000000E+04;  0.0000000E+00;  9.9999854E+03;-0.012582324;0.0;0.0018508733;4.0222683
  1.1000013E+00;  9.9999998E-03;  6.0000036E-02;2751;0.0033702396;0.0;0.00012992093;1000.9733;  4.0038708E-01;782.36133;3;5.1831093;0.0;0.28621912;0;-0.0098470431;  1.0000131E+04;  0.0000000E+00; -1.6078748E-09;  1.0000000E+04;  0.0000000E+00;  9.9999805E+03;-0.01229511;0.0;0.0024480673;5.1792517
  1.1000013E+00;  9.9999998E-03;  8.0000058E-02;2752;0.0034047428;0.0;0.00019330371;1000.9725;  4.0038708E-01;781.78632;3;5.243084;0.0;0.42306542;0;-0.0082409037;  1.0000125E+04;  0.0000000E+00; -7.3790107E-09;  1.0000000E+04;  0.0000000E+00;  9.9999688E+03;-0.011814578;0.0;0.0035736735;7.530282
  1.1000013E+00;  9.9999998E-03;  1.0000008E-01;2753;0.0034551756;0.0;0.00026981105;1000.9709;  4.0038702E-01;780.54047;3;5.3321824;0.0;0.58382964;0;-0.0053846743;  1.0000117E+04;  0.0000000E+00; -2.3638435E-08;  1.0000000E+04;  0.0000000E+00;  9.9999482E+03;-0.0110645;0.0;0.0056798253;12.215594
  1.1000013E+00;  9.9999998E-03;  1.2000011E-01;2754;0.0035276245;0.0;0.00036733516;1000.9685;  4.0038708E-01;778.52802;3;5.4652233;0.0;0.79055643;0;-0.00047554169;  1.0000105E+04;  0.0000000E+00; -7.4172144E-06;  1.0000000E+04;  0.0000000E+00;  9.9999092E+03;-0.0099707413;0.0;0.0094951997;21.088207
  1.1000015E+00;  9.9999998E-03;  1.4000015E-01;2755;0.0036281438;0.0;0.00048885192;1000.9644;  4.0038714E-01;775.26978;3;5.6600022;0.0;1.0364463;0;0.0072644278;  1.0000090E+04;  0.0000000E+00; -1.6026682E-04;  1.0000000E+04;  0.0000000E+00;  9.9998438E+03;-0.0085561015;0.0;0.015820529;36.23576
  1.1200012E+00;  9.9999998E-03;  1.2165525E-13;2777;0.0030087794;0.0;-1.0008814e-09;1000.8527;  4.0033889E-01;678.72009;3;4.6846552;0.0;-7.1801187e-06;0;-0.0100874;  1.0000122E+04;  0.0000000E+00; -4.4172530E-17;  1.0000000E+04;  0.0000000E+00;  9.9999883E+03;-0.011582563;0.0;0.0014951628;3.3591564
  1.1200012E+00;  9.9999998E-03;  2.0000011E-02;2778;0.0030134728;0.0;3.9008355e-05;1000.8526;  4.0033892E-01;678.62518;3;4.6920381;0.0;0.083303504;0;-0.0099024028;  1.0000122E+04;  0.0000000E+00; -1.9223116E-10;  1.0000000E+04;  0.0000000E+00;  9.9999873E+03;-0.011503641;0.0;0.0016012383;3.5415571
  1.1200012E+00;  9.9999998E-03;  4.0000025E-02;2779;0.0030281777;0.0;8.1734128e-05;1000.8523;  4.0033889E-01;678.43542;3;4.7153559;0.0;0.17468932;0;-0.0092977881;  1.0000118E+04;  0.0000000E+00; -1.2764505E-09;  1.0000000E+04;  0.0000000E+00;  9.9999844E+03;-0.011251854;0.0;0.0019540661;4.1653495
  1.1200012E+00;  9.9999998E-03;  6.0000040E-02;2780;0.0030547881;0.0;0.00013018896;1000.8517;  4.0033892E-01;677.86609;3;4.7599349;0.0;0.27807656;0;-0.008108912;  1.0000114E+04;  0.0000000E+00; -5.5007066E-09;  1.0000000E+04;  0.0000000E+00;  9.9999775E+03;-0.010783982;0.0;0.0026750707;5.5004463
  1.1200012E+00;  9.9999998E-03;  8.0000058E-02;2781;0.0030945365;0.0;0.00018700839;1000.8506;  4.0033889E-01;677.10699;3;4.8262062;0.0;0.39676183;0;-0.006014931;  1.0000106E+04;  0.0000000E+00; -1.6846162E-08;  1.0000000E+04;  0.0000000E+00;  9.9999629E+03;-0.010036114;0.0;0.0040211827;8.1219454
  1.1200012E+00;  9.9999998E-03;  1.0000008E-01;2782;0.0031512859;0.0;0.00025535526;1000.8489;  4.0033889E-01;675.68365;3;4.926156;0.0;0.54095542;0;-0.0025137081;  1.0000094E+04;  0.0000000E+00; -6.5675144E-06;  1.0000000E+04;  0.0000000E+00;  9.9999395E+03;-0.0089485748;0.0;0.0064348667;13.03249
  1.1200012E+00;  9.9999998E-03;  1.2000010E-01;2783;0.003229941;0.0;0.00033985436;1000.846;  4.0033889E-01;673.40637;3;5.0705333;0.0;0.71940625;0;0.0029491903;  1.0000079E+04;  0.0000000E+00; -1.1096014E-04;  1.0000000E+04;  0.0000000E+00;  9.9998984E+03;-0.0075412458;0.0;0.010490436;21.567289
  1.1200013E+00;  9.9999998E-03;  1.4000013E-01;2784;0.0033406909;0.0;0.00045828038;1000.842;  4.0033892E-01;670.27515;3;5.2776308;0.0;0.94703001;0;0.010648391;  1.0000063E+04;  0.0000000E+00; -7.0523005E-04;  1.0000000E+04;  0.0000000E+00;  9.9998340E+03;-0.0059936093;0.0;0.016642001;34.876331
  1.1400011E+00;  9.9999998E-03; -1.6700607E-13;2805;0.0027236836;0.0;-4.1756046e-10;1000.7548;  4.0030026E-01;593.03033;3;4.2983804;0.0;-4.6843343e-07;0;-0.0076379874;  1.0000097E+04;  0.0000000E+00; -9.8700408E-17;  1.0000000E+04;  0.0000000E+00;  9.9999863E+03;-0.0092689665;0.0;0.0016309791;3.3755667
  1.1400011E+00;  9.9999998E-03;  2.0000013E-02;2806;0.0027291856;0.0;3.8619099e-05;1000.7546;  4.0030023E-01;592.93665;3;4.3072081;0.0;0.080090418;0;-0.0073732035;  1.0000096E+04;  0.0000000E+00; -8.6571994E-10;  1.0000000E+04;  0.0000000E+00;  9.9999854E+03;-0.0091425776;0.0;0.001769374;3.5983398
  1.1400011E+00;  9.9999998E-03;  4.0000025E-02;2807;0.0027459424;0.0;7.9576675e-05;1000.7542;  4.0030026E-01;592.65564;3;4.3345165;0.0;0.16659348;0;-0.0065211481;  1.0000093E+04;  0.0000000E+00; -4.4844239E-09;  1.0000000E+04;  0.0000000E+00;  9.9999805E+03;-0.0087474734;0.0;0.0022263252;4.347363
  1.1400011E+00;  9.9999998E-03;  6.0000036E-02;2808;0.0027741864;0.0;0.00012307895;1000.7534;  4.0030032E-01;591.99994;3;4.3820901;0.0;0.25812933;0;-0.0049027125;  1.0000084E+04;  0.0000000E+00; -6.5300145E-07;  1.0000000E+04;  0.0000000E+00;  9.9999717E+03;-0.0080432473;0.0;0.0031405347;5.8929238
  1.1400011E+00;  9.9999998E-03;  8.0000050E-02;2809;0.002816529;0.0;0.00017205485;1000.752;  4.0030023E-01;590.87585;3;4.4559355;0.0;0.36191645;0;-0.0022251206;  1.0000073E+04;  0.0000000E+00; -1.5549711E-05;  1.0000000E+04;  0.0000000E+00;  9.9999561E+03;-0.0069971401;0.0;0.0047720196;8.7508526
  1.1400011E+00;  9.9999998E-03;  1.0000007E-01;2810;0.0028797877;0.0;0.00023235074;1000.7499;  4.0030026E-01;589.18982;3;4.5684843;0.0;0.48790091;0;0.0018568486;  1.0000059E+04;  0.0000000E+00; -1.3153169E-04;  1.0000000E+04;  0.0000000E+00;  9.9999277E+03;-0.0056371461;0.0;0.0074939947;13.684089
  1.1400012E+00;  9.9999998E-03;  1.2000009E-01;2811;0.0029654934;0.0;0.00031448065;1000.7469;  4.0030032E-01;586.94171;3;4.7198124;0.0;0.65070742;0;0.0075753354;  1.0000042E+04;  0.0000000E+00; -6.4658438E-04;  1.0000000E+04;  0.0000000E+00;  9.9998857E+03;-0.0041043949;0.0;0.01167973;21.52425
  1.1400012E+00;  9.9999998E-03;  1.4000015E-01;2812;0.0031016786;0.0;0.00045158903;1000.7432;  4.0030029E-01;584.03784;3;4.9562392;0.0;0.8875497;0;0.014826652;  1.0000027E+04;  0.0000000E+00; -2.1588888E-03;  1.0000000E+04;  0.0000000E+00;  9.9998252E+03;-0.0026811282;0.0;0.01750778;32.913391
  1.1600009E+00;  9.9999998E-03;  2.0557147E-13;2832;0.0024751974;0.0;-2.4612853e-11;1000.6766;  4.0026993E-01;522.93433;3;3.9665225;0.0;-2.7952519e-06;0;-0.0034681663;  1.0000056E+04;  0.0000000E+00; -3.7429178E-18;  1.0000000E+04;  0.0000000E+00;  9.9999824E+03;-0.0054401713;0.0;0.001972005;3.3504071
  1.1600009E+00;  9.9999998E-03;  2.0000011E-02;2833;0.0024804051;0.0;3.3436936e-05;1000.6765;  4.0026990E-01;522.75006;3;3.9747627;0.0;0.069956444;0;-0.0031049796;  1.0000055E+04;  0.0000000E+00; -2.4031124E-07;  1.0000000E+04;  0.0000000E+00;  9.9999805E+03;-0.0052650203;0.0;0.0021600407;3.621129
  1.1600009E+00;  9.9999998E-03;  4.0000021E-02;2834;0.0024972688;0.0;6.8558387e-05;1000.6759;  4.0026996E-01;522.38153;3;4.0029159;0.0;0.14423421;0;-0.0019758868;  1.0000049E+04;  0.0000000E+00; -6.1378578E-06;  1.0000000E+04;  0.0000000E+00;  9.9999746E+03;-0.0047395718;0.0;0.0027636851;4.5015874
  1.1600009E+00;  9.9999998E-03;  6.0000032E-02;2835;0.0025268339;0.0;0.00010478641;1000.6749;  4.0026990E-01;521.55237;3;4.0555539;0.0;0.22165827;0;4.0315092e-05;  1.0000038E+04;  0.0000000E+00; -4.5419525E-05;  1.0000000E+04;  0.0000000E+00;  9.9999639E+03;-0.0038692546;0.0;0.0039095697;6.2124186
  1.1600010E+00;  9.9999998E-03;  8.0000043E-02;2836;0.002576232;0.0;0.0001514266;1000.6732;  4.0026993E-01;520.26251;3;4.1404791;0.0;0.31896505;0;0.0031086307;  1.0000027E+04;  0.0000000E+00; -2.1979668E-04;  1.0000000E+04;  0.0000000E+00;  9.9999434E+03;-0.0026977162;0.0;0.0058063469;9.1324759
  1.1600010E+00;  9.9999998E-03;  1.0000006E-01;2837;0.0026459114;0.0;0.0002104145;1000.6711;  4.0026990E-01;518.60413;3;4.2572432;0.0;0.43242183;0;0.0073817195;  1.0000012E+04;  0.0000000E+00; -7.7708584E-04;  1.0000000E+04;  0.0000000E+00;  9.9999150E+03;-0.0013361778;0.0;0.0087178973;13.796178
  1.1600010E+00;  9.9999998E-03;  1.2000010E-01;2838;0.0027619649;0.0;0.00031462382;1000.6682;  4.0026996E-01;516.39301;3;4.4520359;0.0;0.61100423;0;0.012834655;  9.9999980E+03;  0.0000000E+00; -2.1792371E-03;  1.0000000E+04;  0.0000000E+00;  9.9998730E+03;-2.3465836e-06;0.0;0.012837002;20.783876
  1.1600012E+00;  9.9999998E-03;  1.4000018E-01;2839;0.0029480597;0.0;0.00051430357;1000.665;  4.0026996E-01;513.9054;3;4.7481518;0.0;0.93133616;0;0.019158421;  9.9999883E+03;  0.0000000E+00; -4.9182177E-03;  1.0000000E+04;  0.0000000E+00;  9.9998174E+03;0.00098783185;0.0;0.01817059;30.587002
  1.1800009E+00;  9.9999998E-03;  3.5848641E-13;2858;0.0022560209;0.0;2.6112196e-10;1000.6152;  4.0024659E-01;465.51257;3;3.6748426;0.0;-1.666449e-06;0;0.0025532651;  9.9999980E+03;  0.0000000E+00; -1.8198275E-18;  1.0000000E+04;  0.0000000E+00;  9.9999756E+03;-7.6653116e-05;0.0;0.0026299183;3.2368338
  1.1800009E+00;  9.9999998E-03;  2.0000007E-02;2859;0.0022611869;0.0;2.50551e-05;1000.6149;  4.0024659E-01;465.33215;3;3.6822751;0.0;0.05603122;0;0.0029779056;  9.9999961E+03;  0.0000000E+00; -1.1317665E-05;  1.0000000E+04;  0.0000000E+00;  9.9999727E+03;0.0001066131;0.0;0.0028712924;3.5409851
  1.1800009E+00;  9.9999998E-03;  4.0000014E-02;2860;0.0022803082;0.0;5.3142558e-05;1000.6143;  4.0024659E-01;464.88107;3;3.7159939;0.0;0.11617975;0;0.0042569842;  9.9999912E+03;  0.0000000E+00; -8.4487401E-05;  1.0000000E+04;  0.0000000E+00;  9.9999658E+03;0.00063650316;0.0;0.0036204809;4.4960771
  1.1800009E+00;  9.9999998E-03;  6.0000025E-02;2861;0.0023167792;0.0;8.7776818e-05;1000.6132;  4.0024656E-01;464.06912;3;3.7770791;0.0;0.18505889;0;0.0064068176;  9.9999824E+03;  0.0000000E+00; -3.4176416E-04;  1.0000000E+04;  0.0000000E+00;  9.9999521E+03;0.0014534496;0.0;0.0049533681;6.2429171
  1.1800009E+00;  9.9999998E-03;  8.0000043E-02;2862;0.0023792647;0.0;0.00014029843;1000.6116;  4.0024662E-01;462.89633;3;3.8750274;0.0;0.28016603;0;0.0094476137;  9.9999717E+03;  0.0000000E+00; -1.0209914E-03;  1.0000000E+04;  0.0000000E+00;  9.9999316E+03;0.0024489574;0.0;0.0069986563;9.0702333
  1.1800009E+00;  9.9999998E-03;  1.0000008E-01;2863;0.0024841223;0.0;0.00022947062;1000.6096;  4.0024656E-01;461.36261;3;4.0367112;0.0;0.42778316;0;0.013363667;  9.9999619E+03;  0.0000000E+00; -2.4669382E-03;  1.0000000E+04;  0.0000000E+00;  9.9999023E+03;0.0034568142;0.0;0.0099068526;13.435532
  1.1800010E+00;  9.9999998E-03;  1.2000015E-01;2864;0.0026557546;0.0;0.00039322104;1000.6072;  4.0024659E-01;459.55826;3;4.2963748;0.0;0.6819135;0;0.017989647;  9.9999531E+03;  0.0000000E+00; -5.0317668E-03;  1.0000000E+04;  0.0000000E+00;  9.9998623E+03;0.004236287;0.0;0.01375336;19.820677
  1.1800011E+00;  9.9999998E-03;  1.4000027E-01;2865;0.0029384855;0.0;0.00070444593;1000.6046;  4.0024659E-01;457.57346;3;4.7114406;0.0;1.161708;0;0.023054849;  9.9999502E+03;  0.0000000E+00; -8.7356772E-03;  1.0000000E+04;  0.0000000E+00;  9.9998125E+03;0.0045441622;0.0;0.018510688;28.396852
  1.2000008E+00;  9.9999998E-03;  2.7559403E-13;2882;0.0020851961;0.0;4.9342258e-10;1000.5676;  4.0022910E-01;418.52957;3;3.4420552;0.0;-6.6235225e-07;0;0.0097860703;  9.9999336E+03;  0.0000000E+00;  4.3140211E-16;  1.0000000E+04;  0.0000000E+00;  9.9999639E+03;0.0061397525;0.0;0.0036463181;2.9748557
  1.2000008E+00;  9.9999998E-03;  2.0000007E-02;2883;0.0020942232;0.0;2.1636552e-05;1000.5674;  4.0022913E-01;418.35382;3;3.4563694;0.0;0.043175798;0;0.010195157;  9.9999316E+03;  0.0000000E+00; -6.6400302E-05;  1.0000000E+04;  0.0000000E+00;  9.9999619E+03;0.0062730443;0.0;0.0039221123;3.2787919
  1.2000008E+00;  9.9999998E-03;  4.0000018E-02;2884;0.0021223461;0.0;5.2532385e-05;1000.5668;  4.0022910E-01;417.82645;3;3.4965219;0.0;0.10044013;0;0.011402493;  9.9999277E+03;  0.0000000E+00; -3.5461903E-04;  1.0000000E+04;  0.0000000E+00;  9.9999531E+03;0.0066437805;0.0;0.0047587133;4.2275538
  1.2000008E+00;  9.9999998E-03;  6.0000036E-02;2885;0.0021793162;0.0;0.00010434461;1000.5659;  4.0022916E-01;417.21121;3;3.5769863;0.0;0.18753064;0;0.013326857;  9.9999219E+03;  0.0000000E+00; -1.1047102E-03;  1.0000000E+04;  0.0000000E+00;  9.9999385E+03;0.007159105;0.0;0.0061677517;5.9519916
  1.2000009E+00;  9.9999998E-03;  8.0000073E-02;2886;0.0022823159;0.0;0.00019550975;1000.5646;  4.0022910E-01;416.24438;3;3.7218945;0.0;0.33039835;0;0.015873199;  9.9999170E+03;  0.0000000E+00; -2.6208663E-03;  1.0000000E+04;  0.0000000E+00;  9.9999180E+03;0.0076732808;0.0;0.0081999181;8.764781
  1.2000009E+00;  9.9999998E-03;  1.0000014E-01;2887;0.0024562909;0.0;0.0003538747;1000.563;  4.0022916E-01;415.10175;3;3.9604628;0.0;0.57298714;0;0.018947359;  9.9999131E+03;  0.0000000E+00; -5.1309746E-03;  1.0000000E+04;  0.0000000E+00;  9.9998906E+03;0.0080171227;0.0;0.010930236;13.040893
  1.2000011E+00;  9.9999998E-03;  1.2000024E-01;2888;0.0027572052;0.0;0.00062711653;1000.5612;  4.0022916E-01;413.69547;3;4.3910656;0.0;0.99530631;0;0.022492331;  9.9999121E+03;  0.0000000E+00; -8.6057531E-03;  1.0000000E+04;  0.0000000E+00;  9.9998555E+03;0.0080813775;0.0;0.014410952;18.912275
  1.2000012E+00;  9.9999998E-03;  1.4000042E-01;2889;0.0032401562;0.0;0.0010786877;1000.559;  4.0022913E-01;412.11334;3;5.1116095;0.0;1.7050824;0;0.026661098;  9.9999131E+03;  0.0000000E+00; -1.2608974E-02;  1.0000000E+04;  0.0000000E+00;  9.9998105E+03;0.0079581579;0.0;0.018702941;26.080914
  1.2200007E+00;  9.9999998E-03; -2.1577359E-13;2905;0.0020440514;0.0;-4.9372381e-11;1000.5316;  4.0021622E-01;379.65497;3;3.3327832;0.0;2.1935302e-06;0;0.017051348;  9.9998701E+03;  0.0000000E+00; -7.2298312E-17;  1.0000000E+04;  0.0000000E+00;  9.9999502E+03;0.012104384;0.0;0.0049469653;2.536279
  1.2200007E+00;  9.9999998E-03;  2.0000016E-02;2906;0.002060378;0.0;4.0966024e-05;1000.5314;  4.0021616E-01;379.48468;3;3.3553743;0.0;0.064477965;0;0.017372174;  9.9998701E+03;  0.0000000E+00; -1.7149693E-04;  1.0000000E+04;  0.0000000E+00;  9.9999482E+03;0.012140163;0.0;0.0052320114;2.8188956
  1.2200009E+00;  9.9999998E-03;  4.0000040E-02;2907;0.0021146829;0.0;0.0001018355;1000.5309;  4.0021622E-01;379.14407;3;3.4269667;0.0;0.15640841;0;0.018296702;  9.9998701E+03;  0.0000000E+00; -8.0408173E-04;  1.0000000E+04;  0.0000000E+00;  9.9999404E+03;0.012217117;0.0;0.0060795839;3.7340205
  1.2200009E+00;  9.9999998E-03;  6.0000084E-02;2908;0.0022266407;0.0;0.00020676092;1000.5302;  4.0021622E-01;378.71832;3;3.5753038;0.0;0.31598759;0;0.019707378;  9.9998691E+03;  0.0000000E+00; -2.1737292E-03;  1.0000000E+04;  0.0000000E+00;  9.9999248E+03;0.01225237;0.0;0.0074550072;5.4728727
  1.2200010E+00;  9.9999998E-03;  8.0000155E-02;2909;0.0024295046;0.0;0.00038139985;1000.5292;  4.0021619E-01;378.03711;3;3.8532059;0.0;0.58768761;0;0.021533286;  9.9998701E+03;  0.0000000E+00; -4.5197452E-03;  1.0000000E+04;  0.0000000E+00;  9.9999063E+03;0.012164513;0.0;0.0093687735;8.3137827
  1.2200011E+00;  9.9999998E-03;  1.0000025E-01;2910;0.0027726002;0.0;0.00064647017;1000.5281;  4.0021619E-01;377.18558;3;4.341682;0.0;1.0112664;0;0.02387628;  9.9998711E+03;  0.0000000E+00; -7.8257415E-03;  1.0000000E+04;  0.0000000E+00;  9.9998809E+03;0.011997952;0.0;0.011878327;12.359761
  1.2200013E+00;  9.9999998E-03;  1.2000040E-01;2911;0.0033046475;0.0;0.0010216243;1000.5264;  4.0021622E-01;375.99344;3;5.1539278;0.0;1.6058919;0;0.0270958;  9.9998711E+03;  0.0000000E+00; -1.1729165E-02;  1.0000000E+04;  0.0000000E+00;  9.9998486E+03;0.012046462;0.0;0.015049338;17.365747
  1.2200016E+00;  9.9999998E-03;  1.4000061E-01;2912;0.0040142769;0.0;0.0015401058;1000.524;  4.0021622E-01;374.29037;3;6.2928634;0.0;2.4109976;0;0.031738281;  9.9998643E+03;  0.0000000E+00; -1.5552301E-02;  1.0000000E+04;  0.0000000E+00;  9.9998086E+03;0.012749857;0.0;0.018988425;22.847622
  1.2400010E+00;  9.9999998E-03;  2.2558080E-14;2926;0.0024231181;0.0;-3.285496e-10;1000.5048;  4.0020680E-01;347.22665;3;3.7481024;0.0;-1.4021498e-06;0;0.023442566;  9.9998184E+03;  0.0000000E+00;  1.2723361E-15;  1.0000000E+04;  0.0000000E+00;  9.9999355E+03;0.017051298;0.0;0.0063912687;1.9246677
  1.2400010E+00;  9.9999998E-03;  2.0000037E-02;2927;0.0024597454;0.0;9.3667702e-05;1000.5046;  4.0020680E-01;347.14465;3;3.8034651;0.0;0.14886436;0;0.023683719;  9.9998193E+03;  0.0000000E+00; -2.7222646E-04;  1.0000000E+04;  0.0000000E+00;  9.9999346E+03;0.017015204;0.0;0.0066685164;2.1736279
  1.2400011E+00;  9.9999998E-03;  4.0000085E-02;2928;0.0025784278;0.0;0.00021779278;1000.5043;  4.0020683E-01;346.89859;3;3.982367;0.0;0.34376985;0;0.02439324;  9.9998193E+03;  0.0000000E+00; -1.2042923E-03;  1.0000000E+04;  0.0000000E+00;  9.9999248E+03;0.016911233;0.0;0.0074820076;3.021239
  1.2400011E+00;  9.9999998E-03;  6.0000159E-02;2929;0.002805033;0.0;0.00040093425;1000.5037;  4.0020680E-01;346.48846;3;4.330379;0.0;0.63071656;0;0.025562709;  9.9998223E+03;  0.0000000E+00; -3.0385156E-03;  1.0000000E+04;  0.0000000E+00;  9.9999121E+03;0.016782725;0.0;0.008779984;4.6661196
  1.2400013E+00;  9.9999998E-03;  8.0000259E-02;2930;0.0031690265;0.0;0.00065965235;1000.5027;  4.0020680E-01;345.83231;3;4.9015689;0.0;1.0342796;0;0.027338408;  9.9998223E+03;  0.0000000E+00; -5.9188991E-03;  1.0000000E+04;  0.0000000E+00;  9.9998936E+03;0.016779058;0.0;0.010559351;7.2575269
  1.2400014E+00;  9.9999998E-03;  1.0000040E-01;2931;0.0036799375;0.0;0.0010028596;1000.5013;  4.0020680E-01;344.93005;3;5.7181778;0.0;1.5682021;0;0.030066067;  9.9998184E+03;  0.0000000E+00; -9.6442392E-03;  1.0000000E+04;  0.0000000E+00;  9.9998711E+03;0.017183874;0.0;0.012882194;10.703828
  1.2400017E+00;  9.9999998E-03;  1.2000058E-01;2932;0.0043047019;0.0;0.0014499468;1000.4994;  4.0020683E-01;343.53571;3;6.735312;0.0;2.264961;0;0.034120478;  9.9998076E+03;  0.0000000E+00; -1.3454413E-02;  1.0000000E+04;  0.0000000E+00;  9.9998408E+03;0.018261183;0.0;0.015859293;14.544571
  1.2400020E+00;  9.9999998E-03;  1.4000082E-01;2933;0.0049594063;0.0;0.002024434;1000.4966;  4.0020680E-01;341.64932;3;7.8326178;0.0;3.1661451;0;0.039480172;  9.9997930E+03;  0.0000000E+00; -1.5596459E-02;  1.0000000E+04;  0.0000000E+00;  9.9998008E+03;0.019817401;0.0;0.019662773;17.858982
  1.2600014E+00;  9.9999998E-03; -4.6208957E-14;2944;0.00357302;0.0;-2.8226371e-10;1000.4843;  4.0020022E-01;319.21188;3;5.5079465;0.0;-4.7095818e-07;0;0.03126432;  9.9997549E+03;  0.0000000E+00; -1.2733718E-17;  1.0000000E+04;  0.0000000E+00;  9.9999209E+03;0.023430534;0.0;0.0078337882;0.75370014
  1.2600014E+00;  9.9999998E-03;  2.0000057E-02;2945;0.0036147952;0.0;0.00014614778;1000.4842;  4.0020019E-01;319.1333;3;5.574852;0.0;0.22979711;0;0.031497143;  9.9997549E+03;  0.0000000E+00; -3.0293819E-04;  1.0000000E+04;  0.0000000E+00;  9.9999189E+03;0.023401545;0.0;0.0080955969;0.96352482
  1.2600015E+00;  9.9999998E-03;  4.0000133E-02;2946;0.0037467727;0.0;0.00033463494;1000.4839;  4.0020025E-01;318.89758;3;5.7879138;0.0;0.52481043;0;0.032220043;  9.9997549E+03;  0.0000000E+00; -1.3228465E-03;  1.0000000E+04;  0.0000000E+00;  9.9999121E+03;0.023358123;0.0;0.0088619189;1.7139634
  1.2600017E+00;  9.9999998E-03;  6.0000241E-02;2947;0.003983553;0.0;0.00060134073;1000.4832;  4.0020022E-01;318.42609;3;6.1714005;0.0;0.94062656;0;0.033541169;  9.9997549E+03;  0.0000000E+00; -3.2899331E-03;  1.0000000E+04;  0.0000000E+00;  9.9998994E+03;0.023443136;0.0;0.010098033;3.145525
  1.2600018E+00;  9.9999998E-03;  8.0000386E-02;2948;0.0043335361;0.0;0.00096044276;1000.4821;  4.0020022E-01;317.7189;3;6.7451062;0.0;1.5011635;0;0.035708804;  9.9997510E+03;  0.0000000E+00; -6.2409597E-03;  1.0000000E+04;  0.0000000E+00;  9.9998818E+03;0.023865901;0.0;0.011842903;5.2912188
  1.2600019E+00;  9.9999998E-03;  1.0000057E-01;2949;0.0047653238;0.0;0.0013993955;1000.4805;  4.0020022E-01;316.69745;3;7.4675841;0.0;2.1910179;0;0.038815185;  9.9997441E+03;  0.0000000E+00; -9.4094472E-03;  1.0000000E+04;  0.0000000E+00;  9.9998574E+03;0.024619937;0.0;0.014195249;7.8139753
  1.2600021E+00;  9.9999998E-03;  1.2000077E-01;2950;0.0052012;0.0;0.0019117299;1000.4787;  4.0020022E-01;315.51883;3;8.2234898;0.0;3.0048277;0;0.042413764;  9.9997383E+03;  0.0000000E+00; -1.0685686E-02;  1.0000000E+04;  0.0000000E+00;  9.9998262E+03;0.02516678;0.0;0.017246984;9.8412533
  1.2600023E+00;  9.9999998E-03;  1.4000101E-01;2951;0.0055610193;0.0;0.0024904786;1000.4769;  4.0020022E-01;314.34024;3;8.8930874;0.0;3.9380643;0;0.045757674;  9.9997432E+03;  0.0000000E+00; -6.6242451E-03;  1.0000000E+04;  0.0000000E+00;  9.9997861E+03;0.024672311;0.0;0.021085361;10.866609
  1.2800020E+00;  9.9999998E-03;  6.8180521E-14;2959;0.0048766714;0.0;-3.3691199e-11;1000.4677;  4.0019569E-01;293.98087;3;7.5872855;0.0;-5.9301965e-07;0;0.041778725;  9.9996631E+03;  0.0000000E+00;  1.0509795E-15;  1.0000000E+04;  0.0000000E+00;  9.9999082E+03;0.03261485;0.0;0.0091638751;1.2277719
  1.2800020E+00;  9.9999998E-03;  2.0000082E-02;2960;0.0048986827;0.0;0.00020315709;1000.4677;  4.0019569E-01;293.98083;3;7.6268525;0.0;0.32031855;0;0.041845642;  9.9996650E+03;  0.0000000E+00; -2.1277090E-04;  1.0000000E+04;  0.0000000E+00;  9.9999063E+03;0.032431256;0.0;0.0094143879;1.0475831
  1.2800020E+00;  9.9999998E-03;  4.0000185E-02;2961;0.0049658231;0.0;0.00046447627;1000.4675;  4.0019569E-01;293.90588;3;7.7489429;0.0;0.73182786;0;0.042055767;  9.9996709E+03;  0.0000000E+00; -9.2181558E-04;  1.0000000E+04;  0.0000000E+00;  9.9998984E+03;0.031889509;0.0;0.010166259;0.6679039
  1.2800021E+00;  9.9999998E-03;  6.0000334E-02;2962;0.0050801258;0.0;0.00083008839;1000.4673;  4.0019566E-01;293.75595;3;7.958971;0.0;1.3079181;0;0.042507444;  9.9996787E+03;  0.0000000E+00; -2.1896521E-03;  1.0000000E+04;  0.0000000E+00;  9.9998848E+03;0.031040125;0.0;0.011467319;1.1755115
  1.2800021E+00;  9.9999998E-03;  8.0000527E-02;2963;0.0052357968;0.0;0.0013048773;1000.4669;  4.0019566E-01;293.53113;3;8.2542267;0.0;2.0602744;0;0.043364782;  9.9996914E+03;  0.0000000E+00; -3.4807117E-03;  1.0000000E+04;  0.0000000E+00;  9.9998643E+03;0.02988093;0.0;0.013483853;2.5544019
  1.2800022E+00;  9.9999998E-03;  1.0000075E-01;2964;0.0053977272;0.0;0.0018274386;1000.4664;  4.0019572E-01;293.15637;3;8.5813999;0.0;2.897912;0;0.044372771;  9.9997080E+03;  0.0000000E+00; -2.7600157E-03;  1.0000000E+04;  0.0000000E+00;  9.9998359E+03;0.028102579;0.0;0.016270192;4.1397371
  1.2800022E+00;  9.9999998E-03;  1.2000097E-01;2965;0.005497409;0.0;0.0023716581;1000.4662;  4.0019569E-01;293.08142;3;8.8351307;0.0;3.7848902;0;0.044725962;  9.9997393E+03;  0.0000000E+00;  2.7510130E-03;  1.0000000E+04;  0.0000000E+00;  9.9998008E+03;0.024949882;0.0;0.019776082;6.78789
  1.3000022E+00;  9.9999998E-03;  5.3072642E-14;2970;0.0054466128;0.0;1.7534445e-10;1000.459;  4.0019253E-01;274.43173;3;8.6258249;0.0;2.9893272e-07;0;0.043395862;  9.9996582E+03;  0.0000000E+00; -9.6828413E-16;  1.0000000E+04;  0.0000000E+00;  9.9998965E+03;0.033080574;0.0;0.010315288;1.7040321
  1.3000022E+00;  9.9999998E-03;  2.0000106E-02;2971;0.0054421108;0.0;0.00026225793;1000.4592;  4.0019250E-01;274.57431;3;8.6249857;0.0;0.41961065;0;0.043114737;  9.9996631E+03;  0.0000000E+00;  5.0017428E-05;  1.0000000E+04;  0.0000000E+00;  9.9998936E+03;0.032546736;0.0;0.010568002;1.4684255
  1.3000022E+00;  9.9999998E-03;  4.0000245E-02;2972;0.0054268888;0.0;0.00060114387;1000.4595;  4.0019253E-01;274.78815;3;8.6238995;0.0;0.9620592;0;0.042311005;  9.9996797E+03;  0.0000000E+00;  3.6547417E-04;  1.0000000E+04;  0.0000000E+00;  9.9998857E+03;0.03092438;0.0;0.011386625;0.73874354
  1.3000022E+00;  9.9999998E-03;  6.0000438E-02;2973;0.0053950269;0.0;0.0010735263;1000.4601;  4.0019253E-01;275.14456;3;8.6132879;0.0;1.7200617;0;0.041232027;  9.9997080E+03;  0.0000000E+00;  1.6493720E-03;  1.0000000E+04;  0.0000000E+00;  9.9998682E+03;0.028205674;0.0;0.013026351;0.91144884
  1.3000022E+00;  9.9999998E-03;  8.0000684E-02;2974;0.0053422735;0.0;0.0016738434;1000.4605;  4.0019250E-01;275.3584;3;8.5890074;0.0;2.6892159;0;0.040435717;  9.9997441E+03;  0.0000000E+00;  5.5190562E-03;  1.0000000E+04;  0.0000000E+00;  9.9998379E+03;0.024499223;0.0;0.015936496;3.5811017
 -4.8451243E-12;  9.9999998E-03;  1.6000000E-01;1053;-3.4534949e-08;0.0;2.2646576e-09;1000.0;  4.0000001E-01;0.0;3;-0.00012664845;0.0;8.4176863e-06;0;-6.4337382e-07;  1.0000000E+04;  0.0000000E+00;  5.0249878E-15;  1.0000000E+04;  0.0000000E+00;  1.0000000E+04;-6.561379e-07;0.0;1.2764059e-08;7.1086702e-06
 -4.6160918E-12;  9.9999998E-03;  1.8000001E-01;1054;-3.2883307e-08;0.0;2.8067262e-09;1000.0;  4.0000001E-01;0.0;3;-0.00012055616;0.0;1.0414295e-05;0;-6.1146989e-07;  1.0000000E+04;  0.0000000E+00; -9.8720250E-15;  1.0000000E+04;  0.0000000E+00;  1.0000000E+04;-6.2547537e-07;0.0;1.4005451e-08;7.7161521e-06
 -4.3298511E-12;  9.9999998E-03;  2.0000000E-01;1055;-3.0828595e-08;0.0;3.3923906e-09;1000.0;  4.0000001E-01;0.0;3;-0.00011299605;0.0;1.2565892e-05;0;-5.7242272e-07;  1.0000000E+04;  0.0000000E+00; -7.6104106E-15;  1.0000000E+04;  0.0000000E+00;  1.0000000E+04;-5.864045e-07;0.0;1.3981776e-08;7.8599269e-06
 -3.9786382E-12;  9.9999998E-03;  2.2000000E-01;1056;-2.8317872e-08;0.0;4.0000256e-09;1000.0;  4.0000001E-01;0.0;3;-0.00010378026;0.0;1.4793112e-05;0;-5.2539713e-07;  1.0000000E+04;  0.0000000E+00; -1.3519626E-15;  1.0000000E+04;  0.0000000E+00;  1.0000000E+04;-5.3687575e-07;0.0;1.1478612e-08;7.02322e-06
 -3.5542567E-12;  9.9999998E-03;  2.3999999E-01;1057;-2.5294451e-08;0.0;4.6044817e-09;1000.0;  4.0000001E-01;0.0;3;-9.2705493e-05;0.0;1.7005174e-05;0;-4.6936398e-07;  1.0000000E+04;  0.0000000E+00; -2.1570046E-15;  1.0000000E+04;  0.0000000E+00;  1.0000000E+04;-4.7490749e-07;0.0;5.5435141e-09;4.7475601e-06
 -3.0514040E-12;  9.9999998E-03;  2.5999999E-01;1058;-2.1722217e-08;0.0;5.1256452e-09;1000.0;  4.0000001E-01;0.0;3;-7.9641613e-05;0.0;1.8907489e-05;0;-4.0353268e-07;  1.0000000E+04;  0.0000000E+00; -1.5055672E-15;  1.0000000E+04;  0.0000000E+00;  1.0000000E+04;-3.9998611e-07;0.0;-3.5465766e-09;1.0609491e-06
 -2.4651516E-12;  9.9999998E-03;  2.8000000E-01;1059;-1.7562513e-08;0.0;5.4960734e-09;1000.0;  4.0000001E-01;0.0;3;-6.4435604e-05;0.0;2.0261563e-05;0;-3.2885401e-07;  1.0000000E+04;  0.0000000E+00; -3.6170695E-15;  1.0000000E+04;  0.0000000E+00;  1.0000000E+04;-3.1513579e-07;0.0;-1.3718235e-08;3.2304602e-06
  2.0000000E-02;  9.9999998E-03;  1.6000000E-01;1083;-6.4410983e-08;0.0;4.2659654e-09;1000.0;  4.0000001E-01;0.0;3;-0.00023400046;0.0;1.5772846e-05;0;-1.1855325e-06;  1.0000000E+04;  0.0000000E+00; -8.5496295E-15;  1.0000000E+04;  0.0000000E+00;  1.0000000E+04;-1.210866e-06;0.0;2.5333481e-08;1.5671561e-05
  2.0000000E-02;  9.9999998E-03;  1.8000001E-01;1084;-6.1411654e-08;0.0;5.2749161e-09;1000.0;  4.0000001E-01;0.0;3;-0.00022302862;0.0;1.9458021e-05;0;-1.1278345e-06;  1.0000000E+04;  0.0000000E+00; -2.6530207E-14;  1.0000000E+04;  0.0000000E+00;  1.0000000E+04;-1.1556738e-06;0.0;2.7839345e-08;1.7049e-05
  2.0000000E-02;  9.9999998E-03;  2.0000000E-01;1085;-5.7668839e-08;0.0;6.3634142e-09;1000.0;  4.0000001E-01;0.0;3;-0.0002093815;0.0;2.3420007e-05;0;-1.0573001e-06;  1.0000000E+04;  0.0000000E+00; -5.0778096E-15;  1.0000000E+04;  0.0000000E+00;  1.0000000E+04;-1.0851636e-06;0.0;2.7863527e-08;1.7395292e-05
  2.0000000E-02;  9.9999998E-03;  2.2000000E-01;1086;-5.3075549e-08;0.0;7.4930755e-09;1000.0;  4.0000001E-01;0.0;3;-0.00019268539;0.0;2.7519834e-05;0;-9.7238944e-07;  1.0000000E+04;  0.0000000E+00; -5.4521906E-15;  1.0000000E+04;  0.0000000E+00;  1.0000000E+04;-9.9538477e-07;0.0;2.2995295e-08;1.5549787e-05
  2.0000000E-02;  9.9999998E-03;  2.3999999E-01;1087;-4.7510461e-08;0.0;8.6181231e-09;1000.0;  4.0000001E-01;0.0;3;-0.00017250983;0.0;3.1595187e-05;0;-8.7108913e-07;  1.0000000E+04;  0.0000000E+00;  2.5844629E-15;  1.0000000E+04;  0.0000000E+00;  1.0000000E+04;-8.8243428e-07;0.0;1.134517e-08;1.0490501e-05
  2.0000000E-02;  9.9999998E-03;  2.5999999E-01;1088;-4.0879485e-08;0.0;9.5896073e-09;1000.0;  4.0000001E-01;0.0;3;-0.00014851577;0.0;3.5103352e-05;0;-7.5168316e-07;  1.0000000E+04;  0.0000000E+00;  1.2137184E-14;  1.0000000E+04;  0.0000000E+00;  1.0000000E+04;-7.4509546e-07;0.0;-6.5876975e-09;2.2760785e-06
  2.0000000E-02;  9.9999998E-03;  2.8000000E-01;1089;-3.3058409e-08;0.0;1.0286151e-08;1000.0;  4.0000001E-01;0.0;3;-0.00012021808;0.0;3.7624995e-05;0;-6.1553931e-07;  1.0000000E+04;  0.0000000E+00;  8.5240237E-15;  1.0000000E+04;  0.0000000E+00;  1.0000000E+04;-5.8872968e-07;0.0;-2.6809655e-08;7.320873e-06
  2.0000000E-02;  9.9999998E-03;  3.0000001E-01;1090;-2.4238053e-08;0.0;1.0449718e-08;1000.0;  4.0000001E-01;0.0;3;-8.8256704e-05;0.0;3.8242833e-05;0;-4.7090171e-07;  1.0000000E+04;  0.0000000E+00; -6.8640429E-15;  1.0000000E+04;  0.0000000E+00;  1.0000000E+04;-4.2742647e-07;0.0;-4.3475243e-08;1.5612537e-05
  3.9999999E-02;  9.9999998E-03;  1.6000000E-01;1114;-1.1696489e-07;0.0;7.7569853e-09;1000.0;  4.0000001E-01;0.0;3;-0.00041983812;0.0;2.8472954e-05;0;-2.1361566e-06;  1.0000000E+04;  0.0000000E+00; -1.5831588E-14;  1.0000000E+04;  0.0000000E+00;  1.0000000E+04;-2.1845583e-06;0.0;4.8401745e-08;3.3404576e-05
  3.9999999E-02;  9.9999998E-03;  1.8000001E-01;1115;-1.1167805e-07;0.0;9.5819912e-09;1000.0;  4.0000001E-01;0.0;3;-0.00040071254;0.0;3.5065084e-05;0;-2.0345296e-06;  1.0000000E+04;  0.0000000E+00; -6.6382929E-15;  1.0000000E+04;  0.0000000E+00;  1.0000000E+04;-2.0877947e-06;0.0;5.326492e-08;3.6415164e-05
  3.9999999E-02;  9.9999998E-03;  2.0000000E-01;1116;-1.0505855e-07;0.0;1.155407e-08;1000.0;  4.0000001E-01;0.0;3;-0.0003768637;0.0;4.2156676e-05;0;-1.9103152e-06;  1.0000000E+04;  0.0000000E+00;  8.2105106E-15;  1.0000000E+04;  0.0000000E+00;  1.0000000E+04;-1.963745e-06;0.0;5.3429858e-08;3.7212354e-05
  3.9999999E-02;  9.9999998E-03;  2.2000000E-01;1117;-9.6899342e-08;0.0;1.3608904e-08;1000.0;  4.0000001E-01;0.0;3;-0.00034758265;0.0;4.9519604e-05;0;-1.760664e-06;  1.0000000E+04;  0.0000000E+00; -1.0121342E-14;  1.0000000E+04;  0.0000000E+00;  1.0000000E+04;-1.8049398e-06;0.0;4.4275847e-08;3.3275399e-05
  3.9999999E-02;  9.9999998E-03;  2.3999999E-01;1118;-8.6959943e-08;0.0;1.5665231e-08;1000.0;  4.0000001E-01;0.0;3;-0.00031202892;0.0;5.6872246e-05;0;-1.5816341e-06;  1.0000000E+04;  0.0000000E+00; -4.1604230E-15;  1.0000000E+04;  0.0000000E+00;  1.0000000E+04;-1.6038122e-06;0.0;2.2177982e-08;2.2398846e-05
  3.9999999E-02;  9.9999998E-03;  2.5999999E-01;1119;-7.5045783e-08;0.0;1.7469262e-08;1000.0;  4.0000001E-01;0.0;3;-0.00026950784;0.0;6.3303349e-05;0;-1.3695548e-06;  1.0000000E+04;  0.0000000E+00;  8.6734497E-15;  1.0000000E+04;  0.0000000E+00;  1.0000000E+04;-1.3575678e-06;0.0;-1.1986899e-08;4.7021313e-06
  3.9999999E-02;  9.9999998E-03;  2.8000000E-01;1120;-6.0934745e-08;0.0;1.8809724e-08;1000.0;  4.0000001E-01;0.0;3;-0.00021914367;0.0;6.8106325e-05;0;-1.126133e-06;  1.0000000E+04;  0.0000000E+00; -1.3313199E-14;  1.0000000E+04;  0.0000000E+00;  1.0000000E+04;-1.0754006e-06;0.0;-5.0732453e-08;1.603073e-05
  3.9999999E-02;  9.9999998E-03;  3.0000001E-01;1121;-4.4894119e-08;0.0;1.9037579e-08;1000.0;  4.0000001E-01;0.0;3;-0.00016175909;0.0;6.8973954e-05;0;-8.6568957e-07;  1.0000000E+04;  0.0000000E+00; -1.3022698E-14;  1.0000000E+04;  0.0000000E+00;  1.0000000E+04;-7.8275087e-07;0.0;-8.2938712e-08;3.4017365e-05
  5.9999999E-02;  9.9999998E-03;  1.6000000E-01;1145;-2.0739974e-07;0.0;1.3756196e-08;1000.0;  4.0000001E-01;0.0;3;-0.00073341338;0.0;5.0013183e-05;0;-3.7749323e-06;  1.0000000E+04;  0.0000000E+00; -2.8562944E-14;  1.0000000E+04;  0.0000000E+00;  1.0000000E+04;-3.8647481e-06;0.0;8.9815693e-08;6.9059359e-05
  5.9999999E-02;  9.9999998E-03;  1.8000001E-01;1146;-1.9833627e-07;0.0;1.6978762e-08;1000.0;  4.0000001E-01;0.0;3;-0.00070109835;0.0;6.1489518e-05;0;-3.6001327e-06;  1.0000000E+04;  0.0000000E+00; -1.1991395E-14;  1.0000000E+04;  0.0000000E+00;  1.0000000E+04;-3.69912e-06;0.0;9.8987371e-08;7.5444834e-05
  5.9999999E-02;  9.9999998E-03;  2.0000000E-01;1147;-1.8693983e-07;0.0;2.0488219e-08;1000.0;  4.0000001E-01;0.0;3;-0.00066066522;0.0;7.3921568e-05;0;-3.3863878e-06;  1.0000000E+04;  0.0000000E+00;  1.4877580E-14;  1.0000000E+04;  0.0000000E+00;  1.0000000E+04;-3.4858997e-06;0.0;9.9511801e-08;7.7230485e-05
  5.9999999E-02;  9.9999998E-03;  2.2000000E-01;1148;-1.7282942e-07;0.0;2.4154314e-08;1000.0;  4.0000001E-01;0.0;3;-0.00061084144;0.0;8.6852473e-05;0;-3.1284369e-06;  1.0000000E+04;  0.0000000E+00; -8.5838480E-15;  1.0000000E+04;  0.0000000E+00;  1.0000000E+04;-3.2112118e-06;0.0;8.2774946e-08;6.9105481e-05
  5.9999999E-02;  9.9999998E-03;  2.3999999E-01;1149;-1.5554404e-07;0.0;2.7831911e-08;1000.0;  4.0000001E-01;0.0;3;-0.0005500454;0.0;9.9791716e-05;0;-2.8186289e-06;  1.0000000E+04;  0.0000000E+00; -7.4701980E-16;  1.0000000E+04;  0.0000000E+00;  1.0000000E+04;-2.8606305e-06;0.0;4.2001574e-08;4.6446163e-05
  5.9999999E-02;  9.9999998E-03;  2.5999999E-01;1150;-1.3467485e-07;0.0;3.1104779e-08;1000.0;  4.0000001E-01;0.0;3;-0.00047683128;0.0;0.00011127631;0;-2.4493411e-06;  1.0000000E+04;  0.0000000E+00; -3.5967726E-14;  1.0000000E+04;  0.0000000E+00;  1.0000000E+04;-2.4280237e-06;0.0;-2.1317382e-08;9.4771103e-06
  5.9999999E-02;  9.9999998E-03;  2.8000000E-01;1151;-1.0976901e-07;0.0;3.3567083e-08;1000.0;  4.0000001E-01;0.0;3;-0.00038941781;0.0;0.00011997799;0;-2.0222401e-06;  1.0000000E+04;  0.0000000E+00; -1.1250769E-11;  1.0000000E+04;  0.0000000E+00;  1.0000000E+04;-1.9287754e-06;0.0;-9.3464564e-08;3.3956003e-05
  5.9999999E-02;  9.9999998E-03;  3.0000001E-01;1152;-8.1171549e-08;0.0;3.4034457e-08;1000.0;  4.0000001E-01;0.0;3;-0.00028869882;0.0;0.00012175518;0;-1.5616431e-06;  1.0000000E+04;  0.0000000E+00; -4.0970366E-11;  1.0000000E+04;  0.0000000E+00;  1.0000000E+04;-1.4079357e-06;0.0;-1.5370742e-07;7.1737159e-05
  7.9999998E-02;  9.9999998E-03;  1.6000000E-01;1176;-3.6070713e-07;0.0;2.3862981e-08;1000.0;  4.0000001E-01;0.0;3;-0.0012530412;0.0;8.5703708e-05;0;-6.5475529e-06;  1.0000000E+04;  0.0000000E+00; -5.0360937E-14;  1.0000000E+04;  0.0000000E+00;  1.0000000E+04;-6.7102092e-06;0.0;1.6265642e-07;0.00013868957
  7.9999998E-02;  9.9999998E-03;  1.8000001E-01;1177;-3.4552579e-07;0.0;2.9444001e-08;1000.0;  4.0000001E-01;0.0;3;-0.0011998913;0.0;0.00010523691;0;-6.2537811e-06;  1.0000000E+04;  0.0000000E+00; -6.6448833E-14;  1.0000000E+04;  0.0000000E+00;  1.0000000E+04;-6.4333713e-06;0.0;1.795903e-07;0.00015187776
  7.9999998E-02;  9.9999998E-03;  2.0000000E-01;1178;-3.2634583e-07;0.0;3.5569574e-08;1000.0;  4.0000001E-01;0.0;3;-0.0011331216;0.0;0.00012654718;0;-5.8942092e-06;  1.0000000E+04;  0.0000000E+00; -3.0270105E-14;  1.0000000E+04;  0.0000000E+00;  1.0000000E+04;-6.0752232e-06;0.0;1.8101396e-07;0.00015581393
  7.9999998E-02;  9.9999998E-03;  2.2000000E-01;1179;-3.0247625e-07;0.0;4.1980663e-08;1000.0;  4.0000001E-01;0.0;3;-0.0010504859;0.0;0.00014873684;0;-5.4591678e-06;  1.0000000E+04;  0.0000000E+00; -1.7447688E-14;  1.0000000E+04;  0.0000000E+00;  1.0000000E+04;-5.6104277e-06;0.0;1.5125987e-07;0.0001396389
  7.9999998E-02;  9.9999998E-03;  2.3999999E-01;1180;-2.7304904e-07;0.0;4.8427257e-08;1000.0;  4.0000001E-01;0.0;3;-0.00094906893;0.0;0.00017098033;0;-4.9343103e-06;  1.0000000E+04;  0.0000000E+00; -1.6589514E-10;  1.0000000E+04;  0.0000000E+00;  1.0000000E+04;-5.0122389e-06;0.0;7.7928483e-08;9.3911891e-05
  7.9999998E-02;  9.9999998E-03;  2.5999999E-01;1181;-2.3720683e-07;0.0;5.4258326e-08;1000.0;  4.0000001E-01;0.0;3;-0.0008258645;0.0;0.00019106394;0;-4.3058949e-06;  1.0000000E+04;  0.0000000E+00; -1.4062794E-09;  1.0000000E+04;  0.0000000E+00;  1.0000000E+04;-4.2692586e-06;0.0;-3.6636205e-08;1.9043277e-05
  7.9999998E-02;  9.9999998E-03;  2.8000000E-01;1182;-1.9405256e-07;0.0;5.8737267e-08;1000.0;  4.0000001E-01;0.0;3;-0.00067737023;0.0;0.00020663823;0;-3.5745391e-06;  1.0000000E+04;  0.0000000E+00; -3.7770440E-09;  1.0000000E+04;  0.0000000E+00;  1.0000000E+04;-3.406615e-06;0.0;-1.679241e-07;6.9681359e-05
  7.9999998E-02;  9.9999998E-03;  3.0000001E-01;1183;-1.4401927e-07;0.0;5.9798154e-08;1000.0;  4.0000001E-01;0.0;3;-0.00050437218;0.0;0.00021063515;0;-2.7785218e-06;  1.0000000E+04;  0.0000000E+00; -6.3920798E-09;  1.0000000E+04;  0.0000000E+00;  1.0000000E+04;-2.5004529e-06;0.0;-2.7806882e-07;0.00014695909
  1.0000000E-01;  9.9999998E-03;  1.6000000E-01;1207;-6.1707419e-07;0.0;4.0576783e-08;1000.0;  4.0000001E-01;0.0;3;-0.002100321;0.0;0.00014353848;0;-1.115183e-05;  1.0000000E+04;  0.0000000E+00; -8.6939821E-14;  1.0000000E+04;  0.0000000E+00;  1.0000000E+04;-1.144013e-05;0.0;2.8830013e-07;0.00027092773
  1.0000000E-01;  9.9999998E-03;  1.8000001E-01;1208;-5.9215154e-07;0.0;5.007697e-08;1000.0;  4.0000001E-01;0.0;3;-0.0020149597;0.0;0.00017611578;0;-1.0668941e-05;  1.0000000E+04;  0.0000000E+00; -3.6666257E-14;  1.0000000E+04;  0.0000000E+00;  1.0000000E+04;-1.0988137e-05;0.0;3.1919518e-07;0.00029758582
  1.0000000E-01;  9.9999998E-03;  2.0000000E-01;1209;-5.6050948e-07;0.0;6.0573122e-08;1000.0;  4.0000001E-01;0.0;3;-0.0019072578;0.0;0.00021186651;0;-1.0076972e-05;  1.0000000E+04;  0.0000000E+00;  4.5862823E-14;  1.0000000E+04;  0.0000000E+00;  1.0000000E+04;-1.0400079e-05;0.0;3.2310672e-07;0.00030633248
  1.0000000E-01;  9.9999998E-03;  2.2000000E-01;1210;-5.2090348e-07;0.0;7.1592581e-08;1000.0;  4.0000001E-01;0.0;3;-0.0017732743;0.0;0.00024918569;0;-9.3600556e-06;  1.0000000E+04;  0.0000000E+00; -1.0610622E-09;  1.0000000E+04;  0.0000000E+00;  1.0000000E+04;-9.632221e-06;0.0;2.7216521e-07;0.00027561517
  1.0000000E-01;  9.9999998E-03;  2.3999999E-01;1211;-4.717256e-07;0.0;8.2733166e-08;1000.0;  4.0000001E-01;0.0;3;-0.0016077337;0.0;0.00028676382;0;-8.4983549e-06;  1.0000000E+04;  0.0000000E+00; -8.4153955E-09;  1.0000000E+04;  0.0000000E+00;  1.0000000E+04;-8.6421605e-06;0.0;1.4380598e-07;0.00018687941
  1.0000000E-01;  9.9999998E-03;  2.5999999E-01;1212;-4.1128101e-07;0.0;9.2988699e-08;1000.0;  4.0000001E-01;0.0;3;-0.0014047551;0.0;0.00032134529;0;-7.4691629e-06;  1.0000000E+04;  0.0000000E+00; -2.7649437E-08;  1.0000000E+04;  0.0000000E+00;  1.0000000E+04;-7.4100089e-06;0.0;-5.9153798e-08;5.6167144e-05
  1.0000000E-01;  9.9999998E-03;  2.8000000E-01;1213;-3.3781583e-07;0.0;1.0110249e-07;1000.0;  4.0000001E-01;0.0;3;-0.0011575919;0.0;0.00034904774;0;-6.2636254e-06;  1.0000000E+04;  0.0000000E+00; -5.5426714E-08;  1.0000000E+04;  0.0000000E+00;  1.0000000E+04;-5.9695535e-06;0.0;-2.9407209e-07;0.00015942786
  1.0000000E-01;  9.9999998E-03;  3.0000001E-01;1214;-2.5176496e-07;0.0;1.0351066e-07;1000.0;  4.0000001E-01;0.0;3;-0.00086622994;0.0;0.00035798992;0;-4.9305331e-06;  1.0000000E+04;  0.0000000E+00; -8.2543714E-08;  1.0000000E+04;  0.0000000E+00;  1.0000000E+04;-4.4376952e-06;0.0;-4.9283784e-07;0.00031570584
  1.2000000E-01;  9.9999998E-03;  1.6000000E-01;1238;-1.040198e-06;0.0;6.7721352e-08;1000.0;  4.0000001E-01;0.0;3;-0.0034618312;0.0;0.00023524521;0;-1.8662693e-05;  1.0000000E+04;  0.0000000E+00; -4.3649996E-14;  1.0000000E+04;  0.0000000E+00;  1.0000000E+04;-1.9164021e-05;0.0;5.0132741e-07;0.00051578134
  1.2000000E-01;  9.9999998E-03;  1.8000001E-01;1239;-1.0001794e-06;0.0;8.3617202e-08;1000.0;  4.0000001E-01;0.0;3;-0.0033282437;0.0;0.00028849879;0;-1.788491e-05;  1.0000000E+04;  0.0000000E+00; -6.2601217E-14;  1.0000000E+04;  0.0000000E+00;  1.0000000E+04;-1.8442761e-05;0.0;5.5785046e-07;0.00056901778
  1.2000000E-01;  9.9999998E-03;  2.0000000E-01;1240;-9.4907688e-07;0.0;1.0133418e-07;1000.0;  4.0000001E-01;0.0;3;-0.0031587619;0.0;0.00034744127;0;-1.6931595e-05;  1.0000000E+04;  0.0000000E+00; -1.4655830E-09;  1.0000000E+04;  0.0000000E+00;  1.0000000E+04;-1.7500985e-05;0.0;5.6938939e-07;0.0005892528
  1.2000000E-01;  9.9999998E-03;  2.2000000E-01;1241;-8.8459387e-07;0.0;1.2007631e-07;1000.0;  4.0000001E-01;0.0;3;-0.0029462334;0.0;0.00040943178;0;-1.5789235e-05;  1.0000000E+04;  0.0000000E+00; -1.7666105E-08;  1.0000000E+04;  0.0000000E+00;  1.0000000E+04;-1.627637e-05;0.0;4.8713514e-07;0.00053553231
  1.2000000E-01;  9.9999998E-03;  2.3999999E-01;1242;-8.0380272e-07;0.0;1.3920257e-07;1000.0;  4.0000001E-01;0.0;3;-0.0026812865;0.0;0.00047238028;0;-1.44404e-05;  1.0000000E+04;  0.0000000E+00; -7.7386979E-08;  1.0000000E+04;  0.0000000E+00;  1.0000000E+04;-1.4709446e-05;0.0;2.6904621e-07;0.0003875884
  1.2000000E-01;  9.9999998E-03;  2.5999999E-01;1243;-7.0355748e-07;0.0;1.5707985e-07;1000.0;  4.0000001E-01;0.0;3;-0.0023531618;0.0;0.00053128932;0;-1.2846451e-05;  1.0000000E+04;  0.0000000E+00; -2.0057421E-07;  1.0000000E+04;  0.0000000E+00;  1.0000000E+04;-1.2762101e-05;0.0;-8.4350233e-08;0.00033170561
  1.2000000E-01;  9.9999998E-03;  2.8000000E-01;1244;-5.8047226e-07;0.0;1.7171725e-07;1000.0;  4.0000001E-01;0.0;3;-0.0019491229;0.0;0.00058026297;0;-1.0963518e-05;  1.0000000E+04;  0.0000000E+00; -3.6743154E-07;  1.0000000E+04;  0.0000000E+00;  1.0000000E+04;-1.0462873e-05;0.0;-5.0064563e-07;0.00064217602
  1.2000000E-01;  9.9999998E-03;  3.0000001E-01;1245;-4.3471897e-07;0.0;1.770275e-07;1000.0;  4.0000001E-01;0.0;3;-0.0014667977;0.0;0.0005996179;0;-8.8133047e-06;  1.0000000E+04;  0.0000000E+00; -5.0393834E-07;  1.0000000E+04;  0.0000000E+00;  1.0000000E+04;-7.9551091e-06;0.0;-8.5819585e-07;0.0009816325
  1.4000000E-01;  9.9999998E-03;  1.6000000E-01;1269;-1.7291195e-06;0.0;1.1095218e-07;1000.0;  4.0000001E-01;0.0;3;-0.0056196027;0.0;0.00037737525;0;-3.0711326e-05;  1.0000000E+04;  0.0000000E+00; -8.0230608E-14;  1.0000000E+04;  0.0000000E+00;  1.0000000E+04;-3.1568845e-05;0.0;8.5751788e-07;0.00095933629
  1.4000000E-01;  9.9999998E-03;  1.8000001E-01;1270;-1.6660558e-06;0.0;1.3724588e-07;1000.0;  4.0000001E-01;0.0;3;-0.0054150061;0.0;0.00046329814;0;-2.9481384e-05;  1.0000000E+04;  0.0000000E+00; -4.4490484E-10;  1.0000000E+04;  0.0000000E+00;  1.0000000E+04;-3.044416e-05;0.0;9.6277677e-07;0.0010654047
  1.4000000E-01;  9.9999998E-03;  2.0000000E-01;1271;-1.5848756e-06;0.0;1.6690913e-07;1000.0;  4.0000001E-01;0.0;3;-0.0051532141;0.0;0.00055965059;0;-2.7985734e-05;  1.0000000E+04;  0.0000000E+00; -1.6293694E-08;  1.0000000E+04;  0.0000000E+00;  1.0000000E+04;-2.8983242e-05;0.0;9.9750832e-07;0.0011148304
  1.4000000E-01;  9.9999998E-03;  2.2000000E-01;1272;-1.4816176e-06;0.0;1.9854471e-07;1000.0;  4.0000001E-01;0.0;3;-0.0048222332;0.0;0.00066178676;0;-2.6236899e-05;  1.0000000E+04;  0.0000000E+00; -1.0844024E-07;  1.0000000E+04;  0.0000000E+00;  1.0000000E+04;-2.7113134e-05;0.0;8.7623437e-07;0.0010438041
  1.4000000E-01;  9.9999998E-03;  2.3999999E-01;1273;-1.3511941e-06;0.0;2.3113479e-07;1000.0;  4.0000001E-01;0.0;3;-0.0044062561;0.0;0.00076636218;0;-2.4241566e-05;  1.0000000E+04;  0.0000000E+00; -3.8210450E-07;  1.0000000E+04;  0.0000000E+00;  1.0000000E+04;-2.4759654e-05;0.0;5.1808792e-07;0.00097946299
  1.4000000E-01;  9.9999998E-03;  2.5999999E-01;1274;-1.1880946e-06;0.0;2.6196113e-07;1000.0;  4.0000001E-01;0.0;3;-0.0038868103;0.0;0.00086549995;0;-2.1942133e-05;  1.0000000E+04;  0.0000000E+00; -9.0783959E-07;  1.0000000E+04;  0.0000000E+00;  1.0000000E+04;-2.1853761e-05;0.0;-8.8371223e-08;0.0015799185
  1.4000000E-01;  9.9999998E-03;  2.8000000E-01;1275;-9.8576118e-07;0.0;2.8817487e-07;1000.0;  4.0000001E-01;0.0;3;-0.0032399171;0.0;0.00095130887;0;-1.9201289e-05;  1.0000000E+04;  0.0000000E+00; -1.5995209E-06;  1.0000000E+04;  0.0000000E+00;  1.0000000E+04;-1.8377266e-05;0.0;-8.2402215e-07;0.0027976136
  1.4000000E-01;  9.9999998E-03;  3.0000001E-01;1276;-7.4307002e-07;0.0;2.9952048e-07;1000.0;  4.0000001E-01;0.0;3;-0.0024562399;0.0;0.00099175703;0;-1.5900734e-05;  1.0000000E+04;  0.0000000E+00; -2.1258015E-06;  1.0000000E+04;  0.0000000E+00;  1.0000000E+04;-1.4429782e-05;0.0;-1.4709528e-06;0.0038022515
  1.6000000E-01;  9.9999998E-03;  1.6000000E-01;1300;-2.8325107e-06;0.0;1.7893132e-07;1000.0;  4.0000001E-01;0.0;3;-0.0089848144;0.0;0.000594627;0;-4.9738152e-05;  1.0000000E+04;  0.0000000E+00;  6.3883022E-14;  1.0000000E+04;  0.0000000E+00;  1.0000000E+04;-5.1184648e-05;0.0;1.4464972e-06;0.0017478038
  1.6000000E-01;  9.9999998E-03;  1.8000001E-01;1301;-2.7343963e-06;0.0;2.2204196e-07;1000.0;  4.0000001E-01;0.0;3;-0.0086756302;0.0;0.00073201349;0;-4.7827081e-05;  1.0000000E+04;  0.0000000E+00; -5.4865410E-09;  1.0000000E+04;  0.0000000E+00;  1.0000000E+04;-4.9474274e-05;0.0;1.6471938e-06;0.0019595781
  1.6000000E-01;  9.9999998E-03;  2.0000000E-01;1302;-2.6073737e-06;0.0;2.7119185e-07;1000.0;  4.0000001E-01;0.0;3;-0.0082774945;0.0;0.00088797486;0;-4.553466e-05;  1.0000000E+04;  0.0000000E+00; -7.7836241E-08;  1.0000000E+04;  0.0000000E+00;  1.0000000E+04;-4.7280639e-05;0.0;1.7459786e-06;0.0020852708
  1.6000000E-01;  9.9999998E-03;  2.2000000E-01;1303;-2.4447675e-06;0.0;3.2400948e-07;1000.0;  4.0000001E-01;0.0;3;-0.0077708107;0.0;0.0010545286;0;-4.2942651e-05;  1.0000000E+04;  0.0000000E+00; -4.0683318E-07;  1.0000000E+04;  0.0000000E+00;  1.0000000E+04;-4.4535656e-05;0.0;1.5930045e-06;0.002098999
  1.6000000E-01;  9.9999998E-03;  2.3999999E-01;1304;-2.2381857e-06;0.0;3.7870885e-07;1000.0;  4.0000001E-01;0.0;3;-0.0071305311;0.0;0.0012256078;0;-4.013666e-05;  1.0000000E+04;  0.0000000E+00; -1.3058808E-06;  1.0000000E+04;  0.0000000E+00;  1.0000000E+04;-4.1166051e-05;0.0;1.0293907e-06;0.002811983
  1.6000000E-01;  9.9999998E-03;  2.5999999E-01;1305;-1.978407e-06;0.0;4.3085257e-07;1000.0;  4.0000001E-01;0.0;3;-0.0063265632;0.0;0.0013890446;0;-3.7067952e-05;  1.0000000E+04;  0.0000000E+00; -3.0148592E-06;  1.0000000E+04;  0.0000000E+00;  1.0000000E+04;-3.7072296e-05;0.0;4.3433488e-09;0.0056034462
  1.6000000E-01;  9.9999998E-03;  2.8000000E-01;1306;-1.6531617e-06;0.0;4.7687075e-07;1000.0;  4.0000001E-01;0.0;3;-0.0053154933;0.0;0.0015361155;0;-3.3421242e-05;  1.0000000E+04;  0.0000000E+00; -5.2847113E-06;  1.0000000E+04;  0.0000000E+00;  1.0000000E+04;-3.2124863e-05;0.0;-1.2963789e-06;0.0097972956
  1.6000000E-01;  9.9999998E-03;  3.0000001E-01;1307;-1.2575097e-06;0.0;5.0013989e-07;1000.0;  4.0000001E-01;0.0;3;-0.0040709344;0.0;0.0016170095;0;-2.8687689e-05;  1.0000000E+04;  0.0000000E+00; -7.0328501E-06;  1.0000000E+04;  0.0000000E+00;  1.0000000E+04;-2.6207883e-05;0.0;-2.4798069e-06;0.013072003
  1.7999999E-01;  9.9999998E-03;  1.6000000E-01;1331;-4.5707538e-06;0.0;2.8498872e-07;1000.0;  4.0000001E-01;0.0;3;-0.014146013;0.0;0.00092460046;0;-7.9342179e-05;  1.0000000E+04;  0.0000000E+00; -9.4236258E-11;  1.0000000E+04;  0.0000000E+00;  1.0000000E+04;-8.1751838e-05;0.0;2.4096601e-06;0.0031252459
  1.7999999E-01;  9.9999998E-03;  1.8000001E-01;1332;-4.4200692e-06;0.0;3.5457703e-07;1000.0;  4.0000001E-01;0.0;3;-0.013684129;0.0;0.00114097;0;-7.6416021e-05;  1.0000000E+04;  0.0000000E+00; -2.2620696E-08;  1.0000000E+04;  0.0000000E+00;  1.0000000E+04;-7.9212579e-05;0.0;2.7965598e-06;0.0035470496
  1.7999999E-01;  9.9999998E-03;  2.0000000E-01;1333;-4.2245902e-06;0.0;4.3457263e-07;1000.0;  4.0000001E-01;0.0;3;-0.013088145;0.0;0.001388954;0;-7.2946714e-05;  1.0000000E+04;  0.0000000E+00; -2.3221772E-07;  1.0000000E+04;  0.0000000E+00;  1.0000000E+04;-7.5998774e-05;0.0;3.0520569e-06;0.0038647247
  1.7999999E-01;  9.9999998E-03;  2.2000000E-01;1334;-3.9732017e-06;0.0;5.2139421e-07;1000.0;  4.0000001E-01;0.0;3;-0.012326212;0.0;0.0016567523;0;-6.9146925e-05;  1.0000000E+04;  0.0000000E+00; -1.0922063E-06;  1.0000000E+04;  0.0000000E+00;  1.0000000E+04;-7.2064067e-05;0.0;2.9171433e-06;0.0042999284
  1.7999999E-01;  9.9999998E-03;  2.3999999E-01;1335;-3.6529252e-06;0.0;6.1089321e-07;1000.0;  4.0000001E-01;0.0;3;-0.011361947;0.0;0.0019293118;0;-6.5284679e-05;  1.0000000E+04;  0.0000000E+00; -3.3918332E-06;  1.0000000E+04;  0.0000000E+00;  1.0000000E+04;-6.7367881e-05;0.0;2.0831988e-06;0.0072949259
  1.7999999E-01;  9.9999998E-03;  2.5999999E-01;1336;-3.2475257e-06;0.0;6.9768521e-07;1000.0;  4.0000001E-01;0.0;3;-0.010143594;0.0;0.0021945178;0;-6.1422477e-05;  1.0000000E+04;  0.0000000E+00; -7.8427784E-06;  1.0000000E+04;  0.0000000E+00;  1.0000000E+04;-6.1813022e-05;0.0;3.9054726e-07;0.015558481
  1.7999999E-01;  9.9999998E-03;  2.8000000E-01;1337;-2.7365857e-06;0.0;7.7603681e-07;1000.0;  4.0000001E-01;0.0;3;-0.0086021991;0.0;0.0024381094;0;-5.7006739e-05;  1.0000000E+04;  0.0000000E+00; -1.3964872E-05;  1.0000000E+04;  0.0000000E+00;  1.0000000E+04;-5.5105869e-05;0.0;-1.9008685e-06;0.027580205
  1.7999999E-01;  9.9999998E-03;  3.0000001E-01;1338;-2.1055876e-06;0.0;8.2169419e-07;1000.0;  4.0000001E-01;0.0;3;-0.0066729779;0.0;0.0025921995;0;-5.0697843e-05;  1.0000000E+04;  0.0000000E+00; -1.8908231E-05;  1.0000000E+04;  0.0000000E+00;  1.0000000E+04;-4.66163e-05;0.0;-4.0815421e-06;0.037225351
  2.0000000E-01;  9.9999998E-03;  1.6000000E-01;1362;-7.2652206e-06;0.0;4.4814965e-07;1000.0001;  4.0000001E-01;0.098762624;3;-0.02193084;0.0;0.0014199389;0;-0.00012475152;  1.0000001E+04;  0.0000000E+00; -5.6013966E-10;  1.0000000E+04;  0.0000000E+00;  1.0000000E+04;-0.000128714;0.0;3.9624915e-06;0.0054912199
  2.0000000E-01;  9.9999998E-03;  1.8000001E-01;1363;-7.0383844e-06;0.0;5.5831111e-07;1000.0001;  4.0000001E-01;0.098762624;3;-0.021253703;0.0;0.0017543287;0;-0.00012032239;  1.0000001E+04;  0.0000000E+00; -5.3932979E-08;  1.0000000E+04;  0.0000000E+00;  1.0000000E+04;-0.0001250225;0.0;4.7001108e-06;0.0063211806
  2.0000000E-01;  9.9999998E-03;  2.0000000E-01;1364;-6.7439078e-06;0.0;6.8543625e-07;1000.0001;  4.0000001E-01;0.098762624;3;-0.020380026;0.0;0.0021389574;0;-0.00011508507;  1.0000001E+04;  0.0000000E+00; -4.9187668E-07;  1.0000000E+04;  0.0000000E+00;  1.0000000E+04;-0.00012038299;0.0;5.2979217e-06;0.0070669283
  2.0000000E-01;  9.9999998E-03;  2.2000000E-01;1365;-6.3630305e-06;0.0;8.2591509e-07;1000.0;  4.0000001E-01;0.0;3;-0.019256528;0.0;0.0025636365;0;-0.00010944032;  1.0000001E+04;  0.0000000E+00; -2.2349966E-06;  1.0000000E+04;  0.0000000E+00;  1.0000000E+04;-0.00011476599;0.0;5.325664e-06;0.008443404
  2.0000000E-01;  9.9999998E-03;  2.3999999E-01;1366;-5.8773485e-06;0.0;9.6836538e-07;1000.0;  4.0000001E-01;0.0;3;-0.017837524;0.0;0.002984935;0;-0.00010397458;  1.0000001E+04;  0.0000000E+00; -6.9452467E-06;  1.0000000E+04;  0.0000000E+00;  1.0000000E+04;-0.00010817881;0.0;4.2042352e-06;0.015725367
  2.0000000E-01;  9.9999998E-03;  2.5999999E-01;1367;-5.2573191e-06;0.0;1.110433e-06;1000.0;  4.0000001E-01;0.0;3;-0.016029729;0.0;0.0034083577;0;-9.9048921e-05;  1.0000001E+04;  0.0000000E+00; -1.6353702E-05;  1.0000000E+04;  0.0000000E+00;  1.0000000E+04;-0.00010056179;0.0;1.5128683e-06;0.034609631
  2.0000000E-01;  9.9999998E-03;  2.8000000E-01;1368;-4.4705343e-06;0.0;1.2435349e-06;1000.0;  4.0000001E-01;0.0;3;-0.013730053;0.0;0.003810999;0;-9.3866445e-05;  1.0000000E+04;  0.0000000E+00; -2.9816247E-05;  1.0000000E+04;  0.0000000E+00;  1.0000000E+04;-9.1413451e-05;0.0;-2.4529916e-06;0.062745355
  2.0000000E-01;  9.9999998E-03;  3.0000001E-01;1369;-3.483746e-06;0.0;1.3331435e-06;1000.0;  4.0000001E-01;0.0;3;-0.010803039;0.0;0.0041040853;0;-8.56314e-05;  1.0000000E+04;  0.0000000E+00; -4.1080486E-05;  1.0000000E+04;  0.0000000E+00;  1.0000000E+04;-7.9209138e-05;0.0;-6.4222613e-06;0.085982859
  2.2000000E-01;  9.9999998E-03;  1.6000000E-01;1393;-1.1376585e-05;0.0;6.9373732e-07;1000.0001;  4.0000001E-01;0.098762624;3;-0.033479162;0.0;0.0021478715;0;-0.0001934538;  1.0000001E+04;  0.0000000E+00; -8.6914692E-10;  1.0000000E+04;  0.0000000E+00;  1.0000000E+04;-0.00019987416;0.0;6.4203655e-06;0.0094854347
  2.2000000E-01;  9.9999998E-03;  1.8000001E-01;1394;-1.1043282e-05;0.0;8.6470453e-07;1000.0001;  4.0000001E-01;0.098762624;3;-0.032511551;0.0;0.0026543129;0;-0.00018683015;  1.0000001E+04;  0.0000000E+00; -8.4089336E-08;  1.0000000E+04;  0.0000000E+00;  1.0000000E+04;-0.00019461477;0.0;7.7846225e-06;0.011080679
  2.2000000E-01;  9.9999998E-03;  2.0000000E-01;1395;-1.0609628e-05;0.0;1.0640913e-06;1000.0001;  4.0000001E-01;0.098762624;3;-0.031261552;0.0;0.0032434885;0;-0.00017894013;  1.0000001E+04;  0.0000000E+00; -7.7294925E-07;  1.0000000E+04;  0.0000000E+00;  1.0000000E+04;-0.00018799814;0.0;9.0580143e-06;0.012660463
  2.2000000E-01;  9.9999998E-03;  2.2000000E-01;1396;-1.0044508e-05;0.0;1.2923433e-06;1000.0001;  4.0000001E-01;0.098762624;3;-0.029641811;0.0;0.0039217481;0;-0.00017039597;  1.0000001E+04;  0.0000000E+00; -3.5657627E-06;  1.0000000E+04;  0.0000000E+00;  1.0000000E+04;-0.00017996023;0.0;9.5642599e-06;0.015297577
  2.2000000E-01;  9.9999998E-03;  2.3999999E-01;1397;-9.3228837e-06;0.0;1.5272552e-06;1000.0001;  4.0000001E-01;0.098762624;3;-0.027599899;0.0;0.0046013766;0;-0.000162208;  1.0000001E+04;  0.0000000E+00; -1.1350359E-05;  1.0000000E+04;  0.0000000E+00;  1.0000000E+04;-0.00017048897;0.0;8.2809674e-06;0.027898312
  2.2000000E-01;  9.9999998E-03;  2.5999999E-01;1398;-8.3918458e-06;0.0;1.782609e-06;1000.0001;  4.0000001E-01;0.098762624;3;-0.02497031;0.0;0.0053535672;0;-0.00015522516;  1.0000001E+04;  0.0000000E+00; -2.7490274E-05;  1.0000000E+04;  0.0000000E+00;  1.0000000E+04;-0.00015949321;0.0;4.2680485e-06;0.062106185
  2.2000000E-01;  9.9999998E-03;  2.8000000E-01;1399;-7.197792e-06;0.0;2.0575003e-06;1000.0001;  4.0000001E-01;0.098762624;3;-0.021591879;0.0;0.0061817262;0;-0.00014835625;  1.0000001E+04;  0.0000000E+00; -5.1321018E-05;  1.0000000E+04;  0.0000000E+00;  1.0000000E+04;-0.00014613508;0.0;-2.2211771e-06;0.11499709
  2.2000000E-01;  9.9999998E-03;  3.0000001E-01;1400;-5.6694898e-06;0.0;2.3055443e-06;1000.0001;  4.0000001E-01;0.098762624;3;-0.017192584;0.0;0.0069847098;0;-0.00013654355;  1.0000001E+04;  0.0000000E+00; -7.1319431E-05;  1.0000000E+04;  0.0000000E+00;  1.0000000E+04;-0.00012763852;0.0;-8.90503e-06;0.15867169
  2.3999999E-01;  9.9999998E-03;  1.6000000E-01;1424;-1.7569097e-05;0.0;1.054561e-06;1000.0001;  4.0000001E-01;0.098762624;3;-0.05034367;0.0;0.0031886778;0;-0.00029605097;  1.0000002E+04;  0.0000000E+00; -3.5463765E-10;  1.0000000E+04;  0.0000000E+00;  1.0000000E+04;-0.00030627943;0.0;1.0228454e-05;0.016107133
  2.3999999E-01;  9.9999998E-03;  1.8000001E-01;1425;-1.7090975e-05;0.0;1.3162868e-06;1000.0001;  4.0000001E-01;0.098762624;3;-0.048999958;0.0;0.0039449073;0;-0.00028630503;  1.0000002E+04;  0.0000000E+00; -8.5758181E-08;  1.0000000E+04;  0.0000000E+00;  1.0000000E+04;-0.00029895507;0.0;1.2650048e-05;0.019076027
  2.3999999E-01;  9.9999998E-03;  2.0000000E-01;1426;-1.6466818e-05;0.0;1.6270041e-06;1000.0001;  4.0000001E-01;0.098762624;3;-0.04725983;0.0;0.0048415135;0;-0.00027456621;  1.0000002E+04;  0.0000000E+00; -9.0110092E-07;  1.0000000E+04;  0.0000000E+00;  1.0000000E+04;-0.00028970488;0.0;1.5138679e-05;0.022167576
  2.3999999E-01;  9.9999998E-03;  2.2000000E-01;1427;-1.5648266e-05;0.0;2.0012369e-06;1000.0001;  4.0000001E-01;0.098762624;3;-0.044990238;0.0;0.0059353043;0;-0.00026165665;  1.0000002E+04;  0.0000000E+00; -4.4331273E-06;  1.0000000E+04;  0.0000000E+00;  1.0000000E+04;-0.00027835162;0.0;1.6694981e-05;0.02599935
  2.3999999E-01;  9.9999998E-03;  2.3999999E-01;1428;-1.4605024e-05;0.0;2.4074905e-06;1000.0001;  4.0000001E-01;0.098762624;3;-0.042145152;0.0;0.007094821;0;-0.00024905519;  1.0000001E+04;  0.0000000E+00; -1.4793827E-05;  1.0000000E+04;  0.0000000E+00;  1.0000000E+04;-0.00026470632;0.0;1.5651138e-05;0.041595802
  2.3999999E-01;  9.9999998E-03;  2.5999999E-01;1429;-1.3249133e-05;0.0;2.908188e-06;1000.0001;  4.0000001E-01;0.098762624;3;-0.038454954;0.0;0.0085645393;0;-0.0002382142;  1.0000001E+04;  0.0000000E+00; -3.7266123E-05;  1.0000000E+04;  0.0000000E+00;  1.0000000E+04;-0.00024843682;0.0;1.0222618e-05;0.090243831
  2.3999999E-01;  9.9999998E-03;  2.8000000E-01;1430;-1.1516605e-05;0.0;3.5279127e-06;1000.0001;  4.0000001E-01;0.098762624;3;-0.033744141;0.0;0.010435117;0;-0.00022765792;  1.0000001E+04;  0.0000000E+00; -7.1412986E-05;  1.0000000E+04;  0.0000000E+00;  1.0000000E+04;-0.00022826123;0.0;6.0330422e-07;0.17025805
  2.3999999E-01;  9.9999998E-03;  3.0000001E-01;1431;-9.32082e-06;0.0;4.1594099e-06;1000.0001;  4.0000001E-01;0.098762624;3;-0.027679393;0.0;0.012459644;0;-0.00020984119;  1.0000001E+04;  0.0000000E+00; -9.9855009E-05;  1.0000000E+04;  0.0000000E+00;  1.0000000E+04;-0.00020041528;0.0;-9.4259112e-06;0.23623042
  2.5999999E-01;  9.9999998E-03;  1.6000000E-01;1455;-2.6812138e-05;0.0;1.5752233e-06;1000.0002;  4.0000001E-01;0.19752523;3;-0.07464622;0.0;0.0046429434;0;-0.00044741691;  1.0000004E+04;  0.0000000E+00;  2.4291224E-14;  1.0000000E+04;  0.0000000E+00;  1.0000000E+04;-0.00046341986;0.0;1.6002939e-05;0.026884114
  2.5999999E-01;  9.9999998E-03;  1.8000001E-01;1456;-2.6143478e-05;0.0;1.9705917e-06;1000.0002;  4.0000001E-01;0.19752523;3;-0.0728404;0.0;0.0057550003;0;-0.00043336218;  1.0000003E+04;  0.0000000E+00; -5.0621587E-08;  1.0000000E+04;  0.0000000E+00;  1.0000000E+04;-0.00045347927;0.0;2.011709e-05;0.032212362
  2.5999999E-01;  9.9999998E-03;  2.0000000E-01;1457;-2.5263285e-05;0.0;2.4577296e-06;1000.0002;  4.0000001E-01;0.19752523;3;-0.07048098;0.0;0.0071320636;0;-0.00041630591;  1.0000003E+04;  0.0000000E+00; -7.4593726E-07;  1.0000000E+04;  0.0000000E+00;  1.0000000E+04;-0.00044093325;0.0;2.4627356e-05;0.037981734
  2.5999999E-01;  9.9999998E-03;  2.2000000E-01;1458;-2.4104756e-05;0.0;3.0895173e-06;1000.0001;  4.0000001E-01;0.098762617;3;-0.067393489;0.0;0.0089655444;0;-0.00039735727;  1.0000003E+04;  0.0000000E+00; -4.1943790E-06;  1.0000000E+04;  0.0000000E+00;  1.0000000E+04;-0.00042548042;0.0;2.8123155e-05;0.043376967
  2.5999999E-01;  9.9999998E-03;  2.3999999E-01;1459;-2.2631119e-05;0.0;3.8437443e-06;1000.0001;  4.0000001E-01;0.098762617;3;-0.063543566;0.0;0.01113802;0;-0.0003785544;  1.0000003E+04;  0.0000000E+00; -1.5148228E-05;  1.0000000E+04;  0.0000000E+00;  1.0000000E+04;-0.00040663886;0.0;2.8084472e-05;0.05614331
  2.5999999E-01;  9.9999998E-03;  2.5999999E-01;1460;-2.07375e-05;0.0;4.7006283e-06;1000.0001;  4.0000001E-01;0.098762617;3;-0.058639906;0.0;0.013554407;0;-0.00036208253;  1.0000003E+04;  0.0000000E+00; -4.0435065E-05;  1.0000000E+04;  0.0000000E+00;  1.0000000E+04;-0.00038360502;0.0;2.1522499e-05;0.10699619
  2.5999999E-01;  9.9999998E-03;  2.8000000E-01;1461;-1.8317005e-05;0.0;5.933508e-06;1000.0001;  4.0000001E-01;0.098762617;3;-0.052379195;0.0;0.017242132;0;-0.00034614434;  1.0000003E+04;  0.0000000E+00; -8.0479651E-05;  1.0000000E+04;  0.0000000E+00;  1.0000000E+04;-0.00035464737;0.0;8.5030388e-06;0.20408824
  2.5999999E-01;  9.9999998E-03;  3.0000001E-01;1462;-1.524176e-05;0.0;7.1554919e-06;1000.0001;  4.0000001E-01;0.098762617;3;-0.044303805;0.0;0.021092728;0;-0.00032125515;  1.0000002E+04;  0.0000000E+00; -1.1469931E-04;  1.0000000E+04;  0.0000000E+00;  1.0000000E+04;-0.00031550811;0.0;-5.747057e-06;0.28853565
  2.8000000E-01;  9.9999998E-03;  1.6000000E-01;1486;-4.0527175e-05;0.0;2.3175469e-06;1000.0002;  4.0000001E-01;0.19752523;3;-0.10932168;0.0;0.0066401442;0;-0.00066823734;  1.0000005E+04;  0.0000000E+00; -3.9556628E-13;  1.0000000E+04;  0.0000000E+00;  1.0000000E+04;-0.0006928342;0.0;2.4596868e-05;0.044124175
  2.8000000E-01;  9.9999998E-03;  1.8000001E-01;1487;-3.9612671e-05;0.0;2.9080243e-06;1000.0002;  4.0000001E-01;0.19752523;3;-0.10696931;0.0;0.0082524912;0;-0.00064837659;  1.0000005E+04;  0.0000000E+00; -1.0011696E-08;  1.0000000E+04;  0.0000000E+00;  1.0000000E+04;-0.00067968626;0.0;3.1309672e-05;0.053354986
  2.8000000E-01;  9.9999998E-03;  2.0000000E-01;1488;-3.8398783e-05;0.0;3.6495048e-06;1000.0002;  4.0000001E-01;0.19752523;3;-0.1038683;0.0;0.010292336;0;-0.00062424445;  1.0000005E+04;  0.0000000E+00; -3.8593112E-07;  1.0000000E+04;  0.0000000E+00;  1.0000000E+04;-0.0006632242;0.0;3.8979742e-05;0.06371817
  2.8000000E-01;  9.9999998E-03;  2.2000000E-01;1489;-3.679542e-05;0.0;4.6206992e-06;1000.0002;  4.0000001E-01;0.19752523;3;-0.099803761;0.0;0.013018762;0;-0.0005975017;  1.0000004E+04;  0.0000000E+00; -2.8324912E-06;  1.0000000E+04;  0.0000000E+00;  1.0000000E+04;-0.00064319232;0.0;4.5690649e-05;0.072635077
  2.8000000E-01;  9.9999998E-03;  2.3999999E-01;1490;-3.4764475e-05;0.0;5.8282749e-06;1000.0002;  4.0000001E-01;0.19752523;3;-0.094784416;0.0;0.016391374;0;-0.00057106168;  1.0000004E+04;  0.0000000E+00; -1.1696873E-05;  1.0000000E+04;  0.0000000E+00;  1.0000000E+04;-0.00061894325;0.0;4.7881553e-05;0.079677202
  2.8000000E-01;  9.9999998E-03;  2.5999999E-01;1491;-3.2140815e-05;0.0;7.5214407e-06;1000.0002;  4.0000001E-01;0.19752523;3;-0.088356622;0.0;0.02127656;0;-0.0005479239;  1.0000004E+04;  0.0000000E+00; -3.4107976E-05;  1.0000000E+04;  0.0000000E+00;  1.0000000E+04;-0.0005891851;0.0;4.126121e-05;0.10899442
  2.8000000E-01;  9.9999998E-03;  2.8000000E-01;1492;-2.8793202e-05;0.0;9.7950006e-06;1000.0002;  4.0000001E-01;0.19752523;3;-0.080192164;0.0;0.028033128;0;-0.0005259157;  1.0000004E+04;  0.0000000E+00; -7.2105322E-05;  1.0000000E+04;  0.0000000E+00;  1.0000000E+04;-0.00055177358;0.0;2.5857877e-05;0.19533931
  2.8000000E-01;  9.9999998E-03;  3.0000001E-01;1493;-2.4444631e-05;0.0;1.2014946e-05;1000.0002;  4.0000001E-01;0.19752523;3;-0.069363169;0.0;0.034948967;0;-0.00049473986;  1.0000004E+04;  0.0000000E+00; -1.0702237E-04;  1.0000000E+04;  0.0000000E+00;  1.0000000E+04;-0.00050224131;0.0;7.5014818e-06;0.28502432
  2.9999998E-01;  9.9999998E-03;  1.6000000E-01;1517;-6.0763672e-05;0.0;3.3736717e-06;1000.0003;  4.0000001E-01;0.2962878;3;-0.15841138;0.0;0.0093692942;0;-0.00098696549;  1.0000008E+04;  0.0000000E+00; -8.5353738E-12;  1.0000000E+04;  0.0000000E+00;  1.0000000E+04;-0.0010241736;0.0;3.720813e-05;0.071303777
  2.9999998E-01;  9.9999998E-03;  1.8000001E-01;1518;-5.9536331e-05;0.0;4.2479428e-06;1000.0003;  4.0000001E-01;0.2962878;3;-0.15543531;0.0;0.011682645;0;-0.0009594041;  1.0000007E+04;  0.0000000E+00; -1.4875032E-11;  1.0000000E+04;  0.0000000E+00;  1.0000000E+04;-0.0010071988;0.0;4.7794696e-05;0.086814724
  2.9999998E-01;  9.9999998E-03;  2.0000000E-01;1519;-5.7891288e-05;0.0;5.3644462e-06;1000.0003;  4.0000001E-01;0.2962878;3;-0.15147139;0.0;0.014668402;0;-0.00092595577;  1.0000007E+04;  0.0000000E+00; -8.6025317E-08;  1.0000000E+04;  0.0000000E+00;  1.0000000E+04;-0.00098617305;0.0;6.0217288e-05;0.10473437
  2.9999998E-01;  9.9999998E-03;  2.2000000E-01;1520;-5.570221e-05;0.0;6.8515096e-06;1000.0003;  4.0000001E-01;0.2962878;3;-0.14624004;0.0;0.018725391;0;-0.00088942662;  1.0000007E+04;  0.0000000E+00; -1.1661912E-06;  1.0000000E+04;  0.0000000E+00;  1.0000000E+04;-0.00096122938;0.0;7.1802744e-05;0.12070717
  2.9999998E-01;  9.9999998E-03;  2.3999999E-01;1521;-5.29182e-05;0.0;8.7551634e-06;1000.0003;  4.0000001E-01;0.2962878;3;-0.13977961;0.0;0.02390225;0;-0.00085453788;  1.0000007E+04;  0.0000000E+00; -6.1842684E-06;  1.0000000E+04;  0.0000000E+00;  1.0000000E+04;-0.00093198847;0.0;7.745059e-05;0.12702033
  2.9999998E-01;  9.9999998E-03;  2.5999999E-01;1522;-4.9310922e-05;0.0;1.1467194e-05;1000.0003;  4.0000001E-01;0.2962878;3;-0.13152033;0.0;0.031497367;0;-0.00082624389;  1.0000007E+04;  0.0000000E+00; -2.0733332E-05;  1.0000000E+04;  0.0000000E+00;  1.0000000E+04;-0.00089712272;0.0;7.0878821e-05;0.12284319
  2.9999998E-01;  9.9999998E-03;  2.8000000E-01;1523;-4.4675828e-05;0.0;1.5140547e-05;1000.0002;  4.0000001E-01;0.1975252;3;-0.12095117;0.0;0.042117324;0;-0.00080261065;  1.0000006E+04;  0.0000000E+00; -4.8242098E-05;  1.0000000E+04;  0.0000000E+00;  1.0000000E+04;-0.00085440528;0.0;5.1794636e-05;0.15027586
  2.9999998E-01;  9.9999998E-03;  3.0000001E-01;1524;-3.8531649e-05;0.0;1.8727149e-05;1000.0002;  4.0000001E-01;0.1975252;3;-0.10655119;0.0;0.052983031;0;-0.00077302172;  1.0000005E+04;  0.0000000E+00; -7.6383745E-05;  1.0000000E+04;  0.0000000E+00;  1.0000000E+04;-0.00079979905;0.0;2.6777319e-05;0.21473579
  3.1999999E-01;  9.9999998E-03;  1.6000000E-01;1548;-9.0371395e-05;0.0;4.8708121e-06;1000.0005;  4.0000001E-01;0.39505041;3;-0.22734086;0.0;0.013069469;0;-0.0014420801;  1.0000012E+04;  0.0000000E+00;  7.6031742E-12;  1.0000000E+04;  0.0000000E+00;  1.0000000E+04;-0.001497642;0.0;5.5561832e-05;0.11369637
  3.1999999E-01;  9.9999998E-03;  1.8000001E-01;1549;-8.874583e-05;0.0;6.1526339e-06;1000.0005;  4.0000001E-01;0.39505041;3;-0.22366159;0.0;0.016338743;0;-0.0014044906;  1.0000012E+04;  0.0000000E+00; -8.6789412E-12;  1.0000000E+04;  0.0000000E+00;  1.0000000E+04;-0.001476283;0.0;7.1792369e-05;0.13911483
  3.1999999E-01;  9.9999998E-03;  2.0000000E-01;1550;-8.6543616e-05;0.0;7.8151434e-06;1000.0005;  4.0000001E-01;0.39505041;3;-0.21869668;0.0;0.020625528;0;-0.0013588276;  1.0000012E+04;  0.0000000E+00;  3.8740027E-12;  1.0000000E+04;  0.0000000E+00;  1.0000000E+04;-0.0014500314;0.0;9.1203809e-05;0.1691236
  3.1999999E-01;  9.9999998E-03;  2.2000000E-01;1551;-8.3576946e-05;0.0;1.0080747e-05;1000.0005;  4.0000001E-01;0.39505041;3;-0.21204256;0.0;0.02657461;0;-0.0013096789;  1.0000012E+04;  0.0000000E+00; -1.7711531E-07;  1.0000000E+04;  0.0000000E+00;  9.9999990E+03;-0.0014196739;0.0;0.00010999502;0.1970883
  3.1999999E-01;  9.9999998E-03;  2.4000001E-01;1552;-7.9777317e-05;0.0;1.3059559e-05;1000.0004;  4.0000001E-01;0.39505041;3;-0.20381127;0.0;0.034306001;0;-0.0012646413;  1.0000011E+04;  0.0000000E+00; -1.7401910E-06;  1.0000000E+04;  0.0000000E+00;  9.9999990E+03;-0.0013856146;0.0;0.00012097334;0.20979555
  3.1999999E-01;  9.9999998E-03;  2.5999999E-01;1553;-7.4796641e-05;0.0;1.7399983e-05;1000.0004;  4.0000001E-01;0.39505041;3;-0.19317524;0.0;0.04586377;0;-0.0012316519;  1.0000010E+04;  0.0000000E+00; -7.6682736E-06;  1.0000000E+04;  0.0000000E+00;  9.9999990E+03;-0.0013471358;0.0;0.0001154839;0.19019593
  3.1999999E-01;  9.9999998E-03;  2.8000000E-01;1554;-6.8320005e-05;0.0;2.3352057e-05;1000.0004;  4.0000001E-01;0.39505041;3;-0.17941591;0.0;0.062240593;0;-0.0012086506;  1.0000009E+04;  0.0000000E+00; -2.0789756E-05;  1.0000000E+04;  0.0000000E+00;  9.9999990E+03;-0.0013028536;0.0;9.4202907e-05;0.14346416
  3.1999999E-01;  9.9999998E-03;  3.0000001E-01;1555;-5.9579528e-05;0.0;2.9207351e-05;1000.0004;  4.0000001E-01;0.39505041;3;-0.16016752;0.0;0.079281881;0;-0.001186386;  1.0000009E+04;  0.0000000E+00; -3.6675105E-05;  1.0000000E+04;  0.0000000E+00;  1.0000000E+04;-0.0012502681;0.0;6.3882129e-05;0.11878426
  3.3999997E-01;  9.9999998E-03;  1.6000000E-01;1579;-0.00013313365;0.0;7.0142059e-06;1000.0009;  4.0000001E-01;0.69133818;3;-0.32308224;0.0;0.018136775;0;-0.0020844089;  1.0000018E+04;  0.0000000E+00; -3.8686833E-13;  1.0000000E+04;  0.0000000E+00;  1.0000000E+04;-0.0021666258;0.0;8.2217033e-05;0.1794188
  3.3999997E-01;  9.9999998E-03;  1.8000001E-01;1580;-0.00013100766;0.0;8.8685829e-06;1000.0008;  4.0000001E-01;0.69133818;3;-0.31863132;0.0;0.02270823;0;-0.0020339959;  1.0000017E+04;  0.0000000E+00; -1.9197343E-11;  1.0000000E+04;  0.0000000E+00;  9.9999990E+03;-0.0021404806;0.0;0.00010648466;0.22021542
  3.3999997E-01;  9.9999998E-03;  2.0000000E-01;1581;-0.00012811022;0.0;1.1274697e-05;1000.0008;  4.0000001E-01;0.69133818;3;-0.3125625;0.0;0.028739253;0;-0.0019727577;  1.0000016E+04;  0.0000000E+00; -2.0018329E-11;  1.0000000E+04;  0.0000000E+00;  9.9999990E+03;-0.0021087516;0.0;0.00013599376;0.26926249
  3.3999997E-01;  9.9999998E-03;  2.2000000E-01;1582;-0.00012416471;0.0;1.4601367e-05;1000.0007;  4.0000001E-01;0.59257555;3;-0.30430168;0.0;0.037338622;0;-0.0019074291;  1.0000016E+04;  0.0000000E+00; -2.7049188E-11;  1.0000000E+04;  0.0000000E+00;  9.9999990E+03;-0.0020726859;0.0;0.00016525683;0.31636357
  3.3999997E-01;  9.9999998E-03;  2.4000001E-01;1583;-0.00011903067;0.0;1.9066272e-05;1000.0007;  4.0000001E-01;0.59257555;3;-0.29394016;0.0;0.048788581;0;-0.0018496964;  1.0000016E+04;  0.0000000E+00; -8.8569870E-08;  1.0000000E+04;  0.0000000E+00;  9.9999990E+03;-0.0020335477;0.0;0.00018385134;0.34096372
  3.3999997E-01;  9.9999998E-03;  2.6000002E-01;1584;-0.00011220128;0.0;2.5659732e-05;1000.0007;  4.0000001E-01;0.59257555;3;-0.28031233;0.0;0.066216581;0;-0.001812153;  1.0000016E+04;  0.0000000E+00; -1.0286468E-06;  1.0000000E+04;  0.0000000E+00;  9.9999990E+03;-0.0019914196;0.0;0.00017926659;0.31486866
  3.3999997E-01;  9.9999998E-03;  2.8000000E-01;1585;-0.00010314699;0.0;3.4888468e-05;1000.0007;  4.0000001E-01;0.59257555;3;-0.26232171;0.0;0.091284908;0;-0.0017929059;  1.0000016E+04;  0.0000000E+00; -3.9502193E-06;  1.0000000E+04;  0.0000000E+00;  9.9999990E+03;-0.0019461928;0.0;0.00015328698;0.232712
  3.3999997E-01;  9.9999998E-03;  3.0000001E-01;1586;-9.0704627e-05;0.0;4.4152977e-05;1000.0007;  4.0000001E-01;0.59257555;3;-0.23657636;0.0;0.1176623;0;-0.0017827196;  1.0000015E+04;  0.0000000E+00; -8.2637034E-06;  1.0000000E+04;  0.0000000E+00;  9.9999990E+03;-0.0018980361;0.0;0.00011531652;0.12100014
  3.5999995E-01;  9.9999998E-03;  1.6000000E-01;1610;-0.00019379187;0.0;1.0128879e-05;1000.0012;  4.0000001E-01;0.98762578;3;-0.45405272;0.0;0.025208432;0;-0.0029792876;  1.0000025E+04;  0.0000000E+00;  2.5131887E-12;  1.0000000E+04;  0.0000000E+00;  9.9999990E+03;-0.003100371;0.0;0.00012108326;0.28119695
  3.5999995E-01;  9.9999998E-03;  1.8000001E-01;1611;-0.00019107165;0.0;1.2766837e-05;1000.0012;  4.0000001E-01;0.98762578;3;-0.44886023;0.0;0.031459905;0;-0.0029127484;  1.0000025E+04;  0.0000000E+00; -9.3126912E-12;  1.0000000E+04;  0.0000000E+00;  9.9999990E+03;-0.0030693358;0.0;0.00015658741;0.34570977
  3.5999995E-01;  9.9999998E-03;  2.0000000E-01;1612;-0.00018737279;0.0;1.6171822e-05;1000.0011;  4.0000001E-01;0.88886321;3;-0.44175091;0.0;0.039685901;0;-0.0028322935;  1.0000024E+04;  0.0000000E+00;  2.2427995E-11;  1.0000000E+04;  0.0000000E+00;  9.9999990E+03;-0.0030326883;0.0;0.00020039474;0.42448625
  3.5999995E-01;  9.9999998E-03;  2.2000000E-01;1613;-0.00018230919;0.0;2.0884218e-05;1000.0011;  4.0000001E-01;0.88886321;3;-0.43194282;0.0;0.051506896;0;-0.0027475953;  1.0000024E+04;  0.0000000E+00;  9.4024608E-11;  1.0000000E+04;  0.0000000E+00;  9.9999990E+03;-0.002992267;0.0;0.0002446716;0.50191325
  3.5999995E-01;  9.9999998E-03;  2.4000001E-01;1614;-0.00017559098;0.0;2.7319848e-05;1000.0011;  4.0000001E-01;0.88886321;3;-0.41935158;0.0;0.067498654;0;-0.0026751396;  1.0000023E+04;  0.0000000E+00;  1.5213536E-10;  1.0000000E+04;  0.0000000E+00;  9.9999990E+03;-0.0029494299;0.0;0.00027429027;0.54567438
  3.5999995E-01;  9.9999998E-03;  2.6000002E-01;1615;-0.00016645601;0.0;3.6950201e-05;1000.001;  4.0000001E-01;0.88886321;3;-0.40230978;0.0;0.092208356;0;-0.0026327893;  1.0000023E+04;  0.0000000E+00;  4.2359330E-10;  1.0000000E+04;  0.0000000E+00;  9.9999990E+03;-0.0029041599;0.0;0.00027137069;0.51104945
  3.5999995E-01;  9.9999998E-03;  2.8000000E-01;1616;-0.00015399622;0.0;5.0760624e-05;1000.001;  4.0000001E-01;0.88886321;3;-0.37904227;0.0;0.12864842;0;-0.0026161275;  1.0000023E+04;  0.0000000E+00; -3.0725410E-08;  1.0000000E+04;  0.0000000E+00;  9.9999990E+03;-0.0028566748;0.0;0.00024054747;0.39092302
  3.5999995E-01;  9.9999998E-03;  3.0000001E-01;1617;-0.00013643818;0.0;6.5052693e-05;1000.001;  4.0000001E-01;0.88886321;3;-0.34476456;0.0;0.1680924;0;-0.0026123032;  1.0000021E+04;  0.0000000E+00; -1.6597131E-07;  1.0000000E+04;  0.0000000E+00;  9.9999990E+03;-0.0028086244;0.0;0.00019632121;0.22600378
  3.7999994E-01;  9.9999998E-03;  1.6000000E-01;1641;-0.00027814589;0.0;1.4680181e-05;1000.0017;  4.0000001E-01;1.3826759;3;-0.62981921;0.0;0.035212744;0;-0.0042085946;  1.0000036E+04;  0.0000000E+00;  2.1688616E-11;  1.0000000E+04;  0.0000000E+00;  9.9999990E+03;-0.0043868669;0.0;0.00017827259;0.43928325
  3.7999994E-01;  9.9999998E-03;  1.8000001E-01;1642;-0.00027477546;0.0;1.837898e-05;1000.0017;  4.0000001E-01;1.3826759;3;-0.62410718;0.0;0.043656033;0;-0.0041219885;  1.0000036E+04;  0.0000000E+00; -4.5530867E-11;  1.0000000E+04;  0.0000000E+00;  9.9999990E+03;-0.0043513672;0.0;0.00022937875;0.54070187
  3.7999994E-01;  9.9999998E-03;  2.0000000E-01;1643;-0.00027025316;0.0;2.3105915e-05;1000.0016;  4.0000001E-01;1.3826759;3;-0.61633831;0.0;0.054663785;0;-0.0040184497;  1.0000035E+04;  0.0000000E+00; -5.7301754E-11;  1.0000000E+04;  0.0000000E+00;  9.9999971E+03;-0.0043116072;0.0;0.00029315738;0.66599864
  3.7999994E-01;  9.9999998E-03;  2.2000001E-01;1644;-0.00026408129;0.0;2.9637209e-05;1000.0016;  4.0000001E-01;1.2839134;3;-0.60550535;0.0;0.070546269;0;-0.0039120987;  1.0000035E+04;  0.0000000E+00;  2.3346818E-11;  1.0000000E+04;  0.0000000E+00;  9.9999971E+03;-0.004270664;0.0;0.00035856542;0.79129869
  3.7999994E-01;  9.9999998E-03;  2.4000001E-01;1645;-0.00025574578;0.0;3.8811562e-05;1000.0016;  4.0000001E-01;1.2839134;3;-0.59122634;0.0;0.092597894;0;-0.0038259809;  1.0000035E+04;  0.0000000E+00;  2.5853863E-10;  1.0000000E+04;  0.0000000E+00;  9.9999971E+03;-0.0042298869;0.0;0.00040390604;0.86589795
  3.7999994E-01;  9.9999998E-03;  2.6000002E-01;1646;-0.00024408555;0.0;5.2863837e-05;1000.0015;  4.0000001E-01;1.2839134;3;-0.57106918;0.0;0.12739903;0;-0.0037836281;  1.0000035E+04;  0.0000000E+00;  6.5192501E-10;  1.0000000E+04;  0.0000000E+00;  9.9999971E+03;-0.0041877697;0.0;0.00040414164;0.81967413
  3.7999994E-01;  9.9999998E-03;  2.8000003E-01;1647;-0.00022753009;0.0;7.3673407e-05;1000.0015;  4.0000001E-01;1.2839134;3;-0.54210293;0.0;0.18033046;0;-0.0037709596;  1.0000034E+04;  0.0000000E+00;  1.0564367E-09;  1.0000000E+04;  0.0000000E+00;  9.9999971E+03;-0.0041427743;0.0;0.00037181459;0.64838409
  3.7999994E-01;  9.9999998E-03;  3.0000001E-01;1648;-0.00020329656;0.0;9.5938682e-05;1000.0015;  4.0000001E-01;1.2839134;3;-0.49736133;0.0;0.23960134;0;-0.0037661628;  1.0000033E+04;  0.0000000E+00;  1.6639091E-09;  1.0000000E+04;  0.0000000E+00;  9.9999980E+03;-0.0040958012;0.0;0.00032963837;0.42018473
  3.9999989E-01;  9.9999998E-03;  1.6000001E-01;1672;-0.00039363554;0.0;2.1366472e-05;1000.0026;  4.0000001E-01;2.172776;3;-0.86117113;0.0;0.049548868;0;-0.0058724196;  1.0000052E+04;  0.0000000E+00;  4.9659679E-11;  1.0000000E+04;  0.0000000E+00;  9.9999980E+03;-0.0061358307;0.0;0.000263411;0.68600142
  3.9999989E-01;  9.9999998E-03;  1.8000001E-01;1673;-0.00038963996;0.0;2.6504094e-05;1000.0025;  4.0000001E-01;2.0740135;3;-0.85546964;0.0;0.060840063;0;-0.0057607698;  1.0000052E+04;  0.0000000E+00;  9.0273058E-13;  1.0000000E+04;  0.0000000E+00;  9.9999971E+03;-0.0060972376;0.0;0.00033646775;0.84641385
  3.9999989E-01;  9.9999998E-03;  2.0000000E-01;1674;-0.00038442333;0.0;3.2919983e-05;1000.0024;  4.0000001E-01;1.9752508;3;-0.84791088;0.0;0.075238071;0;-0.0056298636;  1.0000052E+04;  0.0000000E+00; -7.8417751E-11;  1.0000000E+04;  0.0000000E+00;  9.9999971E+03;-0.0060581523;0.0;0.00042828868;1.0460957
  3.9999989E-01;  9.9999998E-03;  2.2000001E-01;1675;-0.00037740887;0.0;4.1674833e-05;1000.0023;  4.0000001E-01;1.8764883;3;-0.83732945;0.0;0.095798604;0;-0.00550078;  1.0000052E+04;  0.0000000E+00;  1.1369414E-10;  1.0000000E+04;  0.0000000E+00;  9.9999961E+03;-0.0060240636;0.0;0.00052328373;1.2480857
  3.9999989E-01;  9.9999998E-03;  2.4000001E-01;1676;-0.00036782803;0.0;5.4271091e-05;1000.0023;  4.0000001E-01;1.8764883;3;-0.82304174;0.0;0.12518676;0;-0.0054068258;  1.0000052E+04;  0.0000000E+00;  4.0314699E-10;  1.0000000E+04;  0.0000000E+00;  9.9999961E+03;-0.0059965281;0.0;0.00058970222;1.371461
  3.9999992E-01;  9.9999998E-03;  2.6000002E-01;1677;-0.00035391594;0.0;7.414032e-05;1000.0023;  4.0000001E-01;1.8764883;3;-0.8014043;0.0;0.17266697;0;-0.0053805429;  1.0000050E+04;  0.0000000E+00;  1.1513454E-09;  1.0000000E+04;  0.0000000E+00;  9.9999961E+03;-0.005971442;0.0;0.00059089926;1.3050057
  3.9999992E-01;  9.9999998E-03;  2.8000003E-01;1678;-0.00033296863;0.0;0.00010480883;1000.0023;  4.0000001E-01;1.8764883;3;-0.76762676;0.0;0.24750297;0;-0.0053900923;  1.0000049E+04;  0.0000000E+00;  2.5798534E-09;  1.0000000E+04;  0.0000000E+00;  9.9999961E+03;-0.005943811;0.0;0.00055371865;1.0587242
  3.9999992E-01;  9.9999998E-03;  3.0000004E-01;1679;-0.00030053686;0.0;0.00013939929;1000.0023;  4.0000001E-01;1.8764883;3;-0.71140158;0.0;0.33454815;0;-0.0053830566;  1.0000049E+04;  0.0000000E+00;  3.2614778E-09;  1.0000000E+04;  0.0000000E+00;  9.9999961E+03;-0.0059120734;0.0;0.00052901689;0.76605165
  4.1999984E-01;  9.9999998E-03;  1.6000001E-01;1703;-0.00055070192;0.0;3.1207066e-05;1000.0036;  4.0000001E-01;2.9628754;3;-1.1612099;0.0;0.070304126;0;-0.0080880299;  1.0000075E+04;  0.0000000E+00;  1.5000249E-11;  1.0000000E+04;  0.0000000E+00;  9.9999971E+03;-0.0084794853;0.0;0.00039145522;1.0721118
  4.1999984E-01;  9.9999998E-03;  1.8000001E-01;1704;-0.00054622744;0.0;3.8361057e-05;1000.0036;  4.0000001E-01;2.9628754;3;-1.1564534;0.0;0.085392386;0;-0.0079441192;  1.0000075E+04;  0.0000000E+00; -1.5624941E-11;  1.0000000E+04;  0.0000000E+00;  9.9999961E+03;-0.0084408307;0.0;0.00049671117;1.3309083
  4.1999984E-01;  9.9999998E-03;  2.0000002E-01;1705;-0.00054061046;0.0;4.6975896e-05;1000.0035;  4.0000001E-01;2.8641129;3;-1.1505501;0.0;0.10402221;0;-0.0077799386;  1.0000074E+04;  0.0000000E+00; -2.2871877E-10;  1.0000000E+04;  0.0000000E+00;  9.9999961E+03;-0.0084092757;0.0;0.00062933686;1.6545779
  4.1999984E-01;  9.9999998E-03;  2.2000001E-01;1706;-0.00053335726;0.0;5.8259582e-05;1000.0034;  4.0000001E-01;2.8641129;3;-1.1425629;0.0;0.1294772;0;-0.0076276958;  1.0000074E+04;  0.0000000E+00;  5.1357262E-11;  1.0000000E+04;  0.0000000E+00;  9.9999941E+03;-0.0083946018;0.0;0.00076690613;1.9837722
  4.1999984E-01;  9.9999998E-03;  2.4000002E-01;1707;-0.00052341254;0.0;7.5294149e-05;1000.0034;  4.0000001E-01;2.7653503;3;-1.1314448;0.0;0.16775143;0;-0.0075369026;  1.0000074E+04;  0.0000000E+00;  8.5233154E-10;  1.0000000E+04;  0.0000000E+00;  9.9999922E+03;-0.0083989408;0.0;0.00086203835;2.1847117
  4.1999987E-01;  9.9999998E-03;  2.6000002E-01;1708;-0.00050823629;0.0;0.00010288336;1000.0034;  4.0000001E-01;2.7653503;3;-1.1120175;0.0;0.23119096;0;-0.0075554447;  1.0000074E+04;  0.0000000E+00;  2.7818727E-09;  1.0000000E+04;  0.0000000E+00;  9.9999932E+03;-0.0084143067;0.0;0.00085886184;2.0708256
  4.1999987E-01;  9.9999998E-03;  2.8000003E-01;1709;-0.0004833056;0.0;0.00014788227;1000.0034;  4.0000001E-01;2.8641129;3;-1.0764489;0.0;0.33727881;0;-0.0076198392;  1.0000074E+04;  0.0000000E+00;  5.0059090E-09;  1.0000000E+04;  0.0000000E+00;  9.9999951E+03;-0.0084298747;0.0;0.00081003545;1.6775945
  4.1999987E-01;  9.9999998E-03;  3.0000004E-01;1710;-0.0004414111;0.0;0.00020091643;1000.0034;  4.0000001E-01;2.8641129;3;-1.0094018;0.0;0.46653312;0;-0.0076289154;  1.0000073E+04;  0.0000000E+00;  4.2783186E-09;  1.0000000E+04;  0.0000000E+00;  9.9999951E+03;-0.0084392698;0.0;0.00081035466;1.2762934
  4.3999976E-01;  9.9999998E-03;  1.6000001E-01;1734;-0.00076489011;0.0;4.5649369e-05;1000.0051;  4.0000001E-01;4.1480241;3;-1.54755;0.0;0.10049564;0;-0.01097839;  1.0000106E+04;  0.0000000E+00;  7.7301866E-11;  1.0000000E+04;  0.0000000E+00;  9.9999961E+03;-0.01156336;0.0;0.00058497052;1.674729
  4.3999976E-01;  9.9999998E-03;  1.8000002E-01;1735;-0.00076019223;0.0;5.5830496e-05;1000.0049;  4.0000001E-01;4.0492616;3;-1.5451359;0.0;0.12099045;0;-0.010790263;  1.0000106E+04;  0.0000000E+00;  1.1727380E-10;  1.0000000E+04;  0.0000000E+00;  9.9999932E+03;-0.011530872;0.0;0.00074060803;2.1051145
  4.3999976E-01;  9.9999998E-03;  2.0000002E-01;1736;-0.00075457012;0.0;6.7483576e-05;1000.0048;  4.0000001E-01;3.9504991;3;-1.5429837;0.0;0.1449555;0;-0.010581874;  1.0000106E+04;  0.0000000E+00;  1.0162914E-10;  1.0000000E+04;  0.0000000E+00;  9.9999922E+03;-0.011518601;0.0;0.0009367271;2.6460617
  4.3999979E-01;  9.9999998E-03;  2.2000003E-01;1737;-0.00074783247;0.0;8.1993116e-05;1000.0048;  4.0000001E-01;3.9504991;3;-1.5408341;0.0;0.17578919;0;-0.010403123;  1.0000105E+04;  0.0000000E+00;  2.9797637E-10;  1.0000000E+04;  0.0000000E+00;  9.9999902E+03;-0.01154297;0.0;0.001139848;3.1984181
  4.3999979E-01;  9.9999998E-03;  2.4000002E-01;1738;-0.00073886832;0.0;0.00010421994;1000.0047;  4.0000001E-01;3.8517365;3;-1.5377423;0.0;0.2238939;0;-0.01033177;  1.0000105E+04;  0.0000000E+00;  2.1044209E-09;  1.0000000E+04;  0.0000000E+00;  9.9999893E+03;-0.011607348;0.0;0.0012755772;3.5319288
  4.3999979E-01;  9.9999998E-03;  2.6000005E-01;1739;-0.0007243841;0.0;0.0001412202;1000.0047;  4.0000001E-01;3.8517365;3;-1.5271313;0.0;0.30547675;0;-0.010447865;  1.0000106E+04;  0.0000000E+00;  5.9279897E-09;  1.0000000E+04;  0.0000000E+00;  9.9999893E+03;-0.011698494;0.0;0.0012506285;3.3175483
  4.3999979E-01;  9.9999998E-03;  2.8000006E-01;1740;-0.00069705845;0.0;0.00020563115;1000.0048;  4.0000001E-01;3.9504991;3;-1.496357;0.0;0.45066825;0;-0.010641355;  1.0000106E+04;  0.0000000E+00;  8.9507539E-09;  1.0000000E+04;  0.0000000E+00;  9.9999922E+03;-0.01179686;0.0;0.0011555054;2.6193347
  4.3999982E-01;  9.9999998E-03;  3.0000007E-01;1741;-0.00064537727;0.0;0.00028650239;1000.0049;  4.0000001E-01;4.0492616;3;-1.4224944;0.0;0.6413852;0;-0.010704522;  1.0000107E+04;  0.0000000E+00;  4.0037862E-09;  1.0000000E+04;  0.0000000E+00;  9.9999922E+03;-0.011888007;0.0;0.0011834848;1.9599527
  4.5999965E-01;  9.9999998E-03;  1.6000001E-01;1765;-0.0010587435;0.0;6.6678069e-05;1000.0073;  4.0000015E-01;6.0245075;3;-2.0446327;0.0;0.14430617;0;-0.014636972;  1.0000146E+04;  0.0000000E+00;  3.4275438E-10;  1.0000000E+04;  0.0000000E+00;  9.9999922E+03;-0.015513619;0.0;0.00087664725;2.6060073
  4.5999965E-01;  9.9999998E-03;  1.8000002E-01;1766;-0.0010540516;0.0;8.1732542e-05;1000.0072;  4.0000015E-01;5.925745;3;-2.0463438;0.0;0.17304352;0;-0.014382659;  1.0000146E+04;  0.0000000E+00;  4.6662708E-12;  1.0000000E+04;  0.0000000E+00;  9.9999902E+03;-0.01549941;0.0;0.0011167513;3.3462825
  4.5999968E-01;  9.9999998E-03;  2.0000003E-01;1767;-0.0010484983;0.0;9.8249053e-05;1000.007;  4.0000013E-01;5.72822;3;-2.0499623;0.0;0.20475677;0;-0.01410595;  1.0000146E+04;  0.0000000E+00;  4.7011561E-10;  1.0000000E+04;  0.0000000E+00;  9.9999873E+03;-0.015525946;0.0;0.0014199971;4.2849698
  4.5999968E-01;  9.9999998E-03;  2.2000003E-01;1768;-0.001042719;0.0;0.00011735409;1000.0068;  4.0000013E-01;5.6294575;3;-2.0573604;0.0;0.24209322;0;-0.013884624;  1.0000147E+04;  0.0000000E+00;  1.6042182E-09;  1.0000000E+04;  0.0000000E+00;  9.9999844E+03;-0.015618542;0.0;0.0017339187;5.2501149
  4.5999968E-01;  9.9999998E-03;  2.4000004E-01;1769;-0.0010362327;0.0;0.00014597125;1000.0068;  4.0000013E-01;5.6294575;3;-2.0685358;0.0;0.30066296;0;-0.013846082;  1.0000148E+04;  0.0000000E+00;  5.9062399E-09;  1.0000000E+04;  0.0000000E+00;  9.9999824E+03;-0.01578217;0.0;0.0019360884;5.8340921
  4.5999968E-01;  9.9999998E-03;  2.6000005E-01;1770;-0.0010256189;0.0;0.00019405388;1000.0069;  4.0000013E-01;5.72822;3;-2.0770197;0.0;0.40076268;0;-0.014136353;  1.0000149E+04;  0.0000000E+00;  1.3799761E-08;  1.0000000E+04;  0.0000000E+00;  9.9999834E+03;-0.015997214;0.0;0.0018608613;5.4365139
  4.5999968E-01;  9.9999998E-03;  2.8000009E-01;1771;-0.00099979015;0.0;0.00028446628;1000.0071;  4.0000013E-01;5.8269825;3;-2.0635033;0.0;0.59478486;0;-0.014585086;  1.0000150E+04;  0.0000000E+00;  1.9509731E-08;  1.0000000E+04;  0.0000000E+00;  9.9999863E+03;-0.016232638;0.0;0.0016475513;4.1537075
  4.5999971E-01;  9.9999998E-03;  3.0000013E-01;1772;-0.00094042765;0.0;0.00040722633;1000.0074;  4.0000013E-01;6.1232696;3;-1.9936645;0.0;0.8701961;0;-0.014750695;  1.0000152E+04;  0.0000000E+00;  8.3862846E-09;  1.0000000E+04;  0.0000000E+00;  9.9999883E+03;-0.016461758;0.0;0.0017110636;3.0945656
  4.7999951E-01;  9.9999998E-03;  1.6000003E-01;1796;-0.0014616353;0.0;9.693727e-05;1000.0103;  4.0000045E-01;8.5923233;3;-2.6838646;0.0;0.20724288;0;-0.019055612;  1.0000200E+04;  0.0000000E+00;  7.3507506E-10;  1.0000000E+04;  0.0000000E+00;  9.9999893E+03;-0.020368321;0.0;0.0013127084;4.0248156
  4.7999951E-01;  9.9999998E-03;  1.8000004E-01;1797;-0.0014569325;0.0;0.0001200735;1000.0101;  4.0000042E-01;8.2960367;3;-2.6914399;0.0;0.24956293;0;-0.018692423;  1.0000199E+04;  0.0000000E+00;  9.8786812E-10;  1.0000000E+04;  0.0000000E+00;  9.9999844E+03;-0.020394713;0.0;0.0017022897;5.3355293
  4.7999951E-01;  9.9999998E-03;  2.0000005E-01;1798;-0.0014506164;0.0;0.0001455751;1000.0099;  4.0000036E-01;8.1972742;3;-2.7021124;0.0;0.29512602;0;-0.018292818;  1.0000199E+04;  0.0000000E+00;  1.9376527E-09;  1.0000000E+04;  0.0000000E+00;  9.9999805E+03;-0.020491431;0.0;0.0021986121;7.0202918
  4.7999951E-01;  9.9999998E-03;  2.2000006E-01;1799;-0.0014451168;0.0;0.00017256232;1000.0096;  4.0000042E-01;7.9997497;3;-2.7221956;0.0;0.34205583;0;-0.017977037;  1.0000200E+04;  0.0000000E+00;  5.1122555E-09;  1.0000000E+04;  0.0000000E+00;  9.9999736E+03;-0.020692471;0.0;0.0027154342;8.7734671
  4.7999951E-01;  9.9999998E-03;  2.4000007E-01;1800;-0.0014421716;0.0;0.00020931881;1000.0096;  4.0000042E-01;7.9009871;3;-2.7543144;0.0;0.41045699;0;-0.017962024;  1.0000203E+04;  0.0000000E+00;  1.5377202E-08;  1.0000000E+04;  0.0000000E+00;  9.9999697E+03;-0.021003742;0.0;0.0030417182;9.8580942
  4.7999954E-01;  9.9999998E-03;  2.6000008E-01;1801;-0.0014405743;0.0;0.00027017423;1000.0099;  4.0000039E-01;8.1972742;3;-2.7971692;0.0;0.52776355;0;-0.018529911;  1.0000206E+04;  0.0000000E+00;  3.4935390E-08;  1.0000000E+04;  0.0000000E+00;  9.9999727E+03;-0.021399477;0.0;0.0028695662;9.1544809
  4.7999954E-01;  9.9999998E-03;  2.8000012E-01;1802;-0.0014248032;0.0;0.00039464099;1000.0104;  4.0000042E-01;8.5923233;3;-2.822813;0.0;0.78009158;0;-0.01945325;  1.0000210E+04;  0.0000000E+00;  4.6700080E-08;  1.0000000E+04;  0.0000000E+00;  9.9999795E+03;-0.021836137;0.0;0.002382888;6.7349715
  4.7999957E-01;  9.9999998E-03;  3.0000019E-01;1803;-0.0013665649;0.0;0.00057863741;1000.0107;  4.0000042E-01;8.8886108;3;-2.7821972;0.0;1.1744969;0;-0.019880183;  1.0000214E+04;  0.0000000E+00;  1.3768564E-08;  1.0000000E+04;  0.0000000E+00;  9.9999834E+03;-0.022270432;0.0;0.0023902478;4.7302866
  4.9999928E-01;  9.9999998E-03;  1.6000004E-01;1827;-0.0020060854;0.0;0.00013843772;1000.0143;  4.0000090E-01;11.851469;3;-3.5003252;0.0;0.29251567;0;-0.024017937;  1.0000262E+04;  0.0000000E+00;  3.4319514E-09;  1.0000000E+04;  0.0000000E+00;  9.9999824E+03;-0.025978284;0.0;0.0019603455;6.1619654
  4.9999928E-01;  9.9999998E-03;  1.8000005E-01;1828;-0.0020004418;0.0;0.00017617809;1000.014;  4.0000087E-01;11.653945;3;-3.5144291;0.0;0.36037734;0;-0.023458822;  1.0000262E+04;  0.0000000E+00;  3.1621068E-09;  1.0000000E+04;  0.0000000E+00;  9.9999766E+03;-0.026081683;0.0;0.0026228619;8.5277138
  4.9999931E-01;  9.9999998E-03;  2.0000006E-01;1829;-0.0019913684;0.0;0.00021763994;1000.0136;  4.0000087E-01;11.258896;3;-3.5323424;0.0;0.43020731;0;-0.022814028;  1.0000263E+04;  0.0000000E+00;  4.9716911E-09;  1.0000000E+04;  0.0000000E+00;  9.9999668E+03;-0.026292846;0.0;0.0034788181;11.615328
  4.9999931E-01;  9.9999998E-03;  2.2000009E-01;1830;-0.0019829888;0.0;0.00026119006;1000.0133;  4.0000090E-01;11.061371;3;-3.5657816;0.0;0.49745101;0;-0.022268277;  1.0000266E+04;  0.0000000E+00;  1.3140129E-08;  1.0000000E+04;  0.0000000E+00;  9.9999570E+03;-0.026649853;0.0;0.0043815756;14.875377
  4.9999931E-01;  9.9999998E-03;  2.4000010E-01;1831;-0.0019838216;0.0;0.00031000123;1000.0132;  4.0000090E-01;10.962609;3;-3.6246943;0.0;0.57753295;0;-0.02220135;  1.0000271E+04;  0.0000000E+00;  4.1171308E-08;  1.0000000E+04;  0.0000000E+00;  9.9999512E+03;-0.027157236;0.0;0.0049558855;16.963734
  4.9999931E-01;  9.9999998E-03;  2.6000014E-01;1832;-0.0019993617;0.0;0.00038669704;1000.0136;  4.0000087E-01;11.258896;3;-3.7230244;0.0;0.71009594;0;-0.023159945;  1.0000274E+04;  0.0000000E+00;  9.3140883E-08;  1.0000000E+04;  0.0000000E+00;  9.9999551E+03;-0.027785711;0.0;0.0046257656;15.809962
  4.9999931E-01;  9.9999998E-03;  2.8000018E-01;1833;-0.0020115902;0.0;0.00055435952;1000.0145;  4.0000090E-01;11.950232;3;-3.8258157;0.0;1.0262332;0;-0.024912367;  1.0000280E+04;  0.0000000E+00;  1.2317982E-07;  1.0000000E+04;  0.0000000E+00;  9.9999668E+03;-0.028482068;0.0;0.003569701;11.271753
  4.9999934E-01;  9.9999998E-03;  3.0000028E-01;1834;-0.0019783995;0.0;0.00082515046;1000.0152;  4.0000090E-01;12.542805;3;-3.865885;0.0;1.5815742;0;-0.025895858;  1.0000286E+04;  0.0000000E+00;  3.3973034E-08;  1.0000000E+04;  0.0000000E+00;  9.9999746E+03;-0.029183371;0.0;0.0032875123;7.2363143
  5.1999897E-01;  9.9999998E-03;  1.6000006E-01;1858;-0.0027184172;0.0;0.00019613846;1000.0212;  4.0000245E-01;17.579655;3;-4.5214114;0.0;0.41083363;0;-0.028979674;  1.0000328E+04;  0.0000000E+00;  5.6718461E-09;  1.0000000E+04;  0.0000000E+00;  9.9999736E+03;-0.031905569;0.0;0.0029258952;9.3795071
  5.1999903E-01;  9.9999998E-03;  1.8000008E-01;1859;-0.0027117555;0.0;0.00025373779;1000.0207;  4.0000248E-01;17.184607;3;-4.5452294;0.0;0.5121029;0;-0.028044403;  1.0000331E+04;  0.0000000E+00;  6.6164327E-09;  1.0000000E+04;  0.0000000E+00;  9.9999609E+03;-0.032133035;0.0;0.0040886318;13.672263
  5.1999903E-01;  9.9999998E-03;  2.0000011E-01;1860;-0.002696269;0.0;0.00032257772;1000.02;  4.0000251E-01;16.592035;3;-4.5685382;0.0;0.62560767;0;-0.02689863;  1.0000333E+04;  0.0000000E+00;  8.5956167E-09;  1.0000000E+04;  0.0000000E+00;  9.9999453E+03;-0.03250755;0.0;0.0056089205;19.335928
  5.1999903E-01;  9.9999998E-03;  2.2000013E-01;1861;-0.0026788351;0.0;0.00039899044;1000.0193;  4.0000245E-01;15.999462;3;-4.6048403;0.0;0.74574447;0;-0.025838463;  1.0000337E+04;  0.0000000E+00;  3.0460363E-08;  1.0000000E+04;  0.0000000E+00;  9.9999277E+03;-0.033062197;0.0;0.0072237351;25.356934
  5.1999903E-01;  9.9999998E-03;  2.4000016E-01;1862;-0.0026813929;0.0;0.00047420865;1000.019;  4.0000245E-01;15.801937;3;-4.7001367;0.0;0.84390509;0;-0.025499299;  1.0000344E+04;  0.0000000E+00;  1.0564031E-07;  1.0000000E+04;  0.0000000E+00;  9.9999150E+03;-0.033796314;0.0;0.0082970159;29.421268
  5.1999903E-01;  9.9999998E-03;  2.6000020E-01;1863;-0.0027253544;0.0;0.00057737058;1000.0196;  4.0000245E-01;16.196985;3;-4.8804526;0.0;0.99252176;0;-0.026910633;  1.0000350E+04;  0.0000000E+00;  2.4811831E-07;  1.0000000E+04;  0.0000000E+00;  9.9999219E+03;-0.034681298;0.0;0.0077706645;27.793829
  5.1999903E-01;  9.9999998E-03;  2.8000030E-01;1864;-0.0027994455;0.0;0.00080272777;1000.0212;  4.0000251E-01;17.579655;3;-5.1230292;0.0;1.3770971;0;-0.029963735;  1.0000358E+04;  0.0000000E+00;  3.3559795E-07;  1.0000000E+04;  0.0000000E+00;  9.9999434E+03;-0.035661884;0.0;0.0056981472;19.74275
  5.1999903E-01;  9.9999998E-03;  3.0000043E-01;1865;-0.0028437967;0.0;0.0011975103;1000.0225;  4.0000245E-01;18.666039;3;-5.3411131;0.0;2.1456437;0;-0.03196099;  1.0000367E+04;  0.0000000E+00;  1.2422016E-07;  1.0000000E+04;  0.0000000E+00;  9.9999609E+03;-0.03665597;0.0;0.004694981;11.954867
  5.3999859E-01;  9.9999998E-03;  1.6000009E-01;1889;-0.0036084652;0.0;0.0002732295;1000.0338;  4.0000650E-01;27.949625;3;-5.7571945;0.0;0.56948781;0;-0.032969367;  1.0000393E+04;  0.0000000E+00;  9.6222754E-09;  1.0000000E+04;  0.0000000E+00;  9.9999590E+03;-0.037351798;0.0;0.004382432;14.25585
  5.3999865E-01;  9.9999998E-03;  1.8000011E-01;1890;-0.0035991659;0.0;0.00036031401;1000.0328;  4.0000647E-01;27.159529;3;-5.791842;0.0;0.71959835;0;-0.031307906;  1.0000396E+04;  0.0000000E+00;  7.7469400E-09;  1.0000000E+04;  0.0000000E+00;  9.9999365E+03;-0.037744753;0.0;0.0064368485;21.946424
  5.3999865E-01;  9.9999998E-03;  2.0000015E-01;1891;-0.0035798161;0.0;0.00046279936;1000.0316;  4.0000650E-01;26.171909;3;-5.8277645;0.0;0.88544708;0;-0.029184792;  1.0000399E+04;  0.0000000E+00;  1.1587947E-08;  1.0000000E+04;  0.0000000E+00;  9.9999072E+03;-0.038314521;0.0;0.0091297301;32.111576
  5.3999865E-01;  9.9999998E-03;  2.2000019E-01;1892;-0.0035550303;0.0;0.00058147666;1000.0303;  4.0000653E-01;25.085529;3;-5.873476;0.0;1.0692526;0;-0.027103569;  1.0000405E+04;  0.0000000E+00;  6.4623173E-08;  1.0000000E+04;  0.0000000E+00;  9.9998770E+03;-0.039077993;0.0;0.011974425;42.87698
  5.3999871E-01;  9.9999998E-03;  2.4000026E-01;1893;-0.0035500827;0.0;0.00072135282;1000.0296;  4.0000653E-01;24.492956;3;-5.9871264;0.0;1.2524735;0;-0.026097272;  1.0000413E+04;  0.0000000E+00;  2.6463596E-07;  1.0000000E+04;  0.0000000E+00;  9.9998555E+03;-0.040025573;0.0;0.013928302;50.37125
  5.3999865E-01;  9.9999998E-03;  2.6000035E-01;1894;-0.0036222378;0.0;0.00090216863;1000.0304;  4.0000650E-01;25.18429;3;-6.2697411;0.0;1.4630269;0;-0.027798977;  1.0000421E+04;  0.0000000E+00;  6.4882460E-07;  1.0000000E+04;  0.0000000E+00;  9.9998604E+03;-0.041133299;0.0;0.013334324;48.76796
  5.3999859E-01;  9.9999998E-03;  2.8000048E-01;1895;-0.0038122968;0.0;0.0012155618;1000.0328;  4.0000650E-01;27.159529;3;-6.7420316;0.0;1.9330653;0;-0.032672592;  1.0000432E+04;  0.0000000E+00;  9.0119960E-07;  1.0000000E+04;  0.0000000E+00;  9.9998984E+03;-0.042353623;0.0;0.0096810311;35.66
  5.3999853E-01;  9.9999998E-03;  3.0000070E-01;1896;-0.0040290421;0.0;0.0017751043;1000.0352;  4.0000647E-01;29.134768;3;-7.3017492;0.0;2.9691155;0;-0.036507927;  1.0000442E+04;  0.0000000E+00;  4.1673403E-07;  1.0000000E+04;  0.0000000E+00;  9.9999365E+03;-0.043592803;0.0;0.0070848754;21.157667
  5.5999815E-01;  9.9999998E-03;  1.6000012E-01;1920;-0.0046545267;0.0;0.0003705897;1000.0624;  4.0001747E-01;51.652363;3;-7.183681;0.0;0.76974285;0;-0.034552503;  1.0000439E+04;  0.0000000E+00;  1.0014282E-08;  1.0000000E+04;  0.0000000E+00;  9.9999365E+03;-0.041137323;0.0;0.0065848203;21.62414
  5.5999815E-01;  9.9999998E-03;  1.8000016E-01;1921;-0.004650672;0.0;0.00048753995;1000.0607;  4.0001747E-01;50.269699;3;-7.2418509;0.0;0.97627097;0;-0.031565316;  1.0000443E+04;  0.0000000E+00; -2.2555197E-10;  1.0000000E+04;  0.0000000E+00;  9.9998984E+03;-0.041704729;0.0;0.010139415;34.961464
  5.5999821E-01;  9.9999998E-03;  2.0000021E-01;1922;-0.0046313582;0.0;0.0006334561;1000.0584;  4.0001747E-01;48.393227;3;-7.3003106;0.0;1.2092435;0;-0.027689427;  1.0000448E+04;  0.0000000E+00;  2.0961937E-09;  1.0000000E+04;  0.0000000E+00;  9.9998486E+03;-0.042454358;0.0;0.014764932;52.468594
  5.5999821E-01;  9.9999998E-03;  2.2000028E-01;1923;-0.0046104095;0.0;0.0008101727;1000.0562;  4.0001747E-01;46.615517;3;-7.3792224;0.0;1.4753252;0;-0.023788171;  1.0000455E+04;  0.0000000E+00;  1.3619653E-07;  1.0000000E+04;  0.0000000E+00;  9.9997969E+03;-0.043377522;0.0;0.019589351;70.816811
  5.5999821E-01;  9.9999998E-03;  2.4000038E-01;1924;-0.0046097776;0.0;0.0010494653;1000.0548;  4.0001747E-01;45.430374;3;-7.5157413;0.0;1.7922611;0;-0.021548571;  1.0000465E+04;  0.0000000E+00;  6.3179777E-07;  1.0000000E+04;  0.0000000E+00;  9.9997598E+03;-0.044453714;0.0;0.022905143;83.697792
  5.5999821E-01;  9.9999998E-03;  2.6000056E-01;1925;-0.0047075446;0.0;0.0014027159;1000.0555;  4.0001747E-01;45.924183;3;-7.8613639;0.0;2.2168584;0;-0.023330973;  1.0000474E+04;  0.0000000E+00;  1.5905493E-06;  1.0000000E+04;  0.0000000E+00;  9.9997637E+03;-0.04566814;0.0;0.022337167;82.66571
  5.5999810E-01;  9.9999998E-03;  2.8000081E-01;1926;-0.005035365;0.0;0.0019192816;1000.0588;  4.0001747E-01;48.68951;3;-8.649332;0.0;2.8715763;0;-0.029931042;  1.0000484E+04;  0.0000000E+00;  2.2508714E-06;  1.0000000E+04;  0.0000000E+00;  9.9998184E+03;-0.04698984;0.0;0.017058797;64.712852
  5.5999792E-01;  9.9999998E-03;  3.0000111E-01;1927;-0.0055662836;0.0;0.0027191252;1000.0626;  4.0001747E-01;51.849884;3;-9.7935019;0.0;4.2752118;0;-0.036340345;  1.0000496E+04;  0.0000000E+00;  1.1633776E-06;  1.0000000E+04;  0.0000000E+00;  9.9998828E+03;-0.048326392;0.0;0.011986046;40.508587
  5.7999766E-01;  9.9999998E-03;  1.6000015E-01;1951;-0.0057958099;0.0;0.00047718955;1000.1342;  4.0004665E-01;111.10652;3;-8.7285461;0.0;1.0041295;0;-0.031937897;  1.0000447E+04;  0.0000000E+00;  4.0956691E-09;  1.0000000E+04;  0.0000000E+00;  9.9999053E+03;-0.041775398;0.0;0.0098374998;32.453728
  5.7999772E-01;  9.9999998E-03;  1.8000020E-01;1952;-0.0057983985;0.0;0.00064009428;1000.1312;  4.0004665E-01;108.73624;3;-8.8151922;0.0;1.2914478;0;-0.026744023;  1.0000453E+04;  0.0000000E+00; -2.8159656E-08;  1.0000000E+04;  0.0000000E+00;  9.9998418E+03;-0.042470429;0.0;0.015726406;54.48019
  5.7999772E-01;  9.9999998E-03;  2.0000027E-01;1953;-0.0058028894;0.0;0.00082412123;1000.1274;  4.0004665E-01;105.57588;3;-8.9227009;0.0;1.598231;0;-0.020030774;  1.0000459E+04;  0.0000000E+00; -2.7840718E-08;  1.0000000E+04;  0.0000000E+00;  9.9997588E+03;-0.043316286;0.0;0.023285512;83.027824
  5.7999772E-01;  9.9999998E-03;  2.2000037E-01;1954;-0.0058086501;0.0;0.001084351;1000.1236;  4.0004665E-01;102.41552;3;-9.0627232;0.0;1.9802108;0;-0.013225978;  1.0000467E+04;  0.0000000E+00;  2.6729799E-07;  1.0000000E+04;  0.0000000E+00;  9.9996738E+03;-0.044273239;0.0;0.03104726;112.58416
  5.7999772E-01;  9.9999998E-03;  2.4000055E-01;1955;-0.0058485162;0.0;0.0014813353;1000.1211;  4.0004665E-01;100.34153;3;-9.2953548;0.0;2.4828889;0;-0.0089080706;  1.0000475E+04;  0.0000000E+00;  1.3632060E-06;  1.0000000E+04;  0.0000000E+00;  9.9996152E+03;-0.045312092;0.0;0.036404021;133.57982
  5.7999766E-01;  9.9999998E-03;  2.6000085E-01;1956;-0.0059856544;0.0;0.0021426629;1000.1214;  4.0004665E-01;100.53905;3;-9.7383919;0.0;3.2503583;0;-0.010158431;  1.0000484E+04;  0.0000000E+00;  3.4703805E-06;  1.0000000E+04;  0.0000000E+00;  9.9996123E+03;-0.046432462;0.0;0.036274031;135.2379
  5.7999754E-01;  9.9999998E-03;  2.8000134E-01;1957;-0.0064391559;0.0;0.0031326381;1000.1249;  4.0004665E-01;103.50189;3;-10.757476;0.0;4.5061483;0;-0.017262114;  1.0000494E+04;  0.0000000E+00;  4.9470509E-06;  1.0000000E+04;  0.0000000E+00;  9.9996709E+03;-0.047626771;0.0;0.030364657;116.01357
  5.7999718E-01;  9.9999998E-03;  3.0000183E-01;1958;-0.0073943506;0.0;0.0042878212;1000.1301;  4.0004665E-01;107.8474;3;-12.725042;0.0;6.3820891;0;-0.026399087;  1.0000504E+04;  0.0000000E+00;  2.7711608E-06;  1.0000000E+04;  0.0000000E+00;  9.9997646E+03;-0.048821151;0.0;0.022422064;81.893791
  5.9999716E-01;  9.9999998E-03;  1.6000018E-01;1982;-0.0069352561;0.0;0.00059267838;1000.3149;  4.0012074E-01;260.9263;3;-10.269827;0.0;1.2790215;0;-0.023347866;  1.0000403E+04;  0.0000000E+00; -1.0648098E-08;  1.0000000E+04;  0.0000000E+00;  9.9998594E+03;-0.037742365;0.0;0.0143945;47.515461
  5.9999716E-01;  9.9999998E-03;  1.8000023E-01;1983;-0.0069763097;0.0;0.00077181472;1000.3103;  4.0012074E-01;257.07462;3;-10.420917;0.0;1.6103823;0;-0.014854064;  1.0000408E+04;  0.0000000E+00; -7.9802142E-08;  1.0000000E+04;  0.0000000E+00;  9.9997607E+03;-0.038457859;0.0;0.023603795;81.786537
  5.9999716E-01;  9.9999998E-03;  2.0000033E-01;1984;-0.0070184562;0.0;0.0010279652;1000.3043;  4.0012074E-01;252.03783;3;-10.597013;0.0;2.0468328;0;-0.0040006377;  1.0000415E+04;  0.0000000E+00; -8.5429122E-08;  1.0000000E+04;  0.0000000E+00;  9.9996328E+03;-0.039253328;0.0;0.03525269;125.60876
  5.9999716E-01;  9.9999998E-03;  2.2000049E-01;1985;-0.0070730918;0.0;0.0014197351;1000.2981;  4.0012074E-01;247.00102;3;-10.827201;0.0;2.6096599;0;0.0070177801;  1.0000422E+04;  0.0000000E+00;  4.9102664E-07;  1.0000000E+04;  0.0000000E+00;  9.9995039E+03;-0.040059853;0.0;0.047077633;170.58597
  5.9999716E-01;  9.9999998E-03;  2.4000080E-01;1986;-0.0071898191;0.0;0.0021044696;1000.2938;  4.0012076E-01;243.34686;3;-11.196059;0.0;3.4569137;0;0.014612596;  1.0000428E+04;  0.0000000E+00;  2.5615668E-06;  1.0000000E+04;  0.0000000E+00;  9.9994121E+03;-0.040842053;0.0;0.055454649;203.59006
  5.9999704E-01;  9.9999998E-03;  2.6000136E-01;1987;-0.0074789952;0.0;0.0033217792;1000.293;  4.0012076E-01;242.7543;3;-11.918766;0.0;4.8533497;0;0.015367419;  1.0000434E+04;  0.0000000E+00;  6.4617016E-06;  1.0000000E+04;  0.0000000E+00;  9.9993887E+03;-0.041616321;0.0;0.056983739;213.19576
  5.9999686E-01;  9.9999998E-03;  2.8000224E-01;1988;-0.0080544082;0.0;0.00516285;1000.2948;  4.0012074E-01;244.23572;3;-13.223582;0.0;7.1747622;0;0.010885384;  1.0000439E+04;  0.0000000E+00;  9.2437740E-06;  1.0000000E+04;  0.0000000E+00;  9.9994180E+03;-0.042410467;0.0;0.053295851;204.20023
  5.9999639E-01;  9.9999998E-03;  3.0000302E-01;1989;-0.0092955073;0.0;0.0069729979;1000.3;  4.0012076E-01;248.58119;3;-15.760416;0.0;9.9574461;0;0.0017267913;  1.0000447E+04;  0.0000000E+00;  5.4718562E-06;  1.0000000E+04;  0.0000000E+00;  9.9995166E+03;-0.043192532;0.0;0.044919323;169.09636
  6.1999673E-01;  9.9999998E-03;  1.6000019E-01;2013;-0.0080267852;0.0;0.00068167155;1000.7306;  4.0029037E-01;605.30188;3;-11.708793;0.0;1.5299104;0;-0.0076552089;  1.0000295E+04;  0.0000000E+00; -3.2431373E-08;  1.0000000E+04;  0.0000000E+00;  9.9997988E+03;-0.027971195;0.0;0.020315986;66.920341
  6.1999667E-01;  9.9999998E-03;  1.8000026E-01;2014;-0.0081099058;0.0;0.00090673612;1000.7237;  4.0029037E-01;599.57379;3;-11.923961;0.0;1.9796112;0;0.0052647442;  1.0000299E+04;  0.0000000E+00; -1.5082369E-07;  1.0000000E+04;  0.0000000E+00;  9.9996553E+03;-0.028561827;0.0;0.033826571;116.9292
  6.1999667E-01;  9.9999998E-03;  2.0000039E-01;2015;-0.0082002059;0.0;0.0012536935;1000.7148;  4.0029040E-01;592.16675;3;-12.180836;0.0;2.5603809;0;0.021564579;  1.0000305E+04;  0.0000000E+00; -1.4419430E-07;  1.0000000E+04;  0.0000000E+00;  9.9994727E+03;-0.029135643;0.0;0.050700221;180.14308
  6.1999661E-01;  9.9999998E-03;  2.2000065E-01;2016;-0.0083504347;0.0;0.0018963021;1000.7057;  4.0029043E-01;584.66095;3;-12.553708;0.0;3.4732089;0;0.038174145;  1.0000309E+04;  0.0000000E+00;  7.9667097E-07;  1.0000000E+04;  0.0000000E+00;  9.9992871E+03;-0.029604636;0.0;0.067778781;244.9523
  6.1999655E-01;  9.9999998E-03;  2.4000123E-01;2017;-0.008578646;0.0;0.0031787017;1000.6985;  4.0029040E-01;578.73535;3;-13.125924;0.0;5.0507207;0;0.050899312;  1.0000311E+04;  0.0000000E+00;  4.0624859E-06;  1.0000000E+04;  0.0000000E+00;  9.9991416E+03;-0.029931435;0.0;0.080830745;296.17886
  6.1999649E-01;  9.9999998E-03;  2.6000234E-01;2018;-0.0088783307;0.0;0.0055517694;1000.6942;  4.0029034E-01;575.08124;3;-13.923291;0.0;7.9411044;0;0.058104645;  1.0000313E+04;  0.0000000E+00;  1.0119327E-05;  1.0000000E+04;  0.0000000E+00;  9.9990537E+03;-0.030148517;0.0;0.088253163;328.659
  6.1999625E-01;  9.9999998E-03;  2.8000382E-01;2019;-0.0095106456;0.0;0.008742108;1000.6905;  4.0029040E-01;572.01965;3;-15.427964;0.0;11.927838;0;0.063560724;  1.0000313E+04;  0.0000000E+00;  1.4505737E-05;  1.0000000E+04;  0.0000000E+00;  9.9989795E+03;-0.030322019;0.0;0.09388274;356.90546
  6.1999571E-01;  9.9999998E-03;  3.0000508E-01;2020;-0.010956844;0.0;0.011443199;1000.6929;  4.0029040E-01;574.09363;3;-18.437979;0.0;15.859104;0;0.059131309;  1.0000314E+04;  0.0000000E+00;  8.8990328E-06;  1.0000000E+04;  0.0000000E+00;  9.9990244E+03;-0.030479973;0.0;0.089611284;340.99564
  6.3999629E-01;  9.9999998E-03;  1.6000021E-01;2044;-0.0090054311;0.0;0.00079570839;1001.4951;  4.0060097E-01;1238.5427;3;-12.985985;0.0;1.8599072;0;0.014911449;  1.0000127E+04;  0.0000000E+00; -5.1755197E-08;  1.0000000E+04;  0.0000000E+00;  9.9997285E+03;-0.012436692;0.0;0.02734814;89.755928
  6.3999623E-01;  9.9999998E-03;  1.8000029E-01;2045;-0.0091296323;0.0;0.00108024;1001.4852;  4.0060094E-01;1230.4445;3;-13.261816;0.0;2.4351044;0;0.0331522;  1.0000129E+04;  0.0000000E+00; -2.0229453E-07;  1.0000000E+04;  0.0000000E+00;  9.9995313E+03;-0.012766543;0.0;0.045918744;158.15915
  6.3999617E-01;  9.9999998E-03;  2.0000049E-01;2046;-0.0093090683;0.0;0.0015978449;1001.473;  4.0060091E-01;1220.2722;3;-13.652967;0.0;3.2801006;0;0.055929542;  1.0000131E+04;  0.0000000E+00; -1.7612309E-07;  1.0000000E+04;  0.0000000E+00;  9.9992832E+03;-0.012983;0.0;0.068912543;243.95445
  6.3999611E-01;  9.9999998E-03;  2.2000098E-01;2047;-0.0095467269;0.0;0.002748365;1001.4601;  4.0060094E-01;1209.705;3;-14.164518;0.0;4.8704004;0;0.079423115;  1.0000131E+04;  0.0000000E+00;  1.0817378E-06;  1.0000000E+04;  0.0000000E+00;  9.9990293E+03;-0.012999812;0.0;0.092422925;332.82199
  6.3999605E-01;  9.9999998E-03;  2.4000204E-01;2048;-0.0097906068;0.0;0.0051625092;1001.4489;  4.0060094E-01;1200.3228;3;-14.772482;0.0;8.0199432;0;0.099914134;  1.0000129E+04;  0.0000000E+00;  5.2944943E-06;  1.0000000E+04;  0.0000000E+00;  9.9988057E+03;-0.012787572;0.0;0.11270171;410.86313
  6.3999599E-01;  9.9999998E-03;  2.6000392E-01;2049;-0.010005553;0.0;0.0093489261;1001.4379;  4.0060097E-01;1191.2369;3;-15.479812;0.0;13.356272;0;0.11993383;  1.0000126E+04;  0.0000000E+00;  1.2991821E-05;  1.0000000E+04;  0.0000000E+00;  9.9985879E+03;-0.012385903;0.0;0.13231973;487.68314
  6.3999581E-01;  9.9999998E-03;  2.8000638E-01;2050;-0.010500487;0.0;0.014561591;1001.4223;  4.0060097E-01;1178.2994;3;-16.870481;0.0;19.866266;0;0.14742951;  1.0000121E+04;  0.0000000E+00;  1.8688830E-05;  1.0000000E+04;  0.0000000E+00;  9.9982813E+03;-0.011878165;0.0;0.15930767;596.85754
  6.3999528E-01;  9.9999998E-03;  3.0000821E-01;2051;-0.011997948;0.0;0.018348906;1001.4172;  4.0060100E-01;1174.0527;3;-20.140533;0.0;25.045805;0;0.15554518;  1.0000117E+04;  0.0000000E+00;  1.1758141E-05;  1.0000000E+04;  0.0000000E+00;  9.9981826E+03;-0.011347259;0.0;0.16689244;633.28937
  6.5999597E-01;  9.9999998E-03;  1.6000025E-01;2075;-0.0096776914;0.0;0.00095722033;1002.4555;  4.0099084E-01;2034.2252;3;-13.930434;0.0;2.2672956;0;0.042269845;  9.9999170E+03;  0.0000000E+00; -5.5664888E-08;  1.0000000E+04;  0.0000000E+00;  9.9996533E+03;0.0073584118;0.0;0.034911431;114.09496
  6.5999597E-01;  9.9999998E-03;  1.8000036E-01;2076;-0.0098373061;0.0;0.0013266552;1002.4427;  4.0099087E-01;2023.6581;3;-14.279105;0.0;3.0146184;0;0.066233434;  9.9999170E+03;  0.0000000E+00; -2.0577544E-07;  1.0000000E+04;  0.0000000E+00;  9.9993984E+03;0.0073596044;0.0;0.058873829;201.99789
  6.5999591E-01;  9.9999998E-03;  2.0000066E-01;2077;-0.010062412;0.0;0.0021253226;1002.4268;  4.0099084E-01;2010.4244;3;-14.765556;0.0;4.3145542;0;0.095936492;  9.9999150E+03;  0.0000000E+00; -1.5541471E-07;  1.0000000E+04;  0.0000000E+00;  9.9990811E+03;0.0075389035;0.0;0.088397585;311.74445
  6.5999579E-01;  9.9999998E-03;  2.2000143E-01;2078;-0.010317476;0.0;0.0039593698;1002.41;  4.0099087E-01;1996.5983;3;-15.348573;0.0;6.9321394;0;0.12691596;  9.9999111E+03;  0.0000000E+00;  1.1858472E-06;  1.0000000E+04;  0.0000000E+00;  9.9987510E+03;0.0079573812;0.0;0.11895858;426.62381
  6.5999573E-01;  9.9999998E-03;  2.4000306E-01;2079;-0.010528294;0.0;0.0077529848;1002.394;  4.0099087E-01;1983.3646;3;-15.947407;0.0;12.062469;0;0.15646474;  9.9999063E+03;  0.0000000E+00;  5.5564892E-06;  1.0000000E+04;  0.0000000E+00;  9.9984375E+03;0.0086309901;0.0;0.14783375;535.73853
  6.5999573E-01;  9.9999998E-03;  2.6000592E-01;2080;-0.010610525;0.0;0.014213844;1002.3741;  4.0099084E-01;1966.8719;3;-16.456964;0.0;20.527933;0;0.19348706;  9.9998975E+03;  0.0000000E+00;  1.3436910E-05;  1.0000000E+04;  0.0000000E+00;  9.9980488E+03;0.0095298849;0.0;0.18395717;670.63324
  6.5999568E-01;  9.9999998E-03;  2.8000951E-01;2081;-0.010917334;0.0;0.02183613;1002.3427;  4.0099090E-01;1940.7998;3;-17.557575;0.0;30.001812;0;0.2508707;  9.9998896E+03;  0.0000000E+00;  1.9264246E-05;  1.0000000E+04;  0.0000000E+00;  9.9974277E+03;0.010581913;0.0;0.24028878;888.55304
  6.5999526E-01;  9.9999998E-03;  3.0001196E-01;2082;-0.01215819;0.0;0.026696758;1002.3277;  4.0099090E-01;1928.3562;3;-20.482294;0.0;36.25066;0;0.27528131;  9.9998809E+03;  0.0000000E+00;  1.2353793E-05;  1.0000000E+04;  0.0000000E+00;  9.9971377E+03;0.011669244;0.0;0.26361206;995.31732
  6.7999607E-01;  9.9999998E-03;  1.6000026E-01;2106;-0.0096348887;0.0;0.0010933398;1003.2176;  4.0130150E-01;2665.5476;3;-14.152363;0.0;2.6567662;0;0.070519015;  9.9996992E+03;  0.0000000E+00; -4.1384375E-08;  1.0000000E+04;  0.0000000E+00;  9.9995801E+03;0.028276779;0.0;0.042242233;137.49391
  6.7999601E-01;  9.9999998E-03;  1.8000041E-01;2107;-0.0097834049;0.0;0.0015398546;1003.2019;  4.0130147E-01;2652.6104;3;-14.503523;0.0;3.5660233;0;0.099970452;  9.9996982E+03;  0.0000000E+00; -1.6122878E-07;  1.0000000E+04;  0.0000000E+00;  9.9992705E+03;0.028579948;0.0;0.071390502;244.09056
  6.7999601E-01;  9.9999998E-03;  2.0000081E-01;2108;-0.0099853314;0.0;0.0025980955;1003.1825;  4.0130147E-01;2636.5129;3;-14.984602;0.0;5.2811656;0;0.13623677;  9.9996943E+03;  0.0000000E+00; -1.0454290E-07;  1.0000000E+04;  0.0000000E+00;  9.9988877E+03;0.029074972;0.0;0.10716181;376.71045
  6.7999595E-01;  9.9999998E-03;  2.2000183E-01;2109;-0.010199253;0.0;0.0050880495;1003.1622;  4.0130150E-01;2619.6255;3;-15.5225;0.0;8.8955965;0;0.17417748;  9.9996875E+03;  0.0000000E+00;  1.0350367E-06;  1.0000000E+04;  0.0000000E+00;  9.9984863E+03;0.029786602;0.0;0.14439088;516.14777
  6.7999589E-01;  9.9999998E-03;  2.4000399E-01;2110;-0.01031095;0.0;0.010138589;1003.1419;  4.0130150E-01;2602.8369;3;-15.938258;0.0;15.847268;0;0.21180074;  9.9996807E+03;  0.0000000E+00;  4.6949940E-06;  1.0000000E+04;  0.0000000E+00;  9.9980898E+03;0.030718932;0.0;0.1810818;653.34412
  6.7999595E-01;  9.9999998E-03;  2.6000768E-01;2111;-0.010243398;0.0;0.018532803;1003.1149;  4.0130150E-01;2580.4192;3;-16.157797;0.0;26.980379;0;0.26267612;  9.9996719E+03;  0.0000000E+00;  1.1218315E-05;  1.0000000E+04;  0.0000000E+00;  9.9975596E+03;0.031864773;0.0;0.23081136;835.8999
  6.7999595E-01;  9.9999998E-03;  2.8001225E-01;2112;-0.010357628;0.0;0.028219018;1003.0709;  4.0130159E-01;2543.9778;3;-16.897892;0.0;39.024208;0;0.3436228;  9.9996602E+03;  0.0000000E+00;  1.6011520E-05;  1.0000000E+04;  0.0000000E+00;  9.9966914E+03;0.033184394;0.0;0.31043842;1139.574
  6.7999566E-01;  9.9999998E-03;  3.0001521E-01;2113;-0.011153542;0.0;0.033970445;1003.049;  4.0130153E-01;2525.9053;3;-18.959908;0.0;46.122971;0;0.37903106;  9.9996484E+03;  0.0000000E+00;  1.0442605E-05;  1.0000000E+04;  0.0000000E+00;  9.9962676E+03;0.034547016;0.0;0.34448406;1296.4387
  6.9999671E-01;  9.9999998E-03;  1.6000029E-01;2137;-0.0082843881;0.0;0.0012202767;1003.6295;  4.0147111E-01;3006.7905;3;-12.620139;0.0;2.9958465;0;0.094847575;  9.9995205E+03;  0.0000000E+00; -1.9807793E-08;  1.0000000E+04;  0.0000000E+00;  9.9995176E+03;0.046214528;0.0;0.048633046;157.76727
  6.9999671E-01;  9.9999998E-03;  1.8000045E-01;2138;-0.0083978297;0.0;0.0017306283;1003.6115;  4.0147114E-01;2991.7798;3;-12.898726;0.0;4.0397153;0;0.12900126;  9.9995166E+03;  0.0000000E+00; -9.3970115E-08;  1.0000000E+04;  0.0000000E+00;  9.9991611E+03;0.046715997;0.0;0.082285255;280.57498
  6.9999665E-01;  9.9999998E-03;  2.0000093E-01;2139;-0.0085321097;0.0;0.0029843668;1003.5891;  4.0147111E-01;2973.3127;3;-13.234963;0.0;6.0920057;0;0.17084765;  9.9995127E+03;  0.0000000E+00; -5.7692876E-08;  1.0000000E+04;  0.0000000E+00;  9.9987188E+03;0.047379114;0.0;0.12346854;433.00589
  6.9999659E-01;  9.9999998E-03;  2.2000213E-01;2140;-0.0086583374;0.0;0.0059086313;1003.5656;  4.0147114E-01;2953.8579;3;-13.583474;0.0;10.37616;0;0.21445383;  9.9995049E+03;  0.0000000E+00;  7.1092609E-07;  1.0000000E+04;  0.0000000E+00;  9.9982578E+03;0.048196822;0.0;0.16625701;593.00745
  6.9999659E-01;  9.9999998E-03;  2.4000461E-01;2141;-0.0087228622;0.0;0.011772937;1003.5425;  4.0147117E-01;2934.6008;3;-13.869235;0.0;18.516693;0;0.25762117;  9.9994980E+03;  0.0000000E+00;  3.1916900E-06;  1.0000000E+04;  0.0000000E+00;  9.9978037E+03;0.049165998;0.0;0.20845516;750.33087
  6.9999665E-01;  9.9999998E-03;  2.6000887E-01;2142;-0.0086804936;0.0;0.021441577;1003.5115;  4.0147117E-01;2909.0232;3;-14.034056;0.0;31.381058;0;0.31600043;  9.9994893E+03;  0.0000000E+00;  7.6033057E-06;  1.0000000E+04;  0.0000000E+00;  9.9971963E+03;0.050300132;0.0;0.26570031;959.50623
  6.9999665E-01;  9.9999998E-03;  2.8001407E-01;2143;-0.0086736893;0.0;0.032427885;1003.4616;  4.0147120E-01;2867.645;3;-14.385925;0.0;44.947159;0;0.40764302;  9.9994785E+03;  0.0000000E+00;  1.0806957E-05;  1.0000000E+04;  0.0000000E+00;  9.9962080E+03;0.051589016;0.0;0.35605401;1304.3616
  6.9999659E-01;  9.9999998E-03;  3.0001736E-01;2144;-0.0088720014;0.0;0.038752981;1003.4383;  4.0147123E-01;2848.2891;3;-15.165557;0.0;52.593204;0;0.44442454;  9.9994678E+03;  0.0000000E+00;  7.1822005E-06;  1.0000000E+04;  0.0000000E+00;  9.9957539E+03;0.052915372;0.0;0.39150918;1474.0457
  7.1999770E-01;  9.9999998E-03;  1.6000032E-01;2168;-0.005844173;0.0;0.0013426086;1003.8068;  4.0154523E-01;3153.4539;3;-8.9911795;0.0;3.2992644;0;0.11133744;  9.9994111E+03;  0.0000000E+00; -4.9386664E-09;  1.0000000E+04;  0.0000000E+00;  9.9994688E+03;0.057700593;0.0;0.053636841;173.59238
  7.1999764E-01;  9.9999998E-03;  1.8000050E-01;2169;-0.0059333076;0.0;0.0018981989;1003.7868;  4.0154523E-01;3136.9622;3;-9.2108021;0.0;4.4402771;0;0.14910421;  9.9994063E+03;  0.0000000E+00; -4.0708610E-08;  1.0000000E+04;  0.0000000E+00;  9.9990742E+03;0.058288164;0.0;0.090816043;309.09042
  7.1999764E-01;  9.9999998E-03;  2.0000102E-01;2170;-0.0060369107;0.0;0.0032532976;1003.7621;  4.0154529E-01;3116.5205;3;-9.47087;0.0;6.6654358;0;0.19523461;  9.9994014E+03;  0.0000000E+00; -2.7001418E-08;  1.0000000E+04;  0.0000000E+00;  9.9985869E+03;0.058989331;0.0;0.13624528;477.08749
  7.1999764E-01;  9.9999998E-03;  2.2000229E-01;2171;-0.0061397469;0.0;0.0063983453;1003.7365;  4.0154529E-01;3095.2888;3;-9.7498655;0.0;11.276802;0;0.24299923;  9.9993945E+03;  0.0000000E+00;  3.7276536E-07;  1.0000000E+04;  0.0000000E+00;  9.9980811E+03;0.059776191;0.0;0.18322304;652.73926
  7.1999758E-01;  9.9999998E-03;  2.4000496E-01;2172;-0.0062187514;0.0;0.012691215;1003.7115;  4.0154529E-01;3074.5508;3;-10.016649;0.0;19.999689;0;0.28943196;  9.9993887E+03;  0.0000000E+00;  1.7300850E-06;  1.0000000E+04;  0.0000000E+00;  9.9975898E+03;0.060639884;0.0;0.22879209;822.95343
  7.1999758E-01;  9.9999998E-03;  2.6000953E-01;2173;-0.0062449928;0.0;0.023059031;1003.6792;  4.0154532E-01;3047.7888;3;-10.234975;0.0;33.763115;0;0.35034573;  9.9993809E+03;  0.0000000E+00;  4.1655935E-06;  1.0000000E+04;  0.0000000E+00;  9.9969521E+03;0.061599482;0.0;0.28874624;1042.7443
  7.1999758E-01;  9.9999998E-03;  2.8001508E-01;2174;-0.0062333238;0.0;0.034805544;1003.6279;  4.0154535E-01;3005.3254;3;-10.445771;0.0;48.213779;0;0.44409496;  9.9993730E+03;  0.0000000E+00;  5.9160734E-06;  1.0000000E+04;  0.0000000E+00;  9.9959346E+03;0.062657431;0.0;0.38143754;1398.4753
  7.1999758E-01;  9.9999998E-03;  3.0001864E-01;2175;-0.006195704;0.0;0.041551087;1003.6058;  4.0154538E-01;2986.9575;3;-10.638776;0.0;56.363281;0;0.47769672;  9.9993633E+03;  0.0000000E+00;  3.7386465E-06;  1.0000000E+04;  0.0000000E+00;  9.9955049E+03;0.06373556;0.0;0.41396114;1561.0692
  7.3999858E-01;  9.9999998E-03;  1.6000035E-01;2199;-0.0035526452;0.0;0.0014342312;1003.8763;  4.0157440E-01;3211.0063;3;-5.4956403;0.0;3.5250556;0;0.11869521;  9.9993779E+03;  0.0000000E+00;  2.0109558E-09;  1.0000000E+04;  0.0000000E+00;  9.9994336E+03;0.061558202;0.0;0.057137016;184.66873
  7.3999858E-01;  9.9999998E-03;  1.8000053E-01;2200;-0.0036158015;0.0;0.0020170428;1003.855;  4.0157437E-01;3193.3303;3;-5.6509223;0.0;4.7257528;0;0.15894338;  9.9993730E+03;  0.0000000E+00; -1.1411062E-08;  1.0000000E+04;  0.0000000E+00;  9.9990127E+03;0.062154237;0.0;0.096789151;329.06091
  7.3999858E-01;  9.9999998E-03;  2.0000106E-01;2201;-0.0036891466;0.0;0.0034233974;1003.8289;  4.0157443E-01;3171.7043;3;-5.8325849;0.0;7.0374827;0;0.20804718;  9.9993691E+03;  0.0000000E+00; -1.1292746E-08;  1.0000000E+04;  0.0000000E+00;  9.9984951E+03;0.062822245;0.0;0.14522494;508.08624
  7.3999858E-01;  9.9999998E-03;  2.2000238E-01;2202;-0.0037628212;0.0;0.0066777058;1003.8016;  4.0157443E-01;3149.0911;3;-6.0254693;0.0;11.799895;0;0.25863335;  9.9993643E+03;  0.0000000E+00;  1.4282188E-07;  1.0000000E+04;  0.0000000E+00;  9.9979561E+03;0.063521929;0.0;0.19511142;694.66083
  7.3999852E-01;  9.9999998E-03;  2.4000515E-01;2203;-0.0038208493;0.0;0.013183626;1003.7756;  4.0157446E-01;3127.5637;3;-6.2076716;0.0;20.786697;0;0.30689868;  9.9993594E+03;  0.0000000E+00;  7.0826576E-07;  1.0000000E+04;  0.0000000E+00;  9.9974434E+03;0.064233549;0.0;0.24266514;872.75409
  7.3999852E-01;  9.9999998E-03;  2.6000988E-01;2204;-0.0038474349;0.0;0.023906443;1003.743;  4.0157452E-01;3100.5068;3;-6.3595085;0.0;34.968143;0;0.36806116;  9.9993525E+03;  0.0000000E+00;  1.7512184E-06;  1.0000000E+04;  0.0000000E+00;  9.9967979E+03;0.064967029;0.0;0.30309412;1095.3956
  7.3999852E-01;  9.9999998E-03;  2.8001565E-01;2205;-0.0038354222;0.0;0.036074895;1003.6921;  4.0157449E-01;3058.3411;3;-6.4725418;0.0;49.907646;0;0.46045008;  9.9993477E+03;  0.0000000E+00;  2.4505948E-06;  1.0000000E+04;  0.0000000E+00;  9.9957891E+03;0.065730244;0.0;0.39471984;1449.1451
  7.3999852E-01;  9.9999998E-03;  3.0001932E-01;2206;-0.0037921078;0.0;0.04310501;1003.6722;  4.0157449E-01;3041.8501;3;-6.5535097;0.0;58.448364;0;0.48987931;  9.9993418E+03;  0.0000000E+00;  1.2780686E-06;  1.0000000E+04;  0.0000000E+00;  9.9953955E+03;0.066496059;0.0;0.42338324;1599.057
  7.5999928E-01;  9.9999998E-03;  1.6000037E-01;2230;-0.0017868823;0.0;0.0014955822;1003.9043;  4.0158540E-01;3234.0513;3;-2.7927895;0.0;3.6761513;0;0.11846051;  9.9994072E+03;  0.0000000E+00;  2.1509940E-09;  1.0000000E+04;  0.0000000E+00;  9.9994121E+03;0.059185103;0.0;0.059275407;191.45319
  7.5999928E-01;  9.9999998E-03;  1.8000054E-01;2231;-0.0018252264;0.0;0.0020931477;1003.8823;  4.0158540E-01;3215.7837;3;-2.8869267;0.0;4.9097648;0;0.16018936;  9.9994033E+03;  0.0000000E+00; -8.9345392E-10;  1.0000000E+04;  0.0000000E+00;  9.9989756E+03;0.05974935;0.0;0.10044;341.26035
  7.5999928E-01;  9.9999998E-03;  2.0000109E-01;2232;-0.0018688679;0.0;0.0035231786;1003.855;  4.0158549E-01;3193.1714;3;-2.9940243;0.0;7.2611046;0;0.21110743;  9.9993994E+03;  0.0000000E+00; -3.6219778E-09;  1.0000000E+04;  0.0000000E+00;  9.9984375E+03;0.060359735;0.0;0.1507477;527.11768
  7.5999928E-01;  9.9999998E-03;  2.2000244E-01;2233;-0.0019124125;0.0;0.0068270178;1003.8268;  4.0158549E-01;3169.8679;3;-3.1047707;0.0;12.086849;0;0.26341039;  9.9993955E+03;  0.0000000E+00;  3.3057965E-08;  1.0000000E+04;  0.0000000E+00;  9.9978789E+03;0.060969293;0.0;0.2024411;720.45276
  7.5999928E-01;  9.9999998E-03;  2.4000525E-01;2234;-0.0019465878;0.0;0.013431175;1003.8002;  4.0158546E-01;3147.8479;3;-3.205579;0.0;21.182362;0;0.31264329;  9.9993906E+03;  0.0000000E+00;  1.8875517E-07;  1.0000000E+04;  0.0000000E+00;  9.9973535E+03;0.061544586;0.0;0.25109869;902.9906
  7.5999928E-01;  9.9999998E-03;  2.6001006E-01;2235;-0.001961462;0.0;0.024323391;1003.7677;  4.0158552E-01;3120.8911;3;-3.2832408;0.0;35.545399;0;0.37336934;  9.9993867E+03;  0.0000000E+00;  4.8402023E-07;  1.0000000E+04;  0.0000000E+00;  9.9967090E+03;0.062079336;0.0;0.31129;1125.5499
  7.5999928E-01;  9.9999998E-03;  2.8001595E-01;2236;-0.0019521355;0.0;0.03671043;1003.7177;  4.0158555E-01;3079.4187;3;-3.3318229;0.0;50.739559;0;0.46378338;  9.9993828E+03;  0.0000000E+00;  6.5599357E-07;  1.0000000E+04;  0.0000000E+00;  9.9957158E+03;0.06258329;0.0;0.40120009;1474.1271
  7.5999928E-01;  9.9999998E-03;  3.0001968E-01;2237;-0.0019220996;0.0;0.043904841;1003.6995;  4.0158552E-01;3064.4097;3;-3.3548741;0.0;59.527252;0;0.48970798;  9.9993789E+03;  0.0000000E+00;  1.6937643E-07;  1.0000000E+04;  0.0000000E+00;  9.9953564E+03;0.063070558;0.0;0.42663741;1612.6333
  7.7999979E-01;  9.9999998E-03;  1.6000037E-01;2261;-0.00050778064;0.0;0.0015291842;1003.9171;  4.0158951E-01;3244.3982;3;-0.82375431;0.0;3.7588234;0;0.11369524;  9.9994697E+03;  0.0000000E+00;  8.7221214E-10;  1.0000000E+04;  0.0000000E+00;  9.9994023E+03;0.053390846;0.0;0.060304396;194.69914
  7.7999979E-01;  9.9999998E-03;  1.8000056E-01;2262;-0.00052401121;0.0;0.0021329024;1003.8947;  4.0158945E-01;3225.8357;3;-0.86356926;0.0;5.006228;0;0.15610209;  9.9994648E+03;  0.0000000E+00;  8.3099028E-10;  1.0000000E+04;  0.0000000E+00;  9.9989590E+03;0.05390903;0.0;0.10219306;347.03314
  7.7999979E-01;  9.9999998E-03;  2.0000111E-01;2263;-0.00054134481;0.0;0.0035704519;1003.8669;  4.0158954E-01;3202.8298;3;-0.90571535;0.0;7.3691812;0;0.20788375;  9.9994619E+03;  0.0000000E+00;  1.9916041E-11;  1.0000000E+04;  0.0000000E+00;  9.9984102E+03;0.054461297;0.0;0.15342245;536.16461
  7.7999979E-01;  9.9999998E-03;  2.2000246E-01;2264;-0.0005577043;0.0;0.0068897502;1003.8383;  4.0158951E-01;3179.1331;3;-0.94570136;0.0;12.210383;0;0.26101631;  9.9994580E+03;  0.0000000E+00;  1.4004680E-09;  1.0000000E+04;  0.0000000E+00;  9.9978418E+03;0.054999184;0.0;0.20601712;732.776
  7.7999979E-01;  9.9999998E-03;  2.4000528E-01;2265;-0.00056984311;0.0;0.013527229;1003.8114;  4.0158954E-01;3156.8184;3;-0.9781571;0.0;21.334646;0;0.31065983;  9.9994551E+03;  0.0000000E+00;  1.3433082E-08;  1.0000000E+04;  0.0000000E+00;  9.9973096E+03;0.055478748;0.0;0.25518107;917.29578
  7.7999979E-01;  9.9999998E-03;  2.6001015E-01;2266;-0.00057385286;0.0;0.024483144;1003.7791;  4.0158957E-01;3130.0608;3;-0.99759579;0.0;35.758453;0;0.37092644;  9.9994512E+03;  0.0000000E+00;  3.5908339E-08;  1.0000000E+04;  0.0000000E+00;  9.9966680E+03;0.055879023;0.0;0.31504741;1138.9875
  7.7999979E-01;  9.9999998E-03;  2.8001606E-01;2267;-0.00056749611;0.0;0.036964044;1003.7297;  4.0158963E-01;3089.1836;3;-1.0013604;0.0;51.064789;0;0.4599081;  9.9994502E+03;  0.0000000E+00;  2.9866051E-08;  1.0000000E+04;  0.0000000E+00;  9.9956865E+03;0.056206077;0.0;0.40370202;1483.2484
  7.7999979E-01;  9.9999998E-03;  3.0001983E-01;2268;-0.00055137137;0.0;0.044241257;1003.7127;  4.0158960E-01;3075.0642;3;-0.99036604;0.0;59.991631;0;0.48376179;  9.9994473E+03;  0.0000000E+00; -8.8392504E-08;  1.0000000E+04;  0.0000000E+00;  9.9953477E+03;0.056492537;0.0;0.42726925;1614.7327
  8.0000019E-01;  9.9999998E-03;  1.6000037E-01;2292;0.00047986538;0.0;0.0015381433;1003.9212;  4.0158987E-01;3247.4602;3;0.70623481;0.0;3.780823;0;0.1073393;  9.9995352E+03;  0.0000000E+00; -3.0332029E-10;  1.0000000E+04;  0.0000000E+00;  9.9994014E+03;0.046885915;0.0;0.060453385;195.06438
  8.0000019E-01;  9.9999998E-03;  1.8000056E-01;2293;0.00048304329;0.0;0.0021416228;1003.8987;  4.0158981E-01;3228.8992;3;0.71410072;0.0;5.0277152;0;0.14980197;  9.9995322E+03;  0.0000000E+00; -5.9385180E-10;  1.0000000E+04;  0.0000000E+00;  9.9989551E+03;0.04735925;0.0;0.10244271;347.60095
  8.0000019E-01;  9.9999998E-03;  2.0000111E-01;2294;0.00048822211;0.0;0.0035760859;1003.871;  4.0158987E-01;3205.8958;3;0.72747457;0.0;7.3843818;0;0.20168787;  9.9995283E+03;  0.0000000E+00; -4.7743787E-10;  1.0000000E+04;  0.0000000E+00;  9.9984063E+03;0.047861576;0.0;0.1538263;537.08789
  8.0000019E-01;  9.9999998E-03;  2.2000246E-01;2295;0.00049483776;0.0;0.0068886853;1003.8422;  4.0158987E-01;3182.1023;3;0.74666852;0.0;12.212686;0;0.25493032;  9.9995254E+03;  0.0000000E+00;  1.6682468E-09;  1.0000000E+04;  0.0000000E+00;  9.9978359E+03;0.048346408;0.0;0.2065839;734.08734
  8.0000019E-01;  9.9999998E-03;  2.4000528E-01;2296;0.0005014803;0.0;0.013516731;1003.8153;  4.0158993E-01;3159.7898;3;0.77053851;0.0;21.319342;0;0.30456394;  9.9995225E+03;  0.0000000E+00;  6.1684320E-09;  1.0000000E+04;  0.0000000E+00;  9.9973027E+03;0.048767056;0.0;0.25579688;918.62
  8.0000019E-01;  9.9999998E-03;  2.6001012E-01;2297;0.0005070116;0.0;0.024464628;1003.7832;  4.0158990E-01;3133.2319;3;0.79799211;0.0;35.73135;0;0.36449242;  9.9995195E+03;  0.0000000E+00;  1.0175779E-08;  1.0000000E+04;  0.0000000E+00;  9.9966631E+03;0.049094513;0.0;0.31539789;1139.1389
  8.0000019E-01;  9.9999998E-03;  2.8001603E-01;2298;0.00051101285;0.0;0.03695051;1003.7342;  4.0158996E-01;3092.6545;3;0.82820302;0.0;51.057724;0;0.45275742;  9.9995186E+03;  0.0000000E+00;  7.8757374E-09;  1.0000000E+04;  0.0000000E+00;  9.9956904E+03;0.049328733;0.0;0.40342867;1480.5416
  8.0000019E-01;  9.9999998E-03;  3.0001983E-01;2299;0.00051458454;0.0;0.044247098;1003.7176;  4.0158993E-01;3078.8328;3;0.86158806;0.0;60.035595;0;0.47592506;  9.9995176E+03;  0.0000000E+00; -1.7641963E-09;  1.0000000E+04;  0.0000000E+00;  9.9953574E+03;0.049500339;0.0;0.42642471;1609.234
  8.2000053E-01;  9.9999998E-03;  1.6000037E-01;2323;0.0013803735;0.0;0.0015252614;1003.9218;  4.0158883E-01;3247.6545;3;2.1042466;0.0;3.7490978;0;0.10110356;  9.9995918E+03;  0.0000000E+00; -8.3517382E-10;  1.0000000E+04;  0.0000000E+00;  9.9994072E+03;0.041238695;0.0;0.059864864;192.94225
  8.2000053E-01;  9.9999998E-03;  1.8000056E-01;2324;0.0014008613;0.0;0.002123263;1003.8996;  4.0158883E-01;3229.1946;3;2.1547232;0.0;4.9835491;0;0.1431185;  9.9995898E+03;  0.0000000E+00; -3.0928908E-09;  1.0000000E+04;  0.0000000E+00;  9.9989658E+03;0.041678637;0.0;0.10143986;343.7262
  8.2000053E-01;  9.9999998E-03;  2.0000109E-01;2325;0.001425646;0.0;0.0035473944;1003.8721;  4.0158889E-01;3206.3911;3;2.2169499;0.0;7.3207803;0;0.1944841;  9.9995859E+03;  0.0000000E+00; -3.2034646E-09;  1.0000000E+04;  0.0000000E+00;  9.9984199E+03;0.042144347;0.0;0.15233976;531.10358
  8.2000059E-01;  9.9999998E-03;  2.2000244E-01;2326;0.0014516995;0.0;0.0068403473;1003.8436;  4.0158886E-01;3182.8967;3;2.2872834;0.0;12.118505;0;0.24723566;  9.9995830E+03;  0.0000000E+00;  1.6702625E-08;  1.0000000E+04;  0.0000000E+00;  9.9978555E+03;0.042592037;0.0;0.20464362;726.04718
  8.2000059E-01;  9.9999998E-03;  2.4000525E-01;2327;0.0014741233;0.0;0.013434241;1003.817;  4.0158892E-01;3160.7844;3;2.3599198;0.0;21.179745;0;0.29653263;  9.9995811E+03;  0.0000000E+00;  8.4341877E-08;  1.0000000E+04;  0.0000000E+00;  9.9973271E+03;0.042978369;0.0;0.25355425;909.05951
  8.2000059E-01;  9.9999998E-03;  2.6001006E-01;2328;0.0014880638;0.0;0.024331592;1003.7847;  4.0158892E-01;3134.1311;3;2.4292297;0.0;35.534073;0;0.3563908;  9.9995781E+03;  0.0000000E+00;  2.0011964E-07;  1.0000000E+04;  0.0000000E+00;  9.9966875E+03;0.043274675;0.0;0.31311613;1128.891
  8.2000059E-01;  9.9999998E-03;  2.8001598E-01;2329;0.0014908337;0.0;0.036764447;1003.7357;  4.0158892E-01;3093.4602;3;2.4915953;0.0;50.8097;0;0.44494316;  9.9995762E+03;  0.0000000E+00;  2.8004393E-07;  1.0000000E+04;  0.0000000E+00;  9.9957109E+03;0.043476742;0.0;0.40146643;1470.4977
  8.2000059E-01;  9.9999998E-03;  3.0001974E-01;2330;0.0014839547;0.0;0.044030327;1003.7187;  4.0158898E-01;3079.4426;3;2.5466964;0.0;59.756306;0;0.46891612;  9.9995752E+03;  0.0000000E+00;  1.8425632E-07;  1.0000000E+04;  0.0000000E+00;  9.9953711E+03;0.04360364;0.0;0.42531249;1601.7224
  8.4000093E-01;  9.9999998E-03;  1.6000037E-01;2354;0.0023031824;0.0;0.0014927242;1003.8607;  4.0156320E-01;3196.4846;3;3.5335717;0.0;3.6691277;0;0.095240645;  9.9996377E+03;  0.0000000E+00; -1.2719618E-09;  1.0000000E+04;  0.0000000E+00;  9.9994189E+03;0.036639895;0.0;0.05860075;188.50162
  8.4000093E-01;  9.9999998E-03;  1.8000054E-01;2355;0.0023394495;0.0;0.0020781183;1003.8388;  4.0156317E-01;3178.3237;3;3.6230016;0.0;4.8767953;0;0.13636512;  9.9996357E+03;  0.0000000E+00; -6.7571184E-09;  1.0000000E+04;  0.0000000E+00;  9.9989883E+03;0.037067454;0.0;0.099297658;335.74777
  8.4000093E-01;  9.9999998E-03;  2.0000108E-01;2356;0.0023819066;0.0;0.003474249;1003.8118;  4.0156323E-01;3156.0176;3;3.729877;0.0;7.1667771;0;0.18665677;  9.9996318E+03;  0.0000000E+00; -6.2238512E-09;  1.0000000E+04;  0.0000000E+00;  9.9984541E+03;0.037518788;0.0;0.14913799;518.76654
  8.4000093E-01;  9.9999998E-03;  2.2000240E-01;2357;0.0024251689;0.0;0.006705096;1003.784;  4.0156323E-01;3132.9219;3;3.8470016;0.0;11.873768;0;0.2383346;  9.9996289E+03;  0.0000000E+00;  4.6672969E-08;  1.0000000E+04;  0.0000000E+00;  9.9979004E+03;0.037951231;0.0;0.20038337;709.26392
  8.4000093E-01;  9.9999998E-03;  2.4000515E-01;2358;0.0024614604;0.0;0.013177602;1003.7578;  4.0156320E-01;3111.208;3;3.9650202;0.0;20.771975;0;0.28670633;  9.9996260E+03;  0.0000000E+00;  2.3266965E-07;  1.0000000E+04;  0.0000000E+00;  9.9973818E+03;0.03832614;0.0;0.24838018;888.34192
  8.4000093E-01;  9.9999998E-03;  2.6000988E-01;2359;0.002483218;0.0;0.02387942;1003.7261;  4.0156329E-01;3085.0527;3;4.0755639;0.0;34.879974;0;0.34563395;  9.9996240E+03;  0.0000000E+00;  5.6528381E-07;  1.0000000E+04;  0.0000000E+00;  9.9967520E+03;0.038619664;0.0;0.30701429;1104.0536
  8.4000093E-01;  9.9999998E-03;  2.8001568E-01;2360;0.0024858746;0.0;0.036094118;1003.6778;  4.0156326E-01;3045.0793;3;4.1728592;0.0;49.907356;0;0.43301332;  9.9996221E+03;  0.0000000E+00;  7.9437507E-07;  1.0000000E+04;  0.0000000E+00;  9.9957900E+03;0.0388266;0.0;0.39418671;1439.8813
  8.4000093E-01;  9.9999998E-03;  3.0001938E-01;2361;0.0024703902;0.0;0.043234877;1003.6608;  4.0156326E-01;3030.9653;3;4.2540951;0.0;58.712921;0;0.45709759;  9.9996201E+03;  0.0000000E+00;  4.8371209E-07;  1.0000000E+04;  0.0000000E+00;  9.9954502E+03;0.038955215;0.0;0.41814238;1570.1323
  8.6000127E-01;  9.9999998E-03;  1.6000035E-01;2385;0.0032460869;0.0;0.0014423465;1003.7372;  4.0151262E-01;3093.5415;3;4.9896564;0.0;3.5453539;0;0.089053601;  9.9996797E+03;  0.0000000E+00; -2.0828226E-09;  1.0000000E+04;  0.0000000E+00;  9.9994385E+03;0.0323667;0.0;0.056686904;181.82486
  8.6000127E-01;  9.9999998E-03;  1.8000053E-01;2386;0.003296803;0.0;0.0020078376;1003.7161;  4.0151268E-01;3076.0757;3;5.1148276;0.0;4.7116199;0;0.12887539;  9.9996758E+03;  0.0000000E+00; -1.2251872E-08;  1.0000000E+04;  0.0000000E+00;  9.9990205E+03;0.0328121;0.0;0.096063286;323.81973
  8.6000133E-01;  9.9999998E-03;  2.0000103E-01;2387;0.0033555152;0.0;0.0033576288;1003.6901;  4.0151265E-01;3054.564;3;5.2631769;0.0;6.9248061;0;0.1775862;  9.9996719E+03;  0.0000000E+00; -1.0068557E-08;  1.0000000E+04;  0.0000000E+00;  9.9985039E+03;0.033285093;0.0;0.1443011;500.34515
  8.6000133E-01;  9.9999998E-03;  2.2000231E-01;2388;0.0034145052;0.0;0.0064827539;1003.6631;  4.0151268E-01;3032.1641;3;5.4241972;0.0;11.477611;0;0.22765486;  9.9996699E+03;  0.0000000E+00;  9.4556277E-08;  1.0000000E+04;  0.0000000E+00;  9.9979697E+03;0.033740893;0.0;0.19391397;684.11987
  8.6000133E-01;  9.9999998E-03;  2.4000499E-01;2389;0.0034634478;0.0;0.012746128;1003.6378;  4.0151268E-01;3011.2444;3;5.5856476;0.0;20.091015;0;0.27453303;  9.9996670E+03;  0.0000000E+00;  4.5668264E-07;  1.0000000E+04;  0.0000000E+00;  9.9974658E+03;0.034141615;0.0;0.2403914;856.89404
  8.6000133E-01;  9.9999998E-03;  2.6000956E-01;2390;0.0034925351;0.0;0.023105584;1003.6072;  4.0151274E-01;2985.8843;3;5.7372298;0.0;33.756245;0;0.33162111;  9.9996641E+03;  0.0000000E+00;  1.1096714E-06;  1.0000000E+04;  0.0000000E+00;  9.9968574E+03;0.034465868;0.0;0.29715523;1064.9475
  8.6000133E-01;  9.9999998E-03;  2.8001517E-01;2391;0.0034956094;0.0;0.034937125;1003.5604;  4.0151277E-01;2947.104;3;5.871449;0.0;48.33102;0;0.41626564;  9.9996621E+03;  0.0000000E+00;  1.5727657E-06;  1.0000000E+04;  0.0000000E+00;  9.9959248E+03;0.034708239;0.0;0.3815574;1388.8004
  8.6000133E-01;  9.9999998E-03;  3.0001876E-01;2392;0.0034730958;0.0;0.041859828;1003.5438;  4.0151274E-01;2933.4866;3;5.9828806;0.0;56.885868;0;0.43967053;  9.9996611E+03;  0.0000000E+00;  9.7176314E-07;  1.0000000E+04;  0.0000000E+00;  9.9955967E+03;0.034870766;0.0;0.40479976;1514.3859
  8.8000166E-01;  9.9999998E-03;  1.6000034E-01;2416;0.004143022;0.0;0.0013759626;1003.5598;  4.0144017E-01;2945.7239;3;6.3719835;0.0;3.3822663;0;0.081698246;  9.9997256E+03;  0.0000000E+00; -2.8393472E-09;  1.0000000E+04;  0.0000000E+00;  9.9994629E+03;0.027540231;0.0;0.054158013;173.03685
  8.8000166E-01;  9.9999998E-03;  1.8000050E-01;2417;0.0042067342;0.0;0.001914535;1003.5396;  4.0144020E-01;2929.0522;3;6.5292997;0.0;4.4929776;0;0.11983276;  9.9997217E+03;  0.0000000E+00; -1.8269038E-08;  1.0000000E+04;  0.0000000E+00;  9.9990635E+03;0.028038276;0.0;0.091794483;308.1489
  8.8000166E-01;  9.9999998E-03;  2.0000099E-01;2418;0.0042802086;0.0;0.0032003417;1003.5145;  4.0144017E-01;2908.3362;3;6.7154474;0.0;6.6007261;0;0.16650212;  9.9997178E+03;  0.0000000E+00; -1.3982508E-08;  1.0000000E+04;  0.0000000E+00;  9.9985713E+03;0.028581394;0.0;0.13792072;476.16702
  8.8000166E-01;  9.9999998E-03;  2.2000220E-01;2419;0.0043535833;0.0;0.0061788387;1003.4887;  4.0144017E-01;2886.9297;3;6.9170222;0.0;10.93934;0;0.21448591;  9.9997139E+03;  0.0000000E+00;  1.5976003E-07;  1.0000000E+04;  0.0000000E+00;  9.9980576E+03;0.02911949;0.0;0.18536642;651.08313
  8.8000172E-01;  9.9999998E-03;  2.4000475E-01;2420;0.0044141212;0.0;0.012150632;1003.4645;  4.0144020E-01;2866.9043;3;7.1190929;0.0;19.152332;0;0.25936568;  9.9997100E+03;  0.0000000E+00;  7.4126939E-07;  1.0000000E+04;  0.0000000E+00;  9.9975791E+03;0.029607279;0.0;0.22975841;815.33075
  8.8000172E-01;  9.9999998E-03;  2.6000911E-01;2421;0.0044499999;0.0;0.022032175;1003.4352;  4.0144023E-01;2842.7354;3;7.3097024;0.0;32.193531;0;0.31379598;  9.9997061E+03;  0.0000000E+00;  1.7878078E-06;  1.0000000E+04;  0.0000000E+00;  9.9969990E+03;0.030016799;0.0;0.28377917;1012.4318
  8.8000172E-01;  9.9999998E-03;  2.8001446E-01;2422;0.0044537378;0.0;0.033328958;1003.3908;  4.0144029E-01;2805.9397;3;7.4798985;0.0;46.130634;0;0.39428869;  9.9997041E+03;  0.0000000E+00;  2.5609995E-06;  1.0000000E+04;  0.0000000E+00;  9.9961143E+03;0.030338177;0.0;0.36395052;1318.6116
  8.8000172E-01;  9.9999998E-03;  3.0001789E-01;2423;0.004425623;0.0;0.039949223;1003.3752;  4.0144026E-01;2793.1155;3;7.6224365;0.0;54.337452;0;0.41633195;  9.9997021E+03;  0.0000000E+00;  1.6445548E-06;  1.0000000E+04;  0.0000000E+00;  9.9958057E+03;0.030570671;0.0;0.38576126;1436.254
  9.0000194E-01;  9.9999998E-03;  1.6000032E-01;2447;0.0049138311;0.0;0.0012958146;1003.3377;  4.0134960E-01;2760.9211;3;7.5587559;0.0;3.185281;0;0.072805464;  9.9997822E+03;  0.0000000E+00; -3.9385122E-09;  1.0000000E+04;  0.0000000E+00;  9.9994932E+03;0.021720212;0.0;0.051085252;162.37985
  9.0000194E-01;  9.9999998E-03;  1.8000047E-01;2448;0.0049889307;0.0;0.0018011752;1003.3185;  4.0134963E-01;2745.0452;3;7.7441454;0.0;4.2276306;0;0.10890741;  9.9997783E+03;  0.0000000E+00; -2.5150227E-08;  1.0000000E+04;  0.0000000E+00;  9.9991162E+03;0.02230157;0.0;0.086605839;289.13467
  9.0000200E-01;  9.9999998E-03;  2.0000093E-01;2449;0.00507562;0.0;0.0030074765;1003.295;  4.0134963E-01;2725.5208;3;7.9638796;0.0;6.2044992;0;0.15313424;  9.9997725E+03;  0.0000000E+00; -1.5524000E-08;  1.0000000E+04;  0.0000000E+00;  9.9986514E+03;0.022967234;0.0;0.13016701;446.83267
  9.0000200E-01;  9.9999998E-03;  2.2000207E-01;2450;0.0051617147;0.0;0.0058035008;1003.2704;  4.0134966E-01;2705.2075;3;8.2011089;0.0;10.276005;0;0.19863243;  9.9997666E+03;  0.0000000E+00;  2.2968311E-07;  1.0000000E+04;  0.0000000E+00;  9.9981670E+03;0.023660729;0.0;0.1749717;610.97693
  9.0000200E-01;  9.9999998E-03;  2.4000446E-01;2451;0.0052326126;0.0;0.011412473;1003.2475;  4.0134963E-01;2686.2749;3;8.4391155;0.0;17.989349;0;0.24110202;  9.9997617E+03;  0.0000000E+00;  1.0425276E-06;  1.0000000E+04;  0.0000000E+00;  9.9977148E+03;0.024319472;0.0;0.21678255;764.72845
  9.0000200E-01;  9.9999998E-03;  2.6000857E-01;2452;0.0052746655;0.0;0.020700492;1003.2202;  4.0134966E-01;2663.6938;3;8.6642885;0.0;30.252287;0;0.2922155;  9.9997568E+03;  0.0000000E+00;  2.5130119E-06;  1.0000000E+04;  0.0000000E+00;  9.9971738E+03;0.024895612;0.0;0.26731989;948.05383
  9.0000200E-01;  9.9999998E-03;  2.8001359E-01;2453;0.005278775;0.0;0.031333003;1003.1786;  4.0134969E-01;2629.2795;3;8.8664351;0.0;43.394753;0;0.36741132;  9.9997529E+03;  0.0000000E+00;  3.6087220E-06;  1.0000000E+04;  0.0000000E+00;  9.9963477E+03;0.025365645;0.0;0.34204566;1231.735
  9.0000200E-01;  9.9999998E-03;  3.0001682E-01;2454;0.0052468716;0.0;0.037579559;1003.1642;  4.0134969E-01;2617.4465;3;9.0371199;0.0;51.17157;0;0.38760367;  9.9997490E+03;  0.0000000E+00;  2.3572541E-06;  1.0000000E+04;  0.0000000E+00;  9.9960664E+03;0.025725385;0.0;0.36187828;1338.8478
  9.2000216E-01;  9.9999998E-03;  1.6000029E-01;2478;0.0054487372;0.0;0.001209995;1003.0831;  4.0124571E-01;2548.9001;3;8.3531599;0.0;2.9711738;0;0.06268952;  9.9998477E+03;  0.0000000E+00; -5.2944453E-09;  1.0000000E+04;  0.0000000E+00;  9.9995273E+03;0.015104158;0.0;0.047585364;150.23492
  9.2000216E-01;  9.9999998E-03;  1.8000044E-01;2479;0.0055454769;0.0;0.0016758781;1003.0651;  4.0124571E-01;2534.0186;3;8.5876951;0.0;3.9326856;0;0.096470416;  9.9998418E+03;  0.0000000E+00; -3.1106740E-08;  1.0000000E+04;  0.0000000E+00;  9.9991768E+03;0.015785698;0.0;0.080684721;267.414
  9.2000222E-01;  9.9999998E-03;  2.0000087E-01;2480;0.0056622894;0.0;0.002787624;1003.043;  4.0124574E-01;2515.6875;3;8.8760004;0.0;5.7529106;0;0.13792859;  9.9998350E+03;  0.0000000E+00; -1.6463625E-08;  1.0000000E+04;  0.0000000E+00;  9.9987422E+03;0.016619049;0.0;0.12130954;413.28131
  9.2000222E-01;  9.9999998E-03;  2.2000192E-01;2481;0.0057722847;0.0;0.0053720991;1003.02;  4.0124577E-01;2496.7651;3;9.1714296;0.0;9.5135145;0;0.18062873;  9.9998271E+03;  0.0000000E+00;  2.8425126E-07;  1.0000000E+04;  0.0000000E+00;  9.9982910E+03;0.017544298;0.0;0.16308443;565.05365
  9.2000228E-01;  9.9999998E-03;  2.4000414E-01;2482;0.0058549866;0.0;0.010563689;1002.9986;  4.0124577E-01;2479.0254;3;9.4453506;0.0;16.65065;0;0.22038929;  9.9998193E+03;  0.0000000E+00;  1.2884441E-06;  1.0000000E+04;  0.0000000E+00;  9.9978711E+03;0.018473323;0.0;0.20191596;706.6944
  9.2000228E-01;  9.9999998E-03;  2.6000795E-01;2483;0.0059024384;0.0;0.019168973;1002.9732;  4.0124580E-01;2458.0334;3;9.6984739;0.0;28.016516;0;0.26772723;  9.9998115E+03;  0.0000000E+00;  3.1294878E-06;  1.0000000E+04;  0.0000000E+00;  9.9973740E+03;0.019323604;0.0;0.24840361;874.04388
  9.2000228E-01;  9.9999998E-03;  2.8001258E-01;2484;0.0058929618;0.0;0.029035525;1002.9351;  4.0124577E-01;2426.5947;3;9.8937712;0.0;40.238846;0;0.33681715;  9.9998047E+03;  0.0000000E+00;  4.5147167E-06;  1.0000000E+04;  0.0000000E+00;  9.9966182E+03;0.020044537;0.0;0.31677261;1131.615
  9.2000228E-01;  9.9999998E-03;  3.0001557E-01;2485;0.005872828;0.0;0.03485702;1002.9222;  4.0124577E-01;2415.8523;3;10.119223;0.0;47.531754;0;0.35493189;  9.9997988E+03;  0.0000000E+00;  3.0211058E-06;  1.0000000E+04;  0.0000000E+00;  9.9963672E+03;0.020621145;0.0;0.33431074;1226.5028
  9.4000226E-01;  9.9999998E-03;  1.6000028E-01;2509;0.0056267912;0.0;0.0011361695;1002.8074;  4.0113339E-01;2319.2351;3;8.555316;0.0;2.7687664;0;0.052186362;  9.9999160E+03;  0.0000000E+00; -4.9730273E-09;  1.0000000E+04;  0.0000000E+00;  9.9995654E+03;0.0083693936;0.0;0.043816969;137.11035
  9.4000226E-01;  9.9999998E-03;  1.8000041E-01;2510;0.0057604457;0.0;0.0015590782;1002.7908;  4.0113339E-01;2305.5461;3;8.8593559;0.0;3.6443658;0;0.083438717;  9.9999072E+03;  0.0000000E+00; -2.9684839E-08;  1.0000000E+04;  0.0000000E+00;  9.9992422E+03;0.0091537414;0.0;0.074284978;243.83997
  9.4000232E-01;  9.9999998E-03;  2.0000079E-01;2511;0.0059371302;0.0;0.002557663;1002.7703;  4.0113342E-01;2288.6074;3;9.2602882;0.0;5.2788792;0;0.12189621;  9.9998984E+03;  0.0000000E+00; -1.6220932E-08;  1.0000000E+04;  0.0000000E+00;  9.9988418E+03;0.010187399;0.0;0.1117088;376.75784
  9.4000238E-01;  9.9999998E-03;  2.2000176E-01;2512;0.0061150379;0.0;0.0049039144;1002.749;  4.0113342E-01;2270.9792;3;9.6989069;0.0;8.6853266;0;0.1615788;  9.9998877E+03;  0.0000000E+00;  3.1172971E-07;  1.0000000E+04;  0.0000000E+00;  9.9984268E+03;0.011414265;0.0;0.15016454;514.93585
  9.4000238E-01;  9.9999998E-03;  2.4000376E-01;2513;0.0062433053;0.0;0.0096397065;1002.7291;  4.0113339E-01;2254.6313;3;10.076489;0.0;15.191678;0;0.19843236;  9.9998750E+03;  0.0000000E+00;  1.4331285E-06;  1.0000000E+04;  0.0000000E+00;  9.9980430E+03;0.012717576;0.0;0.18571478;643.2196
  9.4000244E-01;  9.9999998E-03;  2.6000723E-01;2514;0.006299071;0.0;0.017504076;1002.706;  4.0113348E-01;2235.5259;3;10.356717;0.0;25.585258;0;0.24172001;  9.9998633E+03;  0.0000000E+00;  4.8380034E-06;  1.0000000E+04;  0.0000000E+00;  9.9975928E+03;0.013967617;0.0;0.22775239;793.01263
  9.4000238E-01;  9.9999998E-03;  2.8001150E-01;2515;0.0062839673;0.0;0.026541105;1002.6715;  4.0113345E-01;2206.9663;3;10.555585;0.0;36.812969;0;0.30428258;  9.9998535E+03;  0.0000000E+00;  1.0482816E-05;  1.0000000E+04;  0.0000000E+00;  9.9969131E+03;0.015070065;0.0;0.28921252;1022.1558
  9.4000238E-01;  9.9999998E-03;  3.0001426E-01;2516;0.006272214;0.0;0.031901494;1002.6601;  4.0113345E-01;2197.5122;3;10.81539;0.0;43.58157;0;0.32026497;  9.9998447E+03;  0.0000000E+00;  3.4357759E-06;  1.0000000E+04;  0.0000000E+00;  9.9966953E+03;0.015984844;0.0;0.30428013;1103.8951
  9.6000224E-01;  9.9999998E-03;  1.6000026E-01;2540;0.0055801836;0.0;0.0010590444;1002.5228;  4.0101752E-01;2081.9954;3;8.4581575;0.0;2.5486042;0;0.042264182;  9.9999756E+03;  0.0000000E+00; -3.2344303E-09;  1.0000000E+04;  0.0000000E+00;  9.9996035E+03;0.0022946782;0.0;0.039969504;123.60938
  9.6000224E-01;  9.9999998E-03;  1.8000038E-01;2541;0.0057317684;0.0;0.0014431172;1002.5076;  4.0101755E-01;2069.5005;3;8.7827368;0.0;3.3469195;0;0.070895411;  9.9999678E+03;  0.0000000E+00; -2.6191493E-08;  1.0000000E+04;  0.0000000E+00;  9.9993086E+03;0.0031898087;0.0;0.067705601;219.41432
  9.6000236E-01;  9.9999998E-03;  2.0000072E-01;2542;0.0059459312;0.0;0.0023256319;1002.4887;  4.0101758E-01;2053.9558;3;9.239728;0.0;4.7943382;0;0.10624007;  9.9999551E+03;  0.0000000E+00; -1.3395061E-08;  1.0000000E+04;  0.0000000E+00;  9.9989453E+03;0.0044574598;0.0;0.10178261;338.70737
  9.6000242E-01;  9.9999998E-03;  2.2000158E-01;2543;0.0061819688;0.0;0.0044202353;1002.4691;  4.0101755E-01;2037.7223;3;9.7780104;0.0;7.8283505;0;0.14278956;  9.9999404E+03;  0.0000000E+00;  4.5975498E-06;  1.0000000E+04;  0.0000000E+00;  9.9985684E+03;0.0060506561;0.0;0.1367389;462.48468
  9.6000248E-01;  9.9999998E-03;  2.4000339E-01;2544;0.0063785557;0.0;0.0086822035;1002.4509;  4.0101752E-01;2022.7679;3;10.291358;0.0;13.676951;0;0.17663604;  9.9999238E+03;  0.0000000E+00;  5.1667361E-05;  1.0000000E+04;  0.0000000E+00;  9.9982217E+03;0.0078185117;0.0;0.16881754;576.60065
  9.6000248E-01;  9.9999998E-03;  2.6000655E-01;2545;0.0064845271;0.0;0.015781742;1002.4299;  4.0101758E-01;2005.4525;3;10.670966;0.0;23.06728;0;0.21579751;  9.9999072E+03;  0.0000000E+00;  1.5314730E-04;  1.0000000E+04;  0.0000000E+00;  9.9978213E+03;0.0095784385;0.0;0.20621908;708.04279
  9.6000248E-01;  9.9999998E-03;  2.8001037E-01;2546;0.0065114191;0.0;0.023966525;1002.3991;  4.0101758E-01;1979.9711;3;10.955061;0.0;33.282677;0;0.27177954;  9.9998906E+03;  0.0000000E+00;  1.8811939E-04;  1.0000000E+04;  0.0000000E+00;  9.9972188E+03;0.011185233;0.0;0.26059431;907.83752
  9.6000248E-01;  9.9999998E-03;  3.0001286E-01;2547;0.0065041315;0.0;0.028835706;1002.3892;  4.0101761E-01;1971.8053;3;11.226473;0.0;39.486755;0;0.2855469;  9.9998779E+03;  0.0000000E+00;  3.4722002E-06;  1.0000000E+04;  0.0000000E+00;  9.9970361E+03;0.012561441;0.0;0.27298546;975.6767
  9.8000216E-01;  9.9999998E-03;  1.6000025E-01;2571;0.00542111;0.0;0.0009813105;1002.2399;  4.0090266E-01;1846.0654;3;8.2197285;0.0;2.3360441;0;0.033665076;  1.0000026E+04;  0.0000000E+00; -1.0111451E-09;  1.0000000E+04;  0.0000000E+00;  9.9996406E+03;-0.0025846432;0.0;0.03624972;110.38554
  9.8000222E-01;  9.9999998E-03;  1.8000035E-01;2572;0.0055782194;0.0;0.0013226767;1002.226;  4.0090266E-01;1834.6682;3;8.5541735;0.0;3.0410452;0;0.059721209;  1.0000015E+04;  0.0000000E+00; -1.5938326E-08;  1.0000000E+04;  0.0000000E+00;  9.9993750E+03;-0.0015450468;0.0;0.061266255;195.19963
  9.8000228E-01;  9.9999998E-03;  2.0000064E-01;2573;0.0058077751;0.0;0.0021001331;1002.2089;  4.0090266E-01;1820.5199;3;9.0253677;0.0;4.3199196;0;0.091968633;  1.0000000E+04;  0.0000000E+00;  7.7838677E-06;  1.0000000E+04;  0.0000000E+00;  9.9990459E+03;-1.0426084e-07;0.0;0.091968738;300.6377
  9.8000234E-01;  9.9999998E-03;  2.2000141E-01;2574;0.0060866536;0.0;0.003947455;1002.1909;  4.0090266E-01;1805.782;3;9.6234388;0.0;6.985178;0;0.12536538;  9.9999805E+03;  0.0000000E+00;  9.2745831E-05;  1.0000000E+04;  0.0000000E+00;  9.9987090E+03;0.0019958292;0.0;0.12336955;409.68604
  9.8000246E-01;  9.9999998E-03;  2.4000303E-01;2575;0.0063599972;0.0;0.0077449814;1002.1744;  4.0090263E-01;1792.1249;3;10.265614;0.0;12.188198;0;0.15620591;  9.9999600E+03;  0.0000000E+00;  3.8766584E-04;  1.0000000E+04;  0.0000000E+00;  9.9983994E+03;0.0042635803;0.0;0.15194233;509.41516
  9.8000252E-01;  9.9999998E-03;  2.6000583E-01;2576;0.0065377662;0.0;0.014088614;1002.1556;  4.0090263E-01;1776.6992;3;10.769667;0.0;20.588644;0;0.19134916;  9.9999365E+03;  0.0000000E+00;  8.4358547E-04;  1.0000000E+04;  0.0000000E+00;  9.9980459E+03;0.0065802308;0.0;0.18476893;622.68109
  9.8000252E-01;  9.9999998E-03;  2.8000927E-01;2577;0.006640391;0.0;0.02140872;1002.1285;  4.0090272E-01;1754.2977;3;11.187578;0.0;29.77437;0;0.24075767;  9.9999141E+03;  0.0000000E+00;  8.9777156E-04;  1.0000000E+04;  0.0000000E+00;  9.9975264E+03;0.0087562185;0.0;0.23200145;792.97113
  9.8000258E-01;  9.9999998E-03;  3.0001149E-01;2578;0.0067024641;0.0;0.025777342;1002.1202;  4.0090272E-01;1747.42;3;11.586896;0.0;35.415531;0;0.25214684;  9.9998965E+03;  0.0000000E+00; -3.4985417E-06;  1.0000000E+04;  0.0000000E+00;  9.9973809E+03;0.010667916;0.0;0.24147893;846.05078
  1.0000020E+00;  9.9999998E-03;  1.6000023E-01;2602;0.0052118301;0.0;0.00090872496;1001.9679;  4.0079248E-01;1619.0466;3;7.9197993;0.0;2.1304245;0;0.026781023;  1.0000062E+04;  0.0000000E+00;  7.6186518E-10;  1.0000000E+04;  0.0000000E+00;  9.9996729E+03;-0.0060848119;0.0;0.032865833;98.08065
  1.0000021E+00;  9.9999998E-03;  1.8000033E-01;2603;0.0053557972;0.0;0.0012148226;1001.9553;  4.0079248E-01;1608.6505;3;8.2355671;0.0;2.759876;0;0.050426006;  1.0000050E+04;  0.0000000E+00;  1.1811534E-06;  1.0000000E+04;  0.0000000E+00;  9.9994365E+03;-0.0048499475;0.0;0.055275954;172.2002
  1.0000021E+00;  9.9999998E-03;  2.0000058E-01;2604;0.0055907168;0.0;0.0018901622;1001.9398;  4.0079245E-01;1595.9004;3;8.7078648;0.0;3.8685915;0;0.079662263;  1.0000031E+04;  0.0000000E+00;  4.6411864E-05;  1.0000000E+04;  0.0000000E+00;  9.9991426E+03;-0.0030144325;0.0;0.082676694;263.94077
  1.0000023E+00;  9.9999998E-03;  2.2000127E-01;2605;0.0059170192;0.0;0.0035193269;1001.9235;  4.0079248E-01;1582.562;3;9.3705053;0.0;6.2086287;0;0.10992973;  1.0000008E+04;  0.0000000E+00;  3.4976701E-04;  1.0000000E+04;  0.0000000E+00;  9.9988418E+03;-0.00065131421;0.0;0.11058104;358.38837
  1.0000024E+00;  9.9999998E-03;  2.4000271E-01;2606;0.006288209;0.0;0.0068898294;1001.9085;  4.0079248E-01;1570.2045;3;10.164032;0.0;10.818753;0;0.13782687;  9.9999814E+03;  0.0000000E+00;  1.2188124E-03;  1.0000000E+04;  0.0000000E+00;  9.9985693E+03;0.002057252;0.0;0.13576962;444.11807
  1.0000025E+00;  9.9999998E-03;  2.6000518E-01;2607;0.0065609599;0.0;0.012510943;1001.8918;  4.0079251E-01;1556.3756;3;10.820122;0.0;18.272329;0;0.16919662;  9.9999531E+03;  0.0000000E+00;  2.3930112E-03;  1.0000000E+04;  0.0000000E+00;  9.9982627E+03;0.0048793713;0.0;0.16431725;540.29059
  1.0000026E+00;  9.9999998E-03;  2.8000820E-01;2608;0.0068035224;0.0;0.018967928;1001.8682;  4.0079254E-01;1537.0546;3;11.476693;0.0;26.431698;0;0.21207885;  9.9999268E+03;  0.0000000E+00;  2.3211110E-03;  1.0000000E+04;  0.0000000E+00;  9.9978193E+03;0.0076107946;0.0;0.20446806;681.62439
  1.0000027E+00;  9.9999998E-03;  3.0001014E-01;2609;0.0070364745;0.0;0.022829263;1001.862;  4.0079248E-01;1531.9546;3;12.180174;0.0;31.51376;0;0.22070254;  9.9999014E+03;  0.0000000E+00; -1.9719504E-04;  1.0000000E+04;  0.0000000E+00;  9.9977178E+03;0.010089086;0.0;0.21061346;718.67712
  1.0200020E+00;  9.9999998E-03;  1.6000023E-01;2633;0.0049640317;0.0;0.0008493638;1001.7145;  4.0069008E-01;1407.1486;3;7.5642843;0.0;1.9465327;0;0.02172368;  1.0000087E+04;  0.0000000E+00; -4.4457798E-07;  1.0000000E+04;  0.0000000E+00;  9.9997012E+03;-0.0082827918;0.0;0.030006472;87.229568
  1.0200020E+00;  9.9999998E-03;  1.8000032E-01;2634;0.0051112147;0.0;0.0011239382;1001.7031;  4.0069005E-01;1397.8536;3;7.8865085;0.0;2.5025449;0;0.043155279;  1.0000071E+04;  0.0000000E+00; -8.0088221E-06;  1.0000000E+04;  0.0000000E+00;  9.9994883E+03;-0.0068281149;0.0;0.049983393;151.17194
  1.0200021E+00;  9.9999998E-03;  2.0000054E-01;2635;0.0053354143;0.0;0.0017276409;1001.6891;  4.0069005E-01;1386.3085;3;8.3409252;0.0;3.49159;0;0.069463536;  1.0000051E+04;  0.0000000E+00;  6.7678331E-05;  1.0000000E+04;  0.0000000E+00;  9.9992305E+03;-0.0047649145;0.0;0.074228451;229.67554
  1.0200022E+00;  9.9999998E-03;  2.2000115E-01;2636;0.0057114367;0.0;0.003177881;1001.6745;  4.0069005E-01;1374.3718;3;9.0697298;0.0;5.5639939;0;0.096598692;  1.0000023E+04;  0.0000000E+00;  6.8573450E-04;  1.0000000E+04;  0.0000000E+00;  9.9989658E+03;-0.0021787474;0.0;0.098777443;310.01843
  1.0200024E+00;  9.9999998E-03;  2.4000244E-01;2637;0.0062101134;0.0;0.0061810706;1001.6611;  4.0069008E-01;1363.4135;3;10.056623;0.0;9.6653118;0;0.1216367;  9.9999932E+03;  0.0000000E+00;  2.4301151E-03;  1.0000000E+04;  0.0000000E+00;  9.9987285E+03;0.0007956893;0.0;0.12084101;382.69431
  1.0200025E+00;  9.9999998E-03;  2.6000461E-01;2638;0.0066391588;0.0;0.011131916;1001.6461;  4.0069011E-01;1351.0854;3;10.962984;0.0;16.242214;0;0.14959449;  9.9999609E+03;  0.0000000E+00;  4.6031051E-03;  1.0000000E+04;  0.0000000E+00;  9.9984609E+03;0.0039701597;0.0;0.14562432;463.71414
  1.0200027E+00;  9.9999998E-03;  2.8000724E-01;2639;0.00710771;0.0;0.01673099;1001.6262;  4.0069008E-01;1334.6482;3;12.005206;0.0;23.37921;0;0.18604362;  9.9999307E+03;  0.0000000E+00;  4.0526716E-03;  1.0000000E+04;  0.0000000E+00;  9.9980938E+03;0.0072067352;0.0;0.17883688;577.14362
  1.0200030E+00;  9.9999998E-03;  3.0000889E-01;2640;0.0075811883;0.0;0.020051034;1001.6221;  4.0069005E-01;1331.3217;3;13.123372;0.0;27.866451;0;0.19104066;  9.9998984E+03;  0.0000000E+00; -8.0065802E-04;  1.0000000E+04;  0.0000000E+00;  9.9980449E+03;0.010343291;0.0;0.18069738;595.76471
  1.0400019E+00;  9.9999998E-03;  1.6000022E-01;2664;0.004683407;0.0;0.00079168502;1001.4846;  4.0059745E-01;1214.4991;3;7.1730509;0.0;1.7713419;0;0.018443085;  1.0000099E+04;  0.0000000E+00; -9.9907620E-06;  1.0000000E+04;  0.0000000E+00;  9.9997217E+03;-0.0093587413;0.0;0.027801827;78.107399
  1.0400019E+00;  9.9999998E-03;  1.8000031E-01;2665;0.0048364;0.0;0.00105908;1001.4742;  4.0059751E-01;1206.1118;3;7.4962406;0.0;2.295156;0;0.03781328;  1.0000081E+04;  0.0000000E+00; -9.7865181E-05;  1.0000000E+04;  0.0000000E+00;  9.9995342E+03;-0.007721107;0.0;0.045534387;132.47716
  1.0400020E+00;  9.9999998E-03;  2.0000052E-01;2666;0.0050709364;0.0;0.0016183961;1001.4618;  4.0059745E-01;1195.8716;3;7.9650512;0.0;3.1971252;0;0.061209355;  1.0000059E+04;  0.0000000E+00; -1.3684260E-04;  1.0000000E+04;  0.0000000E+00;  9.9993066E+03;-0.0055830735;0.0;0.066792428;198.38162
  1.0400021E+00;  9.9999998E-03;  2.2000109E-01;2667;0.0055055479;0.0;0.0029634328;1001.449;  4.0059745E-01;1185.4362;3;8.7708521;0.0;5.1157088;0;0.085156552;  1.0000032E+04;  0.0000000E+00;  7.1382883E-04;  1.0000000E+04;  0.0000000E+00;  9.9990771E+03;-0.0030278352;0.0;0.088184386;265.39206
  1.0400023E+00;  9.9999998E-03;  2.4000224E-01;2668;0.0061462643;0.0;0.005671314;1001.437;  4.0059748E-01;1175.5859;3;9.9701376;0.0;8.8090076;0;0.10741926;  1.0000002E+04;  0.0000000E+00;  3.4175618E-03;  1.0000000E+04;  0.0000000E+00;  9.9988682E+03;-6.8887581e-05;0.0;0.10748815;326.36752
  1.0400026E+00;  9.9999998E-03;  2.6000416E-01;2669;0.0068133231;0.0;0.010017565;1001.4237;  4.0059742E-01;1164.7605;3;11.267805;0.0;14.596716;0;0.13246317;  9.9999678E+03;  0.0000000E+00;  6.4728674E-03;  1.0000000E+04;  0.0000000E+00;  9.9986357E+03;0.003259158;0.0;0.12920402;394.75586
  1.0400029E+00;  9.9999998E-03;  2.8000638E-01;2670;0.007590597;0.0;0.014758672;1001.407;  4.0059742E-01;1151.1066;3;12.837997;0.0;20.709591;0;0.16260271;  9.9999316E+03;  0.0000000E+00;  4.8941141E-03;  1.0000000E+04;  0.0000000E+00;  9.9983428E+03;0.0070394748;0.0;0.15556324;481.48779
  1.0400032E+00;  9.9999998E-03;  3.0000773E-01;2671;0.0083932979;0.0;0.017501445;1001.4057;  4.0059745E-01;1150.0338;3;14.528758;0.0;24.562943;0;0.16340153;  9.9998887E+03;  0.0000000E+00; -1.5218565E-03;  1.0000000E+04;  0.0000000E+00;  9.9983555E+03;0.011243613;0.0;0.15215792;479.88239
  1.0600017E+00;  9.9999998E-03;  1.6000021E-01;2695;0.004375062;0.0;0.00073906139;1001.2815;  4.0051588E-01;1043.9198;3;6.7471399;0.0;1.6160305;0;0.016831882;  1.0000100E+04;  0.0000000E+00; -6.8278663E-05;  1.0000000E+04;  0.0000000E+00;  9.9997373E+03;-0.0094636744;0.0;0.026295558;70.641876
  1.0600017E+00;  9.9999998E-03;  1.8000031E-01;2696;0.004539506;0.0;0.0010137281;1001.2722;  4.0051588E-01;1036.3453;3;7.0826058;0.0;2.1277926;0;0.034198627;  1.0000081E+04;  0.0000000E+00; -4.3339340E-04;  1.0000000E+04;  0.0000000E+00;  9.9995703E+03;-0.0077526388;0.0;0.041951265;116.05689
  1.0600019E+00;  9.9999998E-03;  2.0000052E-01;2697;0.0048149722;0.0;0.001576168;1001.2614;  4.0051588E-01;1027.5083;3;7.6059203;0.0;3.0063059;0;0.05460934;  1.0000061E+04;  0.0000000E+00; -9.0296345E-04;  1.0000000E+04;  0.0000000E+00;  9.9993750E+03;-0.0057753427;0.0;0.060384683;170.13235
  1.0600021E+00;  9.9999998E-03;  2.2000107E-01;2698;0.0053260005;0.0;0.0028887975;1001.2502;  4.0051588E-01;1018.4772;3;8.5155649;0.0;4.8792772;0;0.075268611;  1.0000036E+04;  0.0000000E+00; -8.3543324E-05;  1.0000000E+04;  0.0000000E+00;  9.9991768E+03;-0.0035712067;0.0;0.078839816;224.76921
  1.0600023E+00;  9.9999998E-03;  2.4000216E-01;2699;0.0061160843;0.0;0.0053958562;1001.2397;  4.0051588E-01;1009.9316;3;9.937047;0.0;8.3043385;0;0.094938055;  1.0000010E+04;  0.0000000E+00;  3.3102732E-03;  1.0000000E+04;  0.0000000E+00;  9.9989922E+03;-0.00094317843;0.0;0.095881231;275.68271
  1.0600027E+00;  9.9999998E-03;  2.6000383E-01;2700;0.0070831762;0.0;0.0092049194;1001.2276;  4.0051585E-01;1000.0264;3;11.737396;0.0;13.39583;0;0.1177335;  9.9999756E+03;  0.0000000E+00;  6.3985423E-03;  1.0000000E+04;  0.0000000E+00;  9.9987842E+03;0.0024330183;0.0;0.11530048;333.8587
  1.0600032E+00;  9.9999998E-03;  2.8000566E-01;2701;0.0082122181;0.0;0.013088048;1001.2143;  4.0051588E-01;989.15015;3;13.91118;0.0;18.485476;0;0.1418471;  9.9999297E+03;  0.0000000E+00;  3.4031963E-03;  1.0000000E+04;  0.0000000E+00;  9.9985645E+03;0.007055196;0.0;0.13479191;395.31866
  1.0600036E+00;  9.9999998E-03;  3.0000669E-01;2702;0.0094120549;0.0;0.015213046;1001.2153;  4.0051588E-01;989.92682;3;16.289959;0.0;21.645666;0;0.13874136;  9.9998672E+03;  0.0000000E+00; -6.9504610E-04;  1.0000000E+04;  0.0000000E+00;  9.9986484E+03;0.013379914;0.0;0.12536144;373.42972
  1.0800016E+00;  9.9999998E-03;  1.6000021E-01;2726;0.0040676296;0.0;0.00069980876;1001.1063;  4.0044582E-01;896.04242;3;6.3309832;0.0;1.4881335;0;0.016754679;  1.0000092E+04;  0.0000000E+00; -3.0262847E-04;  1.0000000E+04;  0.0000000E+00;  9.9997441E+03;-0.008677002;0.0;0.025431681;64.424149
  1.0800016E+00;  9.9999998E-03;  1.8000031E-01;2727;0.004246817;0.0;0.00099142047;1001.0981;  4.0044579E-01;889.47662;3;6.679472;0.0;2.0012932;0;0.032074027;  1.0000073E+04;  0.0000000E+00; -1.2855901E-03;  1.0000000E+04;  0.0000000E+00;  9.9995986E+03;-0.0070616635;0.0;0.039135691;101.53732
  1.0800018E+00;  9.9999998E-03;  2.0000055E-01;2728;0.0045873607;0.0;0.0016120643;1001.0889;  4.0044582E-01;881.94519;3;7.2920179;0.0;2.9394155;0;0.049394939;  1.0000056E+04;  0.0000000E+00; -2.5600835E-03;  1.0000000E+04;  0.0000000E+00;  9.9994316E+03;-0.0055029844;0.0;0.054897923;144.77686
  1.0800020E+00;  9.9999998E-03;  2.2000113E-01;2729;0.0051926342;0.0;0.0029661714;1001.0796;  4.0044579E-01;874.4137;3;8.3346319;0.0;4.8728657;0;0.066764176;  1.0000040E+04;  0.0000000E+00; -2.0723420E-03;  1.0000000E+04;  0.0000000E+00;  9.9992617E+03;-0.0039397045;0.0;0.070703879;188.31351
  1.0800023E+00;  9.9999998E-03;  2.4000216E-01;2730;0.0061388826;0.0;0.0053539565;1001.0702;  4.0044579E-01;866.78564;3;9.9930201;0.0;8.1530085;0;0.084232233;  1.0000018E+04;  0.0000000E+00;  1.3459236E-03;  1.0000000E+04;  0.0000000E+00;  9.9990967E+03;-0.0018496083;0.0;0.08608184;230.86765
  1.0800028E+00;  9.9999998E-03;  2.6000363E-01;2731;0.0073803081;0.0;0.008677261;1001.0588;  4.0044582E-01;857.61267;3;12.262749;0.0;12.626727;0;0.10541661;  9.9999814E+03;  0.0000000E+00;  3.1019556E-03;  1.0000000E+04;  0.0000000E+00;  9.9989063E+03;0.0016543486;0.0;0.10376226;280.32788
  1.0800034E+00;  9.9999998E-03;  2.8000507E-01;2732;0.0088084908;0.0;0.011715923;1001.0487;  4.0044585E-01;849.40521;3;14.952547;0.0;16.706968;0;0.12386615;  9.9999229E+03;  0.0000000E+00; -1.7795504E-04;  1.0000000E+04;  0.0000000E+00;  9.9987607E+03;0.0076176389;0.0;0.11624851;318.48669
  1.0800040E+00;  9.9999998E-03;  3.0000579E-01;2733;0.010347026;0.0;0.013194121;1001.0515;  4.0044582E-01;851.72241;3;17.906473;0.0;19.10186;0;0.11805661;  9.9998262E+03;  0.0000000E+00;  5.1190378E-03;  1.0000000E+04;  0.0000000E+00;  9.9989160E+03;0.01732689;0.0;0.10072972;279.44904
  1.1000015E+00;  9.9999998E-03;  1.6000021E-01;2756;0.0037657968;0.0;0.00066876196;1000.9587;  4.0038711E-01;770.66992;3;5.9216666;0.0;1.3750439;0;0.018029027;  1.0000073E+04;  0.0000000E+00; -9.7258145E-04;  1.0000000E+04;  0.0000000E+00;  9.9997480E+03;-0.007031139;0.0;0.025060166;58.856579
  1.1000016E+00;  9.9999998E-03;  1.8000033E-01;2757;0.0039945915;0.0;0.0010166755;1000.9517;  4.0038708E-01;765.11169;3;6.3378353;0.0;1.9456705;0;0.031190142;  1.0000060E+04;  0.0000000E+00; -2.9596610E-03;  1.0000000E+04;  0.0000000E+00;  9.9996230E+03;-0.0057136165;0.0;0.036903758;88.513496
  1.1000017E+00;  9.9999998E-03;  2.0000063E-01;2758;0.0044152676;0.0;0.0017473642;1000.9442;  4.0038714E-01;759.07428;3;7.0595984;0.0;3.0292912;0;0.045398403;  1.0000049E+04;  0.0000000E+00; -5.2331584E-03;  1.0000000E+04;  0.0000000E+00;  9.9994814E+03;-0.0047865217;0.0;0.050184924;122.29897
  1.1000019E+00;  9.9999998E-03;  2.2000124E-01;2759;0.0051258686;0.0;0.0031895605;1000.9364;  4.0038714E-01;752.74939;3;8.2630863;0.0;5.0894637;0;0.05974365;  1.0000038E+04;  0.0000000E+00; -5.2415431E-03;  1.0000000E+04;  0.0000000E+00;  9.9993369E+03;-0.0040052887;0.0;0.063748941;156.44585
  1.1000024E+00;  9.9999998E-03;  2.4000224E-01;2760;0.0062144659;0.0;0.0055047655;1000.9279;  4.0038708E-01;745.94531;3;10.149543;0.0;8.3030672;0;0.075699896;  1.0000021E+04;  0.0000000E+00; -2.7623852E-03;  1.0000000E+04;  0.0000000E+00;  9.9991836E+03;-0.0024104062;0.0;0.0781103;192.37885
  1.1000029E+00;  9.9999998E-03;  2.6000351E-01;2761;0.0076035126;0.0;0.0083361138;1000.9175;  4.0038708E-01;737.51196;3;12.677903;0.0;12.161007;0;0.095149562;  9.9999824E+03;  0.0000000E+00; -2.7966544E-03;  1.0000000E+04;  0.0000000E+00;  9.9990127E+03;0.0013827062;0.0;0.093766853;232.8588
  1.1000035E+00;  9.9999998E-03;  2.8000456E-01;2762;0.0091238618;0.0;0.010570318;1000.9105;  4.0038714E-01;731.95367;3;15.53392;0.0;15.285734;0;0.10754357;  9.9999111E+03;  0.0000000E+00; -2.0174778E-03;  1.0000000E+04;  0.0000000E+00;  9.9989473E+03;0.0086451517;0.0;0.098898418;249.09311
  1.1200013E+00;  9.9999998E-03;  1.6000022E-01;2785;0.0035100214;0.0;0.00066981051;1000.8369;  4.0033892E-01;666.19507;3;5.5780606;0.0;1.3125812;0;0.020316716;  1.0000048E+04;  0.0000000E+00; -2.4861137E-03;  1.0000000E+04;  0.0000000E+00;  9.9997471E+03;-0.0046336269;0.0;0.024950342;53.436497
  1.1200014E+00;  9.9999998E-03;  1.8000039E-01;2786;0.0038044921;0.0;0.0011145563;1000.8311;  4.0033889E-01;661.54553;3;6.0831351;0.0;1.9993948;0;0.031217732;  1.0000038E+04;  0.0000000E+00; -5.6680301E-03;  1.0000000E+04;  0.0000000E+00;  9.9996416E+03;-0.0038121706;0.0;0.035029903;76.828735
  1.1200017E+00;  9.9999998E-03;  2.0000075E-01;2787;0.0043220324;0.0;0.0019904322;1000.8251;  4.0033892E-01;656.7063;3;6.9424973;0.0;3.2859056;0;0.042519327;  1.0000034E+04;  0.0000000E+00; -8.7106088E-03;  1.0000000E+04;  0.0000000E+00;  9.9995225E+03;-0.0036104848;0.0;0.046129812;102.87666
  1.1200020E+00;  9.9999998E-03;  2.2000141E-01;2788;0.0051541147;0.0;0.0035470538;1000.8187;  4.0033889E-01;651.58234;3;8.3440619;0.0;5.5193949;0;0.054597624;  1.0000032E+04;  0.0000000E+00; -9.2389192E-03;  1.0000000E+04;  0.0000000E+00;  9.9993965E+03;-0.0034798605;0.0;0.058077484;129.80978
  1.1200025E+00;  9.9999998E-03;  2.4000236E-01;2789;0.0063396962;0.0;0.0057564513;1000.8105;  4.0033889E-01;645.12994;3;10.405252;0.0;8.628953;0;0.069733918;  1.0000016E+04;  0.0000000E+00; -8.3804214E-03;  1.0000000E+04;  0.0000000E+00;  9.9992520E+03;-0.0020369194;0.0;0.071770839;160.40865
  1.1200030E+00;  9.9999998E-03;  2.6000339E-01;2790;0.0077321595;0.0;0.0080393851;1000.8017;  4.0033889E-01;638.10815;3;12.948199;0.0;11.812531;0;0.086152613;  9.9999736E+03;  0.0000000E+00; -7.8055300E-03;  1.0000000E+04;  0.0000000E+00;  9.9991162E+03;0.0021704054;0.0;0.083982207;189.17375
  1.1200036E+00;  9.9999998E-03;  2.8000411E-01;2791;0.0091673182;0.0;0.009524243;1000.7985;  4.0033889E-01;635.54602;3;15.658959;0.0;14.037672;0;0.091786385;  9.9998936E+03;  0.0000000E+00;  2.7828249E-03;  1.0000000E+04;  0.0000000E+00;  9.9991309E+03;0.010192407;0.0;0.081593975;185.29916
  1.1400013E+00;  9.9999998E-03;  1.6000026E-01;2813;0.0033270849;0.0;0.00073966151;1000.7388;  4.0030029E-01;580.47833;3;5.3312979;0.0;1.3492148;0;0.023112336;  1.0000016E+04;  0.0000000E+00; -5.1876553E-03;  1.0000000E+04;  0.0000000E+00;  9.9997480E+03;-0.0017310649;0.0;0.0248434;48.121468
  1.1400014E+00;  9.9999998E-03;  1.8000048E-01;2814;0.0037102655;0.0;0.0013153689;1000.7343;  4.0030029E-01;576.91876;3;5.9584947;0.0;2.2109363;0;0.031802215;  1.0000013E+04;  0.0000000E+00; -9.2601962E-03;  1.0000000E+04;  0.0000000E+00;  9.9996592E+03;-0.0015328941;0.0;0.033335108;66.583931
  1.1400017E+00;  9.9999998E-03;  2.0000093E-01;2815;0.0043563521;0.0;0.0023681032;1000.7293;  4.0030023E-01;573.07813;3;7.0146928;0.0;3.7574914;0;0.040887903;  1.0000015E+04;  0.0000000E+00; -1.2484713E-02;  1.0000000E+04;  0.0000000E+00;  9.9995586E+03;-0.0019149173;0.0;0.042802822;86.683197
  1.1400020E+00;  9.9999998E-03;  2.2000162E-01;2816;0.0053160121;0.0;0.0040045376;1000.7234;  4.0030026E-01;568.39447;3;8.6353025;0.0;6.1322703;0;0.051931366;  1.0000015E+04;  0.0000000E+00; -1.3574936E-02;  1.0000000E+04;  0.0000000E+00;  9.9994414E+03;-0.0019287725;0.0;0.053860139;108.56138
  1.1400025E+00;  9.9999998E-03;  2.4000248E-01;2817;0.0065189959;0.0;0.005989261;1000.7158;  4.0030023E-01;562.49298;3;10.74646;0.0;8.9774017;0;0.066250712;  9.9999961E+03;  0.0000000E+00; -1.3217432E-02;  1.0000000E+04;  0.0000000E+00;  9.9993086E+03;-9.4125491e-05;0.0;0.066344835;133.04375
  1.1400031E+00;  9.9999998E-03;  2.6000327E-01;2818;0.0077800234;0.0;0.007693802;1000.7095;  4.0030029E-01;557.43457;3;13.092942;0.0;11.450204;0;0.077976018;  9.9999512E+03;  0.0000000E+00; -6.3175852E-03;  1.0000000E+04;  0.0000000E+00;  9.9992256E+03;0.0044218278;0.0;0.073554188;146.75793
  1.1600013E+00;  9.9999998E-03;  1.6000034E-01;2840;0.0032578346;0.0;0.00091713545;1000.6614;  4.0026993E-01;511.14145;3;5.2323937;0.0;1.5441346;0;0.025876606;  9.9999834E+03;  0.0000000E+00; -8.9340964E-03;  1.0000000E+04;  0.0000000E+00;  9.9997520E+03;0.0013262621;0.0;0.024550343;43.216732
  1.1600015E+00;  9.9999998E-03;  1.8000065E-01;2841;0.0037820865;0.0;0.0016612631;1000.6577;  4.0026993E-01;508.28528;3;6.0610795;0.0;2.655838;0;0.032830041;  9.9999863E+03;  0.0000000E+00; -1.3096791E-02;  1.0000000E+04;  0.0000000E+00;  9.9996738E+03;0.00099631806;0.0;0.031833723;57.709339
  1.1600018E+00;  9.9999998E-03;  2.0000115E-01;2842;0.0045899902;0.0;0.002867897;1000.6534;  4.0026993E-01;504.96844;3;7.3869767;0.0;4.4523177;0;0.041009475;  9.9999893E+03;  0.0000000E+00; -1.6003365E-02;  1.0000000E+04;  0.0000000E+00;  9.9995850E+03;0.00059162657;0.0;0.040417846;73.395103
  1.1600022E+00;  9.9999998E-03;  2.2000183E-01;2843;0.0056302552;0.0;0.0044695185;1000.6475;  4.0026993E-01;500.36166;3;9.1677637;0.0;6.8094134;0;0.052119106;  9.9999814E+03;  0.0000000E+00; -1.7060507E-02;  1.0000000E+04;  0.0000000E+00;  9.9994746E+03;0.0012302571;0.0;0.050888848;91.013306
  1.1600027E+00;  9.9999998E-03;  2.4000254E-01;2844;0.0067555569;0.0;0.0060959822;1000.6409;  4.0026996E-01;495.29431;3;11.196896;0.0;9.2025881;0;0.064561695;  9.9999551E+03;  0.0000000E+00; -1.2560171E-02;  1.0000000E+04;  0.0000000E+00;  9.9993672E+03;0.0038279884;0.0;0.060733706;105.86747
  1.1600031E+00;  9.9999998E-03;  2.6000309E-01;2845;0.0078259325;0.0;0.0072532371;1000.6372;  4.0026996E-01;492.43802;3;13.235868;0.0;10.986719;0;0.07107652;  9.9999063E+03;  0.0000000E+00;  6.4306692E-03;  1.0000000E+04;  0.0000000E+00;  9.9993428E+03;0.0085705388;0.0;0.062505983;108.22925
  1.1800014E+00;  9.9999998E-03;  1.6000049E-01;2866;0.0034151294;0.0;0.0012611323;1000.6017;  4.0024656E-01;455.31799;3;5.4382443;0.0;2.0112126;0;0.028497558;  9.9999502E+03;  0.0000000E+00; -1.2919676E-02;  1.0000000E+04;  0.0000000E+00;  9.9997549E+03;0.0043634856;0.0;0.024134073;38.651081
  1.1800016E+00;  9.9999998E-03;  1.8000086E-01;2867;0.0041380068;0.0;0.0021510923;1000.5983;  4.0024659E-01;452.79178;3;6.5952373;0.0;3.364089;0;0.034910746;  9.9999521E+03;  0.0000000E+00; -1.6467962E-02;  1.0000000E+04;  0.0000000E+00;  9.9996865E+03;0.0041501885;0.0;0.030760556;49.734081
  1.1800020E+00;  9.9999998E-03;  2.0000137E-01;2868;0.0050543249;0.0;0.0033967197;1000.5938;  4.0024659E-01;449.3634;3;8.1291056;0.0;5.2375684;0;0.043576676;  9.9999463E+03;  0.0000000E+00; -1.8433783E-02;  1.0000000E+04;  0.0000000E+00;  9.9995996E+03;0.0046399492;0.0;0.038936727;61.684502
  1.1800023E+00;  9.9999998E-03;  2.2000200E-01;2869;0.0060428549;0.0;0.0048357155;1000.588;  4.0024662E-01;444.9426;3;9.8798113;0.0;7.3945055;0;0.054755241;  9.9999297E+03;  0.0000000E+00; -1.5785627E-02;  1.0000000E+04;  0.0000000E+00;  9.9995010E+03;0.0063446187;0.0;0.048410621;73.198578
  1.1800028E+00;  9.9999998E-03;  2.4000254E-01;2870;0.0069782631;0.0;0.0060633896;1000.5828;  4.0024659E-01;441.06317;3;11.637804;0.0;9.276804;0;0.064099491;  9.9998984E+03;  0.0000000E+00; -1.1978132E-04;  1.0000000E+04;  0.0000000E+00;  9.9994307E+03;0.0093429284;0.0;0.054756559;79.234024
  1.2000016E+00;  9.9999998E-03;  1.6000070E-01;2890;0.0039541945;0.0;0.0017433189;1000.5562;  4.0022907E-01;410.09171;3;6.236609;0.0;2.7340117;0;0.032026302;  9.9999102E+03;  0.0000000E+00; -1.6336411E-02;  1.0000000E+04;  0.0000000E+00;  9.9997578E+03;0.0081686424;0.0;0.023857659;33.881985
  1.2000020E+00;  9.9999998E-03;  1.8000108E-01;2891;0.0048232879;0.0;0.0026689337;1000.5524;  4.0022916E-01;407.27905;3;7.6816664;0.0;4.1462579;0;0.03935118;  9.9999004E+03;  0.0000000E+00; -1.8644683E-02;  1.0000000E+04;  0.0000000E+00;  9.9996924E+03;0.0092164241;0.0;0.030134756;41.747337
  1.2000023E+00;  9.9999998E-03;  2.0000157E-01;2892;0.0056840959;0.0;0.003831489;1000.5475;  4.0022910E-01;403.67538;3;9.1886435;0.0;5.9215031;0;0.048721477;  9.9998828E+03;  0.0000000E+00; -1.6342383E-02;  1.0000000E+04;  0.0000000E+00;  9.9996133E+03;0.010926211;0.0;0.037795268;48.601799
  1.2000026E+00;  9.9999998E-03;  2.2000210E-01;2893;0.0064312918;0.0;0.0050400323;1000.5423;  4.0022910E-01;399.80807;3;10.590878;0.0;7.791503;0;0.058462597;  9.9998643E+03;  0.0000000E+00; -2.4848667E-03;  1.0000000E+04;  0.0000000E+00;  9.9995273E+03;0.012715054;0.0;0.045747545;54.386482
  1.2200019E+00;  9.9999998E-03;  1.6000091E-01;2913;0.004811428;0.0;0.0022515005;1000.5208;  4.0021622E-01;371.90619;3;7.6174879;0.0;3.5106564;0;0.038198777;  9.9998486E+03;  0.0000000E+00; -1.8020602E-02;  1.0000000E+04;  0.0000000E+00;  9.9997578E+03;0.01429859;0.0;0.023900185;28.090652
  1.2200022E+00;  9.9999998E-03;  1.8000129E-01;2914;0.0055764015;0.0;0.0031455813;1000.5166;  4.0021616E-01;369.01108;3;8.9454765;0.0;4.901794;0;0.046198279;  9.9998291E+03;  0.0000000E+00; -1.5815122E-02;  1.0000000E+04;  0.0000000E+00;  9.9996943E+03;0.016271347;0.0;0.029926931;31.739408
  1.2200025E+00;  9.9999998E-03;  2.0000170E-01;2915;0.0062109367;0.0;0.0041302936;1000.5123;  4.0021622E-01;365.86063;3;10.127571;0.0;6.454658;0;0.054495752;  9.9998135E+03;  0.0000000E+00; -2.4495013E-03;  1.0000000E+04;  0.0000000E+00;  9.9996240E+03;0.01782188;0.0;0.03667387;34.553612
  1.2200027E+00;  9.9999998E-03;  2.2000213E-01;2916;0.0067155818;0.0;0.0050984379;1000.508;  4.0021619E-01;362.79535;3;11.143819;0.0;7.9973059;0;0.062342506;  9.9997988E+03;  0.0000000E+00;  2.7546128E-02;  1.0000000E+04;  0.0000000E+00;  9.9995498E+03;0.018948406;0.0;0.0433941;50.082375
  1.2400023E+00;  9.9999998E-03;  1.6000111E-01;2934;0.0055401362;0.0;0.0027384069;1000.4935;  4.0020680E-01;339.51694;3;8.8559818;0.0;4.2972784;0;0.045500789;  9.9997803E+03;  0.0000000E+00; -1.2785421E-02;  1.0000000E+04;  0.0000000E+00;  9.9997520E+03;0.020990698;0.0;0.024510091;19.647375
  1.2400024E+00;  9.9999998E-03;  1.8000145E-01;2935;0.0059958263;0.0;0.0035429245;1000.4904;  4.0020674E-01;337.38458;3;9.7281179;0.0;5.5896945;0;0.051458225;  9.9997783E+03;  0.0000000E+00; -1.1463676E-04;  1.0000000E+04;  0.0000000E+00;  9.9996904E+03;0.02113534;0.0;0.030322887;21.872963
  1.2600024E+00;  9.9999998E-03;  1.6000129E-01;2952;0.0057930863;0.0;0.0031525278;1000.4754;  4.0020025E-01;313.31882;3;9.3915644;0.0;5.0187478;0;0.048548222;  9.9997646E+03;  0.0000000E+00;  6.0479678E-03;  1.0000000E+04;  0.0000000E+00;  9.9997354E+03;0.02253335;0.0;0.026014872;14.553072
