Pos.x;Pos.y;Pos.z;Idp;Vel.x;Vel.y;Vel.z;Rhop;Mass;Press;Type;Acec.x;Acec.y;Acec.z;CellOffSpring;GradVel;Qfxx;Qfxy;Qfxz;Qfyy;Qfyz;Qfzz;StrainDot.x;StrainDot.y;StrainDot.z;VonMises3D
 -2.2000000E-01;  9.9999998E-03; -3.8000000E-01;0;0.0;0.0;0.0;1000.0;  4.0000001E-01;0.0;0;0.0;0.0;0.0;0;0.0;  1.0000000E+04;  0.0000000E+00;  0.0000000E+00;  1.0000000E+04;  0.0000000E+00;  1.0000000E+04;0.0;0.0;0.0;0.0
 -2.2000000E-01;  9.9999998E-03; -3.6000001E-01;1;0.0;0.0;0.0;1000.0;  4.0000001E-01;0.0;0;0.0;0.0;0.0;0;0.0;  1.0000000E+04;  0.0000000E+00;  0.0000000E+00;  1.0000000E+04;  0.0000000E+00;  1.0000000E+04;0.0;0.0;0.0;0.0
 -2.0000000E-01;  9.9999998E-03; -4.0000001E-01;39;0.0;0.0;0.0;1000.0;  4.0000001E-01;0.0;0;0.0;0.0;0.0;0;0.0;  1.0000000E+04;  0.0000000E+00;  0.0000000E+00;  1.0000000E+04;  0.0000000E+00;  1.0000000E+04;0.0;0.0;0.0;0.0
 -2.0000000E-01;  9.9999998E-03; -3.8000000E-01;40;0.0;0.0;0.0;1000.0;  4.0000001E-01;0.0;0;0.0;0.0;0.0;0;0.0;  1.0000000E+04;  0.0000000E+00;  0.0000000E+00;  1.0000000E+04;  0.0000000E+00;  1.0000000E+04;0.0;0.0;0.0;0.0
 -2.0000000E-01;  9.9999998E-03; -3.6000001E-01;41;0.0;0.0;0.0;1000.0;  4.0000001E-01;0.0;0;0.0;0.0;0.0;0;0.0;  1.0000000E+04;  0.0000000E+00;  0.0000000E+00;  1.0000000E+04;  0.0000000E+00;  1.0000000E+04;0.0;0.0;0.0;0.0
 -1.8000001E-01;  9.9999998E-03; -4.0000001E-01;80;0.0;0.0;0.0;1000.0;  4.0000001E-01;0.0;0;0.0;0.0;0.0;0;0.0;  1.0000000E+04;  0.0000000E+00;  0.0000000E+00;  1.0000000E+04;  0.0000000E+00;  1.0000000E+04;0.0;0.0;0.0;0.0
 -1.8000001E-01;  9.9999998E-03; -3.8000000E-01;81;0.0;0.0;0.0;1000.0;  4.0000001E-01;0.0;0;0.0;0.0;0.0;0;0.0;  1.0000000E+04;  0.0000000E+00;  0.0000000E+00;  1.0000000E+04;  0.0000000E+00;  1.0000000E+04;0.0;0.0;0.0;0.0
 -1.8000001E-01;  9.9999998E-03; -3.6000001E-01;82;0.0;0.0;0.0;1000.0;  4.0000001E-01;0.0;0;0.0;0.0;0.0;0;0.0;  1.0000000E+04;  0.0000000E+00;  0.0000000E+00;  1.0000000E+04;  0.0000000E+00;  1.0000000E+04;0.0;0.0;0.0;0.0
 -1.6000000E-01;  9.9999998E-03; -4.0000001E-01;121;0.0;0.0;0.0;1000.0;  4.0000001E-01;0.0;0;0.0;0.0;0.0;0;0.0;  1.0000000E+04;  0.0000000E+00;  0.0000000E+00;  1.0000000E+04;  0.0000000E+00;  1.0000000E+04;0.0;0.0;0.0;0.0
 -1.6000000E-01;  9.9999998E-03; -3.8000000E-01;122;0.0;0.0;0.0;1000.0;  4.0000001E-01;0.0;0;0.0;0.0;0.0;0;0.0;  1.0000000E+04;  0.0000000E+00;  0.0000000E+00;  1.0000000E+04;  0.0000000E+00;  1.0000000E+04;0.0;0.0;0.0;0.0
 -1.6000000E-01;  9.9999998E-03; -3.6000001E-01;123;0.0;0.0;0.0;1000.0;  4.0000001E-01;0.0;0;0.0;0.0;0.0;0;0.0;  1.0000000E+04;  0.0000000E+00;  0.0000000E+00;  1.0000000E+04;  0.0000000E+00;  1.0000000E+04;0.0;0.0;0.0;0.0
 -1.4000000E-01;  9.9999998E-03; -4.0000001E-01;162;0.0;0.0;0.0;1000.0;  4.0000001E-01;0.0;0;0.0;0.0;0.0;0;0.0;  1.0000000E+04;  0.0000000E+00;  0.0000000E+00;  1.0000000E+04;  0.0000000E+00;  1.0000000E+04;0.0;0.0;0.0;0.0
 -1.4000000E-01;  9.9999998E-03; -3.8000000E-01;163;0.0;0.0;0.0;1000.0;  4.0000001E-01;0.0;0;0.0;0.0;0.0;0;0.0;  1.0000000E+04;  0.0000000E+00;  0.0000000E+00;  1.0000000E+04;  0.0000000E+00;  1.0000000E+04;0.0;0.0;0.0;0.0
 -1.4000000E-01;  9.9999998E-03; -3.6000001E-01;164;0.0;0.0;0.0;1000.0;  4.0000001E-01;0.0;0;0.0;0.0;0.0;0;-5.9355955e-08;  1.0000000E+04;  0.0000000E+00;  0.0000000E+00;  1.0000000E+04;  0.0000000E+00;  1.0000000E+04;-4.6895973e-08;0.0;-1.2459982e-08;7.0728274e-05
 -1.2000000E-01;  9.9999998E-03; -4.0000001E-01;203;0.0;0.0;0.0;1000.0;  4.0000001E-01;0.0;0;0.0;0.0;0.0;0;-2.8352106e-23;  1.0000000E+04;  0.0000000E+00;  0.0000000E+00;  1.0000000E+04;  0.0000000E+00;  1.0000000E+04;-2.0002381e-23;0.0;-8.3497251e-24;4.6655943e-21
 -1.2000000E-01;  9.9999998E-03; -3.8000000E-01;204;0.0;0.0;0.0;1000.0;  4.0000001E-01;0.0;0;0.0;0.0;0.0;0;-3.154671e-07;  1.0000000E+04;  0.0000000E+00;  0.0000000E+00;  1.0000000E+04;  0.0000000E+00;  1.0000000E+04;-2.2374195e-07;0.0;-9.1725148e-08;0.00052700873
 -1.2000000E-01;  9.9999998E-03; -3.6000001E-01;205;0.0;0.0;0.0;1000.0;  4.0000001E-01;0.0;0;0.0;0.0;0.0;0;-2.1319865e-06;  1.0000000E+04;  0.0000000E+00;  0.0000000E+00;  1.0000000E+04;  0.0000000E+00;  1.0000000E+04;-1.6134094e-06;0.0;-5.1857705e-07;0.0029639567
 -1.0000000E-01;  9.9999998E-03; -4.0000001E-01;244;0.0;0.0;0.0;1000.0;  4.0000001E-01;0.0;0;0.0;0.0;0.0;0;-5.8610527e-07;  1.0000000E+04;  0.0000000E+00;  0.0000000E+00;  1.0000000E+04;  0.0000000E+00;  1.0000000E+04;-3.8994017e-07;0.0;-1.9616509e-07;0.0011364296
 -1.0000000E-01;  9.9999998E-03; -3.8000000E-01;245;0.0;0.0;0.0;1000.0;  4.0000001E-01;0.0;0;0.0;0.0;0.0;0;-4.2529537e-06;  1.0000000E+04;  0.0000000E+00;  0.0000000E+00;  1.0000000E+04;  0.0000000E+00;  1.0000000E+04;-2.8616705e-06;0.0;-1.3912834e-06;0.0080534173
 -1.0000000E-01;  9.9999998E-03; -3.6000001E-01;246;0.0;0.0;0.0;1000.0;  4.0000001E-01;0.0;0;0.0;0.0;0.0;0;-1.3389995e-05;  1.0000000E+04;  0.0000000E+00;  0.0000000E+00;  1.0000000E+04;  0.0000000E+00;  1.0000000E+04;-9.7453221e-06;0.0;-3.6446725e-06;0.021025022
 -7.9999998E-02;  9.9999998E-03; -4.0000001E-01;285;0.0;0.0;0.0;1000.0;  4.0000001E-01;0.0;0;0.0;0.0;0.0;0;-4.9745208e-06;  1.0000000E+04;  0.0000000E+00;  0.0000000E+00;  1.0000000E+04;  0.0000000E+00;  1.0000000E+04;-3.1269342e-06;0.0;-1.8475865e-06;0.010780041
 -7.9999998E-02;  9.9999998E-03; -3.8000000E-01;286;0.0;0.0;0.0;1000.0;  4.0000001E-01;0.0;0;0.0;0.0;0.0;0;-1.8890958e-05;  1.0000000E+04;  0.0000000E+00;  0.0000000E+00;  1.0000000E+04;  0.0000000E+00;  1.0000000E+04;-1.2138504e-05;0.0;-6.7524547e-06;0.039436482
 -7.9999998E-02;  9.9999998E-03; -3.6000001E-01;287;0.0;0.0;0.0;1000.0;  4.0000001E-01;0.0;0;0.0;0.0;0.0;0;-4.5413704e-05;  1.0000000E+04;  0.0000000E+00;  0.0000000E+00;  1.0000000E+04;  0.0000000E+00;  1.0000000E+04;-3.1901491e-05;0.0;-1.3512215e-05;0.078673318
 -5.9999999E-02;  9.9999998E-03; -4.0000001E-01;326;0.0;0.0;0.0;1000.0;  4.0000001E-01;0.0;0;0.0;0.0;0.0;0;-1.7934117e-05;  1.0000000E+04;  0.0000000E+00;  0.0000000E+00;  1.0000000E+04;  0.0000000E+00;  1.0000000E+04;-1.068341e-05;0.0;-7.2507073e-06;0.04270475
 -5.9999999E-02;  9.9999998E-03; -3.8000000E-01;327;0.0;0.0;0.0;1000.0;  4.0000001E-01;0.0;0;0.0;0.0;0.0;0;-5.2519761e-05;  1.0000000E+04;  0.0000000E+00;  0.0000000E+00;  1.0000000E+04;  0.0000000E+00;  1.0000000E+04;-3.2219661e-05;0.0;-2.03001e-05;0.11979008
 -5.9999999E-02;  9.9999998E-03; -3.6000001E-01;328;0.0;0.0;0.0;1000.0;  4.0000001E-01;0.0;0;0.0;0.0;0.0;0;-0.00011050078;  1.0000000E+04;  0.0000000E+00;  0.0000000E+00;  1.0000000E+04;  0.0000000E+00;  1.0000000E+04;-7.4854208e-05;0.0;-3.5646568e-05;0.20989971
 -3.9999999E-02;  9.9999998E-03; -4.0000001E-01;367;0.0;0.0;0.0;1000.0;  4.0000001E-01;0.0;0;0.0;0.0;0.0;0;-4.3110751e-05;  1.0000000E+04;  0.0000000E+00;  0.0000000E+00;  1.0000000E+04;  0.0000000E+00;  1.0000000E+04;-2.4222179e-05;0.0;-1.8888572e-05;0.1125359
 -3.9999999E-02;  9.9999998E-03; -3.8000000E-01;368;0.0;0.0;0.0;1000.0;  4.0000001E-01;0.0;0;0.0;0.0;0.0;0;-0.00011075773;  1.0000000E+04;  0.0000000E+00;  0.0000000E+00;  1.0000000E+04;  0.0000000E+00;  1.0000000E+04;-6.4576314e-05;0.0;-4.6181409e-05;0.27589464
 -3.9999999E-02;  9.9999998E-03; -3.6000001E-01;369;0.0;0.0;0.0;1000.0001;  4.0000001E-01;0.098762624;0;0.0;0.0;0.0;0;-0.00021612848;  1.0000000E+04;  0.0000000E+00;  0.0000000E+00;  1.0000000E+04;  0.0000000E+00;  1.0000000E+04;-0.00014060394;0.0;-7.5524549e-05;0.45062587
 -2.0000000E-02;  9.9999998E-03; -4.0000001E-01;408;0.0;0.0;0.0;1000.0;  4.0000001E-01;0.0;0;0.0;0.0;0.0;0;-8.1039223e-05;  1.0000000E+04;  0.0000000E+00;  0.0000000E+00;  1.0000000E+04;  0.0000000E+00;  1.0000000E+04;-4.2672604e-05;0.0;-3.8366619e-05;0.23183809
 -2.0000000E-02;  9.9999998E-03; -3.8000000E-01;409;0.0;0.0;0.0;1000.0001;  4.0000001E-01;0.098762624;0;0.0;0.0;0.0;0;-0.00019389606;  1.0000000E+04;  0.0000000E+00;  0.0000000E+00;  1.0000000E+04;  0.0000000E+00;  1.0000000E+04;-0.00010692337;0.0;-8.6972686e-05;0.52739048
 -2.0000000E-02;  9.9999998E-03; -3.6000001E-01;410;0.0;0.0;0.0;1000.0002;  4.0000001E-01;0.19752525;0;0.0;0.0;0.0;0;-0.00036169309;  1.0000000E+04;  0.0000000E+00;  0.0000000E+00;  1.0000000E+04;  0.0000000E+00;  1.0000000E+04;-0.00022510163;0.0;-0.00013659148;0.82787699
  0.0000000E+00;  9.9999998E-03; -4.0000001E-01;449;0.0;0.0;0.0;1000.0001;  4.0000001E-01;0.098762624;0;0.0;0.0;0.0;0;-0.00012911241;  1.0000000E+04;  0.0000000E+00;  0.0000000E+00;  1.0000000E+04;  0.0000000E+00;  1.0000000E+04;-6.3481959e-05;0.0;-6.5630447e-05;0.40357867
  0.0000000E+00;  9.9999998E-03; -3.8000000E-01;450;0.0;0.0;0.0;1000.0002;  4.0000001E-01;0.19752525;0;0.0;0.0;0.0;0;-0.0002971724;  1.0000000E+04;  0.0000000E+00;  0.0000000E+00;  1.0000000E+04;  0.0000000E+00;  1.0000000E+04;-0.00015473447;0.0;-0.00014243792;0.8796013
  0.0000000E+00;  9.9999998E-03; -3.6000001E-01;451;0.0;0.0;0.0;1000.0004;  4.0000001E-01;0.29628786;0;0.0;0.0;0.0;0;-0.00053914846;  1.0000000E+04;  0.0000000E+00;  0.0000000E+00;  1.0000000E+04;  0.0000000E+00;  1.0000000E+04;-0.00032066659;0.0;-0.00021848186;1.3495148
  2.0000000E-02;  9.9999998E-03; -4.0000001E-01;461;0.0;0.0;0.0;1000.0001;  4.0000001E-01;0.098762624;0;0.0;0.0;0.0;0;-0.00018363704;  1.0000000E+04;  0.0000000E+00;  0.0000000E+00;  1.0000000E+04;  0.0000000E+00;  1.0000000E+04;-8.4585976e-05;0.0;-9.905106e-05;0.62240279
  2.0000000E-02;  9.9999998E-03; -3.8000000E-01;462;0.0;0.0;0.0;1000.0003;  4.0000001E-01;0.29628786;0;0.0;0.0;0.0;0;-0.00041438642;  1.0000000E+04;  0.0000000E+00;  0.0000000E+00;  1.0000000E+04;  0.0000000E+00;  1.0000000E+04;-0.0002047373;0.0;-0.00020964912;1.3238878
  2.0000000E-02;  9.9999998E-03; -3.6000001E-01;463;0.0;0.0;0.0;1000.0005;  4.0000001E-01;0.49381313;0;0.0;0.0;0.0;0;-0.00073892646;  1.0000000E+04;  0.0000000E+00;  0.0000000E+00;  1.0000000E+04;  0.0000000E+00;  1.0000000E+04;-0.00042203776;0.0;-0.00031688873;2.0029519
  3.9999999E-02;  9.9999998E-03; -4.0000001E-01;471;0.0;0.0;0.0;1000.0002;  4.0000001E-01;0.19752525;0;0.0;0.0;0.0;0;-0.00024281703;  1.0000000E+04;  0.0000000E+00;  0.0000000E+00;  1.0000000E+04;  0.0000000E+00;  1.0000000E+04;-0.00010627501;0.0;-0.00013654202;0.88091463
  3.9999999E-02;  9.9999998E-03; -3.8000000E-01;472;0.0;0.0;0.0;1000.0004;  4.0000001E-01;0.3950505;0;0.0;0.0;0.0;0;-0.00054324087;  1.0000000E+04;  0.0000000E+00;  0.0000000E+00;  1.0000000E+04;  0.0000000E+00;  1.0000000E+04;-0.00025827656;0.0;-0.00028496431;1.8488287
  3.9999999E-02;  9.9999998E-03; -3.6000001E-01;473;0.0;0.0;0.0;1000.0007;  4.0000001E-01;0.59257573;0;0.0;0.0;0.0;0;-0.00095898064;  1.0000000E+04;  0.0000000E+00;  0.0000000E+00;  1.0000000E+04;  0.0000000E+00;  1.0000000E+04;-0.00053257926;0.0;-0.00042640138;2.7711098
  5.9999999E-02;  9.9999998E-03; -4.0000001E-01;481;0.0;0.0;0.0;1000.0002;  4.0000001E-01;0.19752525;0;0.0;0.0;0.0;0;-0.00030910285;  1.0000000E+04;  0.0000000E+00;  0.0000000E+00;  1.0000000E+04;  0.0000000E+00;  1.0000000E+04;-0.00013202493;0.0;-0.00017707792;1.1786031
  5.9999999E-02;  9.9999998E-03; -3.8000000E-01;482;0.0;0.0;0.0;1000.0005;  4.0000001E-01;0.49381313;0;0.0;0.0;0.0;0;-0.00068955647;  1.0000000E+04;  0.0000000E+00;  0.0000000E+00;  1.0000000E+04;  0.0000000E+00;  1.0000000E+04;-0.00032277268;0.0;-0.00036678376;2.4566424
  5.9999999E-02;  9.9999998E-03; -3.6000001E-01;483;0.0;0.0;0.0;1000.001;  4.0000001E-01;0.79010099;0;0.0;0.0;0.0;0;-0.0012111142;  1.0000000E+04;  0.0000000E+00;  0.0000000E+00;  1.0000000E+04;  0.0000000E+00;  1.0000000E+04;-0.00066623441;0.0;-0.00054487988;3.6585279
  7.9999998E-02;  9.9999998E-03; -4.0000001E-01;491;0.0;0.0;0.0;1000.0003;  4.0000001E-01;0.29628786;0;0.0;0.0;0.0;0;-0.00039053959;  1.0000000E+04;  0.0000000E+00;  0.0000000E+00;  1.0000000E+04;  0.0000000E+00;  1.0000000E+04;-0.00016885843;0.0;-0.00022168114;1.5290802
  7.9999998E-02;  9.9999998E-03; -3.8000000E-01;492;0.0;0.0;0.0;1000.0007;  4.0000001E-01;0.59257573;0;0.0;0.0;0.0;0;-0.00087088731;  1.0000000E+04;  0.0000000E+00;  0.0000000E+00;  1.0000000E+04;  0.0000000E+00;  1.0000000E+04;-0.00041353155;0.0;-0.00045735578;3.1753848
  7.9999998E-02;  9.9999998E-03; -3.6000001E-01;493;0.0;0.0;0.0;1000.0013;  4.0000001E-01;1.0863888;0;0.0;0.0;0.0;0;-0.0015277016;  1.0000000E+04;  0.0000000E+00;  0.0000000E+00;  1.0000000E+04;  0.0000000E+00;  1.0000000E+04;-0.00085144729;0.0;-0.00067625433;4.7157521
  1.0000000E-01;  9.9999998E-03; -4.0000001E-01;501;0.0;0.0;0.0;1000.0004;  4.0000001E-01;0.3950505;0;0.0;0.0;0.0;0;-0.00050290686;  1.0000000E+04;  0.0000000E+00;  0.0000000E+00;  1.0000000E+04;  0.0000000E+00;  1.0000000E+04;-0.00022876936;0.0;-0.00027413748;2.021687
  1.0000000E-01;  9.9999998E-03; -3.8000000E-01;502;0.0;0.0;0.0;1000.001;  4.0000001E-01;0.79010099;0;0.0;0.0;0.0;0;-0.0011215347;  1.0000000E+04;  0.0000000E+00;  0.0000000E+00;  1.0000000E+04;  0.0000000E+00;  1.0000000E+04;-0.00055698375;0.0;-0.00056455092;4.0745463
  1.0000000E-01;  9.9999998E-03; -3.6000001E-01;503;0.0;0.0;0.0;1000.0016;  4.0000001E-01;1.3826767;0;0.0;0.0;0.0;0;-0.0019698965;  1.0000000E+04;  0.0000000E+00;  0.0000000E+00;  1.0000000E+04;  0.0000000E+00;  1.0000000E+04;-0.0011369048;0.0;-0.00083299162;6.0928521
  1.2000000E-01;  9.9999998E-03; -4.0000001E-01;511;0.0;0.0;0.0;1000.0006;  4.0000001E-01;0.49381313;0;0.0;0.0;0.0;0;-0.00067493599;  1.0000000E+04;  0.0000000E+00;  0.0000000E+00;  1.0000000E+04;  0.0000000E+00;  1.0000000E+04;-0.00033139085;0.0;-0.00034354514;3.5324473
  1.2000000E-01;  9.9999998E-03; -3.8000000E-01;512;0.0;0.0;0.0;1000.0014;  4.0000001E-01;1.1851515;0;0.0;0.0;0.0;0;-0.0015022649;  1.0000000E+04;  0.0000000E+00;  0.0000000E+00;  1.0000000E+04;  0.0000000E+00;  1.0000000E+04;-0.00079535018;0.0;-0.0007069147;5.5345287
  1.2000000E-01;  9.9999998E-03; -3.6000001E-01;513;0.0;0.0;0.0;1000.0023;  4.0000001E-01;1.8764899;0;0.0;0.0;0.0;0;-0.002640968;  1.0000000E+04;  0.0000000E+00;  0.0000000E+00;  1.0000000E+04;  0.0000000E+00;  1.0000000E+04;-0.0015984992;0.0;-0.0010424687;8.1597977
  1.4000000E-01;  9.9999998E-03; -4.0000001E-01;521;0.0;0.0;0.0;1000.0008;  4.0000001E-01;0.69133836;0;0.0;0.0;0.0;0;-0.00096283644;  1.0000000E+04;  0.0000000E+00;  0.0000000E+00;  1.0000000E+04;  0.0000000E+00;  1.0000000E+04;-0.00050985318;0.0;-0.00045298328;9.6795788
  1.4000000E-01;  9.9999998E-03; -3.8000000E-01;522;0.0;0.0;0.0;1000.002;  4.0000001E-01;1.580202;0;0.0;0.0;0.0;0;-0.0021190501;  1.0000000E+04;  0.0000000E+00;  0.0000000E+00;  1.0000000E+04;  0.0000000E+00;  1.0000000E+04;-0.0011944389;0.0;-0.00092461123;10.071657
  1.4000000E-01;  9.9999998E-03; -3.6000001E-01;523;0.0;0.0;0.0;1000.0034;  4.0000001E-01;2.8641162;0;0.0;0.0;0.0;0;-0.0037057563;  1.0000000E+04;  0.0000000E+00;  0.0000000E+00;  1.0000000E+04;  0.0000000E+00;  1.0000000E+04;-0.0023477231;0.0;-0.0013580332;11.594794
  1.6000000E-01;  9.9999998E-03; -4.0000001E-01;531;0.0;0.0;0.0;1000.0013;  4.0000001E-01;1.0863888;0;0.0;0.0;0.0;0;-0.0014728718;  1.0000000E+04;  0.0000000E+00;  0.0000000E+00;  1.0000000E+04;  0.0000000E+00;  1.0000000E+04;-0.00081406825;0.0;-0.00065880356;28.368349
  1.6000000E-01;  9.9999998E-03; -3.8000000E-01;532;0.0;0.0;0.0;1000.0031;  4.0000001E-01;2.5678282;0;0.0;0.0;0.0;0;-0.00312989;  1.0000000E+04;  0.0000000E+00;  0.0000000E+00;  1.0000000E+04;  0.0000000E+00;  1.0000000E+04;-0.0018326184;0.0;-0.0012972716;25.185705
  1.6000000E-01;  9.9999998E-03; -3.6000001E-01;533;0.0;0.0;0.0;1000.0051;  4.0000001E-01;4.1480303;0;0.0;0.0;0.0;0;-0.0053754365;  1.0000000E+04;  0.0000000E+00;  0.0000000E+00;  1.0000000E+04;  0.0000000E+00;  1.0000000E+04;-0.0035013771;0.0;-0.0018740592;16.998583
  1.8000001E-01;  9.9999998E-03; -4.0000001E-01;541;0.0;0.0;0.0;1000.0021;  4.0000001E-01;1.7777272;0;0.0;0.0;0.0;0;-0.00237802;  1.0000000E+04;  0.0000000E+00;  0.0000000E+00;  1.0000000E+04;  0.0000000E+00;  1.0000000E+04;-0.0012876841;0.0;-0.001090336;73.650391
  1.8000001E-01;  9.9999998E-03; -3.8000000E-01;542;0.0;0.0;0.0;1000.0045;  4.0000001E-01;3.654217;0;0.0;0.0;0.0;0;-0.0046986109;  1.0000000E+04;  0.0000000E+00;  0.0000000E+00;  1.0000000E+04;  0.0000000E+00;  1.0000000E+04;-0.0027265153;0.0;-0.0019720953;61.647465
  1.8000001E-01;  9.9999998E-03; -3.6000001E-01;543;0.0;0.0;0.0;1000.0074;  4.0000001E-01;6.1232829;0;0.0;0.0;0.0;0;-0.0077960272;  1.0000000E+04;  0.0000000E+00;  0.0000000E+00;  1.0000000E+04;  0.0000000E+00;  1.0000000E+04;-0.0050514382;0.0;-0.002744589;24.119339
  2.0000000E-01;  9.9999998E-03; -3.8000000E-01;551;0.0;0.0;0.0;1000.0068;  4.0000001E-01;5.6294694;0;0.0;0.0;0.0;0;-0.0069639985;  1.0000000E+04;  0.0000000E+00;  0.0000000E+00;  1.0000000E+04;  0.0000000E+00;  1.0000000E+04;-0.0037748963;0.0;-0.0031891023;125.87422
  2.0000000E-01;  9.9999998E-03; -3.6000001E-01;552;0.0;0.0;0.0;1000.0107;  4.0000001E-01;8.8886366;0;0.0;0.0;0.0;0;-0.010993222;  1.0000000E+04;  0.0000000E+00;  0.0000000E+00;  1.0000000E+04;  0.0000000E+00;  1.0000000E+04;-0.0067977696;0.0;-0.0041954527;35.220192
 -2.2000000E-01;  9.9999998E-03; -3.4000000E-01;2;0.0;0.0;0.0;1000.0;  4.0000001E-01;0.0;0;0.0;0.0;0.0;0;0.0;  1.0000000E+04;  0.0000000E+00;  0.0000000E+00;  1.0000000E+04;  0.0000000E+00;  1.0000000E+04;0.0;0.0;0.0;0.0
 -2.2000000E-01;  9.9999998E-03; -3.1999999E-01;3;0.0;0.0;0.0;1000.0;  4.0000001E-01;0.0;0;0.0;0.0;0.0;0;0.0;  1.0000000E+04;  0.0000000E+00;  0.0000000E+00;  1.0000000E+04;  0.0000000E+00;  1.0000000E+04;0.0;0.0;0.0;0.0
 -2.2000000E-01;  9.9999998E-03; -3.0000001E-01;4;0.0;0.0;0.0;1000.0;  4.0000001E-01;0.0;0;0.0;0.0;0.0;0;0.0;  1.0000000E+04;  0.0000000E+00;  0.0000000E+00;  1.0000000E+04;  0.0000000E+00;  1.0000000E+04;0.0;0.0;0.0;0.0
 -2.2000000E-01;  9.9999998E-03; -2.8000000E-01;5;0.0;0.0;0.0;1000.0;  4.0000001E-01;0.0;0;0.0;0.0;0.0;0;0.0;  1.0000000E+04;  0.0000000E+00;  0.0000000E+00;  1.0000000E+04;  0.0000000E+00;  1.0000000E+04;0.0;0.0;0.0;0.0
 -2.2000000E-01;  9.9999998E-03; -2.5999999E-01;6;0.0;0.0;0.0;1000.0;  4.0000001E-01;0.0;0;0.0;0.0;0.0;0;0.0;  1.0000000E+04;  0.0000000E+00;  0.0000000E+00;  1.0000000E+04;  0.0000000E+00;  1.0000000E+04;0.0;0.0;0.0;0.0
 -2.2000000E-01;  9.9999998E-03; -2.3999999E-01;7;0.0;0.0;0.0;1000.0;  4.0000001E-01;0.0;0;0.0;0.0;0.0;0;0.0;  1.0000000E+04;  0.0000000E+00;  0.0000000E+00;  1.0000000E+04;  0.0000000E+00;  1.0000000E+04;0.0;0.0;0.0;0.0
 -2.2000000E-01;  9.9999998E-03; -2.2000000E-01;8;0.0;0.0;0.0;1000.0;  4.0000001E-01;0.0;0;0.0;0.0;0.0;0;0.0;  1.0000000E+04;  0.0000000E+00;  0.0000000E+00;  1.0000000E+04;  0.0000000E+00;  1.0000000E+04;0.0;0.0;0.0;0.0
 -2.2000000E-01;  9.9999998E-03; -2.0000000E-01;9;0.0;0.0;0.0;1000.0;  4.0000001E-01;0.0;0;0.0;0.0;0.0;0;0.0;  1.0000000E+04;  0.0000000E+00;  0.0000000E+00;  1.0000000E+04;  0.0000000E+00;  1.0000000E+04;0.0;0.0;0.0;0.0
 -2.0000000E-01;  9.9999998E-03; -3.4000000E-01;42;0.0;0.0;0.0;1000.0;  4.0000001E-01;0.0;0;0.0;0.0;0.0;0;0.0;  1.0000000E+04;  0.0000000E+00;  0.0000000E+00;  1.0000000E+04;  0.0000000E+00;  1.0000000E+04;0.0;0.0;0.0;0.0
 -2.0000000E-01;  9.9999998E-03; -3.1999999E-01;43;0.0;0.0;0.0;1000.0;  4.0000001E-01;0.0;0;0.0;0.0;0.0;0;0.0;  1.0000000E+04;  0.0000000E+00;  0.0000000E+00;  1.0000000E+04;  0.0000000E+00;  1.0000000E+04;0.0;0.0;0.0;0.0
 -2.0000000E-01;  9.9999998E-03; -3.0000001E-01;44;0.0;0.0;0.0;1000.0;  4.0000001E-01;0.0;0;0.0;0.0;0.0;0;0.0;  1.0000000E+04;  0.0000000E+00;  0.0000000E+00;  1.0000000E+04;  0.0000000E+00;  1.0000000E+04;0.0;0.0;0.0;0.0
 -2.0000000E-01;  9.9999998E-03; -2.8000000E-01;45;0.0;0.0;0.0;1000.0;  4.0000001E-01;0.0;0;0.0;0.0;0.0;0;0.0;  1.0000000E+04;  0.0000000E+00;  0.0000000E+00;  1.0000000E+04;  0.0000000E+00;  1.0000000E+04;0.0;0.0;0.0;0.0
 -2.0000000E-01;  9.9999998E-03; -2.5999999E-01;46;0.0;0.0;0.0;1000.0;  4.0000001E-01;0.0;0;0.0;0.0;0.0;0;0.0;  1.0000000E+04;  0.0000000E+00;  0.0000000E+00;  1.0000000E+04;  0.0000000E+00;  1.0000000E+04;0.0;0.0;0.0;0.0
 -2.0000000E-01;  9.9999998E-03; -2.3999999E-01;47;0.0;0.0;0.0;1000.0;  4.0000001E-01;0.0;0;0.0;0.0;0.0;0;0.0;  1.0000000E+04;  0.0000000E+00;  0.0000000E+00;  1.0000000E+04;  0.0000000E+00;  1.0000000E+04;0.0;0.0;0.0;0.0
 -2.0000000E-01;  9.9999998E-03; -2.2000000E-01;48;0.0;0.0;0.0;1000.0;  4.0000001E-01;0.0;0;0.0;0.0;0.0;0;0.0;  1.0000000E+04;  0.0000000E+00;  0.0000000E+00;  1.0000000E+04;  0.0000000E+00;  1.0000000E+04;0.0;0.0;0.0;0.0
 -2.0000000E-01;  9.9999998E-03; -2.0000000E-01;49;0.0;0.0;0.0;1000.0;  4.0000001E-01;0.0;0;0.0;0.0;0.0;0;0.0;  1.0000000E+04;  0.0000000E+00;  0.0000000E+00;  1.0000000E+04;  0.0000000E+00;  1.0000000E+04;0.0;0.0;0.0;0.0
 -1.8000001E-01;  9.9999998E-03; -3.4000000E-01;83;0.0;0.0;0.0;1000.0;  4.0000001E-01;0.0;0;0.0;0.0;0.0;0;0.0;  1.0000000E+04;  0.0000000E+00;  0.0000000E+00;  1.0000000E+04;  0.0000000E+00;  1.0000000E+04;0.0;0.0;0.0;0.0
 -1.8000001E-01;  9.9999998E-03; -3.1999999E-01;84;0.0;0.0;0.0;1000.0;  4.0000001E-01;0.0;0;0.0;0.0;0.0;0;0.0;  1.0000000E+04;  0.0000000E+00;  0.0000000E+00;  1.0000000E+04;  0.0000000E+00;  1.0000000E+04;0.0;0.0;0.0;0.0
 -1.8000001E-01;  9.9999998E-03; -3.0000001E-01;85;0.0;0.0;0.0;1000.0;  4.0000001E-01;0.0;0;0.0;0.0;0.0;0;0.0;  1.0000000E+04;  0.0000000E+00;  0.0000000E+00;  1.0000000E+04;  0.0000000E+00;  1.0000000E+04;0.0;0.0;0.0;0.0
 -1.8000001E-01;  9.9999998E-03; -2.8000000E-01;86;0.0;0.0;0.0;1000.0;  4.0000001E-01;0.0;0;0.0;0.0;0.0;0;0.0;  1.0000000E+04;  0.0000000E+00;  0.0000000E+00;  1.0000000E+04;  0.0000000E+00;  1.0000000E+04;0.0;0.0;0.0;0.0
 -1.8000001E-01;  9.9999998E-03; -2.5999999E-01;87;0.0;0.0;0.0;1000.0;  4.0000001E-01;0.0;0;0.0;0.0;0.0;0;0.0;  1.0000000E+04;  0.0000000E+00;  0.0000000E+00;  1.0000000E+04;  0.0000000E+00;  1.0000000E+04;0.0;0.0;0.0;0.0
 -1.8000001E-01;  9.9999998E-03; -2.3999999E-01;88;0.0;0.0;0.0;1000.0;  4.0000001E-01;0.0;0;0.0;0.0;0.0;0;0.0;  1.0000000E+04;  0.0000000E+00;  0.0000000E+00;  1.0000000E+04;  0.0000000E+00;  1.0000000E+04;0.0;0.0;0.0;0.0
 -1.8000001E-01;  9.9999998E-03; -2.2000000E-01;89;0.0;0.0;0.0;1000.0;  4.0000001E-01;0.0;0;0.0;0.0;0.0;0;0.0;  1.0000000E+04;  0.0000000E+00;  0.0000000E+00;  1.0000000E+04;  0.0000000E+00;  1.0000000E+04;0.0;0.0;0.0;0.0
 -1.8000001E-01;  9.9999998E-03; -2.0000000E-01;90;0.0;0.0;0.0;1000.0;  4.0000001E-01;0.0;0;0.0;0.0;0.0;0;0.0;  1.0000000E+04;  0.0000000E+00;  0.0000000E+00;  1.0000000E+04;  0.0000000E+00;  1.0000000E+04;0.0;0.0;0.0;0.0
 -1.6000000E-01;  9.9999998E-03; -3.4000000E-01;124;0.0;0.0;0.0;1000.0;  4.0000001E-01;0.0;0;0.0;0.0;0.0;0;0.0;  1.0000000E+04;  0.0000000E+00;  0.0000000E+00;  1.0000000E+04;  0.0000000E+00;  1.0000000E+04;0.0;0.0;0.0;0.0
 -1.6000000E-01;  9.9999998E-03; -3.1999999E-01;125;0.0;0.0;0.0;1000.0;  4.0000001E-01;0.0;0;0.0;0.0;0.0;0;-1.0638787e-08;  1.0000000E+04;  0.0000000E+00;  0.0000000E+00;  1.0000000E+04;  0.0000000E+00;  1.0000000E+04;-9.7942037e-09;0.0;-8.4458307e-10;4.4916405e-06
 -1.6000000E-01;  9.9999998E-03; -3.0000001E-01;126;0.0;0.0;0.0;1000.0;  4.0000001E-01;0.0;0;0.0;0.0;0.0;0;-6.7569786e-08;  1.0000000E+04;  0.0000000E+00;  0.0000000E+00;  1.0000000E+04;  0.0000000E+00;  1.0000000E+04;-6.4716417e-08;0.0;-2.8533722e-09;1.398016e-05
 -1.6000000E-01;  9.9999998E-03; -2.8000000E-01;127;0.0;0.0;0.0;1000.0;  4.0000001E-01;0.0;0;0.0;0.0;0.0;0;-1.5914163e-07;  1.0000000E+04;  0.0000000E+00;  0.0000000E+00;  1.0000000E+04;  0.0000000E+00;  1.0000000E+04;-1.5656418e-07;0.0;-2.5774534e-09;7.9491747e-06
 -1.6000000E-01;  9.9999998E-03; -2.5999999E-01;128;0.0;0.0;0.0;1000.0;  4.0000001E-01;0.0;0;0.0;0.0;0.0;0;-2.3641323e-07;  1.0000000E+04;  0.0000000E+00;  0.0000000E+00;  1.0000000E+04;  0.0000000E+00;  1.0000000E+04;-2.3611959e-07;0.0;-2.9364206e-10;9.969147e-06
 -1.6000000E-01;  9.9999998E-03; -2.3999999E-01;129;0.0;0.0;0.0;1000.0;  4.0000001E-01;0.0;0;0.0;0.0;0.0;0;-2.7812837e-07;  1.0000000E+04;  0.0000000E+00;  0.0000000E+00;  1.0000000E+04;  0.0000000E+00;  1.0000000E+04;-2.7877792e-07;0.0;6.4955308e-10;1.7516813e-05
 -1.6000000E-01;  9.9999998E-03; -2.2000000E-01;130;0.0;0.0;0.0;1000.0;  4.0000001E-01;0.0;0;0.0;0.0;0.0;0;-3.0647928e-07;  1.0000000E+04;  0.0000000E+00;  0.0000000E+00;  1.0000000E+04;  0.0000000E+00;  1.0000000E+04;-3.0724217e-07;0.0;7.628948e-10;1.9583958e-05
 -1.6000000E-01;  9.9999998E-03; -2.0000000E-01;131;0.0;0.0;0.0;1000.0;  4.0000001E-01;0.0;0;0.0;0.0;0.0;0;-3.2832114e-07;  1.0000000E+04;  0.0000000E+00;  0.0000000E+00;  1.0000000E+04;  0.0000000E+00;  1.0000000E+04;-3.2910668e-07;0.0;7.8555584e-10;2.0851912e-05
 -1.4000000E-01;  9.9999998E-03; -3.4000000E-01;165;0.0;0.0;0.0;1000.0;  4.0000001E-01;0.0;0;0.0;0.0;0.0;0;-5.1114262e-07;  1.0000000E+04;  0.0000000E+00;  0.0000000E+00;  1.0000000E+04;  0.0000000E+00;  1.0000000E+04;-4.3221189e-07;0.0;-7.8930697e-08;0.00044141908
 -1.4000000E-01;  9.9999998E-03; -3.1999999E-01;166;0.0;0.0;0.0;1000.0;  4.0000001E-01;0.0;0;0.0;0.0;0.0;0;-1.6581266e-06;  1.0000000E+04;  0.0000000E+00;  0.0000000E+00;  1.0000000E+04;  0.0000000E+00;  1.0000000E+04;-1.4872816e-06;0.0;-1.7084507e-07;0.00093737664
 -1.4000000E-01;  9.9999998E-03; -3.0000001E-01;167;0.0;0.0;0.0;1000.0;  4.0000001E-01;0.0;0;0.0;0.0;0.0;0;-3.5208959e-06;  1.0000000E+04;  0.0000000E+00;  0.0000000E+00;  1.0000000E+04;  0.0000000E+00;  1.0000000E+04;-3.2996427e-06;0.0;-2.2125323e-07;0.0011422208
 -1.4000000E-01;  9.9999998E-03; -2.8000000E-01;168;0.0;0.0;0.0;1000.0;  4.0000001E-01;0.0;0;0.0;0.0;0.0;0;-5.7990874e-06;  1.0000000E+04;  0.0000000E+00;  0.0000000E+00;  1.0000000E+04;  0.0000000E+00;  1.0000000E+04;-5.6074355e-06;0.0;-1.9165208e-07;0.00084934972
 -1.4000000E-01;  9.9999998E-03; -2.5999999E-01;169;0.0;0.0;0.0;1000.0;  4.0000001E-01;0.0;0;0.0;0.0;0.0;0;-8.0206446e-06;  1.0000000E+04;  0.0000000E+00;  0.0000000E+00;  1.0000000E+04;  0.0000000E+00;  1.0000000E+04;-7.9264837e-06;0.0;-9.4160896e-08;0.00016896661
 -1.4000000E-01;  9.9999998E-03; -2.3999999E-01;170;0.0;0.0;0.0;1000.0;  4.0000001E-01;0.0;0;0.0;0.0;0.0;0;-9.8105857e-06;  1.0000000E+04;  0.0000000E+00;  0.0000000E+00;  1.0000000E+04;  0.0000000E+00;  1.0000000E+04;-9.8272067e-06;0.0;1.6621049e-08;0.00056622503
 -1.4000000E-01;  9.9999998E-03; -2.2000000E-01;171;0.0;0.0;0.0;1000.0;  4.0000001E-01;0.0;0;0.0;0.0;0.0;0;-1.105918e-05;  1.0000000E+04;  0.0000000E+00;  0.0000000E+00;  1.0000000E+04;  0.0000000E+00;  1.0000000E+04;-1.114054e-05;0.0;8.1359424e-08;0.0010067602
 -1.4000000E-01;  9.9999998E-03; -2.0000000E-01;172;0.0;0.0;0.0;1000.0;  4.0000001E-01;0.0;0;0.0;0.0;0.0;0;-1.1906589e-05;  1.0000000E+04;  0.0000000E+00;  0.0000000E+00;  1.0000000E+04;  0.0000000E+00;  1.0000000E+04;-1.2000538e-05;0.0;9.394936e-08;0.0011251239
 -1.2000000E-01;  9.9999998E-03; -3.4000000E-01;206;0.0;0.0;0.0;1000.0;  4.0000001E-01;0.0;0;0.0;0.0;0.0;0;-6.3721764e-06;  1.0000000E+04;  0.0000000E+00;  0.0000000E+00;  1.0000000E+04;  0.0000000E+00;  1.0000000E+04;-5.2321775e-06;0.0;-1.1399991e-06;0.0064600273
 -1.2000000E-01;  9.9999998E-03; -3.1999999E-01;207;0.0;0.0;0.0;1000.0;  4.0000001E-01;0.0;0;0.0;0.0;0.0;0;-1.3451479e-05;  1.0000000E+04;  0.0000000E+00;  0.0000000E+00;  1.0000000E+04;  0.0000000E+00;  1.0000000E+04;-1.1828565e-05;0.0;-1.6229142e-06;0.0089791212
 -1.2000000E-01;  9.9999998E-03; -3.0000001E-01;208;0.0;0.0;0.0;1000.0;  4.0000001E-01;0.0;0;0.0;0.0;0.0;0;-2.3077611e-05;  1.0000000E+04;  0.0000000E+00;  0.0000000E+00;  1.0000000E+04;  0.0000000E+00;  1.0000000E+04;-2.1340455e-05;0.0;-1.737156e-06;0.0091677681
 -1.2000000E-01;  9.9999998E-03; -2.8000000E-01;209;0.0;0.0;0.0;1000.0;  4.0000001E-01;0.0;0;0.0;0.0;0.0;0;-3.4075874e-05;  1.0000000E+04;  0.0000000E+00;  0.0000000E+00;  1.0000000E+04;  0.0000000E+00;  1.0000000E+04;-3.2663978e-05;0.0;-1.4118954e-06;0.0067190393
 -1.2000000E-01;  9.9999998E-03; -2.5999999E-01;210;0.0;0.0;0.0;1000.0;  4.0000001E-01;0.0;0;0.0;0.0;0.0;0;-4.4774228e-05;  1.0000000E+04;  0.0000000E+00;  0.0000000E+00;  1.0000000E+04;  0.0000000E+00;  1.0000000E+04;-4.4027522e-05;0.0;-7.4670538e-07;0.0023024816
 -1.2000000E-01;  9.9999998E-03; -2.3999999E-01;211;0.0;0.0;0.0;1000.0;  4.0000001E-01;0.0;0;0.0;0.0;0.0;0;-5.3841573e-05;  1.0000000E+04;  0.0000000E+00;  0.0000000E+00;  1.0000000E+04;  0.0000000E+00;  1.0000000E+04;-5.3845353e-05;0.0;3.7809826e-09;0.0025336591
 -1.2000000E-01;  9.9999998E-03; -2.2000000E-01;212;0.0;0.0;0.0;1000.0;  4.0000001E-01;0.0;0;0.0;0.0;0.0;0;-6.0805014e-05;  1.0000000E+04;  0.0000000E+00;  0.0000000E+00;  1.0000000E+04;  0.0000000E+00;  1.0000000E+04;-6.1371611e-05;0.0;5.6659599e-07;0.0061756107
 -1.2000000E-01;  9.9999998E-03; -2.0000000E-01;213;0.0;0.0;0.0;1000.0;  4.0000001E-01;0.0;0;0.0;0.0;0.0;0;-6.5869695e-05;  1.0000000E+04;  0.0000000E+00;  0.0000000E+00;  1.0000000E+04;  0.0000000E+00;  1.0000000E+04;-6.6701832e-05;0.0;8.3213553e-07;0.00800482
 -1.0000000E-01;  9.9999998E-03; -3.4000000E-01;247;0.0;0.0;0.0;1000.0;  4.0000001E-01;0.0;0;0.0;0.0;0.0;0;-2.924125e-05;  1.0000000E+04;  0.0000000E+00;  0.0000000E+00;  1.0000000E+04;  0.0000000E+00;  1.0000000E+04;-2.3367818e-05;0.0;-5.8734308e-06;0.033535663
 -1.0000000E-01;  9.9999998E-03; -3.1999999E-01;248;0.0;0.0;0.0;1000.0;  4.0000001E-01;0.0;0;0.0;0.0;0.0;0;-5.2383042e-05;  1.0000000E+04;  0.0000000E+00;  0.0000000E+00;  1.0000000E+04;  0.0000000E+00;  1.0000000E+04;-4.5235432e-05;0.0;-7.1476111e-06;0.039997168
 -1.0000000E-01;  9.9999998E-03; -3.0000001E-01;249;0.0;0.0;0.0;1000.0;  4.0000001E-01;0.0;0;0.0;0.0;0.0;0;-8.1895807e-05;  1.0000000E+04;  0.0000000E+00;  0.0000000E+00;  1.0000000E+04;  0.0000000E+00;  1.0000000E+04;-7.4850257e-05;0.0;-7.045548e-06;0.03798832
 -1.0000000E-01;  9.9999998E-03; -2.8000000E-01;250;0.0;0.0;0.0;1000.0;  4.0000001E-01;0.0;0;0.0;0.0;0.0;0;-0.00011462416;  1.0000000E+04;  0.0000000E+00;  0.0000000E+00;  1.0000000E+04;  0.0000000E+00;  1.0000000E+04;-0.00010911444;0.0;-5.5097194e-06;0.02735272
 -1.0000000E-01;  9.9999998E-03; -2.5999999E-01;251;0.0;0.0;0.0;1000.0001;  4.0000001E-01;0.098762624;0;0.0;0.0;0.0;0;-0.00014619506;  1.0000000E+04;  0.0000000E+00;  0.0000000E+00;  1.0000000E+04;  0.0000000E+00;  1.0000000E+04;-0.00014329673;0.0;-2.8983322e-06;0.010439742
 -1.0000000E-01;  9.9999998E-03; -2.3999999E-01;252;0.0;0.0;0.0;1000.0001;  4.0000001E-01;0.098762624;0;0.0;0.0;0.0;0;-0.00017328864;  1.0000000E+04;  0.0000000E+00;  0.0000000E+00;  1.0000000E+04;  0.0000000E+00;  1.0000000E+04;-0.00017326322;0.0;-2.542782e-08;0.0077843149
 -1.0000000E-01;  9.9999998E-03; -2.2000000E-01;253;0.0;0.0;0.0;1000.0001;  4.0000001E-01;0.098762624;0;0.0;0.0;0.0;0;-0.00019475512;  1.0000000E+04;  0.0000000E+00;  0.0000000E+00;  1.0000000E+04;  0.0000000E+00;  1.0000000E+04;-0.00019697957;0.0;2.2244465e-06;0.022087159
 -1.0000000E-01;  9.9999998E-03; -2.0000000E-01;254;0.0;0.0;0.0;1000.0001;  4.0000001E-01;0.098762624;0;0.0;0.0;0.0;0;-0.00021099451;  1.0000000E+04;  0.0000000E+00;  0.0000000E+00;  1.0000000E+04;  0.0000000E+00;  1.0000000E+04;-0.00021445217;0.0;3.4576603e-06;0.030231783
 -7.9999998E-02;  9.9999998E-03; -3.4000000E-01;288;0.0;0.0;0.0;1000.0;  4.0000001E-01;0.0;0;0.0;0.0;0.0;0;-8.604984e-05;  1.0000000E+04;  0.0000000E+00;  0.0000000E+00;  1.0000000E+04;  0.0000000E+00;  1.0000000E+04;-6.7065244e-05;0.0;-1.89846e-05;0.10957129
 -7.9999998E-02;  9.9999998E-03; -3.1999999E-01;289;0.0;0.0;0.0;1000.0001;  4.0000001E-01;0.098762624;0;0.0;0.0;0.0;0;-0.00014194097;  1.0000000E+04;  0.0000000E+00;  0.0000000E+00;  1.0000000E+04;  0.0000000E+00;  1.0000000E+04;-0.00012053255;0.0;-2.1408412e-05;0.12147862
 -7.9999998E-02;  9.9999998E-03; -3.0000001E-01;290;0.0;0.0;0.0;1000.0001;  4.0000001E-01;0.098762624;0;0.0;0.0;0.0;0;-0.00021103349;  1.0000000E+04;  0.0000000E+00;  0.0000000E+00;  1.0000000E+04;  0.0000000E+00;  1.0000000E+04;-0.00019082872;0.0;-2.0204763e-05;0.1110482
 -7.9999998E-02;  9.9999998E-03; -2.8000000E-01;291;0.0;0.0;0.0;1000.0002;  4.0000001E-01;0.19752525;0;0.0;0.0;0.0;0;-0.00028624927;  1.0000000E+04;  0.0000000E+00;  0.0000000E+00;  1.0000000E+04;  0.0000000E+00;  1.0000000E+04;-0.00027084019;0.0;-1.5409087e-05;0.078918144
 -7.9999998E-02;  9.9999998E-03; -2.5999999E-01;292;0.0;0.0;0.0;1000.0002;  4.0000001E-01;0.19752525;0;0.0;0.0;0.0;0;-0.00035815351;  1.0000000E+04;  0.0000000E+00;  0.0000000E+00;  1.0000000E+04;  0.0000000E+00;  1.0000000E+04;-0.00035018765;0.0;-7.9658766e-06;0.031258721
 -7.9999998E-02;  9.9999998E-03; -2.3999999E-01;293;0.0;0.0;0.0;1000.0003;  4.0000001E-01;0.29628786;0;0.0;0.0;0.0;0;-0.00041990014;  1.0000000E+04;  0.0000000E+00;  0.0000000E+00;  1.0000000E+04;  0.0000000E+00;  1.0000000E+04;-0.00041997072;0.0;7.0591021e-08;0.01937772
 -7.9999998E-02;  9.9999998E-03; -2.2000000E-01;294;0.0;0.0;0.0;1000.0003;  4.0000001E-01;0.29628786;0;0.0;0.0;0.0;0;-0.00046937377;  1.0000000E+04;  0.0000000E+00;  0.0000000E+00;  1.0000000E+04;  0.0000000E+00;  1.0000000E+04;-0.00047582798;0.0;6.4541996e-06;0.059654273
 -7.9999998E-02;  9.9999998E-03; -2.0000000E-01;295;0.0;0.0;0.0;1000.0004;  4.0000001E-01;0.29628786;0;0.0;0.0;0.0;0;-0.00050750584;  1.0000000E+04;  0.0000000E+00;  0.0000000E+00;  1.0000000E+04;  0.0000000E+00;  1.0000000E+04;-0.00051763415;0.0;1.0128313e-05;0.083527148
 -5.9999999E-02;  9.9999998E-03; -3.4000000E-01;329;0.0;0.0;0.0;1000.0001;  4.0000001E-01;0.098762624;0;0.0;0.0;0.0;0;-0.00019365366;  1.0000000E+04;  0.0000000E+00;  0.0000000E+00;  1.0000000E+04;  0.0000000E+00;  1.0000000E+04;-0.00014703105;0.0;-4.6622601e-05;0.27250555
 -5.9999999E-02;  9.9999998E-03; -3.1999999E-01;330;0.0;0.0;0.0;1000.0002;  4.0000001E-01;0.19752525;0;0.0;0.0;0.0;0;-0.00030432086;  1.0000000E+04;  0.0000000E+00;  0.0000000E+00;  1.0000000E+04;  0.0000000E+00;  1.0000000E+04;-0.00025387938;0.0;-5.0441475e-05;0.29048276
 -5.9999999E-02;  9.9999998E-03; -3.0000001E-01;331;0.0;0.0;0.0;1000.0003;  4.0000001E-01;0.29628786;0;0.0;0.0;0.0;0;-0.00043858361;  1.0000000E+04;  0.0000000E+00;  0.0000000E+00;  1.0000000E+04;  0.0000000E+00;  1.0000000E+04;-0.00039218293;0.0;-4.6400663e-05;0.25983986
 -5.9999999E-02;  9.9999998E-03; -2.8000000E-01;332;0.0;0.0;0.0;1000.0004;  4.0000001E-01;0.3950505;0;0.0;0.0;0.0;0;-0.00058274099;  1.0000000E+04;  0.0000000E+00;  0.0000000E+00;  1.0000000E+04;  0.0000000E+00;  1.0000000E+04;-0.00054802117;0.0;-3.4719829e-05;0.18279704
 -5.9999999E-02;  9.9999998E-03; -2.5999999E-01;333;0.0;0.0;0.0;1000.0005;  4.0000001E-01;0.3950505;0;0.0;0.0;0.0;0;-0.00071896985;  1.0000000E+04;  0.0000000E+00;  0.0000000E+00;  1.0000000E+04;  0.0000000E+00;  1.0000000E+04;-0.00070144655;0.0;-1.7523294e-05;0.073192462
 -5.9999999E-02;  9.9999998E-03; -2.3999999E-01;334;0.0;0.0;0.0;1000.0007;  4.0000001E-01;0.59257573;0;0.0;0.0;0.0;0;-0.00083521695;  1.0000000E+04;  0.0000000E+00;  0.0000000E+00;  1.0000000E+04;  0.0000000E+00;  1.0000000E+04;-0.00083592243;0.0;7.0545366e-07;0.041488186
 -5.9999999E-02;  9.9999998E-03; -2.2000000E-01;335;0.0;0.0;0.0;1000.0007;  4.0000001E-01;0.59257573;0;0.0;0.0;0.0;0;-0.00092854915;  1.0000000E+04;  0.0000000E+00;  0.0000000E+00;  1.0000000E+04;  0.0000000E+00;  1.0000000E+04;-0.00094374391;0.0;1.5194788e-05;0.13274425
 -5.9999999E-02;  9.9999998E-03; -2.0000000E-01;336;0.0;0.0;0.0;1000.0007;  4.0000001E-01;0.59257573;0;0.0;0.0;0.0;0;-0.0010011384;  1.0000000E+04;  0.0000000E+00;  0.0000000E+00;  1.0000000E+04;  0.0000000E+00;  1.0000000E+04;-0.0010248412;0.0;2.3702873e-05;0.18766171
 -3.9999999E-02;  9.9999998E-03; -3.4000000E-01;370;0.0;0.0;0.0;1000.0002;  4.0000001E-01;0.19752525;0;0.0;0.0;0.0;0;-0.00036112772;  1.0000000E+04;  0.0000000E+00;  0.0000000E+00;  1.0000000E+04;  0.0000000E+00;  1.0000000E+04;-0.00026618695;0.0;-9.4940769e-05;0.56295812
 -3.9999999E-02;  9.9999998E-03; -3.1999999E-01;371;0.0;0.0;0.0;1000.0004;  4.0000001E-01;0.29628786;0;0.0;0.0;0.0;0;-0.0005500539;  1.0000000E+04;  0.0000000E+00;  0.0000000E+00;  1.0000000E+04;  0.0000000E+00;  1.0000000E+04;-0.00044969024;0.0;-0.00010036366;0.58743238
 -3.9999999E-02;  9.9999998E-03; -3.0000001E-01;372;0.0;0.0;0.0;1000.0005;  4.0000001E-01;0.49381313;0;0.0;0.0;0.0;0;-0.00077611796;  1.0000000E+04;  0.0000000E+00;  0.0000000E+00;  1.0000000E+04;  0.0000000E+00;  1.0000000E+04;-0.00068527483;0.0;-9.0843103e-05;0.51878393
 -3.9999999E-02;  9.9999998E-03; -2.8000000E-01;373;0.0;0.0;0.0;1000.0007;  4.0000001E-01;0.59257573;0;0.0;0.0;0.0;0;-0.0010153379;  1.0000000E+04;  0.0000000E+00;  0.0000000E+00;  1.0000000E+04;  0.0000000E+00;  1.0000000E+04;-0.00094855722;0.0;-6.6780703e-05;0.36120999
 -3.9999999E-02;  9.9999998E-03; -2.5999999E-01;374;0.0;0.0;0.0;1000.001;  4.0000001E-01;0.79010099;0;0.0;0.0;0.0;0;-0.0012377674;  1.0000000E+04;  0.0000000E+00;  0.0000000E+00;  1.0000000E+04;  0.0000000E+00;  1.0000000E+04;-0.0012051607;0.0;-3.2606666e-05;0.1434762
 -3.9999999E-02;  9.9999998E-03; -2.3999999E-01;375;0.0;0.0;0.0;1000.001;  4.0000001E-01;0.88886362;0;0.0;0.0;0.0;0;-0.0014254741;  1.0000000E+04;  0.0000000E+00;  0.0000000E+00;  1.0000000E+04;  0.0000000E+00;  1.0000000E+04;-0.0014282645;0.0;2.790501e-06;0.07972303
 -3.9999999E-02;  9.9999998E-03; -2.2000000E-01;376;0.0;0.0;0.0;1000.0012;  4.0000001E-01;0.98762625;0;0.0;0.0;0.0;0;-0.0015758093;  1.0000000E+04;  0.0000000E+00;  0.0000000E+00;  1.0000000E+04;  0.0000000E+00;  1.0000000E+04;-0.0016064596;0.0;3.0650262e-05;0.25564331
 -3.9999999E-02;  9.9999998E-03; -2.0000000E-01;377;0.0;0.0;0.0;1000.0012;  4.0000001E-01;0.98762625;0;0.0;0.0;0.0;0;-0.0016932082;  1.0000000E+04;  0.0000000E+00;  0.0000000E+00;  1.0000000E+04;  0.0000000E+00;  1.0000000E+04;-0.0017402865;0.0;4.70782e-05;0.36165795
 -2.0000000E-02;  9.9999998E-03; -3.4000000E-01;411;0.0;0.0;0.0;1000.0004;  4.0000001E-01;0.3950505;0;0.0;0.0;0.0;0;-0.00058593816;  1.0000000E+04;  0.0000000E+00;  0.0000000E+00;  1.0000000E+04;  0.0000000E+00;  1.0000000E+04;-0.00041798165;0.0;-0.00016795652;1.0126778
 -2.0000000E-02;  9.9999998E-03; -3.1999999E-01;412;0.0;0.0;0.0;1000.0007;  4.0000001E-01;0.59257573;0;0.0;0.0;0.0;0;-0.00087302463;  1.0000000E+04;  0.0000000E+00;  0.0000000E+00;  1.0000000E+04;  0.0000000E+00;  1.0000000E+04;-0.0006978052;0.0;-0.00017521944;1.044484
 -2.0000000E-02;  9.9999998E-03; -3.0000001E-01;413;0.0;0.0;0.0;1000.001;  4.0000001E-01;0.79010099;0;0.0;0.0;0.0;0;-0.0012111847;  1.0000000E+04;  0.0000000E+00;  0.0000000E+00;  1.0000000E+04;  0.0000000E+00;  1.0000000E+04;-0.0010544721;0.0;-0.00015671259;0.91411245
 -2.0000000E-02;  9.9999998E-03; -2.8000000E-01;414;0.0;0.0;0.0;1000.0012;  4.0000001E-01;0.98762625;0;0.0;0.0;0.0;0;-0.0015621366;  1.0000000E+04;  0.0000000E+00;  0.0000000E+00;  1.0000000E+04;  0.0000000E+00;  1.0000000E+04;-0.00144923;0.0;-0.00011290658;0.62769932
 -2.0000000E-02;  9.9999998E-03; -2.5999999E-01;415;0.0;0.0;0.0;1000.0015;  4.0000001E-01;1.1851515;0;0.0;0.0;0.0;0;-0.0018814495;  1.0000000E+04;  0.0000000E+00;  0.0000000E+00;  1.0000000E+04;  0.0000000E+00;  1.0000000E+04;-0.001828756;0.0;-5.26935e-05;0.24269691
 -2.0000000E-02;  9.9999998E-03; -2.3999999E-01;416;0.0;0.0;0.0;1000.0016;  4.0000001E-01;1.3826767;0;0.0;0.0;0.0;0;-0.0021476415;  1.0000000E+04;  0.0000000E+00;  0.0000000E+00;  1.0000000E+04;  0.0000000E+00;  1.0000000E+04;-0.0021554176;0.0;7.776137e-06;0.14106156
 -2.0000000E-02;  9.9999998E-03; -2.2000000E-01;417;0.0;0.0;0.0;1000.0018;  4.0000001E-01;1.4814394;0;0.0;0.0;0.0;0;-0.0023599607;  1.0000000E+04;  0.0000000E+00;  0.0000000E+00;  1.0000000E+04;  0.0000000E+00;  1.0000000E+04;-0.0024145527;0.0;5.4592081e-05;0.43881676
 -2.0000000E-02;  9.9999998E-03; -2.0000000E-01;418;0.0;0.0;0.0;1000.0019;  4.0000001E-01;1.580202;0;0.0;0.0;0.0;0;-0.0025258705;  1.0000000E+04;  0.0000000E+00;  0.0000000E+00;  1.0000000E+04;  0.0000000E+00;  1.0000000E+04;-0.0026079218;0.0;8.2051447e-05;0.6170224
  0.0000000E+00;  9.9999998E-03; -3.4000000E-01;452;0.0;0.0;0.0;1000.0007;  4.0000001E-01;0.59257573;0;0.0;0.0;0.0;0;-0.00085489114;  1.0000000E+04;  0.0000000E+00;  0.0000000E+00;  1.0000000E+04;  0.0000000E+00;  1.0000000E+04;-0.00058961555;0.0;-0.00026527559;1.6314352
  0.0000000E+00;  9.9999998E-03; -3.1999999E-01;453;0.0;0.0;0.0;1000.001;  4.0000001E-01;0.79010099;0;0.0;0.0;0.0;0;-0.0012518307;  1.0000000E+04;  0.0000000E+00;  0.0000000E+00;  1.0000000E+04;  0.0000000E+00;  1.0000000E+04;-0.00097747077;0.0;-0.00027435992;1.6704634
  0.0000000E+00;  9.9999998E-03; -3.0000001E-01;454;0.0;0.0;0.0;1000.0012;  4.0000001E-01;0.98762625;0;0.0;0.0;0.0;0;-0.0017078312;  1.0000000E+04;  0.0000000E+00;  0.0000000E+00;  1.0000000E+04;  0.0000000E+00;  1.0000000E+04;-0.0014660176;0.0;-0.0002418136;1.444464
  2.0000000E-02;  9.9999998E-03; -3.4000000E-01;464;0.0;0.0;0.0;1000.0009;  4.0000001E-01;0.79010099;0;0.0;0.0;0.0;0;-0.001153437;  1.0000000E+04;  0.0000000E+00;  0.0000000E+00;  1.0000000E+04;  0.0000000E+00;  1.0000000E+04;-0.00077213836;0.0;-0.0003812986;2.4016085
  2.0000000E-02;  9.9999998E-03; -3.1999999E-01;465;0.0;0.0;0.0;1000.0013;  4.0000001E-01;1.0863888;0;0.0;0.0;0.0;0;-0.0016642737;  1.0000000E+04;  0.0000000E+00;  0.0000000E+00;  1.0000000E+04;  0.0000000E+00;  1.0000000E+04;-0.0012730489;0.0;-0.00039122472;2.4426816
  3.9999999E-02;  9.9999998E-03; -3.4000000E-01;474;0.0;0.0;0.0;1000.0011;  4.0000001E-01;0.88886362;0;0.0;0.0;0.0;0;-0.001481071;  1.0000000E+04;  0.0000000E+00;  0.0000000E+00;  1.0000000E+04;  0.0000000E+00;  1.0000000E+04;-0.00097238162;0.0;-0.00050868938;3.2973111
  3.9999999E-02;  9.9999998E-03; -3.1999999E-01;475;0.0;0.0;0.0;1000.0017;  4.0000001E-01;1.3826767;0;0.0;0.0;0.0;0;-0.0021138659;  1.0000000E+04;  0.0000000E+00;  0.0000000E+00;  1.0000000E+04;  0.0000000E+00;  1.0000000E+04;-0.001597165;0.0;-0.00051670091;3.3244975
  5.9999999E-02;  9.9999998E-03; -3.4000000E-01;484;0.0;0.0;0.0;1000.0015;  4.0000001E-01;1.2839141;0;0.0;0.0;0.0;0;-0.0018594153;  1.0000000E+04;  0.0000000E+00;  0.0000000E+00;  1.0000000E+04;  0.0000000E+00;  1.0000000E+04;-0.0012144974;0.0;-0.00064491795;4.322988
  5.9999999E-02;  9.9999998E-03; -3.1999999E-01;485;0.0;0.0;0.0;1000.0021;  4.0000001E-01;1.7777272;0;0.0;0.0;0.0;0;-0.0026381062;  1.0000000E+04;  0.0000000E+00;  0.0000000E+00;  1.0000000E+04;  0.0000000E+00;  1.0000000E+04;-0.0019894203;0.0;-0.00064868585;4.3213649
  7.9999998E-02;  9.9999998E-03; -3.4000000E-01;494;0.0;0.0;0.0;1000.002;  4.0000001E-01;1.580202;0;0.0;0.0;0.0;0;-0.0023394963;  1.0000000E+04;  0.0000000E+00;  0.0000000E+00;  1.0000000E+04;  0.0000000E+00;  1.0000000E+04;-0.0015441303;0.0;-0.00079536613;5.5452313
  7.9999998E-02;  9.9999998E-03; -3.1999999E-01;495;0.0;0.0;0.0;1000.0028;  4.0000001E-01;2.3703029;0;0.0;0.0;0.0;0;-0.0033058936;  1.0000000E+04;  0.0000000E+00;  0.0000000E+00;  1.0000000E+04;  0.0000000E+00;  1.0000000E+04;-0.0025128473;0.0;-0.00079304632;5.4983044
  1.0000000E-01;  9.9999998E-03; -3.4000000E-01;504;0.0;0.0;0.0;1000.0026;  4.0000001E-01;2.1727777;0;0.0;0.0;0.0;0;-0.0030137273;  1.0000000E+04;  0.0000000E+00;  0.0000000E+00;  1.0000000E+04;  0.0000000E+00;  1.0000000E+04;-0.0020381508;0.0;-0.00097557635;7.3101859
  1.0000000E-01;  9.9999998E-03; -3.1999999E-01;505;0.0;0.0;0.0;1000.0037;  4.0000001E-01;3.0616415;0;0.0;0.0;0.0;0;-0.0042367661;  1.0000000E+04;  0.0000000E+00;  0.0000000E+00;  1.0000000E+04;  0.0000000E+00;  1.0000000E+04;-0.0032715762;0.0;-0.00096518977;7.322629
  1.2000000E-01;  9.9999998E-03; -3.4000000E-01;514;0.0;0.0;0.0;1000.0037;  4.0000001E-01;3.0616415;0;0.0;0.0;0.0;0;-0.0040308293;  1.0000000E+04;  0.0000000E+00;  0.0000000E+00;  1.0000000E+04;  0.0000000E+00;  1.0000000E+04;-0.002813119;0.0;-0.0012177104;11.455172
  1.2000000E-01;  9.9999998E-03; -3.1999999E-01;515;0.0;0.0;0.0;1000.005;  4.0000001E-01;4.1480303;0;0.0;0.0;0.0;0;-0.0056141187;  1.0000000E+04;  0.0000000E+00;  0.0000000E+00;  1.0000000E+04;  0.0000000E+00;  1.0000000E+04;-0.0044182385;0.0;-0.0011958804;13.066799
  1.4000000E-01;  9.9999998E-03; -3.4000000E-01;524;0.0;0.0;0.0;1000.0052;  4.0000001E-01;4.3455553;0;0.0;0.0;0.0;0;-0.0056153224;  1.0000000E+04;  0.0000000E+00;  0.0000000E+00;  1.0000000E+04;  0.0000000E+00;  1.0000000E+04;-0.0040332843;0.0;-0.001582038;23.400116
  1.4000000E-01;  9.9999998E-03; -3.1999999E-01;525;0.0;0.0;0.0;1000.007;  4.0000001E-01;5.8269949;0;0.0;0.0;0.0;0;-0.0076987129;  1.0000000E+04;  0.0000000E+00;  0.0000000E+00;  1.0000000E+04;  0.0000000E+00;  1.0000000E+04;-0.0061566662;0.0;-0.0015420467;31.755415
  1.6000000E-01;  9.9999998E-03; -3.4000000E-01;534;0.0;0.0;0.0;1000.0075;  4.0000001E-01;6.2220454;0;0.0;0.0;0.0;0;-0.0080409124;  1.0000000E+04;  0.0000000E+00;  0.0000000E+00;  1.0000000E+04;  0.0000000E+00;  1.0000000E+04;-0.0058670281;0.0;-0.0021738841;51.424561
  1.6000000E-01;  9.9999998E-03; -3.1999999E-01;535;0.0;0.0;0.0;1000.0101;  4.0000001E-01;8.2960606;0;0.0;0.0;0.0;0;-0.010797474;  1.0000000E+04;  0.0000000E+00;  0.0000000E+00;  1.0000000E+04;  0.0000000E+00;  1.0000000E+04;-0.0086923838;0.0;-0.0021050896;76.566879
  1.8000001E-01;  9.9999998E-03; -3.4000000E-01;544;0.0;0.0;0.0;1000.011;  4.0000001E-01;9.0861616;0;0.0;0.0;0.0;0;-0.011479632;  1.0000000E+04;  0.0000000E+00;  0.0000000E+00;  1.0000000E+04;  0.0000000E+00;  1.0000000E+04;-0.0083166705;0.0;-0.0031629612;101.37521
  1.8000001E-01;  9.9999998E-03; -3.1999999E-01;545;0.0;0.0;0.0;1000.0145;  4.0000001E-01;12.04904;0;0.0;0.0;0.0;0;-0.015118623;  1.0000000E+04;  0.0000000E+00;  0.0000000E+00;  1.0000000E+04;  0.0000000E+00;  1.0000000E+04;-0.012063389;0.0;-0.0030552347;160.35573
  2.0000000E-01;  9.9999998E-03; -3.4000000E-01;553;0.0;0.0;0.0;1000.0156;  4.0000001E-01;12.937903;0;0.0;0.0;0.0;0;-0.01588471;  1.0000000E+04;  0.0000000E+00;  0.0000000E+00;  1.0000000E+04;  0.0000000E+00;  1.0000000E+04;-0.011099468;0.0;-0.004785242;165.19864
  2.0000000E-01;  9.9999998E-03; -3.1999999E-01;554;0.0;0.0;0.0;1000.0202;  4.0000001E-01;16.690884;0;0.0;0.0;0.0;0;-0.020628765;  1.0000000E+04;  0.0000000E+00;  0.0000000E+00;  1.0000000E+04;  0.0000000E+00;  1.0000000E+04;-0.015991896;0.0;-0.0046368693;277.76654
 -2.2000000E-01;  9.9999998E-03; -1.8000001E-01;10;0.0;0.0;0.0;1000.0;  4.0000001E-01;0.0;0;0.0;0.0;0.0;0;0.0;  1.0000000E+04;  0.0000000E+00;  0.0000000E+00;  1.0000000E+04;  0.0000000E+00;  1.0000000E+04;0.0;0.0;0.0;0.0
 -2.2000000E-01;  9.9999998E-03; -1.6000000E-01;11;0.0;0.0;0.0;1000.0;  4.0000001E-01;0.0;0;0.0;0.0;0.0;0;0.0;  1.0000000E+04;  0.0000000E+00;  0.0000000E+00;  1.0000000E+04;  0.0000000E+00;  1.0000000E+04;0.0;0.0;0.0;0.0
 -2.2000000E-01;  9.9999998E-03; -1.4000000E-01;12;0.0;0.0;0.0;1000.0;  4.0000001E-01;0.0;0;0.0;0.0;0.0;0;0.0;  1.0000000E+04;  0.0000000E+00;  0.0000000E+00;  1.0000000E+04;  0.0000000E+00;  1.0000000E+04;0.0;0.0;0.0;0.0
 -2.2000000E-01;  9.9999998E-03; -1.2000000E-01;13;0.0;0.0;0.0;1000.0;  4.0000001E-01;0.0;0;0.0;0.0;0.0;0;0.0;  1.0000000E+04;  0.0000000E+00;  0.0000000E+00;  1.0000000E+04;  0.0000000E+00;  1.0000000E+04;0.0;0.0;0.0;0.0
 -2.2000000E-01;  9.9999998E-03; -1.0000000E-01;14;0.0;0.0;0.0;1000.0;  4.0000001E-01;0.0;0;0.0;0.0;0.0;0;0.0;  1.0000000E+04;  0.0000000E+00;  0.0000000E+00;  1.0000000E+04;  0.0000000E+00;  1.0000000E+04;0.0;0.0;0.0;0.0
 -2.2000000E-01;  9.9999998E-03; -7.9999998E-02;15;0.0;0.0;0.0;1000.0;  4.0000001E-01;0.0;0;0.0;0.0;0.0;0;0.0;  1.0000000E+04;  0.0000000E+00;  0.0000000E+00;  1.0000000E+04;  0.0000000E+00;  1.0000000E+04;0.0;0.0;0.0;0.0
 -2.2000000E-01;  9.9999998E-03; -5.9999999E-02;16;0.0;0.0;0.0;1000.0;  4.0000001E-01;0.0;0;0.0;0.0;0.0;0;0.0;  1.0000000E+04;  0.0000000E+00;  0.0000000E+00;  1.0000000E+04;  0.0000000E+00;  1.0000000E+04;0.0;0.0;0.0;0.0
 -2.2000000E-01;  9.9999998E-03; -3.9999999E-02;17;0.0;0.0;0.0;1000.0;  4.0000001E-01;0.0;0;0.0;0.0;0.0;0;0.0;  1.0000000E+04;  0.0000000E+00;  0.0000000E+00;  1.0000000E+04;  0.0000000E+00;  1.0000000E+04;0.0;0.0;0.0;0.0
 -2.2000000E-01;  9.9999998E-03; -2.0000000E-02;18;0.0;0.0;0.0;1000.0;  4.0000001E-01;0.0;0;0.0;0.0;0.0;0;0.0;  1.0000000E+04;  0.0000000E+00;  0.0000000E+00;  1.0000000E+04;  0.0000000E+00;  1.0000000E+04;0.0;0.0;0.0;0.0
 -2.0000000E-01;  9.9999998E-03; -1.8000001E-01;50;0.0;0.0;0.0;1000.0;  4.0000001E-01;0.0;0;0.0;0.0;0.0;0;0.0;  1.0000000E+04;  0.0000000E+00;  0.0000000E+00;  1.0000000E+04;  0.0000000E+00;  1.0000000E+04;0.0;0.0;0.0;0.0
 -2.0000000E-01;  9.9999998E-03; -1.6000000E-01;51;0.0;0.0;0.0;1000.0;  4.0000001E-01;0.0;0;0.0;0.0;0.0;0;0.0;  1.0000000E+04;  0.0000000E+00;  0.0000000E+00;  1.0000000E+04;  0.0000000E+00;  1.0000000E+04;0.0;0.0;0.0;0.0
 -2.0000000E-01;  9.9999998E-03; -1.4000000E-01;52;0.0;0.0;0.0;1000.0;  4.0000001E-01;0.0;0;0.0;0.0;0.0;0;0.0;  1.0000000E+04;  0.0000000E+00;  0.0000000E+00;  1.0000000E+04;  0.0000000E+00;  1.0000000E+04;0.0;0.0;0.0;0.0
 -2.0000000E-01;  9.9999998E-03; -1.2000000E-01;53;0.0;0.0;0.0;1000.0;  4.0000001E-01;0.0;0;0.0;0.0;0.0;0;0.0;  1.0000000E+04;  0.0000000E+00;  0.0000000E+00;  1.0000000E+04;  0.0000000E+00;  1.0000000E+04;0.0;0.0;0.0;0.0
 -2.0000000E-01;  9.9999998E-03; -1.0000000E-01;54;0.0;0.0;0.0;1000.0;  4.0000001E-01;0.0;0;0.0;0.0;0.0;0;0.0;  1.0000000E+04;  0.0000000E+00;  0.0000000E+00;  1.0000000E+04;  0.0000000E+00;  1.0000000E+04;0.0;0.0;0.0;0.0
 -2.0000000E-01;  9.9999998E-03; -7.9999998E-02;55;0.0;0.0;0.0;1000.0;  4.0000001E-01;0.0;0;0.0;0.0;0.0;0;0.0;  1.0000000E+04;  0.0000000E+00;  0.0000000E+00;  1.0000000E+04;  0.0000000E+00;  1.0000000E+04;0.0;0.0;0.0;0.0
 -2.0000000E-01;  9.9999998E-03; -5.9999999E-02;56;0.0;0.0;0.0;1000.0;  4.0000001E-01;0.0;0;0.0;0.0;0.0;0;0.0;  1.0000000E+04;  0.0000000E+00;  0.0000000E+00;  1.0000000E+04;  0.0000000E+00;  1.0000000E+04;0.0;0.0;0.0;0.0
 -2.0000000E-01;  9.9999998E-03; -3.9999999E-02;57;0.0;0.0;0.0;1000.0;  4.0000001E-01;0.0;0;0.0;0.0;0.0;0;0.0;  1.0000000E+04;  0.0000000E+00;  0.0000000E+00;  1.0000000E+04;  0.0000000E+00;  1.0000000E+04;0.0;0.0;0.0;0.0
 -2.0000000E-01;  9.9999998E-03; -2.0000000E-02;58;0.0;0.0;0.0;1000.0;  4.0000001E-01;0.0;0;0.0;0.0;0.0;0;0.0;  1.0000000E+04;  0.0000000E+00;  0.0000000E+00;  1.0000000E+04;  0.0000000E+00;  1.0000000E+04;0.0;0.0;0.0;0.0
 -1.8000001E-01;  9.9999998E-03; -1.8000001E-01;91;0.0;0.0;0.0;1000.0;  4.0000001E-01;0.0;0;0.0;0.0;0.0;0;0.0;  1.0000000E+04;  0.0000000E+00;  0.0000000E+00;  1.0000000E+04;  0.0000000E+00;  1.0000000E+04;0.0;0.0;0.0;0.0
 -1.8000001E-01;  9.9999998E-03; -1.6000000E-01;92;0.0;0.0;0.0;1000.0;  4.0000001E-01;0.0;0;0.0;0.0;0.0;0;0.0;  1.0000000E+04;  0.0000000E+00;  0.0000000E+00;  1.0000000E+04;  0.0000000E+00;  1.0000000E+04;0.0;0.0;0.0;0.0
 -1.8000001E-01;  9.9999998E-03; -1.4000000E-01;93;0.0;0.0;0.0;1000.0;  4.0000001E-01;0.0;0;0.0;0.0;0.0;0;0.0;  1.0000000E+04;  0.0000000E+00;  0.0000000E+00;  1.0000000E+04;  0.0000000E+00;  1.0000000E+04;0.0;0.0;0.0;0.0
 -1.8000001E-01;  9.9999998E-03; -1.2000000E-01;94;0.0;0.0;0.0;1000.0;  4.0000001E-01;0.0;0;0.0;0.0;0.0;0;0.0;  1.0000000E+04;  0.0000000E+00;  0.0000000E+00;  1.0000000E+04;  0.0000000E+00;  1.0000000E+04;0.0;0.0;0.0;0.0
 -1.8000001E-01;  9.9999998E-03; -1.0000000E-01;95;0.0;0.0;0.0;1000.0;  4.0000001E-01;0.0;0;0.0;0.0;0.0;0;0.0;  1.0000000E+04;  0.0000000E+00;  0.0000000E+00;  1.0000000E+04;  0.0000000E+00;  1.0000000E+04;0.0;0.0;0.0;0.0
 -1.8000001E-01;  9.9999998E-03; -7.9999998E-02;96;0.0;0.0;0.0;1000.0;  4.0000001E-01;0.0;0;0.0;0.0;0.0;0;0.0;  1.0000000E+04;  0.0000000E+00;  0.0000000E+00;  1.0000000E+04;  0.0000000E+00;  1.0000000E+04;0.0;0.0;0.0;0.0
 -1.8000001E-01;  9.9999998E-03; -5.9999999E-02;97;0.0;0.0;0.0;1000.0;  4.0000001E-01;0.0;0;0.0;0.0;0.0;0;0.0;  1.0000000E+04;  0.0000000E+00;  0.0000000E+00;  1.0000000E+04;  0.0000000E+00;  1.0000000E+04;0.0;0.0;0.0;0.0
 -1.8000001E-01;  9.9999998E-03; -3.9999999E-02;98;0.0;0.0;0.0;1000.0;  4.0000001E-01;0.0;0;0.0;0.0;0.0;0;0.0;  1.0000000E+04;  0.0000000E+00;  0.0000000E+00;  1.0000000E+04;  0.0000000E+00;  1.0000000E+04;0.0;0.0;0.0;0.0
 -1.8000001E-01;  9.9999998E-03; -2.0000000E-02;99;0.0;0.0;0.0;1000.0;  4.0000001E-01;0.0;0;0.0;0.0;0.0;0;0.0;  1.0000000E+04;  0.0000000E+00;  0.0000000E+00;  1.0000000E+04;  0.0000000E+00;  1.0000000E+04;0.0;0.0;0.0;0.0
 -1.6000000E-01;  9.9999998E-03; -1.8000001E-01;132;0.0;0.0;0.0;1000.0;  4.0000001E-01;0.0;0;0.0;0.0;0.0;0;-3.4450815e-07;  1.0000000E+04;  0.0000000E+00;  0.0000000E+00;  1.0000000E+04;  0.0000000E+00;  1.0000000E+04;-3.4525164e-07;0.0;7.4347051e-10;2.1498432e-05
 -1.6000000E-01;  9.9999998E-03; -1.6000000E-01;133;0.0;0.0;0.0;1000.0;  4.0000001E-01;0.0;0;0.0;0.0;0.0;0;-3.5602864e-07;  1.0000000E+04;  0.0000000E+00;  0.0000000E+00;  1.0000000E+04;  0.0000000E+00;  1.0000000E+04;-3.5669129e-07;0.0;6.6266581e-10;2.1711674e-05
 -1.6000000E-01;  9.9999998E-03; -1.4000000E-01;134;0.0;0.0;0.0;1000.0;  4.0000001E-01;0.0;0;0.0;0.0;0.0;0;-3.638803e-07;  1.0000000E+04;  0.0000000E+00;  0.0000000E+00;  1.0000000E+04;  0.0000000E+00;  1.0000000E+04;-3.6445104e-07;0.0;5.7072952e-10;2.1693717e-05
 -1.6000000E-01;  9.9999998E-03; -1.2000000E-01;135;0.0;0.0;0.0;1000.0;  4.0000001E-01;0.0;0;0.0;0.0;0.0;0;-3.6899036e-07;  1.0000000E+04;  0.0000000E+00;  0.0000000E+00;  1.0000000E+04;  0.0000000E+00;  1.0000000E+04;-3.6947463e-07;0.0;4.8429039e-10;2.1575886e-05
 -1.6000000E-01;  9.9999998E-03; -1.0000000E-01;136;0.0;0.0;0.0;1000.0;  4.0000001E-01;0.0;0;0.0;0.0;0.0;0;-3.721552e-07;  1.0000000E+04;  0.0000000E+00;  0.0000000E+00;  1.0000000E+04;  0.0000000E+00;  1.0000000E+04;-3.7256009e-07;0.0;4.0488934e-10;2.1394231e-05
 -1.6000000E-01;  9.9999998E-03; -7.9999998E-02;137;0.0;0.0;0.0;1000.0;  4.0000001E-01;0.0;0;0.0;0.0;0.0;0;-3.7399758e-07;  1.0000000E+04;  0.0000000E+00;  0.0000000E+00;  1.0000000E+04;  0.0000000E+00;  1.0000000E+04;-3.7433452e-07;0.0;3.3695172e-10;2.1193491e-05
 -1.6000000E-01;  9.9999998E-03; -5.9999999E-02;138;0.0;0.0;0.0;1000.0;  4.0000001E-01;0.0;0;0.0;0.0;0.0;0;-3.7499268e-07;  1.0000000E+04;  0.0000000E+00;  0.0000000E+00;  1.0000000E+04;  0.0000000E+00;  1.0000000E+04;-3.7527474e-07;0.0;2.8204616e-10;2.1001913e-05
 -1.6000000E-01;  9.9999998E-03; -3.9999999E-02;139;0.0;0.0;0.0;1000.0;  4.0000001E-01;0.0;0;0.0;0.0;0.0;0;-3.7548335e-07;  1.0000000E+04;  0.0000000E+00;  0.0000000E+00;  1.0000000E+04;  0.0000000E+00;  1.0000000E+04;-3.7572386e-07;0.0;2.4051811e-10;2.0838117e-05
 -1.6000000E-01;  9.9999998E-03; -2.0000000E-02;140;0.0;0.0;0.0;1000.0;  4.0000001E-01;0.0;0;0.0;0.0;0.0;0;-3.7569271e-07;  1.0000000E+04;  0.0000000E+00;  0.0000000E+00;  1.0000000E+04;  0.0000000E+00;  1.0000000E+04;-3.7590769e-07;0.0;2.1497269e-10;2.0730851e-05
 -1.4000000E-01;  9.9999998E-03; -1.8000001E-01;173;0.0;0.0;0.0;1000.0;  4.0000001E-01;0.0;0;0.0;0.0;0.0;0;-1.2532816e-05;  1.0000000E+04;  0.0000000E+00;  0.0000000E+00;  1.0000000E+04;  0.0000000E+00;  1.0000000E+04;-1.2623563e-05;0.0;9.0746965e-08;0.0011437777
 -1.4000000E-01;  9.9999998E-03; -1.6000000E-01;174;0.0;0.0;0.0;1000.0;  4.0000001E-01;0.0;0;0.0;0.0;0.0;0;-1.2990403e-05;  1.0000000E+04;  0.0000000E+00;  0.0000000E+00;  1.0000000E+04;  0.0000000E+00;  1.0000000E+04;-1.3073027e-05;0.0;8.2623856e-08;0.0011279491
 -1.4000000E-01;  9.9999998E-03; -1.4000000E-01;175;0.0;0.0;0.0;1000.0;  4.0000001E-01;0.0;0;0.0;0.0;0.0;0;-1.3312148e-05;  1.0000000E+04;  0.0000000E+00;  0.0000000E+00;  1.0000000E+04;  0.0000000E+00;  1.0000000E+04;-1.3384451e-05;0.0;7.2302591e-08;0.0010939994
 -1.4000000E-01;  9.9999998E-03; -1.2000000E-01;176;0.0;0.0;0.0;1000.0;  4.0000001E-01;0.0;0;0.0;0.0;0.0;0;-1.3529325e-05;  1.0000000E+04;  0.0000000E+00;  0.0000000E+00;  1.0000000E+04;  0.0000000E+00;  1.0000000E+04;-1.359106e-05;0.0;6.1734966e-08;0.0010537761
 -1.4000000E-01;  9.9999998E-03; -1.0000000E-01;177;0.0;0.0;0.0;1000.0;  4.0000001E-01;0.0;0;0.0;0.0;0.0;0;-1.3669727e-05;  1.0000000E+04;  0.0000000E+00;  0.0000000E+00;  1.0000000E+04;  0.0000000E+00;  1.0000000E+04;-1.3721718e-05;0.0;5.1990465e-08;0.0010138482
 -1.4000000E-01;  9.9999998E-03; -7.9999998E-02;178;0.0;0.0;0.0;1000.0;  4.0000001E-01;0.0;0;0.0;0.0;0.0;0;-1.3756342e-05;  1.0000000E+04;  0.0000000E+00;  0.0000000E+00;  1.0000000E+04;  0.0000000E+00;  1.0000000E+04;-1.3799908e-05;0.0;4.3565734e-08;0.0009773816
 -1.4000000E-01;  9.9999998E-03; -5.9999999E-02;179;0.0;0.0;0.0;1000.0;  4.0000001E-01;0.0;0;0.0;0.0;0.0;0;-1.3807042e-05;  1.0000000E+04;  0.0000000E+00;  0.0000000E+00;  1.0000000E+04;  0.0000000E+00;  1.0000000E+04;-1.3843745e-05;0.0;3.6704009e-08;0.00094622624
 -1.4000000E-01;  9.9999998E-03; -3.9999999E-02;180;0.0;0.0;0.0;1000.0;  4.0000001E-01;0.0;0;0.0;0.0;0.0;0;-1.3834736e-05;  1.0000000E+04;  0.0000000E+00;  0.0000000E+00;  1.0000000E+04;  0.0000000E+00;  1.0000000E+04;-1.3866362e-05;0.0;3.1625735e-08;0.00092227152
 -1.4000000E-01;  9.9999998E-03; -2.0000000E-02;181;0.0;0.0;0.0;1000.0;  4.0000001E-01;0.0;0;0.0;0.0;0.0;0;-1.3848082e-05;  1.0000000E+04;  0.0000000E+00;  0.0000000E+00;  1.0000000E+04;  0.0000000E+00;  1.0000000E+04;-1.3876575e-05;0.0;2.8493293e-08;0.00090709393
 -1.2000000E-01;  9.9999998E-03; -1.8000001E-01;214;0.0;0.0;0.0;1000.0;  4.0000001E-01;0.0;0;0.0;0.0;0.0;0;-6.9504509e-05;  1.0000000E+04;  0.0000000E+00;  0.0000000E+00;  1.0000000E+04;  0.0000000E+00;  1.0000000E+04;-7.0361115e-05;0.0;8.5660719e-07;0.0083787367
 -1.2000000E-01;  9.9999998E-03; -1.6000000E-01;215;0.0;0.0;0.0;1000.0;  4.0000001E-01;0.0;0;0.0;0.0;0.0;0;-7.2157731e-05;  1.0000000E+04;  0.0000000E+00;  0.0000000E+00;  1.0000000E+04;  0.0000000E+00;  1.0000000E+04;-7.2949377e-05;0.0;7.9164528e-07;0.0082039274
 -1.2000000E-01;  9.9999998E-03; -1.4000000E-01;216;0.0;0.0;0.0;1000.0;  4.0000001E-01;0.0;0;0.0;0.0;0.0;0;-7.4054849e-05;  1.0000000E+04;  0.0000000E+00;  0.0000000E+00;  1.0000000E+04;  0.0000000E+00;  1.0000000E+04;-7.4755786e-05;0.0;7.0093745e-07;0.0078545725
 -1.2000000E-01;  9.9999998E-03; -1.2000000E-01;217;0.0;0.0;0.0;1000.0;  4.0000001E-01;0.0;0;0.0;0.0;0.0;0;-7.5360869e-05;  1.0000000E+04;  0.0000000E+00;  0.0000000E+00;  1.0000000E+04;  0.0000000E+00;  1.0000000E+04;-7.5964439e-05;0.0;6.035678e-07;0.0074401596
 -1.2000000E-01;  9.9999998E-03; -1.0000000E-01;218;0.0;0.0;0.0;1000.0;  4.0000001E-01;0.0;0;0.0;0.0;0.0;0;-7.6225035e-05;  1.0000000E+04;  0.0000000E+00;  0.0000000E+00;  1.0000000E+04;  0.0000000E+00;  1.0000000E+04;-7.6736447e-05;0.0;5.1141211e-07;0.0070286393
 -1.2000000E-01;  9.9999998E-03; -7.9999998E-02;219;0.0;0.0;0.0;1000.0;  4.0000001E-01;0.0;0;0.0;0.0;0.0;0;-7.6773351e-05;  1.0000000E+04;  0.0000000E+00;  0.0000000E+00;  1.0000000E+04;  0.0000000E+00;  1.0000000E+04;-7.7204233e-05;0.0;4.3088528e-07;0.0066569764
 -1.2000000E-01;  9.9999998E-03; -5.9999999E-02;220;0.0;0.0;0.0;1000.0;  4.0000001E-01;0.0;0;0.0;0.0;0.0;0;-7.7105251e-05;  1.0000000E+04;  0.0000000E+00;  0.0000000E+00;  1.0000000E+04;  0.0000000E+00;  1.0000000E+04;-7.747062e-05;0.0;3.6536855e-07;0.0063458993
 -1.2000000E-01;  9.9999998E-03; -3.9999999E-02;221;0.0;0.0;0.0;1000.0;  4.0000001E-01;0.0;0;0.0;0.0;0.0;0;-7.7293844e-05;  1.0000000E+04;  0.0000000E+00;  0.0000000E+00;  1.0000000E+04;  0.0000000E+00;  1.0000000E+04;-7.7610799e-05;0.0;3.1695635e-07;0.0061103301
 -1.2000000E-01;  9.9999998E-03; -2.0000000E-02;222;0.0;0.0;0.0;1000.0;  4.0000001E-01;0.0;0;0.0;0.0;0.0;0;-7.7388315e-05;  1.0000000E+04;  0.0000000E+00;  0.0000000E+00;  1.0000000E+04;  0.0000000E+00;  1.0000000E+04;-7.7675533e-05;0.0;2.8721672e-07;0.0059629455
 -1.0000000E-01;  9.9999998E-03; -1.8000001E-01;255;0.0;0.0;0.0;1000.0001;  4.0000001E-01;0.098762624;0;0.0;0.0;0.0;0;-0.00022298655;  1.0000000E+04;  0.0000000E+00;  0.0000000E+00;  1.0000000E+04;  0.0000000E+00;  1.0000000E+04;-0.00022678381;0.0;3.7972582e-06;0.033026531
 -1.0000000E-01;  9.9999998E-03; -1.6000000E-01;256;0.0;0.0;0.0;1000.0001;  4.0000001E-01;0.098762624;0;0.0;0.0;0.0;0;-0.00023173852;  1.0000000E+04;  0.0000000E+00;  0.0000000E+00;  1.0000000E+04;  0.0000000E+00;  1.0000000E+04;-0.00023533541;0.0;3.5968908e-06;0.032590117
 -1.0000000E-01;  9.9999998E-03; -1.4000000E-01;257;0.0;0.0;0.0;1000.0001;  4.0000001E-01;0.098762624;0;0.0;0.0;0.0;0;-0.00023804327;  1.0000000E+04;  0.0000000E+00;  0.0000000E+00;  1.0000000E+04;  0.0000000E+00;  1.0000000E+04;-0.00024125958;0.0;3.216303e-06;0.031036193
 -1.0000000E-01;  9.9999998E-03; -1.2000000E-01;258;0.0;0.0;0.0;1000.0001;  4.0000001E-01;0.098762624;0;0.0;0.0;0.0;0;-0.00024243965;  1.0000000E+04;  0.0000000E+00;  0.0000000E+00;  1.0000000E+04;  0.0000000E+00;  1.0000000E+04;-0.00024522978;0.0;2.7901331e-06;0.029136647
 -1.0000000E-01;  9.9999998E-03; -1.0000000E-01;259;0.0;0.0;0.0;1000.0002;  4.0000001E-01;0.19752525;0;0.0;0.0;0.0;0;-0.00024539253;  1.0000000E+04;  0.0000000E+00;  0.0000000E+00;  1.0000000E+04;  0.0000000E+00;  1.0000000E+04;-0.00024777019;0.0;2.3776536e-06;0.027223632
 -1.0000000E-01;  9.9999998E-03; -7.9999998E-02;260;0.0;0.0;0.0;1000.0002;  4.0000001E-01;0.19752525;0;0.0;0.0;0.0;0;-0.00024729877;  1.0000000E+04;  0.0000000E+00;  0.0000000E+00;  1.0000000E+04;  0.0000000E+00;  1.0000000E+04;-0.00024931214;0.0;2.0133746e-06;0.025490679
 -1.0000000E-01;  9.9999998E-03; -5.9999999E-02;261;0.0;0.0;0.0;1000.0002;  4.0000001E-01;0.19752525;0;0.0;0.0;0.0;0;-0.00024847582;  1.0000000E+04;  0.0000000E+00;  0.0000000E+00;  1.0000000E+04;  0.0000000E+00;  1.0000000E+04;-0.00025019184;0.0;1.7160181e-06;0.024046415
 -1.0000000E-01;  9.9999998E-03; -3.9999999E-02;262;0.0;0.0;0.0;1000.0002;  4.0000001E-01;0.19752525;0;0.0;0.0;0.0;0;-0.00024915903;  1.0000000E+04;  0.0000000E+00;  0.0000000E+00;  1.0000000E+04;  0.0000000E+00;  1.0000000E+04;-0.00025065549;0.0;1.4964719e-06;0.022960803
 -1.0000000E-01;  9.9999998E-03; -2.0000000E-02;263;0.0;0.0;0.0;1000.0002;  4.0000001E-01;0.19752525;0;0.0;0.0;0.0;0;-0.00024950819;  1.0000000E+04;  0.0000000E+00;  0.0000000E+00;  1.0000000E+04;  0.0000000E+00;  1.0000000E+04;-0.00025087001;0.0;1.3618393e-06;0.022285881
 -7.9999998E-02;  9.9999998E-03; -1.8000001E-01;296;0.0;0.0;0.0;1000.0004;  4.0000001E-01;0.29628786;0;0.0;0.0;0.0;0;-0.00053624023;  1.0000000E+04;  0.0000000E+00;  0.0000000E+00;  1.0000000E+04;  0.0000000E+00;  1.0000000E+04;-0.0005476012;0.0;1.1360958e-05;0.092810914
 -7.9999998E-02;  9.9999998E-03; -1.6000000E-01;297;0.0;0.0;0.0;1000.0004;  4.0000001E-01;0.29628786;0;0.0;0.0;0.0;0;-0.00055749115;  1.0000000E+04;  0.0000000E+00;  0.0000000E+00;  1.0000000E+04;  0.0000000E+00;  1.0000000E+04;-0.00056851353;0.0;1.102236e-05;0.092746697
 -7.9999998E-02;  9.9999998E-03; -1.4000000E-01;298;0.0;0.0;0.0;1000.0004;  4.0000001E-01;0.29628786;0;0.0;0.0;0.0;0;-0.00057287433;  1.0000000E+04;  0.0000000E+00;  0.0000000E+00;  1.0000000E+04;  0.0000000E+00;  1.0000000E+04;-0.00058282266;0.0;9.9483177e-06;0.088244945
 -7.9999998E-02;  9.9999998E-03; -1.2000000E-01;299;0.0;0.0;0.0;1000.0004;  4.0000001E-01;0.3950505;0;0.0;0.0;0.0;0;-0.00058368262;  1.0000000E+04;  0.0000000E+00;  0.0000000E+00;  1.0000000E+04;  0.0000000E+00;  1.0000000E+04;-0.00059236732;0.0;8.6847149e-06;0.082455859
 -7.9999998E-02;  9.9999998E-03; -1.0000000E-01;300;0.0;0.0;0.0;1000.0004;  4.0000001E-01;0.3950505;0;0.0;0.0;0.0;0;-0.000591007;  1.0000000E+04;  0.0000000E+00;  0.0000000E+00;  1.0000000E+04;  0.0000000E+00;  1.0000000E+04;-0.00059844478;0.0;7.4377954e-06;0.076533258
 -7.9999998E-02;  9.9999998E-03; -7.9999998E-02;301;0.0;0.0;0.0;1000.0004;  4.0000001E-01;0.3950505;0;0.0;0.0;0.0;0;-0.00059578347;  1.0000000E+04;  0.0000000E+00;  0.0000000E+00;  1.0000000E+04;  0.0000000E+00;  1.0000000E+04;-0.00060210895;0.0;6.3254697e-06;0.07113345
 -7.9999998E-02;  9.9999998E-03; -5.9999999E-02;302;0.0;0.0;0.0;1000.0004;  4.0000001E-01;0.3950505;0;0.0;0.0;0.0;0;-0.00059876597;  1.0000000E+04;  0.0000000E+00;  0.0000000E+00;  1.0000000E+04;  0.0000000E+00;  1.0000000E+04;-0.0006041798;0.0;5.4138368e-06;0.066632316
 -7.9999998E-02;  9.9999998E-03; -3.9999999E-02;303;0.0;0.0;0.0;1000.0005;  4.0000001E-01;0.3950505;0;0.0;0.0;0.0;0;-0.00060051784;  1.0000000E+04;  0.0000000E+00;  0.0000000E+00;  1.0000000E+04;  0.0000000E+00;  1.0000000E+04;-0.0006052581;0.0;4.7402518e-06;0.063258708
 -7.9999998E-02;  9.9999998E-03; -2.0000000E-02;304;0.0;0.0;0.0;1000.0005;  4.0000001E-01;0.3950505;0;0.0;0.0;0.0;0;-0.00060142239;  1.0000000E+04;  0.0000000E+00;  0.0000000E+00;  1.0000000E+04;  0.0000000E+00;  1.0000000E+04;-0.00060574978;0.0;4.3273826e-06;0.061168257
 -5.9999999E-02;  9.9999998E-03; -1.8000001E-01;337;0.0;0.0;0.0;1000.0007;  4.0000001E-01;0.59257573;0;0.0;0.0;0.0;0;-0.0010565235;  1.0000000E+04;  0.0000000E+00;  0.0000000E+00;  1.0000000E+04;  0.0000000E+00;  1.0000000E+04;-0.0010832766;0.0;2.6753096e-05;0.20987134
 -5.9999999E-02;  9.9999998E-03; -1.6000000E-01;338;0.0;0.0;0.0;1000.0008;  4.0000001E-01;0.69133836;0;0.0;0.0;0.0;0;-0.0010979545;  1.0000000E+04;  0.0000000E+00;  0.0000000E+00;  1.0000000E+04;  0.0000000E+00;  1.0000000E+04;-0.0011241809;0.0;2.6226351e-05;0.21080244
 -5.9999999E-02;  9.9999998E-03; -1.4000000E-01;339;0.0;0.0;0.0;1000.0009;  4.0000001E-01;0.69133836;0;0.0;0.0;0.0;0;-0.0011281362;  1.0000000E+04;  0.0000000E+00;  0.0000000E+00;  1.0000000E+04;  0.0000000E+00;  1.0000000E+04;-0.0011520265;0.0;2.3890254e-05;0.200891
 -5.9999999E-02;  9.9999998E-03; -1.2000000E-01;340;0.0;0.0;0.0;1000.0009;  4.0000001E-01;0.79010099;0;0.0;0.0;0.0;0;-0.0011494298;  1.0000000E+04;  0.0000000E+00;  0.0000000E+00;  1.0000000E+04;  0.0000000E+00;  1.0000000E+04;-0.0011703916;0.0;2.0961776e-05;0.18717246
 -5.9999999E-02;  9.9999998E-03; -1.0000000E-01;341;0.0;0.0;0.0;1000.0009;  4.0000001E-01;0.79010099;0;0.0;0.0;0.0;0;-0.0011639229;  1.0000000E+04;  0.0000000E+00;  0.0000000E+00;  1.0000000E+04;  0.0000000E+00;  1.0000000E+04;-0.0011819492;0.0;1.8026263e-05;0.17295004
 -5.9999999E-02;  9.9999998E-03; -7.9999998E-02;342;0.0;0.0;0.0;1000.0009;  4.0000001E-01;0.79010099;0;0.0;0.0;0.0;0;-0.0011734229;  1.0000000E+04;  0.0000000E+00;  0.0000000E+00;  1.0000000E+04;  0.0000000E+00;  1.0000000E+04;-0.001188808;0.0;1.5385054e-05;0.15990064
 -5.9999999E-02;  9.9999998E-03; -5.9999999E-02;343;0.0;0.0;0.0;1000.0009;  4.0000001E-01;0.79010099;0;0.0;0.0;0.0;0;-0.001179387;  1.0000000E+04;  0.0000000E+00;  0.0000000E+00;  1.0000000E+04;  0.0000000E+00;  1.0000000E+04;-0.0011925988;0.0;1.3211821e-05;0.14900532
 -5.9999999E-02;  9.9999998E-03; -3.9999999E-02;344;0.0;0.0;0.0;1000.0009;  4.0000001E-01;0.79010099;0;0.0;0.0;0.0;0;-0.0011829101;  1.0000000E+04;  0.0000000E+00;  0.0000000E+00;  1.0000000E+04;  0.0000000E+00;  1.0000000E+04;-0.001194514;0.0;1.1603924e-05;0.14084676
 -5.9999999E-02;  9.9999998E-03; -2.0000000E-02;345;0.0;0.0;0.0;1000.0009;  4.0000001E-01;0.79010099;0;0.0;0.0;0.0;0;-0.0011847386;  1.0000000E+04;  0.0000000E+00;  0.0000000E+00;  1.0000000E+04;  0.0000000E+00;  1.0000000E+04;-0.0011953567;0.0;1.0618142e-05;0.13579939
 -3.9999999E-02;  9.9999998E-03; -1.8000001E-01;378;0.0;0.0;0.0;1000.0013;  4.0000001E-01;1.0863888;0;0.0;0.0;0.0;0;-0.0017834613;  1.0000000E+04;  0.0000000E+00;  0.0000000E+00;  1.0000000E+04;  0.0000000E+00;  1.0000000E+04;-0.0018365594;0.0;5.3098047e-05;0.40488368
 -3.9999999E-02;  9.9999998E-03; -1.6000000E-01;379;0.0;0.0;0.0;1000.0015;  4.0000001E-01;1.1851515;0;0.0;0.0;0.0;0;-0.0018515086;  1.0000000E+04;  0.0000000E+00;  0.0000000E+00;  1.0000000E+04;  0.0000000E+00;  1.0000000E+04;-0.0019037251;0.0;5.2216517e-05;0.4068712
 -3.9999999E-02;  9.9999998E-03; -1.4000000E-01;380;0.0;0.0;0.0;1000.0015;  4.0000001E-01;1.1851515;0;0.0;0.0;0.0;0;-0.0019013117;  1.0000000E+04;  0.0000000E+00;  0.0000000E+00;  1.0000000E+04;  0.0000000E+00;  1.0000000E+04;-0.0019491359;0.0;4.7824204e-05;0.38782367
 -3.9999999E-02;  9.9999998E-03; -1.2000000E-01;381;0.0;0.0;0.0;1000.0015;  4.0000001E-01;1.2839141;0;0.0;0.0;0.0;0;-0.0019365082;  1.0000000E+04;  0.0000000E+00;  0.0000000E+00;  1.0000000E+04;  0.0000000E+00;  1.0000000E+04;-0.0019786272;0.0;4.2118976e-05;0.3605026
 -3.9999999E-02;  9.9999998E-03; -1.0000000E-01;382;0.0;0.0;0.0;1000.0016;  4.0000001E-01;1.2839141;0;0.0;0.0;0.0;0;-0.0019604797;  1.0000000E+04;  0.0000000E+00;  0.0000000E+00;  1.0000000E+04;  0.0000000E+00;  1.0000000E+04;-0.0019968131;0.0;3.6333553e-05;0.33191371
 -3.9999999E-02;  9.9999998E-03; -7.9999998E-02;383;0.0;0.0;0.0;1000.0016;  4.0000001E-01;1.2839141;0;0.0;0.0;0.0;0;-0.0019762041;  1.0000000E+04;  0.0000000E+00;  0.0000000E+00;  1.0000000E+04;  0.0000000E+00;  1.0000000E+04;-0.0020072986;0.0;3.1094423e-05;0.30555955
 -3.9999999E-02;  9.9999998E-03; -5.9999999E-02;384;0.0;0.0;0.0;1000.0016;  4.0000001E-01;1.2839141;0;0.0;0.0;0.0;0;-0.0019860864;  1.0000000E+04;  0.0000000E+00;  0.0000000E+00;  1.0000000E+04;  0.0000000E+00;  1.0000000E+04;-0.0020128558;0.0;2.6769509e-05;0.28352019
 -3.9999999E-02;  9.9999998E-03; -3.9999999E-02;385;0.0;0.0;0.0;1000.0016;  4.0000001E-01;1.2839141;0;0.0;0.0;0.0;0;-0.001991929;  1.0000000E+04;  0.0000000E+00;  0.0000000E+00;  1.0000000E+04;  0.0000000E+00;  1.0000000E+04;-0.0020154945;0.0;2.3565406e-05;0.26702005
 -3.9999999E-02;  9.9999998E-03; -2.0000000E-02;386;0.0;0.0;0.0;1000.0016;  4.0000001E-01;1.2839141;0;0.0;0.0;0.0;0;-0.0019949647;  1.0000000E+04;  0.0000000E+00;  0.0000000E+00;  1.0000000E+04;  0.0000000E+00;  1.0000000E+04;-0.0020165648;0.0;2.1600252e-05;0.25682047
 -2.0000000E-02;  9.9999998E-03; -1.8000001E-01;419;0.0;0.0;0.0;1000.0021;  4.0000001E-01;1.6789646;0;0.0;0.0;0.0;0;-0.0026538563;  1.0000000E+04;  0.0000000E+00;  0.0000000E+00;  1.0000000E+04;  0.0000000E+00;  1.0000000E+04;-0.0027459394;0.0;9.2083108e-05;0.68897706
 -2.0000000E-02;  9.9999998E-03; -1.6000000E-01;420;0.0;0.0;0.0;1000.0021;  4.0000001E-01;1.6789646;0;0.0;0.0;0.0;0;-0.0027507485;  1.0000000E+04;  0.0000000E+00;  0.0000000E+00;  1.0000000E+04;  0.0000000E+00;  1.0000000E+04;-0.0028412552;0.0;9.0506539e-05;0.69093663
 -2.0000000E-02;  9.9999998E-03; -1.4000000E-01;421;0.0;0.0;0.0;1000.0021;  4.0000001E-01;1.7777272;0;0.0;0.0;0.0;0;-0.0028217621;  1.0000000E+04;  0.0000000E+00;  0.0000000E+00;  1.0000000E+04;  0.0000000E+00;  1.0000000E+04;-0.0029048203;0.0;8.3058163e-05;0.65752846
 -2.0000000E-02;  9.9999998E-03; -1.2000000E-01;422;0.0;0.0;0.0;1000.0021;  4.0000001E-01;1.7777272;0;0.0;0.0;0.0;0;-0.0028718549;  1.0000000E+04;  0.0000000E+00;  0.0000000E+00;  1.0000000E+04;  0.0000000E+00;  1.0000000E+04;-0.0029451926;0.0;7.3337636e-05;0.60984856
 -2.0000000E-02;  9.9999998E-03; -1.0000000E-01;423;0.0;0.0;0.0;1000.0023;  4.0000001E-01;1.8764899;0;0.0;0.0;0.0;0;-0.0029058564;  1.0000000E+04;  0.0000000E+00;  0.0000000E+00;  1.0000000E+04;  0.0000000E+00;  1.0000000E+04;-0.0029692587;0.0;6.3402302e-05;0.55967706
 -2.0000000E-02;  9.9999998E-03; -7.9999998E-02;424;0.0;0.0;0.0;1000.0023;  4.0000001E-01;1.8764899;0;0.0;0.0;0.0;0;-0.0029280786;  1.0000000E+04;  0.0000000E+00;  0.0000000E+00;  1.0000000E+04;  0.0000000E+00;  1.0000000E+04;-0.0029824446;0.0;5.436593e-05;0.51329935
 -2.0000000E-02;  9.9999998E-03; -5.9999999E-02;425;0.0;0.0;0.0;1000.0023;  4.0000001E-01;1.8764899;0;0.0;0.0;0.0;0;-0.0029419872;  1.0000000E+04;  0.0000000E+00;  0.0000000E+00;  1.0000000E+04;  0.0000000E+00;  1.0000000E+04;-0.0029888761;0.0;4.6888734e-05;0.47447267
 -2.0000000E-02;  9.9999998E-03; -3.9999999E-02;426;0.0;0.0;0.0;1000.0023;  4.0000001E-01;1.8764899;0;0.0;0.0;0.0;0;-0.0029501782;  1.0000000E+04;  0.0000000E+00;  0.0000000E+00;  1.0000000E+04;  0.0000000E+00;  1.0000000E+04;-0.0029915217;0.0;4.1343563e-05;0.44540626
 -2.0000000E-02;  9.9999998E-03; -2.0000000E-02;427;0.0;0.0;0.0;1000.0023;  4.0000001E-01;1.8764899;0;0.0;0.0;0.0;0;-0.0029544195;  1.0000000E+04;  0.0000000E+00;  0.0000000E+00;  1.0000000E+04;  0.0000000E+00;  1.0000000E+04;-0.0029923611;0.0;3.7941656e-05;0.42744941
 -2.2000000E-01;  9.9999998E-03;  0.0000000E+00;19;0.0;0.0;0.0;1000.0;  4.0000001E-01;0.0;0;0.0;0.0;0.0;0;0.0;  1.0000000E+04;  0.0000000E+00;  0.0000000E+00;  1.0000000E+04;  0.0000000E+00;  1.0000000E+04;0.0;0.0;0.0;0.0
 -2.2000000E-01;  9.9999998E-03;  2.0000000E-02;20;0.0;0.0;0.0;1000.0;  4.0000001E-01;0.0;0;0.0;0.0;0.0;0;0.0;  1.0000000E+04;  0.0000000E+00;  0.0000000E+00;  1.0000000E+04;  0.0000000E+00;  1.0000000E+04;0.0;0.0;0.0;0.0
 -2.2000000E-01;  9.9999998E-03;  3.9999999E-02;21;0.0;0.0;0.0;1000.0;  4.0000001E-01;0.0;0;0.0;0.0;0.0;0;0.0;  1.0000000E+04;  0.0000000E+00;  0.0000000E+00;  1.0000000E+04;  0.0000000E+00;  1.0000000E+04;0.0;0.0;0.0;0.0
 -2.2000000E-01;  9.9999998E-03;  5.9999999E-02;22;0.0;0.0;0.0;1000.0;  4.0000001E-01;0.0;0;0.0;0.0;0.0;0;0.0;  1.0000000E+04;  0.0000000E+00;  0.0000000E+00;  1.0000000E+04;  0.0000000E+00;  1.0000000E+04;0.0;0.0;0.0;0.0
 -2.2000000E-01;  9.9999998E-03;  7.9999998E-02;23;0.0;0.0;0.0;1000.0;  4.0000001E-01;0.0;0;0.0;0.0;0.0;0;0.0;  1.0000000E+04;  0.0000000E+00;  0.0000000E+00;  1.0000000E+04;  0.0000000E+00;  1.0000000E+04;0.0;0.0;0.0;0.0
 -2.2000000E-01;  9.9999998E-03;  1.0000000E-01;24;0.0;0.0;0.0;1000.0;  4.0000001E-01;0.0;0;0.0;0.0;0.0;0;0.0;  1.0000000E+04;  0.0000000E+00;  0.0000000E+00;  1.0000000E+04;  0.0000000E+00;  1.0000000E+04;0.0;0.0;0.0;0.0
 -2.2000000E-01;  9.9999998E-03;  1.2000000E-01;25;0.0;0.0;0.0;1000.0;  4.0000001E-01;0.0;0;0.0;0.0;0.0;0;0.0;  1.0000000E+04;  0.0000000E+00;  0.0000000E+00;  1.0000000E+04;  0.0000000E+00;  1.0000000E+04;0.0;0.0;0.0;0.0
 -2.2000000E-01;  9.9999998E-03;  1.4000000E-01;26;0.0;0.0;0.0;1000.0;  4.0000001E-01;0.0;0;0.0;0.0;0.0;0;0.0;  1.0000000E+04;  0.0000000E+00;  0.0000000E+00;  1.0000000E+04;  0.0000000E+00;  1.0000000E+04;0.0;0.0;0.0;0.0
 -2.0000000E-01;  9.9999998E-03;  0.0000000E+00;59;0.0;0.0;0.0;1000.0;  4.0000001E-01;0.0;0;0.0;0.0;0.0;0;0.0;  1.0000000E+04;  0.0000000E+00;  0.0000000E+00;  1.0000000E+04;  0.0000000E+00;  1.0000000E+04;0.0;0.0;0.0;0.0
 -2.0000000E-01;  9.9999998E-03;  2.0000000E-02;60;0.0;0.0;0.0;1000.0;  4.0000001E-01;0.0;0;0.0;0.0;0.0;0;0.0;  1.0000000E+04;  0.0000000E+00;  0.0000000E+00;  1.0000000E+04;  0.0000000E+00;  1.0000000E+04;0.0;0.0;0.0;0.0
 -2.0000000E-01;  9.9999998E-03;  3.9999999E-02;61;0.0;0.0;0.0;1000.0;  4.0000001E-01;0.0;0;0.0;0.0;0.0;0;0.0;  1.0000000E+04;  0.0000000E+00;  0.0000000E+00;  1.0000000E+04;  0.0000000E+00;  1.0000000E+04;0.0;0.0;0.0;0.0
 -2.0000000E-01;  9.9999998E-03;  5.9999999E-02;62;0.0;0.0;0.0;1000.0;  4.0000001E-01;0.0;0;0.0;0.0;0.0;0;0.0;  1.0000000E+04;  0.0000000E+00;  0.0000000E+00;  1.0000000E+04;  0.0000000E+00;  1.0000000E+04;0.0;0.0;0.0;0.0
 -2.0000000E-01;  9.9999998E-03;  7.9999998E-02;63;0.0;0.0;0.0;1000.0;  4.0000001E-01;0.0;0;0.0;0.0;0.0;0;0.0;  1.0000000E+04;  0.0000000E+00;  0.0000000E+00;  1.0000000E+04;  0.0000000E+00;  1.0000000E+04;0.0;0.0;0.0;0.0
 -2.0000000E-01;  9.9999998E-03;  1.0000000E-01;64;0.0;0.0;0.0;1000.0;  4.0000001E-01;0.0;0;0.0;0.0;0.0;0;0.0;  1.0000000E+04;  0.0000000E+00;  0.0000000E+00;  1.0000000E+04;  0.0000000E+00;  1.0000000E+04;0.0;0.0;0.0;0.0
 -2.0000000E-01;  9.9999998E-03;  1.2000000E-01;65;0.0;0.0;0.0;1000.0;  4.0000001E-01;0.0;0;0.0;0.0;0.0;0;0.0;  1.0000000E+04;  0.0000000E+00;  0.0000000E+00;  1.0000000E+04;  0.0000000E+00;  1.0000000E+04;0.0;0.0;0.0;0.0
 -2.0000000E-01;  9.9999998E-03;  1.4000000E-01;66;0.0;0.0;0.0;1000.0;  4.0000001E-01;0.0;0;0.0;0.0;0.0;0;0.0;  1.0000000E+04;  0.0000000E+00;  0.0000000E+00;  1.0000000E+04;  0.0000000E+00;  1.0000000E+04;0.0;0.0;0.0;0.0
 -1.8000001E-01;  9.9999998E-03;  0.0000000E+00;100;0.0;0.0;0.0;1000.0;  4.0000001E-01;0.0;0;0.0;0.0;0.0;0;0.0;  1.0000000E+04;  0.0000000E+00;  0.0000000E+00;  1.0000000E+04;  0.0000000E+00;  1.0000000E+04;0.0;0.0;0.0;0.0
 -1.8000001E-01;  9.9999998E-03;  2.0000000E-02;101;0.0;0.0;0.0;1000.0;  4.0000001E-01;0.0;0;0.0;0.0;0.0;0;0.0;  1.0000000E+04;  0.0000000E+00;  0.0000000E+00;  1.0000000E+04;  0.0000000E+00;  1.0000000E+04;0.0;0.0;0.0;0.0
 -1.8000001E-01;  9.9999998E-03;  3.9999999E-02;102;0.0;0.0;0.0;1000.0;  4.0000001E-01;0.0;0;0.0;0.0;0.0;0;0.0;  1.0000000E+04;  0.0000000E+00;  0.0000000E+00;  1.0000000E+04;  0.0000000E+00;  1.0000000E+04;0.0;0.0;0.0;0.0
 -1.8000001E-01;  9.9999998E-03;  5.9999999E-02;103;0.0;0.0;0.0;1000.0;  4.0000001E-01;0.0;0;0.0;0.0;0.0;0;0.0;  1.0000000E+04;  0.0000000E+00;  0.0000000E+00;  1.0000000E+04;  0.0000000E+00;  1.0000000E+04;0.0;0.0;0.0;0.0
 -1.8000001E-01;  9.9999998E-03;  7.9999998E-02;104;0.0;0.0;0.0;1000.0;  4.0000001E-01;0.0;0;0.0;0.0;0.0;0;0.0;  1.0000000E+04;  0.0000000E+00;  0.0000000E+00;  1.0000000E+04;  0.0000000E+00;  1.0000000E+04;0.0;0.0;0.0;0.0
 -1.8000001E-01;  9.9999998E-03;  1.0000000E-01;105;0.0;0.0;0.0;1000.0;  4.0000001E-01;0.0;0;0.0;0.0;0.0;0;0.0;  1.0000000E+04;  0.0000000E+00;  0.0000000E+00;  1.0000000E+04;  0.0000000E+00;  1.0000000E+04;0.0;0.0;0.0;0.0
 -1.8000001E-01;  9.9999998E-03;  1.2000000E-01;106;0.0;0.0;0.0;1000.0;  4.0000001E-01;0.0;0;0.0;0.0;0.0;0;0.0;  1.0000000E+04;  0.0000000E+00;  0.0000000E+00;  1.0000000E+04;  0.0000000E+00;  1.0000000E+04;0.0;0.0;0.0;0.0
 -1.8000001E-01;  9.9999998E-03;  1.4000000E-01;107;0.0;0.0;0.0;1000.0;  4.0000001E-01;0.0;0;0.0;0.0;0.0;0;0.0;  1.0000000E+04;  0.0000000E+00;  0.0000000E+00;  1.0000000E+04;  0.0000000E+00;  1.0000000E+04;0.0;0.0;0.0;0.0
 -1.6000000E-01;  9.9999998E-03;  0.0000000E+00;141;0.0;0.0;0.0;1000.0;  4.0000001E-01;0.0;0;0.0;0.0;0.0;0;-3.7574861e-07;  1.0000000E+04;  0.0000000E+00;  0.0000000E+00;  1.0000000E+04;  0.0000000E+00;  1.0000000E+04;-3.7595501e-07;0.0;2.0638444e-10;2.0694399e-05
 -1.6000000E-01;  9.9999998E-03;  2.0000000E-02;142;0.0;0.0;0.0;1000.0;  4.0000001E-01;0.0;0;0.0;0.0;0.0;0;-3.7569288e-07;  1.0000000E+04;  0.0000000E+00;  0.0000000E+00;  1.0000000E+04;  0.0000000E+00;  1.0000000E+04;-3.7590786e-07;0.0;2.1497243e-10;2.0730857e-05
 -1.6000000E-01;  9.9999998E-03;  3.9999999E-02;143;0.0;0.0;0.0;1000.0;  4.0000001E-01;0.0;0;0.0;0.0;0.0;0;-3.7548341e-07;  1.0000000E+04;  0.0000000E+00;  0.0000000E+00;  1.0000000E+04;  0.0000000E+00;  1.0000000E+04;-3.7572391e-07;0.0;2.4051777e-10;2.0838115e-05
 -1.6000000E-01;  9.9999998E-03;  5.9999999E-02;144;0.0;0.0;0.0;1000.0;  4.0000001E-01;0.0;0;0.0;0.0;0.0;0;-3.7499265e-07;  1.0000000E+04;  0.0000000E+00;  0.0000000E+00;  1.0000000E+04;  0.0000000E+00;  1.0000000E+04;-3.7527471e-07;0.0;2.8204672e-10;2.1001913e-05
 -1.6000000E-01;  9.9999998E-03;  7.9999998E-02;145;0.0;0.0;0.0;1000.0;  4.0000001E-01;0.0;0;0.0;0.0;0.0;0;-3.7399758e-07;  1.0000000E+04;  0.0000000E+00;  0.0000000E+00;  1.0000000E+04;  0.0000000E+00;  1.0000000E+04;-3.7433452e-07;0.0;3.3695252e-10;2.1193491e-05
 -1.6000000E-01;  9.9999998E-03;  1.0000000E-01;146;0.0;0.0;0.0;1000.0;  4.0000001E-01;0.0;0;0.0;0.0;0.0;0;-3.7215528e-07;  1.0000000E+04;  0.0000000E+00;  0.0000000E+00;  1.0000000E+04;  0.0000000E+00;  1.0000000E+04;-3.7256018e-07;0.0;4.0488932e-10;2.1394235e-05
 -1.6000000E-01;  9.9999998E-03;  1.2000000E-01;147;0.0;0.0;0.0;1000.0;  4.0000001E-01;0.0;0;0.0;0.0;0.0;0;-3.6899036e-07;  1.0000000E+04;  0.0000000E+00;  0.0000000E+00;  1.0000000E+04;  0.0000000E+00;  1.0000000E+04;-3.6947463e-07;0.0;4.8429016e-10;2.157589e-05
 -1.6000000E-01;  9.9999998E-03;  1.4000000E-01;148;0.0;0.0;0.0;1000.0;  4.0000001E-01;0.0;0;0.0;0.0;0.0;0;-3.6388025e-07;  1.0000000E+04;  0.0000000E+00;  0.0000000E+00;  1.0000000E+04;  0.0000000E+00;  1.0000000E+04;-3.6445098e-07;0.0;5.7072935e-10;2.1693717e-05
 -1.4000000E-01;  9.9999998E-03;  0.0000000E+00;182;0.0;0.0;0.0;1000.0;  4.0000001E-01;0.0;0;0.0;0.0;0.0;0;-1.3852004e-05;  1.0000000E+04;  0.0000000E+00;  0.0000000E+00;  1.0000000E+04;  0.0000000E+00;  1.0000000E+04;-1.3879433e-05;0.0;2.7429127e-08;0.00090186659
 -1.4000000E-01;  9.9999998E-03;  2.0000000E-02;183;0.0;0.0;0.0;1000.0;  4.0000001E-01;0.0;0;0.0;0.0;0.0;0;-1.3848084e-05;  1.0000000E+04;  0.0000000E+00;  0.0000000E+00;  1.0000000E+04;  0.0000000E+00;  1.0000000E+04;-1.3876577e-05;0.0;2.8493284e-08;0.00090709404
 -1.4000000E-01;  9.9999998E-03;  3.9999999E-02;184;0.0;0.0;0.0;1000.0;  4.0000001E-01;0.0;0;0.0;0.0;0.0;0;-1.3834734e-05;  1.0000000E+04;  0.0000000E+00;  0.0000000E+00;  1.0000000E+04;  0.0000000E+00;  1.0000000E+04;-1.386636e-05;0.0;3.1625753e-08;0.00092227146
 -1.4000000E-01;  9.9999998E-03;  5.9999999E-02;185;0.0;0.0;0.0;1000.0;  4.0000001E-01;0.0;0;0.0;0.0;0.0;0;-1.380704e-05;  1.0000000E+04;  0.0000000E+00;  0.0000000E+00;  1.0000000E+04;  0.0000000E+00;  1.0000000E+04;-1.3843744e-05;0.0;3.6704037e-08;0.00094622618
 -1.4000000E-01;  9.9999998E-03;  7.9999998E-02;186;0.0;0.0;0.0;1000.0;  4.0000001E-01;0.0;0;0.0;0.0;0.0;0;-1.3756344e-05;  1.0000000E+04;  0.0000000E+00;  0.0000000E+00;  1.0000000E+04;  0.0000000E+00;  1.0000000E+04;-1.379991e-05;0.0;4.3565766e-08;0.00097738171
 -1.4000000E-01;  9.9999998E-03;  1.0000000E-01;187;0.0;0.0;0.0;1000.0;  4.0000001E-01;0.0;0;0.0;0.0;0.0;0;-1.3669729e-05;  1.0000000E+04;  0.0000000E+00;  0.0000000E+00;  1.0000000E+04;  0.0000000E+00;  1.0000000E+04;-1.3721719e-05;0.0;5.1990476e-08;0.0010138486
 -1.4000000E-01;  9.9999998E-03;  1.2000000E-01;188;0.0;0.0;0.0;1000.0;  4.0000001E-01;0.0;0;0.0;0.0;0.0;0;-1.3529328e-05;  1.0000000E+04;  0.0000000E+00;  0.0000000E+00;  1.0000000E+04;  0.0000000E+00;  1.0000000E+04;-1.3591063e-05;0.0;6.1734958e-08;0.0010537766
 -1.4000000E-01;  9.9999998E-03;  1.4000000E-01;189;0.0;0.0;0.0;1000.0;  4.0000001E-01;0.0;0;0.0;0.0;0.0;0;-1.3312148e-05;  1.0000000E+04;  0.0000000E+00;  0.0000000E+00;  1.0000000E+04;  0.0000000E+00;  1.0000000E+04;-1.3384451e-05;0.0;7.2302583e-08;0.0010939995
 -1.2000000E-01;  9.9999998E-03;  0.0000000E+00;223;0.0;0.0;0.0;1000.0;  4.0000001E-01;0.0;0;0.0;0.0;0.0;0;-7.7416757e-05;  1.0000000E+04;  0.0000000E+00;  0.0000000E+00;  1.0000000E+04;  0.0000000E+00;  1.0000000E+04;-7.7693941e-05;0.0;2.7718457e-07;0.0059127323
 -1.2000000E-01;  9.9999998E-03;  2.0000000E-02;224;0.0;0.0;0.0;1000.0;  4.0000001E-01;0.0;0;0.0;0.0;0.0;0;-7.73883e-05;  1.0000000E+04;  0.0000000E+00;  0.0000000E+00;  1.0000000E+04;  0.0000000E+00;  1.0000000E+04;-7.7675519e-05;0.0;2.8721675e-07;0.0059629451
 -1.2000000E-01;  9.9999998E-03;  3.9999999E-02;225;0.0;0.0;0.0;1000.0;  4.0000001E-01;0.0;0;0.0;0.0;0.0;0;-7.7293844e-05;  1.0000000E+04;  0.0000000E+00;  0.0000000E+00;  1.0000000E+04;  0.0000000E+00;  1.0000000E+04;-7.7610799e-05;0.0;3.1695643e-07;0.0061103306
 -1.2000000E-01;  9.9999998E-03;  5.9999999E-02;226;0.0;0.0;0.0;1000.0;  4.0000001E-01;0.0;0;0.0;0.0;0.0;0;-7.7105222e-05;  1.0000000E+04;  0.0000000E+00;  0.0000000E+00;  1.0000000E+04;  0.0000000E+00;  1.0000000E+04;-7.7470591e-05;0.0;3.6536872e-07;0.0063458993
 -1.2000000E-01;  9.9999998E-03;  7.9999998E-02;227;0.0;0.0;0.0;1000.0;  4.0000001E-01;0.0;0;0.0;0.0;0.0;0;-7.6773365e-05;  1.0000000E+04;  0.0000000E+00;  0.0000000E+00;  1.0000000E+04;  0.0000000E+00;  1.0000000E+04;-7.7204248e-05;0.0;4.3088554e-07;0.0066569773
 -1.2000000E-01;  9.9999998E-03;  1.0000000E-01;228;0.0;0.0;0.0;1000.0;  4.0000001E-01;0.0;0;0.0;0.0;0.0;0;-7.6225064e-05;  1.0000000E+04;  0.0000000E+00;  0.0000000E+00;  1.0000000E+04;  0.0000000E+00;  1.0000000E+04;-7.6736476e-05;0.0;5.1141228e-07;0.0070286416
 -1.2000000E-01;  9.9999998E-03;  1.2000000E-01;229;0.0;0.0;0.0;1000.0;  4.0000001E-01;0.0;0;0.0;0.0;0.0;0;-7.5360884e-05;  1.0000000E+04;  0.0000000E+00;  0.0000000E+00;  1.0000000E+04;  0.0000000E+00;  1.0000000E+04;-7.5964454e-05;0.0;6.0356774e-07;0.0074401624
 -1.2000000E-01;  9.9999998E-03;  1.4000000E-01;230;0.0;0.0;0.0;1000.0;  4.0000001E-01;0.0;0;0.0;0.0;0.0;0;-7.4054886e-05;  1.0000000E+04;  0.0000000E+00;  0.0000000E+00;  1.0000000E+04;  0.0000000E+00;  1.0000000E+04;-7.4755822e-05;0.0;7.0093762e-07;0.0078545744
 -1.0000000E-01;  9.9999998E-03;  0.0000000E+00;264;0.0;0.0;0.0;1000.0002;  4.0000001E-01;0.19752525;0;0.0;0.0;0.0;0;-0.00024961462;  1.0000000E+04;  0.0000000E+00;  0.0000000E+00;  1.0000000E+04;  0.0000000E+00;  1.0000000E+04;-0.0002509311;0.0;1.3164838e-06;0.022056807
 -1.0000000E-01;  9.9999998E-03;  2.0000000E-02;265;0.0;0.0;0.0;1000.0002;  4.0000001E-01;0.19752525;0;0.0;0.0;0.0;0;-0.00024950813;  1.0000000E+04;  0.0000000E+00;  0.0000000E+00;  1.0000000E+04;  0.0000000E+00;  1.0000000E+04;-0.00025086995;0.0;1.3618395e-06;0.022285881
 -1.0000000E-01;  9.9999998E-03;  3.9999999E-02;266;0.0;0.0;0.0;1000.0002;  4.0000001E-01;0.19752525;0;0.0;0.0;0.0;0;-0.00024915903;  1.0000000E+04;  0.0000000E+00;  0.0000000E+00;  1.0000000E+04;  0.0000000E+00;  1.0000000E+04;-0.00025065549;0.0;1.4964722e-06;0.022960803
 -1.0000000E-01;  9.9999998E-03;  5.9999999E-02;267;0.0;0.0;0.0;1000.0002;  4.0000001E-01;0.19752525;0;0.0;0.0;0.0;0;-0.00024847582;  1.0000000E+04;  0.0000000E+00;  0.0000000E+00;  1.0000000E+04;  0.0000000E+00;  1.0000000E+04;-0.00025019184;0.0;1.7160186e-06;0.024046419
 -1.0000000E-01;  9.9999998E-03;  7.9999998E-02;268;0.0;0.0;0.0;1000.0002;  4.0000001E-01;0.19752525;0;0.0;0.0;0.0;0;-0.00024729886;  1.0000000E+04;  0.0000000E+00;  0.0000000E+00;  1.0000000E+04;  0.0000000E+00;  1.0000000E+04;-0.00024931223;0.0;2.0133759e-06;0.02549069
 -1.0000000E-01;  9.9999998E-03;  1.0000000E-01;269;0.0;0.0;0.0;1000.0002;  4.0000001E-01;0.19752525;0;0.0;0.0;0.0;0;-0.00024539256;  1.0000000E+04;  0.0000000E+00;  0.0000000E+00;  1.0000000E+04;  0.0000000E+00;  1.0000000E+04;-0.00024777022;0.0;2.3776545e-06;0.027223639
 -1.0000000E-01;  9.9999998E-03;  1.2000000E-01;270;0.0;0.0;0.0;1000.0001;  4.0000001E-01;0.098762624;0;0.0;0.0;0.0;0;-0.00024243974;  1.0000000E+04;  0.0000000E+00;  0.0000000E+00;  1.0000000E+04;  0.0000000E+00;  1.0000000E+04;-0.00024522986;0.0;2.7901331e-06;0.029136652
 -1.0000000E-01;  9.9999998E-03;  1.4000000E-01;271;0.0;0.0;0.0;1000.0001;  4.0000001E-01;0.098762624;0;0.0;0.0;0.0;0;-0.0002380433;  1.0000000E+04;  0.0000000E+00;  0.0000000E+00;  1.0000000E+04;  0.0000000E+00;  1.0000000E+04;-0.00024125961;0.0;3.2163036e-06;0.031036202
 -7.9999998E-02;  9.9999998E-03;  0.0000000E+00;305;0.0;0.0;0.0;1000.0005;  4.0000001E-01;0.3950505;0;0.0;0.0;0.0;0;-0.00060170016;  1.0000000E+04;  0.0000000E+00;  0.0000000E+00;  1.0000000E+04;  0.0000000E+00;  1.0000000E+04;-0.00060588849;0.0;4.1883136e-06;0.060459953
 -7.9999998E-02;  9.9999998E-03;  2.0000000E-02;306;0.0;0.0;0.0;1000.0005;  4.0000001E-01;0.3950505;0;0.0;0.0;0.0;0;-0.00060142251;  1.0000000E+04;  0.0000000E+00;  0.0000000E+00;  1.0000000E+04;  0.0000000E+00;  1.0000000E+04;-0.0006057499;0.0;4.3273817e-06;0.061168268
 -7.9999998E-02;  9.9999998E-03;  3.9999999E-02;307;0.0;0.0;0.0;1000.0005;  4.0000001E-01;0.3950505;0;0.0;0.0;0.0;0;-0.00060051808;  1.0000000E+04;  0.0000000E+00;  0.0000000E+00;  1.0000000E+04;  0.0000000E+00;  1.0000000E+04;-0.00060525833;0.0;4.7402536e-06;0.06325873
 -7.9999998E-02;  9.9999998E-03;  5.9999999E-02;308;0.0;0.0;0.0;1000.0004;  4.0000001E-01;0.3950505;0;0.0;0.0;0.0;0;-0.00059876638;  1.0000000E+04;  0.0000000E+00;  0.0000000E+00;  1.0000000E+04;  0.0000000E+00;  1.0000000E+04;-0.00060418021;0.0;5.4138368e-06;0.06663233
 -7.9999998E-02;  9.9999998E-03;  7.9999998E-02;309;0.0;0.0;0.0;1000.0004;  4.0000001E-01;0.3950505;0;0.0;0.0;0.0;0;-0.00059578387;  1.0000000E+04;  0.0000000E+00;  0.0000000E+00;  1.0000000E+04;  0.0000000E+00;  1.0000000E+04;-0.00060210936;0.0;6.3254729e-06;0.071133479
 -7.9999998E-02;  9.9999998E-03;  1.0000000E-01;310;0.0;0.0;0.0;1000.0004;  4.0000001E-01;0.3950505;0;0.0;0.0;0.0;0;-0.00059100706;  1.0000000E+04;  0.0000000E+00;  0.0000000E+00;  1.0000000E+04;  0.0000000E+00;  1.0000000E+04;-0.00059844484;0.0;7.4377995e-06;0.076533295
 -7.9999998E-02;  9.9999998E-03;  1.2000000E-01;311;0.0;0.0;0.0;1000.0004;  4.0000001E-01;0.3950505;0;0.0;0.0;0.0;0;-0.00058368244;  1.0000000E+04;  0.0000000E+00;  0.0000000E+00;  1.0000000E+04;  0.0000000E+00;  1.0000000E+04;-0.00059236714;0.0;8.6847158e-06;0.082455873
 -7.9999998E-02;  9.9999998E-03;  1.4000000E-01;312;0.0;0.0;0.0;1000.0004;  4.0000001E-01;0.29628786;0;0.0;0.0;0.0;0;-0.00057287427;  1.0000000E+04;  0.0000000E+00;  0.0000000E+00;  1.0000000E+04;  0.0000000E+00;  1.0000000E+04;-0.0005828226;0.0;9.9483232e-06;0.088244967
 -5.9999999E-02;  9.9999998E-03;  0.0000000E+00;346;0.0;0.0;0.0;1000.0009;  4.0000001E-01;0.79010099;0;0.0;0.0;0.0;0;-0.001185302;  1.0000000E+04;  0.0000000E+00;  0.0000000E+00;  1.0000000E+04;  0.0000000E+00;  1.0000000E+04;-0.001195588;0.0;1.0286015e-05;0.13409045
 -5.9999999E-02;  9.9999998E-03;  2.0000000E-02;347;0.0;0.0;0.0;1000.0009;  4.0000001E-01;0.79010099;0;0.0;0.0;0.0;0;-0.0011847389;  1.0000000E+04;  0.0000000E+00;  0.0000000E+00;  1.0000000E+04;  0.0000000E+00;  1.0000000E+04;-0.0011953571;0.0;1.0618141e-05;0.13579939
 -5.9999999E-02;  9.9999998E-03;  3.9999999E-02;348;0.0;0.0;0.0;1000.0009;  4.0000001E-01;0.79010099;0;0.0;0.0;0.0;0;-0.0011829106;  1.0000000E+04;  0.0000000E+00;  0.0000000E+00;  1.0000000E+04;  0.0000000E+00;  1.0000000E+04;-0.0011945146;0.0;1.1603928e-05;0.1408468
 -5.9999999E-02;  9.9999998E-03;  5.9999999E-02;349;0.0;0.0;0.0;1000.0009;  4.0000001E-01;0.79010099;0;0.0;0.0;0.0;0;-0.0011793873;  1.0000000E+04;  0.0000000E+00;  0.0000000E+00;  1.0000000E+04;  0.0000000E+00;  1.0000000E+04;-0.0011925992;0.0;1.3211827e-05;0.14900535
 -5.9999999E-02;  9.9999998E-03;  7.9999998E-02;350;0.0;0.0;0.0;1000.0009;  4.0000001E-01;0.79010099;0;0.0;0.0;0.0;0;-0.0011734229;  1.0000000E+04;  0.0000000E+00;  0.0000000E+00;  1.0000000E+04;  0.0000000E+00;  1.0000000E+04;-0.001188808;0.0;1.5385065e-05;0.1599007
 -5.9999999E-02;  9.9999998E-03;  1.0000000E-01;351;0.0;0.0;0.0;1000.0009;  4.0000001E-01;0.79010099;0;0.0;0.0;0.0;0;-0.0011639233;  1.0000000E+04;  0.0000000E+00;  0.0000000E+00;  1.0000000E+04;  0.0000000E+00;  1.0000000E+04;-0.0011819495;0.0;1.802627e-05;0.17295009
 -5.9999999E-02;  9.9999998E-03;  1.2000000E-01;352;0.0;0.0;0.0;1000.0009;  4.0000001E-01;0.79010099;0;0.0;0.0;0.0;0;-0.0011494295;  1.0000000E+04;  0.0000000E+00;  0.0000000E+00;  1.0000000E+04;  0.0000000E+00;  1.0000000E+04;-0.0011703912;0.0;2.0961774e-05;0.18717246
 -5.9999999E-02;  9.9999998E-03;  1.4000000E-01;353;0.0;0.0;0.0;1000.0009;  4.0000001E-01;0.69133836;0;0.0;0.0;0.0;0;-0.0011281363;  1.0000000E+04;  0.0000000E+00;  0.0000000E+00;  1.0000000E+04;  0.0000000E+00;  1.0000000E+04;-0.0011520266;0.0;2.3890263e-05;0.20089103
 -3.9999999E-02;  9.9999998E-03;  0.0000000E+00;387;0.0;0.0;0.0;1000.0016;  4.0000001E-01;1.2839141;0;0.0;0.0;0.0;0;-0.0019959006;  1.0000000E+04;  0.0000000E+00;  0.0000000E+00;  1.0000000E+04;  0.0000000E+00;  1.0000000E+04;-0.0020168389;0.0;2.093812e-05;0.25336918
 -3.9999999E-02;  9.9999998E-03;  2.0000000E-02;388;0.0;0.0;0.0;1000.0016;  4.0000001E-01;1.2839141;0;0.0;0.0;0.0;0;-0.0019949647;  1.0000000E+04;  0.0000000E+00;  0.0000000E+00;  1.0000000E+04;  0.0000000E+00;  1.0000000E+04;-0.0020165648;0.0;2.1600255e-05;0.25682053
 -3.9999999E-02;  9.9999998E-03;  3.9999999E-02;389;0.0;0.0;0.0;1000.0016;  4.0000001E-01;1.2839141;0;0.0;0.0;0.0;0;-0.0019919288;  1.0000000E+04;  0.0000000E+00;  0.0000000E+00;  1.0000000E+04;  0.0000000E+00;  1.0000000E+04;-0.0020154943;0.0;2.3565413e-05;0.26702008
 -3.9999999E-02;  9.9999998E-03;  5.9999999E-02;390;0.0;0.0;0.0;1000.0016;  4.0000001E-01;1.2839141;0;0.0;0.0;0.0;0;-0.0019860854;  1.0000000E+04;  0.0000000E+00;  0.0000000E+00;  1.0000000E+04;  0.0000000E+00;  1.0000000E+04;-0.0020128549;0.0;2.6769521e-05;0.28352031
 -3.9999999E-02;  9.9999998E-03;  7.9999998E-02;391;0.0;0.0;0.0;1000.0016;  4.0000001E-01;1.2839141;0;0.0;0.0;0.0;0;-0.0019762046;  1.0000000E+04;  0.0000000E+00;  0.0000000E+00;  1.0000000E+04;  0.0000000E+00;  1.0000000E+04;-0.0020072991;0.0;3.1094438e-05;0.30555964
 -3.9999999E-02;  9.9999998E-03;  1.0000000E-01;392;0.0;0.0;0.0;1000.0016;  4.0000001E-01;1.2839141;0;0.0;0.0;0.0;0;-0.0019604787;  1.0000000E+04;  0.0000000E+00;  0.0000000E+00;  1.0000000E+04;  0.0000000E+00;  1.0000000E+04;-0.0019968122;0.0;3.6333571e-05;0.33191377
 -3.9999999E-02;  9.9999998E-03;  1.2000000E-01;393;0.0;0.0;0.0;1000.0015;  4.0000001E-01;1.2839141;0;0.0;0.0;0.0;0;-0.0019365082;  1.0000000E+04;  0.0000000E+00;  0.0000000E+00;  1.0000000E+04;  0.0000000E+00;  1.0000000E+04;-0.0019786272;0.0;4.2119002e-05;0.36050272
 -3.9999999E-02;  9.9999998E-03;  1.4000000E-01;394;0.0;0.0;0.0;1000.0015;  4.0000001E-01;1.1851515;0;0.0;0.0;0.0;0;-0.0019013115;  1.0000000E+04;  0.0000000E+00;  0.0000000E+00;  1.0000000E+04;  0.0000000E+00;  1.0000000E+04;-0.0019491357;0.0;4.7824225e-05;0.38782373
 -2.0000000E-02;  9.9999998E-03;  0.0000000E+00;428;0.0;0.0;0.0;1000.0023;  4.0000001E-01;1.8764899;0;0.0;0.0;0.0;0;-0.0029557238;  1.0000000E+04;  0.0000000E+00;  0.0000000E+00;  1.0000000E+04;  0.0000000E+00;  1.0000000E+04;-0.0029925192;0.0;3.679546e-05;0.42137644
 -2.0000000E-02;  9.9999998E-03;  2.0000000E-02;429;0.0;0.0;0.0;1000.0023;  4.0000001E-01;1.8764899;0;0.0;0.0;0.0;0;-0.0029544202;  1.0000000E+04;  0.0000000E+00;  0.0000000E+00;  1.0000000E+04;  0.0000000E+00;  1.0000000E+04;-0.0029923618;0.0;3.7941645e-05;0.42744941
 -2.0000000E-02;  9.9999998E-03;  3.9999999E-02;430;0.0;0.0;0.0;1000.0023;  4.0000001E-01;1.8764899;0;0.0;0.0;0.0;0;-0.0029501787;  1.0000000E+04;  0.0000000E+00;  0.0000000E+00;  1.0000000E+04;  0.0000000E+00;  1.0000000E+04;-0.0029915222;0.0;4.1343592e-05;0.44540635
 -2.0000000E-02;  9.9999998E-03;  5.9999999E-02;431;0.0;0.0;0.0;1000.0023;  4.0000001E-01;1.8764899;0;0.0;0.0;0.0;0;-0.0029419872;  1.0000000E+04;  0.0000000E+00;  0.0000000E+00;  1.0000000E+04;  0.0000000E+00;  1.0000000E+04;-0.0029888761;0.0;4.6888785e-05;0.47447282
 -2.0000000E-02;  9.9999998E-03;  7.9999998E-02;432;0.0;0.0;0.0;1000.0023;  4.0000001E-01;1.8764899;0;0.0;0.0;0.0;0;-0.0029280796;  1.0000000E+04;  0.0000000E+00;  0.0000000E+00;  1.0000000E+04;  0.0000000E+00;  1.0000000E+04;-0.0029824455;0.0;5.4365966e-05;0.51329947
 -2.0000000E-02;  9.9999998E-03;  1.0000000E-01;433;0.0;0.0;0.0;1000.0023;  4.0000001E-01;1.8764899;0;0.0;0.0;0.0;0;-0.0029058566;  1.0000000E+04;  0.0000000E+00;  0.0000000E+00;  1.0000000E+04;  0.0000000E+00;  1.0000000E+04;-0.0029692589;0.0;6.3402331e-05;0.55967718
 -2.0000000E-02;  9.9999998E-03;  1.2000000E-01;434;0.0;0.0;0.0;1000.0021;  4.0000001E-01;1.7777272;0;0.0;0.0;0.0;0;-0.0028718552;  1.0000000E+04;  0.0000000E+00;  0.0000000E+00;  1.0000000E+04;  0.0000000E+00;  1.0000000E+04;-0.0029451929;0.0;7.3337629e-05;0.60984874
 -2.0000000E-02;  9.9999998E-03;  1.4000000E-01;435;0.0;0.0;0.0;1000.0021;  4.0000001E-01;1.7777272;0;0.0;0.0;0.0;0;-0.0028217619;  1.0000000E+04;  0.0000000E+00;  0.0000000E+00;  1.0000000E+04;  0.0000000E+00;  1.0000000E+04;-0.00290482;0.0;8.3058192e-05;0.65752858
 -2.2000000E-01;  9.9999998E-03;  1.6000000E-01;27;0.0;0.0;0.0;1000.0;  4.0000001E-01;0.0;0;0.0;0.0;0.0;0;0.0;  1.0000000E+04;  0.0000000E+00;  0.0000000E+00;  1.0000000E+04;  0.0000000E+00;  1.0000000E+04;0.0;0.0;0.0;0.0
 -2.2000000E-01;  9.9999998E-03;  1.8000001E-01;28;0.0;0.0;0.0;1000.0;  4.0000001E-01;0.0;0;0.0;0.0;0.0;0;0.0;  1.0000000E+04;  0.0000000E+00;  0.0000000E+00;  1.0000000E+04;  0.0000000E+00;  1.0000000E+04;0.0;0.0;0.0;0.0
 -2.2000000E-01;  9.9999998E-03;  2.0000000E-01;29;0.0;0.0;0.0;1000.0;  4.0000001E-01;0.0;0;0.0;0.0;0.0;0;0.0;  1.0000000E+04;  0.0000000E+00;  0.0000000E+00;  1.0000000E+04;  0.0000000E+00;  1.0000000E+04;0.0;0.0;0.0;0.0
 -2.2000000E-01;  9.9999998E-03;  2.2000000E-01;30;0.0;0.0;0.0;1000.0;  4.0000001E-01;0.0;0;0.0;0.0;0.0;0;0.0;  1.0000000E+04;  0.0000000E+00;  0.0000000E+00;  1.0000000E+04;  0.0000000E+00;  1.0000000E+04;0.0;0.0;0.0;0.0
 -2.2000000E-01;  9.9999998E-03;  2.3999999E-01;31;0.0;0.0;0.0;1000.0;  4.0000001E-01;0.0;0;0.0;0.0;0.0;0;0.0;  1.0000000E+04;  0.0000000E+00;  0.0000000E+00;  1.0000000E+04;  0.0000000E+00;  1.0000000E+04;0.0;0.0;0.0;0.0
 -2.2000000E-01;  9.9999998E-03;  2.5999999E-01;32;0.0;0.0;0.0;1000.0;  4.0000001E-01;0.0;0;0.0;0.0;0.0;0;0.0;  1.0000000E+04;  0.0000000E+00;  0.0000000E+00;  1.0000000E+04;  0.0000000E+00;  1.0000000E+04;0.0;0.0;0.0;0.0
 -2.2000000E-01;  9.9999998E-03;  2.8000000E-01;33;0.0;0.0;0.0;1000.0;  4.0000001E-01;0.0;0;0.0;0.0;0.0;0;0.0;  1.0000000E+04;  0.0000000E+00;  0.0000000E+00;  1.0000000E+04;  0.0000000E+00;  1.0000000E+04;0.0;0.0;0.0;0.0
 -2.2000000E-01;  9.9999998E-03;  3.0000001E-01;34;0.0;0.0;0.0;1000.0;  4.0000001E-01;0.0;0;0.0;0.0;0.0;0;0.0;  1.0000000E+04;  0.0000000E+00;  0.0000000E+00;  1.0000000E+04;  0.0000000E+00;  1.0000000E+04;0.0;0.0;0.0;0.0
 -2.2000000E-01;  9.9999998E-03;  3.1999999E-01;35;0.0;0.0;0.0;1000.0;  4.0000001E-01;0.0;0;0.0;0.0;0.0;0;0.0;  1.0000000E+04;  0.0000000E+00;  0.0000000E+00;  1.0000000E+04;  0.0000000E+00;  1.0000000E+04;0.0;0.0;0.0;0.0
 -2.0000000E-01;  9.9999998E-03;  1.6000000E-01;67;0.0;0.0;0.0;1000.0;  4.0000001E-01;0.0;0;0.0;0.0;0.0;0;0.0;  1.0000000E+04;  0.0000000E+00;  0.0000000E+00;  1.0000000E+04;  0.0000000E+00;  1.0000000E+04;0.0;0.0;0.0;0.0
 -2.0000000E-01;  9.9999998E-03;  1.8000001E-01;68;0.0;0.0;0.0;1000.0;  4.0000001E-01;0.0;0;0.0;0.0;0.0;0;0.0;  1.0000000E+04;  0.0000000E+00;  0.0000000E+00;  1.0000000E+04;  0.0000000E+00;  1.0000000E+04;0.0;0.0;0.0;0.0
 -2.0000000E-01;  9.9999998E-03;  2.0000000E-01;69;0.0;0.0;0.0;1000.0;  4.0000001E-01;0.0;0;0.0;0.0;0.0;0;0.0;  1.0000000E+04;  0.0000000E+00;  0.0000000E+00;  1.0000000E+04;  0.0000000E+00;  1.0000000E+04;0.0;0.0;0.0;0.0
 -2.0000000E-01;  9.9999998E-03;  2.2000000E-01;70;0.0;0.0;0.0;1000.0;  4.0000001E-01;0.0;0;0.0;0.0;0.0;0;0.0;  1.0000000E+04;  0.0000000E+00;  0.0000000E+00;  1.0000000E+04;  0.0000000E+00;  1.0000000E+04;0.0;0.0;0.0;0.0
 -2.0000000E-01;  9.9999998E-03;  2.3999999E-01;71;0.0;0.0;0.0;1000.0;  4.0000001E-01;0.0;0;0.0;0.0;0.0;0;0.0;  1.0000000E+04;  0.0000000E+00;  0.0000000E+00;  1.0000000E+04;  0.0000000E+00;  1.0000000E+04;0.0;0.0;0.0;0.0
 -2.0000000E-01;  9.9999998E-03;  2.5999999E-01;72;0.0;0.0;0.0;1000.0;  4.0000001E-01;0.0;0;0.0;0.0;0.0;0;0.0;  1.0000000E+04;  0.0000000E+00;  0.0000000E+00;  1.0000000E+04;  0.0000000E+00;  1.0000000E+04;0.0;0.0;0.0;0.0
 -2.0000000E-01;  9.9999998E-03;  2.8000000E-01;73;0.0;0.0;0.0;1000.0;  4.0000001E-01;0.0;0;0.0;0.0;0.0;0;0.0;  1.0000000E+04;  0.0000000E+00;  0.0000000E+00;  1.0000000E+04;  0.0000000E+00;  1.0000000E+04;0.0;0.0;0.0;0.0
 -2.0000000E-01;  9.9999998E-03;  3.0000001E-01;74;0.0;0.0;0.0;1000.0;  4.0000001E-01;0.0;0;0.0;0.0;0.0;0;0.0;  1.0000000E+04;  0.0000000E+00;  0.0000000E+00;  1.0000000E+04;  0.0000000E+00;  1.0000000E+04;0.0;0.0;0.0;0.0
 -2.0000000E-01;  9.9999998E-03;  3.1999999E-01;75;0.0;0.0;0.0;1000.0;  4.0000001E-01;0.0;0;0.0;0.0;0.0;0;0.0;  1.0000000E+04;  0.0000000E+00;  0.0000000E+00;  1.0000000E+04;  0.0000000E+00;  1.0000000E+04;0.0;0.0;0.0;0.0
 -1.8000001E-01;  9.9999998E-03;  1.6000000E-01;108;0.0;0.0;0.0;1000.0;  4.0000001E-01;0.0;0;0.0;0.0;0.0;0;0.0;  1.0000000E+04;  0.0000000E+00;  0.0000000E+00;  1.0000000E+04;  0.0000000E+00;  1.0000000E+04;0.0;0.0;0.0;0.0
 -1.8000001E-01;  9.9999998E-03;  1.8000001E-01;109;0.0;0.0;0.0;1000.0;  4.0000001E-01;0.0;0;0.0;0.0;0.0;0;0.0;  1.0000000E+04;  0.0000000E+00;  0.0000000E+00;  1.0000000E+04;  0.0000000E+00;  1.0000000E+04;0.0;0.0;0.0;0.0
 -1.8000001E-01;  9.9999998E-03;  2.0000000E-01;110;0.0;0.0;0.0;1000.0;  4.0000001E-01;0.0;0;0.0;0.0;0.0;0;0.0;  1.0000000E+04;  0.0000000E+00;  0.0000000E+00;  1.0000000E+04;  0.0000000E+00;  1.0000000E+04;0.0;0.0;0.0;0.0
 -1.8000001E-01;  9.9999998E-03;  2.2000000E-01;111;0.0;0.0;0.0;1000.0;  4.0000001E-01;0.0;0;0.0;0.0;0.0;0;0.0;  1.0000000E+04;  0.0000000E+00;  0.0000000E+00;  1.0000000E+04;  0.0000000E+00;  1.0000000E+04;0.0;0.0;0.0;0.0
 -1.8000001E-01;  9.9999998E-03;  2.3999999E-01;112;0.0;0.0;0.0;1000.0;  4.0000001E-01;0.0;0;0.0;0.0;0.0;0;0.0;  1.0000000E+04;  0.0000000E+00;  0.0000000E+00;  1.0000000E+04;  0.0000000E+00;  1.0000000E+04;0.0;0.0;0.0;0.0
 -1.8000001E-01;  9.9999998E-03;  2.5999999E-01;113;0.0;0.0;0.0;1000.0;  4.0000001E-01;0.0;0;0.0;0.0;0.0;0;0.0;  1.0000000E+04;  0.0000000E+00;  0.0000000E+00;  1.0000000E+04;  0.0000000E+00;  1.0000000E+04;0.0;0.0;0.0;0.0
 -1.8000001E-01;  9.9999998E-03;  2.8000000E-01;114;0.0;0.0;0.0;1000.0;  4.0000001E-01;0.0;0;0.0;0.0;0.0;0;0.0;  1.0000000E+04;  0.0000000E+00;  0.0000000E+00;  1.0000000E+04;  0.0000000E+00;  1.0000000E+04;0.0;0.0;0.0;0.0
 -1.8000001E-01;  9.9999998E-03;  3.0000001E-01;115;0.0;0.0;0.0;1000.0;  4.0000001E-01;0.0;0;0.0;0.0;0.0;0;0.0;  1.0000000E+04;  0.0000000E+00;  0.0000000E+00;  1.0000000E+04;  0.0000000E+00;  1.0000000E+04;0.0;0.0;0.0;0.0
 -1.8000001E-01;  9.9999998E-03;  3.1999999E-01;116;0.0;0.0;0.0;1000.0;  4.0000001E-01;0.0;0;0.0;0.0;0.0;0;0.0;  1.0000000E+04;  0.0000000E+00;  0.0000000E+00;  1.0000000E+04;  0.0000000E+00;  1.0000000E+04;0.0;0.0;0.0;0.0
 -1.6000000E-01;  9.9999998E-03;  1.6000000E-01;149;0.0;0.0;0.0;1000.0;  4.0000001E-01;0.0;0;0.0;0.0;0.0;0;-3.5602858e-07;  1.0000000E+04;  0.0000000E+00;  0.0000000E+00;  1.0000000E+04;  0.0000000E+00;  1.0000000E+04;-3.5669123e-07;0.0;6.6266603e-10;2.171167e-05
 -1.6000000E-01;  9.9999998E-03;  1.8000001E-01;150;0.0;0.0;0.0;1000.0;  4.0000001E-01;0.0;0;0.0;0.0;0.0;0;-3.4450835e-07;  1.0000000E+04;  0.0000000E+00;  0.0000000E+00;  1.0000000E+04;  0.0000000E+00;  1.0000000E+04;-3.4525183e-07;0.0;7.4347145e-10;2.1498439e-05
 -1.6000000E-01;  9.9999998E-03;  2.0000000E-01;151;0.0;0.0;0.0;1000.0;  4.0000001E-01;0.0;0;0.0;0.0;0.0;0;-3.2832125e-07;  1.0000000E+04;  0.0000000E+00;  0.0000000E+00;  1.0000000E+04;  0.0000000E+00;  1.0000000E+04;-3.291068e-07;0.0;7.8555634e-10;2.0851918e-05
 -1.6000000E-01;  9.9999998E-03;  2.2000000E-01;152;0.0;0.0;0.0;1000.0;  4.0000001E-01;0.0;0;0.0;0.0;0.0;0;-3.0647931e-07;  1.0000000E+04;  0.0000000E+00;  0.0000000E+00;  1.0000000E+04;  0.0000000E+00;  1.0000000E+04;-3.072422e-07;0.0;7.6289475e-10;1.9583962e-05
 -1.6000000E-01;  9.9999998E-03;  2.3999999E-01;153;0.0;0.0;0.0;1000.0;  4.0000001E-01;0.0;0;0.0;0.0;0.0;0;-2.7812843e-07;  1.0000000E+04;  0.0000000E+00;  0.0000000E+00;  1.0000000E+04;  0.0000000E+00;  1.0000000E+04;-2.7877797e-07;0.0;6.4955308e-10;1.7516815e-05
 -1.6000000E-01;  9.9999998E-03;  2.5999999E-01;154;0.0;0.0;0.0;1000.0;  4.0000001E-01;0.0;0;0.0;0.0;0.0;0;-2.3641326e-07;  1.0000000E+04;  0.0000000E+00;  0.0000000E+00;  1.0000000E+04;  0.0000000E+00;  1.0000000E+04;-2.3611962e-07;0.0;-2.9364222e-10;9.9691506e-06
 -1.6000000E-01;  9.9999998E-03;  2.8000000E-01;155;0.0;0.0;0.0;1000.0;  4.0000001E-01;0.0;0;0.0;0.0;0.0;0;-1.5914168e-07;  1.0000000E+04;  0.0000000E+00;  0.0000000E+00;  1.0000000E+04;  0.0000000E+00;  1.0000000E+04;-1.5656423e-07;0.0;-2.5774543e-09;7.9491783e-06
 -1.6000000E-01;  9.9999998E-03;  3.0000001E-01;156;0.0;0.0;0.0;1000.0;  4.0000001E-01;0.0;0;0.0;0.0;0.0;0;-6.7569779e-08;  1.0000000E+04;  0.0000000E+00;  0.0000000E+00;  1.0000000E+04;  0.0000000E+00;  1.0000000E+04;-6.471641e-08;0.0;-2.8533722e-09;1.3980162e-05
 -1.6000000E-01;  9.9999998E-03;  3.1999999E-01;157;0.0;0.0;0.0;1000.0;  4.0000001E-01;0.0;0;0.0;0.0;0.0;0;-1.0638787e-08;  1.0000000E+04;  0.0000000E+00;  0.0000000E+00;  1.0000000E+04;  0.0000000E+00;  1.0000000E+04;-9.7942037e-09;0.0;-8.445829e-10;4.4916401e-06
 -1.4000000E-01;  9.9999998E-03;  1.6000000E-01;190;0.0;0.0;0.0;1000.0;  4.0000001E-01;0.0;0;0.0;0.0;0.0;0;-1.2990402e-05;  1.0000000E+04;  0.0000000E+00;  0.0000000E+00;  1.0000000E+04;  0.0000000E+00;  1.0000000E+04;-1.3073026e-05;0.0;8.2623878e-08;0.001127949
 -1.4000000E-01;  9.9999998E-03;  1.8000001E-01;191;0.0;0.0;0.0;1000.0;  4.0000001E-01;0.0;0;0.0;0.0;0.0;0;-1.2532821e-05;  1.0000000E+04;  0.0000000E+00;  0.0000000E+00;  1.0000000E+04;  0.0000000E+00;  1.0000000E+04;-1.2623567e-05;0.0;9.0747029e-08;0.0011437781
 -1.4000000E-01;  9.9999998E-03;  2.0000000E-01;192;0.0;0.0;0.0;1000.0;  4.0000001E-01;0.0;0;0.0;0.0;0.0;0;-1.1906591e-05;  1.0000000E+04;  0.0000000E+00;  0.0000000E+00;  1.0000000E+04;  0.0000000E+00;  1.0000000E+04;-1.200054e-05;0.0;9.3949417e-08;0.0011251241
 -1.4000000E-01;  9.9999998E-03;  2.2000000E-01;193;0.0;0.0;0.0;1000.0;  4.0000001E-01;0.0;0;0.0;0.0;0.0;0;-1.105918e-05;  1.0000000E+04;  0.0000000E+00;  0.0000000E+00;  1.0000000E+04;  0.0000000E+00;  1.0000000E+04;-1.114054e-05;0.0;8.135946e-08;0.0010067605
 -1.4000000E-01;  9.9999998E-03;  2.3999999E-01;194;0.0;0.0;0.0;1000.0;  4.0000001E-01;0.0;0;0.0;0.0;0.0;0;-9.8105857e-06;  1.0000000E+04;  0.0000000E+00;  0.0000000E+00;  1.0000000E+04;  0.0000000E+00;  1.0000000E+04;-9.8272067e-06;0.0;1.6621049e-08;0.00056622515
 -1.4000000E-01;  9.9999998E-03;  2.5999999E-01;195;0.0;0.0;0.0;1000.0;  4.0000001E-01;0.0;0;0.0;0.0;0.0;0;-8.0206446e-06;  1.0000000E+04;  0.0000000E+00;  0.0000000E+00;  1.0000000E+04;  0.0000000E+00;  1.0000000E+04;-7.9264837e-06;0.0;-9.4160903e-08;0.0001689666
 -1.4000000E-01;  9.9999998E-03;  2.8000000E-01;196;0.0;0.0;0.0;1000.0;  4.0000001E-01;0.0;0;0.0;0.0;0.0;0;-5.7990887e-06;  1.0000000E+04;  0.0000000E+00;  0.0000000E+00;  1.0000000E+04;  0.0000000E+00;  1.0000000E+04;-5.6074364e-06;0.0;-1.9165215e-07;0.00084935006
 -1.4000000E-01;  9.9999998E-03;  3.0000001E-01;197;0.0;0.0;0.0;1000.0;  4.0000001E-01;0.0;0;0.0;0.0;0.0;0;-3.5208968e-06;  1.0000000E+04;  0.0000000E+00;  0.0000000E+00;  1.0000000E+04;  0.0000000E+00;  1.0000000E+04;-3.2996436e-06;0.0;-2.2125323e-07;0.001142221
 -1.4000000E-01;  9.9999998E-03;  3.1999999E-01;198;0.0;0.0;0.0;1000.0;  4.0000001E-01;0.0;0;0.0;0.0;0.0;0;-1.658127e-06;  1.0000000E+04;  0.0000000E+00;  0.0000000E+00;  1.0000000E+04;  0.0000000E+00;  1.0000000E+04;-1.4872819e-06;0.0;-1.7084508e-07;0.00093737652
 -1.2000000E-01;  9.9999998E-03;  1.6000000E-01;231;0.0;0.0;0.0;1000.0;  4.0000001E-01;0.0;0;0.0;0.0;0.0;0;-7.2157745e-05;  1.0000000E+04;  0.0000000E+00;  0.0000000E+00;  1.0000000E+04;  0.0000000E+00;  1.0000000E+04;-7.2949391e-05;0.0;7.9164533e-07;0.0082039274
 -1.2000000E-01;  9.9999998E-03;  1.8000001E-01;232;0.0;0.0;0.0;1000.0;  4.0000001E-01;0.0;0;0.0;0.0;0.0;0;-6.9504531e-05;  1.0000000E+04;  0.0000000E+00;  0.0000000E+00;  1.0000000E+04;  0.0000000E+00;  1.0000000E+04;-7.0361137e-05;0.0;8.5660781e-07;0.0083787385
 -1.2000000E-01;  9.9999998E-03;  2.0000000E-01;233;0.0;0.0;0.0;1000.0;  4.0000001E-01;0.0;0;0.0;0.0;0.0;0;-6.5869732e-05;  1.0000000E+04;  0.0000000E+00;  0.0000000E+00;  1.0000000E+04;  0.0000000E+00;  1.0000000E+04;-6.6701868e-05;0.0;8.321361e-07;0.0080048218
 -1.2000000E-01;  9.9999998E-03;  2.2000000E-01;234;0.0;0.0;0.0;1000.0;  4.0000001E-01;0.0;0;0.0;0.0;0.0;0;-6.0805021e-05;  1.0000000E+04;  0.0000000E+00;  0.0000000E+00;  1.0000000E+04;  0.0000000E+00;  1.0000000E+04;-6.1371618e-05;0.0;5.6659616e-07;0.0061756121
 -1.2000000E-01;  9.9999998E-03;  2.3999999E-01;235;0.0;0.0;0.0;1000.0;  4.0000001E-01;0.0;0;0.0;0.0;0.0;0;-5.3841566e-05;  1.0000000E+04;  0.0000000E+00;  0.0000000E+00;  1.0000000E+04;  0.0000000E+00;  1.0000000E+04;-5.3845346e-05;0.0;3.7810972e-09;0.0025336603
 -1.2000000E-01;  9.9999998E-03;  2.5999999E-01;236;0.0;0.0;0.0;1000.0;  4.0000001E-01;0.0;0;0.0;0.0;0.0;0;-4.4774239e-05;  1.0000000E+04;  0.0000000E+00;  0.0000000E+00;  1.0000000E+04;  0.0000000E+00;  1.0000000E+04;-4.4027533e-05;0.0;-7.4670561e-07;0.0023024809
 -1.2000000E-01;  9.9999998E-03;  2.8000000E-01;237;0.0;0.0;0.0;1000.0;  4.0000001E-01;0.0;0;0.0;0.0;0.0;0;-3.4075889e-05;  1.0000000E+04;  0.0000000E+00;  0.0000000E+00;  1.0000000E+04;  0.0000000E+00;  1.0000000E+04;-3.2663993e-05;0.0;-1.4118953e-06;0.0067190407
 -1.2000000E-01;  9.9999998E-03;  3.0000001E-01;238;0.0;0.0;0.0;1000.0;  4.0000001E-01;0.0;0;0.0;0.0;0.0;0;-2.3077611e-05;  1.0000000E+04;  0.0000000E+00;  0.0000000E+00;  1.0000000E+04;  0.0000000E+00;  1.0000000E+04;-2.1340456e-05;0.0;-1.7371557e-06;0.0091677681
 -1.2000000E-01;  9.9999998E-03;  3.1999999E-01;239;0.0;0.0;0.0;1000.0;  4.0000001E-01;0.0;0;0.0;0.0;0.0;0;-1.3451483e-05;  1.0000000E+04;  0.0000000E+00;  0.0000000E+00;  1.0000000E+04;  0.0000000E+00;  1.0000000E+04;-1.1828569e-05;0.0;-1.6229142e-06;0.0089791212
 -1.0000000E-01;  9.9999998E-03;  1.6000000E-01;272;0.0;0.0;0.0;1000.0001;  4.0000001E-01;0.098762624;0;0.0;0.0;0.0;0;-0.00023173864;  1.0000000E+04;  0.0000000E+00;  0.0000000E+00;  1.0000000E+04;  0.0000000E+00;  1.0000000E+04;-0.00023533552;0.0;3.5968912e-06;0.032590125
 -1.0000000E-01;  9.9999998E-03;  1.8000001E-01;273;0.0;0.0;0.0;1000.0001;  4.0000001E-01;0.098762624;0;0.0;0.0;0.0;0;-0.00022298655;  1.0000000E+04;  0.0000000E+00;  0.0000000E+00;  1.0000000E+04;  0.0000000E+00;  1.0000000E+04;-0.00022678381;0.0;3.7972602e-06;0.033026535
 -1.0000000E-01;  9.9999998E-03;  2.0000000E-01;274;0.0;0.0;0.0;1000.0001;  4.0000001E-01;0.098762624;0;0.0;0.0;0.0;0;-0.00021099453;  1.0000000E+04;  0.0000000E+00;  0.0000000E+00;  1.0000000E+04;  0.0000000E+00;  1.0000000E+04;-0.0002144522;0.0;3.4576617e-06;0.030231792
 -1.0000000E-01;  9.9999998E-03;  2.2000000E-01;275;0.0;0.0;0.0;1000.0001;  4.0000001E-01;0.098762624;0;0.0;0.0;0.0;0;-0.00019475514;  1.0000000E+04;  0.0000000E+00;  0.0000000E+00;  1.0000000E+04;  0.0000000E+00;  1.0000000E+04;-0.00019697958;0.0;2.2244471e-06;0.022087168
 -1.0000000E-01;  9.9999998E-03;  2.3999999E-01;276;0.0;0.0;0.0;1000.0001;  4.0000001E-01;0.098762624;0;0.0;0.0;0.0;0;-0.00017328867;  1.0000000E+04;  0.0000000E+00;  0.0000000E+00;  1.0000000E+04;  0.0000000E+00;  1.0000000E+04;-0.00017326325;0.0;-2.542755e-08;0.0077843238
 -1.0000000E-01;  9.9999998E-03;  2.5999999E-01;277;0.0;0.0;0.0;1000.0001;  4.0000001E-01;0.098762624;0;0.0;0.0;0.0;0;-0.00014619509;  1.0000000E+04;  0.0000000E+00;  0.0000000E+00;  1.0000000E+04;  0.0000000E+00;  1.0000000E+04;-0.00014329675;0.0;-2.8983334e-06;0.01043974
 -1.0000000E-01;  9.9999998E-03;  2.8000000E-01;278;0.0;0.0;0.0;1000.0;  4.0000001E-01;0.0;0;0.0;0.0;0.0;0;-0.00011462418;  1.0000000E+04;  0.0000000E+00;  0.0000000E+00;  1.0000000E+04;  0.0000000E+00;  1.0000000E+04;-0.00010911447;0.0;-5.5097212e-06;0.027352726
 -1.0000000E-01;  9.9999998E-03;  3.0000001E-01;279;0.0;0.0;0.0;1000.0;  4.0000001E-01;0.0;0;0.0;0.0;0.0;0;-8.1895821e-05;  1.0000000E+04;  0.0000000E+00;  0.0000000E+00;  1.0000000E+04;  0.0000000E+00;  1.0000000E+04;-7.4850272e-05;0.0;-7.045548e-06;0.03798832
 -1.0000000E-01;  9.9999998E-03;  3.1999999E-01;280;0.0;0.0;0.0;1000.0;  4.0000001E-01;0.0;0;0.0;0.0;0.0;0;-5.2383053e-05;  1.0000000E+04;  0.0000000E+00;  0.0000000E+00;  1.0000000E+04;  0.0000000E+00;  1.0000000E+04;-4.5235443e-05;0.0;-7.1476115e-06;0.039997172
 -7.9999998E-02;  9.9999998E-03;  1.6000000E-01;313;0.0;0.0;0.0;1000.0004;  4.0000001E-01;0.29628786;0;0.0;0.0;0.0;0;-0.00055749126;  1.0000000E+04;  0.0000000E+00;  0.0000000E+00;  1.0000000E+04;  0.0000000E+00;  1.0000000E+04;-0.00056851364;0.0;1.1022366e-05;0.092746697
 -7.9999998E-02;  9.9999998E-03;  1.8000001E-01;314;0.0;0.0;0.0;1000.0004;  4.0000001E-01;0.29628786;0;0.0;0.0;0.0;0;-0.00053624023;  1.0000000E+04;  0.0000000E+00;  0.0000000E+00;  1.0000000E+04;  0.0000000E+00;  1.0000000E+04;-0.0005476012;0.0;1.1360959e-05;0.092810944
 -7.9999998E-02;  9.9999998E-03;  2.0000000E-01;315;0.0;0.0;0.0;1000.0004;  4.0000001E-01;0.29628786;0;0.0;0.0;0.0;0;-0.00050750608;  1.0000000E+04;  0.0000000E+00;  0.0000000E+00;  1.0000000E+04;  0.0000000E+00;  1.0000000E+04;-0.00051763438;0.0;1.0128314e-05;0.08352717
 -7.9999998E-02;  9.9999998E-03;  2.2000000E-01;316;0.0;0.0;0.0;1000.0003;  4.0000001E-01;0.29628786;0;0.0;0.0;0.0;0;-0.00046937395;  1.0000000E+04;  0.0000000E+00;  0.0000000E+00;  1.0000000E+04;  0.0000000E+00;  1.0000000E+04;-0.00047582816;0.0;6.4542087e-06;0.059654307
 -7.9999998E-02;  9.9999998E-03;  2.3999999E-01;317;0.0;0.0;0.0;1000.0003;  4.0000001E-01;0.29628786;0;0.0;0.0;0.0;0;-0.00041990026;  1.0000000E+04;  0.0000000E+00;  0.0000000E+00;  1.0000000E+04;  0.0000000E+00;  1.0000000E+04;-0.00041997086;0.0;7.0592961e-08;0.019377744
 -7.9999998E-02;  9.9999998E-03;  2.5999999E-01;318;0.0;0.0;0.0;1000.0002;  4.0000001E-01;0.19752525;0;0.0;0.0;0.0;0;-0.00035815357;  1.0000000E+04;  0.0000000E+00;  0.0000000E+00;  1.0000000E+04;  0.0000000E+00;  1.0000000E+04;-0.00035018771;0.0;-7.9658748e-06;0.03125871
 -7.9999998E-02;  9.9999998E-03;  2.8000000E-01;319;0.0;0.0;0.0;1000.0002;  4.0000001E-01;0.19752525;0;0.0;0.0;0.0;0;-0.00028624939;  1.0000000E+04;  0.0000000E+00;  0.0000000E+00;  1.0000000E+04;  0.0000000E+00;  1.0000000E+04;-0.00027084028;0.0;-1.5409096e-05;0.078918181
 -7.9999998E-02;  9.9999998E-03;  3.0000001E-01;320;0.0;0.0;0.0;1000.0001;  4.0000001E-01;0.098762624;0;0.0;0.0;0.0;0;-0.0002110335;  1.0000000E+04;  0.0000000E+00;  0.0000000E+00;  1.0000000E+04;  0.0000000E+00;  1.0000000E+04;-0.00019082875;0.0;-2.0204756e-05;0.11104818
 -7.9999998E-02;  9.9999998E-03;  3.1999999E-01;321;0.0;0.0;0.0;1000.0001;  4.0000001E-01;0.098762624;0;0.0;0.0;0.0;0;-0.000141941;  1.0000000E+04;  0.0000000E+00;  0.0000000E+00;  1.0000000E+04;  0.0000000E+00;  1.0000000E+04;-0.00012053258;0.0;-2.1408412e-05;0.1214786
 -5.9999999E-02;  9.9999998E-03;  1.6000000E-01;354;0.0;0.0;0.0;1000.0008;  4.0000001E-01;0.69133836;0;0.0;0.0;0.0;0;-0.0010979545;  1.0000000E+04;  0.0000000E+00;  0.0000000E+00;  1.0000000E+04;  0.0000000E+00;  1.0000000E+04;-0.0011241809;0.0;2.6226362e-05;0.21080247
 -5.9999999E-02;  9.9999998E-03;  1.8000001E-01;355;0.0;0.0;0.0;1000.0007;  4.0000001E-01;0.59257573;0;0.0;0.0;0.0;0;-0.0010565239;  1.0000000E+04;  0.0000000E+00;  0.0000000E+00;  1.0000000E+04;  0.0000000E+00;  1.0000000E+04;-0.0010832769;0.0;2.67531e-05;0.20987137
 -5.9999999E-02;  9.9999998E-03;  2.0000000E-01;356;0.0;0.0;0.0;1000.0007;  4.0000001E-01;0.59257573;0;0.0;0.0;0.0;0;-0.0010011388;  1.0000000E+04;  0.0000000E+00;  0.0000000E+00;  1.0000000E+04;  0.0000000E+00;  1.0000000E+04;-0.0010248417;0.0;2.3702885e-05;0.18766175
 -5.9999999E-02;  9.9999998E-03;  2.2000000E-01;357;0.0;0.0;0.0;1000.0007;  4.0000001E-01;0.59257573;0;0.0;0.0;0.0;0;-0.00092854962;  1.0000000E+04;  0.0000000E+00;  0.0000000E+00;  1.0000000E+04;  0.0000000E+00;  1.0000000E+04;-0.00094374444;0.0;1.5194798e-05;0.13274436
 -5.9999999E-02;  9.9999998E-03;  2.3999999E-01;358;0.0;0.0;0.0;1000.0007;  4.0000001E-01;0.59257573;0;0.0;0.0;0.0;0;-0.00083521707;  1.0000000E+04;  0.0000000E+00;  0.0000000E+00;  1.0000000E+04;  0.0000000E+00;  1.0000000E+04;-0.00083592255;0.0;7.0546224e-07;0.041488249
 -5.9999999E-02;  9.9999998E-03;  2.5999999E-01;359;0.0;0.0;0.0;1000.0005;  4.0000001E-01;0.3950505;0;0.0;0.0;0.0;0;-0.00071896991;  1.0000000E+04;  0.0000000E+00;  0.0000000E+00;  1.0000000E+04;  0.0000000E+00;  1.0000000E+04;-0.00070144661;0.0;-1.7523294e-05;0.073192433
 -5.9999999E-02;  9.9999998E-03;  2.8000000E-01;360;0.0;0.0;0.0;1000.0004;  4.0000001E-01;0.3950505;0;0.0;0.0;0.0;0;-0.00058274105;  1.0000000E+04;  0.0000000E+00;  0.0000000E+00;  1.0000000E+04;  0.0000000E+00;  1.0000000E+04;-0.00054802123;0.0;-3.4719844e-05;0.1827971
 -5.9999999E-02;  9.9999998E-03;  3.0000001E-01;361;0.0;0.0;0.0;1000.0003;  4.0000001E-01;0.29628786;0;0.0;0.0;0.0;0;-0.00043858378;  1.0000000E+04;  0.0000000E+00;  0.0000000E+00;  1.0000000E+04;  0.0000000E+00;  1.0000000E+04;-0.00039218314;0.0;-4.6400655e-05;0.25983989
 -5.9999999E-02;  9.9999998E-03;  3.1999999E-01;362;0.0;0.0;0.0;1000.0002;  4.0000001E-01;0.19752525;0;0.0;0.0;0.0;0;-0.000304321;  1.0000000E+04;  0.0000000E+00;  0.0000000E+00;  1.0000000E+04;  0.0000000E+00;  1.0000000E+04;-0.00025387952;0.0;-5.0441475e-05;0.29048282
 -3.9999999E-02;  9.9999998E-03;  1.6000000E-01;395;0.0;0.0;0.0;1000.0015;  4.0000001E-01;1.1851515;0;0.0;0.0;0.0;0;-0.0018515086;  1.0000000E+04;  0.0000000E+00;  0.0000000E+00;  1.0000000E+04;  0.0000000E+00;  1.0000000E+04;-0.0019037252;0.0;5.2216539e-05;0.40687126
 -3.9999999E-02;  9.9999998E-03;  1.8000001E-01;396;0.0;0.0;0.0;1000.0013;  4.0000001E-01;1.0863888;0;0.0;0.0;0.0;0;-0.001783461;  1.0000000E+04;  0.0000000E+00;  0.0000000E+00;  1.0000000E+04;  0.0000000E+00;  1.0000000E+04;-0.001836559;0.0;5.3098032e-05;0.40488377
 -3.9999999E-02;  9.9999998E-03;  2.0000000E-01;397;0.0;0.0;0.0;1000.0012;  4.0000001E-01;0.98762625;0;0.0;0.0;0.0;0;-0.0016932085;  1.0000000E+04;  0.0000000E+00;  0.0000000E+00;  1.0000000E+04;  0.0000000E+00;  1.0000000E+04;-0.0017402867;0.0;4.7078243e-05;0.36165801
 -3.9999999E-02;  9.9999998E-03;  2.2000000E-01;398;0.0;0.0;0.0;1000.0012;  4.0000001E-01;0.98762625;0;0.0;0.0;0.0;0;-0.0015758098;  1.0000000E+04;  0.0000000E+00;  0.0000000E+00;  1.0000000E+04;  0.0000000E+00;  1.0000000E+04;-0.0016064601;0.0;3.0650292e-05;0.25564346
 -3.9999999E-02;  9.9999998E-03;  2.3999999E-01;399;0.0;0.0;0.0;1000.001;  4.0000001E-01;0.88886362;0;0.0;0.0;0.0;0;-0.0014254748;  1.0000000E+04;  0.0000000E+00;  0.0000000E+00;  1.0000000E+04;  0.0000000E+00;  1.0000000E+04;-0.0014282652;0.0;2.7905071e-06;0.079723135
 -3.9999999E-02;  9.9999998E-03;  2.5999999E-01;400;0.0;0.0;0.0;1000.001;  4.0000001E-01;0.79010099;0;0.0;0.0;0.0;0;-0.0012377675;  1.0000000E+04;  0.0000000E+00;  0.0000000E+00;  1.0000000E+04;  0.0000000E+00;  1.0000000E+04;-0.0012051609;0.0;-3.2606658e-05;0.14347614
 -3.9999999E-02;  9.9999998E-03;  2.8000000E-01;401;0.0;0.0;0.0;1000.0007;  4.0000001E-01;0.59257573;0;0.0;0.0;0.0;0;-0.001015338;  1.0000000E+04;  0.0000000E+00;  0.0000000E+00;  1.0000000E+04;  0.0000000E+00;  1.0000000E+04;-0.00094855728;0.0;-6.6780711e-05;0.36121011
 -3.9999999E-02;  9.9999998E-03;  3.0000001E-01;402;0.0;0.0;0.0;1000.0005;  4.0000001E-01;0.49381313;0;0.0;0.0;0.0;0;-0.00077611831;  1.0000000E+04;  0.0000000E+00;  0.0000000E+00;  1.0000000E+04;  0.0000000E+00;  1.0000000E+04;-0.00068527518;0.0;-9.0843118e-05;0.51878417
 -3.9999999E-02;  9.9999998E-03;  3.1999999E-01;403;0.0;0.0;0.0;1000.0004;  4.0000001E-01;0.29628786;0;0.0;0.0;0.0;0;-0.00055005401;  1.0000000E+04;  0.0000000E+00;  0.0000000E+00;  1.0000000E+04;  0.0000000E+00;  1.0000000E+04;-0.00044969033;0.0;-0.0001003637;0.58743244
 -2.0000000E-02;  9.9999998E-03;  1.6000000E-01;436;0.0;0.0;0.0;1000.0021;  4.0000001E-01;1.6789646;0;0.0;0.0;0.0;0;-0.0027507485;  1.0000000E+04;  0.0000000E+00;  0.0000000E+00;  1.0000000E+04;  0.0000000E+00;  1.0000000E+04;-0.0028412552;0.0;9.0506597e-05;0.69093692
 -2.0000000E-02;  9.9999998E-03;  1.8000001E-01;437;0.0;0.0;0.0;1000.0021;  4.0000001E-01;1.6789646;0;0.0;0.0;0.0;0;-0.0026538572;  1.0000000E+04;  0.0000000E+00;  0.0000000E+00;  1.0000000E+04;  0.0000000E+00;  1.0000000E+04;-0.0027459403;0.0;9.2083166e-05;0.68897724
 -2.0000000E-02;  9.9999998E-03;  2.0000000E-01;438;0.0;0.0;0.0;1000.0019;  4.0000001E-01;1.580202;0;0.0;0.0;0.0;0;-0.0025258702;  1.0000000E+04;  0.0000000E+00;  0.0000000E+00;  1.0000000E+04;  0.0000000E+00;  1.0000000E+04;-0.0026079218;0.0;8.2051498e-05;0.61702263
 -2.0000000E-02;  9.9999998E-03;  2.2000000E-01;439;0.0;0.0;0.0;1000.0018;  4.0000001E-01;1.4814394;0;0.0;0.0;0.0;0;-0.00235996;  1.0000000E+04;  0.0000000E+00;  0.0000000E+00;  1.0000000E+04;  0.0000000E+00;  1.0000000E+04;-0.002414552;0.0;5.4592139e-05;0.43881705
 -2.0000000E-02;  9.9999998E-03;  2.3999999E-01;440;0.0;0.0;0.0;1000.0016;  4.0000001E-01;1.3826767;0;0.0;0.0;0.0;0;-0.002147641;  1.0000000E+04;  0.0000000E+00;  0.0000000E+00;  1.0000000E+04;  0.0000000E+00;  1.0000000E+04;-0.0021554171;0.0;7.7761688e-06;0.14106178
 -2.0000000E-02;  9.9999998E-03;  2.5999999E-01;441;0.0;0.0;0.0;1000.0015;  4.0000001E-01;1.1851515;0;0.0;0.0;0.0;0;-0.0018814497;  1.0000000E+04;  0.0000000E+00;  0.0000000E+00;  1.0000000E+04;  0.0000000E+00;  1.0000000E+04;-0.0018287563;0.0;-5.2693475e-05;0.24269687
 -2.0000000E-02;  9.9999998E-03;  2.8000000E-01;442;0.0;0.0;0.0;1000.0012;  4.0000001E-01;0.98762625;0;0.0;0.0;0.0;0;-0.0015621363;  1.0000000E+04;  0.0000000E+00;  0.0000000E+00;  1.0000000E+04;  0.0000000E+00;  1.0000000E+04;-0.0014492298;0.0;-0.00011290658;0.62769949
 -2.0000000E-02;  9.9999998E-03;  3.0000001E-01;443;0.0;0.0;0.0;1000.001;  4.0000001E-01;0.79010099;0;0.0;0.0;0.0;0;-0.0012111848;  1.0000000E+04;  0.0000000E+00;  0.0000000E+00;  1.0000000E+04;  0.0000000E+00;  1.0000000E+04;-0.0010544722;0.0;-0.00015671262;0.91411287
 -2.0000000E-02;  9.9999998E-03;  3.1999999E-01;444;0.0;0.0;0.0;1000.0007;  4.0000001E-01;0.59257573;0;0.0;0.0;0.0;0;-0.00087302481;  1.0000000E+04;  0.0000000E+00;  0.0000000E+00;  1.0000000E+04;  0.0000000E+00;  1.0000000E+04;-0.00069780531;0.0;-0.00017521949;1.0444841
  0.0000000E+00;  9.9999998E-03;  3.0000001E-01;455;0.0;0.0;0.0;1000.0012;  4.0000001E-01;0.98762625;0;0.0;0.0;0.0;0;-0.0017078312;  1.0000000E+04;  0.0000000E+00;  0.0000000E+00;  1.0000000E+04;  0.0000000E+00;  1.0000000E+04;-0.0014660174;0.0;-0.00024181372;1.4444643
  0.0000000E+00;  9.9999998E-03;  3.1999999E-01;456;0.0;0.0;0.0;1000.001;  4.0000001E-01;0.79010099;0;0.0;0.0;0.0;0;-0.0012518312;  1.0000000E+04;  0.0000000E+00;  0.0000000E+00;  1.0000000E+04;  0.0000000E+00;  1.0000000E+04;-0.00097747124;0.0;-0.00027435992;1.6704638
  2.0000000E-02;  9.9999998E-03;  3.1999999E-01;466;0.0;0.0;0.0;1000.0013;  4.0000001E-01;1.0863888;0;0.0;0.0;0.0;0;-0.0016642741;  1.0000000E+04;  0.0000000E+00;  0.0000000E+00;  1.0000000E+04;  0.0000000E+00;  1.0000000E+04;-0.0012730493;0.0;-0.00039122481;2.4426816
  3.9999999E-02;  9.9999998E-03;  3.1999999E-01;476;0.0;0.0;0.0;1000.0017;  4.0000001E-01;1.3826767;0;0.0;0.0;0.0;0;-0.0021138669;  1.0000000E+04;  0.0000000E+00;  0.0000000E+00;  1.0000000E+04;  0.0000000E+00;  1.0000000E+04;-0.0015971658;0.0;-0.00051670102;3.3244984
  5.9999999E-02;  9.9999998E-03;  3.1999999E-01;486;0.0;0.0;0.0;1000.0021;  4.0000001E-01;1.7777272;0;0.0;0.0;0.0;0;-0.0026381074;  1.0000000E+04;  0.0000000E+00;  0.0000000E+00;  1.0000000E+04;  0.0000000E+00;  1.0000000E+04;-0.0019894214;0.0;-0.00064868596;4.3213663
  7.9999998E-02;  9.9999998E-03;  3.1999999E-01;496;0.0;0.0;0.0;1000.0028;  4.0000001E-01;2.3703029;0;0.0;0.0;0.0;0;-0.0033058941;  1.0000000E+04;  0.0000000E+00;  0.0000000E+00;  1.0000000E+04;  0.0000000E+00;  1.0000000E+04;-0.0025128478;0.0;-0.00079304632;5.4983053
  1.0000000E-01;  9.9999998E-03;  3.1999999E-01;506;0.0;0.0;0.0;1000.0037;  4.0000001E-01;3.0616415;0;0.0;0.0;0.0;0;-0.0042367661;  1.0000000E+04;  0.0000000E+00;  0.0000000E+00;  1.0000000E+04;  0.0000000E+00;  1.0000000E+04;-0.0032715765;0.0;-0.00096518954;7.3226299
  1.2000000E-01;  9.9999998E-03;  3.1999999E-01;516;0.0;0.0;0.0;1000.005;  4.0000001E-01;4.1480303;0;0.0;0.0;0.0;0;-0.0056141187;  1.0000000E+04;  0.0000000E+00;  0.0000000E+00;  1.0000000E+04;  0.0000000E+00;  1.0000000E+04;-0.0044182381;0.0;-0.0011958805;13.066801
  1.4000000E-01;  9.9999998E-03;  3.1999999E-01;526;0.0;0.0;0.0;1000.007;  4.0000001E-01;5.8269949;0;0.0;0.0;0.0;0;-0.0076987133;  1.0000000E+04;  0.0000000E+00;  0.0000000E+00;  1.0000000E+04;  0.0000000E+00;  1.0000000E+04;-0.0061566667;0.0;-0.0015420467;31.755432
  1.6000000E-01;  9.9999998E-03;  3.1999999E-01;536;0.0;0.0;0.0;1000.0101;  4.0000001E-01;8.2960606;0;0.0;0.0;0.0;0;-0.010797475;  1.0000000E+04;  0.0000000E+00;  0.0000000E+00;  1.0000000E+04;  0.0000000E+00;  1.0000000E+04;-0.0086923866;0.0;-0.0021050891;76.566879
  1.8000001E-01;  9.9999998E-03;  3.1999999E-01;546;0.0;0.0;0.0;1000.0145;  4.0000001E-01;12.04904;0;0.0;0.0;0.0;0;-0.015118625;  1.0000000E+04;  0.0000000E+00;  0.0000000E+00;  1.0000000E+04;  0.0000000E+00;  1.0000000E+04;-0.012063391;0.0;-0.0030552342;160.35577
  2.0000000E-01;  9.9999998E-03;  3.1999999E-01;555;0.0;0.0;0.0;1000.0202;  4.0000001E-01;16.690884;0;0.0;0.0;0.0;0;-0.020628769;  1.0000000E+04;  0.0000000E+00;  0.0000000E+00;  1.0000000E+04;  0.0000000E+00;  1.0000000E+04;-0.0159919;0.0;-0.0046368688;277.7666
 -2.2000000E-01;  9.9999998E-03;  3.4000000E-01;36;0.0;0.0;0.0;1000.0;  4.0000001E-01;0.0;0;0.0;0.0;0.0;0;0.0;  1.0000000E+04;  0.0000000E+00;  0.0000000E+00;  1.0000000E+04;  0.0000000E+00;  1.0000000E+04;0.0;0.0;0.0;0.0
 -2.2000000E-01;  9.9999998E-03;  3.6000001E-01;37;0.0;0.0;0.0;1000.0;  4.0000001E-01;0.0;0;0.0;0.0;0.0;0;0.0;  1.0000000E+04;  0.0000000E+00;  0.0000000E+00;  1.0000000E+04;  0.0000000E+00;  1.0000000E+04;0.0;0.0;0.0;0.0
 -2.2000000E-01;  9.9999998E-03;  3.8000000E-01;38;0.0;0.0;0.0;1000.0;  4.0000001E-01;0.0;0;0.0;0.0;0.0;0;0.0;  1.0000000E+04;  0.0000000E+00;  0.0000000E+00;  1.0000000E+04;  0.0000000E+00;  1.0000000E+04;0.0;0.0;0.0;0.0
 -2.0000000E-01;  9.9999998E-03;  3.4000000E-01;76;0.0;0.0;0.0;1000.0;  4.0000001E-01;0.0;0;0.0;0.0;0.0;0;0.0;  1.0000000E+04;  0.0000000E+00;  0.0000000E+00;  1.0000000E+04;  0.0000000E+00;  1.0000000E+04;0.0;0.0;0.0;0.0
 -2.0000000E-01;  9.9999998E-03;  3.6000001E-01;77;0.0;0.0;0.0;1000.0;  4.0000001E-01;0.0;0;0.0;0.0;0.0;0;0.0;  1.0000000E+04;  0.0000000E+00;  0.0000000E+00;  1.0000000E+04;  0.0000000E+00;  1.0000000E+04;0.0;0.0;0.0;0.0
 -2.0000000E-01;  9.9999998E-03;  3.8000000E-01;78;0.0;0.0;0.0;1000.0;  4.0000001E-01;0.0;0;0.0;0.0;0.0;0;0.0;  1.0000000E+04;  0.0000000E+00;  0.0000000E+00;  1.0000000E+04;  0.0000000E+00;  1.0000000E+04;0.0;0.0;0.0;0.0
 -2.0000000E-01;  9.9999998E-03;  4.0000001E-01;79;0.0;0.0;0.0;1000.0;  4.0000001E-01;0.0;0;0.0;0.0;0.0;0;0.0;  1.0000000E+04;  0.0000000E+00;  0.0000000E+00;  1.0000000E+04;  0.0000000E+00;  1.0000000E+04;0.0;0.0;0.0;0.0
 -1.8000001E-01;  9.9999998E-03;  3.4000000E-01;117;0.0;0.0;0.0;1000.0;  4.0000001E-01;0.0;0;0.0;0.0;0.0;0;0.0;  1.0000000E+04;  0.0000000E+00;  0.0000000E+00;  1.0000000E+04;  0.0000000E+00;  1.0000000E+04;0.0;0.0;0.0;0.0
 -1.8000001E-01;  9.9999998E-03;  3.6000001E-01;118;0.0;0.0;0.0;1000.0;  4.0000001E-01;0.0;0;0.0;0.0;0.0;0;0.0;  1.0000000E+04;  0.0000000E+00;  0.0000000E+00;  1.0000000E+04;  0.0000000E+00;  1.0000000E+04;0.0;0.0;0.0;0.0
 -1.8000001E-01;  9.9999998E-03;  3.8000000E-01;119;0.0;0.0;0.0;1000.0;  4.0000001E-01;0.0;0;0.0;0.0;0.0;0;0.0;  1.0000000E+04;  0.0000000E+00;  0.0000000E+00;  1.0000000E+04;  0.0000000E+00;  1.0000000E+04;0.0;0.0;0.0;0.0
 -1.8000001E-01;  9.9999998E-03;  4.0000001E-01;120;0.0;0.0;0.0;1000.0;  4.0000001E-01;0.0;0;0.0;0.0;0.0;0;0.0;  1.0000000E+04;  0.0000000E+00;  0.0000000E+00;  1.0000000E+04;  0.0000000E+00;  1.0000000E+04;0.0;0.0;0.0;0.0
 -1.6000000E-01;  9.9999998E-03;  3.4000000E-01;158;0.0;0.0;0.0;1000.0;  4.0000001E-01;0.0;0;0.0;0.0;0.0;0;0.0;  1.0000000E+04;  0.0000000E+00;  0.0000000E+00;  1.0000000E+04;  0.0000000E+00;  1.0000000E+04;0.0;0.0;0.0;0.0
 -1.6000000E-01;  9.9999998E-03;  3.6000001E-01;159;0.0;0.0;0.0;1000.0;  4.0000001E-01;0.0;0;0.0;0.0;0.0;0;0.0;  1.0000000E+04;  0.0000000E+00;  0.0000000E+00;  1.0000000E+04;  0.0000000E+00;  1.0000000E+04;0.0;0.0;0.0;0.0
 -1.6000000E-01;  9.9999998E-03;  3.8000000E-01;160;0.0;0.0;0.0;1000.0;  4.0000001E-01;0.0;0;0.0;0.0;0.0;0;0.0;  1.0000000E+04;  0.0000000E+00;  0.0000000E+00;  1.0000000E+04;  0.0000000E+00;  1.0000000E+04;0.0;0.0;0.0;0.0
 -1.6000000E-01;  9.9999998E-03;  4.0000001E-01;161;0.0;0.0;0.0;1000.0;  4.0000001E-01;0.0;0;0.0;0.0;0.0;0;0.0;  1.0000000E+04;  0.0000000E+00;  0.0000000E+00;  1.0000000E+04;  0.0000000E+00;  1.0000000E+04;0.0;0.0;0.0;0.0
 -1.4000000E-01;  9.9999998E-03;  3.4000000E-01;199;0.0;0.0;0.0;1000.0;  4.0000001E-01;0.0;0;0.0;0.0;0.0;0;-5.1114262e-07;  1.0000000E+04;  0.0000000E+00;  0.0000000E+00;  1.0000000E+04;  0.0000000E+00;  1.0000000E+04;-4.3221192e-07;0.0;-7.8930675e-08;0.00044141902
 -1.4000000E-01;  9.9999998E-03;  3.6000001E-01;200;0.0;0.0;0.0;1000.0;  4.0000001E-01;0.0;0;0.0;0.0;0.0;0;-5.9355962e-08;  1.0000000E+04;  0.0000000E+00;  0.0000000E+00;  1.0000000E+04;  0.0000000E+00;  1.0000000E+04;-4.6895984e-08;0.0;-1.245998e-08;7.0728267e-05
 -1.4000000E-01;  9.9999998E-03;  3.8000000E-01;201;0.0;0.0;0.0;1000.0;  4.0000001E-01;0.0;0;0.0;0.0;0.0;0;0.0;  1.0000000E+04;  0.0000000E+00;  0.0000000E+00;  1.0000000E+04;  0.0000000E+00;  1.0000000E+04;0.0;0.0;0.0;0.0
 -1.4000000E-01;  9.9999998E-03;  4.0000001E-01;202;0.0;0.0;0.0;1000.0;  4.0000001E-01;0.0;0;0.0;0.0;0.0;0;0.0;  1.0000000E+04;  0.0000000E+00;  0.0000000E+00;  1.0000000E+04;  0.0000000E+00;  1.0000000E+04;0.0;0.0;0.0;0.0
 -1.2000000E-01;  9.9999998E-03;  3.4000000E-01;240;0.0;0.0;0.0;1000.0;  4.0000001E-01;0.0;0;0.0;0.0;0.0;0;-6.3721777e-06;  1.0000000E+04;  0.0000000E+00;  0.0000000E+00;  1.0000000E+04;  0.0000000E+00;  1.0000000E+04;-5.2321789e-06;0.0;-1.1399987e-06;0.0064600273
 -1.2000000E-01;  9.9999998E-03;  3.6000001E-01;241;0.0;0.0;0.0;1000.0;  4.0000001E-01;0.0;0;0.0;0.0;0.0;0;-2.1319865e-06;  1.0000000E+04;  0.0000000E+00;  0.0000000E+00;  1.0000000E+04;  0.0000000E+00;  1.0000000E+04;-1.6134096e-06;0.0;-5.1857694e-07;0.0029639564
 -1.2000000E-01;  9.9999998E-03;  3.8000000E-01;242;0.0;0.0;0.0;1000.0;  4.0000001E-01;0.0;0;0.0;0.0;0.0;0;-3.1546713e-07;  1.0000000E+04;  0.0000000E+00;  0.0000000E+00;  1.0000000E+04;  0.0000000E+00;  1.0000000E+04;-2.2374198e-07;0.0;-9.1725148e-08;0.00052700879
 -1.2000000E-01;  9.9999998E-03;  4.0000001E-01;243;0.0;0.0;0.0;1000.0;  4.0000001E-01;0.0;0;0.0;0.0;0.0;0;-2.83521e-23;  1.0000000E+04;  0.0000000E+00;  0.0000000E+00;  1.0000000E+04;  0.0000000E+00;  1.0000000E+04;-2.0002376e-23;0.0;-8.3497235e-24;4.6655943e-21
 -1.0000000E-01;  9.9999998E-03;  3.4000000E-01;281;0.0;0.0;0.0;1000.0;  4.0000001E-01;0.0;0;0.0;0.0;0.0;0;-2.9241251e-05;  1.0000000E+04;  0.0000000E+00;  0.0000000E+00;  1.0000000E+04;  0.0000000E+00;  1.0000000E+04;-2.3367824e-05;0.0;-5.8734286e-06;0.033535663
 -1.0000000E-01;  9.9999998E-03;  3.6000001E-01;282;0.0;0.0;0.0;1000.0;  4.0000001E-01;0.0;0;0.0;0.0;0.0;0;-1.3389999e-05;  1.0000000E+04;  0.0000000E+00;  0.0000000E+00;  1.0000000E+04;  0.0000000E+00;  1.0000000E+04;-9.7453267e-06;0.0;-3.6446725e-06;0.021025026
 -1.0000000E-01;  9.9999998E-03;  3.8000000E-01;283;0.0;0.0;0.0;1000.0;  4.0000001E-01;0.0;0;0.0;0.0;0.0;0;-4.2529546e-06;  1.0000000E+04;  0.0000000E+00;  0.0000000E+00;  1.0000000E+04;  0.0000000E+00;  1.0000000E+04;-2.8616707e-06;0.0;-1.3912837e-06;0.0080534192
 -1.0000000E-01;  9.9999998E-03;  4.0000001E-01;284;0.0;0.0;0.0;1000.0;  4.0000001E-01;0.0;0;0.0;0.0;0.0;0;-5.8610544e-07;  1.0000000E+04;  0.0000000E+00;  0.0000000E+00;  1.0000000E+04;  0.0000000E+00;  1.0000000E+04;-3.8994031e-07;0.0;-1.9616516e-07;0.0011364297
 -7.9999998E-02;  9.9999998E-03;  3.4000000E-01;322;0.0;0.0;0.0;1000.0;  4.0000001E-01;0.0;0;0.0;0.0;0.0;0;-8.6049855e-05;  1.0000000E+04;  0.0000000E+00;  0.0000000E+00;  1.0000000E+04;  0.0000000E+00;  1.0000000E+04;-6.7065259e-05;0.0;-1.8984598e-05;0.10957128
 -7.9999998E-02;  9.9999998E-03;  3.6000001E-01;323;0.0;0.0;0.0;1000.0;  4.0000001E-01;0.0;0;0.0;0.0;0.0;0;-4.5413712e-05;  1.0000000E+04;  0.0000000E+00;  0.0000000E+00;  1.0000000E+04;  0.0000000E+00;  1.0000000E+04;-3.1901498e-05;0.0;-1.3512212e-05;0.078673318
 -7.9999998E-02;  9.9999998E-03;  3.8000000E-01;324;0.0;0.0;0.0;1000.0;  4.0000001E-01;0.0;0;0.0;0.0;0.0;0;-1.889096e-05;  1.0000000E+04;  0.0000000E+00;  0.0000000E+00;  1.0000000E+04;  0.0000000E+00;  1.0000000E+04;-1.2138504e-05;0.0;-6.7524556e-06;0.039436482
 -7.9999998E-02;  9.9999998E-03;  4.0000001E-01;325;0.0;0.0;0.0;1000.0;  4.0000001E-01;0.0;0;0.0;0.0;0.0;0;-4.9745227e-06;  1.0000000E+04;  0.0000000E+00;  0.0000000E+00;  1.0000000E+04;  0.0000000E+00;  1.0000000E+04;-3.1269356e-06;0.0;-1.847587e-06;0.010780044
 -5.9999999E-02;  9.9999998E-03;  3.4000000E-01;363;0.0;0.0;0.0;1000.0001;  4.0000001E-01;0.098762624;0;0.0;0.0;0.0;0;-0.00019365372;  1.0000000E+04;  0.0000000E+00;  0.0000000E+00;  1.0000000E+04;  0.0000000E+00;  1.0000000E+04;-0.00014703111;0.0;-4.6622605e-05;0.27250555
 -5.9999999E-02;  9.9999998E-03;  3.6000001E-01;364;0.0;0.0;0.0;1000.0;  4.0000001E-01;0.0;0;0.0;0.0;0.0;0;-0.00011050077;  1.0000000E+04;  0.0000000E+00;  0.0000000E+00;  1.0000000E+04;  0.0000000E+00;  1.0000000E+04;-7.4854208e-05;0.0;-3.5646561e-05;0.20989975
 -5.9999999E-02;  9.9999998E-03;  3.8000000E-01;365;0.0;0.0;0.0;1000.0;  4.0000001E-01;0.0;0;0.0;0.0;0.0;0;-5.2519761e-05;  1.0000000E+04;  0.0000000E+00;  0.0000000E+00;  1.0000000E+04;  0.0000000E+00;  1.0000000E+04;-3.2219657e-05;0.0;-2.0300102e-05;0.11979007
 -5.9999999E-02;  9.9999998E-03;  4.0000001E-01;366;0.0;0.0;0.0;1000.0;  4.0000001E-01;0.0;0;0.0;0.0;0.0;0;-1.7934128e-05;  1.0000000E+04;  0.0000000E+00;  0.0000000E+00;  1.0000000E+04;  0.0000000E+00;  1.0000000E+04;-1.0683418e-05;0.0;-7.2507096e-06;0.042704761
 -3.9999999E-02;  9.9999998E-03;  3.4000000E-01;404;0.0;0.0;0.0;1000.0002;  4.0000001E-01;0.19752525;0;0.0;0.0;0.0;0;-0.00036112787;  1.0000000E+04;  0.0000000E+00;  0.0000000E+00;  1.0000000E+04;  0.0000000E+00;  1.0000000E+04;-0.00026618707;0.0;-9.4940791e-05;0.56295818
 -3.9999999E-02;  9.9999998E-03;  3.6000001E-01;405;0.0;0.0;0.0;1000.0001;  4.0000001E-01;0.098762624;0;0.0;0.0;0.0;0;-0.00021612849;  1.0000000E+04;  0.0000000E+00;  0.0000000E+00;  1.0000000E+04;  0.0000000E+00;  1.0000000E+04;-0.00014060395;0.0;-7.5524542e-05;0.45062584
 -3.9999999E-02;  9.9999998E-03;  3.8000000E-01;406;0.0;0.0;0.0;1000.0;  4.0000001E-01;0.0;0;0.0;0.0;0.0;0;-0.0001107577;  1.0000000E+04;  0.0000000E+00;  0.0000000E+00;  1.0000000E+04;  0.0000000E+00;  1.0000000E+04;-6.4576299e-05;0.0;-4.6181402e-05;0.27589464
 -3.9999999E-02;  9.9999998E-03;  4.0000001E-01;407;0.0;0.0;0.0;1000.0;  4.0000001E-01;0.0;0;0.0;0.0;0.0;0;-4.3110769e-05;  1.0000000E+04;  0.0000000E+00;  0.0000000E+00;  1.0000000E+04;  0.0000000E+00;  1.0000000E+04;-2.4222192e-05;0.0;-1.8888577e-05;0.11253592
 -2.0000000E-02;  9.9999998E-03;  3.4000000E-01;445;0.0;0.0;0.0;1000.0004;  4.0000001E-01;0.3950505;0;0.0;0.0;0.0;0;-0.00058593822;  1.0000000E+04;  0.0000000E+00;  0.0000000E+00;  1.0000000E+04;  0.0000000E+00;  1.0000000E+04;-0.00041798168;0.0;-0.00016795655;1.0126778
 -2.0000000E-02;  9.9999998E-03;  3.6000001E-01;446;0.0;0.0;0.0;1000.0002;  4.0000001E-01;0.19752525;0;0.0;0.0;0.0;0;-0.00036169318;  1.0000000E+04;  0.0000000E+00;  0.0000000E+00;  1.0000000E+04;  0.0000000E+00;  1.0000000E+04;-0.00022510166;0.0;-0.00013659152;0.82787699
 -2.0000000E-02;  9.9999998E-03;  3.8000000E-01;447;0.0;0.0;0.0;1000.0001;  4.0000001E-01;0.098762624;0;0.0;0.0;0.0;0;-0.00019389603;  1.0000000E+04;  0.0000000E+00;  0.0000000E+00;  1.0000000E+04;  0.0000000E+00;  1.0000000E+04;-0.00010692336;0.0;-8.6972672e-05;0.52739042
 -2.0000000E-02;  9.9999998E-03;  4.0000001E-01;448;0.0;0.0;0.0;1000.0;  4.0000001E-01;0.0;0;0.0;0.0;0.0;0;-8.1039238e-05;  1.0000000E+04;  0.0000000E+00;  0.0000000E+00;  1.0000000E+04;  0.0000000E+00;  1.0000000E+04;-4.2672611e-05;0.0;-3.8366623e-05;0.23183811
  0.0000000E+00;  9.9999998E-03;  3.4000000E-01;457;0.0;0.0;0.0;1000.0007;  4.0000001E-01;0.59257573;0;0.0;0.0;0.0;0;-0.00085489126;  1.0000000E+04;  0.0000000E+00;  0.0000000E+00;  1.0000000E+04;  0.0000000E+00;  1.0000000E+04;-0.00058961561;0.0;-0.00026527562;1.6314354
  0.0000000E+00;  9.9999998E-03;  3.6000001E-01;458;0.0;0.0;0.0;1000.0004;  4.0000001E-01;0.29628786;0;0.0;0.0;0.0;0;-0.00053914858;  1.0000000E+04;  0.0000000E+00;  0.0000000E+00;  1.0000000E+04;  0.0000000E+00;  1.0000000E+04;-0.0003206667;0.0;-0.00021848189;1.3495151
  0.0000000E+00;  9.9999998E-03;  3.8000000E-01;459;0.0;0.0;0.0;1000.0002;  4.0000001E-01;0.19752525;0;0.0;0.0;0.0;0;-0.00029717232;  1.0000000E+04;  0.0000000E+00;  0.0000000E+00;  1.0000000E+04;  0.0000000E+00;  1.0000000E+04;-0.00015473443;0.0;-0.00014243789;0.87960124
  0.0000000E+00;  9.9999998E-03;  4.0000001E-01;460;0.0;0.0;0.0;1000.0001;  4.0000001E-01;0.098762624;0;0.0;0.0;0.0;0;-0.00012911244;  1.0000000E+04;  0.0000000E+00;  0.0000000E+00;  1.0000000E+04;  0.0000000E+00;  1.0000000E+04;-6.3481966e-05;0.0;-6.5630469e-05;0.4035787
  2.0000000E-02;  9.9999998E-03;  3.4000000E-01;467;0.0;0.0;0.0;1000.0009;  4.0000001E-01;0.79010099;0;0.0;0.0;0.0;0;-0.0011534374;  1.0000000E+04;  0.0000000E+00;  0.0000000E+00;  1.0000000E+04;  0.0000000E+00;  1.0000000E+04;-0.00077213871;0.0;-0.00038129871;2.4016089
  2.0000000E-02;  9.9999998E-03;  3.6000001E-01;468;0.0;0.0;0.0;1000.0005;  4.0000001E-01;0.49381313;0;0.0;0.0;0.0;0;-0.0007389267;  1.0000000E+04;  0.0000000E+00;  0.0000000E+00;  1.0000000E+04;  0.0000000E+00;  1.0000000E+04;-0.00042203785;0.0;-0.00031688882;2.0029521
  2.0000000E-02;  9.9999998E-03;  3.8000000E-01;469;0.0;0.0;0.0;1000.0003;  4.0000001E-01;0.29628786;0;0.0;0.0;0.0;0;-0.00041438639;  1.0000000E+04;  0.0000000E+00;  0.0000000E+00;  1.0000000E+04;  0.0000000E+00;  1.0000000E+04;-0.00020473728;0.0;-0.00020964911;1.3238877
  2.0000000E-02;  9.9999998E-03;  4.0000001E-01;470;0.0;0.0;0.0;1000.0001;  4.0000001E-01;0.098762624;0;0.0;0.0;0.0;0;-0.00018363706;  1.0000000E+04;  0.0000000E+00;  0.0000000E+00;  1.0000000E+04;  0.0000000E+00;  1.0000000E+04;-8.4585998e-05;0.0;-9.9051067e-05;0.62240285
  3.9999999E-02;  9.9999998E-03;  3.4000000E-01;477;0.0;0.0;0.0;1000.0011;  4.0000001E-01;0.88886362;0;0.0;0.0;0.0;0;-0.0014810715;  1.0000000E+04;  0.0000000E+00;  0.0000000E+00;  1.0000000E+04;  0.0000000E+00;  1.0000000E+04;-0.00097238203;0.0;-0.00050868944;3.297312
  3.9999999E-02;  9.9999998E-03;  3.6000001E-01;478;0.0;0.0;0.0;1000.0007;  4.0000001E-01;0.59257573;0;0.0;0.0;0.0;0;-0.00095898058;  1.0000000E+04;  0.0000000E+00;  0.0000000E+00;  1.0000000E+04;  0.0000000E+00;  1.0000000E+04;-0.0005325792;0.0;-0.00042640138;2.7711103
  3.9999999E-02;  9.9999998E-03;  3.8000000E-01;479;0.0;0.0;0.0;1000.0004;  4.0000001E-01;0.3950505;0;0.0;0.0;0.0;0;-0.00054324087;  1.0000000E+04;  0.0000000E+00;  0.0000000E+00;  1.0000000E+04;  0.0000000E+00;  1.0000000E+04;-0.00025827656;0.0;-0.00028496431;1.8488287
  3.9999999E-02;  9.9999998E-03;  4.0000001E-01;480;0.0;0.0;0.0;1000.0002;  4.0000001E-01;0.19752525;0;0.0;0.0;0.0;0;-0.00024281703;  1.0000000E+04;  0.0000000E+00;  0.0000000E+00;  1.0000000E+04;  0.0000000E+00;  1.0000000E+04;-0.00010627501;0.0;-0.00013654202;0.88091475
  5.9999999E-02;  9.9999998E-03;  3.4000000E-01;487;0.0;0.0;0.0;1000.0015;  4.0000001E-01;1.2839141;0;0.0;0.0;0.0;0;-0.0018594158;  1.0000000E+04;  0.0000000E+00;  0.0000000E+00;  1.0000000E+04;  0.0000000E+00;  1.0000000E+04;-0.0012144977;0.0;-0.00064491801;4.3229885
  5.9999999E-02;  9.9999998E-03;  3.6000001E-01;488;0.0;0.0;0.0;1000.001;  4.0000001E-01;0.79010099;0;0.0;0.0;0.0;0;-0.0012111145;  1.0000000E+04;  0.0000000E+00;  0.0000000E+00;  1.0000000E+04;  0.0000000E+00;  1.0000000E+04;-0.00066623453;0.0;-0.00054487999;3.6585283
  5.9999999E-02;  9.9999998E-03;  3.8000000E-01;489;0.0;0.0;0.0;1000.0005;  4.0000001E-01;0.49381313;0;0.0;0.0;0.0;0;-0.00068955636;  1.0000000E+04;  0.0000000E+00;  0.0000000E+00;  1.0000000E+04;  0.0000000E+00;  1.0000000E+04;-0.00032277266;0.0;-0.00036678373;2.4566419
  5.9999999E-02;  9.9999998E-03;  4.0000001E-01;490;0.0;0.0;0.0;1000.0002;  4.0000001E-01;0.19752525;0;0.0;0.0;0.0;0;-0.00030910288;  1.0000000E+04;  0.0000000E+00;  0.0000000E+00;  1.0000000E+04;  0.0000000E+00;  1.0000000E+04;-0.00013202493;0.0;-0.00017707793;1.1786032
  7.9999998E-02;  9.9999998E-03;  3.4000000E-01;497;0.0;0.0;0.0;1000.002;  4.0000001E-01;1.580202;0;0.0;0.0;0.0;0;-0.0023394972;  1.0000000E+04;  0.0000000E+00;  0.0000000E+00;  1.0000000E+04;  0.0000000E+00;  1.0000000E+04;-0.0015441311;0.0;-0.00079536613;5.5452318
  7.9999998E-02;  9.9999998E-03;  3.6000001E-01;498;0.0;0.0;0.0;1000.0013;  4.0000001E-01;1.0863888;0;0.0;0.0;0.0;0;-0.0015277021;  1.0000000E+04;  0.0000000E+00;  0.0000000E+00;  1.0000000E+04;  0.0000000E+00;  1.0000000E+04;-0.00085144758;0.0;-0.00067625451;4.7157521
  7.9999998E-02;  9.9999998E-03;  3.8000000E-01;499;0.0;0.0;0.0;1000.0007;  4.0000001E-01;0.59257573;0;0.0;0.0;0.0;0;-0.00087088736;  1.0000000E+04;  0.0000000E+00;  0.0000000E+00;  1.0000000E+04;  0.0000000E+00;  1.0000000E+04;-0.00041353158;0.0;-0.00045735578;3.1753843
  7.9999998E-02;  9.9999998E-03;  4.0000001E-01;500;0.0;0.0;0.0;1000.0003;  4.0000001E-01;0.29628786;0;0.0;0.0;0.0;0;-0.00039053959;  1.0000000E+04;  0.0000000E+00;  0.0000000E+00;  1.0000000E+04;  0.0000000E+00;  1.0000000E+04;-0.00016885843;0.0;-0.00022168116;1.5290803
  1.0000000E-01;  9.9999998E-03;  3.4000000E-01;507;0.0;0.0;0.0;1000.0026;  4.0000001E-01;2.1727777;0;0.0;0.0;0.0;0;-0.0030137275;  1.0000000E+04;  0.0000000E+00;  0.0000000E+00;  1.0000000E+04;  0.0000000E+00;  1.0000000E+04;-0.002038151;0.0;-0.00097557652;7.3101864
  1.0000000E-01;  9.9999998E-03;  3.6000001E-01;508;0.0;0.0;0.0;1000.0016;  4.0000001E-01;1.3826767;0;0.0;0.0;0.0;0;-0.0019698972;  1.0000000E+04;  0.0000000E+00;  0.0000000E+00;  1.0000000E+04;  0.0000000E+00;  1.0000000E+04;-0.0011369053;0.0;-0.00083299197;6.0928535
  1.0000000E-01;  9.9999998E-03;  3.8000000E-01;509;0.0;0.0;0.0;1000.001;  4.0000001E-01;0.79010099;0;0.0;0.0;0.0;0;-0.0011215348;  1.0000000E+04;  0.0000000E+00;  0.0000000E+00;  1.0000000E+04;  0.0000000E+00;  1.0000000E+04;-0.00055698387;0.0;-0.00056455098;4.0745468
  1.0000000E-01;  9.9999998E-03;  4.0000001E-01;510;0.0;0.0;0.0;1000.0004;  4.0000001E-01;0.3950505;0;0.0;0.0;0.0;0;-0.00050290703;  1.0000000E+04;  0.0000000E+00;  0.0000000E+00;  1.0000000E+04;  0.0000000E+00;  1.0000000E+04;-0.00022876945;0.0;-0.00027413756;2.0216873
  1.2000000E-01;  9.9999998E-03;  3.4000000E-01;517;0.0;0.0;0.0;1000.0037;  4.0000001E-01;3.0616415;0;0.0;0.0;0.0;0;-0.0040308302;  1.0000000E+04;  0.0000000E+00;  0.0000000E+00;  1.0000000E+04;  0.0000000E+00;  1.0000000E+04;-0.0028131194;0.0;-0.001217711;11.455172
  1.2000000E-01;  9.9999998E-03;  3.6000001E-01;518;0.0;0.0;0.0;1000.0023;  4.0000001E-01;1.8764899;0;0.0;0.0;0.0;0;-0.0026409687;  1.0000000E+04;  0.0000000E+00;  0.0000000E+00;  1.0000000E+04;  0.0000000E+00;  1.0000000E+04;-0.0015984996;0.0;-0.0010424689;8.1597986
  1.2000000E-01;  9.9999998E-03;  3.8000000E-01;519;0.0;0.0;0.0;1000.0014;  4.0000001E-01;1.1851515;0;0.0;0.0;0.0;0;-0.001502265;  1.0000000E+04;  0.0000000E+00;  0.0000000E+00;  1.0000000E+04;  0.0000000E+00;  1.0000000E+04;-0.00079535035;0.0;-0.00070691458;5.5345287
  1.2000000E-01;  9.9999998E-03;  4.0000001E-01;520;0.0;0.0;0.0;1000.0006;  4.0000001E-01;0.49381313;0;0.0;0.0;0.0;0;-0.00067493622;  1.0000000E+04;  0.0000000E+00;  0.0000000E+00;  1.0000000E+04;  0.0000000E+00;  1.0000000E+04;-0.00033139097;0.0;-0.00034354525;3.5324483
  1.4000000E-01;  9.9999998E-03;  3.4000000E-01;527;0.0;0.0;0.0;1000.0052;  4.0000001E-01;4.3455553;0;0.0;0.0;0.0;0;-0.0056153219;  1.0000000E+04;  0.0000000E+00;  0.0000000E+00;  1.0000000E+04;  0.0000000E+00;  1.0000000E+04;-0.0040332838;0.0;-0.0015820379;23.400122
  1.4000000E-01;  9.9999998E-03;  3.6000001E-01;528;0.0;0.0;0.0;1000.0034;  4.0000001E-01;2.8641162;0;0.0;0.0;0.0;0;-0.0037057558;  1.0000000E+04;  0.0000000E+00;  0.0000000E+00;  1.0000000E+04;  0.0000000E+00;  1.0000000E+04;-0.0023477231;0.0;-0.0013580328;11.594796
  1.4000000E-01;  9.9999998E-03;  3.8000000E-01;529;0.0;0.0;0.0;1000.002;  4.0000001E-01;1.580202;0;0.0;0.0;0.0;0;-0.0021190506;  1.0000000E+04;  0.0000000E+00;  0.0000000E+00;  1.0000000E+04;  0.0000000E+00;  1.0000000E+04;-0.0011944391;0.0;-0.00092461152;10.071656
  1.4000000E-01;  9.9999998E-03;  4.0000001E-01;530;0.0;0.0;0.0;1000.0008;  4.0000001E-01;0.69133836;0;0.0;0.0;0.0;0;-0.00096283655;  1.0000000E+04;  0.0000000E+00;  0.0000000E+00;  1.0000000E+04;  0.0000000E+00;  1.0000000E+04;-0.00050985324;0.0;-0.00045298328;9.6795807
  1.6000000E-01;  9.9999998E-03;  3.4000000E-01;537;0.0;0.0;0.0;1000.0075;  4.0000001E-01;6.2220454;0;0.0;0.0;0.0;0;-0.0080409143;  1.0000000E+04;  0.0000000E+00;  0.0000000E+00;  1.0000000E+04;  0.0000000E+00;  1.0000000E+04;-0.0058670295;0.0;-0.0021738843;51.42458
  1.6000000E-01;  9.9999998E-03;  3.6000001E-01;538;0.0;0.0;0.0;1000.0051;  4.0000001E-01;4.1480303;0;0.0;0.0;0.0;0;-0.0053754365;  1.0000000E+04;  0.0000000E+00;  0.0000000E+00;  1.0000000E+04;  0.0000000E+00;  1.0000000E+04;-0.0035013773;0.0;-0.001874059;16.998589
  1.6000000E-01;  9.9999998E-03;  3.8000000E-01;539;0.0;0.0;0.0;1000.0031;  4.0000001E-01;2.5678282;0;0.0;0.0;0.0;0;-0.00312989;  1.0000000E+04;  0.0000000E+00;  0.0000000E+00;  1.0000000E+04;  0.0000000E+00;  1.0000000E+04;-0.0018326185;0.0;-0.0012972715;25.185709
  1.6000000E-01;  9.9999998E-03;  4.0000001E-01;540;0.0;0.0;0.0;1000.0013;  4.0000001E-01;1.0863888;0;0.0;0.0;0.0;0;-0.0014728718;  1.0000000E+04;  0.0000000E+00;  0.0000000E+00;  1.0000000E+04;  0.0000000E+00;  1.0000000E+04;-0.00081406819;0.0;-0.00065880356;28.368355
  1.8000001E-01;  9.9999998E-03;  3.4000000E-01;547;0.0;0.0;0.0;1000.011;  4.0000001E-01;9.0861616;0;0.0;0.0;0.0;0;-0.011479633;  1.0000000E+04;  0.0000000E+00;  0.0000000E+00;  1.0000000E+04;  0.0000000E+00;  1.0000000E+04;-0.0083166715;0.0;-0.0031629619;101.37522
  1.8000001E-01;  9.9999998E-03;  3.6000001E-01;548;0.0;0.0;0.0;1000.0074;  4.0000001E-01;6.1232829;0;0.0;0.0;0.0;0;-0.0077960277;  1.0000000E+04;  0.0000000E+00;  0.0000000E+00;  1.0000000E+04;  0.0000000E+00;  1.0000000E+04;-0.0050514382;0.0;-0.0027445892;24.119339
  1.8000001E-01;  9.9999998E-03;  3.8000000E-01;549;0.0;0.0;0.0;1000.0045;  4.0000001E-01;3.654217;0;0.0;0.0;0.0;0;-0.0046986109;  1.0000000E+04;  0.0000000E+00;  0.0000000E+00;  1.0000000E+04;  0.0000000E+00;  1.0000000E+04;-0.0027265158;0.0;-0.0019720951;61.647465
  1.8000001E-01;  9.9999998E-03;  4.0000001E-01;550;0.0;0.0;0.0;1000.0021;  4.0000001E-01;1.7777272;0;0.0;0.0;0.0;0;-0.00237802;  1.0000000E+04;  0.0000000E+00;  0.0000000E+00;  1.0000000E+04;  0.0000000E+00;  1.0000000E+04;-0.0012876841;0.0;-0.001090336;73.650436
  2.0000000E-01;  9.9999998E-03;  3.4000000E-01;556;0.0;0.0;0.0;1000.0156;  4.0000001E-01;12.937903;0;0.0;0.0;0.0;0;-0.015884712;  1.0000000E+04;  0.0000000E+00;  0.0000000E+00;  1.0000000E+04;  0.0000000E+00;  1.0000000E+04;-0.01109947;0.0;-0.0047852425;165.19864
  2.0000000E-01;  9.9999998E-03;  3.6000001E-01;557;0.0;0.0;0.0;1000.0107;  4.0000001E-01;8.8886366;0;0.0;0.0;0.0;0;-0.010993222;  1.0000000E+04;  0.0000000E+00;  0.0000000E+00;  1.0000000E+04;  0.0000000E+00;  1.0000000E+04;-0.0067977705;0.0;-0.0041954517;35.220196
  2.0000000E-01;  9.9999998E-03;  3.8000000E-01;558;0.0;0.0;0.0;1000.0068;  4.0000001E-01;5.6294694;0;0.0;0.0;0.0;0;-0.0069639995;  1.0000000E+04;  0.0000000E+00;  0.0000000E+00;  1.0000000E+04;  0.0000000E+00;  1.0000000E+04;-0.0037748974;0.0;-0.003189102;125.87423
  1.9200000E+00;  9.9999998E-03; -3.6000001E-01;559;0.0;0.0;0.0;1000.0;  4.0000001E-01;0.0;0;0.0;0.0;0.0;0;0.0;  1.0000000E+04;  0.0000000E+00;  0.0000000E+00;  1.0000000E+04;  0.0000000E+00;  1.0000000E+04;0.0;0.0;0.0;0.0
  1.9200000E+00;  9.9999998E-03; -3.4000000E-01;560;0.0;0.0;0.0;1000.0;  4.0000001E-01;0.0;0;0.0;0.0;0.0;0;0.0;  1.0000000E+04;  0.0000000E+00;  0.0000000E+00;  1.0000000E+04;  0.0000000E+00;  1.0000000E+04;0.0;0.0;0.0;0.0
  1.9200000E+00;  9.9999998E-03; -3.1999999E-01;561;0.0;0.0;0.0;1000.0;  4.0000001E-01;0.0;0;0.0;0.0;0.0;0;0.0;  1.0000000E+04;  0.0000000E+00;  0.0000000E+00;  1.0000000E+04;  0.0000000E+00;  1.0000000E+04;0.0;0.0;0.0;0.0
  1.9400001E+00;  9.9999998E-03; -3.8000000E-01;562;0.0;0.0;0.0;1000.0;  4.0000001E-01;0.0;0;0.0;0.0;0.0;0;0.0;  1.0000000E+04;  0.0000000E+00;  0.0000000E+00;  1.0000000E+04;  0.0000000E+00;  1.0000000E+04;0.0;0.0;0.0;0.0
  1.9400001E+00;  9.9999998E-03; -3.6000001E-01;563;0.0;0.0;0.0;1000.0;  4.0000001E-01;0.0;0;0.0;0.0;0.0;0;0.0;  1.0000000E+04;  0.0000000E+00;  0.0000000E+00;  1.0000000E+04;  0.0000000E+00;  1.0000000E+04;0.0;0.0;0.0;0.0
  1.9400001E+00;  9.9999998E-03; -3.4000000E-01;564;0.0;0.0;0.0;1000.0;  4.0000001E-01;0.0;0;0.0;0.0;0.0;0;0.0;  1.0000000E+04;  0.0000000E+00;  0.0000000E+00;  1.0000000E+04;  0.0000000E+00;  1.0000000E+04;0.0;0.0;0.0;0.0
  1.9400001E+00;  9.9999998E-03; -3.1999999E-01;565;0.0;0.0;0.0;1000.0;  4.0000001E-01;0.0;0;0.0;0.0;0.0;0;0.0;  1.0000000E+04;  0.0000000E+00;  0.0000000E+00;  1.0000000E+04;  0.0000000E+00;  1.0000000E+04;0.0;0.0;0.0;0.0
  1.9400001E+00;  9.9999998E-03; -3.0000001E-01;566;0.0;0.0;0.0;1000.0;  4.0000001E-01;0.0;0;0.0;0.0;0.0;0;0.0;  1.0000000E+04;  0.0000000E+00;  0.0000000E+00;  1.0000000E+04;  0.0000000E+00;  1.0000000E+04;0.0;0.0;0.0;0.0
  1.9400001E+00;  9.9999998E-03; -2.8000000E-01;567;0.0;0.0;0.0;1000.0;  4.0000001E-01;0.0;0;0.0;0.0;0.0;0;0.0;  1.0000000E+04;  0.0000000E+00;  0.0000000E+00;  1.0000000E+04;  0.0000000E+00;  1.0000000E+04;0.0;0.0;0.0;0.0
  1.9400001E+00;  9.9999998E-03; -2.5999999E-01;568;0.0;0.0;0.0;1000.0;  4.0000001E-01;0.0;0;0.0;0.0;0.0;0;0.0;  1.0000000E+04;  0.0000000E+00;  0.0000000E+00;  1.0000000E+04;  0.0000000E+00;  1.0000000E+04;0.0;0.0;0.0;0.0
  1.9400001E+00;  9.9999998E-03; -2.3999999E-01;569;0.0;0.0;0.0;1000.0;  4.0000001E-01;0.0;0;0.0;0.0;0.0;0;0.0;  1.0000000E+04;  0.0000000E+00;  0.0000000E+00;  1.0000000E+04;  0.0000000E+00;  1.0000000E+04;0.0;0.0;0.0;0.0
  1.9400001E+00;  9.9999998E-03; -2.2000000E-01;570;0.0;0.0;0.0;1000.0;  4.0000001E-01;0.0;0;0.0;0.0;0.0;0;0.0;  1.0000000E+04;  0.0000000E+00;  0.0000000E+00;  1.0000000E+04;  0.0000000E+00;  1.0000000E+04;0.0;0.0;0.0;0.0
  1.9600000E+00;  9.9999998E-03; -3.8000000E-01;571;0.0;0.0;0.0;1000.0;  4.0000001E-01;0.0;0;0.0;0.0;0.0;0;0.0;  1.0000000E+04;  0.0000000E+00;  0.0000000E+00;  1.0000000E+04;  0.0000000E+00;  1.0000000E+04;0.0;0.0;0.0;0.0
  1.9600000E+00;  9.9999998E-03; -3.6000001E-01;572;0.0;0.0;0.0;1000.0;  4.0000001E-01;0.0;0;0.0;0.0;0.0;0;0.0;  1.0000000E+04;  0.0000000E+00;  0.0000000E+00;  1.0000000E+04;  0.0000000E+00;  1.0000000E+04;0.0;0.0;0.0;0.0
  1.9600000E+00;  9.9999998E-03; -3.4000000E-01;573;0.0;0.0;0.0;1000.0;  4.0000001E-01;0.0;0;0.0;0.0;0.0;0;0.0;  1.0000000E+04;  0.0000000E+00;  0.0000000E+00;  1.0000000E+04;  0.0000000E+00;  1.0000000E+04;0.0;0.0;0.0;0.0
  1.9600000E+00;  9.9999998E-03; -3.1999999E-01;574;0.0;0.0;0.0;1000.0;  4.0000001E-01;0.0;0;0.0;0.0;0.0;0;0.0;  1.0000000E+04;  0.0000000E+00;  0.0000000E+00;  1.0000000E+04;  0.0000000E+00;  1.0000000E+04;0.0;0.0;0.0;0.0
  1.9600000E+00;  9.9999998E-03; -3.0000001E-01;575;0.0;0.0;0.0;1000.0;  4.0000001E-01;0.0;0;0.0;0.0;0.0;0;0.0;  1.0000000E+04;  0.0000000E+00;  0.0000000E+00;  1.0000000E+04;  0.0000000E+00;  1.0000000E+04;0.0;0.0;0.0;0.0
  1.9600000E+00;  9.9999998E-03; -2.8000000E-01;576;0.0;0.0;0.0;1000.0;  4.0000001E-01;0.0;0;0.0;0.0;0.0;0;0.0;  1.0000000E+04;  0.0000000E+00;  0.0000000E+00;  1.0000000E+04;  0.0000000E+00;  1.0000000E+04;0.0;0.0;0.0;0.0
  1.9600000E+00;  9.9999998E-03; -2.5999999E-01;577;0.0;0.0;0.0;1000.0;  4.0000001E-01;0.0;0;0.0;0.0;0.0;0;0.0;  1.0000000E+04;  0.0000000E+00;  0.0000000E+00;  1.0000000E+04;  0.0000000E+00;  1.0000000E+04;0.0;0.0;0.0;0.0
  1.9600000E+00;  9.9999998E-03; -2.3999999E-01;578;0.0;0.0;0.0;1000.0;  4.0000001E-01;0.0;0;0.0;0.0;0.0;0;0.0;  1.0000000E+04;  0.0000000E+00;  0.0000000E+00;  1.0000000E+04;  0.0000000E+00;  1.0000000E+04;0.0;0.0;0.0;0.0
  1.9600000E+00;  9.9999998E-03; -2.2000000E-01;579;0.0;0.0;0.0;1000.0;  4.0000001E-01;0.0;0;0.0;0.0;0.0;0;0.0;  1.0000000E+04;  0.0000000E+00;  0.0000000E+00;  1.0000000E+04;  0.0000000E+00;  1.0000000E+04;0.0;0.0;0.0;0.0
  1.9600000E+00;  9.9999998E-03; -2.0000000E-01;580;0.0;0.0;0.0;1000.0;  4.0000001E-01;0.0;0;0.0;0.0;0.0;0;0.0;  1.0000000E+04;  0.0000000E+00;  0.0000000E+00;  1.0000000E+04;  0.0000000E+00;  1.0000000E+04;0.0;0.0;0.0;0.0
  1.9600000E+00;  9.9999998E-03; -1.8000001E-01;581;0.0;0.0;0.0;1000.0;  4.0000001E-01;0.0;0;0.0;0.0;0.0;0;0.0;  1.0000000E+04;  0.0000000E+00;  0.0000000E+00;  1.0000000E+04;  0.0000000E+00;  1.0000000E+04;0.0;0.0;0.0;0.0
  1.9600000E+00;  9.9999998E-03; -1.6000000E-01;582;0.0;0.0;0.0;1000.0;  4.0000001E-01;0.0;0;0.0;0.0;0.0;0;0.0;  1.0000000E+04;  0.0000000E+00;  0.0000000E+00;  1.0000000E+04;  0.0000000E+00;  1.0000000E+04;0.0;0.0;0.0;0.0
  1.9600000E+00;  9.9999998E-03; -1.4000000E-01;583;0.0;0.0;0.0;1000.0;  4.0000001E-01;0.0;0;0.0;0.0;0.0;0;0.0;  1.0000000E+04;  0.0000000E+00;  0.0000000E+00;  1.0000000E+04;  0.0000000E+00;  1.0000000E+04;0.0;0.0;0.0;0.0
  1.9600000E+00;  9.9999998E-03; -1.2000000E-01;584;0.0;0.0;0.0;1000.0;  4.0000001E-01;0.0;0;0.0;0.0;0.0;0;0.0;  1.0000000E+04;  0.0000000E+00;  0.0000000E+00;  1.0000000E+04;  0.0000000E+00;  1.0000000E+04;0.0;0.0;0.0;0.0
  1.9800000E+00;  9.9999998E-03; -3.8000000E-01;585;0.0;0.0;0.0;1000.0;  4.0000001E-01;0.0;0;0.0;0.0;0.0;0;0.0;  1.0000000E+04;  0.0000000E+00;  0.0000000E+00;  1.0000000E+04;  0.0000000E+00;  1.0000000E+04;0.0;0.0;0.0;0.0
  1.9800000E+00;  9.9999998E-03; -3.6000001E-01;586;0.0;0.0;0.0;1000.0;  4.0000001E-01;0.0;0;0.0;0.0;0.0;0;0.0;  1.0000000E+04;  0.0000000E+00;  0.0000000E+00;  1.0000000E+04;  0.0000000E+00;  1.0000000E+04;0.0;0.0;0.0;0.0
  1.9800000E+00;  9.9999998E-03; -3.4000000E-01;587;0.0;0.0;0.0;1000.0;  4.0000001E-01;0.0;0;0.0;0.0;0.0;0;0.0;  1.0000000E+04;  0.0000000E+00;  0.0000000E+00;  1.0000000E+04;  0.0000000E+00;  1.0000000E+04;0.0;0.0;0.0;0.0
  1.9800000E+00;  9.9999998E-03; -3.1999999E-01;588;0.0;0.0;0.0;1000.0;  4.0000001E-01;0.0;0;0.0;0.0;0.0;0;0.0;  1.0000000E+04;  0.0000000E+00;  0.0000000E+00;  1.0000000E+04;  0.0000000E+00;  1.0000000E+04;0.0;0.0;0.0;0.0
  1.9800000E+00;  9.9999998E-03; -3.0000001E-01;589;0.0;0.0;0.0;1000.0;  4.0000001E-01;0.0;0;0.0;0.0;0.0;0;0.0;  1.0000000E+04;  0.0000000E+00;  0.0000000E+00;  1.0000000E+04;  0.0000000E+00;  1.0000000E+04;0.0;0.0;0.0;0.0
  1.9800000E+00;  9.9999998E-03; -2.8000000E-01;590;0.0;0.0;0.0;1000.0;  4.0000001E-01;0.0;0;0.0;0.0;0.0;0;0.0;  1.0000000E+04;  0.0000000E+00;  0.0000000E+00;  1.0000000E+04;  0.0000000E+00;  1.0000000E+04;0.0;0.0;0.0;0.0
  1.9800000E+00;  9.9999998E-03; -2.5999999E-01;591;0.0;0.0;0.0;1000.0;  4.0000001E-01;0.0;0;0.0;0.0;0.0;0;0.0;  1.0000000E+04;  0.0000000E+00;  0.0000000E+00;  1.0000000E+04;  0.0000000E+00;  1.0000000E+04;0.0;0.0;0.0;0.0
  1.9800000E+00;  9.9999998E-03; -2.3999999E-01;592;0.0;0.0;0.0;1000.0;  4.0000001E-01;0.0;0;0.0;0.0;0.0;0;0.0;  1.0000000E+04;  0.0000000E+00;  0.0000000E+00;  1.0000000E+04;  0.0000000E+00;  1.0000000E+04;0.0;0.0;0.0;0.0
  1.9800000E+00;  9.9999998E-03; -2.2000000E-01;593;0.0;0.0;0.0;1000.0;  4.0000001E-01;0.0;0;0.0;0.0;0.0;0;0.0;  1.0000000E+04;  0.0000000E+00;  0.0000000E+00;  1.0000000E+04;  0.0000000E+00;  1.0000000E+04;0.0;0.0;0.0;0.0
  1.9800000E+00;  9.9999998E-03; -2.0000000E-01;594;0.0;0.0;0.0;1000.0;  4.0000001E-01;0.0;0;0.0;0.0;0.0;0;0.0;  1.0000000E+04;  0.0000000E+00;  0.0000000E+00;  1.0000000E+04;  0.0000000E+00;  1.0000000E+04;0.0;0.0;0.0;0.0
  1.9800000E+00;  9.9999998E-03; -1.8000001E-01;595;0.0;0.0;0.0;1000.0;  4.0000001E-01;0.0;0;0.0;0.0;0.0;0;0.0;  1.0000000E+04;  0.0000000E+00;  0.0000000E+00;  1.0000000E+04;  0.0000000E+00;  1.0000000E+04;0.0;0.0;0.0;0.0
  1.9800000E+00;  9.9999998E-03; -1.6000000E-01;596;0.0;0.0;0.0;1000.0;  4.0000001E-01;0.0;0;0.0;0.0;0.0;0;0.0;  1.0000000E+04;  0.0000000E+00;  0.0000000E+00;  1.0000000E+04;  0.0000000E+00;  1.0000000E+04;0.0;0.0;0.0;0.0
  1.9800000E+00;  9.9999998E-03; -1.4000000E-01;597;0.0;0.0;0.0;1000.0;  4.0000001E-01;0.0;0;0.0;0.0;0.0;0;0.0;  1.0000000E+04;  0.0000000E+00;  0.0000000E+00;  1.0000000E+04;  0.0000000E+00;  1.0000000E+04;0.0;0.0;0.0;0.0
  1.9800000E+00;  9.9999998E-03; -1.2000000E-01;598;0.0;0.0;0.0;1000.0;  4.0000001E-01;0.0;0;0.0;0.0;0.0;0;0.0;  1.0000000E+04;  0.0000000E+00;  0.0000000E+00;  1.0000000E+04;  0.0000000E+00;  1.0000000E+04;0.0;0.0;0.0;0.0
  1.9800000E+00;  9.9999998E-03; -1.0000000E-01;599;0.0;0.0;0.0;1000.0;  4.0000001E-01;0.0;0;0.0;0.0;0.0;0;0.0;  1.0000000E+04;  0.0000000E+00;  0.0000000E+00;  1.0000000E+04;  0.0000000E+00;  1.0000000E+04;0.0;0.0;0.0;0.0
  1.9800000E+00;  9.9999998E-03; -7.9999998E-02;600;0.0;0.0;0.0;1000.0;  4.0000001E-01;0.0;0;0.0;0.0;0.0;0;0.0;  1.0000000E+04;  0.0000000E+00;  0.0000000E+00;  1.0000000E+04;  0.0000000E+00;  1.0000000E+04;0.0;0.0;0.0;0.0
  1.9800000E+00;  9.9999998E-03; -5.9999999E-02;601;0.0;0.0;0.0;1000.0;  4.0000001E-01;0.0;0;0.0;0.0;0.0;0;0.0;  1.0000000E+04;  0.0000000E+00;  0.0000000E+00;  1.0000000E+04;  0.0000000E+00;  1.0000000E+04;0.0;0.0;0.0;0.0
  1.9800000E+00;  9.9999998E-03; -3.9999999E-02;602;0.0;0.0;0.0;1000.0;  4.0000001E-01;0.0;0;0.0;0.0;0.0;0;0.0;  1.0000000E+04;  0.0000000E+00;  0.0000000E+00;  1.0000000E+04;  0.0000000E+00;  1.0000000E+04;0.0;0.0;0.0;0.0
  1.9800000E+00;  9.9999998E-03; -2.0000000E-02;603;0.0;0.0;0.0;1000.0;  4.0000001E-01;0.0;0;0.0;0.0;0.0;0;0.0;  1.0000000E+04;  0.0000000E+00;  0.0000000E+00;  1.0000000E+04;  0.0000000E+00;  1.0000000E+04;0.0;0.0;0.0;0.0
  2.0000000E+00;  9.9999998E-03; -3.8000000E-01;604;0.0;0.0;0.0;1000.0;  4.0000001E-01;0.0;0;0.0;0.0;0.0;0;0.0;  1.0000000E+04;  0.0000000E+00;  0.0000000E+00;  1.0000000E+04;  0.0000000E+00;  1.0000000E+04;0.0;0.0;0.0;0.0
  2.0000000E+00;  9.9999998E-03; -3.6000001E-01;605;0.0;0.0;0.0;1000.0;  4.0000001E-01;0.0;0;0.0;0.0;0.0;0;0.0;  1.0000000E+04;  0.0000000E+00;  0.0000000E+00;  1.0000000E+04;  0.0000000E+00;  1.0000000E+04;0.0;0.0;0.0;0.0
  2.0000000E+00;  9.9999998E-03; -3.4000000E-01;606;0.0;0.0;0.0;1000.0;  4.0000001E-01;0.0;0;0.0;0.0;0.0;0;0.0;  1.0000000E+04;  0.0000000E+00;  0.0000000E+00;  1.0000000E+04;  0.0000000E+00;  1.0000000E+04;0.0;0.0;0.0;0.0
  2.0000000E+00;  9.9999998E-03; -3.1999999E-01;607;0.0;0.0;0.0;1000.0;  4.0000001E-01;0.0;0;0.0;0.0;0.0;0;0.0;  1.0000000E+04;  0.0000000E+00;  0.0000000E+00;  1.0000000E+04;  0.0000000E+00;  1.0000000E+04;0.0;0.0;0.0;0.0
  2.0000000E+00;  9.9999998E-03; -3.0000001E-01;608;0.0;0.0;0.0;1000.0;  4.0000001E-01;0.0;0;0.0;0.0;0.0;0;0.0;  1.0000000E+04;  0.0000000E+00;  0.0000000E+00;  1.0000000E+04;  0.0000000E+00;  1.0000000E+04;0.0;0.0;0.0;0.0
  2.0000000E+00;  9.9999998E-03; -2.8000000E-01;609;0.0;0.0;0.0;1000.0;  4.0000001E-01;0.0;0;0.0;0.0;0.0;0;0.0;  1.0000000E+04;  0.0000000E+00;  0.0000000E+00;  1.0000000E+04;  0.0000000E+00;  1.0000000E+04;0.0;0.0;0.0;0.0
  2.0000000E+00;  9.9999998E-03; -2.5999999E-01;610;0.0;0.0;0.0;1000.0;  4.0000001E-01;0.0;0;0.0;0.0;0.0;0;0.0;  1.0000000E+04;  0.0000000E+00;  0.0000000E+00;  1.0000000E+04;  0.0000000E+00;  1.0000000E+04;0.0;0.0;0.0;0.0
  2.0000000E+00;  9.9999998E-03; -2.3999999E-01;611;0.0;0.0;0.0;1000.0;  4.0000001E-01;0.0;0;0.0;0.0;0.0;0;0.0;  1.0000000E+04;  0.0000000E+00;  0.0000000E+00;  1.0000000E+04;  0.0000000E+00;  1.0000000E+04;0.0;0.0;0.0;0.0
  2.0000000E+00;  9.9999998E-03; -2.2000000E-01;612;0.0;0.0;0.0;1000.0;  4.0000001E-01;0.0;0;0.0;0.0;0.0;0;0.0;  1.0000000E+04;  0.0000000E+00;  0.0000000E+00;  1.0000000E+04;  0.0000000E+00;  1.0000000E+04;0.0;0.0;0.0;0.0
  2.0000000E+00;  9.9999998E-03; -2.0000000E-01;613;0.0;0.0;0.0;1000.0;  4.0000001E-01;0.0;0;0.0;0.0;0.0;0;0.0;  1.0000000E+04;  0.0000000E+00;  0.0000000E+00;  1.0000000E+04;  0.0000000E+00;  1.0000000E+04;0.0;0.0;0.0;0.0
  2.0000000E+00;  9.9999998E-03; -1.8000001E-01;614;0.0;0.0;0.0;1000.0;  4.0000001E-01;0.0;0;0.0;0.0;0.0;0;0.0;  1.0000000E+04;  0.0000000E+00;  0.0000000E+00;  1.0000000E+04;  0.0000000E+00;  1.0000000E+04;0.0;0.0;0.0;0.0
  2.0000000E+00;  9.9999998E-03; -1.6000000E-01;615;0.0;0.0;0.0;1000.0;  4.0000001E-01;0.0;0;0.0;0.0;0.0;0;0.0;  1.0000000E+04;  0.0000000E+00;  0.0000000E+00;  1.0000000E+04;  0.0000000E+00;  1.0000000E+04;0.0;0.0;0.0;0.0
  2.0000000E+00;  9.9999998E-03; -1.4000000E-01;616;0.0;0.0;0.0;1000.0;  4.0000001E-01;0.0;0;0.0;0.0;0.0;0;0.0;  1.0000000E+04;  0.0000000E+00;  0.0000000E+00;  1.0000000E+04;  0.0000000E+00;  1.0000000E+04;0.0;0.0;0.0;0.0
  2.0000000E+00;  9.9999998E-03; -1.2000000E-01;617;0.0;0.0;0.0;1000.0;  4.0000001E-01;0.0;0;0.0;0.0;0.0;0;0.0;  1.0000000E+04;  0.0000000E+00;  0.0000000E+00;  1.0000000E+04;  0.0000000E+00;  1.0000000E+04;0.0;0.0;0.0;0.0
  2.0000000E+00;  9.9999998E-03; -1.0000000E-01;618;0.0;0.0;0.0;1000.0;  4.0000001E-01;0.0;0;0.0;0.0;0.0;0;0.0;  1.0000000E+04;  0.0000000E+00;  0.0000000E+00;  1.0000000E+04;  0.0000000E+00;  1.0000000E+04;0.0;0.0;0.0;0.0
  2.0000000E+00;  9.9999998E-03; -7.9999998E-02;619;0.0;0.0;0.0;1000.0;  4.0000001E-01;0.0;0;0.0;0.0;0.0;0;0.0;  1.0000000E+04;  0.0000000E+00;  0.0000000E+00;  1.0000000E+04;  0.0000000E+00;  1.0000000E+04;0.0;0.0;0.0;0.0
  2.0000000E+00;  9.9999998E-03; -5.9999999E-02;620;0.0;0.0;0.0;1000.0;  4.0000001E-01;0.0;0;0.0;0.0;0.0;0;0.0;  1.0000000E+04;  0.0000000E+00;  0.0000000E+00;  1.0000000E+04;  0.0000000E+00;  1.0000000E+04;0.0;0.0;0.0;0.0
  2.0000000E+00;  9.9999998E-03; -3.9999999E-02;621;0.0;0.0;0.0;1000.0;  4.0000001E-01;0.0;0;0.0;0.0;0.0;0;0.0;  1.0000000E+04;  0.0000000E+00;  0.0000000E+00;  1.0000000E+04;  0.0000000E+00;  1.0000000E+04;0.0;0.0;0.0;0.0
  2.0000000E+00;  9.9999998E-03; -2.0000000E-02;622;0.0;0.0;0.0;1000.0;  4.0000001E-01;0.0;0;0.0;0.0;0.0;0;0.0;  1.0000000E+04;  0.0000000E+00;  0.0000000E+00;  1.0000000E+04;  0.0000000E+00;  1.0000000E+04;0.0;0.0;0.0;0.0
  2.0000000E+00;  9.9999998E-03;  0.0000000E+00;623;0.0;0.0;0.0;1000.0;  4.0000001E-01;0.0;0;0.0;0.0;0.0;0;0.0;  1.0000000E+04;  0.0000000E+00;  0.0000000E+00;  1.0000000E+04;  0.0000000E+00;  1.0000000E+04;0.0;0.0;0.0;0.0
  2.0000000E+00;  9.9999998E-03;  2.0000000E-02;624;0.0;0.0;0.0;1000.0;  4.0000001E-01;0.0;0;0.0;0.0;0.0;0;0.0;  1.0000000E+04;  0.0000000E+00;  0.0000000E+00;  1.0000000E+04;  0.0000000E+00;  1.0000000E+04;0.0;0.0;0.0;0.0
  2.0000000E+00;  9.9999998E-03;  3.9999999E-02;625;0.0;0.0;0.0;1000.0;  4.0000001E-01;0.0;0;0.0;0.0;0.0;0;0.0;  1.0000000E+04;  0.0000000E+00;  0.0000000E+00;  1.0000000E+04;  0.0000000E+00;  1.0000000E+04;0.0;0.0;0.0;0.0
  2.0000000E+00;  9.9999998E-03;  5.9999999E-02;626;0.0;0.0;0.0;1000.0;  4.0000001E-01;0.0;0;0.0;0.0;0.0;0;0.0;  1.0000000E+04;  0.0000000E+00;  0.0000000E+00;  1.0000000E+04;  0.0000000E+00;  1.0000000E+04;0.0;0.0;0.0;0.0
  2.0000000E+00;  9.9999998E-03;  7.9999998E-02;627;0.0;0.0;0.0;1000.0;  4.0000001E-01;0.0;0;0.0;0.0;0.0;0;0.0;  1.0000000E+04;  0.0000000E+00;  0.0000000E+00;  1.0000000E+04;  0.0000000E+00;  1.0000000E+04;0.0;0.0;0.0;0.0
  2.0200000E+00;  9.9999998E-03; -4.0000001E-01;628;0.0;0.0;0.0;1000.0;  4.0000001E-01;0.0;0;0.0;0.0;0.0;0;0.0;  1.0000000E+04;  0.0000000E+00;  0.0000000E+00;  1.0000000E+04;  0.0000000E+00;  1.0000000E+04;0.0;0.0;0.0;0.0
  2.0200000E+00;  9.9999998E-03; -3.8000000E-01;629;0.0;0.0;0.0;1000.0;  4.0000001E-01;0.0;0;0.0;0.0;0.0;0;0.0;  1.0000000E+04;  0.0000000E+00;  0.0000000E+00;  1.0000000E+04;  0.0000000E+00;  1.0000000E+04;0.0;0.0;0.0;0.0
  2.0200000E+00;  9.9999998E-03; -3.6000001E-01;630;0.0;0.0;0.0;1000.0;  4.0000001E-01;0.0;0;0.0;0.0;0.0;0;0.0;  1.0000000E+04;  0.0000000E+00;  0.0000000E+00;  1.0000000E+04;  0.0000000E+00;  1.0000000E+04;0.0;0.0;0.0;0.0
  2.0200000E+00;  9.9999998E-03; -3.4000000E-01;631;0.0;0.0;0.0;1000.0;  4.0000001E-01;0.0;0;0.0;0.0;0.0;0;0.0;  1.0000000E+04;  0.0000000E+00;  0.0000000E+00;  1.0000000E+04;  0.0000000E+00;  1.0000000E+04;0.0;0.0;0.0;0.0
  2.0200000E+00;  9.9999998E-03; -3.1999999E-01;632;0.0;0.0;0.0;1000.0;  4.0000001E-01;0.0;0;0.0;0.0;0.0;0;0.0;  1.0000000E+04;  0.0000000E+00;  0.0000000E+00;  1.0000000E+04;  0.0000000E+00;  1.0000000E+04;0.0;0.0;0.0;0.0
  2.0200000E+00;  9.9999998E-03; -3.0000001E-01;633;0.0;0.0;0.0;1000.0;  4.0000001E-01;0.0;0;0.0;0.0;0.0;0;0.0;  1.0000000E+04;  0.0000000E+00;  0.0000000E+00;  1.0000000E+04;  0.0000000E+00;  1.0000000E+04;0.0;0.0;0.0;0.0
  2.0200000E+00;  9.9999998E-03; -2.8000000E-01;634;0.0;0.0;0.0;1000.0;  4.0000001E-01;0.0;0;0.0;0.0;0.0;0;0.0;  1.0000000E+04;  0.0000000E+00;  0.0000000E+00;  1.0000000E+04;  0.0000000E+00;  1.0000000E+04;0.0;0.0;0.0;0.0
  2.0200000E+00;  9.9999998E-03; -2.5999999E-01;635;0.0;0.0;0.0;1000.0;  4.0000001E-01;0.0;0;0.0;0.0;0.0;0;0.0;  1.0000000E+04;  0.0000000E+00;  0.0000000E+00;  1.0000000E+04;  0.0000000E+00;  1.0000000E+04;0.0;0.0;0.0;0.0
  2.0200000E+00;  9.9999998E-03; -2.3999999E-01;636;0.0;0.0;0.0;1000.0;  4.0000001E-01;0.0;0;0.0;0.0;0.0;0;0.0;  1.0000000E+04;  0.0000000E+00;  0.0000000E+00;  1.0000000E+04;  0.0000000E+00;  1.0000000E+04;0.0;0.0;0.0;0.0
  2.0200000E+00;  9.9999998E-03; -2.2000000E-01;637;0.0;0.0;0.0;1000.0;  4.0000001E-01;0.0;0;0.0;0.0;0.0;0;0.0;  1.0000000E+04;  0.0000000E+00;  0.0000000E+00;  1.0000000E+04;  0.0000000E+00;  1.0000000E+04;0.0;0.0;0.0;0.0
  2.0200000E+00;  9.9999998E-03; -2.0000000E-01;638;0.0;0.0;0.0;1000.0;  4.0000001E-01;0.0;0;0.0;0.0;0.0;0;0.0;  1.0000000E+04;  0.0000000E+00;  0.0000000E+00;  1.0000000E+04;  0.0000000E+00;  1.0000000E+04;0.0;0.0;0.0;0.0
  2.0200000E+00;  9.9999998E-03; -1.8000001E-01;639;0.0;0.0;0.0;1000.0;  4.0000001E-01;0.0;0;0.0;0.0;0.0;0;0.0;  1.0000000E+04;  0.0000000E+00;  0.0000000E+00;  1.0000000E+04;  0.0000000E+00;  1.0000000E+04;0.0;0.0;0.0;0.0
  2.0200000E+00;  9.9999998E-03; -1.6000000E-01;640;0.0;0.0;0.0;1000.0;  4.0000001E-01;0.0;0;0.0;0.0;0.0;0;0.0;  1.0000000E+04;  0.0000000E+00;  0.0000000E+00;  1.0000000E+04;  0.0000000E+00;  1.0000000E+04;0.0;0.0;0.0;0.0
  2.0200000E+00;  9.9999998E-03; -1.4000000E-01;641;0.0;0.0;0.0;1000.0;  4.0000001E-01;0.0;0;0.0;0.0;0.0;0;0.0;  1.0000000E+04;  0.0000000E+00;  0.0000000E+00;  1.0000000E+04;  0.0000000E+00;  1.0000000E+04;0.0;0.0;0.0;0.0
  2.0200000E+00;  9.9999998E-03; -1.2000000E-01;642;0.0;0.0;0.0;1000.0;  4.0000001E-01;0.0;0;0.0;0.0;0.0;0;0.0;  1.0000000E+04;  0.0000000E+00;  0.0000000E+00;  1.0000000E+04;  0.0000000E+00;  1.0000000E+04;0.0;0.0;0.0;0.0
  2.0200000E+00;  9.9999998E-03; -1.0000000E-01;643;0.0;0.0;0.0;1000.0;  4.0000001E-01;0.0;0;0.0;0.0;0.0;0;0.0;  1.0000000E+04;  0.0000000E+00;  0.0000000E+00;  1.0000000E+04;  0.0000000E+00;  1.0000000E+04;0.0;0.0;0.0;0.0
  2.0200000E+00;  9.9999998E-03; -7.9999998E-02;644;0.0;0.0;0.0;1000.0;  4.0000001E-01;0.0;0;0.0;0.0;0.0;0;0.0;  1.0000000E+04;  0.0000000E+00;  0.0000000E+00;  1.0000000E+04;  0.0000000E+00;  1.0000000E+04;0.0;0.0;0.0;0.0
  2.0200000E+00;  9.9999998E-03; -5.9999999E-02;645;0.0;0.0;0.0;1000.0;  4.0000001E-01;0.0;0;0.0;0.0;0.0;0;0.0;  1.0000000E+04;  0.0000000E+00;  0.0000000E+00;  1.0000000E+04;  0.0000000E+00;  1.0000000E+04;0.0;0.0;0.0;0.0
  2.0200000E+00;  9.9999998E-03; -3.9999999E-02;646;0.0;0.0;0.0;1000.0;  4.0000001E-01;0.0;0;0.0;0.0;0.0;0;0.0;  1.0000000E+04;  0.0000000E+00;  0.0000000E+00;  1.0000000E+04;  0.0000000E+00;  1.0000000E+04;0.0;0.0;0.0;0.0
  2.0200000E+00;  9.9999998E-03; -2.0000000E-02;647;0.0;0.0;0.0;1000.0;  4.0000001E-01;0.0;0;0.0;0.0;0.0;0;0.0;  1.0000000E+04;  0.0000000E+00;  0.0000000E+00;  1.0000000E+04;  0.0000000E+00;  1.0000000E+04;0.0;0.0;0.0;0.0
  2.0200000E+00;  9.9999998E-03;  0.0000000E+00;648;0.0;0.0;0.0;1000.0;  4.0000001E-01;0.0;0;0.0;0.0;0.0;0;0.0;  1.0000000E+04;  0.0000000E+00;  0.0000000E+00;  1.0000000E+04;  0.0000000E+00;  1.0000000E+04;0.0;0.0;0.0;0.0
  2.0200000E+00;  9.9999998E-03;  2.0000000E-02;649;0.0;0.0;0.0;1000.0;  4.0000001E-01;0.0;0;0.0;0.0;0.0;0;0.0;  1.0000000E+04;  0.0000000E+00;  0.0000000E+00;  1.0000000E+04;  0.0000000E+00;  1.0000000E+04;0.0;0.0;0.0;0.0
  2.0200000E+00;  9.9999998E-03;  3.9999999E-02;650;0.0;0.0;0.0;1000.0;  4.0000001E-01;0.0;0;0.0;0.0;0.0;0;0.0;  1.0000000E+04;  0.0000000E+00;  0.0000000E+00;  1.0000000E+04;  0.0000000E+00;  1.0000000E+04;0.0;0.0;0.0;0.0
  2.0200000E+00;  9.9999998E-03;  5.9999999E-02;651;0.0;0.0;0.0;1000.0;  4.0000001E-01;0.0;0;0.0;0.0;0.0;0;0.0;  1.0000000E+04;  0.0000000E+00;  0.0000000E+00;  1.0000000E+04;  0.0000000E+00;  1.0000000E+04;0.0;0.0;0.0;0.0
  2.0200000E+00;  9.9999998E-03;  7.9999998E-02;652;0.0;0.0;0.0;1000.0;  4.0000001E-01;0.0;0;0.0;0.0;0.0;0;0.0;  1.0000000E+04;  0.0000000E+00;  0.0000000E+00;  1.0000000E+04;  0.0000000E+00;  1.0000000E+04;0.0;0.0;0.0;0.0
  2.0200000E+00;  9.9999998E-03;  1.0000000E-01;653;0.0;0.0;0.0;1000.0;  4.0000001E-01;0.0;0;0.0;0.0;0.0;0;0.0;  1.0000000E+04;  0.0000000E+00;  0.0000000E+00;  1.0000000E+04;  0.0000000E+00;  1.0000000E+04;0.0;0.0;0.0;0.0
  2.0200000E+00;  9.9999998E-03;  1.2000000E-01;654;0.0;0.0;0.0;1000.0;  4.0000001E-01;0.0;0;0.0;0.0;0.0;0;0.0;  1.0000000E+04;  0.0000000E+00;  0.0000000E+00;  1.0000000E+04;  0.0000000E+00;  1.0000000E+04;0.0;0.0;0.0;0.0
  2.0200000E+00;  9.9999998E-03;  1.4000000E-01;655;0.0;0.0;0.0;1000.0;  4.0000001E-01;0.0;0;0.0;0.0;0.0;0;0.0;  1.0000000E+04;  0.0000000E+00;  0.0000000E+00;  1.0000000E+04;  0.0000000E+00;  1.0000000E+04;0.0;0.0;0.0;0.0
  2.0200000E+00;  9.9999998E-03;  1.6000000E-01;656;0.0;0.0;0.0;1000.0;  4.0000001E-01;0.0;0;0.0;0.0;0.0;0;0.0;  1.0000000E+04;  0.0000000E+00;  0.0000000E+00;  1.0000000E+04;  0.0000000E+00;  1.0000000E+04;0.0;0.0;0.0;0.0
  2.0200000E+00;  9.9999998E-03;  1.8000001E-01;657;0.0;0.0;0.0;1000.0;  4.0000001E-01;0.0;0;0.0;0.0;0.0;0;0.0;  1.0000000E+04;  0.0000000E+00;  0.0000000E+00;  1.0000000E+04;  0.0000000E+00;  1.0000000E+04;0.0;0.0;0.0;0.0
  2.0400000E+00;  9.9999998E-03; -4.0000001E-01;658;0.0;0.0;0.0;1000.0;  4.0000001E-01;0.0;0;0.0;0.0;0.0;0;0.0;  1.0000000E+04;  0.0000000E+00;  0.0000000E+00;  1.0000000E+04;  0.0000000E+00;  1.0000000E+04;0.0;0.0;0.0;0.0
  2.0400000E+00;  9.9999998E-03; -3.8000000E-01;659;0.0;0.0;0.0;1000.0;  4.0000001E-01;0.0;0;0.0;0.0;0.0;0;0.0;  1.0000000E+04;  0.0000000E+00;  0.0000000E+00;  1.0000000E+04;  0.0000000E+00;  1.0000000E+04;0.0;0.0;0.0;0.0
  2.0400000E+00;  9.9999998E-03; -3.6000001E-01;660;0.0;0.0;0.0;1000.0;  4.0000001E-01;0.0;0;0.0;0.0;0.0;0;0.0;  1.0000000E+04;  0.0000000E+00;  0.0000000E+00;  1.0000000E+04;  0.0000000E+00;  1.0000000E+04;0.0;0.0;0.0;0.0
  2.0400000E+00;  9.9999998E-03; -3.4000000E-01;661;0.0;0.0;0.0;1000.0;  4.0000001E-01;0.0;0;0.0;0.0;0.0;0;0.0;  1.0000000E+04;  0.0000000E+00;  0.0000000E+00;  1.0000000E+04;  0.0000000E+00;  1.0000000E+04;0.0;0.0;0.0;0.0
  2.0400000E+00;  9.9999998E-03; -3.1999999E-01;662;0.0;0.0;0.0;1000.0;  4.0000001E-01;0.0;0;0.0;0.0;0.0;0;0.0;  1.0000000E+04;  0.0000000E+00;  0.0000000E+00;  1.0000000E+04;  0.0000000E+00;  1.0000000E+04;0.0;0.0;0.0;0.0
  2.0400000E+00;  9.9999998E-03; -3.0000001E-01;663;0.0;0.0;0.0;1000.0;  4.0000001E-01;0.0;0;0.0;0.0;0.0;0;0.0;  1.0000000E+04;  0.0000000E+00;  0.0000000E+00;  1.0000000E+04;  0.0000000E+00;  1.0000000E+04;0.0;0.0;0.0;0.0
  2.0400000E+00;  9.9999998E-03; -2.8000000E-01;664;0.0;0.0;0.0;1000.0;  4.0000001E-01;0.0;0;0.0;0.0;0.0;0;0.0;  1.0000000E+04;  0.0000000E+00;  0.0000000E+00;  1.0000000E+04;  0.0000000E+00;  1.0000000E+04;0.0;0.0;0.0;0.0
  2.0400000E+00;  9.9999998E-03; -2.5999999E-01;665;0.0;0.0;0.0;1000.0;  4.0000001E-01;0.0;0;0.0;0.0;0.0;0;0.0;  1.0000000E+04;  0.0000000E+00;  0.0000000E+00;  1.0000000E+04;  0.0000000E+00;  1.0000000E+04;0.0;0.0;0.0;0.0
  2.0400000E+00;  9.9999998E-03; -2.3999999E-01;666;0.0;0.0;0.0;1000.0;  4.0000001E-01;0.0;0;0.0;0.0;0.0;0;0.0;  1.0000000E+04;  0.0000000E+00;  0.0000000E+00;  1.0000000E+04;  0.0000000E+00;  1.0000000E+04;0.0;0.0;0.0;0.0
  2.0400000E+00;  9.9999998E-03; -2.2000000E-01;667;0.0;0.0;0.0;1000.0;  4.0000001E-01;0.0;0;0.0;0.0;0.0;0;0.0;  1.0000000E+04;  0.0000000E+00;  0.0000000E+00;  1.0000000E+04;  0.0000000E+00;  1.0000000E+04;0.0;0.0;0.0;0.0
  2.0400000E+00;  9.9999998E-03; -2.0000000E-01;668;0.0;0.0;0.0;1000.0;  4.0000001E-01;0.0;0;0.0;0.0;0.0;0;0.0;  1.0000000E+04;  0.0000000E+00;  0.0000000E+00;  1.0000000E+04;  0.0000000E+00;  1.0000000E+04;0.0;0.0;0.0;0.0
  2.0400000E+00;  9.9999998E-03; -1.8000001E-01;669;0.0;0.0;0.0;1000.0;  4.0000001E-01;0.0;0;0.0;0.0;0.0;0;0.0;  1.0000000E+04;  0.0000000E+00;  0.0000000E+00;  1.0000000E+04;  0.0000000E+00;  1.0000000E+04;0.0;0.0;0.0;0.0
  2.0400000E+00;  9.9999998E-03; -1.6000000E-01;670;0.0;0.0;0.0;1000.0;  4.0000001E-01;0.0;0;0.0;0.0;0.0;0;0.0;  1.0000000E+04;  0.0000000E+00;  0.0000000E+00;  1.0000000E+04;  0.0000000E+00;  1.0000000E+04;0.0;0.0;0.0;0.0
  2.0400000E+00;  9.9999998E-03; -1.4000000E-01;671;0.0;0.0;0.0;1000.0;  4.0000001E-01;0.0;0;0.0;0.0;0.0;0;0.0;  1.0000000E+04;  0.0000000E+00;  0.0000000E+00;  1.0000000E+04;  0.0000000E+00;  1.0000000E+04;0.0;0.0;0.0;0.0
  2.0400000E+00;  9.9999998E-03; -1.2000000E-01;672;0.0;0.0;0.0;1000.0;  4.0000001E-01;0.0;0;0.0;0.0;0.0;0;0.0;  1.0000000E+04;  0.0000000E+00;  0.0000000E+00;  1.0000000E+04;  0.0000000E+00;  1.0000000E+04;0.0;0.0;0.0;0.0
  2.0400000E+00;  9.9999998E-03; -1.0000000E-01;673;0.0;0.0;0.0;1000.0;  4.0000001E-01;0.0;0;0.0;0.0;0.0;0;0.0;  1.0000000E+04;  0.0000000E+00;  0.0000000E+00;  1.0000000E+04;  0.0000000E+00;  1.0000000E+04;0.0;0.0;0.0;0.0
  2.0400000E+00;  9.9999998E-03; -7.9999998E-02;674;0.0;0.0;0.0;1000.0;  4.0000001E-01;0.0;0;0.0;0.0;0.0;0;0.0;  1.0000000E+04;  0.0000000E+00;  0.0000000E+00;  1.0000000E+04;  0.0000000E+00;  1.0000000E+04;0.0;0.0;0.0;0.0
  2.0400000E+00;  9.9999998E-03; -5.9999999E-02;675;0.0;0.0;0.0;1000.0;  4.0000001E-01;0.0;0;0.0;0.0;0.0;0;0.0;  1.0000000E+04;  0.0000000E+00;  0.0000000E+00;  1.0000000E+04;  0.0000000E+00;  1.0000000E+04;0.0;0.0;0.0;0.0
  2.0400000E+00;  9.9999998E-03; -3.9999999E-02;676;0.0;0.0;0.0;1000.0;  4.0000001E-01;0.0;0;0.0;0.0;0.0;0;0.0;  1.0000000E+04;  0.0000000E+00;  0.0000000E+00;  1.0000000E+04;  0.0000000E+00;  1.0000000E+04;0.0;0.0;0.0;0.0
  2.0400000E+00;  9.9999998E-03; -2.0000000E-02;677;0.0;0.0;0.0;1000.0;  4.0000001E-01;0.0;0;0.0;0.0;0.0;0;0.0;  1.0000000E+04;  0.0000000E+00;  0.0000000E+00;  1.0000000E+04;  0.0000000E+00;  1.0000000E+04;0.0;0.0;0.0;0.0
  2.0400000E+00;  9.9999998E-03;  0.0000000E+00;678;0.0;0.0;0.0;1000.0;  4.0000001E-01;0.0;0;0.0;0.0;0.0;0;0.0;  1.0000000E+04;  0.0000000E+00;  0.0000000E+00;  1.0000000E+04;  0.0000000E+00;  1.0000000E+04;0.0;0.0;0.0;0.0
  2.0400000E+00;  9.9999998E-03;  2.0000000E-02;679;0.0;0.0;0.0;1000.0;  4.0000001E-01;0.0;0;0.0;0.0;0.0;0;0.0;  1.0000000E+04;  0.0000000E+00;  0.0000000E+00;  1.0000000E+04;  0.0000000E+00;  1.0000000E+04;0.0;0.0;0.0;0.0
  2.0400000E+00;  9.9999998E-03;  3.9999999E-02;680;0.0;0.0;0.0;1000.0;  4.0000001E-01;0.0;0;0.0;0.0;0.0;0;0.0;  1.0000000E+04;  0.0000000E+00;  0.0000000E+00;  1.0000000E+04;  0.0000000E+00;  1.0000000E+04;0.0;0.0;0.0;0.0
  2.0400000E+00;  9.9999998E-03;  5.9999999E-02;681;0.0;0.0;0.0;1000.0;  4.0000001E-01;0.0;0;0.0;0.0;0.0;0;0.0;  1.0000000E+04;  0.0000000E+00;  0.0000000E+00;  1.0000000E+04;  0.0000000E+00;  1.0000000E+04;0.0;0.0;0.0;0.0
  2.0400000E+00;  9.9999998E-03;  7.9999998E-02;682;0.0;0.0;0.0;1000.0;  4.0000001E-01;0.0;0;0.0;0.0;0.0;0;0.0;  1.0000000E+04;  0.0000000E+00;  0.0000000E+00;  1.0000000E+04;  0.0000000E+00;  1.0000000E+04;0.0;0.0;0.0;0.0
  2.0400000E+00;  9.9999998E-03;  1.0000000E-01;683;0.0;0.0;0.0;1000.0;  4.0000001E-01;0.0;0;0.0;0.0;0.0;0;0.0;  1.0000000E+04;  0.0000000E+00;  0.0000000E+00;  1.0000000E+04;  0.0000000E+00;  1.0000000E+04;0.0;0.0;0.0;0.0
  2.0400000E+00;  9.9999998E-03;  1.2000000E-01;684;0.0;0.0;0.0;1000.0;  4.0000001E-01;0.0;0;0.0;0.0;0.0;0;0.0;  1.0000000E+04;  0.0000000E+00;  0.0000000E+00;  1.0000000E+04;  0.0000000E+00;  1.0000000E+04;0.0;0.0;0.0;0.0
  2.0400000E+00;  9.9999998E-03;  1.4000000E-01;685;0.0;0.0;0.0;1000.0;  4.0000001E-01;0.0;0;0.0;0.0;0.0;0;0.0;  1.0000000E+04;  0.0000000E+00;  0.0000000E+00;  1.0000000E+04;  0.0000000E+00;  1.0000000E+04;0.0;0.0;0.0;0.0
  2.0400000E+00;  9.9999998E-03;  1.6000000E-01;686;0.0;0.0;0.0;1000.0;  4.0000001E-01;0.0;0;0.0;0.0;0.0;0;0.0;  1.0000000E+04;  0.0000000E+00;  0.0000000E+00;  1.0000000E+04;  0.0000000E+00;  1.0000000E+04;0.0;0.0;0.0;0.0
  2.0400000E+00;  9.9999998E-03;  1.8000001E-01;687;0.0;0.0;0.0;1000.0;  4.0000001E-01;0.0;0;0.0;0.0;0.0;0;0.0;  1.0000000E+04;  0.0000000E+00;  0.0000000E+00;  1.0000000E+04;  0.0000000E+00;  1.0000000E+04;0.0;0.0;0.0;0.0
  2.0400000E+00;  9.9999998E-03;  2.0000000E-01;688;0.0;0.0;0.0;1000.0;  4.0000001E-01;0.0;0;0.0;0.0;0.0;0;0.0;  1.0000000E+04;  0.0000000E+00;  0.0000000E+00;  1.0000000E+04;  0.0000000E+00;  1.0000000E+04;0.0;0.0;0.0;0.0
  2.0400000E+00;  9.9999998E-03;  2.2000000E-01;689;0.0;0.0;0.0;1000.0;  4.0000001E-01;0.0;0;0.0;0.0;0.0;0;0.0;  1.0000000E+04;  0.0000000E+00;  0.0000000E+00;  1.0000000E+04;  0.0000000E+00;  1.0000000E+04;0.0;0.0;0.0;0.0
  2.0400000E+00;  9.9999998E-03;  2.3999999E-01;690;0.0;0.0;0.0;1000.0;  4.0000001E-01;0.0;0;0.0;0.0;0.0;0;0.0;  1.0000000E+04;  0.0000000E+00;  0.0000000E+00;  1.0000000E+04;  0.0000000E+00;  1.0000000E+04;0.0;0.0;0.0;0.0
  2.0400000E+00;  9.9999998E-03;  2.5999999E-01;691;0.0;0.0;0.0;1000.0;  4.0000001E-01;0.0;0;0.0;0.0;0.0;0;0.0;  1.0000000E+04;  0.0000000E+00;  0.0000000E+00;  1.0000000E+04;  0.0000000E+00;  1.0000000E+04;0.0;0.0;0.0;0.0
  2.0400000E+00;  9.9999998E-03;  2.8000000E-01;692;0.0;0.0;0.0;1000.0;  4.0000001E-01;0.0;0;0.0;0.0;0.0;0;0.0;  1.0000000E+04;  0.0000000E+00;  0.0000000E+00;  1.0000000E+04;  0.0000000E+00;  1.0000000E+04;0.0;0.0;0.0;0.0
  2.0599999E+00;  9.9999998E-03; -4.0000001E-01;693;0.0;0.0;0.0;1000.0;  4.0000001E-01;0.0;0;0.0;0.0;0.0;0;0.0;  1.0000000E+04;  0.0000000E+00;  0.0000000E+00;  1.0000000E+04;  0.0000000E+00;  1.0000000E+04;0.0;0.0;0.0;0.0
  2.0599999E+00;  9.9999998E-03; -3.8000000E-01;694;0.0;0.0;0.0;1000.0;  4.0000001E-01;0.0;0;0.0;0.0;0.0;0;0.0;  1.0000000E+04;  0.0000000E+00;  0.0000000E+00;  1.0000000E+04;  0.0000000E+00;  1.0000000E+04;0.0;0.0;0.0;0.0
  2.0599999E+00;  9.9999998E-03; -3.6000001E-01;695;0.0;0.0;0.0;1000.0;  4.0000001E-01;0.0;0;0.0;0.0;0.0;0;0.0;  1.0000000E+04;  0.0000000E+00;  0.0000000E+00;  1.0000000E+04;  0.0000000E+00;  1.0000000E+04;0.0;0.0;0.0;0.0
  2.0599999E+00;  9.9999998E-03; -3.4000000E-01;696;0.0;0.0;0.0;1000.0;  4.0000001E-01;0.0;0;0.0;0.0;0.0;0;0.0;  1.0000000E+04;  0.0000000E+00;  0.0000000E+00;  1.0000000E+04;  0.0000000E+00;  1.0000000E+04;0.0;0.0;0.0;0.0
  2.0599999E+00;  9.9999998E-03; -3.1999999E-01;697;0.0;0.0;0.0;1000.0;  4.0000001E-01;0.0;0;0.0;0.0;0.0;0;0.0;  1.0000000E+04;  0.0000000E+00;  0.0000000E+00;  1.0000000E+04;  0.0000000E+00;  1.0000000E+04;0.0;0.0;0.0;0.0
  2.0599999E+00;  9.9999998E-03; -3.0000001E-01;698;0.0;0.0;0.0;1000.0;  4.0000001E-01;0.0;0;0.0;0.0;0.0;0;0.0;  1.0000000E+04;  0.0000000E+00;  0.0000000E+00;  1.0000000E+04;  0.0000000E+00;  1.0000000E+04;0.0;0.0;0.0;0.0
  2.0599999E+00;  9.9999998E-03; -2.8000000E-01;699;0.0;0.0;0.0;1000.0;  4.0000001E-01;0.0;0;0.0;0.0;0.0;0;0.0;  1.0000000E+04;  0.0000000E+00;  0.0000000E+00;  1.0000000E+04;  0.0000000E+00;  1.0000000E+04;0.0;0.0;0.0;0.0
  2.0599999E+00;  9.9999998E-03; -2.5999999E-01;700;0.0;0.0;0.0;1000.0;  4.0000001E-01;0.0;0;0.0;0.0;0.0;0;0.0;  1.0000000E+04;  0.0000000E+00;  0.0000000E+00;  1.0000000E+04;  0.0000000E+00;  1.0000000E+04;0.0;0.0;0.0;0.0
  2.0599999E+00;  9.9999998E-03; -2.3999999E-01;701;0.0;0.0;0.0;1000.0;  4.0000001E-01;0.0;0;0.0;0.0;0.0;0;0.0;  1.0000000E+04;  0.0000000E+00;  0.0000000E+00;  1.0000000E+04;  0.0000000E+00;  1.0000000E+04;0.0;0.0;0.0;0.0
  2.0599999E+00;  9.9999998E-03; -2.2000000E-01;702;0.0;0.0;0.0;1000.0;  4.0000001E-01;0.0;0;0.0;0.0;0.0;0;0.0;  1.0000000E+04;  0.0000000E+00;  0.0000000E+00;  1.0000000E+04;  0.0000000E+00;  1.0000000E+04;0.0;0.0;0.0;0.0
  2.0599999E+00;  9.9999998E-03; -2.0000000E-01;703;0.0;0.0;0.0;1000.0;  4.0000001E-01;0.0;0;0.0;0.0;0.0;0;0.0;  1.0000000E+04;  0.0000000E+00;  0.0000000E+00;  1.0000000E+04;  0.0000000E+00;  1.0000000E+04;0.0;0.0;0.0;0.0
  2.0599999E+00;  9.9999998E-03; -1.8000001E-01;704;0.0;0.0;0.0;1000.0;  4.0000001E-01;0.0;0;0.0;0.0;0.0;0;0.0;  1.0000000E+04;  0.0000000E+00;  0.0000000E+00;  1.0000000E+04;  0.0000000E+00;  1.0000000E+04;0.0;0.0;0.0;0.0
  2.0599999E+00;  9.9999998E-03; -1.6000000E-01;705;0.0;0.0;0.0;1000.0;  4.0000001E-01;0.0;0;0.0;0.0;0.0;0;0.0;  1.0000000E+04;  0.0000000E+00;  0.0000000E+00;  1.0000000E+04;  0.0000000E+00;  1.0000000E+04;0.0;0.0;0.0;0.0
  2.0599999E+00;  9.9999998E-03; -1.4000000E-01;706;0.0;0.0;0.0;1000.0;  4.0000001E-01;0.0;0;0.0;0.0;0.0;0;0.0;  1.0000000E+04;  0.0000000E+00;  0.0000000E+00;  1.0000000E+04;  0.0000000E+00;  1.0000000E+04;0.0;0.0;0.0;0.0
  2.0599999E+00;  9.9999998E-03; -1.2000000E-01;707;0.0;0.0;0.0;1000.0;  4.0000001E-01;0.0;0;0.0;0.0;0.0;0;0.0;  1.0000000E+04;  0.0000000E+00;  0.0000000E+00;  1.0000000E+04;  0.0000000E+00;  1.0000000E+04;0.0;0.0;0.0;0.0
  2.0599999E+00;  9.9999998E-03; -1.0000000E-01;708;0.0;0.0;0.0;1000.0;  4.0000001E-01;0.0;0;0.0;0.0;0.0;0;0.0;  1.0000000E+04;  0.0000000E+00;  0.0000000E+00;  1.0000000E+04;  0.0000000E+00;  1.0000000E+04;0.0;0.0;0.0;0.0
  2.0599999E+00;  9.9999998E-03; -7.9999998E-02;709;0.0;0.0;0.0;1000.0;  4.0000001E-01;0.0;0;0.0;0.0;0.0;0;0.0;  1.0000000E+04;  0.0000000E+00;  0.0000000E+00;  1.0000000E+04;  0.0000000E+00;  1.0000000E+04;0.0;0.0;0.0;0.0
  2.0599999E+00;  9.9999998E-03; -5.9999999E-02;710;0.0;0.0;0.0;1000.0;  4.0000001E-01;0.0;0;0.0;0.0;0.0;0;0.0;  1.0000000E+04;  0.0000000E+00;  0.0000000E+00;  1.0000000E+04;  0.0000000E+00;  1.0000000E+04;0.0;0.0;0.0;0.0
  2.0599999E+00;  9.9999998E-03; -3.9999999E-02;711;0.0;0.0;0.0;1000.0;  4.0000001E-01;0.0;0;0.0;0.0;0.0;0;0.0;  1.0000000E+04;  0.0000000E+00;  0.0000000E+00;  1.0000000E+04;  0.0000000E+00;  1.0000000E+04;0.0;0.0;0.0;0.0
  2.0599999E+00;  9.9999998E-03; -2.0000000E-02;712;0.0;0.0;0.0;1000.0;  4.0000001E-01;0.0;0;0.0;0.0;0.0;0;0.0;  1.0000000E+04;  0.0000000E+00;  0.0000000E+00;  1.0000000E+04;  0.0000000E+00;  1.0000000E+04;0.0;0.0;0.0;0.0
  2.0599999E+00;  9.9999998E-03;  0.0000000E+00;713;0.0;0.0;0.0;1000.0;  4.0000001E-01;0.0;0;0.0;0.0;0.0;0;0.0;  1.0000000E+04;  0.0000000E+00;  0.0000000E+00;  1.0000000E+04;  0.0000000E+00;  1.0000000E+04;0.0;0.0;0.0;0.0
  2.0599999E+00;  9.9999998E-03;  2.0000000E-02;714;0.0;0.0;0.0;1000.0;  4.0000001E-01;0.0;0;0.0;0.0;0.0;0;0.0;  1.0000000E+04;  0.0000000E+00;  0.0000000E+00;  1.0000000E+04;  0.0000000E+00;  1.0000000E+04;0.0;0.0;0.0;0.0
  2.0599999E+00;  9.9999998E-03;  3.9999999E-02;715;0.0;0.0;0.0;1000.0;  4.0000001E-01;0.0;0;0.0;0.0;0.0;0;0.0;  1.0000000E+04;  0.0000000E+00;  0.0000000E+00;  1.0000000E+04;  0.0000000E+00;  1.0000000E+04;0.0;0.0;0.0;0.0
  2.0599999E+00;  9.9999998E-03;  5.9999999E-02;716;0.0;0.0;0.0;1000.0;  4.0000001E-01;0.0;0;0.0;0.0;0.0;0;0.0;  1.0000000E+04;  0.0000000E+00;  0.0000000E+00;  1.0000000E+04;  0.0000000E+00;  1.0000000E+04;0.0;0.0;0.0;0.0
  2.0599999E+00;  9.9999998E-03;  7.9999998E-02;717;0.0;0.0;0.0;1000.0;  4.0000001E-01;0.0;0;0.0;0.0;0.0;0;0.0;  1.0000000E+04;  0.0000000E+00;  0.0000000E+00;  1.0000000E+04;  0.0000000E+00;  1.0000000E+04;0.0;0.0;0.0;0.0
  2.0599999E+00;  9.9999998E-03;  1.0000000E-01;718;0.0;0.0;0.0;1000.0;  4.0000001E-01;0.0;0;0.0;0.0;0.0;0;0.0;  1.0000000E+04;  0.0000000E+00;  0.0000000E+00;  1.0000000E+04;  0.0000000E+00;  1.0000000E+04;0.0;0.0;0.0;0.0
  2.0599999E+00;  9.9999998E-03;  1.2000000E-01;719;0.0;0.0;0.0;1000.0;  4.0000001E-01;0.0;0;0.0;0.0;0.0;0;0.0;  1.0000000E+04;  0.0000000E+00;  0.0000000E+00;  1.0000000E+04;  0.0000000E+00;  1.0000000E+04;0.0;0.0;0.0;0.0
  2.0599999E+00;  9.9999998E-03;  1.4000000E-01;720;0.0;0.0;0.0;1000.0;  4.0000001E-01;0.0;0;0.0;0.0;0.0;0;0.0;  1.0000000E+04;  0.0000000E+00;  0.0000000E+00;  1.0000000E+04;  0.0000000E+00;  1.0000000E+04;0.0;0.0;0.0;0.0
  2.0599999E+00;  9.9999998E-03;  1.6000000E-01;721;0.0;0.0;0.0;1000.0;  4.0000001E-01;0.0;0;0.0;0.0;0.0;0;0.0;  1.0000000E+04;  0.0000000E+00;  0.0000000E+00;  1.0000000E+04;  0.0000000E+00;  1.0000000E+04;0.0;0.0;0.0;0.0
  2.0599999E+00;  9.9999998E-03;  1.8000001E-01;722;0.0;0.0;0.0;1000.0;  4.0000001E-01;0.0;0;0.0;0.0;0.0;0;0.0;  1.0000000E+04;  0.0000000E+00;  0.0000000E+00;  1.0000000E+04;  0.0000000E+00;  1.0000000E+04;0.0;0.0;0.0;0.0
  2.0599999E+00;  9.9999998E-03;  2.0000000E-01;723;0.0;0.0;0.0;1000.0;  4.0000001E-01;0.0;0;0.0;0.0;0.0;0;0.0;  1.0000000E+04;  0.0000000E+00;  0.0000000E+00;  1.0000000E+04;  0.0000000E+00;  1.0000000E+04;0.0;0.0;0.0;0.0
  2.0599999E+00;  9.9999998E-03;  2.2000000E-01;724;0.0;0.0;0.0;1000.0;  4.0000001E-01;0.0;0;0.0;0.0;0.0;0;0.0;  1.0000000E+04;  0.0000000E+00;  0.0000000E+00;  1.0000000E+04;  0.0000000E+00;  1.0000000E+04;0.0;0.0;0.0;0.0
  2.0599999E+00;  9.9999998E-03;  2.3999999E-01;725;0.0;0.0;0.0;1000.0;  4.0000001E-01;0.0;0;0.0;0.0;0.0;0;0.0;  1.0000000E+04;  0.0000000E+00;  0.0000000E+00;  1.0000000E+04;  0.0000000E+00;  1.0000000E+04;0.0;0.0;0.0;0.0
  2.0599999E+00;  9.9999998E-03;  2.5999999E-01;726;0.0;0.0;0.0;1000.0;  4.0000001E-01;0.0;0;0.0;0.0;0.0;0;0.0;  1.0000000E+04;  0.0000000E+00;  0.0000000E+00;  1.0000000E+04;  0.0000000E+00;  1.0000000E+04;0.0;0.0;0.0;0.0
  2.0599999E+00;  9.9999998E-03;  2.8000000E-01;727;0.0;0.0;0.0;1000.0;  4.0000001E-01;0.0;0;0.0;0.0;0.0;0;0.0;  1.0000000E+04;  0.0000000E+00;  0.0000000E+00;  1.0000000E+04;  0.0000000E+00;  1.0000000E+04;0.0;0.0;0.0;0.0
  2.0599999E+00;  9.9999998E-03;  3.0000001E-01;728;0.0;0.0;0.0;1000.0;  4.0000001E-01;0.0;0;0.0;0.0;0.0;0;0.0;  1.0000000E+04;  0.0000000E+00;  0.0000000E+00;  1.0000000E+04;  0.0000000E+00;  1.0000000E+04;0.0;0.0;0.0;0.0
  2.0599999E+00;  9.9999998E-03;  3.1999999E-01;729;0.0;0.0;0.0;1000.0;  4.0000001E-01;0.0;0;0.0;0.0;0.0;0;0.0;  1.0000000E+04;  0.0000000E+00;  0.0000000E+00;  1.0000000E+04;  0.0000000E+00;  1.0000000E+04;0.0;0.0;0.0;0.0
  2.0599999E+00;  9.9999998E-03;  3.4000000E-01;730;0.0;0.0;0.0;1000.0;  4.0000001E-01;0.0;0;0.0;0.0;0.0;0;0.0;  1.0000000E+04;  0.0000000E+00;  0.0000000E+00;  1.0000000E+04;  0.0000000E+00;  1.0000000E+04;0.0;0.0;0.0;0.0
  2.0599999E+00;  9.9999998E-03;  3.6000001E-01;731;0.0;0.0;0.0;1000.0;  4.0000001E-01;0.0;0;0.0;0.0;0.0;0;0.0;  1.0000000E+04;  0.0000000E+00;  0.0000000E+00;  1.0000000E+04;  0.0000000E+00;  1.0000000E+04;0.0;0.0;0.0;0.0
  2.0599999E+00;  9.9999998E-03;  3.8000000E-01;732;0.0;0.0;0.0;1000.0;  4.0000001E-01;0.0;0;0.0;0.0;0.0;0;0.0;  1.0000000E+04;  0.0000000E+00;  0.0000000E+00;  1.0000000E+04;  0.0000000E+00;  1.0000000E+04;0.0;0.0;0.0;0.0
  2.0799999E+00;  9.9999998E-03; -4.0000001E-01;733;0.0;0.0;0.0;1000.0;  4.0000001E-01;0.0;0;0.0;0.0;0.0;0;0.0;  1.0000000E+04;  0.0000000E+00;  0.0000000E+00;  1.0000000E+04;  0.0000000E+00;  1.0000000E+04;0.0;0.0;0.0;0.0
  2.0799999E+00;  9.9999998E-03; -3.8000000E-01;734;0.0;0.0;0.0;1000.0;  4.0000001E-01;0.0;0;0.0;0.0;0.0;0;0.0;  1.0000000E+04;  0.0000000E+00;  0.0000000E+00;  1.0000000E+04;  0.0000000E+00;  1.0000000E+04;0.0;0.0;0.0;0.0
  2.0799999E+00;  9.9999998E-03; -3.6000001E-01;735;0.0;0.0;0.0;1000.0;  4.0000001E-01;0.0;0;0.0;0.0;0.0;0;0.0;  1.0000000E+04;  0.0000000E+00;  0.0000000E+00;  1.0000000E+04;  0.0000000E+00;  1.0000000E+04;0.0;0.0;0.0;0.0
  2.0799999E+00;  9.9999998E-03; -3.4000000E-01;736;0.0;0.0;0.0;1000.0;  4.0000001E-01;0.0;0;0.0;0.0;0.0;0;0.0;  1.0000000E+04;  0.0000000E+00;  0.0000000E+00;  1.0000000E+04;  0.0000000E+00;  1.0000000E+04;0.0;0.0;0.0;0.0
  2.0799999E+00;  9.9999998E-03; -3.1999999E-01;737;0.0;0.0;0.0;1000.0;  4.0000001E-01;0.0;0;0.0;0.0;0.0;0;0.0;  1.0000000E+04;  0.0000000E+00;  0.0000000E+00;  1.0000000E+04;  0.0000000E+00;  1.0000000E+04;0.0;0.0;0.0;0.0
  2.0799999E+00;  9.9999998E-03; -3.0000001E-01;738;0.0;0.0;0.0;1000.0;  4.0000001E-01;0.0;0;0.0;0.0;0.0;0;0.0;  1.0000000E+04;  0.0000000E+00;  0.0000000E+00;  1.0000000E+04;  0.0000000E+00;  1.0000000E+04;0.0;0.0;0.0;0.0
  2.0799999E+00;  9.9999998E-03; -2.8000000E-01;739;0.0;0.0;0.0;1000.0;  4.0000001E-01;0.0;0;0.0;0.0;0.0;0;0.0;  1.0000000E+04;  0.0000000E+00;  0.0000000E+00;  1.0000000E+04;  0.0000000E+00;  1.0000000E+04;0.0;0.0;0.0;0.0
  2.0799999E+00;  9.9999998E-03; -2.5999999E-01;740;0.0;0.0;0.0;1000.0;  4.0000001E-01;0.0;0;0.0;0.0;0.0;0;0.0;  1.0000000E+04;  0.0000000E+00;  0.0000000E+00;  1.0000000E+04;  0.0000000E+00;  1.0000000E+04;0.0;0.0;0.0;0.0
  2.0799999E+00;  9.9999998E-03; -2.3999999E-01;741;0.0;0.0;0.0;1000.0;  4.0000001E-01;0.0;0;0.0;0.0;0.0;0;0.0;  1.0000000E+04;  0.0000000E+00;  0.0000000E+00;  1.0000000E+04;  0.0000000E+00;  1.0000000E+04;0.0;0.0;0.0;0.0
  2.0799999E+00;  9.9999998E-03; -2.2000000E-01;742;0.0;0.0;0.0;1000.0;  4.0000001E-01;0.0;0;0.0;0.0;0.0;0;0.0;  1.0000000E+04;  0.0000000E+00;  0.0000000E+00;  1.0000000E+04;  0.0000000E+00;  1.0000000E+04;0.0;0.0;0.0;0.0
  2.0799999E+00;  9.9999998E-03; -2.0000000E-01;743;0.0;0.0;0.0;1000.0;  4.0000001E-01;0.0;0;0.0;0.0;0.0;0;0.0;  1.0000000E+04;  0.0000000E+00;  0.0000000E+00;  1.0000000E+04;  0.0000000E+00;  1.0000000E+04;0.0;0.0;0.0;0.0
  2.0799999E+00;  9.9999998E-03; -1.8000001E-01;744;0.0;0.0;0.0;1000.0;  4.0000001E-01;0.0;0;0.0;0.0;0.0;0;0.0;  1.0000000E+04;  0.0000000E+00;  0.0000000E+00;  1.0000000E+04;  0.0000000E+00;  1.0000000E+04;0.0;0.0;0.0;0.0
  2.0799999E+00;  9.9999998E-03; -1.6000000E-01;745;0.0;0.0;0.0;1000.0;  4.0000001E-01;0.0;0;0.0;0.0;0.0;0;0.0;  1.0000000E+04;  0.0000000E+00;  0.0000000E+00;  1.0000000E+04;  0.0000000E+00;  1.0000000E+04;0.0;0.0;0.0;0.0
  2.0799999E+00;  9.9999998E-03; -1.4000000E-01;746;0.0;0.0;0.0;1000.0;  4.0000001E-01;0.0;0;0.0;0.0;0.0;0;0.0;  1.0000000E+04;  0.0000000E+00;  0.0000000E+00;  1.0000000E+04;  0.0000000E+00;  1.0000000E+04;0.0;0.0;0.0;0.0
  2.0799999E+00;  9.9999998E-03; -1.2000000E-01;747;0.0;0.0;0.0;1000.0;  4.0000001E-01;0.0;0;0.0;0.0;0.0;0;0.0;  1.0000000E+04;  0.0000000E+00;  0.0000000E+00;  1.0000000E+04;  0.0000000E+00;  1.0000000E+04;0.0;0.0;0.0;0.0
  2.0799999E+00;  9.9999998E-03; -1.0000000E-01;748;0.0;0.0;0.0;1000.0;  4.0000001E-01;0.0;0;0.0;0.0;0.0;0;0.0;  1.0000000E+04;  0.0000000E+00;  0.0000000E+00;  1.0000000E+04;  0.0000000E+00;  1.0000000E+04;0.0;0.0;0.0;0.0
  2.0799999E+00;  9.9999998E-03; -7.9999998E-02;749;0.0;0.0;0.0;1000.0;  4.0000001E-01;0.0;0;0.0;0.0;0.0;0;0.0;  1.0000000E+04;  0.0000000E+00;  0.0000000E+00;  1.0000000E+04;  0.0000000E+00;  1.0000000E+04;0.0;0.0;0.0;0.0
  2.0799999E+00;  9.9999998E-03; -5.9999999E-02;750;0.0;0.0;0.0;1000.0;  4.0000001E-01;0.0;0;0.0;0.0;0.0;0;0.0;  1.0000000E+04;  0.0000000E+00;  0.0000000E+00;  1.0000000E+04;  0.0000000E+00;  1.0000000E+04;0.0;0.0;0.0;0.0
  2.0799999E+00;  9.9999998E-03; -3.9999999E-02;751;0.0;0.0;0.0;1000.0;  4.0000001E-01;0.0;0;0.0;0.0;0.0;0;0.0;  1.0000000E+04;  0.0000000E+00;  0.0000000E+00;  1.0000000E+04;  0.0000000E+00;  1.0000000E+04;0.0;0.0;0.0;0.0
  2.0799999E+00;  9.9999998E-03; -2.0000000E-02;752;0.0;0.0;0.0;1000.0;  4.0000001E-01;0.0;0;0.0;0.0;0.0;0;0.0;  1.0000000E+04;  0.0000000E+00;  0.0000000E+00;  1.0000000E+04;  0.0000000E+00;  1.0000000E+04;0.0;0.0;0.0;0.0
  2.0799999E+00;  9.9999998E-03;  0.0000000E+00;753;0.0;0.0;0.0;1000.0;  4.0000001E-01;0.0;0;0.0;0.0;0.0;0;0.0;  1.0000000E+04;  0.0000000E+00;  0.0000000E+00;  1.0000000E+04;  0.0000000E+00;  1.0000000E+04;0.0;0.0;0.0;0.0
  2.0799999E+00;  9.9999998E-03;  2.0000000E-02;754;0.0;0.0;0.0;1000.0;  4.0000001E-01;0.0;0;0.0;0.0;0.0;0;0.0;  1.0000000E+04;  0.0000000E+00;  0.0000000E+00;  1.0000000E+04;  0.0000000E+00;  1.0000000E+04;0.0;0.0;0.0;0.0
  2.0799999E+00;  9.9999998E-03;  3.9999999E-02;755;0.0;0.0;0.0;1000.0;  4.0000001E-01;0.0;0;0.0;0.0;0.0;0;0.0;  1.0000000E+04;  0.0000000E+00;  0.0000000E+00;  1.0000000E+04;  0.0000000E+00;  1.0000000E+04;0.0;0.0;0.0;0.0
  2.0799999E+00;  9.9999998E-03;  5.9999999E-02;756;0.0;0.0;0.0;1000.0;  4.0000001E-01;0.0;0;0.0;0.0;0.0;0;0.0;  1.0000000E+04;  0.0000000E+00;  0.0000000E+00;  1.0000000E+04;  0.0000000E+00;  1.0000000E+04;0.0;0.0;0.0;0.0
  2.0799999E+00;  9.9999998E-03;  7.9999998E-02;757;0.0;0.0;0.0;1000.0;  4.0000001E-01;0.0;0;0.0;0.0;0.0;0;0.0;  1.0000000E+04;  0.0000000E+00;  0.0000000E+00;  1.0000000E+04;  0.0000000E+00;  1.0000000E+04;0.0;0.0;0.0;0.0
  2.0799999E+00;  9.9999998E-03;  1.0000000E-01;758;0.0;0.0;0.0;1000.0;  4.0000001E-01;0.0;0;0.0;0.0;0.0;0;0.0;  1.0000000E+04;  0.0000000E+00;  0.0000000E+00;  1.0000000E+04;  0.0000000E+00;  1.0000000E+04;0.0;0.0;0.0;0.0
  2.0799999E+00;  9.9999998E-03;  1.2000000E-01;759;0.0;0.0;0.0;1000.0;  4.0000001E-01;0.0;0;0.0;0.0;0.0;0;0.0;  1.0000000E+04;  0.0000000E+00;  0.0000000E+00;  1.0000000E+04;  0.0000000E+00;  1.0000000E+04;0.0;0.0;0.0;0.0
  2.0799999E+00;  9.9999998E-03;  1.4000000E-01;760;0.0;0.0;0.0;1000.0;  4.0000001E-01;0.0;0;0.0;0.0;0.0;0;0.0;  1.0000000E+04;  0.0000000E+00;  0.0000000E+00;  1.0000000E+04;  0.0000000E+00;  1.0000000E+04;0.0;0.0;0.0;0.0
  2.0799999E+00;  9.9999998E-03;  1.6000000E-01;761;0.0;0.0;0.0;1000.0;  4.0000001E-01;0.0;0;0.0;0.0;0.0;0;0.0;  1.0000000E+04;  0.0000000E+00;  0.0000000E+00;  1.0000000E+04;  0.0000000E+00;  1.0000000E+04;0.0;0.0;0.0;0.0
  2.0799999E+00;  9.9999998E-03;  1.8000001E-01;762;0.0;0.0;0.0;1000.0;  4.0000001E-01;0.0;0;0.0;0.0;0.0;0;0.0;  1.0000000E+04;  0.0000000E+00;  0.0000000E+00;  1.0000000E+04;  0.0000000E+00;  1.0000000E+04;0.0;0.0;0.0;0.0
  2.0799999E+00;  9.9999998E-03;  2.0000000E-01;763;0.0;0.0;0.0;1000.0;  4.0000001E-01;0.0;0;0.0;0.0;0.0;0;0.0;  1.0000000E+04;  0.0000000E+00;  0.0000000E+00;  1.0000000E+04;  0.0000000E+00;  1.0000000E+04;0.0;0.0;0.0;0.0
  2.0799999E+00;  9.9999998E-03;  2.2000000E-01;764;0.0;0.0;0.0;1000.0;  4.0000001E-01;0.0;0;0.0;0.0;0.0;0;0.0;  1.0000000E+04;  0.0000000E+00;  0.0000000E+00;  1.0000000E+04;  0.0000000E+00;  1.0000000E+04;0.0;0.0;0.0;0.0
  2.0799999E+00;  9.9999998E-03;  2.3999999E-01;765;0.0;0.0;0.0;1000.0;  4.0000001E-01;0.0;0;0.0;0.0;0.0;0;0.0;  1.0000000E+04;  0.0000000E+00;  0.0000000E+00;  1.0000000E+04;  0.0000000E+00;  1.0000000E+04;0.0;0.0;0.0;0.0
  2.0799999E+00;  9.9999998E-03;  2.5999999E-01;766;0.0;0.0;0.0;1000.0;  4.0000001E-01;0.0;0;0.0;0.0;0.0;0;0.0;  1.0000000E+04;  0.0000000E+00;  0.0000000E+00;  1.0000000E+04;  0.0000000E+00;  1.0000000E+04;0.0;0.0;0.0;0.0
  2.0799999E+00;  9.9999998E-03;  2.8000000E-01;767;0.0;0.0;0.0;1000.0;  4.0000001E-01;0.0;0;0.0;0.0;0.0;0;0.0;  1.0000000E+04;  0.0000000E+00;  0.0000000E+00;  1.0000000E+04;  0.0000000E+00;  1.0000000E+04;0.0;0.0;0.0;0.0
  2.0799999E+00;  9.9999998E-03;  3.0000001E-01;768;0.0;0.0;0.0;1000.0;  4.0000001E-01;0.0;0;0.0;0.0;0.0;0;0.0;  1.0000000E+04;  0.0000000E+00;  0.0000000E+00;  1.0000000E+04;  0.0000000E+00;  1.0000000E+04;0.0;0.0;0.0;0.0
  2.0799999E+00;  9.9999998E-03;  3.1999999E-01;769;0.0;0.0;0.0;1000.0;  4.0000001E-01;0.0;0;0.0;0.0;0.0;0;0.0;  1.0000000E+04;  0.0000000E+00;  0.0000000E+00;  1.0000000E+04;  0.0000000E+00;  1.0000000E+04;0.0;0.0;0.0;0.0
  2.0799999E+00;  9.9999998E-03;  3.4000000E-01;770;0.0;0.0;0.0;1000.0;  4.0000001E-01;0.0;0;0.0;0.0;0.0;0;0.0;  1.0000000E+04;  0.0000000E+00;  0.0000000E+00;  1.0000000E+04;  0.0000000E+00;  1.0000000E+04;0.0;0.0;0.0;0.0
  2.0799999E+00;  9.9999998E-03;  3.6000001E-01;771;0.0;0.0;0.0;1000.0;  4.0000001E-01;0.0;0;0.0;0.0;0.0;0;0.0;  1.0000000E+04;  0.0000000E+00;  0.0000000E+00;  1.0000000E+04;  0.0000000E+00;  1.0000000E+04;0.0;0.0;0.0;0.0
  2.0799999E+00;  9.9999998E-03;  3.8000000E-01;772;0.0;0.0;0.0;1000.0;  4.0000001E-01;0.0;0;0.0;0.0;0.0;0;0.0;  1.0000000E+04;  0.0000000E+00;  0.0000000E+00;  1.0000000E+04;  0.0000000E+00;  1.0000000E+04;0.0;0.0;0.0;0.0
  2.0799999E+00;  9.9999998E-03;  4.0000001E-01;773;0.0;0.0;0.0;1000.0;  4.0000001E-01;0.0;0;0.0;0.0;0.0;0;0.0;  1.0000000E+04;  0.0000000E+00;  0.0000000E+00;  1.0000000E+04;  0.0000000E+00;  1.0000000E+04;0.0;0.0;0.0;0.0
  2.0999999E+00;  9.9999998E-03; -4.0000001E-01;774;0.0;0.0;0.0;1000.0;  4.0000001E-01;0.0;0;0.0;0.0;0.0;0;0.0;  1.0000000E+04;  0.0000000E+00;  0.0000000E+00;  1.0000000E+04;  0.0000000E+00;  1.0000000E+04;0.0;0.0;0.0;0.0
  2.0999999E+00;  9.9999998E-03; -3.8000000E-01;775;0.0;0.0;0.0;1000.0;  4.0000001E-01;0.0;0;0.0;0.0;0.0;0;0.0;  1.0000000E+04;  0.0000000E+00;  0.0000000E+00;  1.0000000E+04;  0.0000000E+00;  1.0000000E+04;0.0;0.0;0.0;0.0
  2.0999999E+00;  9.9999998E-03; -3.6000001E-01;776;0.0;0.0;0.0;1000.0;  4.0000001E-01;0.0;0;0.0;0.0;0.0;0;0.0;  1.0000000E+04;  0.0000000E+00;  0.0000000E+00;  1.0000000E+04;  0.0000000E+00;  1.0000000E+04;0.0;0.0;0.0;0.0
  2.0999999E+00;  9.9999998E-03; -3.4000000E-01;777;0.0;0.0;0.0;1000.0;  4.0000001E-01;0.0;0;0.0;0.0;0.0;0;0.0;  1.0000000E+04;  0.0000000E+00;  0.0000000E+00;  1.0000000E+04;  0.0000000E+00;  1.0000000E+04;0.0;0.0;0.0;0.0
  2.0999999E+00;  9.9999998E-03; -3.1999999E-01;778;0.0;0.0;0.0;1000.0;  4.0000001E-01;0.0;0;0.0;0.0;0.0;0;0.0;  1.0000000E+04;  0.0000000E+00;  0.0000000E+00;  1.0000000E+04;  0.0000000E+00;  1.0000000E+04;0.0;0.0;0.0;0.0
  2.0999999E+00;  9.9999998E-03; -3.0000001E-01;779;0.0;0.0;0.0;1000.0;  4.0000001E-01;0.0;0;0.0;0.0;0.0;0;0.0;  1.0000000E+04;  0.0000000E+00;  0.0000000E+00;  1.0000000E+04;  0.0000000E+00;  1.0000000E+04;0.0;0.0;0.0;0.0
  2.0999999E+00;  9.9999998E-03; -2.8000000E-01;780;0.0;0.0;0.0;1000.0;  4.0000001E-01;0.0;0;0.0;0.0;0.0;0;0.0;  1.0000000E+04;  0.0000000E+00;  0.0000000E+00;  1.0000000E+04;  0.0000000E+00;  1.0000000E+04;0.0;0.0;0.0;0.0
  2.0999999E+00;  9.9999998E-03; -2.5999999E-01;781;0.0;0.0;0.0;1000.0;  4.0000001E-01;0.0;0;0.0;0.0;0.0;0;0.0;  1.0000000E+04;  0.0000000E+00;  0.0000000E+00;  1.0000000E+04;  0.0000000E+00;  1.0000000E+04;0.0;0.0;0.0;0.0
  2.0999999E+00;  9.9999998E-03; -2.3999999E-01;782;0.0;0.0;0.0;1000.0;  4.0000001E-01;0.0;0;0.0;0.0;0.0;0;0.0;  1.0000000E+04;  0.0000000E+00;  0.0000000E+00;  1.0000000E+04;  0.0000000E+00;  1.0000000E+04;0.0;0.0;0.0;0.0
  2.0999999E+00;  9.9999998E-03; -2.2000000E-01;783;0.0;0.0;0.0;1000.0;  4.0000001E-01;0.0;0;0.0;0.0;0.0;0;0.0;  1.0000000E+04;  0.0000000E+00;  0.0000000E+00;  1.0000000E+04;  0.0000000E+00;  1.0000000E+04;0.0;0.0;0.0;0.0
  2.0999999E+00;  9.9999998E-03; -2.0000000E-01;784;0.0;0.0;0.0;1000.0;  4.0000001E-01;0.0;0;0.0;0.0;0.0;0;0.0;  1.0000000E+04;  0.0000000E+00;  0.0000000E+00;  1.0000000E+04;  0.0000000E+00;  1.0000000E+04;0.0;0.0;0.0;0.0
  2.0999999E+00;  9.9999998E-03; -1.8000001E-01;785;0.0;0.0;0.0;1000.0;  4.0000001E-01;0.0;0;0.0;0.0;0.0;0;0.0;  1.0000000E+04;  0.0000000E+00;  0.0000000E+00;  1.0000000E+04;  0.0000000E+00;  1.0000000E+04;0.0;0.0;0.0;0.0
  2.0999999E+00;  9.9999998E-03; -1.6000000E-01;786;0.0;0.0;0.0;1000.0;  4.0000001E-01;0.0;0;0.0;0.0;0.0;0;0.0;  1.0000000E+04;  0.0000000E+00;  0.0000000E+00;  1.0000000E+04;  0.0000000E+00;  1.0000000E+04;0.0;0.0;0.0;0.0
  2.0999999E+00;  9.9999998E-03; -1.4000000E-01;787;0.0;0.0;0.0;1000.0;  4.0000001E-01;0.0;0;0.0;0.0;0.0;0;0.0;  1.0000000E+04;  0.0000000E+00;  0.0000000E+00;  1.0000000E+04;  0.0000000E+00;  1.0000000E+04;0.0;0.0;0.0;0.0
  2.0999999E+00;  9.9999998E-03; -1.2000000E-01;788;0.0;0.0;0.0;1000.0;  4.0000001E-01;0.0;0;0.0;0.0;0.0;0;0.0;  1.0000000E+04;  0.0000000E+00;  0.0000000E+00;  1.0000000E+04;  0.0000000E+00;  1.0000000E+04;0.0;0.0;0.0;0.0
  2.0999999E+00;  9.9999998E-03; -1.0000000E-01;789;0.0;0.0;0.0;1000.0;  4.0000001E-01;0.0;0;0.0;0.0;0.0;0;0.0;  1.0000000E+04;  0.0000000E+00;  0.0000000E+00;  1.0000000E+04;  0.0000000E+00;  1.0000000E+04;0.0;0.0;0.0;0.0
  2.0999999E+00;  9.9999998E-03; -7.9999998E-02;790;0.0;0.0;0.0;1000.0;  4.0000001E-01;0.0;0;0.0;0.0;0.0;0;0.0;  1.0000000E+04;  0.0000000E+00;  0.0000000E+00;  1.0000000E+04;  0.0000000E+00;  1.0000000E+04;0.0;0.0;0.0;0.0
  2.0999999E+00;  9.9999998E-03; -5.9999999E-02;791;0.0;0.0;0.0;1000.0;  4.0000001E-01;0.0;0;0.0;0.0;0.0;0;0.0;  1.0000000E+04;  0.0000000E+00;  0.0000000E+00;  1.0000000E+04;  0.0000000E+00;  1.0000000E+04;0.0;0.0;0.0;0.0
  2.0999999E+00;  9.9999998E-03; -3.9999999E-02;792;0.0;0.0;0.0;1000.0;  4.0000001E-01;0.0;0;0.0;0.0;0.0;0;0.0;  1.0000000E+04;  0.0000000E+00;  0.0000000E+00;  1.0000000E+04;  0.0000000E+00;  1.0000000E+04;0.0;0.0;0.0;0.0
  2.0999999E+00;  9.9999998E-03; -2.0000000E-02;793;0.0;0.0;0.0;1000.0;  4.0000001E-01;0.0;0;0.0;0.0;0.0;0;0.0;  1.0000000E+04;  0.0000000E+00;  0.0000000E+00;  1.0000000E+04;  0.0000000E+00;  1.0000000E+04;0.0;0.0;0.0;0.0
  2.0999999E+00;  9.9999998E-03;  0.0000000E+00;794;0.0;0.0;0.0;1000.0;  4.0000001E-01;0.0;0;0.0;0.0;0.0;0;0.0;  1.0000000E+04;  0.0000000E+00;  0.0000000E+00;  1.0000000E+04;  0.0000000E+00;  1.0000000E+04;0.0;0.0;0.0;0.0
  2.0999999E+00;  9.9999998E-03;  2.0000000E-02;795;0.0;0.0;0.0;1000.0;  4.0000001E-01;0.0;0;0.0;0.0;0.0;0;0.0;  1.0000000E+04;  0.0000000E+00;  0.0000000E+00;  1.0000000E+04;  0.0000000E+00;  1.0000000E+04;0.0;0.0;0.0;0.0
  2.0999999E+00;  9.9999998E-03;  3.9999999E-02;796;0.0;0.0;0.0;1000.0;  4.0000001E-01;0.0;0;0.0;0.0;0.0;0;0.0;  1.0000000E+04;  0.0000000E+00;  0.0000000E+00;  1.0000000E+04;  0.0000000E+00;  1.0000000E+04;0.0;0.0;0.0;0.0
  2.0999999E+00;  9.9999998E-03;  5.9999999E-02;797;0.0;0.0;0.0;1000.0;  4.0000001E-01;0.0;0;0.0;0.0;0.0;0;0.0;  1.0000000E+04;  0.0000000E+00;  0.0000000E+00;  1.0000000E+04;  0.0000000E+00;  1.0000000E+04;0.0;0.0;0.0;0.0
  2.0999999E+00;  9.9999998E-03;  7.9999998E-02;798;0.0;0.0;0.0;1000.0;  4.0000001E-01;0.0;0;0.0;0.0;0.0;0;0.0;  1.0000000E+04;  0.0000000E+00;  0.0000000E+00;  1.0000000E+04;  0.0000000E+00;  1.0000000E+04;0.0;0.0;0.0;0.0
  2.0999999E+00;  9.9999998E-03;  1.0000000E-01;799;0.0;0.0;0.0;1000.0;  4.0000001E-01;0.0;0;0.0;0.0;0.0;0;0.0;  1.0000000E+04;  0.0000000E+00;  0.0000000E+00;  1.0000000E+04;  0.0000000E+00;  1.0000000E+04;0.0;0.0;0.0;0.0
  2.0999999E+00;  9.9999998E-03;  1.2000000E-01;800;0.0;0.0;0.0;1000.0;  4.0000001E-01;0.0;0;0.0;0.0;0.0;0;0.0;  1.0000000E+04;  0.0000000E+00;  0.0000000E+00;  1.0000000E+04;  0.0000000E+00;  1.0000000E+04;0.0;0.0;0.0;0.0
  2.0999999E+00;  9.9999998E-03;  1.4000000E-01;801;0.0;0.0;0.0;1000.0;  4.0000001E-01;0.0;0;0.0;0.0;0.0;0;0.0;  1.0000000E+04;  0.0000000E+00;  0.0000000E+00;  1.0000000E+04;  0.0000000E+00;  1.0000000E+04;0.0;0.0;0.0;0.0
  2.0999999E+00;  9.9999998E-03;  1.6000000E-01;802;0.0;0.0;0.0;1000.0;  4.0000001E-01;0.0;0;0.0;0.0;0.0;0;0.0;  1.0000000E+04;  0.0000000E+00;  0.0000000E+00;  1.0000000E+04;  0.0000000E+00;  1.0000000E+04;0.0;0.0;0.0;0.0
  2.0999999E+00;  9.9999998E-03;  1.8000001E-01;803;0.0;0.0;0.0;1000.0;  4.0000001E-01;0.0;0;0.0;0.0;0.0;0;0.0;  1.0000000E+04;  0.0000000E+00;  0.0000000E+00;  1.0000000E+04;  0.0000000E+00;  1.0000000E+04;0.0;0.0;0.0;0.0
  2.0999999E+00;  9.9999998E-03;  2.0000000E-01;804;0.0;0.0;0.0;1000.0;  4.0000001E-01;0.0;0;0.0;0.0;0.0;0;0.0;  1.0000000E+04;  0.0000000E+00;  0.0000000E+00;  1.0000000E+04;  0.0000000E+00;  1.0000000E+04;0.0;0.0;0.0;0.0
  2.0999999E+00;  9.9999998E-03;  2.2000000E-01;805;0.0;0.0;0.0;1000.0;  4.0000001E-01;0.0;0;0.0;0.0;0.0;0;0.0;  1.0000000E+04;  0.0000000E+00;  0.0000000E+00;  1.0000000E+04;  0.0000000E+00;  1.0000000E+04;0.0;0.0;0.0;0.0
  2.0999999E+00;  9.9999998E-03;  2.3999999E-01;806;0.0;0.0;0.0;1000.0;  4.0000001E-01;0.0;0;0.0;0.0;0.0;0;0.0;  1.0000000E+04;  0.0000000E+00;  0.0000000E+00;  1.0000000E+04;  0.0000000E+00;  1.0000000E+04;0.0;0.0;0.0;0.0
  2.0999999E+00;  9.9999998E-03;  2.5999999E-01;807;0.0;0.0;0.0;1000.0;  4.0000001E-01;0.0;0;0.0;0.0;0.0;0;0.0;  1.0000000E+04;  0.0000000E+00;  0.0000000E+00;  1.0000000E+04;  0.0000000E+00;  1.0000000E+04;0.0;0.0;0.0;0.0
  2.0999999E+00;  9.9999998E-03;  2.8000000E-01;808;0.0;0.0;0.0;1000.0;  4.0000001E-01;0.0;0;0.0;0.0;0.0;0;0.0;  1.0000000E+04;  0.0000000E+00;  0.0000000E+00;  1.0000000E+04;  0.0000000E+00;  1.0000000E+04;0.0;0.0;0.0;0.0
  2.0999999E+00;  9.9999998E-03;  3.0000001E-01;809;0.0;0.0;0.0;1000.0;  4.0000001E-01;0.0;0;0.0;0.0;0.0;0;0.0;  1.0000000E+04;  0.0000000E+00;  0.0000000E+00;  1.0000000E+04;  0.0000000E+00;  1.0000000E+04;0.0;0.0;0.0;0.0
  2.0999999E+00;  9.9999998E-03;  3.1999999E-01;810;0.0;0.0;0.0;1000.0;  4.0000001E-01;0.0;0;0.0;0.0;0.0;0;0.0;  1.0000000E+04;  0.0000000E+00;  0.0000000E+00;  1.0000000E+04;  0.0000000E+00;  1.0000000E+04;0.0;0.0;0.0;0.0
  2.0999999E+00;  9.9999998E-03;  3.4000000E-01;811;0.0;0.0;0.0;1000.0;  4.0000001E-01;0.0;0;0.0;0.0;0.0;0;0.0;  1.0000000E+04;  0.0000000E+00;  0.0000000E+00;  1.0000000E+04;  0.0000000E+00;  1.0000000E+04;0.0;0.0;0.0;0.0
  2.0999999E+00;  9.9999998E-03;  3.6000001E-01;812;0.0;0.0;0.0;1000.0;  4.0000001E-01;0.0;0;0.0;0.0;0.0;0;0.0;  1.0000000E+04;  0.0000000E+00;  0.0000000E+00;  1.0000000E+04;  0.0000000E+00;  1.0000000E+04;0.0;0.0;0.0;0.0
  2.0999999E+00;  9.9999998E-03;  3.8000000E-01;813;0.0;0.0;0.0;1000.0;  4.0000001E-01;0.0;0;0.0;0.0;0.0;0;0.0;  1.0000000E+04;  0.0000000E+00;  0.0000000E+00;  1.0000000E+04;  0.0000000E+00;  1.0000000E+04;0.0;0.0;0.0;0.0
  2.0999999E+00;  9.9999998E-03;  4.0000001E-01;814;0.0;0.0;0.0;1000.0;  4.0000001E-01;0.0;0;0.0;0.0;0.0;0;0.0;  1.0000000E+04;  0.0000000E+00;  0.0000000E+00;  1.0000000E+04;  0.0000000E+00;  1.0000000E+04;0.0;0.0;0.0;0.0
  2.1199999E+00;  9.9999998E-03; -4.1999999E-01;815;0.0;0.0;0.0;1000.0;  4.0000001E-01;0.0;0;0.0;0.0;0.0;0;0.0;  1.0000000E+04;  0.0000000E+00;  0.0000000E+00;  1.0000000E+04;  0.0000000E+00;  1.0000000E+04;0.0;0.0;0.0;0.0
  2.1199999E+00;  9.9999998E-03; -4.0000001E-01;816;0.0;0.0;0.0;1000.0;  4.0000001E-01;0.0;0;0.0;0.0;0.0;0;0.0;  1.0000000E+04;  0.0000000E+00;  0.0000000E+00;  1.0000000E+04;  0.0000000E+00;  1.0000000E+04;0.0;0.0;0.0;0.0
  2.1199999E+00;  9.9999998E-03; -3.8000000E-01;817;0.0;0.0;0.0;1000.0;  4.0000001E-01;0.0;0;0.0;0.0;0.0;0;0.0;  1.0000000E+04;  0.0000000E+00;  0.0000000E+00;  1.0000000E+04;  0.0000000E+00;  1.0000000E+04;0.0;0.0;0.0;0.0
  2.1199999E+00;  9.9999998E-03; -3.6000001E-01;818;0.0;0.0;0.0;1000.0;  4.0000001E-01;0.0;0;0.0;0.0;0.0;0;0.0;  1.0000000E+04;  0.0000000E+00;  0.0000000E+00;  1.0000000E+04;  0.0000000E+00;  1.0000000E+04;0.0;0.0;0.0;0.0
  2.1199999E+00;  9.9999998E-03; -3.4000000E-01;819;0.0;0.0;0.0;1000.0;  4.0000001E-01;0.0;0;0.0;0.0;0.0;0;0.0;  1.0000000E+04;  0.0000000E+00;  0.0000000E+00;  1.0000000E+04;  0.0000000E+00;  1.0000000E+04;0.0;0.0;0.0;0.0
  2.1199999E+00;  9.9999998E-03; -3.1999999E-01;820;0.0;0.0;0.0;1000.0;  4.0000001E-01;0.0;0;0.0;0.0;0.0;0;0.0;  1.0000000E+04;  0.0000000E+00;  0.0000000E+00;  1.0000000E+04;  0.0000000E+00;  1.0000000E+04;0.0;0.0;0.0;0.0
  2.1199999E+00;  9.9999998E-03; -3.0000001E-01;821;0.0;0.0;0.0;1000.0;  4.0000001E-01;0.0;0;0.0;0.0;0.0;0;0.0;  1.0000000E+04;  0.0000000E+00;  0.0000000E+00;  1.0000000E+04;  0.0000000E+00;  1.0000000E+04;0.0;0.0;0.0;0.0
  2.1199999E+00;  9.9999998E-03; -2.8000000E-01;822;0.0;0.0;0.0;1000.0;  4.0000001E-01;0.0;0;0.0;0.0;0.0;0;0.0;  1.0000000E+04;  0.0000000E+00;  0.0000000E+00;  1.0000000E+04;  0.0000000E+00;  1.0000000E+04;0.0;0.0;0.0;0.0
  2.1199999E+00;  9.9999998E-03; -2.5999999E-01;823;0.0;0.0;0.0;1000.0;  4.0000001E-01;0.0;0;0.0;0.0;0.0;0;0.0;  1.0000000E+04;  0.0000000E+00;  0.0000000E+00;  1.0000000E+04;  0.0000000E+00;  1.0000000E+04;0.0;0.0;0.0;0.0
  2.1199999E+00;  9.9999998E-03; -2.3999999E-01;824;0.0;0.0;0.0;1000.0;  4.0000001E-01;0.0;0;0.0;0.0;0.0;0;0.0;  1.0000000E+04;  0.0000000E+00;  0.0000000E+00;  1.0000000E+04;  0.0000000E+00;  1.0000000E+04;0.0;0.0;0.0;0.0
  2.1199999E+00;  9.9999998E-03; -2.2000000E-01;825;0.0;0.0;0.0;1000.0;  4.0000001E-01;0.0;0;0.0;0.0;0.0;0;0.0;  1.0000000E+04;  0.0000000E+00;  0.0000000E+00;  1.0000000E+04;  0.0000000E+00;  1.0000000E+04;0.0;0.0;0.0;0.0
  2.1199999E+00;  9.9999998E-03; -2.0000000E-01;826;0.0;0.0;0.0;1000.0;  4.0000001E-01;0.0;0;0.0;0.0;0.0;0;0.0;  1.0000000E+04;  0.0000000E+00;  0.0000000E+00;  1.0000000E+04;  0.0000000E+00;  1.0000000E+04;0.0;0.0;0.0;0.0
  2.1199999E+00;  9.9999998E-03; -1.8000001E-01;827;0.0;0.0;0.0;1000.0;  4.0000001E-01;0.0;0;0.0;0.0;0.0;0;0.0;  1.0000000E+04;  0.0000000E+00;  0.0000000E+00;  1.0000000E+04;  0.0000000E+00;  1.0000000E+04;0.0;0.0;0.0;0.0
  2.1199999E+00;  9.9999998E-03; -1.6000000E-01;828;0.0;0.0;0.0;1000.0;  4.0000001E-01;0.0;0;0.0;0.0;0.0;0;0.0;  1.0000000E+04;  0.0000000E+00;  0.0000000E+00;  1.0000000E+04;  0.0000000E+00;  1.0000000E+04;0.0;0.0;0.0;0.0
  2.1199999E+00;  9.9999998E-03; -1.4000000E-01;829;0.0;0.0;0.0;1000.0;  4.0000001E-01;0.0;0;0.0;0.0;0.0;0;0.0;  1.0000000E+04;  0.0000000E+00;  0.0000000E+00;  1.0000000E+04;  0.0000000E+00;  1.0000000E+04;0.0;0.0;0.0;0.0
  2.1199999E+00;  9.9999998E-03; -1.2000000E-01;830;0.0;0.0;0.0;1000.0;  4.0000001E-01;0.0;0;0.0;0.0;0.0;0;0.0;  1.0000000E+04;  0.0000000E+00;  0.0000000E+00;  1.0000000E+04;  0.0000000E+00;  1.0000000E+04;0.0;0.0;0.0;0.0
  2.1199999E+00;  9.9999998E-03; -1.0000000E-01;831;0.0;0.0;0.0;1000.0;  4.0000001E-01;0.0;0;0.0;0.0;0.0;0;0.0;  1.0000000E+04;  0.0000000E+00;  0.0000000E+00;  1.0000000E+04;  0.0000000E+00;  1.0000000E+04;0.0;0.0;0.0;0.0
  2.1199999E+00;  9.9999998E-03; -7.9999998E-02;832;0.0;0.0;0.0;1000.0;  4.0000001E-01;0.0;0;0.0;0.0;0.0;0;0.0;  1.0000000E+04;  0.0000000E+00;  0.0000000E+00;  1.0000000E+04;  0.0000000E+00;  1.0000000E+04;0.0;0.0;0.0;0.0
  2.1199999E+00;  9.9999998E-03; -5.9999999E-02;833;0.0;0.0;0.0;1000.0;  4.0000001E-01;0.0;0;0.0;0.0;0.0;0;0.0;  1.0000000E+04;  0.0000000E+00;  0.0000000E+00;  1.0000000E+04;  0.0000000E+00;  1.0000000E+04;0.0;0.0;0.0;0.0
  2.1199999E+00;  9.9999998E-03; -3.9999999E-02;834;0.0;0.0;0.0;1000.0;  4.0000001E-01;0.0;0;0.0;0.0;0.0;0;0.0;  1.0000000E+04;  0.0000000E+00;  0.0000000E+00;  1.0000000E+04;  0.0000000E+00;  1.0000000E+04;0.0;0.0;0.0;0.0
  2.1199999E+00;  9.9999998E-03; -2.0000000E-02;835;0.0;0.0;0.0;1000.0;  4.0000001E-01;0.0;0;0.0;0.0;0.0;0;0.0;  1.0000000E+04;  0.0000000E+00;  0.0000000E+00;  1.0000000E+04;  0.0000000E+00;  1.0000000E+04;0.0;0.0;0.0;0.0
  2.1199999E+00;  9.9999998E-03;  0.0000000E+00;836;0.0;0.0;0.0;1000.0;  4.0000001E-01;0.0;0;0.0;0.0;0.0;0;0.0;  1.0000000E+04;  0.0000000E+00;  0.0000000E+00;  1.0000000E+04;  0.0000000E+00;  1.0000000E+04;0.0;0.0;0.0;0.0
  2.1199999E+00;  9.9999998E-03;  2.0000000E-02;837;0.0;0.0;0.0;1000.0;  4.0000001E-01;0.0;0;0.0;0.0;0.0;0;0.0;  1.0000000E+04;  0.0000000E+00;  0.0000000E+00;  1.0000000E+04;  0.0000000E+00;  1.0000000E+04;0.0;0.0;0.0;0.0
  2.1199999E+00;  9.9999998E-03;  3.9999999E-02;838;0.0;0.0;0.0;1000.0;  4.0000001E-01;0.0;0;0.0;0.0;0.0;0;0.0;  1.0000000E+04;  0.0000000E+00;  0.0000000E+00;  1.0000000E+04;  0.0000000E+00;  1.0000000E+04;0.0;0.0;0.0;0.0
  2.1199999E+00;  9.9999998E-03;  5.9999999E-02;839;0.0;0.0;0.0;1000.0;  4.0000001E-01;0.0;0;0.0;0.0;0.0;0;0.0;  1.0000000E+04;  0.0000000E+00;  0.0000000E+00;  1.0000000E+04;  0.0000000E+00;  1.0000000E+04;0.0;0.0;0.0;0.0
  2.1199999E+00;  9.9999998E-03;  7.9999998E-02;840;0.0;0.0;0.0;1000.0;  4.0000001E-01;0.0;0;0.0;0.0;0.0;0;0.0;  1.0000000E+04;  0.0000000E+00;  0.0000000E+00;  1.0000000E+04;  0.0000000E+00;  1.0000000E+04;0.0;0.0;0.0;0.0
  2.1199999E+00;  9.9999998E-03;  1.0000000E-01;841;0.0;0.0;0.0;1000.0;  4.0000001E-01;0.0;0;0.0;0.0;0.0;0;0.0;  1.0000000E+04;  0.0000000E+00;  0.0000000E+00;  1.0000000E+04;  0.0000000E+00;  1.0000000E+04;0.0;0.0;0.0;0.0
  2.1199999E+00;  9.9999998E-03;  1.2000000E-01;842;0.0;0.0;0.0;1000.0;  4.0000001E-01;0.0;0;0.0;0.0;0.0;0;0.0;  1.0000000E+04;  0.0000000E+00;  0.0000000E+00;  1.0000000E+04;  0.0000000E+00;  1.0000000E+04;0.0;0.0;0.0;0.0
  2.1199999E+00;  9.9999998E-03;  1.4000000E-01;843;0.0;0.0;0.0;1000.0;  4.0000001E-01;0.0;0;0.0;0.0;0.0;0;0.0;  1.0000000E+04;  0.0000000E+00;  0.0000000E+00;  1.0000000E+04;  0.0000000E+00;  1.0000000E+04;0.0;0.0;0.0;0.0
  2.1199999E+00;  9.9999998E-03;  1.6000000E-01;844;0.0;0.0;0.0;1000.0;  4.0000001E-01;0.0;0;0.0;0.0;0.0;0;0.0;  1.0000000E+04;  0.0000000E+00;  0.0000000E+00;  1.0000000E+04;  0.0000000E+00;  1.0000000E+04;0.0;0.0;0.0;0.0
  2.1199999E+00;  9.9999998E-03;  1.8000001E-01;845;0.0;0.0;0.0;1000.0;  4.0000001E-01;0.0;0;0.0;0.0;0.0;0;0.0;  1.0000000E+04;  0.0000000E+00;  0.0000000E+00;  1.0000000E+04;  0.0000000E+00;  1.0000000E+04;0.0;0.0;0.0;0.0
  2.1199999E+00;  9.9999998E-03;  2.0000000E-01;846;0.0;0.0;0.0;1000.0;  4.0000001E-01;0.0;0;0.0;0.0;0.0;0;0.0;  1.0000000E+04;  0.0000000E+00;  0.0000000E+00;  1.0000000E+04;  0.0000000E+00;  1.0000000E+04;0.0;0.0;0.0;0.0
  2.1199999E+00;  9.9999998E-03;  2.2000000E-01;847;0.0;0.0;0.0;1000.0;  4.0000001E-01;0.0;0;0.0;0.0;0.0;0;0.0;  1.0000000E+04;  0.0000000E+00;  0.0000000E+00;  1.0000000E+04;  0.0000000E+00;  1.0000000E+04;0.0;0.0;0.0;0.0
  2.1199999E+00;  9.9999998E-03;  2.3999999E-01;848;0.0;0.0;0.0;1000.0;  4.0000001E-01;0.0;0;0.0;0.0;0.0;0;0.0;  1.0000000E+04;  0.0000000E+00;  0.0000000E+00;  1.0000000E+04;  0.0000000E+00;  1.0000000E+04;0.0;0.0;0.0;0.0
  2.1199999E+00;  9.9999998E-03;  2.5999999E-01;849;0.0;0.0;0.0;1000.0;  4.0000001E-01;0.0;0;0.0;0.0;0.0;0;0.0;  1.0000000E+04;  0.0000000E+00;  0.0000000E+00;  1.0000000E+04;  0.0000000E+00;  1.0000000E+04;0.0;0.0;0.0;0.0
  2.1199999E+00;  9.9999998E-03;  2.8000000E-01;850;0.0;0.0;0.0;1000.0;  4.0000001E-01;0.0;0;0.0;0.0;0.0;0;0.0;  1.0000000E+04;  0.0000000E+00;  0.0000000E+00;  1.0000000E+04;  0.0000000E+00;  1.0000000E+04;0.0;0.0;0.0;0.0
  2.1199999E+00;  9.9999998E-03;  3.0000001E-01;851;0.0;0.0;0.0;1000.0;  4.0000001E-01;0.0;0;0.0;0.0;0.0;0;0.0;  1.0000000E+04;  0.0000000E+00;  0.0000000E+00;  1.0000000E+04;  0.0000000E+00;  1.0000000E+04;0.0;0.0;0.0;0.0
  2.1199999E+00;  9.9999998E-03;  3.1999999E-01;852;0.0;0.0;0.0;1000.0;  4.0000001E-01;0.0;0;0.0;0.0;0.0;0;0.0;  1.0000000E+04;  0.0000000E+00;  0.0000000E+00;  1.0000000E+04;  0.0000000E+00;  1.0000000E+04;0.0;0.0;0.0;0.0
  2.1199999E+00;  9.9999998E-03;  3.4000000E-01;853;0.0;0.0;0.0;1000.0;  4.0000001E-01;0.0;0;0.0;0.0;0.0;0;0.0;  1.0000000E+04;  0.0000000E+00;  0.0000000E+00;  1.0000000E+04;  0.0000000E+00;  1.0000000E+04;0.0;0.0;0.0;0.0
  2.1199999E+00;  9.9999998E-03;  3.6000001E-01;854;0.0;0.0;0.0;1000.0;  4.0000001E-01;0.0;0;0.0;0.0;0.0;0;0.0;  1.0000000E+04;  0.0000000E+00;  0.0000000E+00;  1.0000000E+04;  0.0000000E+00;  1.0000000E+04;0.0;0.0;0.0;0.0
  2.1199999E+00;  9.9999998E-03;  3.8000000E-01;855;0.0;0.0;0.0;1000.0;  4.0000001E-01;0.0;0;0.0;0.0;0.0;0;0.0;  1.0000000E+04;  0.0000000E+00;  0.0000000E+00;  1.0000000E+04;  0.0000000E+00;  1.0000000E+04;0.0;0.0;0.0;0.0
  2.1199999E+00;  9.9999998E-03;  4.0000001E-01;856;0.0;0.0;0.0;1000.0;  4.0000001E-01;0.0;0;0.0;0.0;0.0;0;0.0;  1.0000000E+04;  0.0000000E+00;  0.0000000E+00;  1.0000000E+04;  0.0000000E+00;  1.0000000E+04;0.0;0.0;0.0;0.0
  2.1400001E+00;  9.9999998E-03; -3.8000000E-01;857;0.0;0.0;0.0;1000.0;  4.0000001E-01;0.0;0;0.0;0.0;0.0;0;0.0;  1.0000000E+04;  0.0000000E+00;  0.0000000E+00;  1.0000000E+04;  0.0000000E+00;  1.0000000E+04;0.0;0.0;0.0;0.0
  2.1400001E+00;  9.9999998E-03; -3.6000001E-01;858;0.0;0.0;0.0;1000.0;  4.0000001E-01;0.0;0;0.0;0.0;0.0;0;0.0;  1.0000000E+04;  0.0000000E+00;  0.0000000E+00;  1.0000000E+04;  0.0000000E+00;  1.0000000E+04;0.0;0.0;0.0;0.0
  2.1400001E+00;  9.9999998E-03; -3.4000000E-01;859;0.0;0.0;0.0;1000.0;  4.0000001E-01;0.0;0;0.0;0.0;0.0;0;0.0;  1.0000000E+04;  0.0000000E+00;  0.0000000E+00;  1.0000000E+04;  0.0000000E+00;  1.0000000E+04;0.0;0.0;0.0;0.0
  2.1400001E+00;  9.9999998E-03; -3.1999999E-01;860;0.0;0.0;0.0;1000.0;  4.0000001E-01;0.0;0;0.0;0.0;0.0;0;0.0;  1.0000000E+04;  0.0000000E+00;  0.0000000E+00;  1.0000000E+04;  0.0000000E+00;  1.0000000E+04;0.0;0.0;0.0;0.0
  2.1400001E+00;  9.9999998E-03; -3.0000001E-01;861;0.0;0.0;0.0;1000.0;  4.0000001E-01;0.0;0;0.0;0.0;0.0;0;0.0;  1.0000000E+04;  0.0000000E+00;  0.0000000E+00;  1.0000000E+04;  0.0000000E+00;  1.0000000E+04;0.0;0.0;0.0;0.0
  2.1400001E+00;  9.9999998E-03; -2.8000000E-01;862;0.0;0.0;0.0;1000.0;  4.0000001E-01;0.0;0;0.0;0.0;0.0;0;0.0;  1.0000000E+04;  0.0000000E+00;  0.0000000E+00;  1.0000000E+04;  0.0000000E+00;  1.0000000E+04;0.0;0.0;0.0;0.0
  2.1400001E+00;  9.9999998E-03; -2.5999999E-01;863;0.0;0.0;0.0;1000.0;  4.0000001E-01;0.0;0;0.0;0.0;0.0;0;0.0;  1.0000000E+04;  0.0000000E+00;  0.0000000E+00;  1.0000000E+04;  0.0000000E+00;  1.0000000E+04;0.0;0.0;0.0;0.0
  2.1400001E+00;  9.9999998E-03; -2.3999999E-01;864;0.0;0.0;0.0;1000.0;  4.0000001E-01;0.0;0;0.0;0.0;0.0;0;0.0;  1.0000000E+04;  0.0000000E+00;  0.0000000E+00;  1.0000000E+04;  0.0000000E+00;  1.0000000E+04;0.0;0.0;0.0;0.0
  2.1400001E+00;  9.9999998E-03; -2.2000000E-01;865;0.0;0.0;0.0;1000.0;  4.0000001E-01;0.0;0;0.0;0.0;0.0;0;0.0;  1.0000000E+04;  0.0000000E+00;  0.0000000E+00;  1.0000000E+04;  0.0000000E+00;  1.0000000E+04;0.0;0.0;0.0;0.0
  2.1400001E+00;  9.9999998E-03; -2.0000000E-01;866;0.0;0.0;0.0;1000.0;  4.0000001E-01;0.0;0;0.0;0.0;0.0;0;0.0;  1.0000000E+04;  0.0000000E+00;  0.0000000E+00;  1.0000000E+04;  0.0000000E+00;  1.0000000E+04;0.0;0.0;0.0;0.0
  2.1400001E+00;  9.9999998E-03; -1.8000001E-01;867;0.0;0.0;0.0;1000.0;  4.0000001E-01;0.0;0;0.0;0.0;0.0;0;0.0;  1.0000000E+04;  0.0000000E+00;  0.0000000E+00;  1.0000000E+04;  0.0000000E+00;  1.0000000E+04;0.0;0.0;0.0;0.0
  2.1400001E+00;  9.9999998E-03; -1.6000000E-01;868;0.0;0.0;0.0;1000.0;  4.0000001E-01;0.0;0;0.0;0.0;0.0;0;0.0;  1.0000000E+04;  0.0000000E+00;  0.0000000E+00;  1.0000000E+04;  0.0000000E+00;  1.0000000E+04;0.0;0.0;0.0;0.0
  2.1400001E+00;  9.9999998E-03; -1.4000000E-01;869;0.0;0.0;0.0;1000.0;  4.0000001E-01;0.0;0;0.0;0.0;0.0;0;0.0;  1.0000000E+04;  0.0000000E+00;  0.0000000E+00;  1.0000000E+04;  0.0000000E+00;  1.0000000E+04;0.0;0.0;0.0;0.0
  2.1400001E+00;  9.9999998E-03; -1.2000000E-01;870;0.0;0.0;0.0;1000.0;  4.0000001E-01;0.0;0;0.0;0.0;0.0;0;0.0;  1.0000000E+04;  0.0000000E+00;  0.0000000E+00;  1.0000000E+04;  0.0000000E+00;  1.0000000E+04;0.0;0.0;0.0;0.0
  2.1400001E+00;  9.9999998E-03; -1.0000000E-01;871;0.0;0.0;0.0;1000.0;  4.0000001E-01;0.0;0;0.0;0.0;0.0;0;0.0;  1.0000000E+04;  0.0000000E+00;  0.0000000E+00;  1.0000000E+04;  0.0000000E+00;  1.0000000E+04;0.0;0.0;0.0;0.0
  2.1400001E+00;  9.9999998E-03; -7.9999998E-02;872;0.0;0.0;0.0;1000.0;  4.0000001E-01;0.0;0;0.0;0.0;0.0;0;0.0;  1.0000000E+04;  0.0000000E+00;  0.0000000E+00;  1.0000000E+04;  0.0000000E+00;  1.0000000E+04;0.0;0.0;0.0;0.0
  2.1400001E+00;  9.9999998E-03; -5.9999999E-02;873;0.0;0.0;0.0;1000.0;  4.0000001E-01;0.0;0;0.0;0.0;0.0;0;0.0;  1.0000000E+04;  0.0000000E+00;  0.0000000E+00;  1.0000000E+04;  0.0000000E+00;  1.0000000E+04;0.0;0.0;0.0;0.0
  2.1400001E+00;  9.9999998E-03; -3.9999999E-02;874;0.0;0.0;0.0;1000.0;  4.0000001E-01;0.0;0;0.0;0.0;0.0;0;0.0;  1.0000000E+04;  0.0000000E+00;  0.0000000E+00;  1.0000000E+04;  0.0000000E+00;  1.0000000E+04;0.0;0.0;0.0;0.0
  2.1400001E+00;  9.9999998E-03; -2.0000000E-02;875;0.0;0.0;0.0;1000.0;  4.0000001E-01;0.0;0;0.0;0.0;0.0;0;0.0;  1.0000000E+04;  0.0000000E+00;  0.0000000E+00;  1.0000000E+04;  0.0000000E+00;  1.0000000E+04;0.0;0.0;0.0;0.0
  2.1400001E+00;  9.9999998E-03;  0.0000000E+00;876;0.0;0.0;0.0;1000.0;  4.0000001E-01;0.0;0;0.0;0.0;0.0;0;0.0;  1.0000000E+04;  0.0000000E+00;  0.0000000E+00;  1.0000000E+04;  0.0000000E+00;  1.0000000E+04;0.0;0.0;0.0;0.0
  2.1400001E+00;  9.9999998E-03;  2.0000000E-02;877;0.0;0.0;0.0;1000.0;  4.0000001E-01;0.0;0;0.0;0.0;0.0;0;0.0;  1.0000000E+04;  0.0000000E+00;  0.0000000E+00;  1.0000000E+04;  0.0000000E+00;  1.0000000E+04;0.0;0.0;0.0;0.0
  2.1400001E+00;  9.9999998E-03;  3.9999999E-02;878;0.0;0.0;0.0;1000.0;  4.0000001E-01;0.0;0;0.0;0.0;0.0;0;0.0;  1.0000000E+04;  0.0000000E+00;  0.0000000E+00;  1.0000000E+04;  0.0000000E+00;  1.0000000E+04;0.0;0.0;0.0;0.0
  2.1400001E+00;  9.9999998E-03;  5.9999999E-02;879;0.0;0.0;0.0;1000.0;  4.0000001E-01;0.0;0;0.0;0.0;0.0;0;0.0;  1.0000000E+04;  0.0000000E+00;  0.0000000E+00;  1.0000000E+04;  0.0000000E+00;  1.0000000E+04;0.0;0.0;0.0;0.0
  2.1400001E+00;  9.9999998E-03;  7.9999998E-02;880;0.0;0.0;0.0;1000.0;  4.0000001E-01;0.0;0;0.0;0.0;0.0;0;0.0;  1.0000000E+04;  0.0000000E+00;  0.0000000E+00;  1.0000000E+04;  0.0000000E+00;  1.0000000E+04;0.0;0.0;0.0;0.0
  2.1400001E+00;  9.9999998E-03;  1.0000000E-01;881;0.0;0.0;0.0;1000.0;  4.0000001E-01;0.0;0;0.0;0.0;0.0;0;0.0;  1.0000000E+04;  0.0000000E+00;  0.0000000E+00;  1.0000000E+04;  0.0000000E+00;  1.0000000E+04;0.0;0.0;0.0;0.0
  2.1400001E+00;  9.9999998E-03;  1.2000000E-01;882;0.0;0.0;0.0;1000.0;  4.0000001E-01;0.0;0;0.0;0.0;0.0;0;0.0;  1.0000000E+04;  0.0000000E+00;  0.0000000E+00;  1.0000000E+04;  0.0000000E+00;  1.0000000E+04;0.0;0.0;0.0;0.0
  2.1400001E+00;  9.9999998E-03;  1.4000000E-01;883;0.0;0.0;0.0;1000.0;  4.0000001E-01;0.0;0;0.0;0.0;0.0;0;0.0;  1.0000000E+04;  0.0000000E+00;  0.0000000E+00;  1.0000000E+04;  0.0000000E+00;  1.0000000E+04;0.0;0.0;0.0;0.0
  2.1400001E+00;  9.9999998E-03;  1.6000000E-01;884;0.0;0.0;0.0;1000.0;  4.0000001E-01;0.0;0;0.0;0.0;0.0;0;0.0;  1.0000000E+04;  0.0000000E+00;  0.0000000E+00;  1.0000000E+04;  0.0000000E+00;  1.0000000E+04;0.0;0.0;0.0;0.0
  2.1400001E+00;  9.9999998E-03;  1.8000001E-01;885;0.0;0.0;0.0;1000.0;  4.0000001E-01;0.0;0;0.0;0.0;0.0;0;0.0;  1.0000000E+04;  0.0000000E+00;  0.0000000E+00;  1.0000000E+04;  0.0000000E+00;  1.0000000E+04;0.0;0.0;0.0;0.0
  2.1400001E+00;  9.9999998E-03;  2.0000000E-01;886;0.0;0.0;0.0;1000.0;  4.0000001E-01;0.0;0;0.0;0.0;0.0;0;0.0;  1.0000000E+04;  0.0000000E+00;  0.0000000E+00;  1.0000000E+04;  0.0000000E+00;  1.0000000E+04;0.0;0.0;0.0;0.0
  2.1400001E+00;  9.9999998E-03;  2.2000000E-01;887;0.0;0.0;0.0;1000.0;  4.0000001E-01;0.0;0;0.0;0.0;0.0;0;0.0;  1.0000000E+04;  0.0000000E+00;  0.0000000E+00;  1.0000000E+04;  0.0000000E+00;  1.0000000E+04;0.0;0.0;0.0;0.0
  2.1400001E+00;  9.9999998E-03;  2.3999999E-01;888;0.0;0.0;0.0;1000.0;  4.0000001E-01;0.0;0;0.0;0.0;0.0;0;0.0;  1.0000000E+04;  0.0000000E+00;  0.0000000E+00;  1.0000000E+04;  0.0000000E+00;  1.0000000E+04;0.0;0.0;0.0;0.0
  2.1400001E+00;  9.9999998E-03;  2.5999999E-01;889;0.0;0.0;0.0;1000.0;  4.0000001E-01;0.0;0;0.0;0.0;0.0;0;0.0;  1.0000000E+04;  0.0000000E+00;  0.0000000E+00;  1.0000000E+04;  0.0000000E+00;  1.0000000E+04;0.0;0.0;0.0;0.0
  2.1400001E+00;  9.9999998E-03;  2.8000000E-01;890;0.0;0.0;0.0;1000.0;  4.0000001E-01;0.0;0;0.0;0.0;0.0;0;0.0;  1.0000000E+04;  0.0000000E+00;  0.0000000E+00;  1.0000000E+04;  0.0000000E+00;  1.0000000E+04;0.0;0.0;0.0;0.0
  2.1400001E+00;  9.9999998E-03;  3.0000001E-01;891;0.0;0.0;0.0;1000.0;  4.0000001E-01;0.0;0;0.0;0.0;0.0;0;0.0;  1.0000000E+04;  0.0000000E+00;  0.0000000E+00;  1.0000000E+04;  0.0000000E+00;  1.0000000E+04;0.0;0.0;0.0;0.0
  2.1400001E+00;  9.9999998E-03;  3.1999999E-01;892;0.0;0.0;0.0;1000.0;  4.0000001E-01;0.0;0;0.0;0.0;0.0;0;0.0;  1.0000000E+04;  0.0000000E+00;  0.0000000E+00;  1.0000000E+04;  0.0000000E+00;  1.0000000E+04;0.0;0.0;0.0;0.0
  2.1400001E+00;  9.9999998E-03;  3.4000000E-01;893;0.0;0.0;0.0;1000.0;  4.0000001E-01;0.0;0;0.0;0.0;0.0;0;0.0;  1.0000000E+04;  0.0000000E+00;  0.0000000E+00;  1.0000000E+04;  0.0000000E+00;  1.0000000E+04;0.0;0.0;0.0;0.0
  2.1400001E+00;  9.9999998E-03;  3.6000001E-01;894;0.0;0.0;0.0;1000.0;  4.0000001E-01;0.0;0;0.0;0.0;0.0;0;0.0;  1.0000000E+04;  0.0000000E+00;  0.0000000E+00;  1.0000000E+04;  0.0000000E+00;  1.0000000E+04;0.0;0.0;0.0;0.0
  2.1400001E+00;  9.9999998E-03;  3.8000000E-01;895;0.0;0.0;0.0;1000.0;  4.0000001E-01;0.0;0;0.0;0.0;0.0;0;0.0;  1.0000000E+04;  0.0000000E+00;  0.0000000E+00;  1.0000000E+04;  0.0000000E+00;  1.0000000E+04;0.0;0.0;0.0;0.0
  2.1400001E+00;  9.9999998E-03;  4.0000001E-01;896;0.0;0.0;0.0;1000.0;  4.0000001E-01;0.0;0;0.0;0.0;0.0;0;0.0;  1.0000000E+04;  0.0000000E+00;  0.0000000E+00;  1.0000000E+04;  0.0000000E+00;  1.0000000E+04;0.0;0.0;0.0;0.0
  2.1600001E+00;  9.9999998E-03; -2.8000000E-01;897;0.0;0.0;0.0;1000.0;  4.0000001E-01;0.0;0;0.0;0.0;0.0;0;0.0;  1.0000000E+04;  0.0000000E+00;  0.0000000E+00;  1.0000000E+04;  0.0000000E+00;  1.0000000E+04;0.0;0.0;0.0;0.0
  2.1600001E+00;  9.9999998E-03; -2.5999999E-01;898;0.0;0.0;0.0;1000.0;  4.0000001E-01;0.0;0;0.0;0.0;0.0;0;0.0;  1.0000000E+04;  0.0000000E+00;  0.0000000E+00;  1.0000000E+04;  0.0000000E+00;  1.0000000E+04;0.0;0.0;0.0;0.0
  2.1600001E+00;  9.9999998E-03; -2.3999999E-01;899;0.0;0.0;0.0;1000.0;  4.0000001E-01;0.0;0;0.0;0.0;0.0;0;0.0;  1.0000000E+04;  0.0000000E+00;  0.0000000E+00;  1.0000000E+04;  0.0000000E+00;  1.0000000E+04;0.0;0.0;0.0;0.0
  2.1600001E+00;  9.9999998E-03; -2.2000000E-01;900;0.0;0.0;0.0;1000.0;  4.0000001E-01;0.0;0;0.0;0.0;0.0;0;0.0;  1.0000000E+04;  0.0000000E+00;  0.0000000E+00;  1.0000000E+04;  0.0000000E+00;  1.0000000E+04;0.0;0.0;0.0;0.0
  2.1600001E+00;  9.9999998E-03; -2.0000000E-01;901;0.0;0.0;0.0;1000.0;  4.0000001E-01;0.0;0;0.0;0.0;0.0;0;0.0;  1.0000000E+04;  0.0000000E+00;  0.0000000E+00;  1.0000000E+04;  0.0000000E+00;  1.0000000E+04;0.0;0.0;0.0;0.0
  2.1600001E+00;  9.9999998E-03; -1.8000001E-01;902;0.0;0.0;0.0;1000.0;  4.0000001E-01;0.0;0;0.0;0.0;0.0;0;0.0;  1.0000000E+04;  0.0000000E+00;  0.0000000E+00;  1.0000000E+04;  0.0000000E+00;  1.0000000E+04;0.0;0.0;0.0;0.0
  2.1600001E+00;  9.9999998E-03; -1.6000000E-01;903;0.0;0.0;0.0;1000.0;  4.0000001E-01;0.0;0;0.0;0.0;0.0;0;0.0;  1.0000000E+04;  0.0000000E+00;  0.0000000E+00;  1.0000000E+04;  0.0000000E+00;  1.0000000E+04;0.0;0.0;0.0;0.0
  2.1600001E+00;  9.9999998E-03; -1.4000000E-01;904;0.0;0.0;0.0;1000.0;  4.0000001E-01;0.0;0;0.0;0.0;0.0;0;0.0;  1.0000000E+04;  0.0000000E+00;  0.0000000E+00;  1.0000000E+04;  0.0000000E+00;  1.0000000E+04;0.0;0.0;0.0;0.0
  2.1600001E+00;  9.9999998E-03; -1.2000000E-01;905;0.0;0.0;0.0;1000.0;  4.0000001E-01;0.0;0;0.0;0.0;0.0;0;0.0;  1.0000000E+04;  0.0000000E+00;  0.0000000E+00;  1.0000000E+04;  0.0000000E+00;  1.0000000E+04;0.0;0.0;0.0;0.0
  2.1600001E+00;  9.9999998E-03; -1.0000000E-01;906;0.0;0.0;0.0;1000.0;  4.0000001E-01;0.0;0;0.0;0.0;0.0;0;0.0;  1.0000000E+04;  0.0000000E+00;  0.0000000E+00;  1.0000000E+04;  0.0000000E+00;  1.0000000E+04;0.0;0.0;0.0;0.0
  2.1600001E+00;  9.9999998E-03; -7.9999998E-02;907;0.0;0.0;0.0;1000.0;  4.0000001E-01;0.0;0;0.0;0.0;0.0;0;0.0;  1.0000000E+04;  0.0000000E+00;  0.0000000E+00;  1.0000000E+04;  0.0000000E+00;  1.0000000E+04;0.0;0.0;0.0;0.0
  2.1600001E+00;  9.9999998E-03; -5.9999999E-02;908;0.0;0.0;0.0;1000.0;  4.0000001E-01;0.0;0;0.0;0.0;0.0;0;0.0;  1.0000000E+04;  0.0000000E+00;  0.0000000E+00;  1.0000000E+04;  0.0000000E+00;  1.0000000E+04;0.0;0.0;0.0;0.0
  2.1600001E+00;  9.9999998E-03; -3.9999999E-02;909;0.0;0.0;0.0;1000.0;  4.0000001E-01;0.0;0;0.0;0.0;0.0;0;0.0;  1.0000000E+04;  0.0000000E+00;  0.0000000E+00;  1.0000000E+04;  0.0000000E+00;  1.0000000E+04;0.0;0.0;0.0;0.0
  2.1600001E+00;  9.9999998E-03; -2.0000000E-02;910;0.0;0.0;0.0;1000.0;  4.0000001E-01;0.0;0;0.0;0.0;0.0;0;0.0;  1.0000000E+04;  0.0000000E+00;  0.0000000E+00;  1.0000000E+04;  0.0000000E+00;  1.0000000E+04;0.0;0.0;0.0;0.0
  2.1600001E+00;  9.9999998E-03;  0.0000000E+00;911;0.0;0.0;0.0;1000.0;  4.0000001E-01;0.0;0;0.0;0.0;0.0;0;0.0;  1.0000000E+04;  0.0000000E+00;  0.0000000E+00;  1.0000000E+04;  0.0000000E+00;  1.0000000E+04;0.0;0.0;0.0;0.0
  2.1600001E+00;  9.9999998E-03;  2.0000000E-02;912;0.0;0.0;0.0;1000.0;  4.0000001E-01;0.0;0;0.0;0.0;0.0;0;0.0;  1.0000000E+04;  0.0000000E+00;  0.0000000E+00;  1.0000000E+04;  0.0000000E+00;  1.0000000E+04;0.0;0.0;0.0;0.0
  2.1600001E+00;  9.9999998E-03;  3.9999999E-02;913;0.0;0.0;0.0;1000.0;  4.0000001E-01;0.0;0;0.0;0.0;0.0;0;0.0;  1.0000000E+04;  0.0000000E+00;  0.0000000E+00;  1.0000000E+04;  0.0000000E+00;  1.0000000E+04;0.0;0.0;0.0;0.0
  2.1600001E+00;  9.9999998E-03;  5.9999999E-02;914;0.0;0.0;0.0;1000.0;  4.0000001E-01;0.0;0;0.0;0.0;0.0;0;0.0;  1.0000000E+04;  0.0000000E+00;  0.0000000E+00;  1.0000000E+04;  0.0000000E+00;  1.0000000E+04;0.0;0.0;0.0;0.0
  2.1600001E+00;  9.9999998E-03;  7.9999998E-02;915;0.0;0.0;0.0;1000.0;  4.0000001E-01;0.0;0;0.0;0.0;0.0;0;0.0;  1.0000000E+04;  0.0000000E+00;  0.0000000E+00;  1.0000000E+04;  0.0000000E+00;  1.0000000E+04;0.0;0.0;0.0;0.0
  2.1600001E+00;  9.9999998E-03;  1.0000000E-01;916;0.0;0.0;0.0;1000.0;  4.0000001E-01;0.0;0;0.0;0.0;0.0;0;0.0;  1.0000000E+04;  0.0000000E+00;  0.0000000E+00;  1.0000000E+04;  0.0000000E+00;  1.0000000E+04;0.0;0.0;0.0;0.0
  2.1600001E+00;  9.9999998E-03;  1.2000000E-01;917;0.0;0.0;0.0;1000.0;  4.0000001E-01;0.0;0;0.0;0.0;0.0;0;0.0;  1.0000000E+04;  0.0000000E+00;  0.0000000E+00;  1.0000000E+04;  0.0000000E+00;  1.0000000E+04;0.0;0.0;0.0;0.0
  2.1600001E+00;  9.9999998E-03;  1.4000000E-01;918;0.0;0.0;0.0;1000.0;  4.0000001E-01;0.0;0;0.0;0.0;0.0;0;0.0;  1.0000000E+04;  0.0000000E+00;  0.0000000E+00;  1.0000000E+04;  0.0000000E+00;  1.0000000E+04;0.0;0.0;0.0;0.0
  2.1600001E+00;  9.9999998E-03;  1.6000000E-01;919;0.0;0.0;0.0;1000.0;  4.0000001E-01;0.0;0;0.0;0.0;0.0;0;0.0;  1.0000000E+04;  0.0000000E+00;  0.0000000E+00;  1.0000000E+04;  0.0000000E+00;  1.0000000E+04;0.0;0.0;0.0;0.0
  2.1600001E+00;  9.9999998E-03;  1.8000001E-01;920;0.0;0.0;0.0;1000.0;  4.0000001E-01;0.0;0;0.0;0.0;0.0;0;0.0;  1.0000000E+04;  0.0000000E+00;  0.0000000E+00;  1.0000000E+04;  0.0000000E+00;  1.0000000E+04;0.0;0.0;0.0;0.0
  2.1600001E+00;  9.9999998E-03;  2.0000000E-01;921;0.0;0.0;0.0;1000.0;  4.0000001E-01;0.0;0;0.0;0.0;0.0;0;0.0;  1.0000000E+04;  0.0000000E+00;  0.0000000E+00;  1.0000000E+04;  0.0000000E+00;  1.0000000E+04;0.0;0.0;0.0;0.0
  2.1600001E+00;  9.9999998E-03;  2.2000000E-01;922;0.0;0.0;0.0;1000.0;  4.0000001E-01;0.0;0;0.0;0.0;0.0;0;0.0;  1.0000000E+04;  0.0000000E+00;  0.0000000E+00;  1.0000000E+04;  0.0000000E+00;  1.0000000E+04;0.0;0.0;0.0;0.0
  2.1600001E+00;  9.9999998E-03;  2.3999999E-01;923;0.0;0.0;0.0;1000.0;  4.0000001E-01;0.0;0;0.0;0.0;0.0;0;0.0;  1.0000000E+04;  0.0000000E+00;  0.0000000E+00;  1.0000000E+04;  0.0000000E+00;  1.0000000E+04;0.0;0.0;0.0;0.0
  2.1600001E+00;  9.9999998E-03;  2.5999999E-01;924;0.0;0.0;0.0;1000.0;  4.0000001E-01;0.0;0;0.0;0.0;0.0;0;0.0;  1.0000000E+04;  0.0000000E+00;  0.0000000E+00;  1.0000000E+04;  0.0000000E+00;  1.0000000E+04;0.0;0.0;0.0;0.0
  2.1600001E+00;  9.9999998E-03;  2.8000000E-01;925;0.0;0.0;0.0;1000.0;  4.0000001E-01;0.0;0;0.0;0.0;0.0;0;0.0;  1.0000000E+04;  0.0000000E+00;  0.0000000E+00;  1.0000000E+04;  0.0000000E+00;  1.0000000E+04;0.0;0.0;0.0;0.0
  2.1600001E+00;  9.9999998E-03;  3.0000001E-01;926;0.0;0.0;0.0;1000.0;  4.0000001E-01;0.0;0;0.0;0.0;0.0;0;0.0;  1.0000000E+04;  0.0000000E+00;  0.0000000E+00;  1.0000000E+04;  0.0000000E+00;  1.0000000E+04;0.0;0.0;0.0;0.0
  2.1600001E+00;  9.9999998E-03;  3.1999999E-01;927;0.0;0.0;0.0;1000.0;  4.0000001E-01;0.0;0;0.0;0.0;0.0;0;0.0;  1.0000000E+04;  0.0000000E+00;  0.0000000E+00;  1.0000000E+04;  0.0000000E+00;  1.0000000E+04;0.0;0.0;0.0;0.0
  2.1600001E+00;  9.9999998E-03;  3.4000000E-01;928;0.0;0.0;0.0;1000.0;  4.0000001E-01;0.0;0;0.0;0.0;0.0;0;0.0;  1.0000000E+04;  0.0000000E+00;  0.0000000E+00;  1.0000000E+04;  0.0000000E+00;  1.0000000E+04;0.0;0.0;0.0;0.0
  2.1600001E+00;  9.9999998E-03;  3.6000001E-01;929;0.0;0.0;0.0;1000.0;  4.0000001E-01;0.0;0;0.0;0.0;0.0;0;0.0;  1.0000000E+04;  0.0000000E+00;  0.0000000E+00;  1.0000000E+04;  0.0000000E+00;  1.0000000E+04;0.0;0.0;0.0;0.0
  2.1600001E+00;  9.9999998E-03;  3.8000000E-01;930;0.0;0.0;0.0;1000.0;  4.0000001E-01;0.0;0;0.0;0.0;0.0;0;0.0;  1.0000000E+04;  0.0000000E+00;  0.0000000E+00;  1.0000000E+04;  0.0000000E+00;  1.0000000E+04;0.0;0.0;0.0;0.0
  2.1600001E+00;  9.9999998E-03;  4.0000001E-01;931;0.0;0.0;0.0;1000.0;  4.0000001E-01;0.0;0;0.0;0.0;0.0;0;0.0;  1.0000000E+04;  0.0000000E+00;  0.0000000E+00;  1.0000000E+04;  0.0000000E+00;  1.0000000E+04;0.0;0.0;0.0;0.0
  2.1800001E+00;  9.9999998E-03; -1.8000001E-01;932;0.0;0.0;0.0;1000.0;  4.0000001E-01;0.0;0;0.0;0.0;0.0;0;0.0;  1.0000000E+04;  0.0000000E+00;  0.0000000E+00;  1.0000000E+04;  0.0000000E+00;  1.0000000E+04;0.0;0.0;0.0;0.0
  2.1800001E+00;  9.9999998E-03; -1.6000000E-01;933;0.0;0.0;0.0;1000.0;  4.0000001E-01;0.0;0;0.0;0.0;0.0;0;0.0;  1.0000000E+04;  0.0000000E+00;  0.0000000E+00;  1.0000000E+04;  0.0000000E+00;  1.0000000E+04;0.0;0.0;0.0;0.0
  2.1800001E+00;  9.9999998E-03; -1.4000000E-01;934;0.0;0.0;0.0;1000.0;  4.0000001E-01;0.0;0;0.0;0.0;0.0;0;0.0;  1.0000000E+04;  0.0000000E+00;  0.0000000E+00;  1.0000000E+04;  0.0000000E+00;  1.0000000E+04;0.0;0.0;0.0;0.0
  2.1800001E+00;  9.9999998E-03; -1.2000000E-01;935;0.0;0.0;0.0;1000.0;  4.0000001E-01;0.0;0;0.0;0.0;0.0;0;0.0;  1.0000000E+04;  0.0000000E+00;  0.0000000E+00;  1.0000000E+04;  0.0000000E+00;  1.0000000E+04;0.0;0.0;0.0;0.0
  2.1800001E+00;  9.9999998E-03; -1.0000000E-01;936;0.0;0.0;0.0;1000.0;  4.0000001E-01;0.0;0;0.0;0.0;0.0;0;0.0;  1.0000000E+04;  0.0000000E+00;  0.0000000E+00;  1.0000000E+04;  0.0000000E+00;  1.0000000E+04;0.0;0.0;0.0;0.0
  2.1800001E+00;  9.9999998E-03; -7.9999998E-02;937;0.0;0.0;0.0;1000.0;  4.0000001E-01;0.0;0;0.0;0.0;0.0;0;0.0;  1.0000000E+04;  0.0000000E+00;  0.0000000E+00;  1.0000000E+04;  0.0000000E+00;  1.0000000E+04;0.0;0.0;0.0;0.0
  2.1800001E+00;  9.9999998E-03; -5.9999999E-02;938;0.0;0.0;0.0;1000.0;  4.0000001E-01;0.0;0;0.0;0.0;0.0;0;0.0;  1.0000000E+04;  0.0000000E+00;  0.0000000E+00;  1.0000000E+04;  0.0000000E+00;  1.0000000E+04;0.0;0.0;0.0;0.0
  2.1800001E+00;  9.9999998E-03; -3.9999999E-02;939;0.0;0.0;0.0;1000.0;  4.0000001E-01;0.0;0;0.0;0.0;0.0;0;0.0;  1.0000000E+04;  0.0000000E+00;  0.0000000E+00;  1.0000000E+04;  0.0000000E+00;  1.0000000E+04;0.0;0.0;0.0;0.0
  2.1800001E+00;  9.9999998E-03; -2.0000000E-02;940;0.0;0.0;0.0;1000.0;  4.0000001E-01;0.0;0;0.0;0.0;0.0;0;0.0;  1.0000000E+04;  0.0000000E+00;  0.0000000E+00;  1.0000000E+04;  0.0000000E+00;  1.0000000E+04;0.0;0.0;0.0;0.0
  2.1800001E+00;  9.9999998E-03;  0.0000000E+00;941;0.0;0.0;0.0;1000.0;  4.0000001E-01;0.0;0;0.0;0.0;0.0;0;0.0;  1.0000000E+04;  0.0000000E+00;  0.0000000E+00;  1.0000000E+04;  0.0000000E+00;  1.0000000E+04;0.0;0.0;0.0;0.0
  2.1800001E+00;  9.9999998E-03;  2.0000000E-02;942;0.0;0.0;0.0;1000.0;  4.0000001E-01;0.0;0;0.0;0.0;0.0;0;0.0;  1.0000000E+04;  0.0000000E+00;  0.0000000E+00;  1.0000000E+04;  0.0000000E+00;  1.0000000E+04;0.0;0.0;0.0;0.0
  2.1800001E+00;  9.9999998E-03;  3.9999999E-02;943;0.0;0.0;0.0;1000.0;  4.0000001E-01;0.0;0;0.0;0.0;0.0;0;0.0;  1.0000000E+04;  0.0000000E+00;  0.0000000E+00;  1.0000000E+04;  0.0000000E+00;  1.0000000E+04;0.0;0.0;0.0;0.0
  2.1800001E+00;  9.9999998E-03;  5.9999999E-02;944;0.0;0.0;0.0;1000.0;  4.0000001E-01;0.0;0;0.0;0.0;0.0;0;0.0;  1.0000000E+04;  0.0000000E+00;  0.0000000E+00;  1.0000000E+04;  0.0000000E+00;  1.0000000E+04;0.0;0.0;0.0;0.0
  2.1800001E+00;  9.9999998E-03;  7.9999998E-02;945;0.0;0.0;0.0;1000.0;  4.0000001E-01;0.0;0;0.0;0.0;0.0;0;0.0;  1.0000000E+04;  0.0000000E+00;  0.0000000E+00;  1.0000000E+04;  0.0000000E+00;  1.0000000E+04;0.0;0.0;0.0;0.0
  2.1800001E+00;  9.9999998E-03;  1.0000000E-01;946;0.0;0.0;0.0;1000.0;  4.0000001E-01;0.0;0;0.0;0.0;0.0;0;0.0;  1.0000000E+04;  0.0000000E+00;  0.0000000E+00;  1.0000000E+04;  0.0000000E+00;  1.0000000E+04;0.0;0.0;0.0;0.0
  2.1800001E+00;  9.9999998E-03;  1.2000000E-01;947;0.0;0.0;0.0;1000.0;  4.0000001E-01;0.0;0;0.0;0.0;0.0;0;0.0;  1.0000000E+04;  0.0000000E+00;  0.0000000E+00;  1.0000000E+04;  0.0000000E+00;  1.0000000E+04;0.0;0.0;0.0;0.0
  2.1800001E+00;  9.9999998E-03;  1.4000000E-01;948;0.0;0.0;0.0;1000.0;  4.0000001E-01;0.0;0;0.0;0.0;0.0;0;0.0;  1.0000000E+04;  0.0000000E+00;  0.0000000E+00;  1.0000000E+04;  0.0000000E+00;  1.0000000E+04;0.0;0.0;0.0;0.0
  2.1800001E+00;  9.9999998E-03;  1.6000000E-01;949;0.0;0.0;0.0;1000.0;  4.0000001E-01;0.0;0;0.0;0.0;0.0;0;0.0;  1.0000000E+04;  0.0000000E+00;  0.0000000E+00;  1.0000000E+04;  0.0000000E+00;  1.0000000E+04;0.0;0.0;0.0;0.0
  2.1800001E+00;  9.9999998E-03;  1.8000001E-01;950;0.0;0.0;0.0;1000.0;  4.0000001E-01;0.0;0;0.0;0.0;0.0;0;0.0;  1.0000000E+04;  0.0000000E+00;  0.0000000E+00;  1.0000000E+04;  0.0000000E+00;  1.0000000E+04;0.0;0.0;0.0;0.0
  2.1800001E+00;  9.9999998E-03;  2.0000000E-01;951;0.0;0.0;0.0;1000.0;  4.0000001E-01;0.0;0;0.0;0.0;0.0;0;0.0;  1.0000000E+04;  0.0000000E+00;  0.0000000E+00;  1.0000000E+04;  0.0000000E+00;  1.0000000E+04;0.0;0.0;0.0;0.0
  2.1800001E+00;  9.9999998E-03;  2.2000000E-01;952;0.0;0.0;0.0;1000.0;  4.0000001E-01;0.0;0;0.0;0.0;0.0;0;0.0;  1.0000000E+04;  0.0000000E+00;  0.0000000E+00;  1.0000000E+04;  0.0000000E+00;  1.0000000E+04;0.0;0.0;0.0;0.0
  2.1800001E+00;  9.9999998E-03;  2.3999999E-01;953;0.0;0.0;0.0;1000.0;  4.0000001E-01;0.0;0;0.0;0.0;0.0;0;0.0;  1.0000000E+04;  0.0000000E+00;  0.0000000E+00;  1.0000000E+04;  0.0000000E+00;  1.0000000E+04;0.0;0.0;0.0;0.0
  2.1800001E+00;  9.9999998E-03;  2.5999999E-01;954;0.0;0.0;0.0;1000.0;  4.0000001E-01;0.0;0;0.0;0.0;0.0;0;0.0;  1.0000000E+04;  0.0000000E+00;  0.0000000E+00;  1.0000000E+04;  0.0000000E+00;  1.0000000E+04;0.0;0.0;0.0;0.0
  2.1800001E+00;  9.9999998E-03;  2.8000000E-01;955;0.0;0.0;0.0;1000.0;  4.0000001E-01;0.0;0;0.0;0.0;0.0;0;0.0;  1.0000000E+04;  0.0000000E+00;  0.0000000E+00;  1.0000000E+04;  0.0000000E+00;  1.0000000E+04;0.0;0.0;0.0;0.0
  2.1800001E+00;  9.9999998E-03;  3.0000001E-01;956;0.0;0.0;0.0;1000.0;  4.0000001E-01;0.0;0;0.0;0.0;0.0;0;0.0;  1.0000000E+04;  0.0000000E+00;  0.0000000E+00;  1.0000000E+04;  0.0000000E+00;  1.0000000E+04;0.0;0.0;0.0;0.0
  2.1800001E+00;  9.9999998E-03;  3.1999999E-01;957;0.0;0.0;0.0;1000.0;  4.0000001E-01;0.0;0;0.0;0.0;0.0;0;0.0;  1.0000000E+04;  0.0000000E+00;  0.0000000E+00;  1.0000000E+04;  0.0000000E+00;  1.0000000E+04;0.0;0.0;0.0;0.0
  2.1800001E+00;  9.9999998E-03;  3.4000000E-01;958;0.0;0.0;0.0;1000.0;  4.0000001E-01;0.0;0;0.0;0.0;0.0;0;0.0;  1.0000000E+04;  0.0000000E+00;  0.0000000E+00;  1.0000000E+04;  0.0000000E+00;  1.0000000E+04;0.0;0.0;0.0;0.0
  2.1800001E+00;  9.9999998E-03;  3.6000001E-01;959;0.0;0.0;0.0;1000.0;  4.0000001E-01;0.0;0;0.0;0.0;0.0;0;0.0;  1.0000000E+04;  0.0000000E+00;  0.0000000E+00;  1.0000000E+04;  0.0000000E+00;  1.0000000E+04;0.0;0.0;0.0;0.0
  2.1800001E+00;  9.9999998E-03;  3.8000000E-01;960;0.0;0.0;0.0;1000.0;  4.0000001E-01;0.0;0;0.0;0.0;0.0;0;0.0;  1.0000000E+04;  0.0000000E+00;  0.0000000E+00;  1.0000000E+04;  0.0000000E+00;  1.0000000E+04;0.0;0.0;0.0;0.0
  2.1800001E+00;  9.9999998E-03;  4.0000001E-01;961;0.0;0.0;0.0;1000.0;  4.0000001E-01;0.0;0;0.0;0.0;0.0;0;0.0;  1.0000000E+04;  0.0000000E+00;  0.0000000E+00;  1.0000000E+04;  0.0000000E+00;  1.0000000E+04;0.0;0.0;0.0;0.0
  2.2000000E+00;  9.9999998E-03; -7.9999998E-02;962;0.0;0.0;0.0;1000.0;  4.0000001E-01;0.0;0;0.0;0.0;0.0;0;0.0;  1.0000000E+04;  0.0000000E+00;  0.0000000E+00;  1.0000000E+04;  0.0000000E+00;  1.0000000E+04;0.0;0.0;0.0;0.0
  2.2000000E+00;  9.9999998E-03; -5.9999999E-02;963;0.0;0.0;0.0;1000.0;  4.0000001E-01;0.0;0;0.0;0.0;0.0;0;0.0;  1.0000000E+04;  0.0000000E+00;  0.0000000E+00;  1.0000000E+04;  0.0000000E+00;  1.0000000E+04;0.0;0.0;0.0;0.0
  2.2000000E+00;  9.9999998E-03; -3.9999999E-02;964;0.0;0.0;0.0;1000.0;  4.0000001E-01;0.0;0;0.0;0.0;0.0;0;0.0;  1.0000000E+04;  0.0000000E+00;  0.0000000E+00;  1.0000000E+04;  0.0000000E+00;  1.0000000E+04;0.0;0.0;0.0;0.0
  2.2000000E+00;  9.9999998E-03; -2.0000000E-02;965;0.0;0.0;0.0;1000.0;  4.0000001E-01;0.0;0;0.0;0.0;0.0;0;0.0;  1.0000000E+04;  0.0000000E+00;  0.0000000E+00;  1.0000000E+04;  0.0000000E+00;  1.0000000E+04;0.0;0.0;0.0;0.0
  2.2000000E+00;  9.9999998E-03;  0.0000000E+00;966;0.0;0.0;0.0;1000.0;  4.0000001E-01;0.0;0;0.0;0.0;0.0;0;0.0;  1.0000000E+04;  0.0000000E+00;  0.0000000E+00;  1.0000000E+04;  0.0000000E+00;  1.0000000E+04;0.0;0.0;0.0;0.0
  2.2000000E+00;  9.9999998E-03;  2.0000000E-02;967;0.0;0.0;0.0;1000.0;  4.0000001E-01;0.0;0;0.0;0.0;0.0;0;0.0;  1.0000000E+04;  0.0000000E+00;  0.0000000E+00;  1.0000000E+04;  0.0000000E+00;  1.0000000E+04;0.0;0.0;0.0;0.0
  2.2000000E+00;  9.9999998E-03;  3.9999999E-02;968;0.0;0.0;0.0;1000.0;  4.0000001E-01;0.0;0;0.0;0.0;0.0;0;0.0;  1.0000000E+04;  0.0000000E+00;  0.0000000E+00;  1.0000000E+04;  0.0000000E+00;  1.0000000E+04;0.0;0.0;0.0;0.0
  2.2000000E+00;  9.9999998E-03;  5.9999999E-02;969;0.0;0.0;0.0;1000.0;  4.0000001E-01;0.0;0;0.0;0.0;0.0;0;0.0;  1.0000000E+04;  0.0000000E+00;  0.0000000E+00;  1.0000000E+04;  0.0000000E+00;  1.0000000E+04;0.0;0.0;0.0;0.0
  2.2000000E+00;  9.9999998E-03;  7.9999998E-02;970;0.0;0.0;0.0;1000.0;  4.0000001E-01;0.0;0;0.0;0.0;0.0;0;0.0;  1.0000000E+04;  0.0000000E+00;  0.0000000E+00;  1.0000000E+04;  0.0000000E+00;  1.0000000E+04;0.0;0.0;0.0;0.0
  2.2000000E+00;  9.9999998E-03;  1.0000000E-01;971;0.0;0.0;0.0;1000.0;  4.0000001E-01;0.0;0;0.0;0.0;0.0;0;0.0;  1.0000000E+04;  0.0000000E+00;  0.0000000E+00;  1.0000000E+04;  0.0000000E+00;  1.0000000E+04;0.0;0.0;0.0;0.0
  2.2000000E+00;  9.9999998E-03;  1.2000000E-01;972;0.0;0.0;0.0;1000.0;  4.0000001E-01;0.0;0;0.0;0.0;0.0;0;0.0;  1.0000000E+04;  0.0000000E+00;  0.0000000E+00;  1.0000000E+04;  0.0000000E+00;  1.0000000E+04;0.0;0.0;0.0;0.0
  2.2000000E+00;  9.9999998E-03;  1.4000000E-01;973;0.0;0.0;0.0;1000.0;  4.0000001E-01;0.0;0;0.0;0.0;0.0;0;0.0;  1.0000000E+04;  0.0000000E+00;  0.0000000E+00;  1.0000000E+04;  0.0000000E+00;  1.0000000E+04;0.0;0.0;0.0;0.0
  2.2000000E+00;  9.9999998E-03;  1.6000000E-01;974;0.0;0.0;0.0;1000.0;  4.0000001E-01;0.0;0;0.0;0.0;0.0;0;0.0;  1.0000000E+04;  0.0000000E+00;  0.0000000E+00;  1.0000000E+04;  0.0000000E+00;  1.0000000E+04;0.0;0.0;0.0;0.0
  2.2000000E+00;  9.9999998E-03;  1.8000001E-01;975;0.0;0.0;0.0;1000.0;  4.0000001E-01;0.0;0;0.0;0.0;0.0;0;0.0;  1.0000000E+04;  0.0000000E+00;  0.0000000E+00;  1.0000000E+04;  0.0000000E+00;  1.0000000E+04;0.0;0.0;0.0;0.0
  2.2000000E+00;  9.9999998E-03;  2.0000000E-01;976;0.0;0.0;0.0;1000.0;  4.0000001E-01;0.0;0;0.0;0.0;0.0;0;0.0;  1.0000000E+04;  0.0000000E+00;  0.0000000E+00;  1.0000000E+04;  0.0000000E+00;  1.0000000E+04;0.0;0.0;0.0;0.0
  2.2000000E+00;  9.9999998E-03;  2.2000000E-01;977;0.0;0.0;0.0;1000.0;  4.0000001E-01;0.0;0;0.0;0.0;0.0;0;0.0;  1.0000000E+04;  0.0000000E+00;  0.0000000E+00;  1.0000000E+04;  0.0000000E+00;  1.0000000E+04;0.0;0.0;0.0;0.0
  2.2000000E+00;  9.9999998E-03;  2.3999999E-01;978;0.0;0.0;0.0;1000.0;  4.0000001E-01;0.0;0;0.0;0.0;0.0;0;0.0;  1.0000000E+04;  0.0000000E+00;  0.0000000E+00;  1.0000000E+04;  0.0000000E+00;  1.0000000E+04;0.0;0.0;0.0;0.0
  2.2000000E+00;  9.9999998E-03;  2.5999999E-01;979;0.0;0.0;0.0;1000.0;  4.0000001E-01;0.0;0;0.0;0.0;0.0;0;0.0;  1.0000000E+04;  0.0000000E+00;  0.0000000E+00;  1.0000000E+04;  0.0000000E+00;  1.0000000E+04;0.0;0.0;0.0;0.0
  2.2000000E+00;  9.9999998E-03;  2.8000000E-01;980;0.0;0.0;0.0;1000.0;  4.0000001E-01;0.0;0;0.0;0.0;0.0;0;0.0;  1.0000000E+04;  0.0000000E+00;  0.0000000E+00;  1.0000000E+04;  0.0000000E+00;  1.0000000E+04;0.0;0.0;0.0;0.0
  2.2000000E+00;  9.9999998E-03;  3.0000001E-01;981;0.0;0.0;0.0;1000.0;  4.0000001E-01;0.0;0;0.0;0.0;0.0;0;0.0;  1.0000000E+04;  0.0000000E+00;  0.0000000E+00;  1.0000000E+04;  0.0000000E+00;  1.0000000E+04;0.0;0.0;0.0;0.0
  2.2000000E+00;  9.9999998E-03;  3.1999999E-01;982;0.0;0.0;0.0;1000.0;  4.0000001E-01;0.0;0;0.0;0.0;0.0;0;0.0;  1.0000000E+04;  0.0000000E+00;  0.0000000E+00;  1.0000000E+04;  0.0000000E+00;  1.0000000E+04;0.0;0.0;0.0;0.0
  2.2000000E+00;  9.9999998E-03;  3.4000000E-01;983;0.0;0.0;0.0;1000.0;  4.0000001E-01;0.0;0;0.0;0.0;0.0;0;0.0;  1.0000000E+04;  0.0000000E+00;  0.0000000E+00;  1.0000000E+04;  0.0000000E+00;  1.0000000E+04;0.0;0.0;0.0;0.0
  2.2000000E+00;  9.9999998E-03;  3.6000001E-01;984;0.0;0.0;0.0;1000.0;  4.0000001E-01;0.0;0;0.0;0.0;0.0;0;0.0;  1.0000000E+04;  0.0000000E+00;  0.0000000E+00;  1.0000000E+04;  0.0000000E+00;  1.0000000E+04;0.0;0.0;0.0;0.0
  2.2000000E+00;  9.9999998E-03;  3.8000000E-01;985;0.0;0.0;0.0;1000.0;  4.0000001E-01;0.0;0;0.0;0.0;0.0;0;0.0;  1.0000000E+04;  0.0000000E+00;  0.0000000E+00;  1.0000000E+04;  0.0000000E+00;  1.0000000E+04;0.0;0.0;0.0;0.0
  2.2200000E+00;  9.9999998E-03;  2.0000000E-02;986;0.0;0.0;0.0;1000.0;  4.0000001E-01;0.0;0;0.0;0.0;0.0;0;0.0;  1.0000000E+04;  0.0000000E+00;  0.0000000E+00;  1.0000000E+04;  0.0000000E+00;  1.0000000E+04;0.0;0.0;0.0;0.0
  2.2200000E+00;  9.9999998E-03;  3.9999999E-02;987;0.0;0.0;0.0;1000.0;  4.0000001E-01;0.0;0;0.0;0.0;0.0;0;0.0;  1.0000000E+04;  0.0000000E+00;  0.0000000E+00;  1.0000000E+04;  0.0000000E+00;  1.0000000E+04;0.0;0.0;0.0;0.0
  2.2200000E+00;  9.9999998E-03;  5.9999999E-02;988;0.0;0.0;0.0;1000.0;  4.0000001E-01;0.0;0;0.0;0.0;0.0;0;0.0;  1.0000000E+04;  0.0000000E+00;  0.0000000E+00;  1.0000000E+04;  0.0000000E+00;  1.0000000E+04;0.0;0.0;0.0;0.0
  2.2200000E+00;  9.9999998E-03;  7.9999998E-02;989;0.0;0.0;0.0;1000.0;  4.0000001E-01;0.0;0;0.0;0.0;0.0;0;0.0;  1.0000000E+04;  0.0000000E+00;  0.0000000E+00;  1.0000000E+04;  0.0000000E+00;  1.0000000E+04;0.0;0.0;0.0;0.0
  2.2200000E+00;  9.9999998E-03;  1.0000000E-01;990;0.0;0.0;0.0;1000.0;  4.0000001E-01;0.0;0;0.0;0.0;0.0;0;0.0;  1.0000000E+04;  0.0000000E+00;  0.0000000E+00;  1.0000000E+04;  0.0000000E+00;  1.0000000E+04;0.0;0.0;0.0;0.0
  2.2200000E+00;  9.9999998E-03;  1.2000000E-01;991;0.0;0.0;0.0;1000.0;  4.0000001E-01;0.0;0;0.0;0.0;0.0;0;0.0;  1.0000000E+04;  0.0000000E+00;  0.0000000E+00;  1.0000000E+04;  0.0000000E+00;  1.0000000E+04;0.0;0.0;0.0;0.0
  2.2200000E+00;  9.9999998E-03;  1.4000000E-01;992;0.0;0.0;0.0;1000.0;  4.0000001E-01;0.0;0;0.0;0.0;0.0;0;0.0;  1.0000000E+04;  0.0000000E+00;  0.0000000E+00;  1.0000000E+04;  0.0000000E+00;  1.0000000E+04;0.0;0.0;0.0;0.0
  2.2200000E+00;  9.9999998E-03;  1.6000000E-01;993;0.0;0.0;0.0;1000.0;  4.0000001E-01;0.0;0;0.0;0.0;0.0;0;0.0;  1.0000000E+04;  0.0000000E+00;  0.0000000E+00;  1.0000000E+04;  0.0000000E+00;  1.0000000E+04;0.0;0.0;0.0;0.0
  2.2200000E+00;  9.9999998E-03;  1.8000001E-01;994;0.0;0.0;0.0;1000.0;  4.0000001E-01;0.0;0;0.0;0.0;0.0;0;0.0;  1.0000000E+04;  0.0000000E+00;  0.0000000E+00;  1.0000000E+04;  0.0000000E+00;  1.0000000E+04;0.0;0.0;0.0;0.0
  2.2200000E+00;  9.9999998E-03;  2.0000000E-01;995;0.0;0.0;0.0;1000.0;  4.0000001E-01;0.0;0;0.0;0.0;0.0;0;0.0;  1.0000000E+04;  0.0000000E+00;  0.0000000E+00;  1.0000000E+04;  0.0000000E+00;  1.0000000E+04;0.0;0.0;0.0;0.0
  2.2200000E+00;  9.9999998E-03;  2.2000000E-01;996;0.0;0.0;0.0;1000.0;  4.0000001E-01;0.0;0;0.0;0.0;0.0;0;0.0;  1.0000000E+04;  0.0000000E+00;  0.0000000E+00;  1.0000000E+04;  0.0000000E+00;  1.0000000E+04;0.0;0.0;0.0;0.0
  2.2200000E+00;  9.9999998E-03;  2.3999999E-01;997;0.0;0.0;0.0;1000.0;  4.0000001E-01;0.0;0;0.0;0.0;0.0;0;0.0;  1.0000000E+04;  0.0000000E+00;  0.0000000E+00;  1.0000000E+04;  0.0000000E+00;  1.0000000E+04;0.0;0.0;0.0;0.0
  2.2200000E+00;  9.9999998E-03;  2.5999999E-01;998;0.0;0.0;0.0;1000.0;  4.0000001E-01;0.0;0;0.0;0.0;0.0;0;0.0;  1.0000000E+04;  0.0000000E+00;  0.0000000E+00;  1.0000000E+04;  0.0000000E+00;  1.0000000E+04;0.0;0.0;0.0;0.0
  2.2200000E+00;  9.9999998E-03;  2.8000000E-01;999;0.0;0.0;0.0;1000.0;  4.0000001E-01;0.0;0;0.0;0.0;0.0;0;0.0;  1.0000000E+04;  0.0000000E+00;  0.0000000E+00;  1.0000000E+04;  0.0000000E+00;  1.0000000E+04;0.0;0.0;0.0;0.0
  2.2200000E+00;  9.9999998E-03;  3.0000001E-01;1000;0.0;0.0;0.0;1000.0;  4.0000001E-01;0.0;0;0.0;0.0;0.0;0;0.0;  1.0000000E+04;  0.0000000E+00;  0.0000000E+00;  1.0000000E+04;  0.0000000E+00;  1.0000000E+04;0.0;0.0;0.0;0.0
  2.2200000E+00;  9.9999998E-03;  3.1999999E-01;1001;0.0;0.0;0.0;1000.0;  4.0000001E-01;0.0;0;0.0;0.0;0.0;0;0.0;  1.0000000E+04;  0.0000000E+00;  0.0000000E+00;  1.0000000E+04;  0.0000000E+00;  1.0000000E+04;0.0;0.0;0.0;0.0
  2.2200000E+00;  9.9999998E-03;  3.4000000E-01;1002;0.0;0.0;0.0;1000.0;  4.0000001E-01;0.0;0;0.0;0.0;0.0;0;0.0;  1.0000000E+04;  0.0000000E+00;  0.0000000E+00;  1.0000000E+04;  0.0000000E+00;  1.0000000E+04;0.0;0.0;0.0;0.0
  2.2200000E+00;  9.9999998E-03;  3.6000001E-01;1003;0.0;0.0;0.0;1000.0;  4.0000001E-01;0.0;0;0.0;0.0;0.0;0;0.0;  1.0000000E+04;  0.0000000E+00;  0.0000000E+00;  1.0000000E+04;  0.0000000E+00;  1.0000000E+04;0.0;0.0;0.0;0.0
  2.2200000E+00;  9.9999998E-03;  3.8000000E-01;1004;0.0;0.0;0.0;1000.0;  4.0000001E-01;0.0;0;0.0;0.0;0.0;0;0.0;  1.0000000E+04;  0.0000000E+00;  0.0000000E+00;  1.0000000E+04;  0.0000000E+00;  1.0000000E+04;0.0;0.0;0.0;0.0
  2.2400000E+00;  9.9999998E-03;  1.2000000E-01;1005;0.0;0.0;0.0;1000.0;  4.0000001E-01;0.0;0;0.0;0.0;0.0;0;0.0;  1.0000000E+04;  0.0000000E+00;  0.0000000E+00;  1.0000000E+04;  0.0000000E+00;  1.0000000E+04;0.0;0.0;0.0;0.0
  2.2400000E+00;  9.9999998E-03;  1.4000000E-01;1006;0.0;0.0;0.0;1000.0;  4.0000001E-01;0.0;0;0.0;0.0;0.0;0;0.0;  1.0000000E+04;  0.0000000E+00;  0.0000000E+00;  1.0000000E+04;  0.0000000E+00;  1.0000000E+04;0.0;0.0;0.0;0.0
  2.2400000E+00;  9.9999998E-03;  1.6000000E-01;1007;0.0;0.0;0.0;1000.0;  4.0000001E-01;0.0;0;0.0;0.0;0.0;0;0.0;  1.0000000E+04;  0.0000000E+00;  0.0000000E+00;  1.0000000E+04;  0.0000000E+00;  1.0000000E+04;0.0;0.0;0.0;0.0
  2.2400000E+00;  9.9999998E-03;  1.8000001E-01;1008;0.0;0.0;0.0;1000.0;  4.0000001E-01;0.0;0;0.0;0.0;0.0;0;0.0;  1.0000000E+04;  0.0000000E+00;  0.0000000E+00;  1.0000000E+04;  0.0000000E+00;  1.0000000E+04;0.0;0.0;0.0;0.0
  2.2400000E+00;  9.9999998E-03;  2.0000000E-01;1009;0.0;0.0;0.0;1000.0;  4.0000001E-01;0.0;0;0.0;0.0;0.0;0;0.0;  1.0000000E+04;  0.0000000E+00;  0.0000000E+00;  1.0000000E+04;  0.0000000E+00;  1.0000000E+04;0.0;0.0;0.0;0.0
  2.2400000E+00;  9.9999998E-03;  2.2000000E-01;1010;0.0;0.0;0.0;1000.0;  4.0000001E-01;0.0;0;0.0;0.0;0.0;0;0.0;  1.0000000E+04;  0.0000000E+00;  0.0000000E+00;  1.0000000E+04;  0.0000000E+00;  1.0000000E+04;0.0;0.0;0.0;0.0
  2.2400000E+00;  9.9999998E-03;  2.3999999E-01;1011;0.0;0.0;0.0;1000.0;  4.0000001E-01;0.0;0;0.0;0.0;0.0;0;0.0;  1.0000000E+04;  0.0000000E+00;  0.0000000E+00;  1.0000000E+04;  0.0000000E+00;  1.0000000E+04;0.0;0.0;0.0;0.0
  2.2400000E+00;  9.9999998E-03;  2.5999999E-01;1012;0.0;0.0;0.0;1000.0;  4.0000001E-01;0.0;0;0.0;0.0;0.0;0;0.0;  1.0000000E+04;  0.0000000E+00;  0.0000000E+00;  1.0000000E+04;  0.0000000E+00;  1.0000000E+04;0.0;0.0;0.0;0.0
  2.2400000E+00;  9.9999998E-03;  2.8000000E-01;1013;0.0;0.0;0.0;1000.0;  4.0000001E-01;0.0;0;0.0;0.0;0.0;0;0.0;  1.0000000E+04;  0.0000000E+00;  0.0000000E+00;  1.0000000E+04;  0.0000000E+00;  1.0000000E+04;0.0;0.0;0.0;0.0
  2.2400000E+00;  9.9999998E-03;  3.0000001E-01;1014;0.0;0.0;0.0;1000.0;  4.0000001E-01;0.0;0;0.0;0.0;0.0;0;0.0;  1.0000000E+04;  0.0000000E+00;  0.0000000E+00;  1.0000000E+04;  0.0000000E+00;  1.0000000E+04;0.0;0.0;0.0;0.0
  2.2400000E+00;  9.9999998E-03;  3.1999999E-01;1015;0.0;0.0;0.0;1000.0;  4.0000001E-01;0.0;0;0.0;0.0;0.0;0;0.0;  1.0000000E+04;  0.0000000E+00;  0.0000000E+00;  1.0000000E+04;  0.0000000E+00;  1.0000000E+04;0.0;0.0;0.0;0.0
  2.2400000E+00;  9.9999998E-03;  3.4000000E-01;1016;0.0;0.0;0.0;1000.0;  4.0000001E-01;0.0;0;0.0;0.0;0.0;0;0.0;  1.0000000E+04;  0.0000000E+00;  0.0000000E+00;  1.0000000E+04;  0.0000000E+00;  1.0000000E+04;0.0;0.0;0.0;0.0
  2.2400000E+00;  9.9999998E-03;  3.6000001E-01;1017;0.0;0.0;0.0;1000.0;  4.0000001E-01;0.0;0;0.0;0.0;0.0;0;0.0;  1.0000000E+04;  0.0000000E+00;  0.0000000E+00;  1.0000000E+04;  0.0000000E+00;  1.0000000E+04;0.0;0.0;0.0;0.0
  2.2400000E+00;  9.9999998E-03;  3.8000000E-01;1018;0.0;0.0;0.0;1000.0;  4.0000001E-01;0.0;0;0.0;0.0;0.0;0;0.0;  1.0000000E+04;  0.0000000E+00;  0.0000000E+00;  1.0000000E+04;  0.0000000E+00;  1.0000000E+04;0.0;0.0;0.0;0.0
  2.2600000E+00;  9.9999998E-03;  2.2000000E-01;1019;0.0;0.0;0.0;1000.0;  4.0000001E-01;0.0;0;0.0;0.0;0.0;0;0.0;  1.0000000E+04;  0.0000000E+00;  0.0000000E+00;  1.0000000E+04;  0.0000000E+00;  1.0000000E+04;0.0;0.0;0.0;0.0
  2.2600000E+00;  9.9999998E-03;  2.3999999E-01;1020;0.0;0.0;0.0;1000.0;  4.0000001E-01;0.0;0;0.0;0.0;0.0;0;0.0;  1.0000000E+04;  0.0000000E+00;  0.0000000E+00;  1.0000000E+04;  0.0000000E+00;  1.0000000E+04;0.0;0.0;0.0;0.0
  2.2600000E+00;  9.9999998E-03;  2.5999999E-01;1021;0.0;0.0;0.0;1000.0;  4.0000001E-01;0.0;0;0.0;0.0;0.0;0;0.0;  1.0000000E+04;  0.0000000E+00;  0.0000000E+00;  1.0000000E+04;  0.0000000E+00;  1.0000000E+04;0.0;0.0;0.0;0.0
  2.2600000E+00;  9.9999998E-03;  2.8000000E-01;1022;0.0;0.0;0.0;1000.0;  4.0000001E-01;0.0;0;0.0;0.0;0.0;0;0.0;  1.0000000E+04;  0.0000000E+00;  0.0000000E+00;  1.0000000E+04;  0.0000000E+00;  1.0000000E+04;0.0;0.0;0.0;0.0
  2.2600000E+00;  9.9999998E-03;  3.0000001E-01;1023;0.0;0.0;0.0;1000.0;  4.0000001E-01;0.0;0;0.0;0.0;0.0;0;0.0;  1.0000000E+04;  0.0000000E+00;  0.0000000E+00;  1.0000000E+04;  0.0000000E+00;  1.0000000E+04;0.0;0.0;0.0;0.0
  2.2600000E+00;  9.9999998E-03;  3.1999999E-01;1024;0.0;0.0;0.0;1000.0;  4.0000001E-01;0.0;0;0.0;0.0;0.0;0;0.0;  1.0000000E+04;  0.0000000E+00;  0.0000000E+00;  1.0000000E+04;  0.0000000E+00;  1.0000000E+04;0.0;0.0;0.0;0.0
  2.2600000E+00;  9.9999998E-03;  3.4000000E-01;1025;0.0;0.0;0.0;1000.0;  4.0000001E-01;0.0;0;0.0;0.0;0.0;0;0.0;  1.0000000E+04;  0.0000000E+00;  0.0000000E+00;  1.0000000E+04;  0.0000000E+00;  1.0000000E+04;0.0;0.0;0.0;0.0
  2.2600000E+00;  9.9999998E-03;  3.6000001E-01;1026;0.0;0.0;0.0;1000.0;  4.0000001E-01;0.0;0;0.0;0.0;0.0;0;0.0;  1.0000000E+04;  0.0000000E+00;  0.0000000E+00;  1.0000000E+04;  0.0000000E+00;  1.0000000E+04;0.0;0.0;0.0;0.0
  2.2600000E+00;  9.9999998E-03;  3.8000000E-01;1027;0.0;0.0;0.0;1000.0;  4.0000001E-01;0.0;0;0.0;0.0;0.0;0;0.0;  1.0000000E+04;  0.0000000E+00;  0.0000000E+00;  1.0000000E+04;  0.0000000E+00;  1.0000000E+04;0.0;0.0;0.0;0.0
  2.2800000E+00;  9.9999998E-03;  3.1999999E-01;1028;0.0;0.0;0.0;1000.0;  4.0000001E-01;0.0;0;0.0;0.0;0.0;0;0.0;  1.0000000E+04;  0.0000000E+00;  0.0000000E+00;  1.0000000E+04;  0.0000000E+00;  1.0000000E+04;0.0;0.0;0.0;0.0
  2.2800000E+00;  9.9999998E-03;  3.4000000E-01;1029;0.0;0.0;0.0;1000.0;  4.0000001E-01;0.0;0;0.0;0.0;0.0;0;0.0;  1.0000000E+04;  0.0000000E+00;  0.0000000E+00;  1.0000000E+04;  0.0000000E+00;  1.0000000E+04;0.0;0.0;0.0;0.0
  2.2800000E+00;  9.9999998E-03;  3.6000001E-01;1030;0.0;0.0;0.0;1000.0;  4.0000001E-01;0.0;0;0.0;0.0;0.0;0;0.0;  1.0000000E+04;  0.0000000E+00;  0.0000000E+00;  1.0000000E+04;  0.0000000E+00;  1.0000000E+04;0.0;0.0;0.0;0.0
 -6.8447768E-08;  9.9999998E-03; -2.8000003E-01;1031;-0.00010544946;0.0;-4.0224615e-05;1000.0017;  4.0000001E-01;1.3826767;3;-0.13872439;0.0;-0.053020515;0;-0.0021630162;  1.0000030E+04;  0.0000000E+00; -4.2904810E-10;  1.0000000E+04;  0.0000000E+00;  1.0000002E+04;-0.0019958215;0.0;-0.00016719487;0.95682013
 -8.2753900E-08;  9.9999998E-03; -2.6000002E-01;1032;-0.00012759218;0.0;-3.8823047e-05;1000.002;  4.0000001E-01;1.580202;3;-0.16457695;0.0;-0.050128914;0;-0.0025744538;  1.0000040E+04;  0.0000000E+00; -2.2377140E-11;  1.0000000E+04;  0.0000000E+00;  1.0000000E+04;-0.0024994106;0.0;-7.5043223e-05;0.36063769
 -9.4828309E-08;  9.9999998E-03; -2.4000002E-01;1033;-0.00014627566;0.0;-3.5332869e-05;1000.0023;  4.0000001E-01;1.8764899;3;-0.18614823;0.0;-0.044803351;0;-0.0029126017;  1.0000046E+04;  0.0000000E+00;  8.0342163E-11;  1.0000000E+04;  0.0000000E+00;  1.0000000E+04;-0.002929559;0.0;1.6957209e-05;0.23040327
 -1.0435986E-07;  9.9999998E-03; -2.2000001E-01;1034;-0.00016088616;0.0;-3.0984495e-05;1000.0025;  4.0000001E-01;2.0740151;3;-0.20304033;0.0;-0.038700275;0;-0.0031805197;  1.0000053E+04;  0.0000000E+00;  8.3878592E-11;  1.0000000E+04;  0.0000000E+00;  1.0000000E+04;-0.0032676281;0.0;8.7108492e-05;0.68237895
 -1.1170929E-07;  9.9999998E-03; -2.0000002E-01;1035;-0.00017196663;0.0;-2.6128859e-05;1000.0026;  4.0000001E-01;2.1727777;3;-0.21597379;0.0;-0.032122876;0;-0.0033889858;  1.0000055E+04;  0.0000000E+00; -1.2748326E-10;  1.0000000E+04;  0.0000000E+00;  9.9999990E+03;-0.0035168412;0.0;0.00012785544;0.95001251
  1.9999927E-02;  9.9999998E-03; -3.0000004E-01;1060;-0.00010942925;0.0;-5.5019624e-05;1000.0018;  4.0000001E-01;1.4814394;3;-0.14198288;0.0;-0.071615294;0;-0.0022140129;  1.0000028E+04;  0.0000000E+00; -9.0360425E-10;  1.0000000E+04;  0.0000000E+00;  1.0000005E+04;-0.0018966307;0.0;-0.00031738213;1.9533163
  1.9999901E-02;  9.9999998E-03; -2.8000003E-01;1061;-0.00015082372;0.0;-5.2416581e-05;1000.0023;  4.0000001E-01;1.8764899;3;-0.19018841;0.0;-0.065636456;0;-0.0027897728;  1.0000041E+04;  0.0000000E+00; -1.7428507E-10;  1.0000000E+04;  0.0000000E+00;  1.0000003E+04;-0.0025630156;0.0;-0.00022675718;1.3400506
  1.9999878E-02;  9.9999998E-03; -2.6000002E-01;1062;-0.00018602349;0.0;-5.1692405e-05;1000.0026;  4.0000001E-01;2.1727777;3;-0.22888449;0.0;-0.063048832;0;-0.0032861966;  1.0000051E+04;  0.0000000E+00;  2.6784705E-10;  1.0000000E+04;  0.0000000E+00;  1.0000001E+04;-0.0031896608;0.0;-9.6535827e-05;0.48250729
  1.9999860E-02;  9.9999998E-03; -2.4000002E-01;1063;-0.00021434868;0.0;-4.8083206e-05;1000.0029;  4.0000001E-01;2.3703029;3;-0.2592369;0.0;-0.05740048;0;-0.0036883738;  1.0000059E+04;  0.0000000E+00;  3.6195680E-10;  1.0000000E+04;  0.0000000E+00;  1.0000000E+04;-0.0037189736;0.0;3.0599746e-05;0.35067952
  1.9999845E-02;  9.9999998E-03; -2.2000003E-01;1064;-0.0002358811;0.0;-4.2777367e-05;1000.0032;  4.0000001E-01;2.6665909;3;-0.28229317;0.0;-0.050157618;0;-0.0040024268;  1.0000065E+04;  0.0000000E+00;  4.6308048E-11;  1.0000000E+04;  0.0000000E+00;  9.9999990E+03;-0.0041287364;0.0;0.00012630963;0.98006684
  1.9999836E-02;  9.9999998E-03; -2.0000002E-01;1065;-0.00025172369;0.0;-3.6349011e-05;1000.0033;  4.0000001E-01;2.7653534;3;-0.29944229;0.0;-0.041901253;0;-0.0042436831;  1.0000070E+04;  0.0000000E+00;  2.6456551E-10;  1.0000000E+04;  0.0000000E+00;  9.9999980E+03;-0.004424856;0.0;0.00018117316;1.3477715
  3.9999895E-02;  9.9999998E-03; -3.0000004E-01;1091;-0.00015702182;0.0;-6.5924542e-05;1000.0023;  4.0000001E-01;1.8764899;3;-0.19771361;0.0;-0.081878081;0;-0.0027837451;  1.0000039E+04;  0.0000000E+00; -8.1879542E-10;  1.0000000E+04;  0.0000000E+00;  1.0000007E+04;-0.0023694814;0.0;-0.00041426366;2.6322188
  3.9999858E-02;  9.9999998E-03; -2.8000003E-01;1092;-0.00021573275;0.0;-6.4826541e-05;1000.0028;  4.0000001E-01;2.3703029;3;-0.26232681;0.0;-0.076847509;0;-0.0034776775;  1.0000052E+04;  0.0000000E+00; -6.7665390E-10;  1.0000000E+04;  0.0000000E+00;  1.0000005E+04;-0.0031902599;0.0;-0.0002874175;1.7594222
  3.9999824E-02;  9.9999998E-03; -2.6000005E-01;1093;-0.00026566981;0.0;-6.3362357e-05;1000.0033;  4.0000001E-01;2.7653534;3;-0.31371397;0.0;-0.072648615;0;-0.0040681241;  1.0000064E+04;  0.0000000E+00;  4.1389669E-10;  1.0000000E+04;  0.0000000E+00;  1.0000001E+04;-0.0039526233;0.0;-0.00011550081;0.59794253
  3.9999798E-02;  9.9999998E-03; -2.4000004E-01;1094;-0.0003060094;0.0;-5.8850874e-05;1000.0037;  4.0000001E-01;3.0616415;3;-0.35411039;0.0;-0.065705337;0;-0.0045365687;  1.0000074E+04;  0.0000000E+00;  3.8866454E-10;  1.0000000E+04;  0.0000000E+00;  1.0000000E+04;-0.0045854468;0.0;4.887805e-05;0.50970918
  3.9999776E-02;  9.9999998E-03; -2.2000004E-01;1095;-0.00033618833;0.0;-5.2650979e-05;1000.004;  4.0000001E-01;3.2591665;3;-0.38428721;0.0;-0.057628106;0;-0.0048938892;  1.0000083E+04;  0.0000000E+00;  3.6945547E-10;  1.0000000E+04;  0.0000000E+00;  9.9999980E+03;-0.0050646625;0.0;0.00017077343;1.3347653
  3.9999761E-02;  9.9999998E-03; -2.0000003E-01;1096;-0.00035793256;0.0;-4.4895616e-05;1000.0042;  4.0000001E-01;3.4566917;3;-0.40635473;0.0;-0.048222709;0;-0.005162132;  1.0000088E+04;  0.0000000E+00;  2.2277002E-10;  1.0000000E+04;  0.0000000E+00;  9.9999971E+03;-0.0054014171;0.0;0.00023928509;1.8079524
  5.9999853E-02;  9.9999998E-03; -3.0000004E-01;1122;-0.00021851998;0.0;-7.8181009e-05;1000.0028;  4.0000001E-01;2.3703029;3;-0.26829657;0.0;-0.092677325;0;-0.0034567227;  1.0000049E+04;  0.0000000E+00; -3.8208285E-07;  1.0000000E+04;  0.0000000E+00;  1.0000008E+04;-0.002942326;0.0;-0.00051439676;3.3887513
  5.9999797E-02;  9.9999998E-03; -2.8000006E-01;1123;-0.00029923045;0.0;-7.674787e-05;1000.0037;  4.0000001E-01;3.0616415;3;-0.35304818;0.0;-0.086041093;0;-0.0042956308;  1.0000065E+04;  0.0000000E+00; -1.0178474E-07;  1.0000000E+04;  0.0000000E+00;  1.0000005E+04;-0.0039469479;0.0;-0.00034868292;2.2175224
  5.9999753E-02;  9.9999998E-03; -2.6000005E-01;1124;-0.00036664703;0.0;-7.5020274e-05;1000.0042;  4.0000001E-01;3.4566917;3;-0.41855925;0.0;-0.080802172;0;-0.0049992288;  1.0000080E+04;  0.0000000E+00; -9.9508202E-10;  1.0000000E+04;  0.0000000E+00;  1.0000002E+04;-0.004867835;0.0;-0.00013139396;0.70136845
  5.9999716E-02;  9.9999998E-03; -2.4000005E-01;1125;-0.00042066432;0.0;-6.9444955e-05;1000.0047;  4.0000001E-01;3.8517423;3;-0.46946225;0.0;-0.072579406;0;-0.0055448608;  1.0000094E+04;  0.0000000E+00;  1.9907555E-11;  1.0000000E+04;  0.0000000E+00;  1.0000000E+04;-0.00561724;0.0;7.2379349e-05;0.72028458
  5.9999689E-02;  9.9999998E-03; -2.2000004E-01;1126;-0.00046056358;0.0;-6.2021638e-05;1000.0049;  4.0000001E-01;4.0492678;3;-0.50714099;0.0;-0.063347794;0;-0.0059490753;  1.0000104E+04;  0.0000000E+00;  1.1193397E-10;  1.0000000E+04;  0.0000000E+00;  9.9999971E+03;-0.0061697913;0.0;0.00022071609;1.7618977
  5.9999671E-02;  9.9999998E-03; -2.0000003E-01;1127;-0.00048873149;0.0;-5.2842366e-05;1000.0052;  4.0000001E-01;4.3455553;3;-0.53422678;0.0;-0.052834578;0;-0.0062429332;  1.0000110E+04;  0.0000000E+00; -2.7413277E-10;  1.0000000E+04;  0.0000000E+00;  9.9999951E+03;-0.0065447772;0.0;0.00030184386;2.3451176
  7.9999797E-02;  9.9999998E-03; -3.0000007E-01;1153;-0.00029629836;0.0;-9.3256422e-05;1000.0037;  4.0000001E-01;3.0616415;3;-0.35619178;0.0;-0.10576764;0;-0.0043188347;  1.0000063E+04;  0.0000000E+00; -4.3155065E-05;  1.0000000E+04;  0.0000000E+00;  1.0000011E+04;-0.0036981842;0.0;-0.00062065077;4.2578354
  7.9999723E-02;  9.9999998E-03; -2.8000006E-01;1154;-0.00040388171;0.0;-8.9783061e-05;1000.0046;  4.0000001E-01;3.7529798;3;-0.46493262;0.0;-0.095207691;0;-0.0053344276;  1.0000084E+04;  0.0000000E+00; -2.4416599E-05;  1.0000000E+04;  0.0000000E+00;  1.0000007E+04;-0.0049226992;0.0;-0.00041172822;2.7282951
  7.9999663E-02;  9.9999998E-03; -2.6000005E-01;1155;-0.00049203518;0.0;-8.7113913e-05;1000.0052;  4.0000001E-01;4.3455553;3;-0.54658782;0.0;-0.088206977;0;-0.0061718831;  1.0000103E+04;  0.0000000E+00; -8.5967604E-06;  1.0000000E+04;  0.0000000E+00;  1.0000002E+04;-0.0060277721;0.0;-0.00014411096;0.78834629
  7.9999618E-02;  9.9999998E-03; -2.4000005E-01;1156;-0.00056148286;0.0;-8.0175312e-05;1000.0059;  4.0000001E-01;4.8393683;3;-0.60871208;0.0;-0.078466073;0;-0.0068079252;  1.0000118E+04;  0.0000000E+00; -9.4994266E-07;  1.0000000E+04;  0.0000000E+00;  9.9999990E+03;-0.0069101676;0.0;0.00010224234;1.0018624
  7.9999581E-02;  9.9999998E-03; -2.2000006E-01;1157;-0.00061184156;0.0;-7.1347895e-05;1000.0063;  4.0000001E-01;5.2344189;3;-0.65396088;0.0;-0.067990087;0;-0.0072660055;  1.0000128E+04;  0.0000000E+00; -1.4693690E-09;  1.0000000E+04;  0.0000000E+00;  9.9999951E+03;-0.0075439694;0.0;0.00027796396;2.2899835
  7.9999559E-02;  9.9999998E-03; -2.0000005E-01;1158;-0.00064659503;0.0;-6.0583712e-05;1000.0065;  4.0000001E-01;5.3331819;3;-0.68584561;0.0;-0.056324814;0;-0.0075862156;  1.0000136E+04;  0.0000000E+00; -7.0649492E-10;  1.0000000E+04;  0.0000000E+00;  9.9999951E+03;-0.0079572499;0.0;0.00037103449;2.9920354
  9.9999726E-02;  9.9999998E-03; -3.0000007E-01;1184;-0.00039546806;0.0;-0.00011209869;1000.0048;  4.0000001E-01;3.950505;3;-0.46666029;0.0;-0.12205553;0;-0.0055361036;  1.0000083E+04;  0.0000000E+00; -4.1024238E-04;  1.0000000E+04;  0.0000000E+00;  1.0000013E+04;-0.0047967331;0.0;-0.00073937036;5.6098299
  9.9999629E-02;  9.9999998E-03; -2.8000009E-01;1185;-0.00053554808;0.0;-0.00010477805;1000.0059;  4.0000001E-01;4.9381313;3;-0.60373306;0.0;-0.10527268;0;-0.0067467205;  1.0000108E+04;  0.0000000E+00; -2.6266824E-04;  1.0000000E+04;  0.0000000E+00;  1.0000009E+04;-0.0062677548;0.0;-0.00047896587;3.5182722
  9.9999547E-02;  9.9999998E-03; -2.6000008E-01;1186;-0.00064784882;0.0;-0.00010015495;1000.0068;  4.0000001E-01;5.6294694;3;-0.70341408;0.0;-0.095300555;0;-0.0077141612;  1.0000133E+04;  0.0000000E+00; -1.2323352E-04;  1.0000000E+04;  0.0000000E+00;  1.0000003E+04;-0.0075618112;0.0;-0.00015234979;1.0143862
  9.9999487E-02;  9.9999998E-03; -2.4000007E-01;1187;-0.00073454011;0.0;-9.1360904e-05;1000.0073;  4.0000001E-01;6.0245199;3;-0.77738637;0.0;-0.083577305;0;-0.0084312726;  1.0000151E+04;  0.0000000E+00; -3.4828594E-05;  1.0000000E+04;  0.0000000E+00;  9.9999980E+03;-0.0085732359;0.0;0.0001419632;1.4064043
  9.9999443E-02;  9.9999998E-03; -2.2000006E-01;1188;-0.00079596339;0.0;-8.1031154e-05;1000.0078;  4.0000001E-01;6.518333;3;-0.8300246;0.0;-0.071880303;0;-0.0089379027;  1.0000161E+04;  0.0000000E+00; -4.0236696E-06;  1.0000000E+04;  0.0000000E+00;  9.9999951E+03;-0.0092849098;0.0;0.00034700663;2.9712927
  9.9999413E-02;  9.9999998E-03; -2.0000005E-01;1189;-0.00083726685;0.0;-6.8612906e-05;1000.0082;  4.0000001E-01;6.814621;3;-0.86618429;0.0;-0.059160948;0;-0.009282317;  1.0000172E+04;  0.0000000E+00; -1.5405383E-09;  1.0000000E+04;  0.0000000E+00;  9.9999932E+03;-0.0097342767;0.0;0.00045195949;3.8049769
  1.1999962E-01;  9.9999998E-03; -3.0000010E-01;1215;-0.00052349747;0.0;-0.00013693504;1000.0066;  4.0000001E-01;5.4319444;3;-0.60701877;0.0;-0.14389187;0;-0.0073888679;  1.0000114E+04;  0.0000000E+00; -1.8623276E-03;  1.0000000E+04;  0.0000000E+00;  1.0000017E+04;-0.006510024;0.0;-0.000878844;10.871036
  1.1999950E-01;  9.9999998E-03; -2.8000009E-01;1216;-0.00070269557;0.0;-0.00012325063;1000.0078;  4.0000001E-01;6.518333;3;-0.77709597;0.0;-0.11742848;0;-0.0087794662;  1.0000147E+04;  0.0000000E+00; -1.2896300E-03;  1.0000000E+04;  0.0000000E+00;  1.0000010E+04;-0.0082280561;0.0;-0.00055140979;7.2039051
  1.1999940E-01;  9.9999998E-03; -2.6000008E-01;1217;-0.0008427978;0.0;-0.0001152953;1000.0089;  4.0000001E-01;7.407197;3;-0.89620161;0.0;-0.10304669;0;-0.0098116416;  1.0000173E+04;  0.0000000E+00; -6.5954449E-04;  1.0000000E+04;  0.0000000E+00;  1.0000003E+04;-0.0096623171;0.0;-0.00014932427;3.1922524
  1.1999933E-01;  9.9999998E-03; -2.4000008E-01;1218;-0.00094862224;0.0;-0.0001038872;1000.0094;  4.0000001E-01;7.8022475;3;-0.98229408;0.0;-0.088557109;0;-0.010546767;  1.0000191E+04;  0.0000000E+00; -2.3509878E-04;  1.0000000E+04;  0.0000000E+00;  9.9999971E+03;-0.010749674;0.0;0.00020290766;2.3016753
  1.1999927E-01;  9.9999998E-03; -2.2000007E-01;1219;-0.0010216106;0.0;-9.1957932e-05;1000.0099;  4.0000001E-01;8.197298;3;-1.0416521;0.0;-0.075773805;0;-0.011059913;  1.0000206E+04;  0.0000000E+00; -4.8807276E-05;  1.0000000E+04;  0.0000000E+00;  9.9999932E+03;-0.011499926;0.0;0.00044001278;3.9296823
  1.1999924E-01;  9.9999998E-03; -2.0000006E-01;1220;-0.0010693163;0.0;-7.7753204e-05;1000.0104;  4.0000001E-01;8.6911106;3;-1.0812643;0.0;-0.062011264;0;-0.011408297;  1.0000215E+04;  0.0000000E+00; -3.6233826E-06;  1.0000000E+04;  0.0000000E+00;  9.9999902E+03;-0.011963888;0.0;0.00055559084;4.8889618
  1.3999949E-01;  9.9999998E-03; -3.0000013E-01;1246;-0.00069111184;0.0;-0.0001703556;1000.0093;  4.0000001E-01;7.7034845;3;-0.78747678;0.0;-0.17349333;0;-0.010292463;  1.0000167E+04;  0.0000000E+00; -5.8917031E-03;  1.0000000E+04;  0.0000000E+00;  1.0000021E+04;-0.0092445165;0.0;-0.001047947;28.809
  1.3999933E-01;  9.9999998E-03; -2.8000012E-01;1247;-0.00091628288;0.0;-0.00014767016;1000.0107;  4.0000001E-01;8.8886366;3;-0.99409103;0.0;-0.13404357;0;-0.011765772;  1.0000202E+04;  0.0000000E+00; -4.1901222E-03;  1.0000000E+04;  0.0000000E+00;  1.0000012E+04;-0.011140408;0.0;-0.00062536367;20.239803
  1.3999921E-01;  9.9999998E-03; -2.6000011E-01;1248;-0.0010881304;0.0;-0.00013441716;1000.0115;  4.0000001E-01;9.5799742;3;-1.1333432;0.0;-0.11323708;0;-0.012694005;  1.0000229E+04;  0.0000000E+00; -2.2220120E-03;  1.0000000E+04;  0.0000000E+00;  1.0000002E+04;-0.012577057;0.0;-0.0001169481;10.49769
  1.3999912E-01;  9.9999998E-03; -2.4000010E-01;1249;-0.0012146024;0.0;-0.00011988332;1000.0122;  4.0000001E-01;10.073788;3;-1.2308083;0.0;-0.09523578;0;-0.013301731;  1.0000249E+04;  0.0000000E+00; -8.6164952E-04;  1.0000000E+04;  0.0000000E+00;  9.9999951E+03;-0.013613154;0.0;0.0003114228;5.1310124
  1.3999905E-01;  9.9999998E-03; -2.2000009E-01;1250;-0.0012997548;0.0;-0.00010584803;1000.0126;  4.0000001E-01;10.468838;3;-1.2959155;0.0;-0.081175923;0;-0.013728458;  1.0000263E+04;  0.0000000E+00; -2.2144360E-04;  1.0000000E+04;  0.0000000E+00;  9.9999902E+03;-0.014312769;0.0;0.0005843112;5.4925284
  1.3999902E-01;  9.9999998E-03; -2.0000008E-01;1251;-0.0013534282;0.0;-8.9636567e-05;1000.0129;  4.0000001E-01;10.765126;3;-1.3375922;0.0;-0.066347815;0;-0.014033328;  1.0000272E+04;  0.0000000E+00; -2.9536068E-05;  1.0000000E+04;  0.0000000E+00;  9.9999873E+03;-0.014738477;0.0;0.0007051492;6.4513483
  1.5999933E-01;  9.9999998E-03; -3.0000019E-01;1277;-0.00091364101;0.0;-0.00021257719;1000.0135;  4.0000001E-01;11.258939;3;-1.0226569;0.0;-0.20963836;0;-0.014741222;  1.0000249E+04;  0.0000000E+00; -1.4694377E-02;  1.0000000E+04;  0.0000000E+00;  1.0000024E+04;-0.01348577;0.0;-0.0012554529;70.067169
  1.5999912E-01;  9.9999998E-03; -2.8000015E-01;1278;-0.0011896624;0.0;-0.00018018283;1000.015;  4.0000001E-01;12.345328;3;-1.2653767;0.0;-0.15658557;0;-0.016040588;  1.0000284E+04;  0.0000000E+00; -1.0374726E-02;  1.0000000E+04;  0.0000000E+00;  1.0000014E+04;-0.015354313;0.0;-0.00068627473;49.348225
  1.5999897E-01;  9.9999998E-03; -2.6000014E-01;1279;-0.0013964486;0.0;-0.00016031321;1000.0154;  4.0000001E-01;12.740378;3;-1.4236863;0.0;-0.12779891;0;-0.016561089;  1.0000310E+04;  0.0000000E+00; -5.5190744E-03;  1.0000000E+04;  0.0000000E+00;  1.0000000E+04;-0.016543448;0.0;-1.7641287e-05;26.200571
  1.5999885E-01;  9.9999998E-03; -2.4000013E-01;1280;-0.0015446942;0.0;-0.00014304725;1000.0158;  4.0000001E-01;13.135429;3;-1.5304786;0.0;-0.10712416;0;-0.016814722;  1.0000325E+04;  0.0000000E+00; -2.2013211E-03;  1.0000000E+04;  0.0000000E+00;  9.9999902E+03;-0.017331753;0.0;0.00051703159;11.669877
  1.5999877E-01;  9.9999998E-03; -2.2000012E-01;1281;-0.0016425307;0.0;-0.0001261039;1000.0161;  4.0000001E-01;13.332954;3;-1.6000499;0.0;-0.091026977;0;-0.017023368;  1.0000338E+04;  0.0000000E+00; -6.2020816E-04;  1.0000000E+04;  0.0000000E+00;  9.9999834E+03;-0.017852232;0.0;0.0008288644;8.3536949
  1.5999873E-01;  9.9999998E-03; -2.0000009E-01;1282;-0.0017017398;0.0;-0.00010671388;1000.0164;  4.0000001E-01;13.629242;3;-1.6421703;0.0;-0.074665174;0;-0.017220322;  1.0000345E+04;  0.0000000E+00; -1.0484389E-04;  1.0000000E+04;  0.0000000E+00;  9.9999824E+03;-0.018161975;0.0;0.00094165187;8.8588371
  1.7999908E-01;  9.9999998E-03; -3.0000022E-01;1308;-0.0012128399;0.0;-0.00025790426;1000.0198;  4.0000001E-01;16.394596;3;-1.334281;0.0;-0.24239767;0;-0.021035919;  1.0000363E+04;  0.0000000E+00; -2.9746890E-02;  1.0000000E+04;  0.0000000E+00;  1.0000030E+04;-0.019513128;0.0;-0.0015227913;141.76547
  1.7999883E-01;  9.9999998E-03; -2.8000021E-01;1309;-0.0015397157;0.0;-0.00022051123;1000.0204;  4.0000001E-01;16.987171;3;-1.6036892;0.0;-0.18400204;0;-0.021717945;  1.0000396E+04;  0.0000000E+00; -2.0527653E-02;  1.0000000E+04;  0.0000000E+00;  1.0000014E+04;-0.021016216;0.0;-0.00070172868;97.829796
  1.7999865E-01;  9.9999998E-03; -2.6000017E-01;1310;-0.0017820421;0.0;-0.00019679351;1000.0204;  4.0000001E-01;16.888409;3;-1.7766334;0.0;-0.1502201;0;-0.021442872;  1.0000412E+04;  0.0000000E+00; -1.0742585E-02;  1.0000000E+04;  0.0000000E+00;  9.9999971E+03;-0.021662347;0.0;0.00021947507;51.361217
  1.7999852E-01;  9.9999998E-03; -2.4000016E-01;1311;-0.0019534749;0.0;-0.00017655973;1000.0203;  4.0000001E-01;16.789646;3;-1.8903708;0.0;-0.12711528;0;-0.021108272;  1.0000423E+04;  0.0000000E+00; -4.2846631E-03;  1.0000000E+04;  0.0000000E+00;  9.9999824E+03;-0.022009283;0.0;0.00090101152;22.330973
  1.7999843E-01;  9.9999998E-03; -2.2000015E-01;1312;-0.0020643293;0.0;-0.00015525128;1000.0203;  4.0000001E-01;16.789646;3;-1.9625121;0.0;-0.10788423;0;-0.020983901;  1.0000431E+04;  0.0000000E+00; -1.2494385E-03;  1.0000000E+04;  0.0000000E+00;  9.9999766E+03;-0.022231227;0.0;0.0012473257;13.278334
  1.7999837E-01;  9.9999998E-03; -2.0000012E-01;1313;-0.0021277142;0.0;-0.0001319779;1000.0204;  4.0000001E-01;16.888409;3;-2.002568;0.0;-0.089839786;0;-0.021023711;  1.0000434E+04;  0.0000000E+00; -2.3430672E-04;  1.0000000E+04;  0.0000000E+00;  9.9999746E+03;-0.022348737;0.0;0.0013250255;12.65111
  1.9999875E-01;  9.9999998E-03; -3.0000028E-01;1339;-0.0016144825;0.0;-0.00030636284;1000.0275;  4.0000001E-01;22.715403;3;-1.7457443;0.0;-0.27125382;0;-0.028763201;  1.0000509E+04;  0.0000000E+00; -4.8201170E-02;  1.0000000E+04;  0.0000000E+00;  1.0000040E+04;-0.026878884;0.0;-0.0018843175;230.85979
  1.9999845E-01;  9.9999998E-03; -2.8000024E-01;1340;-0.0019891588;0.0;-0.00026846418;1000.0273;  4.0000001E-01;22.61664;3;-2.0284309;0.0;-0.21381831;0;-0.028427152;  1.0000536E+04;  0.0000000E+00; -3.2592602E-02;  1.0000000E+04;  0.0000000E+00;  1.0000013E+04;-0.027808761;0.0;-0.00061839126;156.17076
  1.9999824E-01;  9.9999998E-03; -2.6000023E-01;1341;-0.0022646785;0.0;-0.00024433268;1000.0264;  4.0000001E-01;21.82654;3;-2.2060151;0.0;-0.17969453;0;-0.027093921;  1.0000543E+04;  0.0000000E+00; -1.6686289E-02;  1.0000000E+04;  0.0000000E+00;  9.9999863E+03;-0.027796535;0.0;0.00070261484;80.505783
  1.9999808E-01;  9.9999998E-03; -2.4000020E-01;1342;-0.0024593242;0.0;-0.00022183523;1000.0255;  4.0000001E-01;21.135202;3;-2.3220208;0.0;-0.15586385;0;-0.026070293;  1.0000544E+04;  0.0000000E+00; -6.5595033E-03;  1.0000000E+04;  0.0000000E+00;  9.9999688E+03;-0.027646769;0.0;0.0015764765;35.07056
  1.9999798E-01;  9.9999998E-03; -2.2000019E-01;1343;-0.0025811002;0.0;-0.00019813307;1000.0252;  4.0000001E-01;20.838913;3;-2.3920093;0.0;-0.13626167;0;-0.025594028;  1.0000547E+04;  0.0000000E+00; -1.9186317E-03;  1.0000000E+04;  0.0000000E+00;  9.9999600E+03;-0.027529206;0.0;0.0019351786;20.574823
  1.9999792E-01;  9.9999998E-03; -2.0000017E-01;1344;-0.0026471056;0.0;-0.0001684117;1000.0255;  4.0000001E-01;21.135202;3;-2.4271817;0.0;-0.11470375;0;-0.025483271;  1.0000546E+04;  0.0000000E+00; -3.7254975E-04;  1.0000000E+04;  0.0000000E+00;  9.9999609E+03;-0.02741221;0.0;0.0019289383;18.473944
  2.1999833E-01;  9.9999998E-03; -3.0000046E-01;1370;-0.0021083551;0.0;-0.00047757311;1000.035;  4.0000001E-01;29.036211;3;-2.2385812;0.0;-0.41572094;0;-0.035832539;  1.0000664E+04;  0.0000000E+00; -6.2627837E-02;  1.0000000E+04;  0.0000000E+00;  1.0000032E+04;-0.034284271;0.0;-0.0015482686;301.64981
  2.1999797E-01;  9.9999998E-03; -2.8000036E-01;1371;-0.0025557771;0.0;-0.0003764201;1000.0347;  4.0000001E-01;28.739923;3;-2.5509191;0.0;-0.29215002;0;-0.035181552;  1.0000688E+04;  0.0000000E+00; -4.1452147E-02;  1.0000000E+04;  0.0000000E+00;  1.0000001E+04;-0.035072573;0.0;-0.00010897953;199.968
  2.1999772E-01;  9.9999998E-03; -2.6000032E-01;1372;-0.0028662686;0.0;-0.00032713352;1000.033;  4.0000001E-01;27.258484;3;-2.7256427;0.0;-0.23634869;0;-0.033053279;  1.0000689E+04;  0.0000000E+00; -2.0750990E-02;  1.0000000E+04;  0.0000000E+00;  9.9999678E+03;-0.03468496;0.0;0.0016316827;101.6965
  2.1999754E-01;  9.9999998E-03; -2.4000028E-01;1373;-0.0030831841;0.0;-0.00029045413;1000.0318;  4.0000001E-01;26.369621;3;-2.8375218;0.0;-0.20218617;0;-0.031522978;  1.0000690E+04;  0.0000000E+00; -7.9681901E-03;  1.0000000E+04;  0.0000000E+00;  9.9999463E+03;-0.034204733;0.0;0.0026817559;46.382233
  2.1999742E-01;  9.9999998E-03; -2.2000025E-01;1374;-0.0032128119;0.0;-0.00025878981;1000.0313;  4.0000001E-01;25.974569;3;-2.8988113;0.0;-0.17988673;0;-0.030825144;  1.0000688E+04;  0.0000000E+00; -2.2866915E-03;  1.0000000E+04;  0.0000000E+00;  9.9999385E+03;-0.03381535;0.0;0.0029902067;30.44261
  2.1999736E-01;  9.9999998E-03; -2.0000021E-01;1375;-0.0032780534;0.0;-0.00021983171;1000.0314;  4.0000001E-01;25.974569;3;-2.9248869;0.0;-0.15273076;0;-0.030641148;  1.0000686E+04;  0.0000000E+00; -4.3775528E-04;  1.0000000E+04;  0.0000000E+00;  9.9999443E+03;-0.033467244;0.0;0.002826096;26.987848
  2.3999773E-01;  9.9999998E-03; -3.0000085E-01;1401;-0.0027932518;0.0;-0.00093891297;1000.0401;  4.0000001E-01;33.184242;3;-2.8977549;0.0;-0.86346436;0;-0.039838128;  1.0000832E+04;  0.0000000E+00; -6.5409757E-02;  1.0000000E+04;  0.0000000E+00;  9.9999727E+03;-0.041697107;0.0;0.0018589811;317.19556
  2.3999733E-01;  9.9999998E-03; -2.8000063E-01;1402;-0.0032850916;0.0;-0.00065743423;1000.0413;  4.0000001E-01;34.171867;3;-3.202579;0.0;-0.53855002;0;-0.040720057;  1.0000862E+04;  0.0000000E+00; -4.2358052E-02;  1.0000000E+04;  0.0000000E+00;  9.9999639E+03;-0.04265007;0.0;0.0019300118;206.71761
  2.3999704E-01;  9.9999998E-03; -2.6000047E-01;1403;-0.0036209456;0.0;-0.00050246663;1000.0398;  4.0000001E-01;32.986717;3;-3.3577559;0.0;-0.37604737;0;-0.038902868;  1.0000866E+04;  0.0000000E+00; -2.0646170E-02;  1.0000000E+04;  0.0000000E+00;  9.9999297E+03;-0.042302571;0.0;0.0033997053;105.85289
  2.3999685E-01;  9.9999998E-03; -2.4000040E-01;1404;-0.0038533621;0.0;-0.00040968001;1000.0388;  4.0000001E-01;32.097855;3;-3.4527242;0.0;-0.29286498;0;-0.037387572;  1.0000865E+04;  0.0000000E+00; -7.6609352E-03;  1.0000000E+04;  0.0000000E+00;  9.9999102E+03;-0.041749489;0.0;0.0043619149;55.968082
  2.3999672E-01;  9.9999998E-03; -2.2000033E-01;1405;-0.0039836685;0.0;-0.00035027714;1000.0384;  4.0000001E-01;31.801565;3;-3.4957263;0.0;-0.24948792;0;-0.036717273;  1.0000860E+04;  0.0000000E+00; -2.1085425E-03;  1.0000000E+04;  0.0000000E+00;  9.9999072E+03;-0.041202269;0.0;0.0044849967;43.825508
  2.3999666E-01;  9.9999998E-03; -2.0000027E-01;1406;-0.0040423125;0.0;-0.00029263072;1000.0385;  4.0000001E-01;31.900328;3;-3.5058806;0.0;-0.20974211;0;-0.03657962;  1.0000856E+04;  0.0000000E+00; -3.7832701E-04;  1.0000000E+04;  0.0000000E+00;  9.9999160E+03;-0.04064697;0.0;0.0040673506;38.784798
  2.5999689E-01;  9.9999998E-03; -3.0000132E-01;1432;-0.0037437484;0.0;-0.0014765614;1000.0448;  4.0000001E-01;37.134743;3;-3.7964563;0.0;-1.3499362;0;-0.042729333;  1.0001028E+04;  0.0000000E+00; -5.3794086E-02;  1.0000000E+04;  0.0000000E+00;  9.9998672E+03;-0.050082792;0.0;0.0073534604;269.38815
  2.5999647E-01;  9.9999998E-03; -2.8000098E-01;1433;-0.0042384099;0.0;-0.0010602421;1000.0477;  4.0000001E-01;39.505047;3;-4.0322685;0.0;-0.8871811;0;-0.045389608;  1.0001065E+04;  0.0000000E+00; -3.4406088E-02;  1.0000000E+04;  0.0000000E+00;  9.9998857E+03;-0.051137201;0.0;0.0057475944;176.45665
  2.5999618E-01;  9.9999998E-03; -2.6000074E-01;1434;-0.00457749;0.0;-0.00077092118;1000.0473;  4.0000001E-01;39.208759;3;-4.1361156;0.0;-0.59614891;0;-0.044828326;  1.0001075E+04;  0.0000000E+00; -1.6268162E-02;  1.0000000E+04;  0.0000000E+00;  9.9998701E+03;-0.051003255;0.0;0.006174929;99.260757
  2.5999597E-01;  9.9999998E-03; -2.4000056E-01;1435;-0.004803468;0.0;-0.00059535005;1000.0467;  4.0000001E-01;38.714947;3;-4.1863251;0.0;-0.44076672;0;-0.043840144;  1.0001076E+04;  0.0000000E+00; -5.7457029E-03;  1.0000000E+04;  0.0000000E+00;  9.9998604E+03;-0.050512318;0.0;0.0066721728;69.923141
  2.5999585E-01;  9.9999998E-03; -2.2000046E-01;1436;-0.0049214331;0.0;-0.00048745068;1000.0468;  4.0000001E-01;38.714947;3;-4.1958694;0.0;-0.35887319;0;-0.043434363;  1.0001073E+04;  0.0000000E+00; -1.4686234E-03;  1.0000000E+04;  0.0000000E+00;  9.9998652E+03;-0.049868725;0.0;0.0064343628;61.992035
  2.5999579E-01;  9.9999998E-03; -2.0000036E-01;1437;-0.0049659805;0.0;-0.00039328609;1000.0472;  4.0000001E-01;39.109997;3;-4.1824131;0.0;-0.29184359;0;-0.043444514;  1.0001063E+04;  0.0000000E+00; -2.2948351E-04;  1.0000000E+04;  0.0000000E+00;  9.9998818E+03;-0.049110241;0.0;0.0056657251;54.252529
  2.7999577E-01;  9.9999998E-03; -3.0000186E-01;1463;-0.0049618268;0.0;-0.001980993;1000.0516;  4.0000001E-01;42.764214;3;-4.9213324;0.0;-1.7540436;0;-0.047388595;  1.0001285E+04;  0.0000000E+00; -3.4819648E-02;  1.0000000E+04;  0.0000000E+00;  9.9997480E+03;-0.060268018;0.0;0.012879425;204.19893
  2.7999535E-01;  9.9999998E-03; -2.8000140E-01;1464;-0.0054349569;0.0;-0.0014927107;1000.0554;  4.0000001E-01;45.924618;3;-5.045445;0.0;-1.2305074;0;-0.05091149;  1.0001321E+04;  0.0000000E+00; -2.1913603E-02;  1.0000000E+04;  0.0000000E+00;  9.9997881E+03;-0.061258823;0.0;0.010347333;143.91951
  2.7999505E-01;  9.9999998E-03; -2.6000103E-01;1465;-0.0057589435;0.0;-0.0010986787;1000.0565;  4.0000001E-01;46.81348;3;-5.0647779;0.0;-0.85513908;0;-0.051604204;  1.0001333E+04;  0.0000000E+00; -9.9211391E-03;  1.0000000E+04;  0.0000000E+00;  9.9997949E+03;-0.061261725;0.0;0.0096575189;104.97198
  2.7999485E-01;  9.9999998E-03; -2.4000078E-01;1466;-0.0059621399;0.0;-0.00084028434;1000.0565;  4.0000001E-01;46.81348;3;-5.0484171;0.0;-0.6355741;0;-0.051297497;  1.0001333E+04;  0.0000000E+00; -3.2440023E-03;  1.0000000E+04;  0.0000000E+00;  9.9997959E+03;-0.060795553;0.0;0.0094980551;93.622101
  2.7999476E-01;  9.9999998E-03; -2.2000062E-01;1467;-0.0060559441;0.0;-0.00066499546;1000.0571;  4.0000001E-01;47.307293;3;-5.0121384;0.0;-0.50003028;0;-0.051250406;  1.0001326E+04;  0.0000000E+00; -7.2651962E-04;  1.0000000E+04;  0.0000000E+00;  9.9998115E+03;-0.060028154;0.0;0.0087777479;85.256981
  2.7999470E-01;  9.9999998E-03; -2.0000048E-01;1468;-0.0060783918;0.0;-0.00052166829;1000.0577;  4.0000001E-01;47.801105;3;-4.9667821;0.0;-0.39781904;0;-0.051435437;  1.0001313E+04;  0.0000000E+00; -8.5870801E-05;  1.0000000E+04;  0.0000000E+00;  9.9998379E+03;-0.059034858;0.0;0.0075994199;73.523254
  2.9999438E-01;  9.9999998E-03; -3.0000240E-01;1494;-0.0064192163;0.0;-0.002465352;1000.0623;  4.0000001E-01;51.65284;3;-6.218246;0.0;-2.1014004;0;-0.055198696;  1.0001610E+04;  0.0000000E+00; -1.7386615E-02;  1.0000000E+04;  0.0000000E+00;  9.9996367E+03;-0.072770223;0.0;0.017571528;182.29539
  2.9999396E-01;  9.9999998E-03; -2.8000185E-01;1495;-0.0068752272;0.0;-0.0019249534;1000.0663;  4.0000001E-01;54.912006;3;-6.2156625;0.0;-1.5434819;0;-0.058733303;  1.0001640E+04;  0.0000000E+00; -1.0537185E-02;  1.0000000E+04;  0.0000000E+00;  9.9996855E+03;-0.073492132;0.0;0.01475883;149.86774
  2.9999366E-01;  9.9999998E-03; -2.6000139E-01;1496;-0.0071768505;0.0;-0.0014550309;1000.0679;  4.0000001E-01;56.294682;3;-6.1347108;0.0;-1.1209669;0;-0.060059771;  1.0001652E+04;  0.0000000E+00; -4.4109924E-03;  1.0000000E+04;  0.0000000E+00;  9.9997080E+03;-0.073429957;0.0;0.013370184;133.37119
  2.9999349E-01;  9.9999998E-03; -2.4000105E-01;1497;-0.0073523172;0.0;-0.0011170456;1000.0685;  4.0000001E-01;56.788494;3;-6.0405054;0.0;-0.84638143;0;-0.060236018;  1.0001648E+04;  0.0000000E+00; -1.2633647E-03;  1.0000000E+04;  0.0000000E+00;  9.9997227E+03;-0.072860263;0.0;0.012624244;125.55079
  2.9999340E-01;  9.9999998E-03; -2.2000082E-01;1498;-0.007420144;0.0;-0.0008759512;1000.0693;  4.0000001E-01;57.479836;3;-5.9546871;0.0;-0.66450375;0;-0.060454767;  1.0001637E+04;  0.0000000E+00; -2.1891543E-04;  1.0000000E+04;  0.0000000E+00;  9.9997529E+03;-0.071894847;0.0;0.011440081;113.27464
  2.9999334E-01;  9.9999998E-03; -2.0000063E-01;1499;-0.007412381;0.0;-0.00067586504;1000.0701;  4.0000001E-01;58.072411;3;-5.8708334;0.0;-0.52517754;0;-0.060775474;  1.0001617E+04;  0.0000000E+00; -1.3646591E-05;  1.0000000E+04;  0.0000000E+00;  9.9997891E+03;-0.070614792;0.0;0.0098393196;96.670044
  3.1999272E-01;  9.9999998E-03; -3.0000299E-01;1525;-0.0080959182;0.0;-0.002976448;1000.0771;  4.0000001E-01;63.899403;3;-7.6502261;0.0;-2.4417789;0;-0.066020377;  1.0002018E+04;  0.0000000E+00; -6.0825436E-03;  1.0000000E+04;  0.0000000E+00;  9.9995264E+03;-0.087689057;0.0;0.021668682;212.58772
  3.1999227E-01;  9.9999998E-03; -2.8000236E-01;1526;-0.0085570738;0.0;-0.0023717545;1000.0809;  4.0000001E-01;67.059807;3;-7.5234041;0.0;-1.8402175;0;-0.069189884;  1.0002035E+04;  0.0000000E+00; -3.3691451E-03;  1.0000000E+04;  0.0000000E+00;  9.9995820E+03;-0.087986439;0.0;0.018796554;188.21616
  3.1999198E-01;  9.9999998E-03; -2.6000178E-01;1527;-0.008851395;0.0;-0.0018358112;1000.0825;  4.0000001E-01;68.343719;3;-7.3409829;0.0;-1.3852198;0;-0.070579097;  1.0002039E+04;  0.0000000E+00; -1.2208321E-03;  1.0000000E+04;  0.0000000E+00;  9.9996133E+03;-0.087701276;0.0;0.017122181;174.24593
  3.1999177E-01;  9.9999998E-03; -2.4000135E-01;1528;-0.0090071755;0.0;-0.0014233108;1000.0834;  4.0000001E-01;69.13382;3;-7.170331;0.0;-1.0723228;0;-0.070947856;  1.0002031E+04;  0.0000000E+00; -2.6499206E-04;  1.0000000E+04;  0.0000000E+00;  9.9996377E+03;-0.086925;0.0;0.015977146;163.28516
  3.1999171E-01;  9.9999998E-03; -2.2000104E-01;1529;-0.0090467557;0.0;-0.0011103065;1000.0845;  4.0000001E-01;70.022682;3;-7.0299578;0.0;-0.8459664;0;-0.071303621;  1.0002014E+04;  0.0000000E+00; -2.4209003E-05;  1.0000000E+04;  0.0000000E+00;  9.9996787E+03;-0.085696541;0.0;0.014392922;146.04184
  3.1999168E-01;  9.9999998E-03; -2.0000079E-01;1530;-0.0090044737;0.0;-0.00085261679;1000.0856;  4.0000001E-01;70.911545;3;-6.9050698;0.0;-0.66916078;0;-0.071698226;  1.0001983E+04;  0.0000000E+00;  9.5785966E-09;  1.0000000E+04;  0.0000000E+00;  9.9997295E+03;-0.084073849;0.0;0.012375623;123.92853
  3.3999076E-01;  9.9999998E-03; -3.0000368E-01;1556;-0.010011727;0.0;-0.0035411371;1000.0958;  4.0000001E-01;79.306366;3;-9.2110968;0.0;-2.7933195;0;-0.079310805;  1.0002506E+04;  0.0000000E+00; -1.0471813E-03;  1.0000000E+04;  0.0000000E+00;  9.9994082E+03;-0.10489316;0.0;0.025582362;264.88196
  3.3999023E-01;  9.9999998E-03; -2.8000292E-01;1557;-0.010511821;0.0;-0.0028598572;1000.0992;  4.0000001E-01;82.170479;3;-8.9724112;0.0;-2.143621;0;-0.082042985;  1.0002511E+04;  0.0000000E+00; -4.8908807E-04;  1.0000000E+04;  0.0000000E+00;  9.9994727E+03;-0.10480113;0.0;0.022758147;238.85201
  3.3998990E-01;  9.9999998E-03; -2.6000223E-01;1558;-0.010821805;0.0;-0.0022477489;1000.1008;  4.0000001E-01;83.553154;3;-8.6942329;0.0;-1.6521573;0;-0.08325962;  1.0002508E+04;  0.0000000E+00; -1.2314075E-04;  1.0000000E+04;  0.0000000E+00;  9.9995107E+03;-0.10427753;0.0;0.021017911;222.1626
  3.3998969E-01;  9.9999998E-03; -2.4000169E-01;1559;-0.010968706;0.0;-0.0017606376;1000.1017;  4.0000001E-01;84.244492;3;-8.4467344;0.0;-1.3098154;0;-0.083627596;  1.0002491E+04;  0.0000000E+00; -9.0999001E-06;  1.0000000E+04;  0.0000000E+00;  9.9995459E+03;-0.10326241;0.0;0.019634817;207.04066
  3.3998963E-01;  9.9999998E-03; -2.2000130E-01;1560;-0.010981435;0.0;-0.0013733758;1000.1029;  4.0000001E-01;85.232117;3;-8.2513533;0.0;-1.0453465;0;-0.084037967;  1.0002462E+04;  0.0000000E+00;  2.7388251E-07;  1.0000000E+04;  0.0000000E+00;  9.9995967E+03;-0.10172085;0.0;0.017682886;184.2477
  3.3998966E-01;  9.9999998E-03; -2.0000097E-01;1561;-0.010897337;0.0;-0.0010480164;1000.1041;  4.0000001E-01;86.219742;3;-8.0827017;0.0;-0.83114517;0;-0.084465295;  1.0002421E+04;  0.0000000E+00;  5.8520166E-09;  1.0000000E+04;  0.0000000E+00;  9.9996572E+03;-0.099681906;0.0;0.015216615;155.66481
  3.5998836E-01;  9.9999998E-03; -3.0000454E-01;1587;-0.012228703;0.0;-0.0041898759;1000.1177;  4.0000001E-01;97.577431;3;-10.938863;0.0;-3.1726775;0;-0.094603121;  1.0003086E+04;  0.0000000E+00; -1.0713986E-05;  1.0000000E+04;  0.0000000E+00;  9.9992705E+03;-0.12455677;0.0;0.029953651;329.76794
  3.5998774E-01;  9.9999998E-03; -2.8000361E-01;1588;-0.012802901;0.0;-0.003411524;1000.1212;  4.0000001E-01;100.34278;3;-10.59427;0.0;-2.4628103;0;-0.097142301;  1.0003085E+04;  0.0000000E+00;  3.6098249E-06;  1.0000000E+04;  0.0000000E+00;  9.9993418E+03;-0.1242738;0.0;0.027131496;299.2179
  3.5998732E-01;  9.9999998E-03; -2.6000276E-01;1589;-0.01314654;0.0;-0.0027082502;1000.123;  4.0000001E-01;101.92298;3;-10.214192;0.0;-1.9352194;0;-0.09821637;  1.0003070E+04;  0.0000000E+00;  4.0233540E-06;  1.0000000E+04;  0.0000000E+00;  9.9993896E+03;-0.1235617;0.0;0.025345327;278.31186
  3.5998714E-01;  9.9999998E-03; -2.4000210E-01;1590;-0.013291389;0.0;-0.0021353194;1000.124;  4.0000001E-01;102.71308;3;-9.8847961;0.0;-1.5637937;0;-0.09854272;  1.0003047E+04;  0.0000000E+00;  1.5219499E-06;  1.0000000E+04;  0.0000000E+00;  9.9994336E+03;-0.12227302;0.0;0.023730297;258.25732
  3.5998708E-01;  9.9999998E-03; -2.2000159E-01;1591;-0.013274774;0.0;-0.0016641758;1000.1252;  4.0000001E-01;103.79947;3;-9.6305904;0.0;-1.2614837;0;-0.098961361;  1.0003005E+04;  0.0000000E+00;  3.1886998E-07;  1.0000000E+04;  0.0000000E+00;  9.9995010E+03;-0.1203249;0.0;0.021363541;228.70187
  3.5998714E-01;  9.9999998E-03; -2.0000118E-01;1592;-0.013139713;0.0;-0.0012624272;1000.1265;  4.0000001E-01;104.78709;3;-9.4147825;0.0;-1.0067399;0;-0.099366829;  1.0002949E+04;  0.0000000E+00; -1.6009429E-10;  1.0000000E+04;  0.0000000E+00;  9.9995811E+03;-0.11773916;0.0;0.018372331;192.21887
  3.7998542E-01;  9.9999998E-03; -3.0000558E-01;1618;-0.014838908;0.0;-0.0049460577;1000.1442;  4.0000001E-01;119.40394;3;-12.888766;0.0;-3.5878737;0;-0.11227397;  1.0003788E+04;  0.0000000E+00;  8.6418559E-06;  1.0000000E+04;  0.0000000E+00;  9.9990977E+03;-0.14752044;0.0;0.035246469;411.87344
  3.7998465E-01;  9.9999998E-03; -2.8000441E-01;1619;-0.015507273;0.0;-0.0040509179;1000.1481;  4.0000001E-01;122.76186;3;-12.420307;0.0;-2.8135691;0;-0.11477622;  1.0003780E+04;  0.0000000E+00;  9.3184872E-06;  1.0000000E+04;  0.0000000E+00;  9.9991836E+03;-0.14709751;0.0;0.032321293;373.19125
  3.7998420E-01;  9.9999998E-03; -2.6000336E-01;1620;-0.015893241;0.0;-0.0032328658;1000.1501;  4.0000001E-01;124.44083;3;-11.921391;0.0;-2.2467017;0;-0.11580175;  1.0003760E+04;  0.0000000E+00;  5.4399443E-06;  1.0000000E+04;  0.0000000E+00;  9.9992471E+03;-0.14612591;0.0;0.030324157;344.88861
  3.7998399E-01;  9.9999998E-03; -2.4000254E-01;1621;-0.016036181;0.0;-0.0025542672;1000.1512;  4.0000001E-01;125.23093;3;-11.49829;0.0;-1.8422326;0;-0.11606459;  1.0003718E+04;  0.0000000E+00;  1.9759923E-06;  1.0000000E+04;  0.0000000E+00;  9.9993066E+03;-0.14441893;0.0;0.028354341;317.93698
  3.7998396E-01;  9.9999998E-03; -2.2000192E-01;1622;-0.015983172;0.0;-0.0019841441;1000.1524;  4.0000001E-01;126.21856;3;-11.179961;0.0;-1.4972298;0;-0.11641955;  1.0003658E+04;  0.0000000E+00;  3.8242416E-07;  1.0000000E+04;  0.0000000E+00;  9.9993906E+03;-0.14187936;0.0;0.025459819;279.86105
  3.7998411E-01;  9.9999998E-03; -2.0000140E-01;1623;-0.015784534;0.0;-0.0014959589;1000.1534;  4.0000001E-01;127.10742;3;-10.914341;0.0;-1.19723;0;-0.11671266;  1.0003578E+04;  0.0000000E+00; -1.2547550E-09;  1.0000000E+04;  0.0000000E+00;  9.9994902E+03;-0.13854712;0.0;0.021834465;233.77504
  3.9998180E-01;  9.9999998E-03; -3.0000684E-01;1649;-0.017926194;0.0;-0.0058328453;1000.1763;  4.0000001E-01;146.06979;3;-15.096657;0.0;-4.0479608;0;-0.13296349;  1.0004651E+04;  0.0000000E+00;  1.1581562E-05;  1.0000000E+04;  0.0000000E+00;  9.9988750E+03;-0.17468332;0.0;0.041719824;515.25354
  3.9998087E-01;  9.9999998E-03; -2.8000540E-01;1650;-0.018699983;0.0;-0.0047979979;1000.1812;  4.0000001E-01;150.11906;3;-14.471106;0.0;-3.2066031;0;-0.13542713;  1.0004631E+04;  0.0000000E+00;  1.2707932E-05;  1.0000000E+04;  0.0000000E+00;  9.9989912E+03;-0.17395072;0.0;0.038523585;462.89578
  3.9998034E-01;  9.9999998E-03; -2.6000410E-01;1651;-0.01913283;0.0;-0.0038352567;1000.1835;  4.0000001E-01;151.99556;3;-13.828857;0.0;-2.5976477;0;-0.13646564;  1.0004593E+04;  0.0000000E+00;  7.2978860E-06;  1.0000000E+04;  0.0000000E+00;  9.9990801E+03;-0.17250559;0.0;0.036039948;422.4653
  3.9998013E-01;  9.9999998E-03; -2.4000306E-01;1652;-0.019270193;0.0;-0.0030233504;1000.1843;  4.0000001E-01;152.68689;3;-13.299111;0.0;-2.1517568;0;-0.13661592;  1.0004527E+04;  0.0000000E+00;  2.5688494E-06;  1.0000000E+04;  0.0000000E+00;  9.9991592E+03;-0.1701314;0.0;0.033515483;386.19965
  3.9998019E-01;  9.9999998E-03; -2.2000229E-01;1653;-0.019169193;0.0;-0.0023366443;1000.1852;  4.0000001E-01;153.37823;3;-12.91163;0.0;-1.7560182;0;-0.13678356;  1.0004438E+04;  0.0000000E+00;  4.6768577E-07;  1.0000000E+04;  0.0000000E+00;  9.9992666E+03;-0.16673067;0.0;0.029947119;337.72577
  3.9998040E-01;  9.9999998E-03; -2.0000167E-01;1654;-0.01888858;0.0;-0.0017517197;1000.1859;  4.0000001E-01;154.06956;3;-12.594463;0.0;-1.4046195;0;-0.13682345;  1.0004325E+04;  0.0000000E+00; -9.8224229E-10;  1.0000000E+04;  0.0000000E+00;  9.9993955E+03;-0.16238216;0.0;0.02555871;280.29999
  4.1997731E-01;  9.9999998E-03; -3.0000839E-01;1680;-0.021574205;0.0;-0.0068820561;1000.2158;  4.0000001E-01;178.76015;3;-17.585491;0.0;-4.5674586;0;-0.15713426;  1.0005711E+04;  0.0000000E+00;  1.4666771E-05;  1.0000000E+04;  0.0000000E+00;  9.9986064E+03;-0.20672078;0.0;0.049586527;643.53253
  4.1997623E-01;  9.9999998E-03; -2.8000659E-01;1681;-0.022465184;0.0;-0.0056758462;1000.2217;  4.0000001E-01;183.69827;3;-16.763115;0.0;-3.6597483;0;-0.15960412;  1.0005668E+04;  0.0000000E+00;  1.6952148E-05;  1.0000000E+04;  0.0000000E+00;  9.9987695E+03;-0.20540711;0.0;0.045802996;567.98401
  4.1997564E-01;  9.9999998E-03; -2.6000494E-01;1682;-0.022946972;0.0;-0.0045257835;1000.2244;  4.0000001E-01;185.96982;3;-15.948782;0.0;-2.9984066;0;-0.16074736;  1.0005596E+04;  0.0000000E+00;  9.7451575E-06;  1.0000000E+04;  0.0000000E+00;  9.9988936E+03;-0.20317179;0.0;0.042424429;509.70685
  4.1997543E-01;  9.9999998E-03; -2.4000366E-01;1683;-0.023070626;0.0;-0.0035474985;1000.2245;  4.0000001E-01;186.06857;3;-15.299631;0.0;-2.4969432;0;-0.16066538;  1.0005494E+04;  0.0000000E+00;  3.3849440E-06;  1.0000000E+04;  0.0000000E+00;  9.9989971E+03;-0.19978049;0.0;0.039115116;462.12912
  4.1997558E-01;  9.9999998E-03; -2.2000273E-01;1684;-0.022902673;0.0;-0.0027276413;1000.2245;  4.0000001E-01;186.06857;3;-14.838314;0.0;-2.0394938;0;-0.16043213;  1.0005357E+04;  0.0000000E+00;  6.1034825E-07;  1.0000000E+04;  0.0000000E+00;  9.9991318E+03;-0.19515863;0.0;0.034726508;401.8129
  4.1997594E-01;  9.9999998E-03; -2.0000200E-01;1685;-0.02251368;0.0;-0.0020396032;1000.2244;  4.0000001E-01;185.96982;3;-14.467293;0.0;-1.628041;0;-0.15999889;  1.0005206E+04;  0.0000000E+00;  8.3299048E-09;  1.0000000E+04;  0.0000000E+00;  9.9992861E+03;-0.18945399;0.0;0.029455088;331.6843
  4.3997177E-01;  9.9999998E-03; -3.0001026E-01;1711;-0.025886109;0.0;-0.0081327148;1000.2637;  4.0000001E-01;218.4626;3;-20.379475;0.0;-5.1665421;0;-0.18519354;  1.0006997E+04;  0.0000000E+00;  1.7073817E-05;  1.0000000E+04;  0.0000000E+00;  9.9982793E+03;-0.24419053;0.0;0.058996983;796.79681
  4.3997049E-01;  9.9999998E-03; -2.8000799E-01;1712;-0.026905082;0.0;-0.0067104432;1000.2714;  4.0000001E-01;224.88216;3;-19.313221;0.0;-4.1927142;0;-0.18784989;  1.0006911E+04;  0.0000000E+00;  2.2239099E-05;  1.0000000E+04;  0.0000000E+00;  9.9985176E+03;-0.24190088;0.0;0.054050978;685.14618
  4.3996984E-01;  9.9999998E-03; -2.6000589E-01;1713;-0.027433824;0.0;-0.0053113746;1000.2743;  4.0000001E-01;227.25246;3;-18.295271;0.0;-3.4604404;0;-0.18925177;  1.0006790E+04;  0.0000000E+00;  1.3112663E-05;  1.0000000E+04;  0.0000000E+00;  9.9986963E+03;-0.23843598;0.0;0.049184222;602.84515
  4.3996972E-01;  9.9999998E-03; -2.4000435E-01;1714;-0.027527219;0.0;-0.0041313386;1000.2729;  4.0000001E-01;226.06731;3;-17.513367;0.0;-2.8804536;0;-0.18865511;  1.0006633E+04;  0.0000000E+00;  4.6527125E-06;  1.0000000E+04;  0.0000000E+00;  9.9988252E+03;-0.23356566;0.0;0.044910543;543.87299
  4.3997002E-01;  9.9999998E-03; -2.2000323E-01;1715;-0.02726285;0.0;-0.0031696649;1000.2714;  4.0000001E-01;224.78339;3;-16.973177;0.0;-2.3478892;0;-0.18765654;  1.0006440E+04;  0.0000000E+00;  9.0929973E-07;  1.0000000E+04;  0.0000000E+00;  9.9989854E+03;-0.22727461;0.0;0.039618075;471.54831
  4.3997058E-01;  9.9999998E-03; -2.0000240E-01;1716;-0.026728716;0.0;-0.0023821313;1000.2697;  4.0000001E-01;223.49948;3;-16.546694;0.0;-1.8720232;0;-0.1864178;  1.0006229E+04;  0.0000000E+00;  5.2921759E-08;  1.0000000E+04;  0.0000000E+00;  9.9991709E+03;-0.21981883;0.0;0.033401027;388.29941
  4.5996487E-01;  9.9999998E-03; -3.0001259E-01;1742;-0.030993935;0.0;-0.0096398164;1000.3223;  4.0000039E-01;266.9548;3;-23.508516;0.0;-5.8860574;0;-0.21725646;  1.0008519E+04;  0.0000000E+00;  1.7827329E-05;  1.0000000E+04;  0.0000000E+00;  9.9979082E+03;-0.28723782;0.0;0.069981359;972.7605
  4.5996341E-01;  9.9999998E-03; -2.8000966E-01;1743;-0.032145552;0.0;-0.0079299472;1000.3325;  4.0000042E-01;275.44836;3;-22.141998;0.0;-4.8289504;0;-0.22060061;  1.0008373E+04;  0.0000000E+00;  2.9195020E-05;  1.0000000E+04;  0.0000000E+00;  9.9982598E+03;-0.28344047;0.0;0.062839858;806.71338
  4.5996276E-01;  9.9999998E-03; -2.6000702E-01;1744;-0.032709699;0.0;-0.0061979648;1000.335;  4.0000045E-01;277.5224;3;-20.882919;0.0;-3.9865503;0;-0.22241053;  1.0008185E+04;  0.0000000E+00;  1.8278030E-05;  1.0000000E+04;  0.0000000E+00;  9.9984980E+03;-0.27818304;0.0;0.055772517;696.49316
  4.5996279E-01;  9.9999998E-03; -2.4000515E-01;1745;-0.032742243;0.0;-0.0047876136;1000.3308;  4.0000036E-01;274.0657;3;-19.956177;0.0;-3.29883;0;-0.22074662;  1.0007950E+04;  0.0000000E+00;  6.9365706E-06;  1.0000000E+04;  0.0000000E+00;  9.9986455E+03;-0.2712774;0.0;0.05053078;629.89111
  4.5996332E-01;  9.9999998E-03; -2.2000389E-01;1746;-0.032337844;0.0;-0.0036915957;1000.3264;  4.0000045E-01;270.4115;3;-19.332142;0.0;-2.6776462;0;-0.21840967;  1.0007682E+04;  0.0000000E+00;  1.6143160E-06;  1.0000000E+04;  0.0000000E+00;  9.9988291E+03;-0.26281223;0.0;0.044402555;547.5199
  4.5996416E-01;  9.9999998E-03; -2.0000298E-01;1747;-0.031609774;0.0;-0.0028235791;1000.3226;  4.0000045E-01;267.2511;3;-18.84388;0.0;-2.1379306;0;-0.21590026;  1.0007396E+04;  0.0000000E+00;  2.0225643E-07;  1.0000000E+04;  0.0000000E+00;  9.9990391E+03;-0.25319526;0.0;0.037295002;452.17697
  4.7995624E-01;  9.9999998E-03; -3.0001542E-01;1773;-0.037071846;0.0;-0.011461253;1000.3916;  4.0000117E-01;324.4343;3;-27.012415;0.0;-6.7546105;0;-0.25290489;  1.0010271E+04;  0.0000000E+00;  1.6279397E-05;  1.0000000E+04;  0.0000000E+00;  9.9975039E+03;-0.33504713;0.0;0.082142219;1162.3289
  4.7995469E-01;  9.9999998E-03; -2.8001162E-01;1774;-0.038338974;0.0;-0.0093650362;1000.4059;  4.0000114E-01;336.28577;3;-25.277199;0.0;-5.6058559;0;-0.25782853;  1.0010039E+04;  0.0000000E+00;  3.9646311E-05;  1.0000000E+04;  0.0000000E+00;  9.9980205E+03;-0.32911658;0.0;0.071288057;919.52124
  4.7995412E-01;  9.9999998E-03; -2.6000834E-01;1775;-0.038907304;0.0;-0.0071994867;1000.4064;  4.0000123E-01;336.68082;3;-23.73583;0.0;-4.5827522;0;-0.26004857;  1.0009756E+04;  0.0000000E+00;  2.7166107E-05;  1.0000000E+04;  0.0000000E+00;  9.9983174E+03;-0.32143655;0.0;0.061387975;785.37653
  4.7995442E-01;  9.9999998E-03; -2.4000618E-01;1776;-0.038823497;0.0;-0.0055491356;1000.397;  4.0000117E-01;328.97736;3;-22.644522;0.0;-3.7494678;0;-0.25635827;  1.0009425E+04;  0.0000000E+00;  1.1395690E-05;  1.0000000E+04;  0.0000000E+00;  9.9984561E+03;-0.31191611;0.0;0.055557836;721.6723
  4.7995529E-01;  9.9999998E-03; -2.2000480E-01;1777;-0.0382188;0.0;-0.0043496932;1000.3885;  4.0000120E-01;321.86646;3;-21.919912;0.0;-3.0565505;0;-0.2518892;  1.0009061E+04;  0.0000000E+00;  3.2878656E-06;  1.0000000E+04;  0.0000000E+00;  9.9986504E+03;-0.30079633;0.0;0.048907131;634.02563
  4.7995651E-01;  9.9999998E-03; -2.0000386E-01;1778;-0.037235998;0.0;-0.0034438295;1000.3816;  4.0000111E-01;316.13824;3;-21.364672;0.0;-2.4309251;0;-0.24751079;  1.0008690E+04;  0.0000000E+00;  7.4084852E-07;  1.0000000E+04;  0.0000000E+00;  9.9988828E+03;-0.28866956;0.0;0.041158766;528.94495
  4.9994540E-01;  9.9999998E-03; -3.0001894E-01;1804;-0.044349864;0.0;-0.013677165;1000.4708;  4.0000278E-01;390.11087;3;-30.939989;0.0;-7.8073936;0;-0.29037541;  1.0012168E+04;  0.0000000E+00;  1.3493381E-05;  1.0000000E+04;  0.0000000E+00;  9.9971104E+03;-0.38515738;0.0;0.09478195;1347.6591
  4.9994391E-01;  9.9999998E-03; -2.8001398E-01;1805;-0.045660529;0.0;-0.011051279;1000.4901;  4.0000287E-01;406.0116;3;-28.753071;0.0;-6.5482373;0;-0.29842889;  1.0011829E+04;  0.0000000E+00;  5.8511305E-05;  1.0000000E+04;  0.0000000E+00;  9.9978350E+03;-0.37650657;0.0;0.078077666;1007.4116
  4.9994364E-01;  9.9999998E-03; -2.6000991E-01;1806;-0.046157066;0.0;-0.0083538415;1000.4858;  4.0000281E-01;402.45615;3;-26.887566;0.0;-5.2406116;0;-0.30065528;  1.0011432E+04;  0.0000000E+00;  4.4393557E-05;  1.0000000E+04;  0.0000000E+00;  9.9981504E+03;-0.36584699;0.0;0.065191716;868.99445
  4.9994439E-01;  9.9999998E-03; -2.4000758E-01;1807;-0.045869429;0.0;-0.0064936359;1000.4683;  4.0000284E-01;387.93808;3;-25.594124;0.0;-4.2248054;0;-0.29351106;  1.0010988E+04;  0.0000000E+00;  2.0623835E-05;  1.0000000E+04;  0.0000000E+00;  9.9982422E+03;-0.35325325;0.0;0.059742175;828.98297
  4.9994570E-01;  9.9999998E-03; -2.2000617E-01;1808;-0.044986401;0.0;-0.0052530454;1000.4542;  4.0000281E-01;376.28415;3;-24.749094;0.0;-3.4555571;0;-0.28594261;  1.0010517E+04;  0.0000000E+00;  7.0489245E-06;  1.0000000E+04;  0.0000000E+00;  9.9984297E+03;-0.33915809;0.0;0.053215459;743.36584
  4.9994740E-01;  9.9999998E-03; -2.0000525E-01;1809;-0.043679658;0.0;-0.0043780166;1000.4433;  4.0000284E-01;367.29678;3;-24.119469;0.0;-2.8157859;0;-0.27907324;  1.0010051E+04;  0.0000000E+00;  2.2427412E-06;  1.0000000E+04;  0.0000000E+00;  9.9986758E+03;-0.32435155;0.0;0.045278315;630.85577
  5.1993167E-01;  9.9999998E-03; -3.0002329E-01;1835;-0.053108782;0.0;-0.016392775;1000.5604;  4.0000772E-01;464.28067;3;-35.400539;0.0;-9.180994;0;-0.32635707;  1.0014050E+04;  0.0000000E+00;  1.5281008E-05;  1.0000000E+04;  0.0000000E+00;  9.9967705E+03;-0.43288073;0.0;0.10652366;1505.5295
  5.1993072E-01;  9.9999998E-03; -2.8001690E-01;1836;-0.054287005;0.0;-0.01305876;1000.5853;  4.0000775E-01;484.92197;3;-32.610245;0.0;-7.6938105;0;-0.339414;  1.0013591E+04;  0.0000000E+00;  9.7718315E-05;  1.0000000E+04;  0.0000000E+00;  9.9977217E+03;-0.42117015;0.0;0.081756137;1063.5586
  5.1993114E-01;  9.9999998E-03; -2.6001206E-01;1837;-0.054557946;0.0;-0.0097543588;1000.5713;  4.0000775E-01;473.26804;3;-30.359941;0.0;-6.0153341;0;-0.34068063;  1.0013068E+04;  0.0000000E+00;  8.0884063E-05;  1.0000000E+04;  0.0000000E+00;  9.9979688E+03;-0.40725574;0.0;0.06657511;961.9342
  5.1993251E-01;  9.9999998E-03; -2.4000970E-01;1838;-0.053944495;0.0;-0.0077912314;1000.5419;  4.0000775E-01;448.97256;3;-28.808298;0.0;-4.7320185;0;-0.32808879;  1.0012508E+04;  0.0000000E+00;  4.0674440E-05;  1.0000000E+04;  0.0000000E+00;  9.9979463E+03;-0.39145282;0.0;0.063364036;976.52911
  5.1993448E-01;  9.9999998E-03; -2.2000833E-01;1839;-0.052681506;0.0;-0.0066002137;1000.5212;  4.0000778E-01;431.78793;3;-27.825302;0.0;-3.9436817;0;-0.31653151;  1.0011929E+04;  0.0000000E+00;  1.5214728E-05;  1.0000000E+04;  0.0000000E+00;  9.9981104E+03;-0.37440628;0.0;0.057874765;901.26849
  5.1993674E-01;  9.9999998E-03; -2.0000742E-01;1840;-0.050975323;0.0;-0.0058111507;1000.5067;  4.0000778E-01;419.73895;3;-27.09376;0.0;-3.3211746;0;-0.30670112;  1.0011372E+04;  0.0000000E+00;  5.4588891E-06;  1.0000000E+04;  0.0000000E+00;  9.9983682E+03;-0.35707906;0.0;0.050377939;781.04163
  5.3991461E-01;  9.9999998E-03; -3.0002880E-01;1866;-0.063583188;0.0;-0.019699184;1000.6609;  4.0002075E-01;547.53613;3;-40.449165;0.0;-10.945561;0;-0.35558939;  1.0015637E+04;  0.0000000E+00;  3.4511508E-05;  1.0000000E+04;  0.0000000E+00;  9.9965361E+03;-0.4710412;0.0;0.1154518;1614.559
  5.3991497E-01;  9.9999998E-03; -2.8002071E-01;1867;-0.064316846;0.0;-0.015495539;1000.689;  4.0002072E-01;570.84393;3;-36.864807;0.0;-9.0473461;0;-0.37541085;  1.0015069E+04;  0.0000000E+00;  1.8247380E-04;  1.0000000E+04;  0.0000000E+00;  9.9976699E+03;-0.45642322;0.0;0.081012368;1095.9584
  5.3991652E-01;  9.9999998E-03; -2.6001522E-01;1868;-0.064119376;0.0;-0.011590974;1000.6588;  4.0002072E-01;545.75836;3;-34.108902;0.0;-6.8232446;0;-0.37365305;  1.0014439E+04;  0.0000000E+00;  1.6144451E-04;  1.0000000E+04;  0.0000000E+00;  9.9976953E+03;-0.43952054;0.0;0.065867491;1102.5255
  5.3991896E-01;  9.9999998E-03; -2.4001297E-01;1869;-0.063013725;0.0;-0.0096871592;1000.6144;  4.0002078E-01;509.01895;3;-32.278;0.0;-5.3596768;0;-0.35372937;  1.0013775E+04;  0.0000000E+00;  8.5412823E-05;  1.0000000E+04;  0.0000000E+00;  9.9974756E+03;-0.42093825;0.0;0.067208871;1209.1144
  5.3992164E-01;  9.9999998E-03; -2.2001171E-01;1870;-0.061251279;0.0;-0.0086544277;1000.5873;  4.0002078E-01;486.50122;3;-31.123323;0.0;-4.5393639;0;-0.33747762;  1.0013109E+04;  0.0000000E+00;  3.2432923E-05;  1.0000000E+04;  0.0000000E+00;  9.9975986E+03;-0.40151319;0.0;0.064035557;1151.1549
  5.3992450E-01;  9.9999998E-03; -2.0001075E-01;1871;-0.059083544;0.0;-0.008000494;1000.57;  4.0002081E-01;472.27951;3;-30.267366;0.0;-3.9715455;0;-0.32455492;  1.0012479E+04;  0.0000000E+00;  1.0895815E-05;  1.0000000E+04;  0.0000000E+00;  9.9978809E+03;-0.38231027;0.0;0.057755362;1017.3573
  5.5989403E-01;  9.9999998E-03; -3.0003610E-01;1897;-0.075785346;0.0;-0.023721769;1000.7874;  4.0005577E-01;652.32092;3;-46.04726;0.0;-13.112856;0;-0.37041104;  1.0016550E+04;  0.0000000E+00;  9.0205736E-05;  1.0000000E+04;  0.0000000E+00;  9.9963936E+03;-0.48993981;0.0;0.11952878;1681.3903
  5.5989677E-01;  9.9999998E-03; -2.8002620E-01;1898;-0.075630687;0.0;-0.018585244;1000.8143;  4.0005577E-01;674.64105;3;-41.467941;0.0;-10.629441;0;-0.39768454;  1.0015914E+04;  0.0000000E+00;  3.5818780E-04;  1.0000000E+04;  0.0000000E+00;  9.9975713E+03;-0.47334394;0.0;0.075659394;1153.6099
  5.5990022E-01;  9.9999998E-03; -2.6002014E-01;1899;-0.074658953;0.0;-0.01420343;1000.7609;  4.0005574E-01;630.39581;3;-38.115112;0.0;-7.735033;0;-0.39045331;  1.0015221E+04;  0.0000000E+00;  3.3407603E-04;  1.0000000E+04;  0.0000000E+00;  9.9971973E+03;-0.4545908;0.0;0.064137481;1354.6512
  5.5990386E-01;  9.9999998E-03; -2.4001801E-01;1900;-0.072854355;0.0;-0.012534816;1000.7003;  4.0005583E-01;580.12616;3;-35.961315;0.0;-6.0915337;0;-0.36171091;  1.0014508E+04;  0.0000000E+00;  1.8263307E-04;  1.0000000E+04;  0.0000000E+00;  9.9966992E+03;-0.43452719;0.0;0.072816275;1588.7938
  5.5990744E-01;  9.9999998E-03; -2.2001675E-01;1901;-0.070481367;0.0;-0.011763888;1000.6686;  4.0005592E-01;553.95428;3;-34.575325;0.0;-5.3030949;0;-0.34068167;  1.0013802E+04;  0.0000000E+00;  6.7617584E-05;  1.0000000E+04;  0.0000000E+00;  9.9967734E+03;-0.41407117;0.0;0.0733895;1551.4948
  5.5991095E-01;  9.9999998E-03; -2.0001554E-01;1902;-0.067817204;0.0;-0.011215881;1000.6522;  4.0005577E-01;540.3252;3;-33.58712;0.0;-4.8444042;0;-0.32508636;  1.0013141E+04;  0.0000000E+00;  1.7925073E-05;  1.0000000E+04;  0.0000000E+00;  9.9971035E+03;-0.39426014;0.0;0.069173776;1391.4829
  5.7987070E-01;  9.9999998E-03; -3.0004621E-01;1928;-0.089216314;0.0;-0.028651245;1000.9977;  4.0014887E-01;826.63257;3;-51.957691;0.0;-15.692765;0;-0.35948646;  1.0016298E+04;  0.0000000E+00;  2.0327882E-04;  1.0000000E+04;  0.0000000E+00;  9.9961885E+03;-0.47731292;0.0;0.11782647;1778.1727
  5.7987702E-01;  9.9999998E-03; -2.8003460E-01;1929;-0.087709531;0.0;-0.022701593;1001.0163;  4.0014887E-01;841.94055;3;-46.216782;0.0;-12.462886;0;-0.39319077;  1.0015679E+04;  0.0000000E+00;  6.9330609E-04;  1.0000000E+04;  0.0000000E+00;  9.9971826E+03;-0.4606905;0.0;0.067499727;1352.1122
  5.7988286E-01;  9.9999998E-03; -2.6002780E-01;1930;-0.085650876;0.0;-0.018094987;1000.9382;  4.0014893E-01;777.25189;3;-42.219906;0.0;-8.8429956;0;-0.37850851;  1.0015010E+04;  0.0000000E+00;  6.7433045E-04;  1.0000000E+04;  0.0000000E+00;  9.9962939E+03;-0.44234037;0.0;0.063831873;1800.1345
  5.7988793E-01;  9.9999998E-03; -2.4002536E-01;1931;-0.082969546;0.0;-0.016740352;1000.8635;  4.0014893E-01;715.42725;3;-39.701736;0.0;-6.9691525;0;-0.34127215;  1.0014333E+04;  0.0000000E+00;  3.7696576E-04;  1.0000000E+04;  0.0000000E+00;  9.9954814E+03;-0.42318973;0.0;0.081917576;2180.0286
  5.7989246E-01;  9.9999998E-03; -2.2002386E-01;1932;-0.079907946;0.0;-0.016329339;1000.8312;  4.0014890E-01;688.56421;3;-38.03233;0.0;-6.2969718;0;-0.31623569;  1.0013671E+04;  0.0000000E+00;  1.3549342E-04;  1.0000000E+04;  0.0000000E+00;  9.9954951E+03;-0.40401602;0.0;0.087780334;2164.5867
  5.7989657E-01;  9.9999998E-03; -2.0002191E-01;1933;-0.076776795;0.0;-0.01571472;1000.8206;  4.0014896E-01;679.87317;3;-36.858398;0.0;-6.0035744;0;-0.29908773;  1.0013045E+04;  0.0000000E+00;  2.5292171E-05;  1.0000000E+04;  0.0000000E+00;  9.9959131E+03;-0.38559869;0.0;0.086510964;1959.1993
  5.9984672E-01;  9.9999998E-03; -3.0006072E-01;1959;-0.10272285;0.0;-0.034799881;1001.4579;  4.0038523E-01;1207.8459;3;-57.643219;0.0;-18.727724;0;-0.30655521;  1.0014362E+04;  0.0000000E+00;  3.8362376E-04;  1.0000000E+04;  0.0000000E+00;  9.9955117E+03;-0.41907707;0.0;0.11252184;2108.0532
  5.9985697E-01;  9.9999998E-03; -2.8004789E-01;1960;-0.099602319;0.0;-0.028497545;1001.4613;  4.0038532E-01;1210.6112;3;-50.755436;0.0;-14.547318;0;-0.34292945;  1.0013868E+04;  0.0000000E+00;  1.2488180E-03;  1.0000000E+04;  0.0000000E+00;  9.9960713E+03;-0.4053072;0.0;0.062377762;1899.7329
  5.9986526E-01;  9.9999998E-03; -2.6003942E-01;1961;-0.096277244;0.0;-0.023958696;1001.3705;  4.0038541E-01;1135.3555;3;-46.142502;0.0;-10.1626;0;-0.32161862;  1.0013345E+04;  0.0000000E+00;  1.2553266E-03;  1.0000000E+04;  0.0000000E+00;  9.9947861E+03;-0.39050341;0.0;0.06888479;2535.3904
  5.9987199E-01;  9.9999998E-03; -2.4003562E-01;1962;-0.092644438;0.0;-0.022815622;1001.29;  4.0038547E-01;1068.6918;3;-43.215992;0.0;-8.1725388;0;-0.27928185;  1.0012821E+04;  0.0000000E+00;  7.1615988E-04;  1.0000000E+04;  0.0000000E+00;  9.9937051E+03;-0.37548965;0.0;0.096207812;3036.2275
  5.9987730E-01;  9.9999998E-03; -2.2003271E-01;1963;-0.088989578;0.0;-0.022377981;1001.2633;  4.0038556E-01;1046.5693;3;-41.216824;0.0;-7.6821351;0;-0.25266901;  1.0012306E+04;  0.0000000E+00;  2.5369992E-04;  1.0000000E+04;  0.0000000E+00;  9.9936875E+03;-0.36067054;0.0;0.10800152;3029.7346
  5.9988201E-01;  9.9999998E-03; -2.0002963E-01;1964;-0.085573956;0.0;-0.021294842;1001.2648;  4.0038550E-01;1047.8533;3;-39.779964;0.0;-7.7369127;0;-0.23538399;  1.0011802E+04;  0.0000000E+00;  3.2748449E-05;  1.0000000E+04;  0.0000000E+00;  9.9942197E+03;-0.34629795;0.0;0.11091397;2762.9922
  6.1982518E-01;  9.9999998E-03; -3.0008209E-01;1990;-0.11475334;0.0;-0.042527486;1002.5103;  4.0092668E-01;2079.6946;3;-62.492916;0.0;-22.315485;0;-0.19258095;  1.0010333E+04;  0.0000000E+00;  5.9790921E-04;  1.0000000E+04;  0.0000000E+00;  9.9935361E+03;-0.3020995;0.0;0.10951854;3066.6724
  6.1983860E-01;  9.9999998E-03; -2.8006896E-01;1991;-0.11026893;0.0;-0.036700387;1002.4954;  4.0092680E-01;2067.3496;3;-54.745472;0.0;-16.797316;0;-0.22572687;  1.0010076E+04;  0.0000000E+00;  1.9688555E-03;  1.0000000E+04;  0.0000000E+00;  9.9934912E+03;-0.29444554;0.0;0.068718664;3153.5503
  6.1984867E-01;  9.9999998E-03; -2.6005751E-01;1992;-0.10581481;0.0;-0.032499757;1002.4225;  4.0092701E-01;2007.007;3;-49.657036;0.0;-11.70444;0;-0.20306683;  1.0009813E+04;  0.0000000E+00;  2.0417394E-03;  1.0000000E+04;  0.0000000E+00;  9.9923057E+03;-0.28652117;0.0;0.083454333;3731.7129
  6.1985618E-01;  9.9999998E-03; -2.4004926E-01;1993;-0.10146724;0.0;-0.030797767;1002.361;  4.0092704E-01;1956.0466;3;-46.024826;0.0;-10.053489;0;-0.16425619;  1.0009553E+04;  0.0000000E+00;  1.1947209E-03;  1.0000000E+04;  0.0000000E+00;  9.9913408E+03;-0.27894896;0.0;0.11469278;4172.5269
  6.1986256E-01;  9.9999998E-03; -2.2004361E-01;1994;-0.0975352;0.0;-0.029477127;1002.3472;  4.0092710E-01;1944.4917;3;-43.71468;0.0;-9.64153;0;-0.13862342;  1.0009291E+04;  0.0000000E+00;  4.2986695E-04;  1.0000000E+04;  0.0000000E+00;  9.9913262E+03;-0.27162042;0.0;0.13299701;4158.5781
  6.1986810E-01;  9.9999998E-03; -2.0003869E-01;1995;-0.093845479;0.0;-0.027662832;1002.3669;  4.0092716E-01;1960.8859;3;-42.305008;0.0;-9.5233364;0;-0.12170462;  1.0009006E+04;  0.0000000E+00;  4.5413581E-05;  1.0000000E+04;  0.0000000E+00;  9.9920010E+03;-0.26410788;0.0;0.14240326;3813.0347
  6.3980901E-01;  9.9999998E-03; -3.0011237E-01;2021;-0.12409273;0.0;-0.051862668;1004.4699;  4.0191907E-01;3703.0859;3;-66.082672;0.0;-26.406536;0;-0.0078135654;  1.0004100E+04;  0.0000000E+00;  7.2544056E-04;  1.0000000E+04;  0.0000000E+00;  9.9894082E+03;-0.1195523;0.0;0.11173873;5076.3501
  6.3982415E-01;  9.9999998E-03; -2.8010076E-01;2022;-0.11891253;0.0;-0.047035296;1004.4345;  4.0191942E-01;3673.7544;3;-57.934216;0.0;-18.933765;0;-0.03650365;  1.0004168E+04;  0.0000000E+00;  2.5692764E-03;  1.0000000E+04;  0.0000000E+00;  9.9886230E+03;-0.12081899;0.0;0.084315345;5522.5254
  6.3983512E-01;  9.9999998E-03; -2.6008698E-01;2023;-0.11382254;0.0;-0.044365339;1004.415;  4.0191954E-01;3657.6567;3;-52.383308;0.0;-13.210676;0;-0.011173137;  1.0004245E+04;  0.0000000E+00;  2.7848592E-03;  1.0000000E+04;  0.0000000E+00;  9.9881582E+03;-0.12245376;0.0;0.11128063;5731.4551
  6.3984275E-01;  9.9999998E-03; -2.4007057E-01;2024;-0.10933764;0.0;-0.041008092;1004.4198;  4.0191960E-01;3661.6069;3;-48.382042;0.0;-11.375635;0;0.012411505;  1.0004330E+04;  0.0000000E+00;  1.6899963E-03;  1.0000000E+04;  0.0000000E+00;  9.9881729E+03;-0.12484117;0.0;0.13725267;5696.1968
  6.3984936E-01;  9.9999998E-03; -2.2005813E-01;2025;-0.10520137;0.0;-0.037852433;1004.4376;  4.0191975E-01;3676.3223;3;-45.916592;0.0;-11.145576;0;0.034203708;  1.0004392E+04;  0.0000000E+00;  6.3424342E-04;  1.0000000E+04;  0.0000000E+00;  9.9884648E+03;-0.1273839;0.0;0.16158761;5523.6416
  6.3985568E-01;  9.9999998E-03; -2.0004977E-01;2026;-0.10110264;0.0;-0.035107352;1004.482;  4.0191960E-01;3713.1594;3;-44.445503;0.0;-11.299755;0;0.050700784;  1.0004403E+04;  0.0000000E+00;  7.2164534E-05;  1.0000000E+04;  0.0000000E+00;  9.9893350E+03;-0.12897782;0.0;0.1796786;5070.2314
  6.5980077E-01;  9.9999998E-03; -3.0014798E-01;2052;-0.12971821;0.0;-0.062039457;1006.9119;  4.0316755E-01;5726.1108;3;-68.156456;0.0;-31.172064;0;0.23336744;  9.9960713E+03;  0.0000000E+00;  5.8914861E-04;  1.0000000E+04;  0.0000000E+00;  9.9839873E+03;0.12208783;0.0;0.11127961;7725.8384
  6.5981621E-01;  9.9999998E-03; -2.8014052E-01;2053;-0.12456266;0.0;-0.058030263;1006.8367;  4.0316787E-01;5663.8931;3;-60.423382;0.0;-19.574274;0;0.20707503;  9.9964893E+03;  0.0000000E+00;  2.6459822E-03;  1.0000000E+04;  0.0000000E+00;  9.9820605E+03;0.11052652;0.0;0.09654852;8734.6416
  6.5982795E-01;  9.9999998E-03; -2.6012793E-01;2054;-0.11857442;0.0;-0.059788227;1006.8759;  4.0316781E-01;5696.2856;3;-54.650101;0.0;-13.196094;0;0.25490016;  9.9969316E+03;  0.0000000E+00;  3.0998865E-03;  1.0000000E+04;  0.0000000E+00;  9.9824033E+03;0.098017678;0.0;0.15688246;8504.1377
  6.5983456E-01;  9.9999998E-03; -2.4010240E-01;2055;-0.1138792;0.0;-0.05659594;1006.9879;  4.0316772E-01;5789.02;3;-50.000546;0.0;-12.682446;0;0.25832906;  9.9973721E+03;  0.0000000E+00;  1.9693614E-03;  1.0000000E+04;  0.0000000E+00;  9.9841914E+03;0.084637083;0.0;0.17369199;7598.4331
  6.5984064E-01;  9.9999998E-03; -2.2007991E-01;2056;-0.11000204;0.0;-0.050349209;1007.0601;  4.0316769E-01;5848.8677;3;-47.392532;0.0;-12.79841;0;0.26633388;  9.9977754E+03;  0.0000000E+00;  7.8422209E-04;  1.0000000E+04;  0.0000000E+00;  9.9852305E+03;0.071400642;0.0;0.19493324;7061.9956
  6.5984702E-01;  9.9999998E-03; -2.0006499E-01;2057;-0.10599186;0.0;-0.045150455;1007.1358;  4.0316769E-01;5911.5791;3;-45.861462;0.0;-13.395225;0;0.28018028;  9.9980977E+03;  0.0000000E+00;  1.1245874E-04;  1.0000000E+04;  0.0000000E+00;  9.9864141E+03;0.059868053;0.0;0.22031221;6442.9092
  6.7980647E-01;  9.9999998E-03; -3.0018038E-01;2083;-0.12933935;0.0;-0.071526542;1008.7437;  4.0416446E-01;7243.623;3;-69.400276;0.0;-34.956676;0;0.49726555;  9.9872813E+03;  0.0000000E+00;  3.1021136E-04;  1.0000000E+04;  0.0000000E+00;  9.9797256E+03;0.39679074;0.0;0.1004748;9812.4072
  6.7981786E-01;  9.9999998E-03; -2.8017727E-01;2084;-0.12577513;0.0;-0.068479292;1008.6153;  4.0416479E-01;7137.1631;3;-62.115234;0.0;-20.307112;0;0.47176176;  9.9879844E+03;  0.0000000E+00;  2.0556306E-03;  1.0000000E+04;  0.0000000E+00;  9.9764697E+03;0.37610796;0.0;0.095653802;11480.848
  6.7982912E-01;  9.9999998E-03; -2.6016790E-01;2085;-0.11892802;0.0;-0.074770272;1008.6798;  4.0416437E-01;7190.689;3;-56.325092;0.0;-12.56606;0;0.54613876;  9.9887334E+03;  0.0000000E+00;  2.7185334E-03;  1.0000000E+04;  0.0000000E+00;  9.9770195E+03;0.35362855;0.0;0.19251023;11103.35
  6.7983389E-01;  9.9999998E-03; -2.4013716E-01;2086;-0.11424199;0.0;-0.07462886;1008.8762;  4.0416402E-01;7353.3418;3;-50.333218;0.0;-14.123146;0;0.54299057;  9.9894678E+03;  0.0000000E+00;  1.8279015E-03;  1.0000000E+04;  0.0000000E+00;  9.9802002E+03;0.33044535;0.0;0.2125452;9501.5059
  6.7983830E-01;  9.9999998E-03; -2.2010535E-01;2087;-0.11126634;0.0;-0.066731922;1009.0024;  4.0416375E-01;7457.8267;3;-47.169651;0.0;-16.149452;0;0.53729117;  9.9901523E+03;  0.0000000E+00;  7.7970419E-04;  1.0000000E+04;  0.0000000E+00;  9.9820264E+03;0.30790439;0.0;0.22938679;8578.2715
  6.7984408E-01;  9.9999998E-03; -2.0008326E-01;2088;-0.10781267;0.0;-0.058443781;1009.1085;  4.0416363E-01;7545.8188;3;-45.864697;0.0;-17.155869;0;0.54786247;  9.9907441E+03;  0.0000000E+00;  1.4308374E-04;  1.0000000E+04;  0.0000000E+00;  9.9835459E+03;0.28758907;0.0;0.2602734;7787.4028
  6.9983852E-01;  9.9999998E-03; -3.0020446E-01;2114;-0.11144996;0.0;-0.080234155;1009.6028;  4.0471008E-01;7955.104;3;-62.236191;0.0;-38.757729;0;0.74497569;  9.9792959E+03;  0.0000000E+00;  4.7416208E-04;  1.0000000E+04;  0.0000000E+00;  9.9777412E+03;0.65765339;0.0;0.087322287;10773.906
  6.9983727E-01;  9.9999998E-03; -2.8020355E-01;2115;-0.11558561;0.0;-0.077311814;1009.4254;  4.0471026E-01;7808.1567;3;-60.022972;0.0;-22.223791;0;0.71244419;  9.9801191E+03;  0.0000000E+00;  1.3902605E-03;  1.0000000E+04;  0.0000000E+00;  9.9734121E+03;0.63268268;0.0;0.079761535;12984.33
  6.9984353E-01;  9.9999998E-03; -2.6019827E-01;2116;-0.1114784;0.0;-0.087823868;1009.4626;  4.0470979E-01;7838.9683;3;-55.023281;0.0;-13.335824;0;0.81846589;  9.9810176E+03;  0.0000000E+00;  1.8895182E-03;  1.0000000E+04;  0.0000000E+00;  9.9732803E+03;0.60459691;0.0;0.21386899;12903.825
  6.9984591E-01;  9.9999998E-03; -2.4016580E-01;2117;-0.10796715;0.0;-0.09095668;1009.6947;  4.0470934E-01;8031.2437;3;-48.175198;0.0;-15.980844;0;0.81758249;  9.9819063E+03;  0.0000000E+00;  1.3326774E-03;  1.0000000E+04;  0.0000000E+00;  9.9770098E+03;0.57574785;0.0;0.24183464;11018.108
  6.9984800E-01;  9.9999998E-03; -2.2012888E-01;2118;-0.10704338;0.0;-0.083854243;1009.8511;  4.0470892E-01;8160.8105;3;-45.581196;0.0;-21.356693;0;0.80639625;  9.9827490E+03;  0.0000000E+00;  6.0497120E-04;  1.0000000E+04;  0.0000000E+00;  9.9792822E+03;0.54767728;0.0;0.25871894;9872.8115
  6.9985259E-01;  9.9999998E-03; -2.0010164E-01;2119;-0.10466969;0.0;-0.073775269;1009.9784;  4.0470859E-01;8266.2803;3;-45.145599;0.0;-23.969824;0;0.81651282;  9.9835234E+03;  0.0000000E+00;  1.3663783E-04;  1.0000000E+04;  0.0000000E+00;  9.9810381E+03;0.52154583;0.0;0.294967;8958.7178
  7.1988636E-01;  9.9999998E-03; -3.0021986E-01;2145;-0.077981293;0.0;-0.087343395;1009.9083;  4.0494856E-01;8207.9883;3;-42.688877;0.0;-43.176399;0;0.92158443;  9.9736611E+03;  0.0000000E+00;  5.4406381E-04;  1.0000000E+04;  0.0000000E+00;  9.9776416E+03;0.85093099;0.0;0.070653461;10810.802
  7.1988147E-01;  9.9999998E-03; -2.8021812E-01;2146;-0.084066033;0.0;-0.08366736;1009.7049;  4.0494889E-01;8039.5171;3;-43.50174;0.0;-25.122017;0;0.87718266;  9.9744170E+03;  0.0000000E+00;  1.1459063E-03;  1.0000000E+04;  0.0000000E+00;  9.9728633E+03;0.82830447;0.0;0.048878215;13266.902
  7.1987933E-01;  9.9999998E-03; -2.6021484E-01;2147;-0.087403625;0.0;-0.095754251;1009.6844;  4.0494838E-01;8022.5317;3;-42.978527;0.0;-14.552223;0;1.008389;  9.9752627E+03;  0.0000000E+00;  1.1735829E-03;  1.0000000E+04;  0.0000000E+00;  9.9716455E+03;0.80180985;0.0;0.20657915;13698.5
  7.1987903E-01;  9.9999998E-03; -2.4018325E-01;2148;-0.088715486;0.0;-0.10256284;1009.8981;  4.0494773E-01;8199.5947;3;-41.649845;0.0;-18.896036;0;1.0280612;  9.9761387E+03;  0.0000000E+00;  7.9354097E-04;  1.0000000E+04;  0.0000000E+00;  9.9750225E+03;0.77364677;0.0;0.25441435;11962.203
  7.1988112E-01;  9.9999998E-03; -2.2014444E-01;2149;-0.088669389;0.0;-0.096911438;1010.0569;  4.0494743E-01;8331.0342;3;-41.813076;0.0;-27.932228;0;1.0218987;  9.9770068E+03;  0.0000000E+00;  3.6839987E-04;  1.0000000E+04;  0.0000000E+00;  9.9773066E+03;0.74508882;0.0;0.27680993;10804.837
  7.1988535E-01;  9.9999998E-03; -2.0011477E-01;2150;-0.086261824;0.0;-0.085844815;1010.1907;  4.0494710E-01;8441.9326;3;-41.604664;0.0;-31.400438;0;1.0368098;  9.9778574E+03;  0.0000000E+00;  9.6262716E-05;  1.0000000E+04;  0.0000000E+00;  9.9791191E+03;0.71682703;0.0;0.31998274;9853.6475
  7.3992985E-01;  9.9999998E-03; -3.0022919E-01;2176;-0.047751915;0.0;-0.0922359;1010.0448;  4.0504235E-01;8320.7529;3;-25.439857;0.0;-46.507454;0;0.99675095;  9.9711523E+03;  0.0000000E+00;  1.4326644E-04;  1.0000000E+04;  0.0000000E+00;  9.9782324E+03;0.94535381;0.0;0.051397167;10520.295
  7.3992616E-01;  9.9999998E-03; -2.8022552E-01;2177;-0.052146528;0.0;-0.087096937;1009.8281;  4.0504265E-01;8141.228;3;-26.593805;0.0;-27.09067;0;0.93820894;  9.9717266E+03;  0.0000000E+00;  6.1593688E-04;  1.0000000E+04;  0.0000000E+00;  9.9733750E+03;0.92926365;0.0;0.0089452928;13046.485
  7.3992407E-01;  9.9999998E-03; -2.6022100E-01;2178;-0.054843292;0.0;-0.098179191;1009.7654;  4.0504241E-01;8089.2861;3;-26.587194;0.0;-15.165195;0;1.0821339;  9.9723877E+03;  0.0000000E+00;  6.0234382E-04;  1.0000000E+04;  0.0000000E+00;  9.9714912E+03;0.90975785;0.0;0.17237608;13801.843
  7.3992342E-01;  9.9999998E-03; -2.4018946E-01;2179;-0.056451853;0.0;-0.10542835;1009.9376;  4.0504181E-01;8231.9775;3;-26.309223;0.0;-19.061464;0;1.1280699;  9.9731270E+03;  0.0000000E+00;  3.7734848E-04;  1.0000000E+04;  0.0000000E+00;  9.9741807E+03;0.88734704;0.0;0.24072279;12382.401
  7.3992467E-01;  9.9999998E-03; -2.2015099E-01;2180;-0.056739315;0.0;-0.10092951;1010.0753;  4.0504131E-01;8346.0322;3;-27.008167;0.0;-28.643988;0;1.1421527;  9.9739209E+03;  0.0000000E+00;  1.6929940E-04;  1.0000000E+04;  0.0000000E+00;  9.9761270E+03;0.86236668;0.0;0.27978599;11370.345
  7.3992741E-01;  9.9999998E-03; -2.0012121E-01;2181;-0.055276379;0.0;-0.090348303;1010.2043;  4.0504095E-01;8452.8779;3;-27.105919;0.0;-32.53833;0;1.169052;  9.9747617E+03;  0.0000000E+00;  4.9398684E-05;  1.0000000E+04;  0.0000000E+00;  9.9778477E+03;0.83519477;0.0;0.33385721;10450.267
  7.5996363E-01;  9.9999998E-03; -3.0023494E-01;2207;-0.024672717;0.0;-0.095712982;1010.1687;  4.0507764E-01;8422.9316;3;-12.945214;0.0;-48.725456;0;0.99183953;  9.9714277E+03;  0.0000000E+00; -1.7396346E-04;  1.0000000E+04;  0.0000000E+00;  9.9786777E+03;0.94727612;0.0;0.044563413;10297.517
  7.5996131E-01;  9.9999998E-03; -2.8022942E-01;2208;-0.027452806;0.0;-0.089327738;1009.9464;  4.0507799E-01;8238.7754;3;-14.078938;0.0;-28.477676;0;0.9238621;  9.9717988E+03;  0.0000000E+00;  1.3091642E-04;  1.0000000E+04;  0.0000000E+00;  9.9739023E+03;0.93861586;0.0;-0.014753755;12803.74
  7.5995988E-01;  9.9999998E-03; -2.6022345E-01;2209;-0.029106133;0.0;-0.09906961;1009.8546;  4.0507779E-01;8162.7422;3;-14.077976;0.0;-15.492709;0;1.0731678;  9.9722568E+03;  0.0000000E+00;  1.7275861E-04;  1.0000000E+04;  0.0000000E+00;  9.9716533E+03;0.92723387;0.0;0.1459339;13745.621
  7.5995916E-01;  9.9999998E-03; -2.4019186E-01;2210;-0.030364905;0.0;-0.10592477;1009.9919;  4.0507725E-01;8276.4951;3;-14.175697;0.0;-18.502472;0;1.1387088;  9.9728135E+03;  0.0000000E+00;  1.0888663E-04;  1.0000000E+04;  0.0000000E+00;  9.9738252E+03;0.91207874;0.0;0.22663008;12567.85
  7.5995958E-01;  9.9999998E-03; -2.2015415E-01;2211;-0.030848432;0.0;-0.10238148;1010.1093;  4.0507689E-01;8373.7578;3;-14.877174;0.0;-28.1224;0;1.1709735;  9.9734883E+03;  0.0000000E+00;  4.8683407E-05;  1.0000000E+04;  0.0000000E+00;  9.9754854E+03;0.89249372;0.0;0.27847987;11680.965
  7.5996095E-01;  9.9999998E-03; -2.0012476E-01;2212;-0.030308504;0.0;-0.092511594;1010.2302;  4.0507650E-01;8473.8838;3;-15.227609;0.0;-32.568779;0;1.2088457;  9.9742578E+03;  0.0000000E+00;  1.7099759E-05;  1.0000000E+04;  0.0000000E+00;  9.9771191E+03;0.86850828;0.0;0.34033749;10794.081
  7.7998853E-01;  9.9999998E-03; -3.0023819E-01;2238;-0.0080382228;0.0;-0.09796828;1010.3085;  4.0509045E-01;8538.1846;3;-4.4216971;0.0;-50.263153;0;0.93685937;  9.9734395E+03;  0.0000000E+00; -1.7473134E-04;  1.0000000E+04;  0.0000000E+00;  9.9788008E+03;0.88936919;0.0;0.047490165;10228.133
  7.7998739E-01;  9.9999998E-03; -2.8023148E-01;2239;-0.0093069943;0.0;-0.090903707;1010.0837;  4.0509096E-01;8351.9658;3;-5.0551486;0.0;-29.74267;0;0.8656413;  9.9736406E+03;  0.0000000E+00; -4.9789567E-05;  1.0000000E+04;  0.0000000E+00;  9.9741455E+03;0.88696498;0.0;-0.021323681;12683.869
  7.7998662E-01;  9.9999998E-03; -2.6022431E-01;2240;-0.010026409;0.0;-0.099550508;1009.9786;  4.0509069E-01;8264.9785;3;-5.162044;0.0;-15.944007;0;1.0158753;  9.9739229E+03;  0.0000000E+00; -3.3700392E-06;  1.0000000E+04;  0.0000000E+00;  9.9718008E+03;0.88222939;0.0;0.13364601;13680.073
  7.7998608E-01;  9.9999998E-03; -2.4019247E-01;2241;-0.010800747;0.0;-0.10585919;1010.095;  4.0509021E-01;8361.3457;3;-5.3310957;0.0;-18.208042;0;1.092043;  9.9743291E+03;  0.0000000E+00;  4.2923189E-06;  1.0000000E+04;  0.0000000E+00;  9.9737139E+03;0.87329131;0.0;0.2187517;12625.741
  7.7998590E-01;  9.9999998E-03; -2.2015522E-01;2242;-0.011343765;0.0;-0.10266197;1010.1984;  4.0508980E-01;8446.9512;3;-5.8982167;0.0;-27.68305;0;1.1354414;  9.9748750E+03;  0.0000000E+00;  3.3899767E-06;  1.0000000E+04;  0.0000000E+00;  9.9752227E+03;0.8588745;0.0;0.27656695;11807.191
  7.7998620E-01;  9.9999998E-03; -2.0012625E-01;2243;-0.011418461;0.0;-0.093192175;1010.3121;  4.0508941E-01;8541.1465;3;-6.2887254;0.0;-32.204021;0;1.1808591;  9.9755566E+03;  0.0000000E+00;  2.9321502E-06;  1.0000000E+04;  0.0000000E+00;  9.9768076E+03;0.83870202;0.0;0.34215713;10940.808
  8.0000812E-01;  9.9999998E-03; -3.0023947E-01;2269;0.0049807192;0.0;-0.099126436;1010.4406;  4.0509400E-01;8646.7988;3;2.1656458;0.0;-51.185211;0;0.86595243;  9.9760420E+03;  0.0000000E+00; -4.9784921E-05;  1.0000000E+04;  0.0000000E+00;  9.9786338E+03;0.80945587;0.0;0.056496542;10294.021
  8.0000806E-01;  9.9999998E-03; -2.8023219E-01;2270;0.0050704386;0.0;-0.091705635;1010.2164;  4.0509453E-01;8461.0918;3;2.0198278;0.0;-30.431721;0;0.79460675;  9.9761289E+03;  0.0000000E+00; -3.1017840E-05;  1.0000000E+04;  0.0000000E+00;  9.9741055E+03;0.81103396;0.0;-0.01642723;12687.944
  8.0000788E-01;  9.9999998E-03; -2.6022425E-01;2271;0.005097101;0.0;-0.099851839;1010.1107;  4.0509433E-01;8373.6182;3;1.868179;0.0;-16.512398;0;0.94405615;  9.9762979E+03;  0.0000000E+00; -1.3226339E-05;  1.0000000E+04;  0.0000000E+00;  9.9718594E+03;0.81034255;0.0;0.13371363;13640.602
  8.0000752E-01;  9.9999998E-03; -2.4019215E-01;2272;0.0048523662;0.0;-0.10573744;1010.2202;  4.0509379E-01;8464.251;3;1.7146342;0.0;-18.355534;0;1.0229777;  9.9765977E+03;  0.0000000E+00; -3.5875751E-06;  1.0000000E+04;  0.0000000E+00;  9.9737422E+03;0.80539674;0.0;0.21758093;12604.349
  8.0000699E-01;  9.9999998E-03; -2.2015491E-01;2273;0.0043718764;0.0;-0.10231516;1010.3173;  4.0509346E-01;8544.7139;3;1.3720545;0.0;-27.514946;0;1.0701406;  9.9770469E+03;  0.0000000E+00; -6.2140617E-07;  1.0000000E+04;  0.0000000E+00;  9.9752246E+03;0.79469991;0.0;0.27544063;11799.19
  8.0000651E-01;  9.9999998E-03; -2.0012617E-01;2274;0.0038867882;0.0;-0.092873231;1010.4263;  4.0509298E-01;8634.9521;3;1.0319577;0.0;-31.724337;0;1.119066;  9.9776436E+03;  0.0000000E+00; -7.2921999E-08;  1.0000000E+04;  0.0000000E+00;  9.9767979E+03;0.77776015;0.0;0.34130588;10939.086
  8.2002616E-01;  9.9999998E-03; -3.0023894E-01;2300;0.017284282;0.0;-0.099148057;1010.5322;  4.0508807E-01;8721.5527;3;8.6650143;0.0;-51.4366;0;0.80092049;  9.9784688E+03;  0.0000000E+00;  1.7798813E-05;  1.0000000E+04;  0.0000000E+00;  9.9783027E+03;0.7333824;0.0;0.067538068;10432.4
  8.2002717E-01;  9.9999998E-03; -2.8023171E-01;2301;0.01863409;0.0;-0.091718443;1010.3101;  4.0508854E-01;8537.6455;3;8.9386368;0.0;-30.365026;0;0.73194456;  9.9785088E+03;  0.0000000E+00;  3.8263071E-05;  1.0000000E+04;  0.0000000E+00;  9.9738662E+03;0.73635006;0.0;-0.0044054934;12775.87
  8.2002735E-01;  9.9999998E-03; -2.6022357E-01;2302;0.019073933;0.0;-0.099931926;1010.2131;  4.0508828E-01;8457.291;3;8.6637936;0.0;-16.955359;0;0.87976182;  9.9786318E+03;  0.0000000E+00;  4.2554504E-05;  1.0000000E+04;  0.0000000E+00;  9.9718428E+03;0.73699301;0.0;0.14276883;13619.55
  8.2002723E-01;  9.9999998E-03; -2.4019106E-01;2303;0.019319844;0.0;-0.10546111;1010.3282;  4.0508786E-01;8552.749;3;8.3876734;0.0;-18.743917;0;0.95454669;  9.9788789E+03;  0.0000000E+00;  2.8580911E-05;  1.0000000E+04;  0.0000000E+00;  9.9738887E+03;0.7335996;0.0;0.2209471;12512.525
  8.2002640E-01;  9.9999998E-03; -2.2015354E-01;2304;0.018976774;0.0;-0.10147043;1010.4261;  4.0508741E-01;8633.6963;3;8.2965612;0.0;-27.515335;0;0.99957377;  9.9792705E+03;  0.0000000E+00;  1.2163582E-05;  1.0000000E+04;  0.0000000E+00;  9.9754375E+03;0.72471029;0.0;0.27486348;11680.222
  8.2002521E-01;  9.9999998E-03; -2.0012484E-01;2305;0.018149424;0.0;-0.09179128;1010.5327;  4.0508705E-01;8722.0469;3;8.0111275;0.0;-31.229645;0;1.0483093;  9.9798096E+03;  0.0000000E+00;  2.0415343E-06;  1.0000000E+04;  0.0000000E+00;  9.9770254E+03;0.7097159;0.0;0.33859348;10817.221
  8.4004486E-01;  9.9999998E-03; -3.0023542E-01;2331;0.030332385;0.0;-0.097974613;1010.4316;  4.0500575E-01;8636.8076;3;15.971257;0.0;-51.061085;0;0.74475169;  9.9805234E+03;  0.0000000E+00;  3.9692950E-05;  1.0000000E+04;  0.0000000E+00;  9.9783193E+03;0.66869241;0.0;0.076059267;10394.882
  8.4004664E-01;  9.9999998E-03; -2.8022841E-01;2332;0.032739729;0.0;-0.090687811;1010.2144;  4.0500617E-01;8456.9775;3;16.513931;0.0;-30.068987;0;0.67791963;  9.9805713E+03;  0.0000000E+00;  1.2998885E-04;  1.0000000E+04;  0.0000000E+00;  9.9739707E+03;0.67079413;0.0;0.0071254782;12685.984
  8.4004700E-01;  9.9999998E-03; -2.6022017E-01;2333;0.033427328;0.0;-0.098903783;1010.1265;  4.0500590E-01;8384.2354;3;16.030958;0.0;-17.211126;0;0.82162958;  9.9806973E+03;  0.0000000E+00;  1.3737145E-04;  1.0000000E+04;  0.0000000E+00;  9.9721221E+03;0.67052352;0.0;0.15110604;13443.313
  8.4004706E-01;  9.9999998E-03; -2.4018779E-01;2334;0.03405026;0.0;-0.10414103;1010.2468;  4.0500540E-01;8483.8232;3;15.461074;0.0;-19.035221;0;0.8903749;  9.9809395E+03;  0.0000000E+00;  8.6407934E-05;  1.0000000E+04;  0.0000000E+00;  9.9742744E+03;0.66654074;0.0;0.22383417;12293.573
  8.4004599E-01;  9.9999998E-03; -2.2015050E-01;2335;0.033865143;0.0;-0.099655449;1010.3462;  4.0500510E-01;8566.1387;3;15.534243;0.0;-27.447474;0;0.93070424;  9.9813154E+03;  0.0000000E+00;  3.6021283E-05;  1.0000000E+04;  0.0000000E+00;  9.9758789E+03;0.65755683;0.0;0.27314737;11444.02
  8.4004408E-01;  9.9999998E-03; -2.0012221E-01;2336;0.032657295;0.0;-0.08987233;1010.452;  4.0500468E-01;8653.7842;3;15.253319;0.0;-30.634535;0;0.9767586;  9.9818232E+03;  0.0000000E+00;  7.5668540E-06;  1.0000000E+04;  0.0000000E+00;  9.9774746E+03;0.64297378;0.0;0.33378479;10583.216
  8.6006403E-01;  9.9999998E-03; -3.0022886E-01;2362;0.043950893;0.0;-0.095555313;1010.1448;  4.0484369E-01;8397.5596;3;23.946724;0.0;-49.967281;0;0.6887902;  9.9824102E+03;  0.0000000E+00;  9.0733767E-05;  1.0000000E+04;  0.0000000E+00;  9.9787578E+03;0.60882956;0.0;0.079960674;10149.605
  8.6006653E-01;  9.9999998E-03; -2.8022200E-01;2363;0.047307882;0.0;-0.088492967;1009.9352;  4.0484414E-01;8224.084;3;24.621977;0.0;-29.429043;0;0.62437648;  9.9825010E+03;  0.0000000E+00;  2.7018131E-04;  1.0000000E+04;  0.0000000E+00;  9.9745137E+03;0.60852164;0.0;0.015854811;12373.15
  8.6006683E-01;  9.9999998E-03; -2.6021370E-01;2364;0.048108675;0.0;-0.096459523;1009.8566;  4.0484387E-01;8158.9565;3;23.852421;0.0;-17.393137;0;0.76035243;  9.9826699E+03;  0.0000000E+00;  2.8122216E-04;  1.0000000E+04;  0.0000000E+00;  9.9728057E+03;0.60572553;0.0;0.15462692;13065.243
  8.6006707E-01;  9.9999998E-03; -2.4018210E-01;2365;0.048995048;0.0;-0.10141373;1009.9781;  4.0484348E-01;8259.6074;3;22.915506;0.0;-19.027096;0;0.82311738;  9.9829473E+03;  0.0000000E+00;  1.7445194E-04;  1.0000000E+04;  0.0000000E+00;  9.9749512E+03;0.59945846;0.0;0.22365895;11927.774
  8.6006576E-01;  9.9999998E-03; -2.2014572E-01;2366;0.048949745;0.0;-0.096697487;1010.079;  4.0484309E-01;8343.0889;3;23.075264;0.0;-26.94092;0;0.85779822;  9.9833438E+03;  0.0000000E+00;  7.2631730E-05;  1.0000000E+04;  0.0000000E+00;  9.9765596E+03;0.58870584;0.0;0.26909241;11083.86
  8.6006314E-01;  9.9999998E-03; -2.0011821E-01;2367;0.047286708;0.0;-0.087059259;1010.1844;  4.0484273E-01;8430.3203;3;22.649467;0.0;-29.841856;0;0.8993243;  9.9838574E+03;  0.0000000E+00;  1.6485217E-05;  1.0000000E+04;  0.0000000E+00;  9.9781416E+03;0.57306373;0.0;0.32626057;10236.044
  8.8008237E-01;  9.9999998E-03; -3.0021957E-01;2393;0.057174206;0.0;-0.092061616;1009.7071;  4.0461129E-01;8032.7954;3;31.871113;0.0;-48.176052;0;0.6249671;  9.9844326E+03;  0.0000000E+00;  1.8998032E-04;  1.0000000E+04;  0.0000000E+00;  9.9795469E+03;0.54317182;0.0;0.08179529;9727.5566
  8.8008541E-01;  9.9999998E-03; -2.8021282E-01;2394;0.061314929;0.0;-0.085329488;1009.5088;  4.0461162E-01;7868.7441;3;32.517471;0.0;-28.607256;0;0.56236243;  9.9845889E+03;  0.0000000E+00;  4.5825995E-04;  1.0000000E+04;  0.0000000E+00;  9.9754619E+03;0.5395565;0.0;0.022805924;11854.136
  8.8008565E-01;  9.9999998E-03; -2.6020432E-01;2395;0.062052794;0.0;-0.092668712;1009.4403;  4.0461141E-01;7812.0215;3;31.437773;0.0;-17.308168;0;0.68674558;  9.9848369E+03;  0.0000000E+00;  4.6834920E-04;  1.0000000E+04;  0.0000000E+00;  9.9738818E+03;0.53314364;0.0;0.15360193;12490.659
  8.8008606E-01;  9.9999998E-03; -2.4017400E-01;2396;0.063214839;0.0;-0.097269692;1009.5605;  4.0461102E-01;7911.459;3;30.084797;0.0;-18.700718;0;0.74275917;  9.9851797E+03;  0.0000000E+00;  2.8693958E-04;  1.0000000E+04;  0.0000000E+00;  9.9759277E+03;0.5232808;0.0;0.21947837;11410.486
  8.8008446E-01;  9.9999998E-03; -2.2013921E-01;2397;0.063272722;0.0;-0.092599161;1009.6617;  4.0461066E-01;7995.3096;3;30.339626;0.0;-26.075363;0;0.77129495;  9.9856357E+03;  0.0000000E+00;  1.1866246E-04;  1.0000000E+04;  0.0000000E+00;  9.9774834E+03;0.5093646;0.0;0.26193038;10597.761
  8.8008112E-01;  9.9999998E-03; -2.0011294E-01;2398;0.061131455;0.0;-0.08332736;1009.7675;  4.0461031E-01;8082.7119;3;29.71784;0.0;-28.77544;0;0.80695367;  9.9861914E+03;  0.0000000E+00;  2.6907675E-05;  1.0000000E+04;  0.0000000E+00;  9.9790371E+03;0.49141756;0.0;0.31553614;9775.7705
  9.0009856E-01;  9.9999998E-03; -3.0020803E-01;2424;0.068980753;0.0;-0.087678827;1009.1516;  4.0432110E-01;7570.0205;3;39.064125;0.0;-45.811363;0;0.54866195;  9.9867383E+03;  0.0000000E+00;  3.0491897E-04;  1.0000000E+04;  0.0000000E+00;  9.9805859E+03;0.46647906;0.0;0.082182854;9176.248
  9.0010178E-01;  9.9999998E-03; -2.8020123E-01;2425;0.073620498;0.0;-0.081268877;1008.9705;  4.0432137E-01;7420.2349;3;39.56419;0.0;-27.404951;0;0.48721257;  9.9869893E+03;  0.0000000E+00;  6.5712014E-04;  1.0000000E+04;  0.0000000E+00;  9.9767500E+03;0.45898849;0.0;0.028224075;11160.773
  9.0010166E-01;  9.9999998E-03; -2.6019239E-01;2426;0.073989697;0.0;-0.087671727;1008.9142;  4.0432119E-01;7373.6919;3;38.048512;0.0;-16.983215;0;0.59616625;  9.9873330E+03;  0.0000000E+00;  6.6423242E-04;  1.0000000E+04;  0.0000000E+00;  9.9753105E+03;0.44818571;0.0;0.14798053;11738.427
  9.0010232E-01;  9.9999998E-03; -2.4016361E-01;2427;0.075262092;0.0;-0.091527671;1009.0311;  4.0432075E-01;7470.3276;3;36.079792;0.0;-17.79044;0;0.64411181;  9.9877783E+03;  0.0000000E+00;  3.9932210E-04;  1.0000000E+04;  0.0000000E+00;  9.9771885E+03;0.43370956;0.0;0.21040224;10750.77
  9.0010059E-01;  9.9999998E-03; -2.2013110E-01;2428;0.075653493;0.0;-0.087336414;1009.1318;  4.0432048E-01;7553.6519;3;36.540199;0.0;-24.58806;0;0.66705751;  9.9883281E+03;  0.0000000E+00;  1.6155691E-04;  1.0000000E+04;  0.0000000E+00;  9.9786475E+03;0.41553673;0.0;0.25152081;9993.3164
  9.0009665E-01;  9.9999998E-03; -2.0010646E-01;2429;0.073146477;0.0;-0.078725189;1009.2382;  4.0432027E-01;7641.6104;3;35.932358;0.0;-27.40761;0;0.69597268;  9.9889502E+03;  0.0000000E+00;  3.4545112E-05;  1.0000000E+04;  0.0000000E+00;  9.9801396E+03;0.39440051;0.0;0.3015722;9209.7119
  9.2011142E-01;  9.9999998E-03; -3.0019471E-01;2455;0.078460574;0.0;-0.082569554;1008.5072;  4.0398809E-01;7033.1938;3;44.964176;0.0;-43.224407;0;0.46242675;  9.9892031E+03;  0.0000000E+00;  3.9620372E-04;  1.0000000E+04;  0.0000000E+00;  9.9818252E+03;0.38245365;0.0;0.079973109;8524.0303
  9.2011416E-01;  9.9999998E-03; -2.8018770E-01;2456;0.083185017;0.0;-0.076498583;1008.348;  4.0398824E-01;6901.5249;3;45.325066;0.0;-25.981228;0;0.40354997;  9.9895654E+03;  0.0000000E+00;  8.2761043E-04;  1.0000000E+04;  0.0000000E+00;  9.9783086E+03;0.37066925;0.0;0.032880716;10325.897
  9.2011386E-01;  9.9999998E-03; -2.6017851E-01;2457;0.083148032;0.0;-0.081758484;1008.3055;  4.0398809E-01;6866.3413;3;43.268265;0.0;-16.317492;0;0.49446309;  9.9900371E+03;  0.0000000E+00;  8.1776700E-04;  1.0000000E+04;  0.0000000E+00;  9.9770127E+03;0.35494381;0.0;0.13951927;10845.911
  9.2011470E-01;  9.9999998E-03; -2.4015151E-01;2458;0.08437667;0.0;-0.084747359;1008.4183;  4.0398782E-01;6959.6709;3;40.565842;0.0;-16.668541;0;0.53320217;  9.9906221E+03;  0.0000000E+00;  4.7734354E-04;  1.0000000E+04;  0.0000000E+00;  9.9786768E+03;0.33520174;0.0;0.1980004;9974.3193
  9.2011285E-01;  9.9999998E-03; -2.2012168E-01;2459;0.085041597;0.0;-0.08103364;1008.5187;  4.0398750E-01;7042.6538;3;41.052246;0.0;-22.475105;0;0.55045325;  9.9912881E+03;  0.0000000E+00;  1.8615868E-04;  1.0000000E+04;  0.0000000E+00;  9.9800020E+03;0.31219226;0.0;0.238261;9288.2666
  9.2010790E-01;  9.9999998E-03; -2.0009902E-01;2460;0.081836112;0.0;-0.073406324;1008.6246;  4.0398729E-01;7130.27;3;40.498253;0.0;-25.777536;0;0.57249844;  9.9919932E+03;  0.0000000E+00;  3.5966696E-05;  1.0000000E+04;  0.0000000E+00;  9.9814141E+03;0.28765783;0.0;0.28484061;8554.123
  9.4012010E-01;  9.9999998E-03; -3.0018017E-01;2486;0.085107781;0.0;-0.07693623;1007.7943;  4.0362811E-01;6438.9917;3;49.210541;0.0;-40.297829;0;0.37790844;  9.9915195E+03;  0.0000000E+00;  4.4282427E-04;  1.0000000E+04;  0.0000000E+00;  9.9831924E+03;0.30096364;0.0;0.076944806;7801.1064
  9.4012254E-01;  9.9999998E-03; -2.8017306E-01;2487;0.089977764;0.0;-0.071415827;1007.6592;  4.0362832E-01;6327.4121;3;49.818035;0.0;-24.743176;0;0.32127473;  9.9920215E+03;  0.0000000E+00;  9.9266577E-04;  1.0000000E+04;  0.0000000E+00;  9.9800137E+03;0.28458816;0.0;0.036686581;9410.8486
  9.4012213E-01;  9.9999998E-03; -2.6016364E-01;2488;0.089647606;0.0;-0.075562693;1007.6315;  4.0362814E-01;6304.4658;3;47.060757;0.0;-15.627526;0;0.39458907;  9.9926494E+03;  0.0000000E+00;  8.9911080E-04;  1.0000000E+04;  0.0000000E+00;  9.9788506E+03;0.26371258;0.0;0.1308765;9875.6748
  9.4012284E-01;  9.9999998E-03; -2.4013853E-01;2489;0.090551294;0.0;-0.077755138;1007.7416;  4.0362784E-01;6395.4614;3;43.769657;0.0;-15.656495;0;0.42341837;  9.9933877E+03;  0.0000000E+00;  4.9421249E-04;  1.0000000E+04;  0.0000000E+00;  9.9803057E+03;0.23867467;0.0;0.1847437;9119.4658
  9.4011873E-01;  9.9999998E-03; -2.2011150E-01;2490;0.089250483;0.0;-0.074538201;1007.8412;  4.0362769E-01;6477.793;3;43.009377;0.0;-21.013201;0;0.43459129;  9.9941885E+03;  0.0000000E+00;  1.8634024E-04;  1.0000000E+04;  0.0000000E+00;  9.9814932E+03;0.21115339;0.0;0.22343792;8510.3223
  9.4011158E-01;  9.9999998E-03; -2.0009103E-01;2491;0.084280446;0.0;-0.067663476;1007.9467;  4.0362749E-01;6564.9512;3;41.483143;0.0;-24.006409;0;0.45008051;  9.9949688E+03;  0.0000000E+00;  3.2208121E-05;  1.0000000E+04;  0.0000000E+00;  9.9828115E+03;0.18388677;0.0;0.26619375;7833.1206
  9.6012604E-01;  9.9999998E-03; -3.0016509E-01;2517;0.089805797;0.0;-0.071000561;1007.0334;  4.0325695E-01;5804.7168;3;52.282589;0.0;-37.132854;0;0.30533668;  9.9933848E+03;  0.0000000E+00;  4.1777286E-04;  1.0000000E+04;  0.0000000E+00;  9.9846182E+03;0.23231529;0.0;0.073021397;7038.918
  9.6012813E-01;  9.9999998E-03; -2.8015795E-01;2518;0.094465971;0.0;-0.065897971;1006.9236;  4.0325704E-01;5714.0068;3;52.700527;0.0;-23.16469;0;0.2487382;  9.9940459E+03;  0.0000000E+00;  3.3016072E-03;  1.0000000E+04;  0.0000000E+00;  9.9817734E+03;0.21127793;0.0;0.037460264;8460.5938
  9.6012729E-01;  9.9999998E-03; -2.6014856E-01;2519;0.093960375;0.0;-0.069292121;1006.9099;  4.0325701E-01;5702.791;3;49.504715;0.0;-14.752254;0;0.30804288;  9.9948457E+03;  0.0000000E+00;  3.0141438E-03;  1.0000000E+04;  0.0000000E+00;  9.9807227E+03;0.18540989;0.0;0.122633;8877.002
  9.6012592E-01;  9.9999998E-03; -2.4012549E-01;2520;0.093414903;0.0;-0.071185723;1007.0182;  4.0325674E-01;5792.124;3;45.645554;0.0;-14.877275;0;0.32868069;  9.9957461E+03;  0.0000000E+00;  1.2589924E-03;  1.0000000E+04;  0.0000000E+00;  9.9819814E+03;0.15575638;0.0;0.17292431;8229.1279
  9.6011925E-01;  9.9999998E-03; -2.2010104E-01;2521;0.08968237;0.0;-0.068187751;1007.1181;  4.0325657E-01;5874.5713;3;43.637905;0.0;-20.434376;0;0.33282197;  9.9966680E+03;  0.0000000E+00;  2.3976738E-04;  1.0000000E+04;  0.0000000E+00;  9.9830469E+03;0.1247851;0.0;0.20803687;7690.4839
  9.6011126E-01;  9.9999998E-03; -2.0008275E-01;2522;0.084023722;0.0;-0.061709929;1007.222;  4.0325648E-01;5960.2661;3;41.469013;0.0;-22.200981;0;0.34235007;  9.9975146E+03;  0.0000000E+00;  2.5631416E-05;  1.0000000E+04;  0.0000000E+00;  9.9842695E+03;0.095809519;0.0;0.24654053;7075.0791
  9.8013103E-01;  9.9999998E-03; -3.0014983E-01;2548;0.093699977;0.0;-0.064862445;1006.2554;  4.0288904E-01;5155.6768;3;54.980652;0.0;-33.941994;0;0.24685556;  9.9946641E+03;  0.0000000E+00;  2.3894904E-04;  1.0000000E+04;  0.0000000E+00;  9.9861338E+03;0.18161933;0.0;0.065236218;6229.5596
  9.8013228E-01;  9.9999998E-03; -2.8014278E-01;2549;0.097806051;0.0;-0.060152031;1006.1668;  4.0288901E-01;5082.6743;3;54.68277;0.0;-21.371571;0;0.19227399;  9.9954912E+03;  0.0000000E+00;  1.1752476E-02;  1.0000000E+04;  0.0000000E+00;  9.9835518E+03;0.15641192;0.0;0.03586207;7495.0605
  9.8013026E-01;  9.9999998E-03; -2.6013368E-01;2550;0.096728452;0.0;-0.063084349;1006.1644;  4.0288889E-01;5080.6123;3;50.826191;0.0;-13.750382;0;0.24142459;  9.9964561E+03;  0.0000000E+00;  1.1915573E-02;  1.0000000E+04;  0.0000000E+00;  9.9825508E+03;0.12623188;0.0;0.1151927;7885.4453
  9.8012608E-01;  9.9999998E-03; -2.4011268E-01;2551;0.094056472;0.0;-0.065032125;1006.2707;  4.0288880E-01;5168.2549;3;46.220467;0.0;-14.617673;0;0.25571382;  9.9974980E+03;  0.0000000E+00;  5.9788036E-03;  1.0000000E+04;  0.0000000E+00;  9.9836309E+03;0.093190424;0.0;0.16252339;7336.6343
  9.8011786E-01;  9.9999998E-03; -2.2009057E-01;2552;0.088902026;0.0;-0.061666865;1006.3704;  4.0288869E-01;5250.3965;3;43.656017;0.0;-19.468937;0;0.25269142;  9.9985186E+03;  0.0000000E+00;  1.5941670E-03;  1.0000000E+04;  0.0000000E+00;  9.9845918E+03;0.060137756;0.0;0.19255367;6863.7612
  9.8010933E-01;  9.9999998E-03; -2.0007454E-01;2553;0.082862809;0.0;-0.055853955;1006.4719;  4.0288857E-01;5334.1113;3;41.199352;0.0;-20.499935;0;0.25724813;  9.9994209E+03;  0.0000000E+00;  1.5144210E-04;  1.0000000E+04;  0.0000000E+00;  9.9857109E+03;0.030416269;0.0;0.22683187;6311.3389
  1.0001369E+00;  9.9999998E-03; -3.0013469E-01;2579;0.097915724;0.0;-0.058624517;1005.496;  4.0253621E-01;4521.6875;3;57.923477;0.0;-30.843197;0;0.20003669;  9.9954258E+03;  0.0000000E+00; -1.9624992E-03;  1.0000000E+04;  0.0000000E+00;  9.9877891E+03;0.14785418;0.0;0.05218251;5357.9756
  1.0001363E+00;  9.9999998E-03; -2.8012788E-01;2580;0.10052102;0.0;-0.054410249;1005.4224;  4.0253633E-01;4461.0771;3;55.802261;0.0;-19.754011;0;0.15156317;  9.9964072E+03;  0.0000000E+00;  2.5393629E-02;  1.0000000E+04;  0.0000000E+00;  9.9853525E+03;0.1193615;0.0;0.032201666;6513.1343
  1.0001321E+00;  9.9999998E-03; -2.6011935E-01;2581;0.09821973;0.0;-0.057071254;1005.4241;  4.0253615E-01;4462.4526;3;50.963383;0.0;-13.170862;0;0.19423756;  9.9975137E+03;  0.0000000E+00;  2.7604364E-02;  1.0000000E+04;  0.0000000E+00;  9.9842881E+03;0.085851572;0.0;0.10838598;6925.6201
  1.0001252E+00;  9.9999998E-03; -2.4010034E-01;2582;0.093710721;0.0;-0.058950588;1005.5265;  4.0253603E-01;4546.8008;3;46.368866;0.0;-14.627114;0;0.20392573;  9.9986582E+03;  0.0000000E+00;  1.4743615E-02;  1.0000000E+04;  0.0000000E+00;  9.9851836E+03;0.050879478;0.0;0.15304625;6476.4585
  1.0001154E+00;  9.9999998E-03; -2.2008058E-01;2583;0.087457463;0.0;-0.055273585;1005.6239;  4.0253606E-01;4626.9336;3;43.431034;0.0;-18.132692;0;0.19555953;  9.9997383E+03;  0.0000000E+00;  4.2008609E-03;  1.0000000E+04;  0.0000000E+00;  9.9860430E+03;0.017308924;0.0;0.17825061;6067.4238
  1.0001065E+00;  9.9999998E-03; -2.0006680E-01;2584;0.081209518;0.0;-0.050394088;1005.7222;  4.0253580E-01;4707.8506;3;40.849026;0.0;-19.019114;0;0.19608685;  1.0000666E+04;  0.0000000E+00;  4.4581897E-04;  1.0000000E+04;  0.0000000E+00;  9.9870732E+03;-0.01209455;0.0;0.2081814;5574.9839
  1.0201452E+00;  9.9999998E-03; -3.0012012E-01;2610;0.10334235;0.0;-0.052416217;1004.7855;  4.0220815E-01;3927.5894;3;61.707012;0.0;-27.810083;0;0.16101737;  9.9958408E+03;  0.0000000E+00; -5.6653251E-03;  1.0000000E+04;  0.0000000E+00;  9.9895420E+03;0.12708831;0.0;0.033929069;4451.8354
  1.0201410E+00;  9.9999998E-03; -2.8011376E-01;2611;0.10277934;0.0;-0.049142484;1004.7204;  4.0220830E-01;3874.269;3;56.475769;0.0;-18.65152;0;0.12541854;  9.9969863E+03;  0.0000000E+00;  3.1387255E-02;  1.0000000E+04;  0.0000000E+00;  9.9871045E+03;0.094823584;0.0;0.030594965;5550.1851
  1.0201337E+00;  9.9999998E-03; -2.6010615E-01;2612;0.098998591;0.0;-0.051474947;1004.7188;  4.0220839E-01;3872.9031;3;50.562309;0.0;-12.555758;0;0.16402072;  9.9982109E+03;  0.0000000E+00;  3.6606550E-02;  1.0000000E+04;  0.0000000E+00;  9.9858467E+03;0.059018701;0.0;0.10500202;6035.8125
  1.0201238E+00;  9.9999998E-03; -2.4008916E-01;2613;0.093114272;0.0;-0.052854281;1004.814;  4.0220824E-01;3951.0825;3;46.672363;0.0;-14.05001;0;0.16899963;  9.9994053E+03;  0.0000000E+00;  1.7669909E-02;  1.0000000E+04;  0.0000000E+00;  9.9865537E+03;0.023695817;0.0;0.14530382;5688.7163
  1.0201126E+00;  9.9999998E-03; -2.2007187E-01;2614;0.085898511;0.0;-0.049557459;1004.9067;  4.0220812E-01;4027.2087;3;43.289009;0.0;-16.729311;0;0.15819308;  1.0000479E+04;  0.0000000E+00;  2.0175292E-03;  1.0000000E+04;  0.0000000E+00;  9.9873232E+03;-0.0085887853;0.0;0.16678187;5336.1514
  1.0201033E+00;  9.9999998E-03; -2.0005986E-01;2615;0.079486668;0.0;-0.045388296;1005.0005;  4.0220809E-01;4104.1167;3;40.601017;0.0;-17.519686;0;0.1554538;  1.0001383E+04;  0.0000000E+00; -1.7298063E-03;  1.0000000E+04;  0.0000000E+00;  9.9882881E+03;-0.036245111;0.0;0.19169891;4894.5137
  1.0401576E+00;  9.9999998E-03; -3.0010805E-01;2641;0.1105575;0.0;-0.047510453;1004.1157;  4.0191174E-01;3367.0537;3;66.715973;0.0;-24.890493;0;0.14791536;  9.9959258E+03;  0.0000000E+00;  8.7153232E-03;  1.0000000E+04;  0.0000000E+00;  9.9908691E+03;0.11820626;0.0;0.029709101;3725.8701
  1.0401478E+00;  9.9999998E-03; -2.8010178E-01;2642;0.10572828;0.0;-0.04459225;1004.0723;  4.0191180E-01;3331.5605;3;57.698002;0.0;-17.12145;0;0.11185133;  9.9974063E+03;  0.0000000E+00;  2.3836121E-03;  1.0000000E+04;  0.0000000E+00;  9.9885283E+03;0.077235453;0.0;0.034615882;4726.3018
  1.0401360E+00;  9.9999998E-03; -2.6009461E-01;2643;0.099803276;0.0;-0.046302941;1004.0725;  4.0191185E-01;3331.7629;3;50.957054;0.0;-12.13374;0;0.14226888;  9.9987783E+03;  0.0000000E+00;  1.0162807E-02;  1.0000000E+04;  0.0000000E+00;  9.9871572E+03;0.038920749;0.0;0.10334814;5245.9082
  1.0401227E+00;  9.9999998E-03; -2.4007986E-01;2644;0.092511363;0.0;-0.047218889;1004.1577;  4.0191188E-01;3401.4043;3;47.022331;0.0;-12.951859;0;0.14575595;  9.9999639E+03;  0.0000000E+00; -6.4565619E-03;  1.0000000E+04;  0.0000000E+00;  9.9876660E+03;0.0048105316;0.0;0.14094542;5000.4419
  1.0401100E+00;  9.9999998E-03; -2.2006465E-01;2645;0.084517293;0.0;-0.044526339;1004.2432;  4.0191177E-01;3471.436;3;43.320004;0.0;-15.396844;0;0.13479447;  1.0000941E+04;  0.0000000E+00; -1.8788911E-02;  1.0000000E+04;  0.0000000E+00;  9.9883936E+03;-0.024087194;0.0;0.15888166;4686.5039
  1.0401000E+00;  9.9999998E-03; -2.0005350E-01;2646;0.077509888;0.0;-0.040651433;1004.3297;  4.0191171E-01;3542.1492;3;40.113117;0.0;-16.173191;0;0.12994348;  1.0001737E+04;  0.0000000E+00; -1.3613664E-02;  1.0000000E+04;  0.0000000E+00;  9.9893193E+03;-0.048144534;0.0;0.17808801;4285.0791
  1.0601709E+00;  9.9999998E-03; -3.0009931E-01;2672;0.11827902;0.0;-0.044538457;1003.4706;  4.0165070E-01;2827.0601;3;72.30442;0.0;-21.986877;0;0.18121898;  9.9955264E+03;  0.0000000E+00;  1.0463595E-01;  1.0000000E+04;  0.0000000E+00;  9.9914229E+03;0.12571216;0.0;0.055506822;3311.3118
  1.0601553E+00;  9.9999998E-03; -2.8009269E-01;2673;0.10964158;0.0;-0.041449953;1003.4805;  4.0165085E-01;2835.2278;3;60.736042;0.0;-15.74022;0;0.11828692;  9.9977100E+03;  0.0000000E+00; -7.9229511E-02;  1.0000000E+04;  0.0000000E+00;  9.9894268E+03;0.065250434;0.0;0.053036489;4121.7534
  1.0601388E+00;  9.9999998E-03; -2.6008561E-01;2674;0.10131102;0.0;-0.042082105;1003.496;  4.0165073E-01;2847.863;3;52.511002;0.0;-11.877869;0;0.12940428;  9.9993320E+03;  0.0000000E+00; -8.3067216E-02;  1.0000000E+04;  0.0000000E+00;  9.9881094E+03;0.021671697;0.0;0.10773257;4607.957
  1.0601220E+00;  9.9999998E-03; -2.4007268E-01;2675;0.09226995;0.0;-0.042231694;1003.5746;  4.0165076E-01;2911.8691;3;47.667633;0.0;-11.858384;0;0.12881322;  1.0000493E+04;  0.0000000E+00; -8.0261894E-02;  1.0000000E+04;  0.0000000E+00;  9.9885156E+03;-0.011055979;0.0;0.1398692;4424.457
  1.0601077E+00;  9.9999998E-03; -2.2005884E-01;2676;0.083534829;0.0;-0.039858226;1003.6515;  4.0165082E-01;2974.5137;3;43.915558;0.0;-13.19903;0;0.11968642;  1.0001287E+04;  0.0000000E+00; -7.4393637E-02;  1.0000000E+04;  0.0000000E+00;  9.9892510E+03;-0.034725334;0.0;0.15441176;4125.4839
  1.0600966E+00;  9.9999998E-03; -2.0004816E-01;2677;0.075635627;0.0;-0.036475617;1003.7272;  4.0165073E-01;3036.186;3;40.065243;0.0;-14.673063;0;0.11470407;  1.0001892E+04;  0.0000000E+00; -4.5886796E-02;  1.0000000E+04;  0.0000000E+00;  9.9901523E+03;-0.053221647;0.0;0.16792572;3752.9316
  1.0801803E+00;  9.9999998E-03; -3.0009201E-01;2703;0.12347907;0.0;-0.041779999;1002.8933;  4.0142649E-01;2343.4346;3;77.143799;0.0;-19.687859;0;0.22146299;  9.9947080E+03;  0.0000000E+00;  3.7999445E-01;  1.0000000E+04;  0.0000000E+00;  9.9918975E+03;0.14614452;0.0;0.075318471;3213.7534
  1.0801610E+00;  9.9999998E-03; -2.8008553E-01;2704;0.11288744;0.0;-0.038786236;1002.9622;  4.0142664E-01;2399.1609;3;64.333565;0.0;-14.961361;0;0.13076994;  9.9978525E+03;  0.0000000E+00; -1.6790251E-01;  1.0000000E+04;  0.0000000E+00;  9.9901152E+03;0.059857883;0.0;0.070912056;3627.1941
  1.0801415E+00;  9.9999998E-03; -2.6007852E-01;2705;0.10283618;0.0;-0.038151771;1002.9988;  4.0142649E-01;2428.9148;3;54.625233;0.0;-11.28536;0;0.11806936;  9.9998379E+03;  0.0000000E+00; -2.4118987E-01;  1.0000000E+04;  0.0000000E+00;  9.9888643E+03;0.007086128;0.0;0.11098323;4125.3213
  1.0801221E+00;  9.9999998E-03; -2.4006720E-01;2706;0.09247528;0.0;-0.037637994;1003.073;  4.0142658E-01;2488.9871;3;48.595142;0.0;-10.587639;0;0.11411017;  1.0001012E+04;  0.0000000E+00; -2.1231836E-01;  1.0000000E+04;  0.0000000E+00;  9.9891631E+03;-0.025471341;0.0;0.13958152;3978.6626
  1.0801061E+00;  9.9999998E-03; -2.2005445E-01;2707;0.082833305;0.0;-0.035569336;1003.1401;  4.0142649E-01;2543.3608;3;44.246605;0.0;-11.26375;0;0.10861908;  1.0001587E+04;  0.0000000E+00; -1.7424446E-01;  1.0000000E+04;  0.0000000E+00;  9.9899199E+03;-0.043430861;0.0;0.15204994;3670.0771
  1.0800937E+00;  9.9999998E-03; -2.0004390E-01;2708;0.074160933;0.0;-0.03251731;1003.202;  4.0142661E-01;2593.5801;3;40.221523;0.0;-12.477367;0;0.10585676;  1.0001931E+04;  0.0000000E+00; -1.0898169E-01;  1.0000000E+04;  0.0000000E+00;  9.9908076E+03;-0.054973949;0.0;0.16083071;3301.7976
  1.1001630E+00;  9.9999998E-03; -2.8007931E-01;2734;0.11438502;0.0;-0.036222767;1002.5323;  4.0123856E-01;2035.6498;3;68.255661;0.0;-14.433761;0;0.14238368;  9.9978408E+03;  0.0000000E+00; -1.3580957E-01;  1.0000000E+04;  0.0000000E+00;  9.9909326E+03;0.060924318;0.0;0.081459366;3032.563
  1.1001433E+00;  9.9999998E-03; -2.6007259E-01;2735;0.10379512;0.0;-0.034428895;1002.5844;  4.0123850E-01;2077.5437;3;57.233322;0.0;-10.648413;0;0.1058184;  1.0000144E+04;  0.0000000E+00; -4.0000668E-01;  1.0000000E+04;  0.0000000E+00;  9.9896602E+03;-0.0018733449;0.0;0.10769174;3717.2458
  1.1001230E+00;  9.9999998E-03; -2.4006300E-01;2736;0.093120068;0.0;-0.033644546;1002.6494;  4.0123853E-01;2129.7883;3;50.045002;0.0;-9.5270147;0;0.10224989;  1.0001389E+04;  0.0000000E+00; -3.8671166E-01;  1.0000000E+04;  0.0000000E+00;  9.9897100E+03;-0.035806108;0.0;0.138056;3671.6143
  1.1001054E+00;  9.9999998E-03; -2.2005118E-01;2737;0.082524776;0.0;-0.03164101;1002.7086;  4.0123865E-01;2177.3359;3;44.83638;0.0;-9.5475874;0;0.099713519;  1.0001812E+04;  0.0000000E+00; -3.1395373E-01;  1.0000000E+04;  0.0000000E+00;  9.9904600E+03;-0.050384376;0.0;0.15009789;3337.0476
  1.1000917E+00;  9.9999998E-03; -2.0004065E-01;2738;0.073097549;0.0;-0.028878747;1002.7563;  4.0123856E-01;2215.6807;3;40.354149;0.0;-10.486774;0;0.10081206;  1.0001896E+04;  0.0000000E+00; -2.0818877E-01;  1.0000000E+04;  0.0000000E+00;  9.9913252E+03;-0.055055972;0.0;0.15586804;2941.6523
  1.1201619E+00;  9.9999998E-03; -2.8007415E-01;2763;0.11404926;0.0;-0.034302957;1002.1776;  4.0108427E-01;1733.1953;3;71.95298;0.0;-14.267619;0;0.16050275;  9.9975820E+03;  0.0000000E+00;  1.3019054E-01;  1.0000000E+04;  0.0000000E+00;  9.9917949E+03;0.068838082;0.0;0.091664664;2461.0239
  1.1201441E+00;  9.9999998E-03; -2.6006791E-01;2764;0.10428268;0.0;-0.031799562;1002.237;  4.0108433E-01;1780.464;3;60.581409;0.0;-10.561909;0;0.10629653;  1.0000043E+04;  0.0000000E+00; -4.5331481E-01;  1.0000000E+04;  0.0000000E+00;  9.9905176E+03;0.00029986224;0.0;0.10599667;3193.7766
  1.1201248E+00;  9.9999998E-03; -2.4005975E-01;2765;0.093913078;0.0;-0.03037039;1002.2929;  4.0108436E-01;1824.9836;3;52.087925;0.0;-8.6738157;0;0.096228324;  1.0001412E+04;  0.0000000E+00; -5.5721486E-01;  1.0000000E+04;  0.0000000E+00;  9.9902598E+03;-0.037509821;0.0;0.13373815;3419.4077
  1.1201060E+00;  9.9999998E-03; -2.2004899E-01;2766;0.082846917;0.0;-0.02834348;1002.3494;  4.0108427E-01;1869.9781;3;45.874416;0.0;-8.2528172;0;0.093746342;  1.0001873E+04;  0.0000000E+00; -4.7645789E-01;  1.0000000E+04;  0.0000000E+00;  9.9909180E+03;-0.053283609;0.0;0.14702995;3109.5576
  1.1200906E+00;  9.9999998E-03; -2.0003840E-01;2767;0.072515577;0.0;-0.025616946;1002.3873;  4.0108436E-01;1900.1677;3;40.775902;0.0;-8.5319777;0;0.097501874;  1.0001791E+04;  0.0000000E+00; -3.4082192E-01;  1.0000000E+04;  0.0000000E+00;  9.9917588E+03;-0.054081142;0.0;0.15158302;2681.02
  1.1401436E+00;  9.9999998E-03; -2.6006454E-01;2792;0.10411809;0.0;-0.030359475;1001.9386;  4.0096074E-01;1523.1952;3;64.427986;0.0;-11.153822;0;0.12663548;  9.9994141E+03;  0.0000000E+00; -2.7270246E-01;  1.0000000E+04;  0.0000000E+00;  9.9913535E+03;0.017270427;0.0;0.10936505;2414.801
  1.1401266E+00;  9.9999998E-03; -2.4005754E-01;2793;0.094557665;0.0;-0.02822154;1001.9885;  4.0096062E-01;1562.3671;3;54.845177;0.0;-8.4351768;0;0.10305651;  1.0000924E+04;  0.0000000E+00; -6.3710868E-01;  1.0000000E+04;  0.0000000E+00;  9.9908379E+03;-0.026239056;0.0;0.12929556;3026.9822
  1.1401081E+00;  9.9999998E-03; -2.2004811E-01;2794;0.083939359;0.0;-0.026167581;1002.0458;  4.0096065E-01;1607.4426;3;47.720215;0.0;-7.5498166;0;0.09647546;  1.0001604E+04;  0.0000000E+00; -6.3488269E-01;  1.0000000E+04;  0.0000000E+00;  9.9912949E+03;-0.047594823;0.0;0.14407028;2918.6272
  1.1400911E+00;  9.9999998E-03; -2.0003748E-01;2795;0.072780699;0.0;-0.0231483;1002.0866;  4.0096065E-01;1639.5914;3;41.69059;0.0;-7.1581688;0;0.095942825;  1.0001584E+04;  0.0000000E+00; -4.9418852E-01;  1.0000000E+04;  0.0000000E+00;  9.9921289E+03;-0.051081765;0.0;0.14702459;2501.2644
  1.1601419E+00;  9.9999998E-03; -2.6006192E-01;2819;0.10289086;0.0;-0.029537991;1001.6821;  4.0086362E-01;1299.9716;3;68.015884;0.0;-12.064436;0;0.16015476;  9.9983281E+03;  0.0000000E+00;  2.3655304E-01;  1.0000000E+04;  0.0000000E+00;  9.9921602E+03;0.0457865;0.0;0.11436827;1870.8218
  1.1601280E+00;  9.9999998E-03; -2.4005637E-01;2820;0.095060945;0.0;-0.027437527;1001.7192;  4.0086368E-01;1328.6396;3;58.549179;0.0;-9.2664642;0;0.13224483;  9.9998369E+03;  0.0000000E+00; -5.0200939E-01;  1.0000000E+04;  0.0000000E+00;  9.9913896E+03;0.0016007532;0.0;0.13064407;2326.4321
  1.1601113E+00;  9.9999998E-03; -2.2004826E-01;2821;0.085406974;0.0;-0.02501386;1001.7794;  4.0086365E-01;1375.1846;3;50.407059;0.0;-7.4658012;0;0.11344288;  1.0000817E+04;  0.0000000E+00; -7.2432697E-01;  1.0000000E+04;  0.0000000E+00;  9.9916123E+03;-0.028259374;0.0;0.14170225;2612.0093
  1.1600939E+00;  9.9999998E-03; -2.0003828E-01;2822;0.074401006;0.0;-0.021968491;1001.8347;  4.0086374E-01;1417.9548;3;43.498932;0.0;-6.5932655;0;0.10272366;  1.0001130E+04;  0.0000000E+00; -6.4474094E-01;  1.0000000E+04;  0.0000000E+00;  9.9923994E+03;-0.040989678;0.0;0.14371334;2343.9097
  1.1801277E+00;  9.9999998E-03; -2.4005541E-01;2846;0.094396614;0.0;-0.027047902;1001.4902;  4.0078908E-01;1127.7104;3;62.273075;0.0;-10.4758;0;0.17075023;  9.9983955E+03;  0.0000000E+00; -4.4803279E-03;  1.0000000E+04;  0.0000000E+00;  9.9919785E+03;0.03915542;0.0;0.13159481;1555.0175
  1.1801144E+00;  9.9999998E-03; -2.2004904E-01;2847;0.086563498;0.0;-0.02480296;1001.5382;  4.0078908E-01;1163.9929;3;53.762783;0.0;-8.1924381;0;0.14932825;  9.9994395E+03;  0.0000000E+00; -6.0179514E-01;  1.0000000E+04;  0.0000000E+00;  9.9918926E+03;0.0075290212;0.0;0.14179923;2005.5833
  1.1800985E+00;  9.9999998E-03; -2.0004036E-01;2848;0.076691099;0.0;-0.02196707;1001.6072;  4.0078914E-01;1216.2478;3;46.181618;0.0;-6.8059654;0;0.12656671;  1.0000162E+04;  0.0000000E+00; -7.3190832E-01;  1.0000000E+04;  0.0000000E+00;  9.9925459E+03;-0.016659014;0.0;0.14322571;2086.7534
  1.2001157E+00;  9.9999998E-03; -2.2004944E-01;2871;0.086492166;0.0;-0.02474935;1001.333;  4.0073302E-01;982.71631;3;57.401482;0.0;-9.3686733;0;0.19165792;  9.9977705E+03;  0.0000000E+00; -8.4524237E-02;  1.0000000E+04;  0.0000000E+00;  9.9922598E+03;0.051511407;0.0;0.14014651;1253.0111
  1.2001034E+00;  9.9999998E-03; -2.0004259E-01;2872;0.078717873;0.0;-0.022501636;1001.3924;  4.0073299E-01;1026.5009;3;49.747925;0.0;-7.7016034;0;0.16962308;  9.9985566E+03;  0.0000000E+00; -6.0529894E-01;  1.0000000E+04;  0.0000000E+00;  9.9926592E+03;0.025526265;0.0;0.14409681;1564.5387
  1.2201134E+00;  9.9999998E-03; -2.2004853E-01;2894;0.08363793;0.0;-0.023691274;1001.204;  4.0069160E-01;859.88635;3;59.570873;0.0;-9.8072758;0;0.19917363;  9.9966934E+03;  0.0000000E+00;  7.9118186E-01;  1.0000000E+04;  0.0000000E+00;  9.9928252E+03;0.072984353;0.0;0.12618928;1428.9596
  1.2201059E+00;  9.9999998E-03; -2.0004408E-01;2895;0.079117313;0.0;-0.022943031;1001.2121;  4.0069172E-01;865.68695;3;53.382252;0.0;-8.948987;0;0.214195;  9.9968408E+03;  0.0000000E+00; -8.2022496E-02;  1.0000000E+04;  0.0000000E+00;  9.9928418E+03;0.070553884;0.0;0.14364111;933.39044
 -1.1714914E-07;  9.9999998E-03; -1.8000001E-01;1036;-0.00017994268;0.0;-2.1444406e-05;1000.0028;  4.0000001E-01;2.3703029;3;-0.22527096;0.0;-0.025891732;0;-0.0035495395;  1.0000057E+04;  0.0000000E+00; -2.0569996E-10;  1.0000000E+04;  0.0000000E+00;  9.9999980E+03;-0.003691989;0.0;0.00014244941;1.0557016
 -1.2108194E-07;  9.9999998E-03; -1.6000001E-01;1037;-0.00018549553;0.0;-1.7089864e-05;1000.0029;  4.0000001E-01;2.3703029;3;-0.23160318;0.0;-0.020146357;0;-0.0036710198;  1.0000061E+04;  0.0000000E+00; -5.8694417E-11;  1.0000000E+04;  0.0000000E+00;  9.9999980E+03;-0.0038106795;0.0;0.00013965984;1.0550416
 -1.2380363E-07;  9.9999998E-03; -1.4000002E-01;1038;-0.00018911902;0.0;-1.3399816e-05;1000.0029;  4.0000001E-01;2.4690657;3;-0.23549041;0.0;-0.015327657;0;-0.0037597588;  1.0000061E+04;  0.0000000E+00; -4.5156261E-11;  1.0000000E+04;  0.0000000E+00;  9.9999990E+03;-0.0038879341;0.0;0.00012817528;1.0013976
 -1.2564594E-07;  9.9999998E-03; -1.2000000E-01;1039;-0.00019136528;0.0;-1.0246755e-05;1000.003;  4.0000001E-01;2.4690657;3;-0.23762965;0.0;-0.011295874;0;-0.0038218945;  1.0000062E+04;  0.0000000E+00;  7.6896033E-12;  1.0000000E+04;  0.0000000E+00;  9.9999990E+03;-0.003935243;0.0;0.00011334845;0.92661017
 -1.2685157E-07;  9.9999998E-03; -1.0000001E-01;1040;-0.00019265531;0.0;-7.6288125e-06;1000.0031;  4.0000001E-01;2.5678282;3;-0.23859945;0.0;-0.0080555817;0;-0.0038636993;  1.0000063E+04;  0.0000000E+00;  1.2621010E-11;  1.0000000E+04;  0.0000000E+00;  9.9999990E+03;-0.003961836;0.0;9.813669e-05;0.84781504
 -1.2760988E-07;  9.9999998E-03; -8.0000006E-02;1041;-0.00019331569;0.0;-5.5141968e-06;1000.0031;  4.0000001E-01;2.5678282;3;-0.23884633;0.0;-0.0055779405;0;-0.0038907479;  1.0000063E+04;  0.0000000E+00;  1.3859442E-11;  1.0000000E+04;  0.0000000E+00;  1.0000000E+04;-0.0039750109;0.0;8.4262945e-05;0.77488148
 -1.2807125E-07;  9.9999998E-03; -6.0000002E-02;1042;-0.00019361159;0.0;-3.7623822e-06;1000.0031;  4.0000001E-01;2.5678282;3;-0.23874122;0.0;-0.0036417018;0;-0.003907491;  1.0000064E+04;  0.0000000E+00; -8.0653435E-12;  1.0000000E+04;  0.0000000E+00;  1.0000000E+04;-0.0039802552;0.0;7.2764044e-05;0.71378851
 -1.2833443E-07;  9.9999998E-03; -4.0000003E-02;1043;-0.0001937098;0.0;-2.3347275e-06;1000.0031;  4.0000001E-01;2.5678282;3;-0.23850706;0.0;-0.0021885084;0;-0.0039172387;  1.0000065E+04;  0.0000000E+00; -7.6487315E-12;  1.0000000E+04;  0.0000000E+00;  1.0000000E+04;-0.0039814687;0.0;6.4230175e-05;0.66806155
 -1.2846657E-07;  9.9999998E-03; -2.0000001E-02;1044;-0.00019372621;0.0;-1.1143462e-06;1000.0031;  4.0000001E-01;2.5678282;3;-0.23830929;0.0;-0.0010192477;0;-0.0039222352;  1.0000065E+04;  0.0000000E+00;  1.8736870E-12;  1.0000000E+04;  0.0000000E+00;  1.0000000E+04;-0.0039812294;0.0;5.8994156e-05;0.63982856
  1.9999826E-02;  9.9999998E-03; -1.8000002E-01;1066;-0.00026281737;0.0;-2.9910068e-05;1000.0035;  4.0000001E-01;2.8641162;3;-0.31148455;0.0;-0.033790633;0;-0.0044277064;  1.0000073E+04;  0.0000000E+00;  4.1483279E-11;  1.0000000E+04;  0.0000000E+00;  9.9999971E+03;-0.0046278615;0.0;0.00020015497;1.4883084
  1.9999823E-02;  9.9999998E-03; -1.6000001E-01;1067;-0.00027023378;0.0;-2.3967821e-05;1000.0037;  4.0000001E-01;3.0616415;3;-0.31929535;0.0;-0.026395941;0;-0.0045657987;  1.0000077E+04;  0.0000000E+00; -2.8500223E-11;  1.0000000E+04;  0.0000000E+00;  9.9999971E+03;-0.004761307;0.0;0.00019550849;1.481122
  1.9999819E-02;  9.9999998E-03; -1.4000002E-01;1068;-0.00027487261;0.0;-1.891126e-05;1000.0037;  4.0000001E-01;3.0616415;3;-0.32376635;0.0;-0.020204486;0;-0.0046654823;  1.0000077E+04;  0.0000000E+00; -4.1155683E-11;  1.0000000E+04;  0.0000000E+00;  9.9999980E+03;-0.0048447507;0.0;0.00017926838;1.4018488
  1.9999815E-02;  9.9999998E-03; -1.2000001E-01;1069;-0.00027762417;0.0;-1.4481786e-05;1000.0038;  4.0000001E-01;3.160404;3;-0.32597661;0.0;-0.014905721;0;-0.0047340789;  1.0000078E+04;  0.0000000E+00;  2.9303157E-11;  1.0000000E+04;  0.0000000E+00;  9.9999980E+03;-0.0048927385;0.0;0.00015865947;1.2944158
  1.9999813E-02;  9.9999998E-03; -1.0000001E-01;1070;-0.00027905119;0.0;-1.0856406e-05;1000.0039;  4.0000001E-01;3.2591665;3;-0.32665962;0.0;-0.010718747;0;-0.0047793481;  1.0000079E+04;  0.0000000E+00; -2.1735143E-11;  1.0000000E+04;  0.0000000E+00;  9.9999980E+03;-0.004916843;0.0;0.00013749496;1.1813692
  1.9999813E-02;  9.9999998E-03; -8.0000006E-02;1071;-0.00027965798;0.0;-7.8832427e-06;1000.004;  4.0000001E-01;3.2591665;3;-0.32648396;0.0;-0.0074481131;0;-0.004807991;  1.0000080E+04;  0.0000000E+00; -1.0812227E-11;  1.0000000E+04;  0.0000000E+00;  9.9999990E+03;-0.0049261469;0.0;0.0001181558;1.0766587
  1.9999813E-02;  9.9999998E-03; -6.0000002E-02;1072;-0.00027981636;0.0;-5.4223883e-06;1000.004;  4.0000001E-01;3.2591665;3;-0.32593197;0.0;-0.0049240855;0;-0.0048252637;  1.0000080E+04;  0.0000000E+00; -1.2489529E-12;  1.0000000E+04;  0.0000000E+00;  9.9999990E+03;-0.0049273688;0.0;0.00010210522;0.98891139
  1.9999813E-02;  9.9999998E-03; -4.0000003E-02;1073;-0.00027976767;0.0;-3.3903154e-06;1000.004;  4.0000001E-01;3.2591665;3;-0.32532299;0.0;-0.0029890139;0;-0.0048350384;  1.0000080E+04;  0.0000000E+00; -4.4456938E-12;  1.0000000E+04;  0.0000000E+00;  1.0000000E+04;-0.0049252254;0.0;9.0186732e-05;0.92325073
  1.9999811E-02;  9.9999998E-03; -2.0000001E-02;1074;-0.0002796801;0.0;-1.6218171e-06;1000.004;  4.0000001E-01;3.2591665;3;-0.32488179;0.0;-0.0013947675;0;-0.0048399176;  1.0000080E+04;  0.0000000E+00; -7.7553036E-13;  1.0000000E+04;  0.0000000E+00;  1.0000000E+04;-0.0049227909;0.0;8.2873114e-05;0.88273233
  3.9999753E-02;  9.9999998E-03; -1.8000002E-01;1097;-0.00037270051;0.0;-3.7151884e-05;1000.0043;  4.0000001E-01;3.5554545;3;-0.42137685;0.0;-0.039061829;0;-0.0053625763;  1.0000093E+04;  0.0000000E+00;  5.2137555E-11;  1.0000000E+04;  0.0000000E+00;  9.9999971E+03;-0.005624292;0.0;0.0002617157;1.9806256
  3.9999746E-02;  9.9999998E-03; -1.6000003E-01;1098;-0.000382253;0.0;-2.9919094e-05;1000.0044;  4.0000001E-01;3.654217;3;-0.43072161;0.0;-0.030649591;0;-0.005510008;  1.0000094E+04;  0.0000000E+00; -4.7600760E-11;  1.0000000E+04;  0.0000000E+00;  9.9999971E+03;-0.0057643717;0.0;0.00025436358;1.9613525
  3.9999738E-02;  9.9999998E-03; -1.4000002E-01;1099;-0.00038801026;0.0;-2.363635e-05;1000.0046;  4.0000001E-01;3.8517423;3;-0.43573794;0.0;-0.023409184;0;-0.0056137061;  1.0000096E+04;  0.0000000E+00; -1.2674158E-11;  1.0000000E+04;  0.0000000E+00;  9.9999971E+03;-0.0058465428;0.0;0.00023283668;1.8511493
  3.9999738E-02;  9.9999998E-03; -1.2000001E-01;1100;-0.00039119466;0.0;-1.8191196e-05;1000.0047;  4.0000001E-01;3.8517423;3;-0.4377985;0.0;-0.017326653;0;-0.0056826659;  1.0000096E+04;  0.0000000E+00;  2.7264179E-11;  1.0000000E+04;  0.0000000E+00;  9.9999971E+03;-0.0058887624;0.0;0.00020609678;1.7062162
  3.9999735E-02;  9.9999998E-03; -1.0000001E-01;1101;-0.00039264862;0.0;-1.3692375e-05;1000.0048;  4.0000001E-01;3.950505;3;-0.43796682;0.0;-0.012487015;0;-0.0057264389;  1.0000098E+04;  0.0000000E+00;  1.7535097E-11;  1.0000000E+04;  0.0000000E+00;  9.9999971E+03;-0.005905102;0.0;0.00017866319;1.5541204
  3.9999735E-02;  9.9999998E-03; -8.0000006E-02;1102;-0.00039307913;0.0;-9.9632043e-06;1000.0048;  4.0000001E-01;3.950505;3;-0.43714583;0.0;-0.0086690914;0;-0.005752834;  1.0000098E+04;  0.0000000E+00; -1.4600085E-12;  1.0000000E+04;  0.0000000E+00;  9.9999980E+03;-0.0059063951;0.0;0.00015356114;1.4131751
  3.9999735E-02;  9.9999998E-03; -6.0000006E-02;1103;-0.00039298099;0.0;-6.8839895e-06;1000.0048;  4.0000001E-01;3.950505;3;-0.43595144;0.0;-0.0057444461;0;-0.0057678199;  1.0000098E+04;  0.0000000E+00; -1.2472729E-11;  1.0000000E+04;  0.0000000E+00;  9.9999980E+03;-0.0059005185;0.0;0.00013269848;1.2949891
  3.9999735E-02;  9.9999998E-03; -4.0000003E-02;1104;-0.00039269132;0.0;-4.3170144e-06;1000.0048;  4.0000001E-01;3.950505;3;-0.43482012;0.0;-0.0034822905;0;-0.0057757036;  1.0000098E+04;  0.0000000E+00; -1.5187402E-11;  1.0000000E+04;  0.0000000E+00;  9.9999990E+03;-0.0058928975;0.0;0.00011719383;1.2065464
  3.9999735E-02;  9.9999998E-03; -2.0000001E-02;1105;-0.00039243602;0.0;-2.0706232e-06;1000.0048;  4.0000001E-01;3.950505;3;-0.43403488;0.0;-0.0016333372;0;-0.0057793604;  1.0000098E+04;  0.0000000E+00; -3.0376773E-12;  1.0000000E+04;  0.0000000E+00;  9.9999990E+03;-0.0058870362;0.0;0.00010767572;1.1519841
  5.9999656E-02;  9.9999998E-03; -1.8000004E-01;1128;-0.00050736958;0.0;-4.3688065e-05;1000.0054;  4.0000001E-01;4.5430808;3;-0.55217814;0.0;-0.042649459;0;-0.0064555155;  1.0000113E+04;  0.0000000E+00; -2.0327376E-10;  1.0000000E+04;  0.0000000E+00;  9.9999951E+03;-0.006781816;0.0;0.00032630059;2.5449541
  5.9999648E-02;  9.9999998E-03; -1.6000003E-01;1129;-0.00051900174;0.0;-3.5228677e-05;1000.0056;  4.0000001E-01;4.6418433;3;-0.56280416;0.0;-0.033450209;0;-0.006606502;  1.0000118E+04;  0.0000000E+00; -1.0869455E-10;  1.0000000E+04;  0.0000000E+00;  9.9999951E+03;-0.0069216602;0.0;0.00031515819;2.506079
  5.9999641E-02;  9.9999998E-03; -1.4000002E-01;1130;-0.000525704;0.0;-2.7805931e-05;1000.0056;  4.0000001E-01;4.6418433;3;-0.56801277;0.0;-0.025437966;0;-0.0067078751;  1.0000118E+04;  0.0000000E+00;  3.1124950E-11;  1.0000000E+04;  0.0000000E+00;  9.9999951E+03;-0.0069956733;0.0;0.0002877982;2.3584578
  5.9999637E-02;  9.9999998E-03; -1.2000002E-01;1131;-0.00052908337;0.0;-2.144983e-05;1000.0057;  4.0000001E-01;4.7406058;3;-0.56955433;0.0;-0.018803261;0;-0.0067712772;  1.0000118E+04;  0.0000000E+00;  3.6438725E-12;  1.0000000E+04;  0.0000000E+00;  9.9999961E+03;-0.0070258789;0.0;0.00025460168;2.1699958
  5.9999637E-02;  9.9999998E-03; -1.0000002E-01;1132;-0.00053031801;0.0;-1.6179312e-05;1000.0059;  4.0000001E-01;4.8393683;3;-0.56886709;0.0;-0.013529464;0;-0.0068085319;  1.0000118E+04;  0.0000000E+00;  2.5253636E-11;  1.0000000E+04;  0.0000000E+00;  9.9999971E+03;-0.0070291529;0.0;0.00022062102;1.9729544
  5.9999637E-02;  9.9999998E-03; -8.0000013E-02;1133;-0.00053034676;0.0;-1.1768641e-05;1000.0059;  4.0000001E-01;4.8393683;3;-0.5670988;0.0;-0.0093275737;0;-0.0068286592;  1.0000118E+04;  0.0000000E+00; -2.1610138E-12;  1.0000000E+04;  0.0000000E+00;  9.9999971E+03;-0.0070181484;0.0;0.00018948923;1.790284
  5.9999634E-02;  9.9999998E-03; -6.0000006E-02;1134;-0.00052980002;0.0;-8.147329e-06;1000.0059;  4.0000001E-01;4.8393683;3;-0.56500947;0.0;-0.0061679352;0;-0.0068383226;  1.0000118E+04;  0.0000000E+00; -9.9569424E-12;  1.0000000E+04;  0.0000000E+00;  9.9999971E+03;-0.0070018889;0.0;0.0001635661;1.6369444
  5.9999634E-02;  9.9999998E-03; -4.0000003E-02;1135;-0.00052912772;0.0;-5.1077486e-06;1000.0059;  4.0000001E-01;4.8393683;3;-0.56317008;0.0;-0.0037074722;0;-0.0068422183;  1.0000119E+04;  0.0000000E+00; -8.4239473E-12;  1.0000000E+04;  0.0000000E+00;  9.9999980E+03;-0.0069864891;0.0;0.00014427093;1.5221206
  5.9999634E-02;  9.9999998E-03; -2.0000001E-02;1136;-0.00052861759;0.0;-2.4544181e-06;1000.0059;  4.0000001E-01;4.8393683;3;-0.56193054;0.0;-0.0017424071;0;-0.0068434174;  1.0000119E+04;  0.0000000E+00; -3.0819451E-12;  1.0000000E+04;  0.0000000E+00;  9.9999980E+03;-0.0069758315;0.0;0.00013241413;1.4512695
  7.9999536E-02;  9.9999998E-03; -1.8000004E-01;1159;-0.00066892215;0.0;-4.9945913e-05;1000.0067;  4.0000001E-01;5.5307069;3;-0.70631337;0.0;-0.04517008;0;-0.007807774;  1.0000141E+04;  0.0000000E+00; -2.4817709E-10;  1.0000000E+04;  0.0000000E+00;  9.9999932E+03;-0.0082039479;0.0;0.00039617383;3.2145438
  7.9999529E-02;  9.9999998E-03; -1.6000003E-01;1160;-0.00068228168;0.0;-4.0271676e-05;1000.007;  4.0000001E-01;5.7282324;3;-0.71767294;0.0;-0.035333425;0;-0.0079570748;  1.0000143E+04;  0.0000000E+00; -1.1808916E-10;  1.0000000E+04;  0.0000000E+00;  9.9999932E+03;-0.0083371392;0.0;0.00038006413;3.1468978
  7.9999521E-02;  9.9999998E-03; -1.4000003E-01;1161;-0.00068953139;0.0;-3.169306e-05;1000.007;  4.0000001E-01;5.7282324;3;-0.72250855;0.0;-0.026653677;0;-0.0080500543;  1.0000146E+04;  0.0000000E+00;  6.1387291E-11;  1.0000000E+04;  0.0000000E+00;  9.9999951E+03;-0.0083961654;0.0;0.0003461116;2.9525833
  7.9999521E-02;  9.9999998E-03; -1.2000002E-01;1162;-0.0006926881;0.0;-2.4455621e-05;1000.007;  4.0000001E-01;5.7282324;3;-0.72297323;0.0;-0.019622244;0;-0.008102146;  1.0000147E+04;  0.0000000E+00; -1.0894594E-11;  1.0000000E+04;  0.0000000E+00;  9.9999951E+03;-0.0084079579;0.0;0.00030581231;2.7110226
  7.9999514E-02;  9.9999998E-03; -1.0000002E-01;1163;-0.00069332158;0.0;-1.8413355e-05;1000.007;  4.0000001E-01;5.8269949;3;-0.72094953;0.0;-0.013949513;0;-0.008127857;  1.0000148E+04;  0.0000000E+00;  1.2983277E-12;  1.0000000E+04;  0.0000000E+00;  9.9999961E+03;-0.0083925268;0.0;0.00026467;2.4595551
  7.9999514E-02;  9.9999998E-03; -8.0000013E-02;1164;-0.00069260475;0.0;-1.3386723e-05;1000.0071;  4.0000001E-01;5.8269949;3;-0.71780443;0.0;-0.0095731281;0;-0.008137621;  1.0000147E+04;  0.0000000E+00; -2.7513830E-11;  1.0000000E+04;  0.0000000E+00;  9.9999961E+03;-0.008364521;0.0;0.00022689994;2.2262583
  7.9999514E-02;  9.9999998E-03; -6.0000010E-02;1165;-0.00069133827;0.0;-9.2701712e-06;1000.0071;  4.0000001E-01;5.8269949;3;-0.71449763;0.0;-0.0062941578;0;-0.0081388196;  1.0000147E+04;  0.0000000E+00; -1.5196682E-11;  1.0000000E+04;  0.0000000E+00;  9.9999971E+03;-0.0083341757;0.0;0.00019535593;2.0300908
  7.9999514E-02;  9.9999998E-03; -4.0000007E-02;1166;-0.00069008925;0.0;-5.7984407e-06;1000.0071;  4.0000001E-01;5.8269949;3;-0.71171892;0.0;-0.0037341379;0;-0.0081365295;  1.0000147E+04;  0.0000000E+00; -1.1771579E-11;  1.0000000E+04;  0.0000000E+00;  9.9999971E+03;-0.0083083445;0.0;0.0001718155;1.8830098
  7.9999514E-02;  9.9999998E-03; -2.0000003E-02;1167;-0.00068920699;0.0;-2.7885897e-06;1000.0071;  4.0000001E-01;5.8269949;3;-0.70988518;0.0;-0.0017517535;0;-0.0081339739;  1.0000147E+04;  0.0000000E+00; -5.2546105E-12;  1.0000000E+04;  0.0000000E+00;  9.9999971E+03;-0.0082912976;0.0;0.00015732381;1.7921916
  9.9999398E-02;  9.9999998E-03; -1.8000005E-01;1190;-0.00086285145;0.0;-5.650413e-05;1000.0084;  4.0000001E-01;6.9133835;3;-0.88840133;0.0;-0.047282949;0;-0.0095083406;  1.0000177E+04;  0.0000000E+00; -7.8133716E-10;  1.0000000E+04;  0.0000000E+00;  9.9999922E+03;-0.0099851694;0.0;0.00047682881;4.0463324
  9.9999383E-02;  9.9999998E-03; -1.6000004E-01;1191;-0.0008773646;0.0;-4.554772e-05;1000.0085;  4.0000001E-01;7.110909;3;-0.89972472;0.0;-0.03677278;0;-0.009649585;  1.0000179E+04;  0.0000000E+00; -1.2193614E-10;  1.0000000E+04;  0.0000000E+00;  9.9999932E+03;-0.010104143;0.0;0.0004545578;3.9381552
  9.9999376E-02;  9.9999998E-03; -1.4000003E-01;1192;-0.00088453805;0.0;-3.5721845e-05;1000.0087;  4.0000001E-01;7.2096715;3;-0.90337288;0.0;-0.027510699;0;-0.0097276019;  1.0000182E+04;  0.0000000E+00;  8.3512398E-11;  1.0000000E+04;  0.0000000E+00;  9.9999932E+03;-0.010140385;0.0;0.00041278265;3.6825194
  9.9999368E-02;  9.9999998E-03; -1.2000003E-01;1193;-0.0008868642;0.0;-2.753129e-05;1000.0087;  4.0000001E-01;7.2096715;3;-0.9020105;0.0;-0.020132184;0;-0.0097623402;  1.0000183E+04;  0.0000000E+00;  3.3030894E-11;  1.0000000E+04;  0.0000000E+00;  9.9999932E+03;-0.010126438;0.0;0.0003640982;3.3720808
  9.9999368E-02;  9.9999998E-03; -1.0000002E-01;1194;-0.00088635384;0.0;-2.0654976e-05;1000.0089;  4.0000001E-01;7.308434;3;-0.8979919;0.0;-0.014140485;0;-0.0097712781;  1.0000181E+04;  0.0000000E+00; -1.2068674E-11;  1.0000000E+04;  0.0000000E+00;  9.9999951E+03;-0.010085721;0.0;0.0003144423;3.0501342
  9.9999368E-02;  9.9999998E-03; -8.0000013E-02;1195;-0.00088443322;0.0;-1.498829e-05;1000.0089;  4.0000001E-01;7.308434;3;-0.89293337;0.0;-0.0096208118;0;-0.0097664222;  1.0000181E+04;  0.0000000E+00;  4.8769183E-12;  1.0000000E+04;  0.0000000E+00;  9.9999961E+03;-0.010035103;0.0;0.000268681;2.7510569
  9.9999368E-02;  9.9999998E-03; -6.0000010E-02;1196;-0.00088209467;0.0;-1.0349077e-05;1000.0089;  4.0000001E-01;7.308434;3;-0.88800943;0.0;-0.0062014032;0;-0.0097559225;  1.0000180E+04;  0.0000000E+00; -2.8467291E-12;  1.0000000E+04;  0.0000000E+00;  9.9999961E+03;-0.0099862106;0.0;0.00023028768;2.4990263
  9.9999368E-02;  9.9999998E-03; -4.0000007E-02;1197;-0.00088001299;0.0;-6.4626938e-06;1000.0089;  4.0000001E-01;7.308434;3;-0.88399148;0.0;-0.0036645527;0;-0.0097451657;  1.0000181E+04;  0.0000000E+00; -9.1880678E-12;  1.0000000E+04;  0.0000000E+00;  9.9999961E+03;-0.0099466909;0.0;0.00020152563;2.3097477
  9.9999368E-02;  9.9999998E-03; -2.0000003E-02;1198;-0.00087860663;0.0;-3.1047537e-06;1000.0089;  4.0000001E-01;7.308434;3;-0.88139194;0.0;-0.0016998957;0;-0.0097375195;  1.0000181E+04;  0.0000000E+00; -4.9496583E-12;  1.0000000E+04;  0.0000000E+00;  9.9999971E+03;-0.0099212928;0.0;0.00018377283;2.1927621
  1.1999922E-01;  9.9999998E-03; -1.8000005E-01;1221;-0.0010975582;0.0;-6.4123422e-05;1000.0105;  4.0000001E-01;8.6911106;3;-1.1041777;0.0;-0.049561325;0;-0.011629516;  1.0000220E+04;  0.0000000E+00; -1.3273008E-09;  1.0000000E+04;  0.0000000E+00;  9.9999902E+03;-0.012207703;0.0;0.00057818671;5.1327915
  1.1999920E-01;  9.9999998E-03; -1.6000004E-01;1222;-0.001112443;0.0;-5.1675252e-05;1000.0107;  4.0000001E-01;8.8886366;3;-1.1143887;0.0;-0.038338374;0;-0.011754222;  1.0000224E+04;  0.0000000E+00; -5.3766258E-10;  1.0000000E+04;  0.0000000E+00;  9.9999902E+03;-0.012301913;0.0;0.00054769008;4.9613714
  1.1999919E-01;  9.9999998E-03; -1.4000003E-01;1223;-0.0011186652;0.0;-4.0488474e-05;1000.0109;  4.0000001E-01;8.9873991;3;-1.1157421;0.0;-0.028630683;0;-0.011809516;  1.0000226E+04;  0.0000000E+00; -2.9183866E-14;  1.0000000E+04;  0.0000000E+00;  9.9999902E+03;-0.012305347;0.0;0.00049583154;4.618876
  1.1999919E-01;  9.9999998E-03; -1.2000003E-01;1224;-0.0011193558;0.0;-3.115147e-05;1000.0109;  4.0000001E-01;8.9873991;3;-1.1115966;0.0;-0.020861948;0;-0.01182003;  1.0000226E+04;  0.0000000E+00;  2.6263056E-11;  1.0000000E+04;  0.0000000E+00;  9.9999932E+03;-0.012256407;0.0;0.00043637722;4.2132392
  1.1999919E-01;  9.9999998E-03; -1.0000002E-01;1225;-0.0011169952;0.0;-2.3259725e-05;1000.0109;  4.0000001E-01;8.9873991;3;-1.1047659;0.0;-0.01448807;0;-0.0118065;  1.0000225E+04;  0.0000000E+00; -4.9412395E-13;  1.0000000E+04;  0.0000000E+00;  9.9999932E+03;-0.012182143;0.0;0.00037564259;3.7942746
  1.1999919E-01;  9.9999998E-03; -8.0000013E-02;1226;-0.001113284;0.0;-1.6822622e-05;1000.0109;  4.0000001E-01;8.9873991;3;-1.0971255;0.0;-0.0097647933;0;-0.011782527;  1.0000225E+04;  0.0000000E+00; -1.0174136E-11;  1.0000000E+04;  0.0000000E+00;  9.9999941E+03;-0.012101864;0.0;0.00031933759;3.4045579
  1.1999919E-01;  9.9999998E-03; -6.0000010E-02;1227;-0.0011094175;0.0;-1.1560653e-05;1000.0109;  4.0000001E-01;8.9873991;3;-1.0900652;0.0;-0.0061942451;0;-0.011756934;  1.0000223E+04;  0.0000000E+00; -6.9196714E-12;  1.0000000E+04;  0.0000000E+00;  9.9999961E+03;-0.012028749;0.0;0.00027181531;3.0754921
  1.1999919E-01;  9.9999998E-03; -4.0000007E-02;1228;-0.001106177;0.0;-7.2004591e-06;1000.0109;  4.0000001E-01;8.9873991;3;-1.0844591;0.0;-0.003624748;0;-0.011735377;  1.0000223E+04;  0.0000000E+00; -6.6366140E-12;  1.0000000E+04;  0.0000000E+00;  9.9999961E+03;-0.011971422;0.0;0.00023604558;2.8279934
  1.1999919E-01;  9.9999998E-03; -2.0000003E-02;1229;-0.0011040523;0.0;-3.4487587e-06;1000.0109;  4.0000001E-01;8.9873991;3;-1.0808866;0.0;-0.0016465157;0;-0.01172124;  1.0000223E+04;  0.0000000E+00; -3.9708922E-12;  1.0000000E+04;  0.0000000E+00;  9.9999961E+03;-0.011935139;0.0;0.00021389914;2.6749082
  1.3999899E-01;  9.9999998E-03; -1.8000007E-01;1252;-0.0013835382;0.0;-7.4029675e-05;1000.0132;  4.0000001E-01;10.962651;3;-1.3598745;0.0;-0.053162206;0;-0.014229878;  1.0000279E+04;  0.0000000E+00; -7.0621934E-07;  1.0000000E+04;  0.0000000E+00;  9.9999873E+03;-0.014947991;0.0;0.00071811338;6.6315489
  1.3999897E-01;  9.9999998E-03; -1.6000006E-01;1253;-0.0013977442;0.0;-5.9679725e-05;1000.0134;  4.0000001E-01;11.061414;3;-1.3675784;0.0;-0.04115352;0;-0.014328215;  1.0000280E+04;  0.0000000E+00; -5.6567939E-10;  1.0000000E+04;  0.0000000E+00;  9.9999873E+03;-0.015001711;0.0;0.00067349488;6.3387246
  1.3999896E-01;  9.9999998E-03; -1.4000005E-01;1254;-0.0014019129;0.0;-4.6774145e-05;1000.0134;  4.0000001E-01;11.160176;3;-1.3653293;0.0;-0.030845148;0;-0.014351772;  1.0000280E+04;  0.0000000E+00; -1.0371229E-10;  1.0000000E+04;  0.0000000E+00;  9.9999893E+03;-0.014958558;0.0;0.0006067853;5.8596711
  1.3999896E-01;  9.9999998E-03; -1.2000003E-01;1255;-0.0013999491;0.0;-3.5886875e-05;1000.0135;  4.0000001E-01;11.160176;3;-1.3572556;0.0;-0.022364078;0;-0.014330291;  1.0000279E+04;  0.0000000E+00; -1.8292357E-11;  1.0000000E+04;  0.0000000E+00;  9.9999902E+03;-0.014862368;0.0;0.00053207704;5.3133335
  1.3999896E-01;  9.9999998E-03; -1.0000002E-01;1256;-0.0013948296;0.0;-2.6671556e-05;1000.0135;  4.0000001E-01;11.258939;3;-1.3465818;0.0;-0.01549741;0;-0.014288069;  1.0000279E+04;  0.0000000E+00; -2.9712214E-12;  1.0000000E+04;  0.0000000E+00;  9.9999912E+03;-0.014743832;0.0;0.00045576299;4.7543135
  1.3999896E-01;  9.9999998E-03; -8.0000021E-02;1257;-0.0013885726;0.0;-1.9193485e-05;1000.0135;  4.0000001E-01;11.258939;3;-1.3355383;0.0;-0.010388867;0;-0.014240209;  1.0000276E+04;  0.0000000E+00; -1.9392179E-11;  1.0000000E+04;  0.0000000E+00;  9.9999932E+03;-0.014624813;0.0;0.00038460342;4.2349682
  1.3999896E-01;  9.9999998E-03; -6.0000014E-02;1258;-0.0013825826;0.0;-1.3108162e-05;1000.0136;  4.0000001E-01;11.258939;3;-1.3257073;0.0;-0.0065131988;0;-0.014196038;  1.0000276E+04;  0.0000000E+00; -1.0179183E-11;  1.0000000E+04;  0.0000000E+00;  9.9999941E+03;-0.014520229;0.0;0.0003241903;3.7962985
  1.3999896E-01;  9.9999998E-03; -4.0000010E-02;1259;-0.0013777559;0.0;-8.1268154e-06;1000.0136;  4.0000001E-01;11.258939;3;-1.3180563;0.0;-0.0037812022;0;-0.014161269;  1.0000276E+04;  0.0000000E+00;  5.7282147E-13;  1.0000000E+04;  0.0000000E+00;  9.9999941E+03;-0.01443978;0.0;0.0002785114;3.4662447
  1.3999897E-01;  9.9999998E-03; -2.0000003E-02;1260;-0.0013746556;0.0;-3.8773383e-06;1000.0135;  4.0000001E-01;11.258939;3;-1.3132365;0.0;-0.0017036338;0;-0.014139259;  1.0000276E+04;  0.0000000E+00; -1.0485703E-11;  1.0000000E+04;  0.0000000E+00;  9.9999951E+03;-0.01438941;0.0;0.00025015025;3.2620926
  1.5999870E-01;  9.9999998E-03; -1.8000008E-01;1283;-0.0017325818;0.0;-8.8086395e-05;1000.0165;  4.0000001E-01;13.629242;3;-1.6621386;0.0;-0.060002793;0;-0.017365824;  1.0000348E+04;  0.0000000E+00; -6.3892289E-06;  1.0000000E+04;  0.0000000E+00;  9.9999824E+03;-0.018293044;0.0;0.00092721923;8.8060026
  1.5999869E-01;  9.9999998E-03; -1.6000007E-01;1284;-0.0017447349;0.0;-7.1012466e-05;1000.0168;  4.0000001E-01;13.92553;3;-1.6656661;0.0;-0.046732858;0;-0.017427079;  1.0000351E+04;  0.0000000E+00; -1.0444311E-09;  1.0000000E+04;  0.0000000E+00;  9.9999834E+03;-0.018280936;0.0;0.00085385708;8.2570343
  1.5999867E-01;  9.9999998E-03; -1.4000006E-01;1285;-0.0017454766;0.0;-5.5640761e-05;1000.0169;  4.0000001E-01;14.024293;3;-1.6582741;0.0;-0.035339206;0;-0.017410345;  1.0000351E+04;  0.0000000E+00;  1.0486998E-10;  1.0000000E+04;  0.0000000E+00;  9.9999854E+03;-0.01817221;0.0;0.00076186529;7.5415053
  1.5999867E-01;  9.9999998E-03; -1.2000004E-01;1286;-0.0017395705;0.0;-4.251238e-05;1000.0169;  4.0000001E-01;14.024293;3;-1.6448891;0.0;-0.025667094;0;-0.017349048;  1.0000349E+04;  0.0000000E+00;  7.7897362E-11;  1.0000000E+04;  0.0000000E+00;  9.9999863E+03;-0.01801247;0.0;0.00066342211;6.774148
  1.5999867E-01;  9.9999998E-03; -1.0000003E-01;1287;-0.0017305426;0.0;-3.1400225e-05;1000.0169;  4.0000001E-01;14.024293;3;-1.6291893;0.0;-0.017840181;0;-0.017271783;  1.0000348E+04;  0.0000000E+00; -6.5726717E-12;  1.0000000E+04;  0.0000000E+00;  9.9999902E+03;-0.017835699;0.0;0.00056391646;6.0059986
  1.5999869E-01;  9.9999998E-03; -8.0000021E-02;1288;-0.0017207714;0.0;-2.2420529e-05;1000.0168;  4.0000001E-01;13.92553;3;-1.6137538;0.0;-0.011947653;0;-0.017195182;  1.0000346E+04;  0.0000000E+00; -2.3018795E-11;  1.0000000E+04;  0.0000000E+00;  9.9999902E+03;-0.017666256;0.0;0.00047107364;5.2979245
  1.5999869E-01;  9.9999998E-03; -6.0000017E-02;1289;-0.0017118864;0.0;-1.5184221e-05;1000.0168;  4.0000001E-01;13.92553;3;-1.6003599;0.0;-0.0074628438;0;-0.017128874;  1.0000344E+04;  0.0000000E+00;  1.0041173E-12;  1.0000000E+04;  0.0000000E+00;  9.9999922E+03;-0.017520895;0.0;0.00039202164;4.7018428
  1.5999869E-01;  9.9999998E-03; -4.0000010E-02;1290;-0.0017049169;0.0;-9.3490216e-06;1000.0168;  4.0000001E-01;13.92553;3;-1.5900941;0.0;-0.0043121274;0;-0.017078469;  1.0000342E+04;  0.0000000E+00; -3.2101068E-11;  1.0000000E+04;  0.0000000E+00;  9.9999941E+03;-0.017410561;0.0;0.00033209252;4.2542076
  1.5999869E-01;  9.9999998E-03; -2.0000005E-02;1291;-0.0017005047;0.0;-4.4383087e-06;1000.0168;  4.0000001E-01;13.92553;3;-1.5836797;0.0;-0.0019353805;0;-0.017047156;  1.0000341E+04;  0.0000000E+00; -1.1622097E-11;  1.0000000E+04;  0.0000000E+00;  9.9999941E+03;-0.017341977;0.0;0.00029482177;3.9776809
  1.7999834E-01;  9.9999998E-03; -1.8000010E-01;1314;-0.0021575827;0.0;-0.00010902245;1000.0206;  4.0000001E-01;17.085934;3;-2.0179753;0.0;-0.072910123;0;-0.021099702;  1.0000438E+04;  0.0000000E+00; -1.9548617E-05;  1.0000000E+04;  0.0000000E+00;  9.9999756E+03;-0.022350429;0.0;0.0012507276;12.045959
  1.7999832E-01;  9.9999998E-03; -1.6000009E-01;1315;-0.0021659369;0.0;-8.7681881e-05;1000.0208;  4.0000001E-01;17.283459;3;-2.0153489;0.0;-0.057268944;0;-0.021117335;  1.0000438E+04;  0.0000000E+00; -6.8201835E-08;  1.0000000E+04;  0.0000000E+00;  9.9999775E+03;-0.022237981;0.0;0.0011206452;10.987041
  1.7999832E-01;  9.9999998E-03; -1.4000006E-01;1316;-0.0021615811;0.0;-6.8360328e-05;1000.0209;  4.0000001E-01;17.283459;3;-2.0010855;0.0;-0.043614149;0;-0.021055022;  1.0000435E+04;  0.0000000E+00;  4.6715683E-12;  1.0000000E+04;  0.0000000E+00;  9.9999824E+03;-0.022038188;0.0;0.00098316616;9.8505983
  1.7999832E-01;  9.9999998E-03; -1.2000005E-01;1317;-0.0021501211;0.0;-5.1881667e-05;1000.0209;  4.0000001E-01;17.283459;3;-1.9807917;0.0;-0.03190767;0;-0.020947689;  1.0000432E+04;  0.0000000E+00;  1.1835954E-10;  1.0000000E+04;  0.0000000E+00;  9.9999824E+03;-0.021793511;0.0;0.00084582239;8.7251911
  1.7999832E-01;  9.9999998E-03; -1.0000004E-01;1318;-0.0021357357;0.0;-3.7960777e-05;1000.0208;  4.0000001E-01;17.283459;3;-1.9586819;0.0;-0.022243455;0;-0.020829668;  1.0000429E+04;  0.0000000E+00;  8.2059021E-12;  1.0000000E+04;  0.0000000E+00;  9.9999863E+03;-0.02154042;0.0;0.0007107511;7.6396742
  1.7999834E-01;  9.9999998E-03; -8.0000028E-02;1319;-0.0021212143;0.0;-2.6798609e-05;1000.0208;  4.0000001E-01;17.184696;3;-1.9376782;0.0;-0.014909494;0;-0.020719701;  1.0000427E+04;  0.0000000E+00; -3.8924822E-11;  1.0000000E+04;  0.0000000E+00;  9.9999873E+03;-0.021305591;0.0;0.00058588973;6.6560335
  1.7999834E-01;  9.9999998E-03; -6.0000021E-02;1320;-0.0021084452;0.0;-1.7950613e-05;1000.0208;  4.0000001E-01;17.184696;3;-1.9197829;0.0;-0.0093278317;0;-0.020627744;  1.0000425E+04;  0.0000000E+00; -3.3462240E-11;  1.0000000E+04;  0.0000000E+00;  9.9999902E+03;-0.021107625;0.0;0.00047988057;5.8351755
  1.7999834E-01;  9.9999998E-03; -4.0000010E-02;1321;-0.0020986171;0.0;-1.0942802e-05;1000.0207;  4.0000001E-01;17.184696;3;-1.9062176;0.0;-0.0053770891;0;-0.020559244;  1.0000422E+04;  0.0000000E+00; -5.7389361E-11;  1.0000000E+04;  0.0000000E+00;  9.9999922E+03;-0.02095883;0.0;0.00039958552;5.2218785
  1.7999834E-01;  9.9999998E-03; -2.0000005E-02;1322;-0.0020924583;0.0;-5.1611414e-06;1000.0207;  4.0000001E-01;17.184696;3;-1.897791;0.0;-0.0024139509;0;-0.020517189;  1.0000419E+04;  0.0000000E+00;  1.0821830E-11;  1.0000000E+04;  0.0000000E+00;  9.9999922E+03;-0.020866854;0.0;0.00034966427;4.8441634
  1.9999789E-01;  9.9999998E-03; -1.8000013E-01;1345;-0.0026735265;0.0;-0.00013947794;1000.0256;  4.0000001E-01;21.233965;3;-2.4350898;0.0;-0.094617091;0;-0.025496583;  1.0000549E+04;  0.0000000E+00; -3.4696852E-05;  1.0000000E+04;  0.0000000E+00;  9.9999668E+03;-0.027240949;0.0;0.0017443659;16.843603
  1.9999787E-01;  9.9999998E-03; -1.6000010E-01;1346;-0.0026759214;0.0;-0.00011152229;1000.0258;  4.0000001E-01;21.43149;3;-2.4240375;0.0;-0.074936546;0;-0.025474589;  1.0000548E+04;  0.0000000E+00; -2.9248889E-07;  1.0000000E+04;  0.0000000E+00;  9.9999697E+03;-0.026988665;0.0;0.0015140749;14.875765
  1.9999787E-01;  9.9999998E-03; -1.4000009E-01;1347;-0.0026643148;0.0;-8.6295207e-05;1000.0259;  4.0000001E-01;21.43149;3;-2.4009044;0.0;-0.057259005;0;-0.025366938;  1.0000543E+04;  0.0000000E+00;  2.1331414E-10;  1.0000000E+04;  0.0000000E+00;  9.9999746E+03;-0.026665065;0.0;0.0012981272;13.021193
  1.9999789E-01;  9.9999998E-03; -1.2000006E-01;1348;-0.0026452746;0.0;-6.4883265e-05;1000.0259;  4.0000001E-01;21.530252;3;-2.371799;0.0;-0.042289793;0;-0.025210403;  1.0000539E+04;  0.0000000E+00;  3.1213462E-11;  1.0000000E+04;  0.0000000E+00;  9.9999775E+03;-0.026307955;0.0;0.0010975531;11.322607
  1.9999789E-01;  9.9999998E-03; -1.0000005E-01;1349;-0.0026237206;0.0;-4.6831992e-05;1000.0258;  4.0000001E-01;21.43149;3;-2.3416929;0.0;-0.029435892;0;-0.025047304;  1.0000533E+04;  0.0000000E+00;  1.7357601E-11;  1.0000000E+04;  0.0000000E+00;  9.9999824E+03;-0.025955373;0.0;0.00090806955;9.7584944
  1.9999790E-01;  9.9999998E-03; -8.0000035E-02;1350;-0.0026028838;0.0;-3.2561398e-05;1000.0257;  4.0000001E-01;21.332727;3;-2.3137321;0.0;-0.019715402;0;-0.02489976;  1.0000530E+04;  0.0000000E+00;  5.9298170E-12;  1.0000000E+04;  0.0000000E+00;  9.9999854E+03;-0.025636068;0.0;0.00073630735;8.3768139
  1.9999790E-01;  9.9999998E-03; -6.0000025E-02;1351;-0.002584971;0.0;-2.1500486e-05;1000.0257;  4.0000001E-01;21.332727;3;-2.2902207;0.0;-0.012367841;0;-0.024778612;  1.0000525E+04;  0.0000000E+00; -5.4703242E-11;  1.0000000E+04;  0.0000000E+00;  9.9999873E+03;-0.025370482;0.0;0.00059187133;7.2402177
  1.9999792E-01;  9.9999998E-03; -4.0000014E-02;1352;-0.00257137;0.0;-1.2925734e-05;1000.0256;  4.0000001E-01;21.233965;3;-2.2725489;0.0;-0.0071054548;0;-0.024689415;  1.0000521E+04;  0.0000000E+00; -5.5162767E-11;  1.0000000E+04;  0.0000000E+00;  9.9999893E+03;-0.025172438;0.0;0.00048302364;6.3982644
  1.9999792E-01;  9.9999998E-03; -2.0000007E-02;1353;-0.0025629138;0.0;-6.0487041e-06;1000.0256;  4.0000001E-01;21.233965;3;-2.2616272;0.0;-0.0031992276;0;-0.024634998;  1.0000520E+04;  0.0000000E+00; -3.3109467E-11;  1.0000000E+04;  0.0000000E+00;  9.9999912E+03;-0.025050532;0.0;0.0004155332;5.8823266
  2.1999733E-01;  9.9999998E-03; -1.8000017E-01;1376;-0.0032980777;0.0;-0.00018168874;1000.0317;  4.0000001E-01;26.270859;3;-2.9220867;0.0;-0.12746628;0;-0.030629246;  1.0000684E+04;  0.0000000E+00; -4.0071995E-05;  1.0000000E+04;  0.0000000E+00;  9.9999512E+03;-0.033093136;0.0;0.0024638905;23.720957
  2.1999732E-01;  9.9999998E-03; -1.6000013E-01;1377;-0.0032917662;0.0;-0.0001441035;1000.0318;  4.0000001E-01;26.369621;3;-2.9001334;0.0;-0.10117064;0;-0.030583682;  1.0000680E+04;  0.0000000E+00; -3.2632647E-07;  1.0000000E+04;  0.0000000E+00;  9.9999580E+03;-0.032659899;0.0;0.0020762172;20.303114
  2.1999732E-01;  9.9999998E-03; -1.4000010E-01;1378;-0.0032701737;0.0;-0.00011054637;1000.0318;  4.0000001E-01;26.369621;3;-2.8657153;0.0;-0.077578165;0;-0.030436849;  1.0000673E+04;  0.0000000E+00;  5.1674010E-10;  1.0000000E+04;  0.0000000E+00;  9.9999668E+03;-0.032173056;0.0;0.0017362071;17.313705
  2.1999733E-01;  9.9999998E-03; -1.2000008E-01;1379;-0.0032410284;0.0;-8.1975428e-05;1000.0317;  4.0000001E-01;26.270859;3;-2.8257136;0.0;-0.057295021;0;-0.030231334;  1.0000665E+04;  0.0000000E+00;  9.3932355E-11;  1.0000000E+04;  0.0000000E+00;  9.9999707E+03;-0.031669259;0.0;0.0014379249;14.737556
  2.1999735E-01;  9.9999998E-03; -1.0000006E-01;1380;-0.0032099879;0.0;-5.8303762e-05;1000.0316;  4.0000001E-01;26.172096;3;-2.7856629;0.0;-0.039922919;0;-0.030020295;  1.0000657E+04;  0.0000000E+00; -3.7890694E-11;  1.0000000E+04;  0.0000000E+00;  9.9999766E+03;-0.031188039;0.0;0.0011677437;12.471857
  2.1999736E-01;  9.9999998E-03; -8.0000043E-02;1381;-0.0031808603;0.0;-3.9795414e-05;1000.0315;  4.0000001E-01;26.073332;3;-2.7491064;0.0;-0.026659815;0;-0.029831152;  1.0000651E+04;  0.0000000E+00; -3.8314810E-11;  1.0000000E+04;  0.0000000E+00;  9.9999814E+03;-0.03076013;0.0;0.00092897768;10.52885
  2.1999738E-01;  9.9999998E-03; -6.0000028E-02;1382;-0.0031562122;0.0;-2.5812571e-05;1000.0315;  4.0000001E-01;26.073332;3;-2.718648;0.0;-0.016725894;0;-0.029676937;  1.0000646E+04;  0.0000000E+00;  7.6368755E-12;  1.0000000E+04;  0.0000000E+00;  9.9999854E+03;-0.030408071;0.0;0.00073113386;8.9597988
  2.1999739E-01;  9.9999998E-03; -4.0000018E-02;1383;-0.003137683;0.0;-1.5244439e-05;1000.0314;  4.0000001E-01;25.974569;3;-2.6959095;0.0;-0.0095658982;0;-0.029563935;  1.0000642E+04;  0.0000000E+00; -4.4066341E-11;  1.0000000E+04;  0.0000000E+00;  9.9999873E+03;-0.030147264;0.0;0.00058332755;7.8109193
  2.1999739E-01;  9.9999998E-03; -2.0000007E-02;1384;-0.0031262268;0.0;-7.0613451e-06;1000.0314;  4.0000001E-01;26.073332;3;-2.6819129;0.0;-0.0043111807;0;-0.029495187;  1.0000640E+04;  0.0000000E+00;  1.6228210E-11;  1.0000000E+04;  0.0000000E+00;  9.9999893E+03;-0.02998732;0.0;0.00049213262;7.1117558
  2.3999663E-01;  9.9999998E-03; -1.8000023E-01;1407;-0.0040519927;0.0;-0.00023833306;1000.0389;  4.0000001E-01;32.196617;3;-3.4887269;0.0;-0.1736747;0;-0.036594763;  1.0000850E+04;  0.0000000E+00; -2.9881992E-05;  1.0000000E+04;  0.0000000E+00;  9.9999277E+03;-0.04004642;0.0;0.0034516584;33.133991
  2.3999663E-01;  9.9999998E-03; -1.6000018E-01;1408;-0.0040332363;0.0;-0.00018695946;1000.0391;  4.0000001E-01;32.394142;3;-3.452672;0.0;-0.13818033;0;-0.036547154;  1.0000841E+04;  0.0000000E+00; -9.2827435E-08;  1.0000000E+04;  0.0000000E+00;  9.9999443E+03;-0.039389312;0.0;0.0028421581;27.619356
  2.3999664E-01;  9.9999998E-03; -1.4000013E-01;1409;-0.0039981692;0.0;-0.00014164209;1000.0391;  4.0000001E-01;32.394142;3;-3.4043911;0.0;-0.1052807;0;-0.036370482;  1.0000830E+04;  0.0000000E+00;  3.4834904E-10;  1.0000000E+04;  0.0000000E+00;  9.9999531E+03;-0.038693994;0.0;0.0023235129;22.977251
  2.3999666E-01;  9.9999998E-03; -1.2000010E-01;1410;-0.0039556981;0.0;-0.00010322695;1000.0389;  4.0000001E-01;32.29538;3;-3.3510652;0.0;-0.077172183;0;-0.036118239;  1.0000817E+04;  0.0000000E+00;  6.7368409E-11;  1.0000000E+04;  0.0000000E+00;  9.9999629E+03;-0.038002472;0.0;0.0018842331;19.135431
  2.3999669E-01;  9.9999998E-03; -1.0000007E-01;1411;-0.00391219;0.0;-7.2247873e-05;1000.0388;  4.0000001E-01;32.196617;3;-3.2987761;0.0;-0.053743422;0;-0.035856735;  1.0000809E+04;  0.0000000E+00; -1.7485072E-10;  1.0000000E+04;  0.0000000E+00;  9.9999707E+03;-0.037356753;0.0;0.0015000177;15.884889
  2.3999670E-01;  9.9999998E-03; -8.0000050E-02;1412;-0.0038722777;0.0;-4.8270049e-05;1000.0388;  4.0000001E-01;32.196617;3;-3.2517045;0.0;-0.035627604;0;-0.035621375;  1.0000800E+04;  0.0000000E+00; -6.7052440E-11;  1.0000000E+04;  0.0000000E+00;  9.9999766E+03;-0.036790453;0.0;0.0011690778;13.177749
  2.3999672E-01;  9.9999998E-03; -6.0000032E-02;1413;-0.003838917;0.0;-3.0707135e-05;1000.0387;  4.0000001E-01;32.097855;3;-3.2127695;0.0;-0.022346323;0;-0.035429113;  1.0000791E+04;  0.0000000E+00;  1.7628675E-11;  1.0000000E+04;  0.0000000E+00;  9.9999814E+03;-0.036328588;0.0;0.00089947542;11.035797
  2.3999673E-01;  9.9999998E-03; -4.0000018E-02;1414;-0.0038140197;0.0;-1.7746448e-05;1000.0386;  4.0000001E-01;31.99909;3;-3.1838422;0.0;-0.012710165;0;-0.035288092;  1.0000788E+04;  0.0000000E+00; -8.1961000E-11;  1.0000000E+04;  0.0000000E+00;  9.9999844E+03;-0.035988338;0.0;0.00070024584;9.4887762
  2.3999675E-01;  9.9999998E-03; -2.0000009E-02;1415;-0.0037986876;0.0;-8.0911568e-06;1000.0385;  4.0000001E-01;31.900328;3;-3.1660695;0.0;-0.0056969202;0;-0.035202317;  1.0000784E+04;  0.0000000E+00;  5.9316281E-11;  1.0000000E+04;  0.0000000E+00;  9.9999873E+03;-0.035780437;0.0;0.00057812041;8.5552664
  2.5999576E-01;  9.9999998E-03; -1.8000029E-01;1438;-0.0049597123;0.0;-0.00031187726;1000.0477;  4.0000001E-01;39.505047;3;-4.1462202;0.0;-0.2356804;0;-0.043525882;  1.0001051E+04;  0.0000000E+00; -1.2635813E-05;  1.0000000E+04;  0.0000000E+00;  9.9999033E+03;-0.048252996;0.0;0.0047271131;45.400467
  2.5999576E-01;  9.9999998E-03; -1.6000022E-01;1439;-0.00492336;0.0;-0.00024042043;1000.048;  4.0000001E-01;39.702572;3;-4.0922718;0.0;-0.185331;0;-0.043492403;  1.0001037E+04;  0.0000000E+00; -4.7279564E-10;  1.0000000E+04;  0.0000000E+00;  9.9999219E+03;-0.047325362;0.0;0.0038329596;37.091976
  2.5999579E-01;  9.9999998E-03; -1.4000016E-01;1440;-0.0048699901;0.0;-0.00017968033;1000.048;  4.0000001E-01;39.801334;3;-4.0266099;0.0;-0.14084326;0;-0.043293618;  1.0001023E+04;  0.0000000E+00;  3.5164313E-10;  1.0000000E+04;  0.0000000E+00;  9.9999375E+03;-0.046371248;0.0;0.0030776295;30.211424
  2.5999582E-01;  9.9999998E-03; -1.2000012E-01;1441;-0.0048099286;0.0;-0.00012843388;1000.048;  4.0000001E-01;39.702572;3;-3.9569948;0.0;-0.10212624;0;-0.042995259;  1.0001007E+04;  0.0000000E+00; -1.1426884E-10;  1.0000000E+04;  0.0000000E+00;  9.9999521E+03;-0.045443825;0.0;0.0024485649;24.653126
  2.5999585E-01;  9.9999998E-03; -1.0000008E-01;1442;-0.004750201;0.0;-8.8345121e-05;1000.0477;  4.0000001E-01;39.505047;3;-3.889864;0.0;-0.070924088;0;-0.042678814;  1.0000995E+04;  0.0000000E+00; -3.8917972E-10;  1.0000000E+04;  0.0000000E+00;  9.9999619E+03;-0.044590607;0.0;0.0019117924;20.087763
  2.5999588E-01;  9.9999998E-03; -8.0000058E-02;1443;-0.0046963599;0.0;-5.7603967e-05;1000.0475;  4.0000001E-01;39.307522;3;-3.8300636;0.0;-0.046500236;0;-0.042390272;  1.0000982E+04;  0.0000000E+00; -1.0165645E-10;  1.0000000E+04;  0.0000000E+00;  9.9999697E+03;-0.043849904;0.0;0.0014596339;16.38438
  2.5999591E-01;  9.9999998E-03; -6.0000036E-02;1444;-0.0046517807;0.0;-3.5734283e-05;1000.0474;  4.0000001E-01;39.307522;3;-3.7808352;0.0;-0.028826341;0;-0.042152602;  1.0000974E+04;  0.0000000E+00;  1.2353829E-10;  1.0000000E+04;  0.0000000E+00;  9.9999766E+03;-0.043250032;0.0;0.0010974297;13.513695
  2.5999594E-01;  9.9999998E-03; -4.0000021E-02;1445;-0.0046187458;0.0;-2.0180059e-05;1000.0473;  4.0000001E-01;39.208759;3;-3.7444277;0.0;-0.016325178;0;-0.041977409;  1.0000966E+04;  0.0000000E+00;  3.4700579E-11;  1.0000000E+04;  0.0000000E+00;  9.9999814E+03;-0.042810302;0.0;0.00083289383;11.470886
  2.5999594E-01;  9.9999998E-03; -2.0000011E-02;1446;-0.0045984625;0.0;-9.0152598e-06;1000.0472;  4.0000001E-01;39.109997;3;-3.7220612;0.0;-0.0072479788;0;-0.04187049;  1.0000961E+04;  0.0000000E+00;  1.0622959E-10;  1.0000000E+04;  0.0000000E+00;  9.9999844E+03;-0.042542413;0.0;0.00067192386;10.249991
  2.7999470E-01;  9.9999998E-03; -1.8000038E-01;1469;-0.0060489462;0.0;-0.00040455296;1000.0583;  4.0000001E-01;48.294918;3;-4.9060397;0.0;-0.31570989;0;-0.051590543;  1.0001297E+04;  0.0000000E+00; -1.7430094E-06;  1.0000000E+04;  0.0000000E+00;  9.9998682E+03;-0.057878628;0.0;0.0062880856;60.701519
  2.7999473E-01;  9.9999998E-03; -1.6000028E-01;1470;-0.005988331;0.0;-0.0003056745;1000.0587;  4.0000001E-01;48.689968;3;-4.8298559;0.0;-0.24474062;0;-0.05157508;  1.0001276E+04;  0.0000000E+00; -1.1751931E-09;  1.0000000E+04;  0.0000000E+00;  9.9998965E+03;-0.056628887;0.0;0.0050538075;48.886696
  2.7999476E-01;  9.9999998E-03; -1.4000021E-01;1471;-0.0059103523;0.0;-0.00022443163;1000.0587;  4.0000001E-01;48.689968;3;-4.7425804;0.0;-0.18380991;0;-0.051354807;  1.0001254E+04;  0.0000000E+00;  6.7227744E-11;  1.0000000E+04;  0.0000000E+00;  9.9999209E+03;-0.05535977;0.0;0.0040049627;39.144424
  2.7999482E-01;  9.9999998E-03; -1.2000015E-01;1472;-0.0058271261;0.0;-0.00015707655;1000.0585;  4.0000001E-01;48.393681;3;-4.6531615;0.0;-0.13150415;0;-0.051004555;  1.0001233E+04;  0.0000000E+00; -2.2095724E-10;  1.0000000E+04;  0.0000000E+00;  9.9999365E+03;-0.054140307;0.0;0.0031357503;31.384851
  2.7999485E-01;  9.9999998E-03; -1.0000011E-01;1473;-0.0057463958;0.0;-0.00010588628;1000.0582;  4.0000001E-01;48.196156;3;-4.5681901;0.0;-0.090559147;0;-0.050623011;  1.0001214E+04;  0.0000000E+00; -7.5509848E-10;  1.0000000E+04;  0.0000000E+00;  9.9999531E+03;-0.053028665;0.0;0.0024056558;25.151817
  2.7999490E-01;  9.9999998E-03; -8.0000065E-02;1474;-0.0056746388;0.0;-6.723441e-05;1000.0578;  4.0000001E-01;47.899868;3;-4.4931097;0.0;-0.058749441;0;-0.050269097;  1.0001198E+04;  0.0000000E+00; -2.4809277E-10;  1.0000000E+04;  0.0000000E+00;  9.9999629E+03;-0.0520707;0.0;0.0018016023;20.210539
  2.7999493E-01;  9.9999998E-03; -6.0000043E-02;1475;-0.0056157191;0.0;-4.0427632e-05;1000.0577;  4.0000001E-01;47.801105;3;-4.4315009;0.0;-0.035758078;0;-0.049974341;  1.0001185E+04;  0.0000000E+00; -3.0277891E-11;  1.0000000E+04;  0.0000000E+00;  9.9999727E+03;-0.051299535;0.0;0.0013251922;16.455778
  2.7999496E-01;  9.9999998E-03; -4.0000025E-02;1476;-0.0055723051;0.0;-2.2148935e-05;1000.0576;  4.0000001E-01;47.702343;3;-4.3860035;0.0;-0.019811593;0;-0.049755421;  1.0001176E+04;  0.0000000E+00;  7.9793908E-11;  1.0000000E+04;  0.0000000E+00;  9.9999785E+03;-0.050736737;0.0;0.00098131446;13.82486
  2.7999496E-01;  9.9999998E-03; -2.0000011E-02;1477;-0.0055457507;0.0;-9.6621197e-06;1000.0574;  4.0000001E-01;47.60358;3;-4.3581591;0.0;-0.0087705031;0;-0.049621224;  1.0001170E+04;  0.0000000E+00;  2.4868257E-10;  1.0000000E+04;  0.0000000E+00;  9.9999824E+03;-0.050394904;0.0;0.00077367859;12.268927
  2.9999337E-01;  9.9999998E-03; -1.8000047E-01;1500;-0.0073512923;0.0;-0.00051473832;1000.071;  4.0000001E-01;58.862511;3;-5.7800746;0.0;-0.41190168;0;-0.060986377;  1.0001592E+04;  0.0000000E+00; -7.6091160E-09;  1.0000000E+04;  0.0000000E+00;  9.9998281E+03;-0.069107994;0.0;0.0081216153;79.152664
  2.9999343E-01;  9.9999998E-03; -1.6000035E-01;1501;-0.0072579705;0.0;-0.00038150183;1000.0713;  4.0000001E-01;59.060036;3;-5.676579;0.0;-0.31530905;0;-0.06097962;  1.0001564E+04;  0.0000000E+00; -1.9002224E-09;  1.0000000E+04;  0.0000000E+00;  9.9998662E+03;-0.067476876;0.0;0.0064972565;63.083759
  2.9999349E-01;  9.9999998E-03; -1.4000025E-01;1502;-0.0071475091;0.0;-0.0002746465;1000.0714;  4.0000001E-01;59.158798;3;-5.5632424;0.0;-0.23366077;0;-0.060725078;  1.0001533E+04;  0.0000000E+00; -1.0133050E-10;  1.0000000E+04;  0.0000000E+00;  9.9998965E+03;-0.065826416;0.0;0.0051013394;49.836384
  2.9999354E-01;  9.9999998E-03; -1.2000018E-01;1503;-0.0070340172;0.0;-0.00018799935;1000.0712;  4.0000001E-01;59.060036;3;-5.4499011;0.0;-0.1647002;0;-0.060305294;  1.0001506E+04;  0.0000000E+00; -6.5527594E-10;  1.0000000E+04;  0.0000000E+00;  9.9999219E+03;-0.064248614;0.0;0.0039433218;39.385582
  2.9999363E-01;  9.9999998E-03; -1.0000012E-01;1504;-0.0069261654;0.0;-0.0001236192;1000.071;  4.0000001E-01;58.862511;3;-5.3433871;0.0;-0.1112345;0;-0.059838302;  1.0001479E+04;  0.0000000E+00; -8.2624313E-10;  1.0000000E+04;  0.0000000E+00;  9.9999395E+03;-0.062818728;0.0;0.002980426;31.140518
  2.9999369E-01;  9.9999998E-03; -8.0000080E-02;1505;-0.0068314928;0.0;-7.6433433e-05;1000.0706;  4.0000001E-01;58.467461;3;-5.249908;0.0;-0.071162343;0;-0.059398405;  1.0001458E+04;  0.0000000E+00;  2.0809937E-10;  1.0000000E+04;  0.0000000E+00;  9.9999551E+03;-0.061593775;0.0;0.0021953706;24.738848
  2.9999372E-01;  9.9999998E-03; -6.0000047E-02;1506;-0.0067543532;0.0;-4.4377637e-05;1000.0703;  4.0000001E-01;58.269936;3;-5.1735806;0.0;-0.042586554;0;-0.059027806;  1.0001439E+04;  0.0000000E+00;  4.1163375E-10;  1.0000000E+04;  0.0000000E+00;  9.9999668E+03;-0.060612839;0.0;0.0015850341;19.968817
  2.9999378E-01;  9.9999998E-03; -4.0000029E-02;1507;-0.006697773;0.0;-2.3340868e-05;1000.0699;  4.0000001E-01;57.973648;3;-5.1171865;0.0;-0.022952249;0;-0.058750458;  1.0001426E+04;  0.0000000E+00;  5.1582438E-10;  1.0000000E+04;  0.0000000E+00;  9.9999736E+03;-0.059900064;0.0;0.0011496043;16.680183
  2.9999378E-01;  9.9999998E-03; -2.0000013E-02;1508;-0.0066633043;0.0;-9.8858009e-06;1000.0699;  4.0000001E-01;57.874886;3;-5.0827413;0.0;-0.010031484;0;-0.058579579;  1.0001420E+04;  0.0000000E+00;  1.7504259E-10;  1.0000000E+04;  0.0000000E+00;  9.9999785E+03;-0.059468385;0.0;0.00088880508;14.757563
  3.1999174E-01;  9.9999998E-03; -1.8000059E-01;1531;-0.0089032259;0.0;-0.00064108305;1000.0864;  4.0000001E-01;71.50412;3;-6.7804198;0.0;-0.52216345;0;-0.071937218;  1.0001948E+04;  0.0000000E+00; -1.1025797E-08;  1.0000000E+04;  0.0000000E+00;  9.9997822E+03;-0.082152501;0.0;0.010215285;100.87339
  3.1999183E-01;  9.9999998E-03; -1.6000043E-01;1532;-0.0087670768;0.0;-0.00046743688;1000.0868;  4.0000001E-01;71.899178;3;-6.644629;0.0;-0.39648539;0;-0.071914583;  1.0001909E+04;  0.0000000E+00; -1.1814715E-09;  1.0000000E+04;  0.0000000E+00;  9.9998291E+03;-0.080063656;0.0;0.0081490716;79.716713
  3.1999192E-01;  9.9999998E-03; -1.4000030E-01;1533;-0.0086142765;0.0;-0.00032967358;1000.0869;  4.0000001E-01;71.99794;3;-6.5002203;0.0;-0.28975704;0;-0.071594387;  1.0001868E+04;  0.0000000E+00;  5.4691490E-10;  1.0000000E+04;  0.0000000E+00;  9.9998701E+03;-0.077949233;0.0;0.0063548447;62.305447
  3.1999204E-01;  9.9999998E-03; -1.2000021E-01;1534;-0.0084615573;0.0;-0.00022067672;1000.0865;  4.0000001E-01;71.701653;3;-6.3582134;0.0;-0.20093766;0;-0.071070179;  1.0001829E+04;  0.0000000E+00; -5.4792504E-10;  1.0000000E+04;  0.0000000E+00;  9.9999023E+03;-0.075933762;0.0;0.0048635849;48.698612
  3.1999213E-01;  9.9999998E-03; -1.0000014E-01;1535;-0.0083188638;0.0;-0.00014135579;1000.0859;  4.0000001E-01;71.207832;3;-6.225883;0.0;-0.1330124;0;-0.070482247;  1.0001795E+04;  0.0000000E+00; -6.2253919E-10;  1.0000000E+04;  0.0000000E+00;  9.9999268E+03;-0.074116029;0.0;0.0036337855;38.144436
  3.1999221E-01;  9.9999998E-03; -8.0000088E-02;1536;-0.0081949802;0.0;-8.4553605e-05;1000.0855;  4.0000001E-01;70.812782;3;-6.1102319;0.0;-0.082785897;0;-0.069922991;  1.0001766E+04;  0.0000000E+00;  6.8071847E-11;  1.0000000E+04;  0.0000000E+00;  9.9999443E+03;-0.072567374;0.0;0.0026443838;30.115807
  3.1999227E-01;  9.9999998E-03; -6.0000055E-02;1537;-0.0080948332;0.0;-4.7351878e-05;1000.0851;  4.0000001E-01;70.516495;3;-6.0162044;0.0;-0.04866891;0;-0.069447882;  1.0001746E+04;  0.0000000E+00;  2.9370123E-10;  1.0000000E+04;  0.0000000E+00;  9.9999590E+03;-0.071333773;0.0;0.0018858926;24.253696
  3.1999233E-01;  9.9999998E-03; -4.0000029E-02;1538;-0.0080216741;0.0;-2.3698884e-05;1000.0847;  4.0000001E-01;70.121445;3;-5.9467244;0.0;-0.025190389;0;-0.069090024;  1.0001729E+04;  0.0000000E+00;  6.3794481E-10;  1.0000000E+04;  0.0000000E+00;  9.9999678E+03;-0.070441291;0.0;0.0013512692;20.282541
  3.1999236E-01;  9.9999998E-03; -2.0000013E-02;1539;-0.0079772519;0.0;-9.6549966e-06;1000.0845;  4.0000001E-01;70.022682;3;-5.904326;0.0;-0.010761222;0;-0.068868689;  1.0001720E+04;  0.0000000E+00;  4.4650944E-10;  1.0000000E+04;  0.0000000E+00;  9.9999736E+03;-0.069902532;0.0;0.0010338408;17.990925
  3.3998975E-01;  9.9999998E-03; -1.8000071E-01;1562;-0.010745109;0.0;-0.00077848701;1000.105;  4.0000001E-01;87.009842;3;-7.9184141;0.0;-0.64239979;0;-0.084692352;  1.0002373E+04;  0.0000000E+00; -9.9352384E-09;  1.0000000E+04;  0.0000000E+00;  9.9997266E+03;-0.097250365;0.0;0.012558013;125.98334
  3.3998987E-01;  9.9999998E-03; -1.6000052E-01;1563;-0.010554388;0.0;-0.00056017016;1000.1055;  4.0000001E-01;87.4049;3;-7.7454567;0.0;-0.48293591;0;-0.084606253;  1.0002321E+04;  0.0000000E+00;  2.5292877E-09;  1.0000000E+04;  0.0000000E+00;  9.9997900E+03;-0.094598025;0.0;0.0099917706;98.806282
  3.3999002E-01;  9.9999998E-03; -1.4000036E-01;1564;-0.010347939;0.0;-0.00038896303;1000.1053;  4.0000001E-01;87.306129;3;-7.5657005;0.0;-0.35159242;0;-0.084165692;  1.0002267E+04;  0.0000000E+00;  6.4596728E-10;  1.0000000E+04;  0.0000000E+00;  9.9998398E+03;-0.091914982;0.0;0.0077492911;76.573044
  3.3999017E-01;  9.9999998E-03; -1.2000024E-01;1565;-0.010145035;0.0;-0.00025489496;1000.1049;  4.0000001E-01;86.911079;3;-7.3897061;0.0;-0.23909709;0;-0.083479367;  1.0002216E+04;  0.0000000E+00; -1.1942409E-09;  1.0000000E+04;  0.0000000E+00;  9.9998799E+03;-0.089367181;0.0;0.0058878125;59.413647
  3.3999029E-01;  9.9999998E-03; -1.0000016E-01;1566;-0.0099580782;0.0;-0.00015923145;1000.104;  4.0000001E-01;86.120979;3;-7.2264085;0.0;-0.15533592;0;-0.082714513;  1.0002171E+04;  0.0000000E+00; -1.2895435E-09;  1.0000000E+04;  0.0000000E+00;  9.9999102E+03;-0.087081999;0.0;0.0043674847;46.349796
  3.3999041E-01;  9.9999998E-03; -8.0000103E-02;1567;-0.00979733;0.0;-9.2194961e-05;1000.1035;  4.0000001E-01;85.725929;3;-7.0842743;0.0;-0.093178086;0;-0.081985325;  1.0002134E+04;  0.0000000E+00; -1.4517465E-10;  1.0000000E+04;  0.0000000E+00;  9.9999346E+03;-0.085146859;0.0;0.0031615312;36.627323
  3.3999053E-01;  9.9999998E-03; -6.0000062E-02;1568;-0.0096683344;0.0;-4.9875678e-05;1000.1028;  4.0000001E-01;85.133354;3;-6.9688978;0.0;-0.053376149;0;-0.081363566;  1.0002104E+04;  0.0000000E+00;  1.5812474E-10;  1.0000000E+04;  0.0000000E+00;  9.9999492E+03;-0.083614387;0.0;0.002250819;29.684841
  3.3999059E-01;  9.9999998E-03; -4.0000033E-02;1569;-0.0095744794;0.0;-2.3681774e-05;1000.1022;  4.0000001E-01;84.738304;3;-6.8836813;0.0;-0.02609911;0;-0.080893673;  1.0002084E+04;  0.0000000E+00;  3.1070574E-10;  1.0000000E+04;  0.0000000E+00;  9.9999600E+03;-0.082511097;0.0;0.0016174245;25.0749
  3.3999062E-01;  9.9999998E-03; -2.0000014E-02;1570;-0.0095176725;0.0;-9.2305772e-06;1000.102;  4.0000001E-01;84.540779;3;-6.8316684;0.0;-0.010757419;0;-0.080602288;  1.0002072E+04;  0.0000000E+00;  4.5691112E-10;  1.0000000E+04;  0.0000000E+00;  9.9999668E+03;-0.081847362;0.0;0.0012450723;22.455141
  3.5998729E-01;  9.9999998E-03; -1.8000086E-01;1593;-0.012923563;0.0;-0.00092758687;1000.1274;  4.0000001E-01;105.57719;3;-9.208993;0.0;-0.77694076;0;-0.099516742;  1.0002884E+04;  0.0000000E+00; -5.7674243E-09;  1.0000000E+04;  0.0000000E+00;  9.9996660E+03;-0.11465361;0.0;0.015136866;154.59122
  3.5998750E-01;  9.9999998E-03; -1.6000061E-01;1594;-0.012663337;0.0;-0.00065891177;1000.1276;  4.0000001E-01;105.77472;3;-8.993;0.0;-0.57587874;0;-0.099291243;  1.0002813E+04;  0.0000000E+00;  6.9225257E-09;  1.0000000E+04;  0.0000000E+00;  9.9997422E+03;-0.11129539;0.0;0.012004145;120.3901
  3.5998771E-01;  9.9999998E-03; -1.4000042E-01;1595;-0.012388832;0.0;-0.00045062887;1000.1273;  4.0000001E-01;105.47843;3;-8.7711926;0.0;-0.4127917;0;-0.098646156;  1.0002738E+04;  0.0000000E+00; -9.6806496E-10;  1.0000000E+04;  0.0000000E+00;  9.9998057E+03;-0.10791413;0.0;0.0092679802;92.73793
  3.5998791E-01;  9.9999998E-03; -1.2000029E-01;1596;-0.012123155;0.0;-0.0002919714;1000.1263;  4.0000001E-01;104.68833;3;-8.5559902;0.0;-0.27731824;0;-0.097710922;  1.0002673E+04;  0.0000000E+00; -5.9079386E-09;  1.0000000E+04;  0.0000000E+00;  9.9998555E+03;-0.10472389;0.0;0.0070129666;71.768982
  3.5998809E-01;  9.9999998E-03; -1.0000019E-01;1597;-0.011880865;0.0;-0.00017936181;1000.1252;  4.0000001E-01;103.79947;3;-8.3562632;0.0;-0.17732243;0;-0.096686974;  1.0002616E+04;  0.0000000E+00; -3.6889836E-09;  1.0000000E+04;  0.0000000E+00;  9.9998916E+03;-0.10188314;0.0;0.0051961648;56.154404
  3.5998824E-01;  9.9999998E-03; -8.0000117E-02;1598;-0.011674176;0.0;-0.00010171147;1000.1244;  4.0000001E-01;103.00937;3;-8.1825333;0.0;-0.1023109;0;-0.095715903;  1.0002568E+04;  0.0000000E+00; -8.8420099E-10;  1.0000000E+04;  0.0000000E+00;  9.9999180E+03;-0.099495217;0.0;0.0037793124;44.817833
  3.5998836E-01;  9.9999998E-03; -6.0000073E-02;1599;-0.011509382;0.0;-5.3620417e-05;1000.1234;  4.0000001E-01;102.21927;3;-8.0411415;0.0;-0.055117551;0;-0.094888777;  1.0002532E+04;  0.0000000E+00;  3.1633540E-10;  1.0000000E+04;  0.0000000E+00;  9.9999355E+03;-0.097616747;0.0;0.002727974;36.926407
  3.5998845E-01;  9.9999998E-03; -4.0000044E-02;1600;-0.011390083;0.0;-2.4892992e-05;1000.1229;  4.0000001E-01;101.82422;3;-7.9372063;0.0;-0.02574851;0;-0.09426365;  1.0002508E+04;  0.0000000E+00;  4.8945104E-10;  1.0000000E+04;  0.0000000E+00;  9.9999492E+03;-0.096271902;0.0;0.0020082546;31.808931
  3.5998851E-01;  9.9999998E-03; -2.0000020E-02;1601;-0.011318055;0.0;-9.465638e-06;1000.1225;  4.0000001E-01;101.52793;3;-7.8735671;0.0;-0.010059092;0;-0.09387587;  1.0002493E+04;  0.0000000E+00;  4.2793757E-10;  1.0000000E+04;  0.0000000E+00;  9.9999561E+03;-0.095466085;0.0;0.0015902109;28.954924
  3.7998432E-01;  9.9999998E-03; -1.8000102E-01;1624;-0.01548792;0.0;-0.0010897382;1000.1542;  4.0000001E-01;127.79876;3;-10.663669;0.0;-0.92032576;0;-0.11668426;  1.0003485E+04;  0.0000000E+00;  2.5981921E-09;  1.0000000E+04;  0.0000000E+00;  9.9995977E+03;-0.13461034;0.0;0.01792608;186.76595
  3.7998462E-01;  9.9999998E-03; -1.6000073E-01;1625;-0.015140069;0.0;-0.00076790963;1000.1541;  4.0000001E-01;127.7;3;-10.400621;0.0;-0.67580664;0;-0.11620758;  1.0003390E+04;  0.0000000E+00;  8.8391294E-09;  1.0000000E+04;  0.0000000E+00;  9.9996934E+03;-0.13036683;0.0;0.01415925;144.58737
  3.7998492E-01;  9.9999998E-03; -1.4000051E-01;1626;-0.014780295;0.0;-0.00052045472;1000.1534;  4.0000001E-01;127.10742;3;-10.130805;0.0;-0.47846177;0;-0.11523572;  1.0003298E+04;  0.0000000E+00; -9.5435206E-09;  1.0000000E+04;  0.0000000E+00;  9.9997686E+03;-0.12613504;0.0;0.010899317;111.10941
  3.7998518E-01;  9.9999998E-03; -1.2000034E-01;1627;-0.014436012;0.0;-0.00033628594;1000.1519;  4.0000001E-01;125.82351;3;-9.8684235;0.0;-0.31355062;0;-0.11392811;  1.0003212E+04;  0.0000000E+00; -1.5735816E-08;  1.0000000E+04;  0.0000000E+00;  9.9998262E+03;-0.12218066;0.0;0.0082525564;86.320198
  3.7998542E-01;  9.9999998E-03; -1.0000023E-01;1628;-0.01412566;0.0;-0.00020702698;1000.1505;  4.0000001E-01;124.63836;3;-9.6264944;0.0;-0.19845685;0;-0.11253133;  1.0003139E+04;  0.0000000E+00; -1.0890285E-08;  1.0000000E+04;  0.0000000E+00;  9.9998682E+03;-0.11869235;0.0;0.0061610215;68.345451
  3.7998563E-01;  9.9999998E-03; -8.0000155E-02;1629;-0.013862603;0.0;-0.00011871044;1000.1489;  4.0000001E-01;123.35445;3;-9.4150391;0.0;-0.11120977;0;-0.11122117;  1.0003082E+04;  0.0000000E+00; -4.2415786E-09;  1.0000000E+04;  0.0000000E+00;  9.9998984E+03;-0.11578578;0.0;0.0045646033;55.660633
  3.7998581E-01;  9.9999998E-03; -6.0000099E-02;1630;-0.013654189;0.0;-6.3789332e-05;1000.1478;  4.0000001E-01;122.46558;3;-9.2426538;0.0;-0.05686488;0;-0.11011171;  1.0003038E+04;  0.0000000E+00; -1.9444177E-09;  1.0000000E+04;  0.0000000E+00;  9.9999180E+03;-0.11351724;0.0;0.0034055244;47.087357
  3.7998590E-01;  9.9999998E-03; -4.0000059E-02;1631;-0.013503978;0.0;-3.0801188e-05;1000.147;  4.0000001E-01;121.77424;3;-9.116003;0.0;-0.025180519;0;-0.10927579;  1.0003006E+04;  0.0000000E+00; -4.6214269E-11;  1.0000000E+04;  0.0000000E+00;  9.9999316E+03;-0.1119034;0.0;0.0026276142;41.68409
  3.7998599E-01;  9.9999998E-03; -2.0000027E-02;1632;-0.013413534;0.0;-1.2193348e-05;1000.1464;  4.0000001E-01;121.28043;3;-9.0383091;0.0;-0.0092372997;0;-0.10875809;  1.0002987E+04;  0.0000000E+00;  6.1118677E-10;  1.0000000E+04;  0.0000000E+00;  9.9999375E+03;-0.11094075;0.0;0.0021826574;38.741184
  3.9998075E-01;  9.9999998E-03; -1.8000121E-01;1655;-0.018489689;0.0;-0.0012709408;1000.1863;  4.0000001E-01;154.36586;3;-12.295811;0.0;-1.0749345;0;-0.13646689;  1.0004200E+04;  0.0000000E+00;  8.4870830E-09;  1.0000000E+04;  0.0000000E+00;  9.9995225E+03;-0.15734552;0.0;0.020878633;222.59261
  3.9998114E-01;  9.9999998E-03; -1.6000086E-01;1656;-0.01803159;0.0;-0.00089613913;1000.1855;  4.0000001E-01;153.67451;3;-11.981193;0.0;-0.78357738;0;-0.13557784;  1.0004072E+04;  0.0000000E+00;  5.3550169E-09;  1.0000000E+04;  0.0000000E+00;  9.9996377E+03;-0.1520057;0.0;0.016427865;171.77028
  3.9998156E-01;  9.9999998E-03; -1.4000061E-01;1657;-0.017565353;0.0;-0.00060937984;1000.184;  4.0000001E-01;152.39061;3;-11.656462;0.0;-0.54984641;0;-0.13410822;  1.0003955E+04;  0.0000000E+00; -2.8532058E-08;  1.0000000E+04;  0.0000000E+00;  9.9997256E+03;-0.1467572;0.0;0.012648983;132.44771
  3.9998192E-01;  9.9999998E-03; -1.2000043E-01;1658;-0.017123945;0.0;-0.00040069758;1000.1819;  4.0000001E-01;150.71164;3;-11.339686;0.0;-0.35687909;0;-0.13226035;  1.0003846E+04;  0.0000000E+00; -3.4533311E-08;  1.0000000E+04;  0.0000000E+00;  9.9997920E+03;-0.14191446;0.0;0.0096541075;104.20258
  3.9998224E-01;  9.9999998E-03; -1.0000031E-01;1659;-0.016730422;0.0;-0.00025401032;1000.1796;  4.0000001E-01;148.83514;3;-11.04711;0.0;-0.22362234;0;-0.13034147;  1.0003756E+04;  0.0000000E+00; -2.1212694E-08;  1.0000000E+04;  0.0000000E+00;  9.9998359E+03;-0.13769086;0.0;0.0073493798;84.349503
  3.9998251E-01;  9.9999998E-03; -8.0000214E-02;1660;-0.016399294;0.0;-0.00015372947;1000.1777;  4.0000001E-01;147.25494;3;-10.790796;0.0;-0.12368856;0;-0.12856911;  1.0003686E+04;  0.0000000E+00; -9.9816972E-09;  1.0000000E+04;  0.0000000E+00;  9.9998691E+03;-0.13420723;0.0;0.0056381202;70.777565
  3.9998272E-01;  9.9999998E-03; -6.0000144E-02;1661;-0.016138615;0.0;-8.9115987e-05;1000.1761;  4.0000001E-01;145.87227;3;-10.581522;0.0;-0.061877344;0;-0.12708233;  1.0003632E+04;  0.0000000E+00; -3.8351224E-09;  1.0000000E+04;  0.0000000E+00;  9.9998906E+03;-0.13151205;0.0;0.0044297199;61.905338
  3.9998287E-01;  9.9999998E-03; -4.0000089E-02;1662;-0.015951565;0.0;-4.7620459e-05;1000.1748;  4.0000001E-01;144.78589;3;-10.427538;0.0;-0.026834035;0;-0.12596899;  1.0003596E+04;  0.0000000E+00; -7.2155742E-10;  1.0000000E+04;  0.0000000E+00;  9.9999043E+03;-0.12960844;0.0;0.0036394375;56.49968
  3.9998293E-01;  9.9999998E-03; -2.0000042E-02;1663;-0.015839262;0.0;-2.0625572e-05;1000.1743;  4.0000001E-01;144.39084;3;-10.332952;0.0;-0.0094993282;0;-0.12528212;  1.0003574E+04;  0.0000000E+00; -1.4691188E-11;  1.0000000E+04;  0.0000000E+00;  9.9999111E+03;-0.1284788;0.0;0.0031966646;53.641655
  4.1997644E-01;  9.9999998E-03; -1.8000145E-01;1686;-0.021982664;0.0;-0.0014848952;1000.224;  4.0000001E-01;185.57477;3;-14.117832;0.0;-1.2416755;0;-0.15909515;  1.0005038E+04;  0.0000000E+00;  1.8090743E-08;  1.0000000E+04;  0.0000000E+00;  9.9994395E+03;-0.18302666;0.0;0.023931509;262.44934
  4.1997701E-01;  9.9999998E-03; -1.6000107E-01;1687;-0.021385767;0.0;-0.0010622457;1000.2224;  4.0000001E-01;184.19208;3;-13.74606;0.0;-0.90468699;0;-0.15756847;  1.0004871E+04;  0.0000000E+00; -1.4931643E-08;  1.0000000E+04;  0.0000000E+00;  9.9995742E+03;-0.17636399;0.0;0.018795518;202.92931
  4.1997755E-01;  9.9999998E-03; -1.4000079E-01;1688;-0.020787546;0.0;-0.00073862431;1000.2198;  4.0000001E-01;182.11807;3;-13.358877;0.0;-0.63304311;0;-0.15537052;  1.0004720E+04;  0.0000000E+00; -6.1562616E-08;  1.0000000E+04;  0.0000000E+00;  9.9996738E+03;-0.16993475;0.0;0.014564225;158.35924
  4.1997805E-01;  9.9999998E-03; -1.2000058E-01;1689;-0.020227313;0.0;-0.00050686329;1000.2167;  4.0000001E-01;179.55025;3;-12.978543;0.0;-0.41456932;0;-0.15276596;  1.0004589E+04;  0.0000000E+00; -5.9537665E-08;  1.0000000E+04;  0.0000000E+00;  9.9997451E+03;-0.16409194;0.0;0.011325992;127.503
  4.1997847E-01;  9.9999998E-03; -1.0000043E-01;1690;-0.019733509;0.0;-0.00034083004;1000.2136;  4.0000001E-01;176.98242;3;-12.626524;0.0;-0.26095676;0;-0.15014087;  1.0004479E+04;  0.0000000E+00; -3.8525421E-08;  1.0000000E+04;  0.0000000E+00;  9.9997949E+03;-0.15906154;0.0;0.0089206649;106.54852
  4.1997880E-01;  9.9999998E-03; -8.0000319E-02;1691;-0.01932144;0.0;-0.00022459135;1000.2109;  4.0000001E-01;174.71088;3;-12.31732;0.0;-0.14743578;0;-0.14776102;  1.0004394E+04;  0.0000000E+00; -1.7353877E-08;  1.0000000E+04;  0.0000000E+00;  9.9998242E+03;-0.15495825;0.0;0.0071972245;92.68705
  4.1997904E-01;  9.9999998E-03; -6.0000226E-02;1692;-0.01899928;0.0;-0.00014388918;1000.2087;  4.0000001E-01;172.93317;3;-12.064375;0.0;-0.076734684;0;-0.14579017;  1.0004330E+04;  0.0000000E+00; -7.0049717E-09;  1.0000000E+04;  0.0000000E+00;  9.9998467E+03;-0.15181391;0.0;0.0060237315;83.930161
  4.1997921E-01;  9.9999998E-03; -4.0000144E-02;1693;-0.018769212;0.0;-8.5306914e-05;1000.2072;  4.0000001E-01;171.64925;3;-11.877818;0.0;-0.03547556;0;-0.14432682;  1.0004285E+04;  0.0000000E+00; -1.9247255E-09;  1.0000000E+04;  0.0000000E+00;  9.9998574E+03;-0.14960983;0.0;0.0052830158;78.786766
  4.1997933E-01;  9.9999998E-03; -2.0000072E-02;1694;-0.01863149;0.0;-3.9802922e-05;1000.2062;  4.0000001E-01;170.85915;3;-11.763077;0.0;-0.013086027;0;-0.14342877;  1.0004262E+04;  0.0000000E+00; -9.4208708E-10;  1.0000000E+04;  0.0000000E+00;  9.9998643E+03;-0.14830898;0.0;0.0048802085;76.160019
  4.3997130E-01;  9.9999998E-03; -1.8000181E-01;1717;-0.02602732;0.0;-0.0017633458;1000.2677;  4.0000001E-01;221.82053;3;-16.141008;0.0;-1.4252903;0;-0.18465589;  1.0006010E+04;  0.0000000E+00;  4.7600666E-09;  1.0000000E+04;  0.0000000E+00;  9.9993496E+03;-0.21169011;0.0;0.027034227;307.62289
  4.3997207E-01;  9.9999998E-03; -1.6000138E-01;1718;-0.025255408;0.0;-0.0013001808;1000.2648;  4.0000001E-01;219.45023;3;-15.702706;0.0;-1.0555214;0;-0.18218774;  1.0005801E+04;  0.0000000E+00; -5.1717073E-08;  1.0000000E+04;  0.0000000E+00;  9.9994980E+03;-0.20348759;0.0;0.021299848;240.28502
  4.3997279E-01;  9.9999998E-03; -1.4000106E-01;1719;-0.024494953;0.0;-0.00094490557;1000.2607;  4.0000001E-01;215.99353;3;-15.246839;0.0;-0.74125499;0;-0.17896767;  1.0005609E+04;  0.0000000E+00; -1.0072872E-07;  1.0000000E+04;  0.0000000E+00;  9.9996074E+03;-0.19574139;0.0;0.016773719;191.84792
  4.3997341E-01;  9.9999998E-03; -1.2000082E-01;1720;-0.023791496;0.0;-0.00068979361;1000.2565;  4.0000001E-01;212.53685;3;-14.793099;0.0;-0.50008833;0;-0.17534597;  1.0005451E+04;  0.0000000E+00; -8.6063579E-08;  1.0000000E+04;  0.0000000E+00;  9.9996797E+03;-0.18882029;0.0;0.01347431;159.71278
  4.3997395E-01;  9.9999998E-03; -1.0000064E-01;1721;-0.023178415;0.0;-0.00049958105;1000.2523;  4.0000001E-01;209.08015;3;-14.371878;0.0;-0.32540795;0;-0.17180607;  1.0005318E+04;  0.0000000E+00; -4.7857117E-08;  1.0000000E+04;  0.0000000E+00;  9.9997295E+03;-0.18294284;0.0;0.011136767;138.61801
  4.3997437E-01;  9.9999998E-03; -8.0000497E-02;1722;-0.022671865;0.0;-0.00035856629;1000.2489;  4.0000001E-01;206.21605;3;-14.000696;0.0;-0.19597566;0;-0.16866459;  1.0005217E+04;  0.0000000E+00; -1.9792520E-08;  1.0000000E+04;  0.0000000E+00;  9.9997607E+03;-0.17820334;0.0;0.009538753;125.03114
  4.3997470E-01;  9.9999998E-03; -6.0000367E-02;1723;-0.02227873;0.0;-0.00024945219;1000.2462;  4.0000001E-01;203.9445;3;-13.696707;0.0;-0.11256351;0;-0.16610251;  1.0005144E+04;  0.0000000E+00; -7.2824937E-09;  1.0000000E+04;  0.0000000E+00;  9.9997822E+03;-0.17460585;0.0;0.0085033271;116.65757
  4.3997490E-01;  9.9999998E-03; -4.0000245E-02;1724;-0.021999508;0.0;-0.0001583527;1000.2443;  4.0000001E-01;202.3643;3;-13.471917;0.0;-0.058775928;0;-0.16422065;  1.0005094E+04;  0.0000000E+00; -3.4607324E-09;  1.0000000E+04;  0.0000000E+00;  9.9997910E+03;-0.17210343;0.0;0.0078827823;111.87191
  4.3997505E-01;  9.9999998E-03; -2.0000121E-02;1725;-0.021832908;0.0;-7.7255492e-05;1000.2429;  4.0000001E-01;201.27792;3;-13.333442;0.0;-0.024423443;0;-0.16307336;  1.0005064E+04;  0.0000000E+00; -6.2503341E-10;  1.0000000E+04;  0.0000000E+00;  9.9997969E+03;-0.17063425;0.0;0.0075608953;109.49656
  4.5996517E-01;  9.9999998E-03; -1.8000235E-01;1748;-0.030690558;0.0;-0.0021608097;1000.3187;  4.0000039E-01;264.0907;3;-18.374023;0.0;-1.6399659;0;-0.21286808;  1.0007114E+04;  0.0000000E+00;  9.6890567E-09;  1.0000000E+04;  0.0000000E+00;  9.9992373E+03;-0.24307665;0.0;0.030208578;361.32565
  4.5996618E-01;  9.9999998E-03; -1.6000187E-01;1749;-0.029703299;0.0;-0.0016668712;1000.3138;  4.0000036E-01;259.94269;3;-17.863518;0.0;-1.2431712;0;-0.20907596;  1.0006854E+04;  0.0000000E+00; -8.0672230E-08;  1.0000000E+04;  0.0000000E+00;  9.9994014E+03;-0.23316641;0.0;0.02409046;288.11765
  4.5996714E-01;  9.9999998E-03; -1.4000152E-01;1750;-0.028745856;0.0;-0.0012865058;1000.308;  4.0000048E-01;255.20209;3;-17.327288;0.0;-0.89722109;0;-0.20448655;  1.0006625E+04;  0.0000000E+00; -1.2632293E-07;  1.0000000E+04;  0.0000000E+00;  9.9995146E+03;-0.2240274;0.0;0.019540841;237.94133
  4.5996794E-01;  9.9999998E-03; -1.2000123E-01;1751;-0.027872249;0.0;-0.0010025086;1000.3019;  4.0000045E-01;250.06644;3;-16.789097;0.0;-0.64207184;0;-0.19956233;  1.0006435E+04;  0.0000000E+00; -8.8042690E-08;  1.0000000E+04;  0.0000000E+00;  9.9995869E+03;-0.21600707;0.0;0.016444737;206.15553
  4.5996863E-01;  9.9999998E-03; -1.0000100E-01;1752;-0.027120665;0.0;-0.00077681552;1000.2966;  4.0000039E-01;245.72089;3;-16.288828;0.0;-0.44051939;0;-0.19489861;  1.0006280E+04;  0.0000000E+00; -4.1851699E-08;  1.0000000E+04;  0.0000000E+00;  9.9996338E+03;-0.20928952;0.0;0.014390913;185.78316
  4.5996913E-01;  9.9999998E-03; -8.0000795E-02;1753;-0.026506118;0.0;-0.00059425365;1000.2922;  4.0000039E-01;242.06668;3;-15.846638;0.0;-0.29079601;0;-0.19085634;  1.0006162E+04;  0.0000000E+00; -1.6713564E-08;  1.0000000E+04;  0.0000000E+00;  9.9996641E+03;-0.20393167;0.0;0.013075335;172.68958
  4.5996952E-01;  9.9999998E-03; -6.0000598E-02;1754;-0.026032891;0.0;-0.00043603883;1000.2889;  4.0000036E-01;239.4001;3;-15.483728;0.0;-0.18726018;0;-0.18761763;  1.0006078E+04;  0.0000000E+00; -4.4531849E-09;  1.0000000E+04;  0.0000000E+00;  9.9996797E+03;-0.19990006;0.0;0.012282427;164.53308
  4.5996979E-01;  9.9999998E-03; -4.0000401E-02;1755;-0.025698854;0.0;-0.00028771034;1000.2865;  4.0000039E-01;237.32608;3;-15.21487;0.0;-0.10996605;0;-0.18526873;  1.0006021E+04;  0.0000000E+00; -2.1004032E-09;  1.0000000E+04;  0.0000000E+00;  9.9996924E+03;-0.19711457;0.0;0.011845835;159.80389
  4.5996994E-01;  9.9999998E-03; -2.0000203E-02;1756;-0.025500251;0.0;-0.00014326192;1000.2852;  4.0000039E-01;236.33846;3;-15.049104;0.0;-0.049524281;0;-0.18384849;  1.0005989E+04;  0.0000000E+00; -4.8769287E-11;  1.0000000E+04;  0.0000000E+00;  9.9996963E+03;-0.19548707;0.0;0.01163858;157.42877
  4.7995785E-01;  9.9999998E-03; -1.8000320E-01;1779;-0.036046561;0.0;-0.002769338;1000.3747;  4.0000129E-01;310.41003;3;-20.827297;0.0;-1.9201965;0;-0.24272153;  1.0008339E+04;  0.0000000E+00;  1.9902986E-07;  1.0000000E+04;  0.0000000E+00;  9.9990986E+03;-0.27636018;0.0;0.033638664;430.10529
  4.7995919E-01;  9.9999998E-03; -1.6000268E-01;1780;-0.034800395;0.0;-0.0022528481;1000.3676;  4.0000126E-01;304.48428;3;-20.233589;0.0;-1.4975247;0;-0.23717074;  1.0008023E+04;  0.0000000E+00;  3.1849243E-08;  1.0000000E+04;  0.0000000E+00;  9.9992725E+03;-0.26467311;0.0;0.027502369;353.6778
  4.7996041E-01;  9.9999998E-03; -1.4000225E-01;1781;-0.033609897;0.0;-0.0018469437;1000.3595;  4.0000123E-01;297.86722;3;-19.605791;0.0;-1.1382358;0;-0.23084396;  1.0007752E+04;  0.0000000E+00; -3.2522333E-08;  1.0000000E+04;  0.0000000E+00;  9.9993809E+03;-0.25416052;0.0;0.023316562;304.20309
  4.7996143E-01;  9.9999998E-03; -1.2000189E-01;1782;-0.032540474;0.0;-0.0015182234;1000.3516;  4.0000117E-01;291.34891;3;-18.97514;0.0;-0.8702811;0;-0.22434419;  1.0007529E+04;  0.0000000E+00; -2.3200544E-08;  1.0000000E+04;  0.0000000E+00;  9.9994492E+03;-0.24509935;0.0;0.020755164;274.21445
  4.7996226E-01;  9.9999998E-03; -1.0000156E-01;1783;-0.031630982;0.0;-0.0012339599;1000.345;  4.0000126E-01;285.81821;3;-18.382486;0.0;-0.63921112;0;-0.21838392;  1.0007354E+04;  0.0000000E+00; -3.7457650E-09;  1.0000000E+04;  0.0000000E+00;  9.9994902E+03;-0.23760635;0.0;0.019222429;254.84328
  4.7996289E-01;  9.9999998E-03; -8.0001257E-02;1784;-0.030895874;0.0;-0.00098087534;1000.3397;  4.0000120E-01;281.47266;3;-17.86021;0.0;-0.46247703;0;-0.21334998;  1.0007221E+04;  0.0000000E+00;  2.6681206E-09;  1.0000000E+04;  0.0000000E+00;  9.9995146E+03;-0.23168534;0.0;0.018335352;241.664
  4.7996336E-01;  9.9999998E-03; -6.0000949E-02;1785;-0.030334964;0.0;-0.00073967245;1000.3359;  4.0000126E-01;278.31229;3;-17.431242;0.0;-0.32291073;0;-0.20939925;  1.0007126E+04;  0.0000000E+00;  1.6492417E-09;  1.0000000E+04;  0.0000000E+00;  9.9995352E+03;-0.22726084;0.0;0.017861584;232.73743
  4.7996366E-01;  9.9999998E-03; -4.0000640E-02;1786;-0.029941695;0.0;-0.00049803243;1000.3333;  4.0000123E-01;276.1395;3;-17.113331;0.0;-0.206843;0;-0.20657685;  1.0007061E+04;  0.0000000E+00;  1.3214918E-09;  1.0000000E+04;  0.0000000E+00;  9.9995469E+03;-0.2242189;0.0;0.017642053;227.07324
  4.7996384E-01;  9.9999998E-03; -2.0000322E-02;1787;-0.029708769;0.0;-0.00025112194;1000.3317;  4.0000120E-01;274.75684;3;-16.916876;0.0;-0.10007687;0;-0.20488697;  1.0007025E+04;  0.0000000E+00;  2.4717578E-10;  1.0000000E+04;  0.0000000E+00;  9.9995537E+03;-0.2224474;0.0;0.017560428;223.993
  4.9994919E-01;  9.9999998E-03; -1.8000454E-01;1810;-0.042163622;0.0;-0.0037185997;1000.4333;  4.0000275E-01;359.00076;3;-23.496786;0.0;-2.3069918;0;-0.27204326;  1.0009624E+04;  0.0000000E+00;  1.0289751E-06;  1.0000000E+04;  0.0000000E+00;  9.9989082E+03;-0.30982229;0.0;0.037779044;525.69366
  4.9995089E-01;  9.9999998E-03; -1.6000395E-01;1811;-0.040617999;0.0;-0.0031867449;1000.4232;  4.0000281E-01;350.60596;3;-22.815233;0.0;-1.8723298;0;-0.26431513;  1.0009252E+04;  0.0000000E+00;  6.8687945E-07;  1.0000000E+04;  0.0000000E+00;  9.9990781E+03;-0.2964395;0.0;0.032124367;448.06589
  4.9995241E-01;  9.9999998E-03; -1.4000340E-01;1812;-0.039162774;0.0;-0.002737212;1000.4128;  4.0000275E-01;342.01364;3;-22.086937;0.0;-1.5174578;0;-0.25592163;  1.0008940E+04;  0.0000000E+00;  4.6310396E-07;  1.0000000E+04;  0.0000000E+00;  9.9991787E+03;-0.28469333;0.0;0.0287717;400.95972
  4.9995369E-01;  9.9999998E-03; -1.2000289E-01;1813;-0.037873421;0.0;-0.0023295952;1000.4032;  4.0000278E-01;334.01392;3;-21.349768;0.0;-1.2133243;0;-0.24763767;  1.0008688E+04;  0.0000000E+00;  2.7919441E-07;  1.0000000E+04;  0.0000000E+00;  9.9992373E+03;-0.27473789;0.0;0.027100215;373.18716
  4.9995467E-01;  9.9999998E-03; -1.0000241E-01;1814;-0.036790606;0.0;-0.0019484417;1000.3953;  4.0000278E-01;327.49561;3;-20.657475;0.0;-0.96153522;0;-0.24029006;  1.0008491E+04;  0.0000000E+00;  1.4337604E-07;  1.0000000E+04;  0.0000000E+00;  9.9992783E+03;-0.26659206;0.0;0.026301997;353.84543
  4.9995545E-01;  9.9999998E-03; -8.0001928E-02;1815;-0.035924919;0.0;-0.0015767324;1000.3893;  4.0000269E-01;322.5575;3;-20.047003;0.0;-0.7443971;0;-0.23426047;  1.0008342E+04;  0.0000000E+00;  5.7573516E-08;  1.0000000E+04;  0.0000000E+00;  9.9993096E+03;-0.26019606;0.0;0.025935596;338.65778
  4.9995598E-01;  9.9999998E-03; -6.0001459E-02;1816;-0.035270445;0.0;-0.0012011272;1000.3853;  4.0000272E-01;319.19958;3;-19.545704;0.0;-0.5496642;0;-0.22964121;  1.0008236E+04;  0.0000000E+00;  1.9133431E-08;  1.0000000E+04;  0.0000000E+00;  9.9993330E+03;-0.25543442;0.0;0.025793212;326.71625
  4.9995634E-01;  9.9999998E-03; -4.0000983E-02;1817;-0.034814786;0.0;-0.00081253255;1000.3824;  4.0000284E-01;316.82928;3;-19.174152;0.0;-0.36563021;0;-0.22640285;  1.0008166E+04;  0.0000000E+00;  4.6838027E-09;  1.0000000E+04;  0.0000000E+00;  9.9993506E+03;-0.252168;0.0;0.025765151;318.10895
  4.9995652E-01;  9.9999998E-03; -2.0000493E-02;1818;-0.034546357;0.0;-0.00041046861;1000.3812;  4.0000284E-01;315.84164;3;-18.945501;0.0;-0.18302076;0;-0.22448809;  1.0008126E+04;  0.0000000E+00; -3.0250091E-10;  1.0000000E+04;  0.0000000E+00;  9.9993604E+03;-0.2502678;0.0;0.025779713;312.96173
  5.1993901E-01;  9.9999998E-03; -1.8000662E-01;1841;-0.049088284;0.0;-0.0051815738;1000.4938;  4.0000775E-01;409.07266;3;-26.380781;0.0;-2.8244033;0;-0.29710564;  1.0010873E+04;  0.0000000E+00;  3.0432966E-06;  1.0000000E+04;  0.0000000E+00;  9.9986152E+03;-0.34057716;0.0;0.043471515;667.66931
  5.1994109E-01;  9.9999998E-03; -1.6000587E-01;1842;-0.047207672;0.0;-0.0046192948;1000.4811;  4.0000787E-01;398.60388;3;-25.603197;0.0;-2.4237621;0;-0.28693318;  1.0010445E+04;  0.0000000E+00;  2.4791736E-06;  1.0000000E+04;  0.0000000E+00;  9.9987881E+03;-0.32578385;0.0;0.038850665;587.34393
  5.1994294E-01;  9.9999998E-03; -1.4000511E-01;1843;-0.045463413;0.0;-0.0040818583;1000.4684;  4.0000775E-01;388.1351;3;-24.759052;0.0;-2.0648415;0;-0.27628702;  1.0010096E+04;  0.0000000E+00;  1.9086199E-06;  1.0000000E+04;  0.0000000E+00;  9.9988838E+03;-0.31308147;0.0;0.036794443;541.31342
  5.1994449E-01;  9.9999998E-03; -1.2000435E-01;1844;-0.043938562;0.0;-0.0035426302;1000.4572;  4.0000778E-01;378.75269;3;-23.911316;0.0;-1.75105;0;-0.26614857;  1.0009815E+04;  0.0000000E+00;  1.1638846E-06;  1.0000000E+04;  0.0000000E+00;  9.9989375E+03;-0.30246454;0.0;0.036315985;513.78809
  5.1994568E-01;  9.9999998E-03; -1.0000361E-01;1845;-0.042670861;0.0;-0.0029958168;1000.4485;  4.0000778E-01;371.54306;3;-23.11471;0.0;-1.4627467;0;-0.257456;  1.0009598E+04;  0.0000000E+00;  5.8213635E-07;  1.0000000E+04;  0.0000000E+00;  9.9989814E+03;-0.29383686;0.0;0.036380846;491.42041
  5.1994658E-01;  9.9999998E-03; -8.0002882E-02;1846;-0.041667186;0.0;-0.002435796;1000.4421;  4.0000775E-01;366.30865;3;-22.41131;0.0;-1.1844406;0;-0.25055227;  1.0009433E+04;  0.0000000E+00;  2.4158200E-07;  1.0000000E+04;  0.0000000E+00;  9.9990234E+03;-0.28707743;0.0;0.03652516;470.39999
  5.1994723E-01;  9.9999998E-03; -6.0002163E-02;1847;-0.040915702;0.0;-0.0018535571;1000.4381;  4.0000790E-01;362.95074;3;-21.836567;0.0;-0.90283489;0;-0.24541646;  1.0009316E+04;  0.0000000E+00;  8.0187768E-08;  1.0000000E+04;  0.0000000E+00;  9.9990596E+03;-0.28204161;0.0;0.036625151;451.52399
  5.1994765E-01;  9.9999998E-03; -4.0001445E-02;1848;-0.040395919;0.0;-0.0012521927;1000.4357;  4.0000778E-01;360.97552;3;-21.411291;0.0;-0.61458361;0;-0.24190179;  1.0009238E+04;  0.0000000E+00;  2.2087452E-08;  1.0000000E+04;  0.0000000E+00;  9.9990898E+03;-0.27858022;0.0;0.036678441;436.64539
  5.1994783E-01;  9.9999998E-03; -2.0000724E-02;1849;-0.040090777;0.0;-0.00063185475;1000.4346;  4.0000775E-01;359.98788;3;-21.14929;0.0;-0.31134635;0;-0.23985833;  1.0009194E+04;  0.0000000E+00;  3.7993217E-09;  1.0000000E+04;  0.0000000E+00;  9.9991064E+03;-0.27656251;0.0;0.036704179;427.22363
  5.3992724E-01;  9.9999998E-03; -1.8000972E-01;1872;-0.056793574;0.0;-0.0073706186;1000.556;  4.0002066E-01;460.62561;3;-29.458855;0.0;-3.5516434;0;-0.31242806;  1.0011922E+04;  0.0000000E+00;  5.8542673E-06;  1.0000000E+04;  0.0000000E+00;  9.9981592E+03;-0.36446542;0.0;0.052037343;886.45361
  5.3992981E-01;  9.9999998E-03; -1.6000864E-01;1873;-0.054562025;0.0;-0.0067209108;1000.5422;  4.0002078E-01;449.16922;3;-28.565088;0.0;-3.1904922;0;-0.299889;  1.0011450E+04;  0.0000000E+00;  5.4685061E-06;  1.0000000E+04;  0.0000000E+00;  9.9983525E+03;-0.34880871;0.0;0.048919719;794.20111
  5.3993201E-01;  9.9999998E-03; -1.4000751E-01;1874;-0.052523322;0.0;-0.0060155634;1000.5284;  4.0002063E-01;437.71286;3;-27.607994;0.0;-2.8636248;0;-0.28711596;  1.0011070E+04;  0.0000000E+00;  4.6715072E-06;  1.0000000E+04;  0.0000000E+00;  9.9984580E+03;-0.33558518;0.0;0.048469212;741.50006
  5.3993386E-01;  9.9999998E-03; -1.2000635E-01;1875;-0.050756805;0.0;-0.0052451286;1000.5164;  4.0002072E-01;427.83664;3;-26.651011;0.0;-2.5436792;0;-0.27530453;  1.0010767E+04;  0.0000000E+00;  3.0595484E-06;  1.0000000E+04;  0.0000000E+00;  9.9985186E+03;-0.32462603;0.0;0.049321495;707.70715
  5.3993523E-01;  9.9999998E-03; -1.0000522E-01;1876;-0.049299866;0.0;-0.0044310614;1000.5074;  4.0002069E-01;420.33075;3;-25.749847;0.0;-2.2001433;0;-0.26550952;  1.0010530E+04;  0.0000000E+00;  1.5945624E-06;  1.0000000E+04;  0.0000000E+00;  9.9985781E+03;-0.31573284;0.0;0.05022331;676.1145
  5.3993630E-01;  9.9999998E-03; -8.0004126E-02;1877;-0.048155662;0.0;-0.0035895491;1000.5016;  4.0002075E-01;415.59018;3;-24.956844;0.0;-1.8218961;0;-0.2580187;  1.0010348E+04;  0.0000000E+00;  6.7712790E-07;  1.0000000E+04;  0.0000000E+00;  9.9986436E+03;-0.30874214;0.0;0.050723433;642.99939
  5.3993702E-01;  9.9999998E-03; -6.0003068E-02;1878;-0.047302961;0.0;-0.0027253893;1000.4983;  4.0002078E-01;412.82483;3;-24.3062;0.0;-1.4156709;0;-0.25265515;  1.0010220E+04;  0.0000000E+00;  2.3131660E-07;  1.0000000E+04;  0.0000000E+00;  9.9987061E+03;-0.30350181;0.0;0.05084667;611.25861
  5.3993750E-01;  9.9999998E-03; -4.0002037E-02;1879;-0.046715923;0.0;-0.0018358991;1000.4965;  4.0002072E-01;411.34341;3;-23.823036;0.0;-0.97247416;0;-0.24910627;  1.0010136E+04;  0.0000000E+00;  6.7510108E-08;  1.0000000E+04;  0.0000000E+00;  9.9987549E+03;-0.2998741;0.0;0.050767824;585.22247
  5.3993773E-01;  9.9999998E-03; -2.0001017E-02;1880;-0.046372429;0.0;-0.00092445331;1000.4957;  4.0002072E-01;410.65207;3;-23.527128;0.0;-0.49857509;0;-0.24709351;  1.0010085E+04;  0.0000000E+00;  1.1662576E-08;  1.0000000E+04;  0.0000000E+00;  9.9987900E+03;-0.29774657;0.0;0.050653055;568.32495
  5.5991423E-01;  9.9999998E-03; -1.8001407E-01;1903;-0.065120302;0.0;-0.010514401;1000.6401;  4.0005577E-01;530.25146;3;-32.645901;0.0;-4.5341477;0;-0.31093204;  1.0012553E+04;  0.0000000E+00;  6.6460807E-06;  1.0000000E+04;  0.0000000E+00;  9.9974502E+03;-0.37615934;0.0;0.065227292;1223.6378
  5.5991715E-01;  9.9999998E-03; -1.6001245E-01;1904;-0.062558569;0.0;-0.0096619204;1000.6281;  4.0005577E-01;520.37531;3;-31.642084;0.0;-4.277226;0;-0.29659328;  1.0012063E+04;  0.0000000E+00;  7.6349897E-06;  1.0000000E+04;  0.0000000E+00;  9.9977021E+03;-0.36048803;0.0;0.063894749;1098.7871
  5.5991977E-01;  9.9999998E-03; -1.4001071E-01;1905;-0.060238793;0.0;-0.0086468952;1000.6156;  4.0005577E-01;510.00534;3;-30.586851;0.0;-3.9955173;0;-0.28229526;  1.0011661E+04;  0.0000000E+00;  8.0075679E-06;  1.0000000E+04;  0.0000000E+00;  9.9978545E+03;-0.34735855;0.0;0.06506329;1021.5312
  5.5992192E-01;  9.9999998E-03; -1.2000898E-01;1906;-0.058232266;0.0;-0.0075156838;1000.6045;  4.0005583E-01;500.8205;3;-29.525976;0.0;-3.6389019;0;-0.26938891;  1.0011339E+04;  0.0000000E+00;  5.8648043E-06;  1.0000000E+04;  0.0000000E+00;  9.9979541E+03;-0.33648029;0.0;0.06709139;967.75317
  5.5992353E-01;  9.9999998E-03; -1.0000730E-01;1907;-0.056584105;0.0;-0.0063240803;1000.5968;  4.0005589E-01;494.401;3;-28.532099;0.0;-3.1937678;0;-0.25902787;  1.0011088E+04;  0.0000000E+00;  3.2507628E-06;  1.0000000E+04;  0.0000000E+00;  9.9980488E+03;-0.32760012;0.0;0.06857226;916.18646
  5.5992472E-01;  9.9999998E-03; -8.0005720E-02;1908;-0.055295315;0.0;-0.0050998391;1000.5923;  4.0005580E-01;490.74683;3;-27.651474;0.0;-2.6777346;0;-0.2514576;  1.0010894E+04;  0.0000000E+00;  1.4126750E-06;  1.0000000E+04;  0.0000000E+00;  9.9981543E+03;-0.32054827;0.0;0.069090657;861.67365
  5.5992556E-01;  9.9999998E-03; -6.0004216E-02;1909;-0.05433863;0.0;-0.0038474184;1000.5907;  4.0005586E-01;489.36414;3;-26.923582;0.0;-2.0815501;0;-0.24632937;  1.0010754E+04;  0.0000000E+00;  4.8729385E-07;  1.0000000E+04;  0.0000000E+00;  9.9982607E+03;-0.3151978;0.0;0.068868428;808.84979
  5.5992609E-01;  9.9999998E-03; -4.0002778E-02;1910;-0.053680897;0.0;-0.0025756257;1000.5903;  4.0005592E-01;489.06787;3;-26.384281;0.0;-1.4217983;0;-0.24311984;  1.0010661E+04;  0.0000000E+00;  1.3321581E-07;  1.0000000E+04;  0.0000000E+00;  9.9983467E+03;-0.31144837;0.0;0.068328522;765.04663
  5.5992633E-01;  9.9999998E-03; -2.0001380E-02;1911;-0.053294845;0.0;-0.0012912378;1000.5906;  4.0005589E-01;489.26538;3;-26.052233;0.0;-0.7196905;0;-0.24137884;  1.0010607E+04;  0.0000000E+00;  2.3908425E-08;  1.0000000E+04;  0.0000000E+00;  9.9984082E+03;-0.30922738;0.0;0.067848541;736.38043
  5.7990032E-01;  9.9999998E-03; -1.8001971E-01;1934;-0.073737435;0.0;-0.014765255;1000.8162;  4.0014896E-01;676.12024;3;-35.751869;0.0;-6.0017948;0;-0.28388843;  1.0012480E+04;  0.0000000E+00; -6.0198607E-07;  1.0000000E+04;  0.0000000E+00;  9.9963877E+03;-0.36880329;0.0;0.084914856;1725.7773
  5.7990378E-01;  9.9999998E-03; -1.6001725E-01;1935;-0.070897721;0.0;-0.013452169;1000.811;  4.0014893E-01;671.87354;3;-34.689629;0.0;-5.7826934;0;-0.26877481;  1.0011997E+04;  0.0000000E+00;  3.9053434E-06;  1.0000000E+04;  0.0000000E+00;  9.9967666E+03;-0.35425958;0.0;0.085484765;1535.6584
  5.7990676E-01;  9.9999998E-03; -1.4001474E-01;1936;-0.068312667;0.0;-0.011961835;1000.804;  4.0014896E-01;666.14532;3;-33.576218;0.0;-5.4599957;0;-0.25405559;  1.0011602E+04;  0.0000000E+00;  9.0408703E-06;  1.0000000E+04;  0.0000000E+00;  9.9970205E+03;-0.34202722;0.0;0.087971628;1404.276
  5.7990921E-01;  9.9999998E-03; -1.2001222E-01;1937;-0.06607379;0.0;-0.010341029;1000.7971;  4.0014893E-01;660.41718;3;-32.444817;0.0;-5.028194;0;-0.24111682;  1.0011276E+04;  0.0000000E+00;  8.2916131E-06;  1.0000000E+04;  0.0000000E+00;  9.9972041E+03;-0.3317816;0.0;0.090664767;1307.7906
  5.7991105E-01;  9.9999998E-03; -1.0000983E-01;1938;-0.064237013;0.0;-0.0086329244;1000.7926;  4.0014893E-01;656.66425;3;-31.376154;0.0;-4.4584904;0;-0.23111805;  1.0011019E+04;  0.0000000E+00;  4.9950472E-06;  1.0000000E+04;  0.0000000E+00;  9.9973711E+03;-0.32328489;0.0;0.092166841;1219.6383
  5.7991242E-01;  9.9999998E-03; -8.0007605E-02;1939;-0.062805429;0.0;-0.0068952595;1000.7913;  4.0014893E-01;655.57782;3;-30.420694;0.0;-3.7363172;0;-0.22427613;  1.0010819E+04;  0.0000000E+00;  2.1781102E-06;  1.0000000E+04;  0.0000000E+00;  9.9975469E+03;-0.31641847;0.0;0.092142344;1130.741
  5.7991338E-01;  9.9999998E-03; -6.0005546E-02;1940;-0.061744038;0.0;-0.0051563242;1000.7926;  4.0014893E-01;656.66425;3;-29.629065;0.0;-2.8955204;0;-0.22007632;  1.0010672E+04;  0.0000000E+00;  6.8561565E-07;  1.0000000E+04;  0.0000000E+00;  9.9977178E+03;-0.31111446;0.0;0.091038145;1046.0896
  5.7991397E-01;  9.9999998E-03; -4.0003624E-02;1941;-0.061010554;0.0;-0.003427377;1000.7947;  4.0014899E-01;658.44189;3;-29.038013;0.0;-1.9710902;0;-0.21775068;  1.0010572E+04;  0.0000000E+00;  1.5610786E-07;  1.0000000E+04;  0.0000000E+00;  9.9978623E+03;-0.30733716;0.0;0.089586481;976.10895
  5.7991427E-01;  9.9999998E-03; -2.0001790E-02;1942;-0.06057813;0.0;-0.001711083;1000.7964;  4.0014893E-01;659.82458;3;-28.671783;0.0;-0.99702168;0;-0.2166297;  1.0010513E+04;  0.0000000E+00;  2.0238474E-08;  1.0000000E+04;  0.0000000E+00;  9.9979561E+03;-0.30507165;0.0;0.088441953;930.25769
  5.9988636E-01;  9.9999998E-03; -1.8002632E-01;1965;-0.082283005;0.0;-0.019768665;1001.2745;  4.0038544E-01;1055.8529;3;-38.652702;0.0;-7.6764922;0;-0.22029546;  1.0011330E+04;  0.0000000E+00; -2.2342507E-05;  1.0000000E+04;  0.0000000E+00;  9.9948848E+03;-0.33284631;0.0;0.11255085;2430.7703
  5.9989035E-01;  9.9999998E-03; -1.6002294E-01;1966;-0.079122521;0.0;-0.018005552;1001.283;  4.0038553E-01;1062.9636;3;-37.546604;0.0;-7.5718637;0;-0.20569375;  1.0010908E+04;  0.0000000E+00; -1.2302493E-05;  1.0000000E+04;  0.0000000E+00;  9.9954727E+03;-0.32086477;0.0;0.11517102;2134.6685
  5.9989381E-01;  9.9999998E-03; -1.4001949E-01;1967;-0.076244086;0.0;-0.015998835;1001.287;  4.0038553E-01;1066.2228;3;-36.378277;0.0;-7.3178043;0;-0.19202828;  1.0010549E+04;  0.0000000E+00;  3.2593202E-06;  1.0000000E+04;  0.0000000E+00;  9.9959102E+03;-0.31052938;0.0;0.11850109;1910.3759
  5.9989661E-01;  9.9999998E-03; -1.2001600E-01;1968;-0.073782988;0.0;-0.013727593;1001.2885;  4.0038544E-01;1067.5067;3;-35.215492;0.0;-6.7964082;0;-0.18057232;  1.0010248E+04;  0.0000000E+00;  7.7522691E-06;  1.0000000E+04;  0.0000000E+00;  9.9962402E+03;-0.3016277;0.0;0.12105538;1740.3619
  5.9989876E-01;  9.9999998E-03; -1.0001269E-01;1969;-0.071781039;0.0;-0.01134902;1001.2909;  4.0038550E-01;1069.4819;3;-34.102467;0.0;-6.0594187;0;-0.17230992;  1.0010002E+04;  0.0000000E+00;  5.5249016E-06;  1.0000000E+04;  0.0000000E+00;  9.9965303E+03;-0.29402521;0.0;0.12171529;1593.1499
  5.9990031E-01;  9.9999998E-03; -8.0009691E-02;1970;-0.070216134;0.0;-0.0089710234;1001.2951;  4.0038553E-01;1072.9385;3;-33.107304;0.0;-5.0921359;0;-0.16737036;  1.0009810E+04;  0.0000000E+00;  2.3087105E-06;  1.0000000E+04;  0.0000000E+00;  9.9968105E+03;-0.28771469;0.0;0.12034433;1453.1371
  5.9990138E-01;  9.9999998E-03; -6.0006991E-02;1971;-0.06904579;0.0;-0.0066553238;1001.3012;  4.0038568E-01;1077.9753;3;-32.2757;0.0;-3.9505572;0;-0.16508099;  1.0009663E+04;  0.0000000E+00;  5.1349946E-07;  1.0000000E+04;  0.0000000E+00;  9.9970742E+03;-0.28272972;0.0;0.11764873;1323.5029
  5.9990203E-01;  9.9999998E-03; -4.0004540E-02;1972;-0.068224117;0.0;-0.0044055721;1001.3071;  4.0038556E-01;1082.8146;3;-31.639753;0.0;-2.6769571;0;-0.16439864;  1.0009560E+04;  0.0000000E+00; -1.8025309E-08;  1.0000000E+04;  0.0000000E+00;  9.9972959E+03;-0.27911419;0.0;0.11471555;1217.3077
  5.9990245E-01;  9.9999998E-03; -2.0002237E-02;1973;-0.067731634;0.0;-0.0021950873;1001.3113;  4.0038559E-01;1086.37;3;-31.240698;0.0;-1.3368282;0;-0.16438201;  1.0009501E+04;  0.0000000E+00; -3.2293773E-08;  1.0000000E+04;  0.0000000E+00;  9.9974404E+03;-0.27691796;0.0;0.11253595;1147.8654
  6.1987317E-01;  9.9999998E-03; -1.8003416E-01;1996;-0.09021268;0.0;-0.025635827;1002.398;  4.0092707E-01;1986.6624;3;-41.166;0.0;-9.5400524;0;-0.10770085;  1.0008705E+04;  0.0000000E+00; -5.8484402E-05;  1.0000000E+04;  0.0000000E+00;  9.9929170E+03;-0.25631902;0.0;0.14861816;3350.1653
  6.1987776E-01;  9.9999998E-03; -1.6002972E-01;1997;-0.086746074;0.0;-0.023382267;1002.427;  4.0092716E-01;2010.6611;3;-40.044044;0.0;-9.5631132;0;-0.094955176;  1.0008408E+04;  0.0000000E+00; -4.3247786E-05;  1.0000000E+04;  0.0000000E+00;  9.9937930E+03;-0.24861993;0.0;0.15366475;2906.96
  6.1988175E-01;  9.9999998E-03; -1.4002506E-01;1998;-0.083630227;0.0;-0.020688584;1002.449;  4.0092734E-01;2028.9318;3;-38.894833;0.0;-9.3274174;0;-0.083981216;  1.0008134E+04;  0.0000000E+00; -1.2278892E-05;  1.0000000E+04;  0.0000000E+00;  9.9945000E+03;-0.24140289;0.0;0.15742168;2548.6375
  6.1988491E-01;  9.9999998E-03; -1.2002033E-01;1999;-0.080977522;0.0;-0.017657196;1002.4645;  4.0092719E-01;2041.7706;3;-37.737362;0.0;-8.7936773;0;-0.075835288;  1.0007893E+04;  0.0000000E+00;  1.9193219E-06;  1.0000000E+04;  0.0000000E+00;  9.9950488E+03;-0.23476115;0.0;0.15892586;2270.8696
  6.1988735E-01;  9.9999998E-03; -1.0001589E-01;2000;-0.07880412;0.0;-0.014476744;1002.4774;  4.0092725E-01;2052.4368;3;-36.629295;0.0;-7.9200406;0;-0.071084261;  1.0007684E+04;  0.0000000E+00;  3.3585532E-06;  1.0000000E+04;  0.0000000E+00;  9.9955156E+03;-0.22877154;0.0;0.15768728;2038.8875
  6.1988908E-01;  9.9999998E-03; -8.0011941E-02;2001;-0.077068135;0.0;-0.011370642;1002.4906;  4.0092719E-01;2063.3992;3;-35.595352;0.0;-6.7056179;0;-0.069609106;  1.0007517E+04;  0.0000000E+00;  1.0502677E-06;  1.0000000E+04;  0.0000000E+00;  9.9959424E+03;-0.22358927;0.0;0.15398017;1828.7266
  6.1989033E-01;  9.9999998E-03; -6.0008507E-02;2002;-0.07576514;0.0;-0.0083933491;1002.5039;  4.0092725E-01;2074.3616;3;-34.701561;0.0;-5.2641783;0;-0.070526302;  1.0007388E+04;  0.0000000E+00; -3.7218632E-07;  1.0000000E+04;  0.0000000E+00;  9.9963320E+03;-0.21937206;0.0;0.14884576;1639.522
  6.1989111E-01;  9.9999998E-03; -4.0005479E-02;2003;-0.074849762;0.0;-0.0055364887;1002.5153;  4.0092722E-01;2083.8425;3;-34.027557;0.0;-3.5999742;0;-0.072481826;  1.0007297E+04;  0.0000000E+00; -4.7201149E-07;  1.0000000E+04;  0.0000000E+00;  9.9966533E+03;-0.21625046;0.0;0.14376864;1486.1827
  6.1989158E-01;  9.9999998E-03; -2.0002687E-02;2004;-0.074295856;0.0;-0.0027530787;1002.5231;  4.0092719E-01;2090.262;3;-33.597572;0.0;-1.8116804;0;-0.074200824;  1.0007241E+04;  0.0000000E+00; -1.5910905E-07;  1.0000000E+04;  0.0000000E+00;  9.9968604E+03;-0.21432932;0.0;0.14012849;1386.2144
  6.3986158E-01;  9.9999998E-03; -1.8004344E-01;2027;-0.097083859;0.0;-0.032484185;1004.5402;  4.0191972E-01;3761.354;3;-43.272877;0.0;-11.588399;0;0.063182652;  1.0004341E+04;  0.0000000E+00; -9.3985203E-05;  1.0000000E+04;  0.0000000E+00;  9.9905479E+03;-0.12889175;0.0;0.1920744;4452.457
  6.3986677E-01;  9.9999998E-03; -1.6003747E-01;2028;-0.093347795;0.0;-0.02950009;1004.5964;  4.0191978E-01;3807.8699;3;-42.161045;0.0;-11.756189;0;0.073095173;  1.0004229E+04;  0.0000000E+00; -7.9557889E-05;  1.0000000E+04;  0.0000000E+00;  9.9917744E+03;-0.12718351;0.0;0.20027868;3830.864
  6.3987106E-01;  9.9999998E-03; -1.4003128E-01;2029;-0.090050578;0.0;-0.025928723;1004.6419;  4.0191975E-01;3845.5959;3;-41.060993;0.0;-11.665731;0;0.07991793;  1.0004091E+04;  0.0000000E+00; -3.3896322E-05;  1.0000000E+04;  0.0000000E+00;  9.9928203E+03;-0.12442548;0.0;0.20434341;3305.1848
  6.3987458E-01;  9.9999998E-03; -1.2002503E-01;2030;-0.087223142;0.0;-0.021868013;1004.6765;  4.0191969E-01;3874.2363;3;-39.883663;0.0;-10.972764;0;0.082923681;  1.0003949E+04;  0.0000000E+00; -8.6121245E-06;  1.0000000E+04;  0.0000000E+00;  9.9936465E+03;-0.12113585;0.0;0.20405953;2890.0789
  6.3987732E-01;  9.9999998E-03; -1.0001926E-01;2031;-0.084862784;0.0;-0.01775695;1004.705;  4.0191981E-01;3897.8398;3;-38.75811;0.0;-9.8431959;0;0.082213312;  1.0003817E+04;  0.0000000E+00; -1.7111273E-06;  1.0000000E+04;  0.0000000E+00;  9.9943340E+03;-0.11769657;0.0;0.19990988;2549.7715
  6.3987941E-01;  9.9999998E-03; -8.0014281E-02;2032;-0.082955219;0.0;-0.013853611;1004.7302;  4.0191981E-01;3918.7769;3;-37.728222;0.0;-8.3468275;0;0.078405678;  1.0003706E+04;  0.0000000E+00; -1.7757573E-06;  1.0000000E+04;  0.0000000E+00;  9.9949502E+03;-0.11444403;0.0;0.19284971;2251.4385
  6.3988084E-01;  9.9999998E-03; -6.0010068E-02;2033;-0.081509389;0.0;-0.010196494;1004.7531;  4.0191975E-01;3937.6399;3;-36.860798;0.0;-6.5632591;0;0.072740875;  1.0003615E+04;  0.0000000E+00; -1.9773427E-06;  1.0000000E+04;  0.0000000E+00;  9.9954961E+03;-0.11165059;0.0;0.18439147;1988.7745
  6.3988185E-01;  9.9999998E-03; -4.0006429E-02;2034;-0.080482677;0.0;-0.0067228191;1004.7722;  4.0191975E-01;3953.54;3;-36.164558;0.0;-4.5421367;0;0.066970341;  1.0003549E+04;  0.0000000E+00; -1.2198575E-06;  1.0000000E+04;  0.0000000E+00;  9.9959404E+03;-0.10951357;0.0;0.17648391;1777.9299
  6.3988239E-01;  9.9999998E-03; -2.0003138E-02;2035;-0.079870634;0.0;-0.0033446301;1004.7847;  4.0191975E-01;3963.9099;3;-35.721924;0.0;-2.3279586;0;0.062772609;  1.0003511E+04;  0.0000000E+00; -3.4877357E-07;  1.0000000E+04;  0.0000000E+00;  9.9962295E+03;-0.10817315;0.0;0.17094576;1640.876
  6.5985310E-01;  9.9999998E-03; -1.8005499E-01;2058;-0.10193104;0.0;-0.04097921;1007.2239;  4.0316752E-01;5984.5615;3;-44.608311;0.0;-14.009436;0;0.29130921;  9.9983135E+03;  0.0000000E+00; -1.0543290E-04;  1.0000000E+04;  0.0000000E+00;  9.9879512E+03;0.051253583;0.0;0.24005564;5656.7949
  6.5985852E-01;  9.9999998E-03; -1.6004689E-01;2059;-0.098151162;0.0;-0.036939994;1007.3102;  4.0316758E-01;6056.0625;3;-43.577103;0.0;-14.526251;0;0.29828897;  9.9984258E+03;  0.0000000E+00; -1.0084264E-04;  1.0000000E+04;  0.0000000E+00;  9.9895459E+03;0.045828752;0.0;0.25246021;4845.395
  6.5986300E-01;  9.9999998E-03; -1.4003882E-01;2060;-0.094815344;0.0;-0.032223657;1007.3831;  4.0316752E-01;6116.5029;3;-42.42786;0.0;-14.304768;0;0.3001534;  9.9984648E+03;  0.0000000E+00; -5.0165843E-05;  1.0000000E+04;  0.0000000E+00;  9.9909521E+03;0.042975068;0.0;0.25717834;4137.3481
  6.5986669E-01;  9.9999998E-03; -1.2003078E-01;2061;-0.091978781;0.0;-0.027015688;1007.4405;  4.0316743E-01;6164.0054;3;-41.255936;0.0;-13.468262;0;0.29663122;  9.9984629E+03;  0.0000000E+00; -1.8631919E-05;  1.0000000E+04;  0.0000000E+00;  9.9920977E+03;0.041811951;0.0;0.25481927;3568.895
  6.5986967E-01;  9.9999998E-03; -1.0002343E-01;2062;-0.089567117;0.0;-0.021811791;1007.4871;  4.0316737E-01;6202.6201;3;-40.28043;0.0;-12.203773;0;0.28874466;  9.9984424E+03;  0.0000000E+00; -7.4590557E-06;  1.0000000E+04;  0.0000000E+00;  9.9930430E+03;0.041662969;0.0;0.2470817;3105.4717
  6.5987200E-01;  9.9999998E-03; -8.0017149E-02;2063;-0.087546691;0.0;-0.016888728;1007.5276;  4.0316743E-01;6236.1978;3;-39.298737;0.0;-10.396974;0;0.2779094;  9.9984170E+03;  0.0000000E+00; -5.0246467E-06;  1.0000000E+04;  0.0000000E+00;  9.9938711E+03;0.042044241;0.0;0.23586516;2706.4102
  6.5987366E-01;  9.9999998E-03; -6.0011957E-02;2064;-0.085971057;0.0;-0.012357557;1007.5631;  4.0316734E-01;6265.6279;3;-38.473137;0.0;-8.1605911;0;0.26595828;  9.9983916E+03;  0.0000000E+00; -3.6998986E-06;  1.0000000E+04;  0.0000000E+00;  9.9945947E+03;0.042620525;0.0;0.22333775;2360.0737
  6.5987480E-01;  9.9999998E-03; -4.0007576E-02;2065;-0.084844366;0.0;-0.0081254486;1007.5915;  4.0316743E-01;6289.1323;3;-37.8055;0.0;-5.6489549;0;0.2551862;  9.9983711E+03;  0.0000000E+00; -1.9618406E-06;  1.0000000E+04;  0.0000000E+00;  9.9951807E+03;0.043173458;0.0;0.21201274;2083.9624
  6.5987551E-01;  9.9999998E-03; -2.0003682E-02;2066;-0.084172688;0.0;-0.0040385085;1007.6099;  4.0316740E-01;6304.4399;3;-37.374886;0.0;-2.8954804;0;0.24776509;  9.9983574E+03;  0.0000000E+00; -5.2596977E-07;  1.0000000E+04;  0.0000000E+00;  9.9955586E+03;0.043561392;0.0;0.20420371;1904.8882
  6.7985016E-01;  9.9999998E-03; -1.8006915E-01;2089;-0.10398108;0.0;-0.052180726;1009.2242;  4.0416336E-01;7641.6133;3;-44.9184;0.0;-17.972383;0;0.55888021;  9.9912168E+03;  0.0000000E+00; -8.2574828E-05;  1.0000000E+04;  0.0000000E+00;  9.9853691E+03;0.27080661;0.0;0.28807363;6845.5137
  6.7985564E-01;  9.9999998E-03; -1.6005841E-01;2090;-0.10031671;0.0;-0.046610441;1009.3391;  4.0416327E-01;7736.8149;3;-44.032764;0.0;-18.450344;0;0.56392086;  9.9915596E+03;  0.0000000E+00; -9.1897418E-05;  1.0000000E+04;  0.0000000E+00;  9.9873076E+03;0.25807622;0.0;0.30584466;5858.6846
  6.7986017E-01;  9.9999998E-03; -1.4004804E-01;2091;-0.097093955;0.0;-0.040496755;1009.4391;  4.0416309E-01;7819.6719;3;-43.138626;0.0;-18.302849;0;0.56098771;  9.9918008E+03;  0.0000000E+00; -4.9977461E-05;  1.0000000E+04;  0.0000000E+00;  9.9890586E+03;0.24894981;0.0;0.31203791;4977.7759
  6.7986393E-01;  9.9999998E-03; -1.2003773E-01;2092;-0.094282895;0.0;-0.033754032;1009.5204;  4.0416291E-01;7887.0244;3;-42.258369;0.0;-17.414072;0;0.55035394;  9.9919668E+03;  0.0000000E+00; -2.1471065E-05;  1.0000000E+04;  0.0000000E+00;  9.9905068E+03;0.24244694;0.0;0.30790699;4259.3706
  6.7986697E-01;  9.9999998E-03; -1.0002839E-01;2093;-0.091809228;0.0;-0.027012752;1009.5873;  4.0416291E-01;7942.4268;3;-41.298321;0.0;-15.67415;0;0.53422368;  9.9920850E+03;  0.0000000E+00; -1.0196461E-05;  1.0000000E+04;  0.0000000E+00;  9.9917119E+03;0.23776245;0.0;0.29646125;3671.8755
  6.7986935E-01;  9.9999998E-03; -8.0020532E-02;2094;-0.089721777;0.0;-0.020753341;1009.6443;  4.0416276E-01;7989.6328;3;-40.311764;0.0;-13.314313;0;0.51512003;  9.9921689E+03;  0.0000000E+00; -6.6942453E-06;  1.0000000E+04;  0.0000000E+00;  9.9927607E+03;0.23437767;0.0;0.28074238;3169.0383
  6.7987114E-01;  9.9999998E-03; -6.0014158E-02;2095;-0.088081069;0.0;-0.015093955;1009.6933;  4.0416279E-01;8030.2217;3;-39.433056;0.0;-10.462478;0;0.49574018;  9.9922285E+03;  0.0000000E+00; -4.4923436E-06;  1.0000000E+04;  0.0000000E+00;  9.9936748E+03;0.23197795;0.0;0.26376224;2735.5649
  6.7987233E-01;  9.9999998E-03; -4.0008895E-02;2096;-0.086906314;0.0;-0.0098783765;1009.7321;  4.0416262E-01;8062.3179;3;-38.743195;0.0;-7.2248015;0;0.47907996;  9.9922695E+03;  0.0000000E+00; -2.2463200E-06;  1.0000000E+04;  0.0000000E+00;  9.9944053E+03;0.23037668;0.0;0.2487033;2391.2107
  6.7987299E-01;  9.9999998E-03; -2.0004304E-02;2097;-0.086201057;0.0;-0.0048971786;1009.7569;  4.0416268E-01;8082.958;3;-38.291515;0.0;-3.6976068;0;0.46788156;  9.9922910E+03;  0.0000000E+00; -5.9429533E-07;  1.0000000E+04;  0.0000000E+00;  9.9948789E+03;0.22946012;0.0;0.23842143;2168.1409
  6.9985807E-01;  9.9999998E-03; -1.8008384E-01;2120;-0.10118528;0.0;-0.065395348;1010.1151;  4.0470830E-01;8379.5527;3;-44.550808;0.0;-24.65765;0;0.82943821;  9.9841924E+03;  0.0000000E+00; -4.1981832E-05;  1.0000000E+04;  0.0000000E+00;  9.9830820E+03;0.49844247;0.0;0.33099571;7897.1904
  6.9986326E-01;  9.9999998E-03; -1.6007048E-01;2121;-0.097688124;0.0;-0.05797632;1010.2535;  4.0470791E-01;8494.1084;3;-43.840771;0.0;-24.7672;0;0.83424062;  9.9847451E+03;  0.0000000E+00; -5.8402933E-05;  1.0000000E+04;  0.0000000E+00;  9.9852783E+03;0.47915789;0.0;0.35508272;6771.98
  6.9986761E-01;  9.9999998E-03; -1.4005752E-01;2122;-0.094668865;0.0;-0.049799468;1010.3772;  4.0470776E-01;8596.6162;3;-43.280811;0.0;-24.041521;0;0.82750452;  9.9851797E+03;  0.0000000E+00; -3.3412794E-05;  1.0000000E+04;  0.0000000E+00;  9.9873057E+03;0.46370637;0.0;0.36379811;5749.9053
  6.9987112E-01;  9.9999998E-03; -1.2004468E-01;2123;-0.092006408;0.0;-0.040908705;1010.4802;  4.0470755E-01;8681.9404;3;-42.586117;0.0;-22.197466;0;0.81010127;  9.9855195E+03;  0.0000000E+00; -1.5356865E-05;  1.0000000E+04;  0.0000000E+00;  9.9890146E+03;0.45138848;0.0;0.35871282;4904.0293
  6.9987398E-01;  9.9999998E-03; -1.0003316E-01;2124;-0.089604497;0.0;-0.032303292;1010.566;  4.0470731E-01;8753.0439;3;-41.679092;0.0;-19.617058;0;0.78563297;  9.9857842E+03;  0.0000000E+00; -8.1244107E-06;  1.0000000E+04;  0.0000000E+00;  9.9904482E+03;0.44155052;0.0;0.34408247;4206.5659
  6.9987625E-01;  9.9999998E-03; -8.0023602E-02;2125;-0.087527081;0.0;-0.024529077;1010.6392;  4.0470731E-01;8813.6787;3;-40.601089;0.0;-16.449625;0;0.75795758;  9.9859893E+03;  0.0000000E+00; -5.6640720E-06;  1.0000000E+04;  0.0000000E+00;  9.9917031E+03;0.43380502;0.0;0.32415256;3608.3569
  6.9987786E-01;  9.9999998E-03; -6.0016021E-02;2126;-0.08589711;0.0;-0.017670022;1010.7017;  4.0470725E-01;8865.5254;3;-39.641018;0.0;-12.846432;0;0.73082507;  9.9861387E+03;  0.0000000E+00; -3.7979135E-06;  1.0000000E+04;  0.0000000E+00;  9.9927930E+03;0.42793939;0.0;0.30288568;3092.9553
  6.9987893E-01;  9.9999998E-03; -4.0009946E-02;2127;-0.084733628;0.0;-0.011494285;1010.7507;  4.0470722E-01;8906.0146;3;-38.884972;0.0;-8.8432503;0;0.70803154;  9.9862402E+03;  0.0000000E+00; -1.8828648E-06;  1.0000000E+04;  0.0000000E+00;  9.9936641E+03;0.42382988;0.0;0.28420162;2683.7151
  6.9987959E-01;  9.9999998E-03; -2.0004777E-02;2128;-0.084034272;0.0;-0.0056828344;1010.7823;  4.0470713E-01;8932.2842;3;-38.384232;0.0;-4.5176983;0;0.6929118;  9.9863008E+03;  0.0000000E+00; -4.8688736E-07;  1.0000000E+04;  0.0000000E+00;  9.9942295E+03;0.42139712;0.0;0.27151468;2418.6179
  7.1989030E-01;  9.9999998E-03; -1.8009497E-01;2151;-0.082789242;0.0;-0.076091096;1010.3395;  4.0494671E-01;8565.1758;3;-40.733124;0.0;-31.558762;0;1.0544014;  9.9786543E+03;  0.0000000E+00; -8.9318664E-06;  1.0000000E+04;  0.0000000E+00;  9.9812783E+03;0.68985617;0.0;0.36454523;8724.9707
  7.1989506E-01;  9.9999998E-03; -1.6007984E-01;2152;-0.079183966;0.0;-0.067257881;1010.4939;  4.0494630E-01;8693.0596;3;-39.64143;0.0;-31.090347;0;1.0607741;  9.9793623E+03;  0.0000000E+00; -2.2320042E-05;  1.0000000E+04;  0.0000000E+00;  9.9836406E+03;0.6654104;0.0;0.39536366;7509.4614
  7.1989924E-01;  9.9999998E-03; -1.4006500E-01;2153;-0.075846508;0.0;-0.057393216;1010.6354;  4.0494609E-01;8810.377;3;-38.372078;0.0;-29.358778;0;1.0516831;  9.9799600E+03;  0.0000000E+00; -1.2413026E-05;  1.0000000E+04;  0.0000000E+00;  9.9858516E+03;0.64422786;0.0;0.40745518;6390.0625
  7.1990258E-01;  9.9999998E-03; -1.2005033E-01;2154;-0.072950147;0.0;-0.046834506;1010.7557;  4.0494579E-01;8910.0186;3;-37.025818;0.0;-26.51222;0;1.0287474;  9.9804561E+03;  0.0000000E+00; -5.4768893E-06;  1.0000000E+04;  0.0000000E+00;  9.9877441E+03;0.62624955;0.0;0.40249792;5451.668
  7.1990514E-01;  9.9999998E-03; -1.0003724E-01;2155;-0.070549779;0.0;-0.036789488;1010.8571;  4.0494555E-01;8993.957;3;-35.728298;0.0;-23.052059;0;0.99700654;  9.9808545E+03;  0.0000000E+00; -3.4067775E-06;  1.0000000E+04;  0.0000000E+00;  9.9893564E+03;0.61126113;0.0;0.38574544;4669.7661
  7.1990705E-01;  9.9999998E-03; -8.0026425E-02;2156;-0.06863784;0.0;-0.027819458;1010.9442;  4.0494552E-01;9066.0469;3;-34.517368;0.0;-19.156765;0;0.96166635;  9.9811680E+03;  0.0000000E+00; -2.9444980E-06;  1.0000000E+04;  0.0000000E+00;  9.9907754E+03;0.59914386;0.0;0.36252251;3994.4385
  7.1990836E-01;  9.9999998E-03; -6.0017869E-02;2157;-0.067190118;0.0;-0.019980259;1011.0182;  4.0494531E-01;9127.3721;3;-33.490982;0.0;-14.88234;0;0.927544;  9.9813984E+03;  0.0000000E+00; -2.1673357E-06;  1.0000000E+04;  0.0000000E+00;  9.9920127E+03;0.58982766;0.0;0.33771631;3410.4333
  7.1990925E-01;  9.9999998E-03; -4.0011063E-02;2158;-0.066172436;0.0;-0.012975436;1011.0762;  4.0494522E-01;9175.4639;3;-32.707767;0.0;-10.226817;0;0.89921606;  9.9815576E+03;  0.0000000E+00; -1.1137300E-06;  1.0000000E+04;  0.0000000E+00;  9.9930039E+03;0.58324271;0.0;0.31597337;2945.8457
  7.1990979E-01;  9.9999998E-03; -2.0005304E-02;2159;-0.065564841;0.0;-0.0064103911;1011.1133;  4.0494525E-01;9206.1758;3;-32.215218;0.0;-5.2220159;0;0.88056248;  9.9816504E+03;  0.0000000E+00; -2.9122901E-07;  1.0000000E+04;  0.0000000E+00;  9.9936475E+03;0.57932311;0.0;0.30123937;2644.595
  7.3993075E-01;  9.9999998E-03; -1.8010101E-01;2182;-0.053015098;0.0;-0.080728367;1010.3565;  4.0504050E-01;8578.9805;3;-26.648689;0.0;-33.175735;0;1.1938596;  9.9756055E+03;  0.0000000E+00;  5.7355451E-06;  1.0000000E+04;  0.0000000E+00;  9.9800283E+03;0.80695504;0.0;0.38690457;9298.8057
  7.3993403E-01;  9.9999998E-03; -1.6008523E-01;2183;-0.05057032;0.0;-0.071687728;1010.5193;  4.0504017E-01;8713.7725;3;-25.950161;0.0;-32.949352;0;1.2033823;  9.9764033E+03;  0.0000000E+00; -6.1648268E-07;  1.0000000E+04;  0.0000000E+00;  9.9824678E+03;0.77937967;0.0;0.42400259;8037.2588
  7.3993695E-01;  9.9999998E-03; -1.4006957E-01;2184;-0.048239369;0.0;-0.061377354;1010.6714;  4.0503973E-01;8839.7754;3;-25.088121;0.0;-31.299353;0;1.1937351;  9.9771152E+03;  0.0000000E+00;  1.2244412E-06;  1.0000000E+04;  0.0000000E+00;  9.9847793E+03;0.75396323;0.0;0.43977183;6864.0532
  7.3993939E-01;  9.9999998E-03; -1.2005397E-01;2185;-0.046172887;0.0;-0.050234947;1010.8028;  4.0503961E-01;8948.5967;3;-24.150892;0.0;-28.424923;0;1.1673625;  9.9777246E+03;  0.0000000E+00;  1.4853719E-06;  1.0000000E+04;  0.0000000E+00;  9.9867813E+03;0.73145133;0.0;0.43591106;5870.6782
  7.3994124E-01;  9.9999998E-03; -1.0004000E-01;2186;-0.04443685;0.0;-0.039567523;1010.9149;  4.0503940E-01;9041.5176;3;-23.215189;0.0;-24.826374;0;1.1305201;  9.9782227E+03;  0.0000000E+00;  3.7407057E-07;  1.0000000E+04;  0.0000000E+00;  9.9885039E+03;0.71222943;0.0;0.41829064;5034.1401
  7.3994261E-01;  9.9999998E-03; -8.0028437E-02;2187;-0.043040846;0.0;-0.029995626;1011.0117;  4.0503916E-01;9121.7021;3;-22.34333;0.0;-20.711979;0;1.0895584;  9.9786123E+03;  0.0000000E+00; -5.3335623E-07;  1.0000000E+04;  0.0000000E+00;  9.9900352E+03;0.6965192;0.0;0.39303914;4304.8833
  7.3994362E-01;  9.9999998E-03; -6.0019262E-02;2188;-0.04196883;0.0;-0.021590132;1011.0944;  4.0503907E-01;9190.2334;3;-21.589725;0.0;-16.137699;0;1.050203;  9.9789053E+03;  0.0000000E+00; -6.8755350E-07;  1.0000000E+04;  0.0000000E+00;  9.9913838E+03;0.68439144;0.0;0.36581156;3670.387
  7.3994428E-01;  9.9999998E-03; -4.0011942E-02;2189;-0.041204844;0.0;-0.014044339;1011.1589;  4.0503898E-01;9243.6563;3;-21.004816;0.0;-11.111281;0;1.0176942;  9.9791035E+03;  0.0000000E+00; -3.9946315E-07;  1.0000000E+04;  0.0000000E+00;  9.9924658E+03;0.67580903;0.0;0.34188518;3163.9622
  7.3994470E-01;  9.9999998E-03; -2.0005731E-02;2190;-0.040743988;0.0;-0.0069456403;1011.2003;  4.0503901E-01;9277.9219;3;-20.63271;0.0;-5.6799326;0;0.9963634;  9.9792197E+03;  0.0000000E+00; -1.0693469E-07;  1.0000000E+04;  0.0000000E+00;  9.9931689E+03;0.67069983;0.0;0.32566357;2835.051
  7.5996280E-01;  9.9999998E-03; -1.8010464E-01;2213;-0.029196238;0.0;-0.083297692;1010.381;  4.0507591E-01;8598.7939;3;-15.176538;0.0;-33.727264;0;1.2405887;  9.9750859E+03;  0.0000000E+00;  6.8788431E-06;  1.0000000E+04;  0.0000000E+00;  9.9792900E+03;0.84130287;0.0;0.39928582;9639.5791
  7.5996464E-01;  9.9999998E-03; -1.6008866E-01;2214;-0.027872119;0.0;-0.074357629;1010.5459;  4.0507555E-01;8735.3564;3;-14.916296;0.0;-33.854221;0;1.2540666;  9.9759072E+03;  0.0000000E+00;  5.4853808E-06;  1.0000000E+04;  0.0000000E+00;  9.9817490E+03;0.81293708;0.0;0.44112951;8362.7119
  7.5996643E-01;  9.9999998E-03; -1.4007257E-01;2215;-0.026531124;0.0;-0.063907057;1010.7021;  4.0507522E-01;8864.8096;3;-14.496989;0.0;-32.409565;0;1.2456573;  9.9766680E+03;  0.0000000E+00;  4.8641218E-06;  1.0000000E+04;  0.0000000E+00;  9.9840938E+03;0.78546524;0.0;0.46019211;7169.7153
  7.5996786E-01;  9.9999998E-03; -1.2005641E-01;2216;-0.025296954;0.0;-0.052466128;1010.8387;  4.0507492E-01;8977.8711;3;-13.9848;0.0;-29.611326;0;1.2182992;  9.9773320E+03;  0.0000000E+00;  3.2653215E-06;  1.0000000E+04;  0.0000000E+00;  9.9861387E+03;0.76035345;0.0;0.45794576;6152.8828
  7.5996906E-01;  9.9999998E-03; -1.0004188E-01;2217;-0.024233181;0.0;-0.041432675;1010.9563;  4.0507472E-01;9075.3311;3;-13.438821;0.0;-25.985527;0;1.1790477;  9.9778848E+03;  0.0000000E+00;  1.5893049E-06;  1.0000000E+04;  0.0000000E+00;  9.9879180E+03;0.73856282;0.0;0.44048485;5288.6167
  7.5996995E-01;  9.9999998E-03; -8.0029815E-02;2218;-0.023358915;0.0;-0.031484008;1011.0587;  4.0507457E-01;9160.1523;3;-12.90702;0.0;-21.760258;0;1.135047;  9.9783193E+03;  0.0000000E+00;  5.1215511E-07;  1.0000000E+04;  0.0000000E+00;  9.9895176E+03;0.72063959;0.0;0.41440734;4527.9834
  7.5997055E-01;  9.9999998E-03; -6.0020234E-02;2219;-0.022672929;0.0;-0.02270999;1011.1464;  4.0507445E-01;9232.7285;3;-12.43185;0.0;-17.003222;0;1.0926845;  9.9786445E+03;  0.0000000E+00;  7.2381788E-08;  1.0000000E+04;  0.0000000E+00;  9.9909326E+03;0.70678174;0.0;0.38590279;3861.6897
  7.5997102E-01;  9.9999998E-03; -4.0012561E-02;2220;-0.022174215;0.0;-0.014798315;1011.2151;  4.0507439E-01;9289.7031;3;-12.053746;0.0;-11.730871;0;1.0577035;  9.9788643E+03;  0.0000000E+00; -2.1157728E-08;  1.0000000E+04;  0.0000000E+00;  9.9920742E+03;0.6969794;0.0;0.36072406;3327.8896
  7.5997126E-01;  9.9999998E-03; -2.0006035E-02;2221;-0.021868831;0.0;-0.0073265508;1011.2592;  4.0507436E-01;9326.2383;3;-11.809285;0.0;-6.003767;0;1.0347681;  9.9789951E+03;  0.0000000E+00; -9.9273594E-09;  1.0000000E+04;  0.0000000E+00;  9.9928184E+03;0.69114667;0.0;0.3436214;2980.5845
  7.7998680E-01;  9.9999998E-03; -1.8010634E-01;2244;-0.01116647;0.0;-0.08435262;1010.4593;  4.0508893E-01;8663.0859;3;-6.4540367;0.0;-33.716946;0;1.2179576;  9.9763271E+03;  0.0000000E+00;  3.3071826E-06;  1.0000000E+04;  0.0000000E+00;  9.9789648E+03;0.81385821;0.0;0.40409938;9791.0137
  7.7998751E-01;  9.9999998E-03; -1.6009039E-01;2245;-0.010738708;0.0;-0.075602911;1010.6224;  4.0508854E-01;8798.1582;3;-6.483151;0.0;-34.12347;0;1.2352109;  9.9771221E+03;  0.0000000E+00;  3.5292067E-06;  1.0000000E+04;  0.0000000E+00;  9.9814092E+03;0.78647703;0.0;0.44873384;8516.6719
  7.7998823E-01;  9.9999998E-03; -1.4007413E-01;2246;-0.010236252;0.0;-0.065173015;1010.778;  4.0508822E-01;8927.0107;3;-6.399437;0.0;-32.868801;0;1.2290857;  9.9778770E+03;  0.0000000E+00;  2.9874388E-06;  1.0000000E+04;  0.0000000E+00;  9.9837451E+03;0.7589193;0.0;0.47016639;7325.5762
  7.7998888E-01;  9.9999998E-03; -1.2005772E-01;2247;-0.0097368071;0.0;-0.053631417;1010.9149;  4.0508789E-01;9040.459;3;-6.238483;0.0;-30.173695;0;1.2026629;  9.9785488E+03;  0.0000000E+00;  1.9707477E-06;  1.0000000E+04;  0.0000000E+00;  9.9857920E+03;0.73315465;0.0;0.46950823;6306.9883
  7.7998936E-01;  9.9999998E-03; -1.0004292E-01;2248;-0.009283145;0.0;-0.042438749;1011.0338;  4.0508774E-01;9138.8994;3;-6.0322204;0.0;-26.579603;0;1.1633356;  9.9791152E+03;  0.0000000E+00;  1.0516312E-06;  1.0000000E+04;  0.0000000E+00;  9.9875850E+03;0.71056014;0.0;0.45277542;5435.1597
  7.7998978E-01;  9.9999998E-03; -8.0030590E-02;2249;-0.0088918684;0.0;-0.032311182;1011.1381;  4.0508750E-01;9225.2939;3;-5.8075957;0.0;-22.327026;0;1.1186408;  9.9795586E+03;  0.0000000E+00;  4.7194135E-07;  1.0000000E+04;  0.0000000E+00;  9.9892100E+03;0.69190496;0.0;0.42673579;4661.6201
  7.7999008E-01;  9.9999998E-03; -6.0020790E-02;2250;-0.008569614;0.0;-0.023350067;1011.2277;  4.0508741E-01;9299.4453;3;-5.5904346;0.0;-17.489719;0;1.0753436;  9.9798887E+03;  0.0000000E+00;  1.8595487E-07;  1.0000000E+04;  0.0000000E+00;  9.9906602E+03;0.67747188;0.0;0.39787173;3979.9185
  7.7999032E-01;  9.9999998E-03; -4.0012926E-02;2251;-0.0083250375;0.0;-0.015239252;1011.2982;  4.0508735E-01;9357.8984;3;-5.4080091;0.0;-12.088601;0;1.0394964;  9.9801123E+03;  0.0000000E+00;  6.3779154E-08;  1.0000000E+04;  0.0000000E+00;  9.9918330E+03;0.66726655;0.0;0.37222993;3431.9441
  7.7999043E-01;  9.9999998E-03; -2.0006215E-02;2252;-0.0081705274;0.0;-0.0075527164;1011.3434;  4.0508726E-01;9395.3193;3;-5.2858524;0.0;-6.193615;0;1.0159737;  9.9802451E+03;  0.0000000E+00;  1.4155878E-08;  1.0000000E+04;  0.0000000E+00;  9.9925977E+03;0.66119927;0.0;0.35477445;3074.8721
  8.0000609E-01;  9.9999998E-03; -1.8010651E-01;2275;0.0034828356;0.0;-0.084270135;1010.5694;  4.0509254E-01;8753.5244;3;0.75636595;0.0;-33.385696;0;1.1591926;  9.9783477E+03;  0.0000000E+00;  1.7517182E-07;  1.0000000E+04;  0.0000000E+00;  9.9789404E+03;0.75547689;0.0;0.4037157;9796.335
  8.0000579E-01;  9.9999998E-03; -1.6009068E-01;2276;0.0031829253;0.0;-0.075702511;1010.7287;  4.0509212E-01;8885.4248;3;0.52960181;0.0;-33.94817;0;1.1791499;  9.9790908E+03;  0.0000000E+00;  4.0454842E-07;  1.0000000E+04;  0.0000000E+00;  9.9813652E+03;0.72989935;0.0;0.44925049;8533.7432
  8.0000561E-01;  9.9999998E-03; -1.4007449E-01;2277;0.0029770967;0.0;-0.065375239;1010.881;  4.0509176E-01;9011.5996;3;0.35451329;0.0;-32.822025;0;1.1753994;  9.9798125E+03;  0.0000000E+00;  4.5370660E-07;  1.0000000E+04;  0.0000000E+00;  9.9836719E+03;0.70350158;0.0;0.47189781;7356.5068
  8.0000550E-01;  9.9999998E-03; -1.2005804E-01;2278;0.0028410694;0.0;-0.053872649;1011.0156;  4.0509146E-01;9122.9648;3;0.22813611;0.0;-30.219984;0;1.1508996;  9.9804570E+03;  0.0000000E+00;  3.4561069E-07;  1.0000000E+04;  0.0000000E+00;  9.9856943E+03;0.67850024;0.0;0.47239938;6349.1221
  8.0000544E-01;  9.9999998E-03; -1.0004319E-01;2279;0.0027587479;0.0;-0.042684685;1011.1327;  4.0509126E-01;9220.0137;3;0.14664367;0.0;-26.687752;0;1.1129774;  9.9809990E+03;  0.0000000E+00;  2.0783635E-07;  1.0000000E+04;  0.0000000E+00;  9.9874775E+03;0.65645975;0.0;0.45651764;5483.1431
  8.0000544E-01;  9.9999998E-03; -8.0030814E-02;2280;0.0027200459;0.0;-0.032543413;1011.2362;  4.0509117E-01;9305.71;3;0.10466418;0.0;-22.468407;0;1.0692185;  9.9814297E+03;  0.0000000E+00;  1.0946869E-07;  1.0000000E+04;  0.0000000E+00;  9.9891025E+03;0.63823617;0.0;0.43098232;4710.3794
  8.0000544E-01;  9.9999998E-03; -6.0020965E-02;2281;0.0027141389;0.0;-0.023551803;1011.3255;  4.0509108E-01;9379.6572;3;0.093459047;0.0;-17.634552;0;1.0264996;  9.9817461E+03;  0.0000000E+00;  5.3173363E-08;  1.0000000E+04;  0.0000000E+00;  9.9905576E+03;0.62413734;0.0;0.40236232;4026.3589
  8.0000544E-01;  9.9999998E-03; -4.0013049E-02;2282;0.0027264047;0.0;-0.015390578;1011.3959;  4.0509093E-01;9438.0059;3;0.10011905;0.0;-12.206829;0;0.99099112;  9.9819639E+03;  0.0000000E+00;  2.1851442E-08;  1.0000000E+04;  0.0000000E+00;  9.9917354E+03;0.61417186;0.0;0.37681928;3475.1873
  8.0000544E-01;  9.9999998E-03; -2.0006280E-02;2283;0.0027416411;0.0;-0.0076343212;1011.4412;  4.0509081E-01;9475.4238;3;0.11111428;0.0;-6.2599998;0;0.96765184;  9.9820918E+03;  0.0000000E+00;  5.4493254E-09;  1.0000000E+04;  0.0000000E+00;  9.9925059E+03;0.60825032;0.0;0.35940149;3115.6465
  8.2002389E-01;  9.9999998E-03; -1.8010540E-01;2306;0.017171605;0.0;-0.083281204;1010.6724;  4.0508661E-01;8837.6436;3;7.6351089;0.0;-32.855846;0;1.0889848;  9.9804531E+03;  0.0000000E+00; -1.3003782E-06;  1.0000000E+04;  0.0000000E+00;  9.9791582E+03;0.68935031;0.0;0.39963454;9684.1406
  8.2002276E-01;  9.9999998E-03; -1.6008979E-01;2307;0.016228413;0.0;-0.074860923;1010.8273;  4.0508613E-01;8965.9736;3;7.2331295;0.0;-33.449833;0;1.1101179;  9.9811426E+03;  0.0000000E+00; -1.3523368E-06;  1.0000000E+04;  0.0000000E+00;  9.9815527E+03;0.6655587;0.0;0.44455925;8439.6074
  8.2002181E-01;  9.9999998E-03; -1.4007378E-01;2308;0.015397565;0.0;-0.064686418;1010.9753;  4.0508583E-01;9088.4805;3;6.8330564;0.0;-32.381317;0;1.1081455;  9.9818135E+03;  0.0000000E+00; -7.4622454E-07;  1.0000000E+04;  0.0000000E+00;  9.9838223E+03;0.64080286;0.0;0.46734256;7283.6162
  8.2002103E-01;  9.9999998E-03; -1.2005752E-01;2309;0.014703074;0.0;-0.053330161;1011.1057;  4.0508559E-01;9196.4756;3;6.4592443;0.0;-29.849131;0;1.0857208;  9.9824170E+03;  0.0000000E+00; -3.4135431E-07;  1.0000000E+04;  0.0000000E+00;  9.9858047E+03;0.61729908;0.0;0.46842167;6295.478
  8.2002044E-01;  9.9999998E-03; -1.0004281E-01;2310;0.01415012;0.0;-0.042279147;1011.2197;  4.0508527E-01;9290.8477;3;6.1301847;0.0;-26.393108;0;1.0498228;  9.9829238E+03;  0.0000000E+00; -1.5567107E-07;  1.0000000E+04;  0.0000000E+00;  9.9875605E+03;0.59657776;0.0;0.45324507;5444.3813
  8.2002002E-01;  9.9999998E-03; -8.0030560E-02;2311;0.013732594;0.0;-0.032260153;1011.3207;  4.0508518E-01;9374.5596;3;5.8578639;0.0;-22.250229;0;1.0078393;  9.9833252E+03;  0.0000000E+00; -8.2339113E-08;  1.0000000E+04;  0.0000000E+00;  9.9891631E+03;0.57945812;0.0;0.42838117;4682.4575
  8.2001978E-01;  9.9999998E-03; -6.0020808E-02;2312;0.013435594;0.0;-0.023369351;1011.4083;  4.0508509E-01;9447.1152;3;5.6477995;0.0;-17.486078;0;0.96655917;  9.9836230E+03;  0.0000000E+00; -4.6687525E-08;  1.0000000E+04;  0.0000000E+00;  9.9906016E+03;0.56622183;0.0;0.40033737;4006.3196
  8.2001960E-01;  9.9999998E-03; -4.0012959E-02;2313;0.013240301;0.0;-0.015285375;1011.4775;  4.0508500E-01;9504.3701;3;5.5003233;0.0;-12.116989;0;0.9321146;  9.9838291E+03;  0.0000000E+00; -2.1596279E-08;  1.0000000E+04;  0.0000000E+00;  9.9917705E+03;0.55687064;0.0;0.37524396;3460.752
  8.2001948E-01;  9.9999998E-03; -2.0006241E-02;2314;0.01313014;0.0;-0.0075870813;1011.5219;  4.0508494E-01;9541.1914;3;5.4131255;0.0;-6.2182422;0;0.90943217;  9.9839463E+03;  0.0000000E+00; -5.7453633E-09;  1.0000000E+04;  0.0000000E+00;  9.9925352E+03;0.55131507;0.0;0.35811713;3104.6658
  8.4004200E-01;  9.9999998E-03; -1.8010311E-01;2337;0.03110214;0.0;-0.081463933;1010.5887;  4.0500432E-01;8766.8936;3;14.726334;0.0;-32.137268;0;1.0158303;  9.9824336E+03;  0.0000000E+00; -1.4470859E-06;  1.0000000E+04;  0.0000000E+00;  9.9795859E+03;0.62348169;0.0;0.39234862;9466.6689
  8.4004003E-01;  9.9999998E-03; -1.6008782E-01;2338;0.029539771;0.0;-0.073200278;1010.7396;  4.0500385E-01;8891.8486;3;14.126753;0.0;-32.678646;0;1.0366132;  9.9830791E+03;  0.0000000E+00; -1.8770880E-06;  1.0000000E+04;  0.0000000E+00;  9.9819385E+03;0.60097134;0.0;0.43564186;8248.0205
  8.4003836E-01;  9.9999998E-03; -1.4007215E-01;2339;0.02812876;0.0;-0.063233994;1010.8826;  4.0500349E-01;9010.2881;3;13.503715;0.0;-31.61495;0;1.0355445;  9.9837061E+03;  0.0000000E+00; -7.7285068E-07;  1.0000000E+04;  0.0000000E+00;  9.9841543E+03;0.57779646;0.0;0.45774806;7120.689
  8.4003699E-01;  9.9999998E-03; -1.2005624E-01;2340;0.026928937;0.0;-0.052121025;1011.0083;  4.0500328E-01;9114.3174;3;12.900909;0.0;-29.135237;0;1.0148646;  9.9842666E+03;  0.0000000E+00; -1.8695641E-07;  1.0000000E+04;  0.0000000E+00;  9.9860928E+03;0.55596977;0.0;0.45889479;6158.8843
  8.4003597E-01;  9.9999998E-03; -1.0004186E-01;2341;0.025956176;0.0;-0.04132003;1011.1182;  4.0500304E-01;9205.3184;3;12.350735;0.0;-25.766256;0;0.98104411;  9.9847363E+03;  0.0000000E+00; -4.0900993E-08;  1.0000000E+04;  0.0000000E+00;  9.9878047E+03;0.53682899;0.0;0.44421512;5330.1611
  8.4003520E-01;  9.9999998E-03; -8.0029882E-02;2342;0.025202725;0.0;-0.03153703;1011.2158;  4.0500295E-01;9286.1533;3;11.875926;0.0;-21.733229;0;0.94111878;  9.9851064E+03;  0.0000000E+00; -4.5177863E-08;  1.0000000E+04;  0.0000000E+00;  9.9893691E+03;0.52106547;0.0;0.4200533;4587.2852
  8.4003466E-01;  9.9999998E-03; -6.0020357E-02;2343;0.0246477;0.0;-0.022857012;1011.3007;  4.0500277E-01;9356.4277;3;11.491974;0.0;-17.091686;0;0.90165931;  9.9853818E+03;  0.0000000E+00; -4.9410133E-08;  1.0000000E+04;  0.0000000E+00;  9.9907754E+03;0.50889975;0.0;0.39275956;3927.3677
  8.4003437E-01;  9.9999998E-03; -4.0012687E-02;2344;0.024268012;0.0;-0.014958519;1011.3678;  4.0500268E-01;9411.9951;3;11.209599;0.0;-11.851457;0;0.86863577;  9.9855723E+03;  0.0000000E+00; -3.2674901E-08;  1.0000000E+04;  0.0000000E+00;  9.9919199E+03;0.50030953;0.0;0.36832622;3394.6365
  8.4003413E-01;  9.9999998E-03; -2.0006113E-02;2345;0.024046311;0.0;-0.0074279001;1011.4111;  4.0500265E-01;9447.8232;3;11.036499;0.0;-6.0846376;0;0.84685671;  9.9856797E+03;  0.0000000E+00; -1.0052413E-08;  1.0000000E+04;  0.0000000E+00;  9.9926689E+03;0.49520558;0.0;0.35165113;3046.8989
  8.6006021E-01;  9.9999998E-03; -1.8009970E-01;2368;0.045129646;0.0;-0.078830585;1010.3186;  4.0484238E-01;8541.4316;3;21.911829;0.0;-31.186531;0;0.93508583;  9.9844561E+03;  0.0000000E+00; -1.1991478E-06;  1.0000000E+04;  0.0000000E+00;  9.9802148E+03;0.55335712;0.0;0.38172871;9146.7773
  8.6005747E-01;  9.9999998E-03; -1.6008489E-01;2369;0.042956434;0.0;-0.070776589;1010.465;  4.0484190E-01;8662.6094;3;21.083038;0.0;-31.632633;0;0.95425808;  9.9850781E+03;  0.0000000E+00; -2.2505496E-06;  1.0000000E+04;  0.0000000E+00;  9.9825068E+03;0.53147566;0.0;0.42278239;7964.9038
  8.6005515E-01;  9.9999998E-03; -1.4006972E-01;2370;0.040996842;0.0;-0.061094847;1010.6028;  4.0484157E-01;8776.6807;3;20.229939;0.0;-30.549046;0;0.95328712;  9.9856709E+03;  0.0000000E+00; -6.0396633E-07;  1.0000000E+04;  0.0000000E+00;  9.9846572E+03;0.50957572;0.0;0.4437114;6875.9419
  8.6005324E-01;  9.9999998E-03; -1.2005431E-01;2371;0.039333362;0.0;-0.050324563;1010.7238;  4.0484139E-01;8876.7393;3;19.407705;0.0;-28.119555;0;0.93394768;  9.9861895E+03;  0.0000000E+00;  1.4788056E-07;  1.0000000E+04;  0.0000000E+00;  9.9865303E+03;0.48933703;0.0;0.44461069;5948.8643
  8.6005181E-01;  9.9999998E-03; -1.0004041E-01;2372;0.037982538;0.0;-0.03987772;1010.8289;  4.0484121E-01;8963.7734;3;18.654819;0.0;-24.852747;0;0.90210223;  9.9866230E+03;  0.0000000E+00;  1.9420879E-07;  1.0000000E+04;  0.0000000E+00;  9.9881855E+03;0.47179461;0.0;0.43030766;5150.3276
  8.6005074E-01;  9.9999998E-03; -8.0028847E-02;2373;0.036929458;0.0;-0.030430956;1010.9224;  4.0484110E-01;9041.2354;3;17.998638;0.0;-20.960056;0;0.86432743;  9.9869668E+03;  0.0000000E+00;  4.7583374E-08;  1.0000000E+04;  0.0000000E+00;  9.9897002E+03;0.4574452;0.0;0.4068822;4434.2363
  8.6005002E-01;  9.9999998E-03; -6.0019650E-02;2374;0.036145587;0.0;-0.022057179;1011.0037;  4.0484098E-01;9108.5332;3;17.461033;0.0;-16.486658;0;0.82687461;  9.9872188E+03;  0.0000000E+00; -4.1329091E-08;  1.0000000E+04;  0.0000000E+00;  9.9910596E+03;0.44640851;0.0;0.38046607;3797.9985
  8.6004949E-01;  9.9999998E-03; -4.0012248E-02;2375;0.035602815;0.0;-0.014438156;1011.0682;  4.0484086E-01;9161.918;3;17.060152;0.0;-11.435214;0;0.7954725;  9.9873936E+03;  0.0000000E+00; -4.1576108E-08;  1.0000000E+04;  0.0000000E+00;  9.9921670E+03;0.43862459;0.0;0.35684788;3284.4729
  8.6004925E-01;  9.9999998E-03; -2.0005902E-02;2376;0.03528256;0.0;-0.0071708946;1011.1097;  4.0484083E-01;9196.2578;3;16.811983;0.0;-5.8723226;0;0.77474415;  9.9874941E+03;  0.0000000E+00; -1.3510480E-08;  1.0000000E+04;  0.0000000E+00;  9.9928896E+03;0.43399933;0.0;0.34074482;2949.3752
  8.8007742E-01;  9.9999998E-03; -1.8009523E-01;2399;0.058377396;0.0;-0.075392649;1009.8992;  4.0461001E-01;8191.7178;3;28.737164;0.0;-29.958944;0;0.83813667;  9.9868027E+03;  0.0000000E+00; -1.7799271E-06;  1.0000000E+04;  0.0000000E+00;  9.9810469E+03;0.47058561;0.0;0.36755106;8726.6563
  8.8007396E-01;  9.9999998E-03; -1.6008106E-01;2400;0.055622831;0.0;-0.067632981;1010.0409;  4.0460962E-01;8309.0107;3;27.666574;0.0;-30.299129;0;0.85483658;  9.9874131E+03;  0.0000000E+00; -3.5769779E-06;  1.0000000E+04;  0.0000000E+00;  9.9832520E+03;0.44880655;0.0;0.40603003;7594.7104
  8.8007098E-01;  9.9999998E-03; -1.4006655E-01;2401;0.053157296;0.0;-0.058328576;1010.1729;  4.0460941E-01;8418.2139;3;26.586582;0.0;-29.194937;0;0.85349715;  9.9879766E+03;  0.0000000E+00; -1.0645921E-06;  1.0000000E+04;  0.0000000E+00;  9.9853145E+03;0.42795867;0.0;0.42553845;6555.9526
  8.8006866E-01;  9.9999998E-03; -1.2005181E-01;2402;0.051075842;0.0;-0.048002575;1010.2877;  4.0460920E-01;8513.2129;3;25.55793;0.0;-26.827299;0;0.83536327;  9.9884600E+03;  0.0000000E+00;  6.9961899E-08;  1.0000000E+04;  0.0000000E+00;  9.9871064E+03;0.40928078;0.0;0.42608246;5673.5571
  8.8006681E-01;  9.9999998E-03; -1.0003852E-01;2403;0.049389035;0.0;-0.038007803;1010.3873;  4.0460899E-01;8595.6826;3;24.620197;0.0;-23.683432;0;0.80558759;  9.9888564E+03;  0.0000000E+00;  1.7916256E-07;  1.0000000E+04;  0.0000000E+00;  9.9886885E+03;0.39341217;0.0;0.41217542;4913.7822
  8.8006550E-01;  9.9999998E-03; -8.0027483E-02;2404;0.048072267;0.0;-0.028987782;1010.4758;  4.0460894E-01;8668.9785;3;23.802187;0.0;-19.961388;0;0.77017599;  9.9891670E+03;  0.0000000E+00;  1.2444944E-09;  1.0000000E+04;  0.0000000E+00;  9.9901387E+03;0.38058367;0.0;0.38959232;4232.2573
  8.8006461E-01;  9.9999998E-03; -6.0018715E-02;2405;0.047088187;0.0;-0.021004919;1010.553;  4.0460888E-01;8732.8037;3;23.129112;0.0;-15.697536;0;0.73498356;  9.9893955E+03;  0.0000000E+00; -9.7364243E-08;  1.0000000E+04;  0.0000000E+00;  9.9914414E+03;0.37077695;0.0;0.36420661;3626.8123
  8.8006395E-01;  9.9999998E-03; -4.0011663E-02;2406;0.046403319;0.0;-0.013748067;1010.6141;  4.0460879E-01;8783.3115;3;22.624844;0.0;-10.887713;0;0.70543867;  9.9895557E+03;  0.0000000E+00; -7.1009190E-08;  1.0000000E+04;  0.0000000E+00;  9.9924961E+03;0.36387917;0.0;0.3415595;3138.4214
  8.8006365E-01;  9.9999998E-03; -2.0005619E-02;2407;0.045997445;0.0;-0.0068281926;1010.6534;  4.0460867E-01;8815.9639;3;22.311298;0.0;-5.5914693;0;0.68592691;  9.9896465E+03;  0.0000000E+00; -2.3057245E-08;  1.0000000E+04;  0.0000000E+00;  9.9931855E+03;0.35978362;0.0;0.32614329;2819.929
  9.0009230E-01;  9.9999998E-03; -1.8008980E-01;2430;0.069848724;0.0;-0.071206525;1009.3669;  4.0431997E-01;7748.2065;3;34.717312;0.0;-28.442041;0;0.72185618;  9.9895918E+03;  0.0000000E+00; -4.2326233E-06;  1.0000000E+04;  0.0000000E+00;  9.9820605E+03;0.37195554;0.0;0.34990063;8213.7305
  9.0008819E-01;  9.9999998E-03; -1.6007644E-01;2431;0.066573411;0.0;-0.063836865;1009.5029;  4.0431964E-01;7860.6201;3;33.421715;0.0;-28.683842;0;0.73579788;  9.9901963E+03;  0.0000000E+00; -6.1179817E-06;  1.0000000E+04;  0.0000000E+00;  9.9841602E+03;0.35017672;0.0;0.38562116;7145.2378
  9.0008467E-01;  9.9999998E-03; -1.4006272E-01;2432;0.063656919;0.0;-0.055005614;1009.6279;  4.0431949E-01;7964.0601;3;32.132885;0.0;-27.571648;0;0.73416424;  9.9907256E+03;  0.0000000E+00; -2.3751275E-06;  1.0000000E+04;  0.0000000E+00;  9.9861123E+03;0.33053505;0.0;0.40362918;6169.0142
  9.0008187E-01;  9.9999998E-03; -1.2004881E-01;2433;0.061201066;0.0;-0.045220565;1009.7351;  4.0431929E-01;8052.7085;3;30.916128;0.0;-25.284685;0;0.7175535;  9.9911660E+03;  0.0000000E+00; -5.6514983E-07;  1.0000000E+04;  0.0000000E+00;  9.9878018E+03;0.31370091;0.0;0.40385261;5341.6245
  9.0007973E-01;  9.9999998E-03; -1.0003626E-01;2434;0.059209596;0.0;-0.035767026;1009.8282;  4.0431908E-01;8129.7222;3;29.809668;0.0;-22.287088;0;0.69029307;  9.9915186E+03;  0.0000000E+00; -1.8242319E-07;  1.0000000E+04;  0.0000000E+00;  9.9892988E+03;0.29982767;0.0;0.39046538;4629.2686
  9.0007818E-01;  9.9999998E-03; -8.0025852E-02;2435;0.057649337;0.0;-0.027254125;1009.9106;  4.0431902E-01;8197.959;3;28.844658;0.0;-18.765022;0;0.65772128;  9.9917910E+03;  0.0000000E+00; -2.3148355E-07;  1.0000000E+04;  0.0000000E+00;  9.9906660E+03;0.28882268;0.0;0.3688986;3989.9092
  9.0007704E-01;  9.9999998E-03; -6.0017589E-02;2436;0.056478176;0.0;-0.019736415;1009.9826;  4.0431899E-01;8257.4199;3;28.048777;0.0;-14.747903;0;0.62523055;  9.9919912E+03;  0.0000000E+00; -2.3174698E-07;  1.0000000E+04;  0.0000000E+00;  9.9918945E+03;0.28049901;0.0;0.34473151;3422.001
  9.0007633E-01;  9.9999998E-03; -4.0010959E-02;2437;0.055660568;0.0;-0.012913516;1010.0397;  4.0431890E-01;8304.6533;3;27.448221;0.0;-10.2262;0;0.59790337;  9.9921289E+03;  0.0000000E+00; -1.3723037E-07;  1.0000000E+04;  0.0000000E+00;  9.9928877E+03;0.27467701;0.0;0.32322639;2964.2617
  9.0007591E-01;  9.9999998E-03; -2.0005280E-02;2438;0.055174727;0.0;-0.0064127059;1010.0764;  4.0431893E-01;8335.0244;3;27.073931;0.0;-5.2512484;0;0.57984519;  9.9922090E+03;  0.0000000E+00; -3.7590961E-08;  1.0000000E+04;  0.0000000E+00;  9.9935410E+03;0.27122965;0.0;0.30861554;2666.0293
  9.2010230E-01;  9.9999998E-03; -1.8008363E-01;2461;0.077514291;0.0;-0.066417024;1008.7499;  4.0398702E-01;7233.752;3;38.749813;0.0;-26.673805;0;0.59314275;  9.9926631E+03;  0.0000000E+00; -7.6939368E-06;  1.0000000E+04;  0.0000000E+00;  9.9832314E+03;0.26382574;0.0;0.329317;7622.644
  9.2009711E-01;  9.9999998E-03; -1.6007121E-01;2462;0.073342904;0.0;-0.059502605;1008.8785;  4.0398681E-01;7340.0933;3;36.996166;0.0;-26.808701;0;0.60471797;  9.9932510E+03;  0.0000000E+00; -8.6581749E-06;  1.0000000E+04;  0.0000000E+00;  9.9851992E+03;0.24254952;0.0;0.36216843;6629.4771
  9.2009282E-01;  9.9999998E-03; -1.4005841E-01;2463;0.06977395;0.0;-0.05122561;1008.9943;  4.0398660E-01;7435.79;3;35.37455;0.0;-25.698431;0;0.60337418;  9.9937344E+03;  0.0000000E+00; -3.7435475E-06;  1.0000000E+04;  0.0000000E+00;  9.9870215E+03;0.22470815;0.0;0.37866604;5726.584
  9.2008942E-01;  9.9999998E-03; -1.2004545E-01;2464;0.066791154;0.0;-0.042079452;1009.0925;  4.0398642E-01;7517.0977;3;33.888065;0.0;-23.5154;0;0.58895862;  9.9941162E+03;  0.0000000E+00; -1.3205481E-06;  1.0000000E+04;  0.0000000E+00;  9.9885947E+03;0.21030135;0.0;0.37865725;4963.2593
  9.2008674E-01;  9.9999998E-03; -1.0003380E-01;2465;0.064328209;0.0;-0.033269681;1009.1775;  4.0398630E-01;7587.2686;3;32.57003;0.0;-20.690538;0;0.56490427;  9.9944082E+03;  0.0000000E+00; -6.2311187E-07;  1.0000000E+04;  0.0000000E+00;  9.9899844E+03;0.19895381;0.0;0.36595047;4305.9902
  9.2008466E-01;  9.9999998E-03; -8.0024138E-02;2466;0.062350616;0.0;-0.02535956;1009.2524;  4.0398622E-01;7649.2588;3;31.397543;0.0;-17.399582;0;0.53582633;  9.9946270E+03;  0.0000000E+00; -4.7469675E-07;  1.0000000E+04;  0.0000000E+00;  9.9912559E+03;0.19022857;0.0;0.34559777;3715.5605
  9.2008317E-01;  9.9999998E-03; -6.0016476E-02;2467;0.060847268;0.0;-0.018380782;1009.3181;  4.0398613E-01;7703.5635;3;30.448324;0.0;-13.663023;0;0.50660801;  9.9947852E+03;  0.0000000E+00; -3.3948092E-07;  1.0000000E+04;  0.0000000E+00;  9.9924033E+03;0.18375877;0.0;0.32284924;3191.1438
  9.2008215E-01;  9.9999998E-03; -4.0010296E-02;2468;0.059788778;0.0;-0.012037391;1009.37;  4.0398616E-01;7746.4341;3;29.75316;0.0;-9.468688;0;0.48194206;  9.9948936E+03;  0.0000000E+00; -1.7642354E-07;  1.0000000E+04;  0.0000000E+00;  9.9933281E+03;0.17928816;0.0;0.30265388;2768.863
  9.2008156E-01;  9.9999998E-03; -2.0004973E-02;2469;0.059164099;0.0;-0.0059814025;1009.4036;  4.0398604E-01;7774.2271;3;29.32486;0.0;-4.8601813;0;0.46561909;  9.9949531E+03;  0.0000000E+00; -4.6079357E-08;  1.0000000E+04;  0.0000000E+00;  9.9939326E+03;0.17666014;0.0;0.28895897;2494.0417
  9.4010478E-01;  9.9999998E-03; -1.8007706E-01;2492;0.079121895;0.0;-0.061261412;1008.0667;  4.0362722E-01;6664.0249;3;39.437561;0.0;-24.738596;0;0.46615303;  9.9956572E+03;  0.0000000E+00; -9.3930339E-06;  1.0000000E+04;  0.0000000E+00;  9.9845107E+03;0.1594785;0.0;0.30667454;6974.4141
  9.4009900E-01;  9.9999998E-03; -1.6006564E-01;2493;0.074585751;0.0;-0.054826163;1008.1863;  4.0362701E-01;6762.8032;3;37.593185;0.0;-24.75588;0;0.47604948;  9.9962119E+03;  0.0000000E+00; -9.0300518E-06;  1.0000000E+04;  0.0000000E+00;  9.9863330E+03;0.13946933;0.0;0.33658016;6065.1597
  9.4009435E-01;  9.9999998E-03; -1.4005385E-01;2494;0.070771538;0.0;-0.047157444;1008.2916;  4.0362686E-01;6849.8613;3;35.909058;0.0;-23.65502;0;0.47562671;  9.9966309E+03;  0.0000000E+00; -3.9409274E-06;  1.0000000E+04;  0.0000000E+00;  9.9880088E+03;0.12405477;0.0;0.35157195;5243.2432
  9.4009060E-01;  9.9999998E-03; -1.2004193E-01;2495;0.067590639;0.0;-0.038721133;1008.3797;  4.0362680E-01;6922.6406;3;34.369797;0.0;-21.594593;0;0.46397293;  9.9969395E+03;  0.0000000E+00; -1.5429881E-06;  1.0000000E+04;  0.0000000E+00;  9.9894512E+03;0.11256076;0.0;0.35141215;4550.4204
  9.4008768E-01;  9.9999998E-03; -1.0003124E-01;2496;0.064982772;0.0;-0.030620687;1008.4549;  4.0362665E-01;6984.7827;3;32.99873;0.0;-18.963587;0;0.44364685;  9.9971582E+03;  0.0000000E+00; -7.8381782E-07;  1.0000000E+04;  0.0000000E+00;  9.9907285E+03;0.10411783;0.0;0.33952901;3953.9336
  9.4008541E-01;  9.9999998E-03; -8.0022402E-02;2497;0.062899105;0.0;-0.023362992;1008.5217;  4.0362665E-01;7039.9331;3;31.810364;0.0;-15.924922;0;0.41854301;  9.9973145E+03;  0.0000000E+00; -5.3141991E-07;  1.0000000E+04;  0.0000000E+00;  9.9918945E+03;0.097974181;0.0;0.32056883;3417.6709
  9.4008380E-01;  9.9999998E-03; -6.0015365E-02;2498;0.061311759;0.0;-0.016953336;1008.5799;  4.0362662E-01;7087.9927;3;30.835743;0.0;-12.485509;0;0.39301199;  9.9974219E+03;  0.0000000E+00; -3.4152291E-07;  1.0000000E+04;  0.0000000E+00;  9.9929473E+03;0.093598381;0.0;0.29941362;2941.3877
  9.4008267E-01;  9.9999998E-03; -4.0009648E-02;2499;0.060202122;0.0;-0.011113901;1008.6264;  4.0362653E-01;7126.4995;3;30.119293;0.0;-8.6402559;0;0.37132657;  9.9974922E+03;  0.0000000E+00; -1.5149314E-07;  1.0000000E+04;  0.0000000E+00;  9.9937979E+03;0.090659484;0.0;0.2806671;2558.2505
  9.4008201E-01;  9.9999998E-03; -2.0004673E-02;2500;0.059546787;0.0;-0.0055242795;1008.6562;  4.0362653E-01;7151.0215;3;29.681166;0.0;-4.4318399;0;0.35693753;  9.9975342E+03;  0.0000000E+00; -3.5961403E-08;  1.0000000E+04;  0.0000000E+00;  9.9943506E+03;0.088963702;0.0;0.26797381;2309.2009
  9.6010411E-01;  9.9999998E-03; -1.8007030E-01;2523;0.07872206;0.0;-0.055948894;1007.3358;  4.0325630E-01;6054.2246;3;39.375095;0.0;-22.786797;0;0.35451576;  9.9982129E+03;  0.0000000E+00; -7.1633185E-06;  1.0000000E+04;  0.0000000E+00;  9.9858350E+03;0.071561597;0.0;0.28295416;6294.2549
  9.6009815E-01;  9.9999998E-03; -1.6005990E-01;2524;0.074069284;0.0;-0.05002211;1007.4458;  4.0325606E-01;6145.0347;3;37.487633;0.0;-22.661285;0;0.36309791;  9.9987275E+03;  0.0000000E+00; -6.2078675E-06;  1.0000000E+04;  0.0000000E+00;  9.9875059E+03;0.053229228;0.0;0.30986866;5473.3755
  9.6009338E-01;  9.9999998E-03; -1.4004914E-01;2525;0.070189312;0.0;-0.042985346;1007.5402;  4.0325603E-01;6222.8574;3;35.787022;0.0;-21.581764;0;0.36374497;  9.9990791E+03;  0.0000000E+00; -2.6032840E-06;  1.0000000E+04;  0.0000000E+00;  9.9890293E+03;0.040389813;0.0;0.32335517;4735.9126
  9.6008956E-01;  9.9999998E-03; -1.2003830E-01;2526;0.066974156;0.0;-0.03528364;1007.6174;  4.0325582E-01;6286.71;3;34.25103;0.0;-19.649355;0;0.35488355;  9.9993076E+03;  0.0000000E+00; -1.0664202E-06;  1.0000000E+04;  0.0000000E+00;  9.9903428E+03;0.031785868;0.0;0.32309768;4116.5425
  9.6008658E-01;  9.9999998E-03; -1.0002859E-01;2527;0.064342968;0.0;-0.027897321;1007.683;  4.0325585E-01;6340.8218;3;32.87249;0.0;-17.204824;0;0.338285;  9.9994531E+03;  0.0000000E+00; -5.7733843E-07;  1.0000000E+04;  0.0000000E+00;  9.9914961E+03;0.026143212;0.0;0.31214178;3583.885
  9.6008426E-01;  9.9999998E-03; -8.0020539E-02;2528;0.062239122;0.0;-0.021278467;1007.741;  4.0325576E-01;6388.6372;3;31.683714;0.0;-14.410933;0;0.31717202;  9.9995430E+03;  0.0000000E+00; -3.8956858E-07;  1.0000000E+04;  0.0000000E+00;  9.9925547E+03;0.022462087;0.0;0.29470992;3105.0066
  9.6008265E-01;  9.9999998E-03; -6.0014118E-02;2529;0.060645271;0.0;-0.015432848;1007.7915;  4.0325576E-01;6430.3525;3;30.707195;0.0;-11.271202;0;0.29536062;  9.9996016E+03;  0.0000000E+00; -2.1780494E-07;  1.0000000E+04;  0.0000000E+00;  9.9935059E+03;0.020080827;0.0;0.27527979;2679.854
  9.6008152E-01;  9.9999998E-03; -4.0008880E-02;2530;0.059536498;0.0;-0.010111023;1007.8322;  4.0325579E-01;6463.9019;3;29.981918;0.0;-7.7833395;0;0.27668488;  9.9996357E+03;  0.0000000E+00; -8.8815398E-08;  1.0000000E+04;  0.0000000E+00;  9.9942793E+03;0.01860524;0.0;0.25807965;2338.2097
  9.6008092E-01;  9.9999998E-03; -2.0004306E-02;2531;0.058883905;0.0;-0.0050240145;1007.8582;  4.0325561E-01;6485.3496;3;29.537003;0.0;-3.9858835;0;0.2642464;  9.9996523E+03;  0.0000000E+00; -1.8865732E-08;  1.0000000E+04;  0.0000000E+00;  9.9947773E+03;0.017803416;0.0;0.24644299;2116.3938
  9.8010200E-01;  9.9999998E-03; -1.8006356E-01;2554;0.077423304;0.0;-0.050727997;1006.5798;  4.0288842E-01;5423.0322;3;39.052444;0.0;-20.929707;0;0.26571393;  1.0000125E+04;  0.0000000E+00; -2.6141477E-06;  1.0000000E+04;  0.0000000E+00;  9.9871533E+03;0.00660461;0.0;0.25910932;5609.6445
  9.8009592E-01;  9.9999998E-03; -1.6005418E-01;2555;0.072723351;0.0;-0.045296635;1006.6805;  4.0288827E-01;5506.0581;3;37.12841;0.0;-20.699663;0;0.27274266;  1.0000613E+04;  0.0000000E+00; -1.8419802E-06;  1.0000000E+04;  0.0000000E+00;  9.9886738E+03;-0.010260696;0.0;0.28300336;4877.0068
  9.8009109E-01;  9.9999998E-03; -1.4004447E-01;2556;0.068814658;0.0;-0.038881835;1006.7649;  4.0288821E-01;5575.6226;3;35.39497;0.0;-19.599957;0;0.2739754;  1.0000908E+04;  0.0000000E+00; -6.2160933E-07;  1.0000000E+04;  0.0000000E+00;  9.9900537E+03;-0.020995438;0.0;0.29497084;4222.792
  9.8008728E-01;  9.9999998E-03; -1.2003470E-01;2557;0.065593332;0.0;-0.0318974;1006.8324;  4.0288818E-01;5631.2354;3;33.836464;0.0;-17.764185;0;0.26733792;  1.0001074E+04;  0.0000000E+00; -3.1606666E-07;  1.0000000E+04;  0.0000000E+00;  9.9912334E+03;-0.027295087;0.0;0.294633;3675.8384
  9.8008436E-01;  9.9999998E-03; -1.0002595E-01;2558;0.062972315;0.0;-0.025208909;1006.8885;  4.0288809E-01;5677.5137;3;32.456947;0.0;-15.490068;0;0.25393769;  1.0001159E+04;  0.0000000E+00; -2.3009642E-07;  1.0000000E+04;  0.0000000E+00;  9.9922656E+03;-0.030728202;0.0;0.28466588;3206.9824
  9.8008215E-01;  9.9999998E-03; -8.0018699E-02;2559;0.060897876;0.0;-0.019227773;1006.9385;  4.0288809E-01;5718.7803;3;31.277357;0.0;-12.920047;0;0.23638789;  1.0001200E+04;  0.0000000E+00; -1.5228666E-07;  1.0000000E+04;  0.0000000E+00;  9.9932158E+03;-0.0324664;0.0;0.26885429;2786.4238
  9.8008060E-01;  9.9999998E-03; -6.0012884E-02;2560;0.059340674;0.0;-0.013947953;1006.9822;  4.0288800E-01;5754.7417;3;30.29471;0.0;-10.082103;0;0.2179762;  1.0001215E+04;  0.0000000E+00; -6.1762719E-08;  1.0000000E+04;  0.0000000E+00;  9.9940664E+03;-0.033264857;0.0;0.25124106;2413.6875
  9.8007953E-01;  9.9999998E-03; -4.0008120E-02;2561;0.058256876;0.0;-0.0091316579;1007.0168;  4.0288794E-01;5783.333;3;29.556585;0.0;-6.9481173;0;0.20208021;  1.0001218E+04;  0.0000000E+00; -1.0845338E-08;  1.0000000E+04;  0.0000000E+00;  9.9947529E+03;-0.033570837;0.0;0.23565105;2114.6104
  9.8007900E-01;  9.9999998E-03; -2.0003941E-02;2562;0.057618815;0.0;-0.0045324778;1007.0393;  4.0288800E-01;5801.8052;3;29.087519;0.0;-3.549849;0;0.19145116;  1.0001220E+04;  0.0000000E+00;  4.2827848E-09;  1.0000000E+04;  0.0000000E+00;  9.9951992E+03;-0.033653852;0.0;0.22510502;1920.6774
  1.0000991E+00;  9.9999998E-03; -1.8005714E-01;2585;0.075698294;0.0;-0.045804136;1005.8249;  4.0253577E-01;4792.2979;3;38.67905;0.0;-19.281683;0;0.20074342;  1.0001383E+04;  0.0000000E+00; -3.0875128E-06;  1.0000000E+04;  0.0000000E+00;  9.9883975E+03;-0.035310935;0.0;0.23605436;4948.1045
  1.0000931E+00;  9.9999998E-03; -1.6004878E-01;2586;0.070951469;0.0;-0.040904243;1005.9183;  4.0253574E-01;4869.1929;3;36.672169;0.0;-18.950968;0;0.20548208;  1.0001857E+04;  0.0000000E+00;  6.1852666E-07;  1.0000000E+04;  0.0000000E+00;  9.9897842E+03;-0.051351052;0.0;0.25683314;4298.7065
  1.0000882E+00;  9.9999998E-03; -1.4004008E-01;2587;0.066966891;0.0;-0.035083912;1005.9946;  4.0253553E-01;4931.8657;3;34.834774;0.0;-17.830633;0;0.20630953;  1.0002128E+04;  0.0000000E+00;  8.4977842E-08;  1.0000000E+04;  0.0000000E+00;  9.9910342E+03;-0.060913596;0.0;0.26722312;3721.8589
  1.0000844E+00;  9.9999998E-03; -1.2003137E-01;2588;0.063747831;0.0;-0.02881;1006.0542;  4.0253547E-01;4980.9058;3;33.234718;0.0;-16.091064;0;0.20089045;  1.0002259E+04;  0.0000000E+00; -1.3242675E-07;  1.0000000E+04;  0.0000000E+00;  9.9920938E+03;-0.065885805;0.0;0.26677626;3242.2219
  1.0000815E+00;  9.9999998E-03; -1.0002354E-01;2589;0.061181128;0.0;-0.022785574;1006.1033;  4.0253556E-01;5021.3145;3;31.83103;0.0;-13.989266;0;0.18980318;  1.0002306E+04;  0.0000000E+00; -4.2764093E-08;  1.0000000E+04;  0.0000000E+00;  9.9930166E+03;-0.068014324;0.0;0.25781751;2833.9429
  1.0000795E+00;  9.9999998E-03; -8.0017015E-02;2590;0.05919157;0.0;-0.017368268;1006.1459;  4.0253553E-01;5056.4272;3;30.619854;0.0;-11.646068;0;0.17510873;  1.0002314E+04;  0.0000000E+00;  6.3237351E-08;  1.0000000E+04;  0.0000000E+00;  9.9938564E+03;-0.068573132;0.0;0.24368186;2470.2566
  1.0000781E+00;  9.9999998E-03; -6.0011771E-02;2591;0.057709996;0.0;-0.012571109;1006.1832;  4.0253547E-01;5087.0278;3;29.628824;0.0;-9.0328569;0;0.15956762;  1.0002304E+04;  0.0000000E+00;  9.6024493E-08;  1.0000000E+04;  0.0000000E+00;  9.9946045E+03;-0.068380892;0.0;0.22794852;2149.5244
  1.0000771E+00;  9.9999998E-03; -4.0007442E-02;2592;0.056678455;0.0;-0.0082184132;1006.2128;  4.0253547E-01;5111.4492;3;28.900393;0.0;-6.1946392;0;0.14607778;  1.0002291E+04;  0.0000000E+00;  7.2202170E-08;  1.0000000E+04;  0.0000000E+00;  9.9952100E+03;-0.067937486;0.0;0.21401526;1892.9236
  1.0000765E+00;  9.9999998E-03; -2.0003617E-02;2593;0.056063253;0.0;-0.0040743668;1006.2319;  4.0253553E-01;5127.1421;3;28.444069;0.0;-3.1555657;0;0.13703074;  1.0002280E+04;  0.0000000E+00;  2.0638748E-08;  1.0000000E+04;  0.0000000E+00;  9.9956035E+03;-0.067553252;0.0;0.20458399;1726.7993
  1.0200958E+00;  9.9999998E-03; -1.8005113E-01;2616;0.073786288;0.0;-0.04117075;1005.0975;  4.0220806E-01;4183.7632;3;38.195229;0.0;-17.689569;0;0.15636614;  1.0002083E+04;  0.0000000E+00; -5.6751707E-04;  1.0000000E+04;  0.0000000E+00;  9.9895195E+03;-0.058363851;0.0;0.21472999;4334.2632
  1.0200897E+00;  9.9999998E-03; -1.6004373E-01;2617;0.068929873;0.0;-0.036774635;1005.1859;  4.0220791E-01;4256.3643;3;36.063084;0.0;-17.318752;0;0.15797153;  1.0002566E+04;  0.0000000E+00; -1.7803823E-05;  1.0000000E+04;  0.0000000E+00;  9.9907949E+03;-0.074116245;0.0;0.23208778;3758.5786
  1.0200849E+00;  9.9999998E-03; -1.4003600E-01;2618;0.064870246;0.0;-0.031567134;1005.2568;  4.0220788E-01;4314.4844;3;34.157902;0.0;-16.230902;0;0.15714246;  1.0002839E+04;  0.0000000E+00; -2.2026277E-06;  1.0000000E+04;  0.0000000E+00;  9.9919355E+03;-0.083607078;0.0;0.24074954;3249.2864
  1.0200812E+00;  9.9999998E-03; -1.2002829E-01;2619;0.061637677;0.0;-0.025948687;1005.3115;  4.0220782E-01;4359.396;3;32.500671;0.0;-14.582739;0;0.15172049;  1.0002965E+04;  0.0000000E+00; -1.2278664E-06;  1.0000000E+04;  0.0000000E+00;  9.9928955E+03;-0.088374861;0.0;0.24009535;2828.3181
  1.0200783E+00;  9.9999998E-03; -1.0002133E-01;2620;0.059113994;0.0;-0.020516636;1005.3552;  4.0220779E-01;4395.207;3;31.077141;0.0;-12.588526;0;0.14191553;  1.0003008E+04;  0.0000000E+00; -2.2528569E-07;  1.0000000E+04;  0.0000000E+00;  9.9937256E+03;-0.090194337;0.0;0.23210987;2474.3818
  1.0200764E+00;  9.9999998E-03; -8.0015518E-02;2621;0.057186186;0.0;-0.01564241;1005.3925;  4.0220788E-01;4425.8325;3;29.87286;0.0;-10.383026;0;0.12928361;  1.0003011E+04;  0.0000000E+00;  2.1939331E-07;  1.0000000E+04;  0.0000000E+00;  9.9944658E+03;-0.090382181;0.0;0.2196658;2163.7456
  1.0200750E+00;  9.9999998E-03; -6.0010798E-02;2622;0.055756282;0.0;-0.01132666;1005.4246;  4.0220779E-01;4452.2505;3;28.88686;0.0;-8.0087471;0;0.11603751;  1.0002992E+04;  0.0000000E+00;  2.6118408E-07;  1.0000000E+04;  0.0000000E+00;  9.9951191E+03;-0.089813881;0.0;0.20585139;1892.8585
  1.0200741E+00;  9.9999998E-03; -4.0006846E-02;2623;0.054766197;0.0;-0.007393124;1005.4496;  4.0220782E-01;4472.7979;3;28.142511;0.0;-5.4564986;0;0.10456128;  1.0002970E+04;  0.0000000E+00;  1.5147771E-07;  1.0000000E+04;  0.0000000E+00;  9.9956436E+03;-0.08905413;0.0;0.19361541;1677.4708
  1.0200735E+00;  9.9999998E-03; -2.0003326E-02;2624;0.054179318;0.0;-0.0036593361;1005.4661;  4.0220782E-01;4486.3003;3;27.684216;0.0;-2.7669683;0;0.096861862;  1.0002953E+04;  0.0000000E+00;  4.0568867E-08;  1.0000000E+04;  0.0000000E+00;  9.9959824E+03;-0.088462539;0.0;0.1853244;1538.4047
  1.0400923E+00;  9.9999998E-03; -1.8004578E-01;2647;0.071672074;0.0;-0.036967743;1004.42;  4.0191171E-01;3616.0789;3;37.668789;0.0;-16.21929;0;0.12789567;  1.0002381E+04;  0.0000000E+00; -4.1510258E-03;  1.0000000E+04;  0.0000000E+00;  9.9904746E+03;-0.068104312;0.0;0.19599998;3784.8374
  1.0400860E+00;  9.9999998E-03; -1.6003899E-01;2648;0.066629082;0.0;-0.032883365;1004.5042;  4.0191159E-01;3684.9368;3;35.390514;0.0;-15.742406;0;0.12590137;  1.0002863E+04;  0.0000000E+00; -3.5529921E-04;  1.0000000E+04;  0.0000000E+00;  9.9916680E+03;-0.083558358;0.0;0.20945972;3271.7864
  1.0400811E+00;  9.9999998E-03; -1.4003225E-01;2649;0.062521651;0.0;-0.028321395;1004.573;  4.0191150E-01;3741.2129;3;33.363525;0.0;-14.748746;0;0.12221454;  1.0003172E+04;  0.0000000E+00; -8.7972639E-06;  1.0000000E+04;  0.0000000E+00;  9.9927344E+03;-0.093856573;0.0;0.21607111;2818.0374
  1.0400774E+00;  9.9999998E-03; -1.2002547E-01;2650;0.059259217;0.0;-0.023320675;1004.6256;  4.0191147E-01;3784.2249;3;31.647903;0.0;-13.190719;0;0.11554175;  1.0003327E+04;  0.0000000E+00; -4.2257302E-06;  1.0000000E+04;  0.0000000E+00;  9.9936240E+03;-0.099472784;0.0;0.21501453;2444.7983
  1.0400747E+00;  9.9999998E-03; -1.0001935E-01;2651;0.056761134;0.0;-0.018485846;1004.6664;  4.0191144E-01;3817.5808;3;30.199877;0.0;-11.309648;0;0.10599201;  1.0003391E+04;  0.0000000E+00; -9.5837856E-07;  1.0000000E+04;  0.0000000E+00;  9.9943760E+03;-0.10189385;0.0;0.20788586;2136.5605
  1.0400728E+00;  9.9999998E-03; -8.0014192E-02;2652;0.054887023;0.0;-0.014114425;1004.6998;  4.0191144E-01;3844.9873;3;28.987518;0.0;-9.2482452;0;0.094666056;  1.0003402E+04;  0.0000000E+00;  3.2177255E-07;  1.0000000E+04;  0.0000000E+00;  9.9950313E+03;-0.10242244;0.0;0.19708849;1872.8678
  1.0400715E+00;  9.9999998E-03; -6.0009930E-02;2653;0.053515617;0.0;-0.010221746;1004.7277;  4.0191147E-01;3867.8091;3;28.014011;0.0;-7.0698819;0;0.083186589;  1.0003391E+04;  0.0000000E+00;  4.7512805E-07;  1.0000000E+04;  0.0000000E+00;  9.9955977E+03;-0.10200766;0.0;0.18519425;1647.7904
  1.0400707E+00;  9.9999998E-03; -4.0006306E-02;2654;0.052570265;0.0;-0.0066625513;1004.7495;  4.0191141E-01;3885.657;3;27.27564;0.0;-4.7837033;0;0.073377185;  1.0003373E+04;  0.0000000E+00;  2.6679515E-07;  1.0000000E+04;  0.0000000E+00;  9.9960498E+03;-0.1013019;0.0;0.17467909;1471.053
  1.0400702E+00;  9.9999998E-03; -2.0003065E-02;2655;0.052012164;0.0;-0.0032936712;1004.7632;  4.0191147E-01;3896.873;3;26.826355;0.0;-2.4118142;0;0.066827342;  1.0003361E+04;  0.0000000E+00;  7.3392819E-08;  1.0000000E+04;  0.0000000E+00;  9.9963359E+03;-0.10072391;0.0;0.16755125;1357.5814
  1.0600885E+00;  9.9999998E-03; -1.8004091E-01;2678;0.069379099;0.0;-0.033025589;1003.8082;  4.0165067E-01;3102.1287;3;37.023132;0.0;-14.782124;0;0.11109837;  1.0002410E+04;  0.0000000E+00; -1.6011406E-02;  1.0000000E+04;  0.0000000E+00;  9.9912471E+03;-0.069341056;0.0;0.18043943;3305.0591
  1.0600822E+00;  9.9999998E-03; -1.6003464E-01;2679;0.064207032;0.0;-0.029269157;1003.8879;  4.0165064E-01;3167.0989;3;34.607094;0.0;-14.245017;0;0.10589045;  1.0002864E+04;  0.0000000E+00; -2.2989195E-03;  1.0000000E+04;  0.0000000E+00;  9.9923848E+03;-0.083709694;0.0;0.18960014;2845.9375
  1.0600772E+00;  9.9999998E-03; -1.4002876E-01;2680;0.059987709;0.0;-0.025246926;1003.9565;  4.0165061E-01;3223.0376;3;32.483826;0.0;-13.275922;0;0.098598823;  1.0003211E+04;  0.0000000E+00; -5.3220603E-05;  1.0000000E+04;  0.0000000E+00;  9.9934053E+03;-0.095101386;0.0;0.19370021;2436.8049
  1.0600734E+00;  9.9999998E-03; -1.2002293E-01;2681;0.056701284;0.0;-0.020943012;1004.01;  4.0165058E-01;3266.5454;3;30.694675;0.0;-11.885581;0;0.089537568;  1.0003424E+04;  0.0000000E+00; -1.0105625E-05;  1.0000000E+04;  0.0000000E+00;  9.9942578E+03;-0.10239487;0.0;0.19193244;2100.042
  1.0600708E+00;  9.9999998E-03; -1.0001760E-01;2682;0.054208402;0.0;-0.016686356;1004.0507;  4.0165052E-01;3299.6616;3;29.21471;0.0;-10.157774;0;0.079239048;  1.0003531E+04;  0.0000000E+00; -2.8429279E-06;  1.0000000E+04;  0.0000000E+00;  9.9949600E+03;-0.10618373;0.0;0.18542278;1827.5085
  1.0600688E+00;  9.9999998E-03; -8.0013014E-02;2683;0.052378066;0.0;-0.012779943;1004.0823;  4.0165055E-01;3325.4941;3;28.01882;0.0;-8.2561512;0;0.068456516;  1.0003576E+04;  0.0000000E+00;  1.3280496E-07;  1.0000000E+04;  0.0000000E+00;  9.9955488E+03;-0.10765806;0.0;0.17611457;1602.6688
  1.0600675E+00;  9.9999998E-03; -6.0009148E-02;2684;0.051052041;0.0;-0.0092514539;1004.1074;  4.0165058E-01;3345.8879;3;27.064056;0.0;-6.2405157;0;0.058224246;  1.0003585E+04;  0.0000000E+00;  6.7091901E-07;  1.0000000E+04;  0.0000000E+00;  9.9960381E+03;-0.10783628;0.0;0.16606052;1417.3931
  1.0600668E+00;  9.9999998E-03; -4.0005822E-02;2685;0.050149299;0.0;-0.0060252026;1004.1263;  4.0165055E-01;3361.3291;3;26.360806;0.0;-4.179316;0;0.049759395;  1.0003582E+04;  0.0000000E+00;  4.1541557E-07;  1.0000000E+04;  0.0000000E+00;  9.9964189E+03;-0.10748108;0.0;0.15724048;1275.2487
  1.0600663E+00;  9.9999998E-03; -2.0002831E-02;2686;0.049617272;0.0;-0.0029736154;1004.1381;  4.0165049E-01;3370.9431;3;25.913433;0.0;-2.0937214;0;0.044186249;  1.0003574E+04;  0.0000000E+00;  1.1303575E-07;  1.0000000E+04;  0.0000000E+00;  9.9966602E+03;-0.10708869;0.0;0.15127493;1185.0496
  1.0800848E+00;  9.9999998E-03; -1.8003656E-01;2709;0.067203857;0.0;-0.029311558;1003.2705;  4.0142661E-01;2649.0105;3;36.649784;0.0;-13.061835;0;0.1027621;  1.0002258E+04;  0.0000000E+00; -4.4681694E-02;  1.0000000E+04;  0.0000000E+00;  9.9918408E+03;-0.065514341;0.0;0.16827644;2891.323
  1.0800782E+00;  9.9999998E-03; -1.6003087E-01;2710;0.061795827;0.0;-0.026056647;1003.3438;  4.0142658E-01;2708.3018;3;33.842682;0.0;-12.805421;0;0.095797069;  1.0002634E+04;  0.0000000E+00; -9.8750917E-03;  1.0000000E+04;  0.0000000E+00;  9.9929297E+03;-0.077291511;0.0;0.17308858;2480.1016
  1.0800731E+00;  9.9999998E-03; -1.4002551E-01;2711;0.057435058;0.0;-0.022421975;1003.4124;  4.0142664E-01;2763.9229;3;31.544439;0.0;-11.932702;0;0.08515767;  1.0003003E+04;  0.0000000E+00; -7.2896999E-04;  1.0000000E+04;  0.0000000E+00;  9.9939316E+03;-0.08909256;0.0;0.17425023;2108.9175
  1.0800694E+00;  9.9999998E-03; -1.2002062E-01;2712;0.054115441;0.0;-0.018765148;1003.4689;  4.0142661E-01;2809.7908;3;29.704119;0.0;-10.664176;0;0.072910883;  1.0003286E+04;  0.0000000E+00; -2.0255389E-05;  1.0000000E+04;  0.0000000E+00;  9.9947764E+03;-0.098427646;0.0;0.17133853;1799.7432
  1.0800667E+00;  9.9999998E-03; -1.0001601E-01;2713;0.051610462;0.0;-0.015067845;1003.5121;  4.0142646E-01;2844.7463;3;28.195629;0.0;-9.1129246;0;0.060819402;  1.0003464E+04;  0.0000000E+00; -7.2860735E-06;  1.0000000E+04;  0.0000000E+00;  9.9954570E+03;-0.10423931;0.0;0.16505872;1553.2125
  1.0800648E+00;  9.9999998E-03; -8.0011964E-02;2714;0.049785409;0.0;-0.011606205;1003.5441;  4.0142652E-01;2870.6255;3;26.991207;0.0;-7.3799944;0;0.049663283;  1.0003558E+04;  0.0000000E+00; -1.1378986E-06;  1.0000000E+04;  0.0000000E+00;  9.9960029E+03;-0.10724928;0.0;0.15691257;1357.9525
  1.0800636E+00;  9.9999998E-03; -6.0008455E-02;2715;0.048486244;0.0;-0.0084226923;1003.5681;  4.0142643E-01;2890.1309;3;26.050787;0.0;-5.5727878;0;0.040011249;  1.0003601E+04;  0.0000000E+00;  5.2997115E-07;  1.0000000E+04;  0.0000000E+00;  9.9964375E+03;-0.10846169;0.0;0.14847293;1204.635
  1.0800627E+00;  9.9999998E-03; -4.0005393E-02;2716;0.047614433;0.0;-0.0054827179;1003.5852;  4.0142652E-01;2903.9392;3;25.360426;0.0;-3.7172797;0;0.032477975;  1.0003619E+04;  0.0000000E+00;  4.8328235E-07;  1.0000000E+04;  0.0000000E+00;  9.9967598E+03;-0.10873909;0.0;0.14121707;1091.3475
  1.0800623E+00;  9.9999998E-03; -2.0002622E-02;2717;0.047112394;0.0;-0.0027013335;1003.5956;  4.0142646E-01;2912.3401;3;24.947231;0.0;-1.8533578;0;0.027669147;  1.0003625E+04;  0.0000000E+00;  1.4487826E-07;  1.0000000E+04;  0.0000000E+00;  9.9969629E+03;-0.10868403;0.0;0.13635318;1021.025
  1.1000817E+00;  9.9999998E-03; -1.8003292E-01;2739;0.065396145;0.0;-0.025843235;1002.8093;  4.0123844E-01;2258.3347;3;36.393009;0.0;-11.133446;0;0.10041158;  1.0001985E+04;  0.0000000E+00; -1.0034764E-01;  1.0000000E+04;  0.0000000E+00;  9.9922949E+03;-0.058824655;0.0;0.15923624;2540.1213
  1.1000745E+00;  9.9999998E-03; -1.6002725E-01;2740;0.059498511;0.0;-0.02284091;1002.8726;  4.0123853E-01;2309.2275;3;33.153835;0.0;-11.182051;0;0.093991056;  1.0002219E+04;  0.0000000E+00; -3.1259041E-02;  1.0000000E+04;  0.0000000E+00;  9.9933242E+03;-0.06620039;0.0;0.16019145;2166.1267
  1.1000694E+00;  9.9999998E-03; -1.4002265E-01;2741;0.055063441;0.0;-0.019884864;1002.9391;  4.0123853E-01;2362.7065;3;30.712553;0.0;-10.605578;0;0.081534013;  1.0002560E+04;  0.0000000E+00; -5.1679499E-03;  1.0000000E+04;  0.0000000E+00;  9.9943086E+03;-0.076833397;0.0;0.15836741;1831.0618
  1.1000655E+00;  9.9999998E-03; -1.2001839E-01;2742;0.051601171;0.0;-0.016715456;1002.9993;  4.0123844E-01;2411.105;3;28.710642;0.0;-9.5569048;0;0.066214755;  1.0002907E+04;  0.0000000E+00; -2.7442860E-04;  1.0000000E+04;  0.0000000E+00;  9.9951621E+03;-0.087634176;0.0;0.15384893;1545.8401
  1.1000627E+00;  9.9999998E-03; -1.0001453E-01;2743;0.049091455;0.0;-0.013611569;1003.047;  4.0123838E-01;2449.4402;3;27.165569;0.0;-8.2105227;0;0.05136583;  1.0003172E+04;  0.0000000E+00; -1.6178405E-05;  1.0000000E+04;  0.0000000E+00;  9.9958506E+03;-0.095921315;0.0;0.14728715;1318.1129
  1.1000608E+00;  9.9999998E-03; -8.0010965E-02;2744;0.047246367;0.0;-0.010536462;1003.0824;  4.0123841E-01;2477.9041;3;25.946487;0.0;-6.6456919;0;0.038683683;  1.0003341E+04;  0.0000000E+00; -5.0116118E-06;  1.0000000E+04;  0.0000000E+00;  9.9963848E+03;-0.10111248;0.0;0.13979617;1143.5182
  1.1000596E+00;  9.9999998E-03; -6.0007822E-02;2745;0.045957491;0.0;-0.0076821572;1003.1074;  4.0123844E-01;2497.9341;3;25.000925;0.0;-5.0035453;0;0.028617606;  1.0003440E+04;  0.0000000E+00; -7.4611160E-07;  1.0000000E+04;  0.0000000E+00;  9.9967842E+03;-0.10392925;0.0;0.13254686;1013.282
  1.1000588E+00;  9.9999998E-03; -4.0005006E-02;2746;0.045099523;0.0;-0.0050007217;1003.1242;  4.0123844E-01;2511.543;3;24.326746;0.0;-3.3234601;0;0.021319471;  1.0003492E+04;  0.0000000E+00;  1.7248186E-07;  1.0000000E+04;  0.0000000E+00;  9.9970693E+03;-0.10523713;0.0;0.12655661;921.63251
  1.1000583E+00;  9.9999998E-03; -2.0002440E-02;2747;0.044611953;0.0;-0.0024645389;1003.1339;  4.0123844E-01;2519.3059;3;23.909376;0.0;-1.6491406;0;0.016890153;  1.0003515E+04;  0.0000000E+00;  9.8179157E-08;  1.0000000E+04;  0.0000000E+00;  9.9972412E+03;-0.1057355;0.0;0.12262565;866.6297
  1.1200794E+00;  9.9999998E-03; -1.8003017E-01;2768;0.064118311;0.0;-0.022750495;1002.4243;  4.0108433E-01;1929.6892;3;36.341614;0.0;-9.2455711;0;0.10133249;  1.0001639E+04;  0.0000000E+00; -1.9270015E-01;  1.0000000E+04;  0.0000000E+00;  9.9926455E+03;-0.051188435;0.0;0.15252092;2259.426
  1.1200715E+00;  9.9999998E-03; -1.6002420E-01;2769;0.057640929;0.0;-0.019922979;1002.4742;  4.0108442E-01;1969.3602;3;32.704166;0.0;-9.5175552;0;0.098033816;  1.0001681E+04;  0.0000000E+00; -8.0024101E-02;  1.0000000E+04;  0.0000000E+00;  9.9935977E+03;-0.052664533;0.0;0.15069835;1897.957
  1.1200659E+00;  9.9999998E-03; -1.4001980E-01;2770;0.052852757;0.0;-0.017266162;1002.5344;  4.0108433E-01;2017.2841;3;29.902586;0.0;-9.1769123;0;0.086433806;  1.0001930E+04;  0.0000000E+00; -2.2463206E-02;  1.0000000E+04;  0.0000000E+00;  9.9945488E+03;-0.059940286;0.0;0.14637409;1593.9379
  1.1200620E+00;  9.9999998E-03; -1.2001625E-01;2771;0.049372118;0.0;-0.01474175;1002.5953;  4.0108436E-01;2065.7756;3;27.838068;0.0;-8.4142408;0;0.069684714;  1.0002283E+04;  0.0000000E+00; -3.5952153E-03;  1.0000000E+04;  0.0000000E+00;  9.9954121E+03;-0.070407227;0.0;0.14009194;1334.3762
  1.1200591E+00;  9.9999998E-03; -1.0001297E-01;2772;0.046741992;0.0;-0.012098684;1002.6481;  4.0108430E-01;2107.8137;3;26.193981;0.0;-7.2923484;0;0.052106075;  1.0002626E+04;  0.0000000E+00; -2.4068901E-04;  1.0000000E+04;  0.0000000E+00;  9.9961230E+03;-0.080633052;0.0;0.13273913;1123.3989
  1.1200572E+00;  9.9999998E-03; -8.0009997E-02;2773;0.044893559;0.0;-0.0095280623;1002.6888;  4.0108436E-01;2140.2673;3;24.940971;0.0;-5.9710984;0;0.036857836;  1.0002891E+04;  0.0000000E+00; -1.3113491E-05;  1.0000000E+04;  0.0000000E+00;  9.9966699E+03;-0.088437162;0.0;0.125295;962.96545
  1.1200559E+00;  9.9999998E-03; -6.0007196E-02;2774;0.043586597;0.0;-0.0069709481;1002.7174;  4.0108442E-01;2162.9468;3;23.999086;0.0;-4.4816151;0;0.025164142;  1.0003065E+04;  0.0000000E+00; -4.3682526E-06;  1.0000000E+04;  0.0000000E+00;  9.9970684E+03;-0.093474887;0.0;0.11863903;847.52289
  1.1200551E+00;  9.9999998E-03; -4.0004652E-02;2775;0.042734139;0.0;-0.0045626466;1002.7361;  4.0108430E-01;2177.845;3;23.324921;0.0;-2.9597373;0;0.017084599;  1.0003169E+04;  0.0000000E+00; -1.0515987E-06;  1.0000000E+04;  0.0000000E+00;  9.9973359E+03;-0.096346721;0.0;0.11343132;769.85712
  1.1200546E+00;  9.9999998E-03; -2.0002274E-02;2776;0.042250674;0.0;-0.0022482884;1002.7465;  4.0108430E-01;2186.1008;3;22.924738;0.0;-1.4630829;0;0.012386017;  1.0003224E+04;  0.0000000E+00; -1.4571341E-07;  1.0000000E+04;  0.0000000E+00;  9.9974922E+03;-0.097742006;0.0;0.11012802;724.93951
  1.1400782E+00;  9.9999998E-03; -1.8002857E-01;2796;0.063448645;0.0;-0.02016956;1002.1124;  4.0096074E-01;1659.8396;3;36.67226;0.0;-7.4273872;0;0.10254286;  1.0001278E+04;  0.0000000E+00; -3.2343209E-01;  1.0000000E+04;  0.0000000E+00;  9.9929502E+03;-0.044321466;0.0;0.14686432;2063.0369
  1.1400692E+00;  9.9999998E-03; -1.6002204E-01;2797;0.056338869;0.0;-0.017406574;1002.1466;  4.0096068E-01;1686.734;3;32.567631;0.0;-7.791718;0;0.1042674;  1.0001104E+04;  0.0000000E+00; -1.7027766E-01;  1.0000000E+04;  0.0000000E+00;  9.9938076E+03;-0.039426204;0.0;0.14369361;1685.8148
  1.1400632E+00;  9.9999998E-03; -1.4001746E-01;2798;0.051115159;0.0;-0.014951364;1002.1954;  4.0096074E-01;1725.1469;3;29.373833;0.0;-7.7476401;0;0.096662983;  1.0001187E+04;  0.0000000E+00; -6.9137111E-02;  1.0000000E+04;  0.0000000E+00;  9.9946934E+03;-0.041236442;0.0;0.13789943;1391.3724
  1.1400589E+00;  9.9999998E-03; -1.2001413E-01;2799;0.047364958;0.0;-0.012712535;1002.2516;  4.0096071E-01;1769.2714;3;27.044378;0.0;-7.2104421;0;0.081505522;  1.0001467E+04;  0.0000000E+00; -2.0560207E-02;  1.0000000E+04;  0.0000000E+00;  9.9955391E+03;-0.048766691;0.0;0.13027221;1155.6586
  1.1400560E+00;  9.9999998E-03; -1.0001143E-01;2800;0.044716232;0.0;-0.010612455;1002.3058;  4.0096059E-01;1811.8959;3;25.345078;0.0;-6.3658814;0;0.063165002;  1.0001819E+04;  0.0000000E+00; -4.1951234E-03;  1.0000000E+04;  0.0000000E+00;  9.9962705E+03;-0.058808886;0.0;0.12197389;964.14722
  1.1400540E+00;  9.9999998E-03; -8.0008879E-02;2801;0.042785335;0.0;-0.0084102741;1002.3513;  4.0096065E-01;1847.5875;3;24.037203;0.0;-5.2282805;0;0.045767151;  1.0002151E+04;  0.0000000E+00; -5.1155698E-04;  1.0000000E+04;  0.0000000E+00;  9.9968438E+03;-0.068314165;0.0;0.11408132;816.20679
  1.1400527E+00;  9.9999998E-03; -6.0006518E-02;2802;0.041463528;0.0;-0.00625809;1002.3849;  4.0096068E-01;1874.0049;3;23.081964;0.0;-3.9726825;0;0.031759739;  1.0002408E+04;  0.0000000E+00; -3.0896008E-05;  1.0000000E+04;  0.0000000E+00;  9.9972588E+03;-0.075629599;0.0;0.10738934;709.94824
  1.1400518E+00;  9.9999998E-03; -4.0004246E-02;2803;0.040601607;0.0;-0.0041136034;1002.4073;  4.0096071E-01;1891.6165;3;22.413509;0.0;-2.6283216;0;0.021963395;  1.0002583E+04;  0.0000000E+00; -3.8075693E-06;  1.0000000E+04;  0.0000000E+00;  9.9975361E+03;-0.080411777;0.0;0.10237517;639.79065
  1.1400514E+00;  9.9999998E-03; -2.0002097E-02;2804;0.040120214;0.0;-0.0020413634;1002.4199;  4.0096059E-01;1901.5464;3;22.028145;0.0;-1.3030462;0;0.016290061;  1.0002677E+04;  0.0000000E+00; -7.7951245E-07;  1.0000000E+04;  0.0000000E+00;  9.9976943E+03;-0.082999036;0.0;0.099289097;600.09998
  1.1600789E+00;  9.9999998E-03; -1.8002857E-01;2823;0.063890256;0.0;-0.018509263;1001.8654;  4.0086371E-01;1441.6521;3;37.632008;0.0;-6.1408887;0;0.1033355;  1.0000912E+04;  0.0000000E+00; -4.7799367E-01;  1.0000000E+04;  0.0000000E+00;  9.9932236E+03;-0.038066912;0.0;0.14140241;1934.5006
  1.1600684E+00;  9.9999998E-03; -1.6002114E-01;2824;0.055802926;0.0;-0.015530911;1001.8876;  4.0086374E-01;1458.8948;3;32.883453;0.0;-6.2194858;0;0.1087714;  1.0000579E+04;  0.0000000E+00; -3.0435154E-01;  1.0000000E+04;  0.0000000E+00;  9.9940010E+03;-0.029032441;0.0;0.13780384;1549.1404
  1.1600614E+00;  9.9999998E-03; -1.4001596E-01;2825;0.049963322;0.0;-0.013036486;1001.9208;  4.0086383E-01;1484.517;3;29.211781;0.0;-6.2953157;0;0.10754739;  1.0000445E+04;  0.0000000E+00; -1.6097261E-01;  1.0000000E+04;  0.0000000E+00;  9.9947959E+03;-0.024194473;0.0;0.13174187;1236.8578
  1.1600566E+00;  9.9999998E-03; -1.2001245E-01;2826;0.045844335;0.0;-0.010961255;1001.9658;  4.0086365E-01;1519.2573;3;26.532274;0.0;-6.0314035;0;0.097585194;  1.0000556E+04;  0.0000000E+00; -6.9660500E-02;  1.0000000E+04;  0.0000000E+00;  9.9955859E+03;-0.026175315;0.0;0.12376051;1005.3681
  1.1600534E+00;  9.9999998E-03; -1.0000985E-01;2827;0.042967878;0.0;-0.009067134;1002.0151;  4.0086359E-01;1557.4047;3;24.619608;0.0;-5.3796477;0;0.081939355;  1.0000822E+04;  0.0000000E+00; -2.4434121E-02;  1.0000000E+04;  0.0000000E+00;  9.9963027E+03;-0.033043809;0.0;0.11498316;830.61395
  1.1600512E+00;  9.9999998E-03; -8.0007732E-02;2828;0.040977523;0.0;-0.0072951568;1002.0605;  4.0086365E-01;1592.5103;3;23.265284;0.0;-4.5042586;0;0.06492959;  1.0001141E+04;  0.0000000E+00; -6.8194685E-03;  1.0000000E+04;  0.0000000E+00;  9.9968936E+03;-0.041694429;0.0;0.10662401;696.82623
  1.1600498E+00;  9.9999998E-03; -6.0005691E-02;2829;0.039608683;0.0;-0.0054527908;1002.0973;  4.0086359E-01;1620.8892;3;22.270582;0.0;-3.4375212;0;0.049873348;  1.0001427E+04;  0.0000000E+00; -1.3975688E-03;  1.0000000E+04;  0.0000000E+00;  9.9973389E+03;-0.049669024;0.0;0.099542372;598.76819
  1.1600490E+00;  9.9999998E-03; -4.0003754E-02;2830;0.038734004;0.0;-0.0036269829;1002.1233;  4.0086371E-01;1640.9755;3;21.606833;0.0;-2.3031108;0;0.038550023;  1.0001645E+04;  0.0000000E+00; -1.9097845E-04;  1.0000000E+04;  0.0000000E+00;  9.9976426E+03;-0.055689465;0.0;0.094239488;532.71399
  1.1600484E+00;  9.9999998E-03; -2.0001864E-02;2831;0.038246278;0.0;-0.0018154572;1002.1386;  4.0086362E-01;1652.8612;3;21.224463;0.0;-1.157797;0;0.031676237;  1.0001778E+04;  0.0000000E+00; -8.8272336E-06;  1.0000000E+04;  0.0000000E+00;  9.9978145E+03;-0.059297699;0.0;0.090973936;494.95325
  1.1800828E+00;  9.9999998E-03; -1.8003078E-01;2849;0.066242784;0.0;-0.018397525;1001.659;  4.0078911E-01;1255.5134;3;39.685814;0.0;-5.8923635;0;0.11286376;  1.0000339E+04;  0.0000000E+00; -6.2937140E-01;  1.0000000E+04;  0.0000000E+00;  9.9934014E+03;-0.025353488;0.0;0.13821726;1817.5743
  1.1800698E+00;  9.9999998E-03; -1.6002224E-01;2850;0.056705773;0.0;-0.014763634;1001.6871;  4.0078905E-01;1276.8235;3;34.025005;0.0;-5.1499882;0;0.11135027;  1.0000118E+04;  0.0000000E+00; -4.6172073E-01;  1.0000000E+04;  0.0000000E+00;  9.9941807E+03;-0.021106614;0.0;0.13245688;1468.8618
  1.1800609E+00;  9.9999998E-03; -1.4001592E-01;2851;0.049661197;0.0;-0.011892323;1001.7081;  4.0078917E-01;1292.6249;3;29.586761;0.0;-5.0237179;0;0.11463395;  9.9998145E+03;  0.0000000E+00; -2.9635918E-01;  1.0000000E+04;  0.0000000E+00;  9.9949004E+03;-0.011886256;0.0;0.1265202;1149.4108
  1.1800551E+00;  9.9999998E-03; -1.2001166E-01;2852;0.044906791;0.0;-0.0096474634;1001.737;  4.0078914E-01;1314.5563;3;26.43404;0.0;-4.844389;0;0.11256986;  9.9996865E+03;  0.0000000E+00; -1.6450115E-01;  1.0000000E+04;  0.0000000E+00;  9.9956045E+03;-0.0066251806;0.0;0.11919504;899.81915
  1.1800514E+00;  9.9999998E-03; -1.0000879E-01;2853;0.041710395;0.0;-0.0078453477;1001.7739;  4.0078905E-01;1342.4393;3;24.230042;0.0;-4.4618845;0;0.1036158;  9.9997617E+03;  0.0000000E+00; -7.8412466E-02;  1.0000000E+04;  0.0000000E+00;  9.9962686E+03;-0.0073284241;0.0;0.11094422;722.15527
  1.1800489E+00;  9.9999998E-03; -8.0006622E-02;2854;0.039494608;0.0;-0.0061867493;1001.8126;  4.0078911E-01;1371.764;3;22.663748;0.0;-3.7647228;0;0.090696983;  9.9999590E+03;  0.0000000E+00; -3.1706192E-02;  1.0000000E+04;  0.0000000E+00;  9.9968438E+03;-0.012027448;0.0;0.10272443;596.79199
  1.1800474E+00;  9.9999998E-03; -6.0004842E-02;2855;0.03804813;0.0;-0.0046391203;1001.847;  4.0078908E-01;1397.8396;3;21.6371;0.0;-2.9126544;0;0.077451155;  1.0000189E+04;  0.0000000E+00; -1.0409467E-02;  1.0000000E+04;  0.0000000E+00;  9.9973018E+03;-0.018019635;0.0;0.095470786;507.26654
  1.1800464E+00;  9.9999998E-03; -4.0003199E-02;2856;0.037142444;0.0;-0.0031077242;1001.8734;  4.0078908E-01;1417.7794;3;20.925062;0.0;-1.9825711;0;0.066411763;  1.0000390E+04;  0.0000000E+00; -2.5360074E-03;  1.0000000E+04;  0.0000000E+00;  9.9976289E+03;-0.023402726;0.0;0.089814492;445.72696
  1.1800460E+00;  9.9999998E-03; -2.0001575E-02;2857;0.036635876;0.0;-0.0015533903;1001.8901;  4.0078905E-01;1430.4108;3;20.54047;0.0;-1.002411;0;0.059216082;  1.0000522E+04;  0.0000000E+00; -3.3695536E-04;  1.0000000E+04;  0.0000000E+00;  9.9978252E+03;-0.027000234;0.0;0.086216316;409.39536
  1.2000893E+00;  9.9999998E-03; -1.8003419E-01;2873;0.069424555;0.0;-0.0193488;1001.4626;  4.0073305E-01;1078.287;3;42.521439;0.0;-6.3192825;0;0.14216864;  9.9991748E+03;  0.0000000E+00; -7.1615404E-01;  1.0000000E+04;  0.0000000E+00;  9.9934424E+03;0.0034417212;0.0;0.13872692;1605.0817
  1.2000753E+00;  9.9999998E-03; -1.6002582E-01;2874;0.059877798;0.0;-0.015725154;1001.5145;  4.0073296E-01;1116.6284;3;36.413822;0.0;-5.2262988;0;0.12522832;  9.9994092E+03;  0.0000000E+00; -6.1086303E-01;  1.0000000E+04;  0.0000000E+00;  9.9942451E+03;-0.0052037691;0.0;0.13043208;1384.4554
  1.2000636E+00;  9.9999998E-03; -1.4001842E-01;2875;0.051250383;0.0;-0.01218437;1001.5439;  4.0073299E-01;1138.3563;3;31.126759;0.0;-4.2288389;0;0.12033077;  9.9992676E+03;  0.0000000E+00; -4.4670027E-01;  1.0000000E+04;  0.0000000E+00;  9.9949736E+03;-0.0023692315;0.0;0.12270001;1100.0017
  1.2000555E+00;  9.9999998E-03; -1.2001270E-01;2876;0.045012087;0.0;-0.0093231946;1001.5627;  4.0073302E-01;1152.1686;3;26.991056;0.0;-3.9244144;0;0.1222844;  9.9989902E+03;  0.0000000E+00; -2.9078978E-01;  1.0000000E+04;  0.0000000E+00;  9.9956240E+03;0.0066217934;0.0;0.1156626;844.82751
  1.2000506E+00;  9.9999998E-03; -1.0000887E-01;2877;0.041079041;0.0;-0.0071750139;1001.5831;  4.0073299E-01;1167.2063;3;24.282984;0.0;-3.5825591;0;0.12223223;  9.9988145E+03;  0.0000000E+00; -1.6738810E-01;  1.0000000E+04;  0.0000000E+00;  9.9962080E+03;0.013556866;0.0;0.10867536;650.83679
  1.2000476E+00;  9.9999998E-03; -8.0006279E-02;2878;0.038553689;0.0;-0.0055131754;1001.6082;  4.0073293E-01;1185.7566;3;22.430967;0.0;-3.1304147;0;0.11726468;  9.9987959E+03;  0.0000000E+00; -8.3116613E-02;  1.0000000E+04;  0.0000000E+00;  9.9967285E+03;0.015672013;0.0;0.10159267;517.62787
  1.2000456E+00;  9.9999998E-03; -6.0004313E-02;2879;0.036877245;0.0;-0.0040075951;1001.6342;  4.0073302E-01;1204.8326;3;21.218842;0.0;-2.451678;0;0.1092397;  9.9988760E+03;  0.0000000E+00; -3.4223404E-02;  1.0000000E+04;  0.0000000E+00;  9.9971641E+03;0.014352073;0.0;0.094887629;430.22427
  1.2000445E+00;  9.9999998E-03; -4.0002726E-02;2880;0.03586534;0.0;-0.0026207515;1001.6562;  4.0073293E-01;1221.0947;3;20.471395;0.0;-1.669782;0;0.10109489;  9.9989854E+03;  0.0000000E+00; -1.0793301E-02;  1.0000000E+04;  0.0000000E+00;  9.9974980E+03;0.011778117;0.0;0.089316778;373.31744
  1.2000439E+00;  9.9999998E-03; -2.0001322E-02;2881;0.035318516;0.0;-0.0012959902;1001.6711;  4.0073299E-01;1232.0824;3;20.045223;0.0;-0.83822012;0;0.095180534;  9.9990742E+03;  0.0000000E+00; -1.9980320E-03;  1.0000000E+04;  0.0000000E+00;  9.9977061E+03;0.0095818928;0.0;0.08559864;339.75537
  1.2200954E+00;  9.9999998E-03; -1.8003745E-01;2896;0.071835101;0.0;-0.020458635;1001.2703;  4.0069166E-01;907.25092;3;46.063171;0.0;-7.2349243;0;0.18824849;  9.9974141E+03;  0.0000000E+00; -5.7089144E-01;  1.0000000E+04;  0.0000000E+00;  9.9934297E+03;0.047759563;0.0;0.14048892;1153.8441
  1.2200837E+00;  9.9999998E-03; -1.6003008E-01;2897;0.063806117;0.0;-0.017496124;1001.3334;  4.0069169E-01;952.30927;3;39.418659;0.0;-6.0182219;0;0.16365711;  9.9979189E+03;  0.0000000E+00; -6.7422903E-01;  1.0000000E+04;  0.0000000E+00;  9.9941865E+03;0.03075411;0.0;0.13290301;1186.6522
  1.2200713E+00;  9.9999998E-03; -1.4002299E-01;2898;0.055468671;0.0;-0.014095746;1001.387;  4.0069157E-01;990.64417;3;33.905533;0.0;-4.685493;0;0.14446339;  9.9982666E+03;  0.0000000E+00; -5.7231390E-01;  1.0000000E+04;  0.0000000E+00;  9.9949063E+03;0.020969765;0.0;0.12349363;1019.0413
  1.2200605E+00;  9.9999998E-03; -1.2001672E-01;2899;0.047733516;0.0;-0.010861228;1001.4207;  4.0069166E-01;1014.6739;3;29.013863;0.0;-3.6813321;0;0.13559744;  9.9982998E+03;  0.0000000E+00; -4.1305134E-01;  1.0000000E+04;  0.0000000E+00;  9.9955459E+03;0.020080954;0.0;0.11551648;799.32904
  1.2200527E+00;  9.9999998E-03; -1.0001139E-01;2900;0.042010311;0.0;-0.0079632085;1001.4383;  4.0069169E-01;1027.2892;3;25.156244;0.0;-3.1768975;0;0.13581574;  9.9980938E+03;  0.0000000E+00; -2.6368830E-01;  1.0000000E+04;  0.0000000E+00;  9.9960986E+03;0.02724025;0.0;0.10857549;603.63458
  1.2200480E+00;  9.9999998E-03; -8.0007479E-02;2901;0.038461387;0.0;-0.0056786719;1001.4506;  4.0069160E-01;1036.0676;3;22.734644;0.0;-2.6686671;0;0.1382134;  9.9978721E+03;  0.0000000E+00; -1.4733046E-01;  1.0000000E+04;  0.0000000E+00;  9.9965693E+03;0.035589684;0.0;0.10262372;459.99075
  1.2200452E+00;  9.9999998E-03; -6.0004760E-02;2902;0.036342822;0.0;-0.0039283577;1001.4638;  4.0069163E-01;1045.5239;3;21.229031;0.0;-2.108119;0;0.13799442;  9.9977402E+03;  0.0000000E+00; -6.9134176E-02;  1.0000000E+04;  0.0000000E+00;  9.9969639E+03;0.040861156;0.0;0.097133264;367.49481
  1.2200437E+00;  9.9999998E-03; -4.0002834E-02;2903;0.0351215;0.0;-0.0025077129;1001.4769;  4.0069163E-01;1054.8931;3;20.336229;0.0;-1.4829073;0;0.13538492;  9.9976963E+03;  0.0000000E+00; -2.5114607E-02;  1.0000000E+04;  0.0000000E+00;  9.9972725E+03;0.043099746;0.0;0.092285164;312.22885
  1.2200428E+00;  9.9999998E-03; -2.0001322E-02;2904;0.034465898;0.0;-0.0012247945;1001.4869;  4.0069157E-01;1062.047;3;19.855816;0.0;-0.7712186;0;0.13249341;  9.9976924E+03;  0.0000000E+00; -5.2926769E-03;  1.0000000E+04;  0.0000000E+00;  9.9974746E+03;0.043651029;0.0;0.088842385;281.74075
  1.2400967E+00;  9.9999998E-03; -1.8003936E-01;2917;0.071409993;0.0;-0.020567859;1001.1451;  4.0066189E-01;787.73914;3;49.097;0.0;-7.8772755;0;0.21088162;  9.9963271E+03;  0.0000000E+00; -3.8909910E-03;  1.0000000E+04;  0.0000000E+00;  9.9935020E+03;0.075381622;0.0;0.1355;666.98798
  1.2400892E+00;  9.9999998E-03; -1.6003366E-01;2918;0.065765947;0.0;-0.018671356;1001.1721;  4.0066180E-01;806.28455;3;42.774776;0.0;-6.709065;0;0.20504744;  9.9962910E+03;  0.0000000E+00; -4.4142246E-01;  1.0000000E+04;  0.0000000E+00;  9.9940752E+03;0.070444688;0.0;0.13460276;764.37146
  1.2400805E+00;  9.9999998E-03; -1.4002737E-01;2919;0.059485104;0.0;-0.016237751;1001.2131;  4.0066186E-01;834.50916;3;36.863705;0.0;-5.8325372;0;0.19208349;  9.9964502E+03;  0.0000000E+00; -5.6161541E-01;  1.0000000E+04;  0.0000000E+00;  9.9947363E+03;0.063583121;0.0;0.12850037;799.57208
  1.2400711E+00;  9.9999998E-03; -1.2002143E-01;2920;0.053145755;0.0;-0.013426293;1001.2573;  4.0066186E-01;864.95044;3;32.25185;0.0;-4.7418332;0;0.17870997;  9.9967314E+03;  0.0000000E+00; -4.8732314E-01;  1.0000000E+04;  0.0000000E+00;  9.9953389E+03;0.057746809;0.0;0.12096316;695.26898
  1.2400618E+00;  9.9999998E-03; -1.0001609E-01;2921;0.046558097;0.0;-0.010677338;1001.2952;  4.0066183E-01;891.0462;3;27.681461;0.0;-4.0084925;0;0.16584879;  9.9969697E+03;  0.0000000E+00; -3.4105974E-01;  1.0000000E+04;  0.0000000E+00;  9.9958604E+03;0.051611107;0.0;0.11423768;541.69196
  1.2400540E+00;  9.9999998E-03; -8.0011323E-02;2922;0.041176364;0.0;-0.0078598;1001.3198;  4.0066180E-01;907.95441;3;24.120251;0.0;-3.2206693;0;0.16004221;  9.9970059E+03;  0.0000000E+00; -2.0175244E-01;  1.0000000E+04;  0.0000000E+00;  9.9963105E+03;0.052163091;0.0;0.10787912;407.33038
  1.2400489E+00;  9.9999998E-03; -6.0007270E-02;2923;0.037654549;0.0;-0.0052463645;1001.3334;  4.0066174E-01;917.39539;3;21.94903;0.0;-2.325187;0;0.15979326;  9.9969004E+03;  0.0000000E+00; -1.0010101E-01;  1.0000000E+04;  0.0000000E+00;  9.9966885E+03;0.0573886;0.0;0.10240466;315.90216
  1.2400459E+00;  9.9999998E-03; -4.0004171E-02;2924;0.03567379;0.0;-0.0031438852;1001.3414;  4.0066177E-01;922.89569;3;20.697657;0.0;-1.5393755;0;0.16082567;  9.9967715E+03;  0.0000000E+00; -3.8728215E-02;  1.0000000E+04;  0.0000000E+00;  9.9969766E+03;0.062814564;0.0;0.098011114;262.56851
  1.2400445E+00;  9.9999998E-03; -2.0001877E-02;2925;0.034727279;0.0;-0.0014625941;1001.3467;  4.0066180E-01;926.5069;3;20.117638;0.0;-0.75896049;0;0.16124675;  9.9966875E+03;  0.0000000E+00; -8.6288853E-03;  1.0000000E+04;  0.0000000E+00;  9.9971670E+03;0.06629391;0.0;0.094952829;234.85368
  1.2600886E+00;  9.9999998E-03; -1.6003546E-01;2936;0.06432166;0.0;-0.018449187;1001.1109;  4.0064079E-01;732.12439;3;45.296005;0.0;-7.1067843;0;0.20145237;  9.9961680E+03;  0.0000000E+00;  1.7881532E-01;  1.0000000E+04;  0.0000000E+00;  9.9940371E+03;0.073761217;0.0;0.12769115;506.17435
  1.2600840E+00;  9.9999998E-03; -1.4003080E-01;2937;0.060283888;0.0;-0.017112235;1001.0998;  4.0064073E-01;724.82562;3;39.942657;0.0;-6.3485708;0;0.21645521;  9.9954814E+03;  0.0000000E+00; -2.1344671E-01;  1.0000000E+04;  0.0000000E+00;  9.9944980E+03;0.086076126;0.0;0.13037908;453.78058
  1.2600788E+00;  9.9999998E-03; -1.2002556E-01;2938;0.056093801;0.0;-0.015313708;1001.1047;  4.0064073E-01;728.05524;3;34.860374;0.0;-5.9470735;0;0.2236484;  9.9950488E+03;  0.0000000E+00; -3.6297673E-01;  1.0000000E+04;  0.0000000E+00;  9.9950264E+03;0.095237598;0.0;0.1284108;467.39917
  1.2600731E+00;  9.9999998E-03; -1.0002005E-01;2939;0.051942069;0.0;-0.012888096;1001.1247;  4.0064076E-01;741.26373;3;30.584375;0.0;-5.6222658;0;0.22374377;  9.9949316E+03;  0.0000000E+00; -3.2855827E-01;  1.0000000E+04;  0.0000000E+00;  9.9955469E+03;0.10109598;0.0;0.12264778;406.17303
  1.2600673E+00;  9.9999998E-03; -8.0014631E-02;2940;0.048171673;0.0;-0.0098983524;1001.15;  4.0064070E-01;757.92944;3;27.401655;0.0;-4.757062;0;0.220245;  9.9949756E+03;  0.0000000E+00; -2.1864164E-01;  1.0000000E+04;  0.0000000E+00;  9.9960059E+03;0.10453575;0.0;0.11570925;311.37457
  1.2600625E+00;  9.9999998E-03; -6.0009707E-02;2941;0.044890873;0.0;-0.0068344483;1001.1713;  4.0064076E-01;772.00128;3;24.980663;0.0;-3.4628305;0;0.21518506;  9.9950293E+03;  0.0000000E+00; -1.1367172E-01;  1.0000000E+04;  0.0000000E+00;  9.9963779E+03;0.10533483;0.0;0.10985024;235.03706
  1.2600590E+00;  9.9999998E-03; -4.0005688E-02;2942;0.042579763;0.0;-0.0041299933;1001.1853;  4.0064082E-01;781.19965;3;23.403898;0.0;-2.1582427;0;0.21225524;  9.9950273E+03;  0.0000000E+00; -4.4810615E-02;  1.0000000E+04;  0.0000000E+00;  9.9966553E+03;0.10678812;0.0;0.10546711;190.52585
  1.2600571E+00;  9.9999998E-03; -2.0002581E-02;2943;0.041254684;0.0;-0.0019128213;1001.1929;  4.0064070E-01;786.23145;3;22.52673;0.0;-1.0219256;0;0.21075219;  9.9950068E+03;  0.0000000E+00; -1.0099134E-02;  1.0000000E+04;  0.0000000E+00;  9.9968320E+03;0.10815766;0.0;0.10259454;168.70973
  1.2800788E+00;  9.9999998E-03; -1.2002864E-01;2953;0.055061392;0.0;-0.015679853;1001.0717;  4.0062609E-01;673.67975;3;37.454586;0.0;-6.0363417;0;0.21324342;  9.9955498E+03;  0.0000000E+00;  8.0042087E-02;  1.0000000E+04;  0.0000000E+00;  9.9946006E+03;0.081108861;0.0;0.13213457;323.7941
  1.2800765E+00;  9.9999998E-03; -1.0002385E-01;2954;0.052480791;0.0;-0.014211365;1001.0435;  4.0062603E-01;655.99817;3;33.174923;0.0;-6.0167222;0;0.23571211;  9.9945195E+03;  0.0000000E+00; -8.6111650E-02;  1.0000000E+04;  0.0000000E+00;  9.9950693E+03;0.10294104;0.0;0.13277106;256.17606
  1.2800742E+00;  9.9999998E-03; -8.0017947E-02;2955;0.050306898;0.0;-0.011433127;1001.0331;  4.0062597E-01;649.4823;3;29.541357;0.0;-5.6400394;0;0.24895719;  9.9937725E+03;  0.0000000E+00; -1.1229258E-01;  1.0000000E+04;  0.0000000E+00;  9.9956084E+03;0.12342122;0.0;0.12553596;198.74487
  1.2800726E+00;  9.9999998E-03; -6.0011946E-02;2956;0.049217001;0.0;-0.0078836652;1001.0235;  4.0062597E-01;643.41504;3;27.764463;0.0;-4.0630937;0;0.26549214;  9.9931436E+03;  0.0000000E+00; -7.2192885E-02;  1.0000000E+04;  0.0000000E+00;  9.9960469E+03;0.14768088;0.0;0.11781128;139.83142
  1.2800711E+00;  9.9999998E-03; -4.0006954E-02;2957;0.048395757;0.0;-0.0047078347;1001.018;  4.0062600E-01;639.97009;3;26.836166;0.0;-2.4665303;0;0.27659687;  9.9927471E+03;  0.0000000E+00; -3.0537378E-02;  1.0000000E+04;  0.0000000E+00;  9.9963369E+03;0.16355762;0.0;0.11303926;98.928894
  1.2800703E+00;  9.9999998E-03; -2.0003129E-02;2958;0.047836509;0.0;-0.0021564898;1001.0153;  4.0062597E-01;638.24786;3;26.321331;0.0;-1.1465052;0;0.28229976;  9.9925186E+03;  0.0000000E+00; -7.0270305E-03;  1.0000000E+04;  0.0000000E+00;  9.9965068E+03;0.17193931;0.0;0.11036046;76.919823
  1.3000723E+00;  9.9999998E-03; -8.0021039E-02;2966;0.048480712;0.0;-0.012273242;1001.0784;  4.0061602E-01;644.8078;3;32.133205;0.0;-5.6815853;0;0.2078189;  9.9957246E+03;  0.0000000E+00;  1.5532941E-01;  1.0000000E+04;  0.0000000E+00;  9.9950488E+03;0.070692845;0.0;0.13712604;234.43901
  1.3000723E+00;  9.9999998E-03; -6.0014229E-02;2967;0.047490142;0.0;-0.0089471061;1001.0563;  4.0061608E-01;631.62097;3;29.413103;0.0;-4.927875;0;0.22160178;  9.9946699E+03;  0.0000000E+00;  4.8369620E-02;  1.0000000E+04;  0.0000000E+00;  9.9956660E+03;0.094255015;0.0;0.12734677;148.50197
  1.3000724E+00;  9.9999998E-03; -4.0008221E-02;2968;0.047269616;0.0;-0.0052822544;1001.0317;  4.0061617E-01;616.86554;3;28.364546;0.0;-2.9439659;0;0.23930821;  9.9938115E+03;  0.0000000E+00;  1.0844698E-02;  1.0000000E+04;  0.0000000E+00;  9.9960352E+03;0.11885117;0.0;0.12045704;96.991653
  1.3000724E+00;  9.9999998E-03; -2.0003665E-02;2969;0.047135402;0.0;-0.0023880105;1001.0153;  4.0061611E-01;607.10004;3;27.730305;0.0;-1.3400016;0;0.25134847;  9.9933008E+03;  0.0000000E+00;  1.4877408E-03;  1.0000000E+04;  0.0000000E+00;  9.9962188E+03;0.13386874;0.0;0.11747973;70.03022
 -1.2850712E-07;  9.9999998E-03; -7.8096201E-15;1045;-0.00019372557;0.0;-2.65367e-11;1000.0031;  4.0000001E-01;2.5678282;3;-0.2382341;0.0;-6.4332141e-08;0;-0.0039237617;  1.0000065E+04;  0.0000000E+00;  7.1826945E-17;  1.0000000E+04;  0.0000000E+00;  1.0000000E+04;-0.0039809919;0.0;5.7230151e-05;0.6302852
 -1.2846661E-07;  9.9999998E-03;  2.0000001E-02;1046;-0.00019372629;0.0;1.1143527e-06;1000.0031;  4.0000001E-01;2.5678282;3;-0.2383092;0.0;0.0010192656;0;-0.0039222348;  1.0000065E+04;  0.0000000E+00;  2.5740961E-12;  1.0000000E+04;  0.0000000E+00;  1.0000000E+04;-0.0039812289;0.0;5.8994166e-05;0.63982874
 -1.2833445E-07;  9.9999998E-03;  4.0000003E-02;1047;-0.0001937098;0.0;2.334735e-06;1000.0031;  4.0000001E-01;2.5678282;3;-0.23850703;0.0;0.0021885345;0;-0.0039172391;  1.0000065E+04;  0.0000000E+00;  2.5887068E-12;  1.0000000E+04;  0.0000000E+00;  1.0000000E+04;-0.0039814692;0.0;6.4230233e-05;0.66806167
 -1.2807128E-07;  9.9999998E-03;  6.0000002E-02;1048;-0.00019361172;0.0;3.7623779e-06;1000.0031;  4.0000001E-01;2.5678282;3;-0.23874155;0.0;0.0036417209;0;-0.0039074915;  1.0000064E+04;  0.0000000E+00; -2.3323019E-12;  1.0000000E+04;  0.0000000E+00;  1.0000000E+04;-0.0039802557;0.0;7.2764131e-05;0.71378869
 -1.2760991E-07;  9.9999998E-03;  8.0000006E-02;1049;-0.00019331583;0.0;5.5141809e-06;1000.0031;  4.0000001E-01;2.5678282;3;-0.23884678;0.0;0.0055779116;0;-0.0038907488;  1.0000063E+04;  0.0000000E+00; -4.8342489E-12;  1.0000000E+04;  0.0000000E+00;  1.0000000E+04;-0.0039750119;0.0;8.4263047e-05;0.77488172
 -1.2685160E-07;  9.9999998E-03;  1.0000001E-01;1050;-0.00019265535;0.0;7.6288047e-06;1000.0031;  4.0000001E-01;2.5678282;3;-0.23859918;0.0;0.0080555705;0;-0.0038636993;  1.0000063E+04;  0.0000000E+00;  8.8325702E-14;  1.0000000E+04;  0.0000000E+00;  9.9999990E+03;-0.003961836;0.0;9.8136748e-05;0.84781545
 -1.2564597E-07;  9.9999998E-03;  1.2000000E-01;1051;-0.00019136535;0.0;1.0246746e-05;1000.003;  4.0000001E-01;2.4690657;3;-0.23762965;0.0;0.011295879;0;-0.0038218936;  1.0000062E+04;  0.0000000E+00; -5.4333695E-12;  1.0000000E+04;  0.0000000E+00;  9.9999990E+03;-0.0039352421;0.0;0.00011334848;0.92661047
 -1.2380367E-07;  9.9999998E-03;  1.4000002E-01;1052;-0.00018911893;0.0;1.3399816e-05;1000.0029;  4.0000001E-01;2.4690657;3;-0.23548993;0.0;0.015327644;0;-0.003759759;  1.0000061E+04;  0.0000000E+00; -1.7414235E-10;  1.0000000E+04;  0.0000000E+00;  9.9999990E+03;-0.0038879341;0.0;0.00012817523;1.001398
  1.9999811E-02;  9.9999998E-03; -7.0410592E-15;1075;-0.00027964116;0.0;-2.6472446e-11;1000.004;  4.0000001E-01;3.2591665;3;-0.3247205;0.0;-9.499287e-08;0;-0.0048413854;  1.0000080E+04;  0.0000000E+00;  6.2971742E-18;  1.0000000E+04;  0.0000000E+00;  1.0000000E+04;-0.0049217949;0.0;8.0409365e-05;0.86904216
  1.9999811E-02;  9.9999998E-03;  2.0000001E-02;1076;-0.00027968019;0.0;1.6217676e-06;1000.004;  4.0000001E-01;3.2591665;3;-0.32488197;0.0;0.0013946611;0;-0.0048399186;  1.0000080E+04;  0.0000000E+00; -6.2757742E-12;  1.0000000E+04;  0.0000000E+00;  1.0000000E+04;-0.0049227918;0.0;8.2873128e-05;0.88273257
  1.9999813E-02;  9.9999998E-03;  4.0000003E-02;1077;-0.00027976773;0.0;3.3903061e-06;1000.004;  4.0000001E-01;3.2591665;3;-0.32532269;0.0;0.0029890153;0;-0.004835038;  1.0000080E+04;  0.0000000E+00; -1.2122750E-11;  1.0000000E+04;  0.0000000E+00;  1.0000000E+04;-0.0049252249;0.0;9.0186804e-05;0.92325103
  1.9999813E-02;  9.9999998E-03;  6.0000002E-02;1078;-0.00027981642;0.0;5.4223879e-06;1000.004;  4.0000001E-01;3.2591665;3;-0.32593179;0.0;0.0049240948;0;-0.0048252642;  1.0000080E+04;  0.0000000E+00; -1.8070311E-11;  1.0000000E+04;  0.0000000E+00;  9.9999990E+03;-0.0049273693;0.0;0.00010210528;0.98891157
  1.9999813E-02;  9.9999998E-03;  8.0000006E-02;1079;-0.00027965807;0.0;7.8832318e-06;1000.004;  4.0000001E-01;3.2591665;3;-0.32648408;0.0;0.0074481075;0;-0.0048079905;  1.0000080E+04;  0.0000000E+00; -1.4653801E-11;  1.0000000E+04;  0.0000000E+00;  9.9999990E+03;-0.0049261465;0.0;0.00011815588;1.0766591
  1.9999813E-02;  9.9999998E-03;  1.0000001E-01;1080;-0.00027905128;0.0;1.0856396e-05;1000.0039;  4.0000001E-01;3.2591665;3;-0.32665992;0.0;0.010718723;0;-0.0047793491;  1.0000079E+04;  0.0000000E+00; -1.9708721E-11;  1.0000000E+04;  0.0000000E+00;  9.9999980E+03;-0.004916844;0.0;0.00013749507;1.1813695
  1.9999815E-02;  9.9999998E-03;  1.2000001E-01;1081;-0.00027762415;0.0;1.448177e-05;1000.0038;  4.0000001E-01;3.160404;3;-0.32597643;0.0;0.014905656;0;-0.0047340798;  1.0000078E+04;  0.0000000E+00; -3.7134542E-11;  1.0000000E+04;  0.0000000E+00;  9.9999980E+03;-0.0048927395;0.0;0.00015865956;1.2944161
  1.9999819E-02;  9.9999998E-03;  1.4000002E-01;1082;-0.00027487258;0.0;1.8911242e-05;1000.0037;  4.0000001E-01;3.0616415;3;-0.32376629;0.0;0.020204447;0;-0.0046654809;  1.0000077E+04;  0.0000000E+00; -9.9995394E-11;  1.0000000E+04;  0.0000000E+00;  9.9999980E+03;-0.0048447493;0.0;0.00017926857;1.4018489
  3.9999735E-02;  9.9999998E-03; -7.3884338E-15;1106;-0.0003923371;0.0;-1.2161263e-11;1000.0048;  4.0000001E-01;3.950505;3;-0.43375465;0.0;3.0008664e-08;0;-0.0057804068;  1.0000098E+04;  0.0000000E+00; -8.3714483E-18;  1.0000000E+04;  0.0000000E+00;  9.9999990E+03;-0.005884876;0.0;0.00010446915;1.1335539
  3.9999735E-02;  9.9999998E-03;  2.0000001E-02;1107;-0.00039243614;0.0;2.0706002e-06;1000.0048;  4.0000001E-01;3.950505;3;-0.43403524;0.0;0.0016333793;0;-0.0057793632;  1.0000098E+04;  0.0000000E+00;  3.1471351E-13;  1.0000000E+04;  0.0000000E+00;  9.9999990E+03;-0.005887039;0.0;0.00010767581;1.1519843
  3.9999735E-02;  9.9999998E-03;  4.0000003E-02;1108;-0.00039269129;0.0;4.3170003e-06;1000.0048;  4.0000001E-01;3.950505;3;-0.43482026;0.0;0.0034822882;0;-0.0057757064;  1.0000098E+04;  0.0000000E+00; -7.4233779E-12;  1.0000000E+04;  0.0000000E+00;  9.9999990E+03;-0.0058929003;0.0;0.00011719402;1.2065465
  3.9999735E-02;  9.9999998E-03;  6.0000006E-02;1109;-0.0003929809;0.0;6.8839677e-06;1000.0048;  4.0000001E-01;3.950505;3;-0.43595105;0.0;0.0057444628;0;-0.0057678199;  1.0000098E+04;  0.0000000E+00; -6.5879455E-12;  1.0000000E+04;  0.0000000E+00;  9.9999980E+03;-0.0059005185;0.0;0.00013269862;1.2949898
  3.9999735E-02;  9.9999998E-03;  8.0000006E-02;1110;-0.00039307924;0.0;9.9632034e-06;1000.0048;  4.0000001E-01;3.950505;3;-0.43714607;0.0;0.008669097;0;-0.0057528354;  1.0000098E+04;  0.0000000E+00; -2.0126187E-11;  1.0000000E+04;  0.0000000E+00;  9.9999980E+03;-0.0059063965;0.0;0.0001535613;1.4131756
  3.9999735E-02;  9.9999998E-03;  1.0000001E-01;1111;-0.00039264871;0.0;1.3692385e-05;1000.0048;  4.0000001E-01;3.950505;3;-0.43796724;0.0;0.012487078;0;-0.0057264403;  1.0000098E+04;  0.0000000E+00; -1.1119027E-11;  1.0000000E+04;  0.0000000E+00;  9.9999971E+03;-0.0059051034;0.0;0.00017866325;1.5541208
  3.9999738E-02;  9.9999998E-03;  1.2000001E-01;1112;-0.0003911946;0.0;1.8191149e-05;1000.0047;  4.0000001E-01;3.8517423;3;-0.43779835;0.0;0.017326484;0;-0.0056826668;  1.0000096E+04;  0.0000000E+00;  1.0765124E-11;  1.0000000E+04;  0.0000000E+00;  9.9999971E+03;-0.0058887638;0.0;0.00020609697;1.7062163
  3.9999738E-02;  9.9999998E-03;  1.4000002E-01;1113;-0.00038801023;0.0;2.3636365e-05;1000.0046;  4.0000001E-01;3.8517423;3;-0.43573746;0.0;0.023409227;0;-0.0056137075;  1.0000096E+04;  0.0000000E+00; -5.3999985E-11;  1.0000000E+04;  0.0000000E+00;  9.9999971E+03;-0.0058465442;0.0;0.00023283671;1.8511493
  5.9999634E-02;  9.9999998E-03; -2.0788486E-14;1137;-0.00052842975;0.0;-2.6759352e-11;1000.0059;  4.0000001E-01;4.8393683;3;-0.5614956;0.0;7.5608142e-08;0;-0.0068436349;  1.0000119E+04;  0.0000000E+00;  1.9375890E-17;  1.0000000E+04;  0.0000000E+00;  9.9999980E+03;-0.0069720531;0.0;0.00012841818;1.4273388
  5.9999634E-02;  9.9999998E-03;  2.0000001E-02;1138;-0.0005286177;0.0;2.4544065e-06;1000.0059;  4.0000001E-01;4.8393683;3;-0.56193089;0.0;0.0017424665;0;-0.006843416;  1.0000119E+04;  0.0000000E+00; -1.7895644E-12;  1.0000000E+04;  0.0000000E+00;  9.9999980E+03;-0.0069758301;0.0;0.00013241425;1.4512699
  5.9999634E-02;  9.9999998E-03;  4.0000003E-02;1139;-0.00052912772;0.0;5.1076954e-06;1000.0059;  4.0000001E-01;4.8393683;3;-0.56316996;0.0;0.0037074815;0;-0.0068422183;  1.0000119E+04;  0.0000000E+00; -3.0764998E-12;  1.0000000E+04;  0.0000000E+00;  9.9999980E+03;-0.0069864895;0.0;0.00014427106;1.5221212
  5.9999634E-02;  9.9999998E-03;  6.0000006E-02;1140;-0.00052979996;0.0;8.1473027e-06;1000.0059;  4.0000001E-01;4.8393683;3;-0.56500971;0.0;0.0061678849;0;-0.0068383235;  1.0000118E+04;  0.0000000E+00; -2.5632762E-12;  1.0000000E+04;  0.0000000E+00;  9.9999971E+03;-0.0070018899;0.0;0.00016356635;1.636945
  5.9999637E-02;  9.9999998E-03;  8.0000013E-02;1141;-0.00053034682;0.0;1.1768638e-05;1000.0059;  4.0000001E-01;4.8393683;3;-0.56709933;0.0;0.0093275644;0;-0.0068286606;  1.0000118E+04;  0.0000000E+00;  5.2528110E-13;  1.0000000E+04;  0.0000000E+00;  9.9999971E+03;-0.0070181503;0.0;0.00018948957;1.7902846
  5.9999637E-02;  9.9999998E-03;  1.0000002E-01;1142;-0.00053031807;0.0;1.6179278e-05;1000.0059;  4.0000001E-01;4.8393683;3;-0.56886786;0.0;0.013529416;0;-0.0068085329;  1.0000118E+04;  0.0000000E+00;  7.6243187E-12;  1.0000000E+04;  0.0000000E+00;  9.9999971E+03;-0.0070291539;0.0;0.00022062122;1.972955
  5.9999637E-02;  9.9999998E-03;  1.2000002E-01;1143;-0.00052908331;0.0;2.1449807e-05;1000.0057;  4.0000001E-01;4.7406058;3;-0.56955421;0.0;0.018803272;0;-0.00677128;  1.0000118E+04;  0.0000000E+00;  1.0848556E-11;  1.0000000E+04;  0.0000000E+00;  9.9999961E+03;-0.0070258817;0.0;0.00025460182;2.169996
  5.9999641E-02;  9.9999998E-03;  1.4000002E-01;1144;-0.00052570412;0.0;2.7805856e-05;1000.0056;  4.0000001E-01;4.6418433;3;-0.56801307;0.0;0.025437739;0;-0.0067078779;  1.0000118E+04;  0.0000000E+00;  2.3238939E-11;  1.0000000E+04;  0.0000000E+00;  9.9999951E+03;-0.0069956761;0.0;0.00028779841;2.3584583
  7.9999514E-02;  9.9999998E-03; -2.3683970E-14;1168;-0.00068889186;0.0;-1.511122e-11;1000.0071;  4.0000001E-01;5.8269949;3;-0.70924985;0.0;1.1828058e-07;0;-0.0081329355;  1.0000147E+04;  0.0000000E+00; -1.0548541E-17;  1.0000000E+04;  0.0000000E+00;  9.9999971E+03;-0.0082853716;0.0;0.00015243582;1.7615107
  7.9999514E-02;  9.9999998E-03;  2.0000003E-02;1169;-0.00068920705;0.0;2.7885808e-06;1000.0071;  4.0000001E-01;5.8269949;3;-0.70988572;0.0;0.0017519863;0;-0.0081339749;  1.0000147E+04;  0.0000000E+00; -1.9602668E-12;  1.0000000E+04;  0.0000000E+00;  9.9999971E+03;-0.0082912985;0.0;0.00015732393;1.7921916
  7.9999514E-02;  9.9999998E-03;  4.0000007E-02;1170;-0.00069008913;0.0;5.798468e-06;1000.0071;  4.0000001E-01;5.8269949;3;-0.71171856;0.0;0.0037343223;0;-0.0081365276;  1.0000147E+04;  0.0000000E+00; -1.1265054E-11;  1.0000000E+04;  0.0000000E+00;  9.9999971E+03;-0.0083083436;0.0;0.0001718157;1.8830101
  7.9999514E-02;  9.9999998E-03;  6.0000010E-02;1171;-0.00069133833;0.0;9.2701503e-06;1000.0071;  4.0000001E-01;5.8269949;3;-0.71449733;0.0;0.006294189;0;-0.0081388196;  1.0000147E+04;  0.0000000E+00; -1.0427670E-11;  1.0000000E+04;  0.0000000E+00;  9.9999971E+03;-0.0083341757;0.0;0.00019535612;2.0300915
  7.9999514E-02;  9.9999998E-03;  8.0000013E-02;1172;-0.00069260481;0.0;1.3386689e-05;1000.0071;  4.0000001E-01;5.8269949;3;-0.71780437;0.0;0.0095730349;0;-0.008137621;  1.0000147E+04;  0.0000000E+00; -3.1814364E-11;  1.0000000E+04;  0.0000000E+00;  9.9999961E+03;-0.008364521;0.0;0.00022690013;2.2262588
  7.9999514E-02;  9.9999998E-03;  1.0000002E-01;1173;-0.00069332169;0.0;1.8413319e-05;1000.007;  4.0000001E-01;5.8269949;3;-0.72094959;0.0;0.013949522;0;-0.0081278607;  1.0000148E+04;  0.0000000E+00; -8.9881375E-12;  1.0000000E+04;  0.0000000E+00;  9.9999961E+03;-0.0083925305;0.0;0.00026467018;2.4595559
  7.9999521E-02;  9.9999998E-03;  1.2000002E-01;1174;-0.00069268822;0.0;2.4455556e-05;1000.007;  4.0000001E-01;5.7282324;3;-0.72297359;0.0;0.019621998;0;-0.008102145;  1.0000147E+04;  0.0000000E+00; -1.5708164E-11;  1.0000000E+04;  0.0000000E+00;  9.9999951E+03;-0.0084079579;0.0;0.00030581249;2.7110224
  7.9999521E-02;  9.9999998E-03;  1.4000003E-01;1175;-0.00068953156;0.0;3.1693125e-05;1000.007;  4.0000001E-01;5.7282324;3;-0.72250891;0.0;0.026653832;0;-0.0080500543;  1.0000146E+04;  0.0000000E+00;  3.5509116E-11;  1.0000000E+04;  0.0000000E+00;  9.9999951E+03;-0.0083961664;0.0;0.00034611192;2.9525838
  9.9999368E-02;  9.9999998E-03; -5.4855112E-15;1199;-0.00087811385;0.0;1.5914504e-13;1000.0089;  4.0000001E-01;7.308434;3;-0.88049841;0.0;5.741208e-08;0;-0.0097347759;  1.0000181E+04;  0.0000000E+00; -4.5392400E-17;  1.0000000E+04;  0.0000000E+00;  9.9999971E+03;-0.0099125532;0.0;0.00017777731;2.1532288
  9.9999368E-02;  9.9999998E-03;  2.0000003E-02;1200;-0.00087860686;0.0;3.1046752e-06;1000.0089;  4.0000001E-01;7.308434;3;-0.88139236;0.0;0.0016996171;0;-0.0097375186;  1.0000181E+04;  0.0000000E+00; -1.5835508E-12;  1.0000000E+04;  0.0000000E+00;  9.9999971E+03;-0.0099212918;0.0;0.00018377281;2.1927626
  9.9999368E-02;  9.9999998E-03;  4.0000007E-02;1201;-0.00088001299;0.0;6.4625938e-06;1000.0089;  4.0000001E-01;7.308434;3;-0.88399082;0.0;0.0036642819;0;-0.0097451676;  1.0000181E+04;  0.0000000E+00;  4.2758674E-12;  1.0000000E+04;  0.0000000E+00;  9.9999961E+03;-0.0099466937;0.0;0.00020152575;2.3097482
  9.9999368E-02;  9.9999998E-03;  6.0000010E-02;1202;-0.00088209467;0.0;1.0349063e-05;1000.0089;  4.0000001E-01;7.308434;3;-0.88800913;0.0;0.0062012486;0;-0.0097559234;  1.0000180E+04;  0.0000000E+00; -3.3824135E-12;  1.0000000E+04;  0.0000000E+00;  9.9999961E+03;-0.0099862115;0.0;0.00023028784;2.4990273
  9.9999368E-02;  9.9999998E-03;  8.0000013E-02;1203;-0.00088443339;0.0;1.4988264e-05;1000.0089;  4.0000001E-01;7.308434;3;-0.89293402;0.0;0.009620795;0;-0.0097664222;  1.0000181E+04;  0.0000000E+00; -1.5279292E-11;  1.0000000E+04;  0.0000000E+00;  9.9999961E+03;-0.010035103;0.0;0.00026868118;2.7510571
  9.9999368E-02;  9.9999998E-03;  1.0000002E-01;1204;-0.00088635396;0.0;2.0654923e-05;1000.0089;  4.0000001E-01;7.308434;3;-0.89799172;0.0;0.014140351;0;-0.0097712846;  1.0000181E+04;  0.0000000E+00; -2.7737566E-11;  1.0000000E+04;  0.0000000E+00;  9.9999951E+03;-0.010085727;0.0;0.00031444253;3.0501347
  9.9999368E-02;  9.9999998E-03;  1.2000003E-01;1205;-0.00088686426;0.0;2.7531276e-05;1000.0087;  4.0000001E-01;7.2096715;3;-0.90201068;0.0;0.020132303;0;-0.0097623393;  1.0000183E+04;  0.0000000E+00; -5.5755118E-12;  1.0000000E+04;  0.0000000E+00;  9.9999932E+03;-0.010126438;0.0;0.00036409835;3.3720808
  9.9999376E-02;  9.9999998E-03;  1.4000003E-01;1206;-0.00088453811;0.0;3.5721845e-05;1000.0087;  4.0000001E-01;7.2096715;3;-0.90337318;0.0;0.027510546;0;-0.0097276038;  1.0000182E+04;  0.0000000E+00;  1.4631274E-10;  1.0000000E+04;  0.0000000E+00;  9.9999932E+03;-0.010140386;0.0;0.00041278274;3.6825209
  1.1999919E-01;  9.9999998E-03; -3.7323927E-15;1230;-0.001103316;0.0;-1.1362711e-10;1000.0109;  4.0000001E-01;8.9873991;3;-1.0796611;0.0;-3.7363043e-07;0;-0.011716349;  1.0000223E+04;  0.0000000E+00; -4.0738728E-17;  1.0000000E+04;  0.0000000E+00;  9.9999961E+03;-0.011922758;0.0;0.00020640883;2.6231606
  1.1999919E-01;  9.9999998E-03;  2.0000003E-02;1231;-0.0011040524;0.0;3.4486936e-06;1000.0109;  4.0000001E-01;8.9873991;3;-1.0808864;0.0;0.0016468158;0;-0.011721245;  1.0000223E+04;  0.0000000E+00;  2.6700486E-12;  1.0000000E+04;  0.0000000E+00;  9.9999961E+03;-0.011935144;0.0;0.00021389915;2.6749082
  1.1999919E-01;  9.9999998E-03;  4.0000007E-02;1232;-0.001106177;0.0;7.2003522e-06;1000.0109;  4.0000001E-01;8.9873991;3;-1.0844593;0.0;0.0036244311;0;-0.011735373;  1.0000223E+04;  0.0000000E+00; -1.4240231E-12;  1.0000000E+04;  0.0000000E+00;  9.9999961E+03;-0.011971419;0.0;0.00023604544;2.8279941
  1.1999919E-01;  9.9999998E-03;  6.0000010E-02;1233;-0.0011094176;0.0;1.1560623e-05;1000.0109;  4.0000001E-01;8.9873991;3;-1.0900654;0.0;0.006194111;0;-0.011756937;  1.0000223E+04;  0.0000000E+00; -1.3710952E-12;  1.0000000E+04;  0.0000000E+00;  9.9999961E+03;-0.012028752;0.0;0.00027181517;3.0754926
  1.1999919E-01;  9.9999998E-03;  8.0000013E-02;1234;-0.0011132846;0.0;1.6822609e-05;1000.0109;  4.0000001E-01;8.9873991;3;-1.0971265;0.0;0.0097648511;0;-0.011782525;  1.0000225E+04;  0.0000000E+00; -1.7800610E-11;  1.0000000E+04;  0.0000000E+00;  9.9999941E+03;-0.012101863;0.0;0.00031933759;3.4045582
  1.1999919E-01;  9.9999998E-03;  1.0000002E-01;1235;-0.001116995;0.0;2.3259679e-05;1000.0109;  4.0000001E-01;8.9873991;3;-1.104766;0.0;0.014488071;0;-0.011806497;  1.0000225E+04;  0.0000000E+00;  1.0036325E-11;  1.0000000E+04;  0.0000000E+00;  9.9999932E+03;-0.012182141;0.0;0.00037564297;3.794275
  1.1999919E-01;  9.9999998E-03;  1.2000003E-01;1236;-0.0011193558;0.0;3.1151376e-05;1000.0109;  4.0000001E-01;8.9873991;3;-1.1115962;0.0;0.020861721;0;-0.011820033;  1.0000226E+04;  0.0000000E+00;  2.1302368E-11;  1.0000000E+04;  0.0000000E+00;  9.9999932E+03;-0.012256411;0.0;0.00043637751;4.2132392
  1.1999919E-01;  9.9999998E-03;  1.4000003E-01;1237;-0.0011186651;0.0;4.0488412e-05;1000.0109;  4.0000001E-01;8.9873991;3;-1.1157426;0.0;0.028630124;0;-0.011809519;  1.0000226E+04;  0.0000000E+00; -4.4501923E-11;  1.0000000E+04;  0.0000000E+00;  9.9999902E+03;-0.01230535;0.0;0.0004958316;4.6188769
  1.3999897E-01;  9.9999998E-03; -4.5592829E-14;1261;-0.0013735902;0.0;-6.4888455e-12;1000.0135;  4.0000001E-01;11.258939;3;-1.3115914;0.0;7.2848025e-08;0;-0.014131732;  1.0000276E+04;  0.0000000E+00; -5.0487568E-17;  1.0000000E+04;  0.0000000E+00;  9.9999951E+03;-0.014372277;0.0;0.00024054508;3.1930902
  1.3999897E-01;  9.9999998E-03;  2.0000003E-02;1262;-0.0013746561;0.0;3.8774392e-06;1000.0135;  4.0000001E-01;11.258939;3;-1.3132373;0.0;0.0017037247;0;-0.014139253;  1.0000276E+04;  0.0000000E+00; -2.5104510E-12;  1.0000000E+04;  0.0000000E+00;  9.9999951E+03;-0.014389403;0.0;0.00025015004;3.2620928
  1.3999896E-01;  9.9999998E-03;  4.0000010E-02;1263;-0.0013777559;0.0;8.1267308e-06;1000.0136;  4.0000001E-01;11.258939;3;-1.3180563;0.0;0.0037808153;0;-0.014161263;  1.0000276E+04;  0.0000000E+00; -5.3914108E-12;  1.0000000E+04;  0.0000000E+00;  9.9999941E+03;-0.014439774;0.0;0.00027851108;3.4662447
  1.3999896E-01;  9.9999998E-03;  6.0000014E-02;1264;-0.0013825827;0.0;1.3108179e-05;1000.0136;  4.0000001E-01;11.258939;3;-1.325707;0.0;0.0065132594;0;-0.014196037;  1.0000276E+04;  0.0000000E+00; -1.2320784E-11;  1.0000000E+04;  0.0000000E+00;  9.9999941E+03;-0.014520228;0.0;0.00032419022;3.7962985
  1.3999896E-01;  9.9999998E-03;  8.0000021E-02;1265;-0.0013885731;0.0;1.9193485e-05;1000.0135;  4.0000001E-01;11.258939;3;-1.335539;0.0;0.010388932;0;-0.014240212;  1.0000276E+04;  0.0000000E+00; -2.0508401E-11;  1.0000000E+04;  0.0000000E+00;  9.9999932E+03;-0.014624815;0.0;0.00038460345;4.2349687
  1.3999896E-01;  9.9999998E-03;  1.0000002E-01;1266;-0.0013948292;0.0;2.6671514e-05;1000.0135;  4.0000001E-01;11.258939;3;-1.3465813;0.0;0.015497288;0;-0.014288068;  1.0000279E+04;  0.0000000E+00;  3.1093071E-12;  1.0000000E+04;  0.0000000E+00;  9.9999912E+03;-0.014743831;0.0;0.00045576302;4.7543139
  1.3999896E-01;  9.9999998E-03;  1.2000003E-01;1267;-0.0013999486;0.0;3.5886933e-05;1000.0135;  4.0000001E-01;11.160176;3;-1.357254;0.0;0.022364216;0;-0.01433029;  1.0000279E+04;  0.0000000E+00; -5.8065171E-11;  1.0000000E+04;  0.0000000E+00;  9.9999902E+03;-0.014862367;0.0;0.00053207716;5.313333
  1.3999896E-01;  9.9999998E-03;  1.4000005E-01;1268;-0.001401913;0.0;4.6774076e-05;1000.0134;  4.0000001E-01;11.160176;3;-1.3653299;0.0;0.030844638;0;-0.014351779;  1.0000280E+04;  0.0000000E+00; -9.1572819E-11;  1.0000000E+04;  0.0000000E+00;  9.9999893E+03;-0.014958564;0.0;0.00060678582;5.8596706
  1.5999869E-01;  9.9999998E-03; -5.1103808E-14;1292;-0.0016989973;0.0;-1.6290495e-10;1000.0168;  4.0000001E-01;13.92553;3;-1.5814995;0.0;-7.4816342e-07;0;-0.017036563;  1.0000341E+04;  0.0000000E+00; -1.6357180E-16;  1.0000000E+04;  0.0000000E+00;  9.9999941E+03;-0.017318752;0.0;0.00028218949;3.8842828
  1.5999869E-01;  9.9999998E-03;  2.0000005E-02;1293;-0.0017005048;0.0;4.4382468e-06;1000.0168;  4.0000001E-01;13.92553;3;-1.5836803;0.0;0.0019357458;0;-0.017047159;  1.0000341E+04;  0.0000000E+00;  1.7923330E-12;  1.0000000E+04;  0.0000000E+00;  9.9999941E+03;-0.017341981;0.0;0.00029482166;3.9776809
  1.5999869E-01;  9.9999998E-03;  4.0000010E-02;1294;-0.0017049172;0.0;9.3489843e-06;1000.0168;  4.0000001E-01;13.92553;3;-1.5900948;0.0;0.0043120706;0;-0.017078463;  1.0000342E+04;  0.0000000E+00; -8.3838657E-12;  1.0000000E+04;  0.0000000E+00;  9.9999941E+03;-0.017410556;0.0;0.00033209214;4.2542076
  1.5999869E-01;  9.9999998E-03;  6.0000017E-02;1295;-0.0017118866;0.0;1.5184156e-05;1000.0168;  4.0000001E-01;13.92553;3;-1.6003604;0.0;0.0074628033;0;-0.017128872;  1.0000344E+04;  0.0000000E+00; -1.9630686E-11;  1.0000000E+04;  0.0000000E+00;  9.9999922E+03;-0.017520893;0.0;0.00039202144;4.7018414
  1.5999869E-01;  9.9999998E-03;  8.0000021E-02;1296;-0.0017207719;0.0;2.2420505e-05;1000.0168;  4.0000001E-01;13.92553;3;-1.6137533;0.0;0.011947569;0;-0.017195184;  1.0000346E+04;  0.0000000E+00; -1.0504065E-11;  1.0000000E+04;  0.0000000E+00;  9.9999902E+03;-0.017666258;0.0;0.00047107341;5.297924
  1.5999867E-01;  9.9999998E-03;  1.0000003E-01;1297;-0.0017305426;0.0;3.1400181e-05;1000.0169;  4.0000001E-01;14.024293;3;-1.6291891;0.0;0.017840089;0;-0.017271774;  1.0000348E+04;  0.0000000E+00; -3.8625367E-11;  1.0000000E+04;  0.0000000E+00;  9.9999902E+03;-0.01783569;0.0;0.00056391658;6.0059986
  1.5999867E-01;  9.9999998E-03;  1.2000004E-01;1298;-0.0017395706;0.0;4.2512333e-05;1000.0169;  4.0000001E-01;14.024293;3;-1.6448889;0.0;0.025667185;0;-0.017349048;  1.0000349E+04;  0.0000000E+00; -4.3520170E-11;  1.0000000E+04;  0.0000000E+00;  9.9999863E+03;-0.01801247;0.0;0.00066342205;6.7741485
  1.5999867E-01;  9.9999998E-03;  1.4000006E-01;1299;-0.0017454766;0.0;5.5640801e-05;1000.0169;  4.0000001E-01;14.024293;3;-1.6582724;0.0;0.035339616;0;-0.017410351;  1.0000351E+04;  0.0000000E+00; -9.9228001E-11;  1.0000000E+04;  0.0000000E+00;  9.9999854E+03;-0.018172218;0.0;0.00076186581;7.5415058
  1.7999834E-01;  9.9999998E-03;  1.0115248E-13;1323;-0.0020903642;0.0;1.2240735e-11;1000.0206;  4.0000001E-01;17.085934;3;-1.8949325;0.0;-2.2370841e-07;0;-0.02050302;  1.0000419E+04;  0.0000000E+00;  1.1498610E-16;  1.0000000E+04;  0.0000000E+00;  9.9999922E+03;-0.020835767;0.0;0.00033274677;4.7167735
  1.7999834E-01;  9.9999998E-03;  2.0000005E-02;1324;-0.0020924588;0.0;5.1611078e-06;1000.0207;  4.0000001E-01;17.184696;3;-1.8977909;0.0;0.0024141173;0;-0.020517195;  1.0000419E+04;  0.0000000E+00;  3.1112274E-12;  1.0000000E+04;  0.0000000E+00;  9.9999922E+03;-0.020866858;0.0;0.00034966398;4.8441634
  1.7999834E-01;  9.9999998E-03;  4.0000010E-02;1325;-0.0020986171;0.0;1.0942691e-05;1000.0207;  4.0000001E-01;17.184696;3;-1.9062176;0.0;0.0053766407;0;-0.020559251;  1.0000422E+04;  0.0000000E+00; -2.9974249E-11;  1.0000000E+04;  0.0000000E+00;  9.9999922E+03;-0.020958837;0.0;0.00039958509;5.2218785
  1.7999834E-01;  9.9999998E-03;  6.0000021E-02;1326;-0.0021084459;0.0;1.7950624e-05;1000.0208;  4.0000001E-01;17.184696;3;-1.9197829;0.0;0.0093279555;0;-0.020627733;  1.0000425E+04;  0.0000000E+00; -1.2194058E-11;  1.0000000E+04;  0.0000000E+00;  9.9999902E+03;-0.021107614;0.0;0.00047987991;5.8351765
  1.7999834E-01;  9.9999998E-03;  8.0000028E-02;1327;-0.0021212141;0.0;2.6798532e-05;1000.0208;  4.0000001E-01;17.184696;3;-1.9376765;0.0;0.01490929;0;-0.02071969;  1.0000427E+04;  0.0000000E+00; -3.1087997E-11;  1.0000000E+04;  0.0000000E+00;  9.9999873E+03;-0.02130558;0.0;0.00058588909;6.6560326
  1.7999832E-01;  9.9999998E-03;  1.0000004E-01;1328;-0.0021357355;0.0;3.7960643e-05;1000.0208;  4.0000001E-01;17.283459;3;-1.9586811;0.0;0.02224322;0;-0.02082967;  1.0000429E+04;  0.0000000E+00; -9.7807196E-12;  1.0000000E+04;  0.0000000E+00;  9.9999863E+03;-0.021540422;0.0;0.00071075145;7.6396751
  1.7999832E-01;  9.9999998E-03;  1.2000005E-01;1329;-0.0021501211;0.0;5.1881616e-05;1000.0209;  4.0000001E-01;17.283459;3;-1.9807911;0.0;0.031908043;0;-0.020947685;  1.0000432E+04;  0.0000000E+00;  4.0283204E-11;  1.0000000E+04;  0.0000000E+00;  9.9999824E+03;-0.021793509;0.0;0.0008458228;8.7251921
  1.7999832E-01;  9.9999998E-03;  1.4000006E-01;1330;-0.0021615813;0.0;6.8360241e-05;1000.0209;  4.0000001E-01;17.283459;3;-2.0010867;0.0;0.043614082;0;-0.02105502;  1.0000435E+04;  0.0000000E+00; -8.0151052E-11;  1.0000000E+04;  0.0000000E+00;  9.9999824E+03;-0.022038186;0.0;0.00098316604;9.8506002
  1.9999792E-01;  9.9999998E-03;  5.9084584E-15;1354;-0.0025600477;0.0;-1.8152657e-10;1000.0256;  4.0000001E-01;21.233965;3;-2.257931;0.0;-8.0586528e-07;0;-0.024616737;  1.0000520E+04;  0.0000000E+00; -1.6255131E-17;  1.0000000E+04;  0.0000000E+00;  9.9999922E+03;-0.025009425;0.0;0.00039268931;5.708725
  1.9999792E-01;  9.9999998E-03;  2.0000007E-02;1355;-0.002562914;0.0;6.04873e-06;1000.0256;  4.0000001E-01;21.233965;3;-2.2616286;0.0;0.0031987503;0;-0.024635011;  1.0000520E+04;  0.0000000E+00; -2.9095211E-11;  1.0000000E+04;  0.0000000E+00;  9.9999912E+03;-0.025050545;0.0;0.00041553302;5.8823276
  1.9999792E-01;  9.9999998E-03;  4.0000014E-02;1356;-0.0025713698;0.0;1.2925512e-05;1000.0256;  4.0000001E-01;21.233965;3;-2.2725489;0.0;0.0071055363;0;-0.024689397;  1.0000521E+04;  0.0000000E+00; -2.5800698E-11;  1.0000000E+04;  0.0000000E+00;  9.9999893E+03;-0.02517242;0.0;0.0004830228;6.3982658
  1.9999790E-01;  9.9999998E-03;  6.0000025E-02;1357;-0.0025849708;0.0;2.1500342e-05;1000.0257;  4.0000001E-01;21.332727;3;-2.2902203;0.0;0.012367475;0;-0.024778601;  1.0000525E+04;  0.0000000E+00;  4.6689020E-12;  1.0000000E+04;  0.0000000E+00;  9.9999873E+03;-0.025370471;0.0;0.00059187086;7.2402177
  1.9999790E-01;  9.9999998E-03;  8.0000035E-02;1358;-0.0026028845;0.0;3.2561315e-05;1000.0257;  4.0000001E-01;21.332727;3;-2.3137321;0.0;0.019715374;0;-0.024899751;  1.0000530E+04;  0.0000000E+00; -1.8291488E-11;  1.0000000E+04;  0.0000000E+00;  9.9999854E+03;-0.025636058;0.0;0.00073630712;8.3768148
  1.9999789E-01;  9.9999998E-03;  1.0000005E-01;1359;-0.0026237201;0.0;4.6832021e-05;1000.0258;  4.0000001E-01;21.43149;3;-2.3416922;0.0;0.029436171;0;-0.0250473;  1.0000533E+04;  0.0000000E+00; -3.5855714E-11;  1.0000000E+04;  0.0000000E+00;  9.9999824E+03;-0.02595537;0.0;0.00090806989;9.7584963
  1.9999789E-01;  9.9999998E-03;  1.2000006E-01;1360;-0.0026452749;0.0;6.4883352e-05;1000.0259;  4.0000001E-01;21.530252;3;-2.3717985;0.0;0.04229001;0;-0.025210401;  1.0000539E+04;  0.0000000E+00;  7.6654696E-11;  1.0000000E+04;  0.0000000E+00;  9.9999775E+03;-0.026307955;0.0;0.0010975536;11.322609
  1.9999787E-01;  9.9999998E-03;  1.4000009E-01;1361;-0.0026643153;0.0;8.6295244e-05;1000.0259;  4.0000001E-01;21.43149;3;-2.4009051;0.0;0.057259493;0;-0.02536694;  1.0000543E+04;  0.0000000E+00;  2.0467446E-10;  1.0000000E+04;  0.0000000E+00;  9.9999746E+03;-0.026665067;0.0;0.0012981283;13.021194
  2.1999739E-01;  9.9999998E-03;  4.4246755E-14;1385;-0.0031223551;0.0;-1.1969105e-10;1000.0314;  4.0000001E-01;26.073332;3;-2.6771884;0.0;-4.1596127e-07;0;-0.029472141;  1.0000640E+04;  0.0000000E+00;  3.2700064E-17;  1.0000000E+04;  0.0000000E+00;  9.9999893E+03;-0.029933473;0.0;0.00046133308;6.8772597
  2.1999739E-01;  9.9999998E-03;  2.0000007E-02;1386;-0.0031262268;0.0;7.0614092e-06;1000.0314;  4.0000001E-01;26.073332;3;-2.6819136;0.0;0.0043109092;0;-0.029495198;  1.0000640E+04;  0.0000000E+00;  1.4380523E-11;  1.0000000E+04;  0.0000000E+00;  9.9999893E+03;-0.02998733;0.0;0.00049213227;7.1117558
  2.1999739E-01;  9.9999998E-03;  4.0000018E-02;1387;-0.0031376835;0.0;1.5244079e-05;1000.0314;  4.0000001E-01;25.974569;3;-2.6959119;0.0;0.0095651178;0;-0.029563921;  1.0000642E+04;  0.0000000E+00;  6.3113633E-12;  1.0000000E+04;  0.0000000E+00;  9.9999873E+03;-0.030147247;0.0;0.00058332691;7.8109202
  2.1999738E-01;  9.9999998E-03;  6.0000028E-02;1388;-0.0031562126;0.0;2.5812522e-05;1000.0315;  4.0000001E-01;26.073332;3;-2.7186487;0.0;0.016725762;0;-0.029676929;  1.0000646E+04;  0.0000000E+00;  2.5503939E-11;  1.0000000E+04;  0.0000000E+00;  9.9999854E+03;-0.030408064;0.0;0.00073113386;8.9598007
  2.1999736E-01;  9.9999998E-03;  8.0000043E-02;1389;-0.0031808598;0.0;3.9795301e-05;1000.0315;  4.0000001E-01;26.073332;3;-2.7491076;0.0;0.02665988;0;-0.029831154;  1.0000651E+04;  0.0000000E+00; -4.0450424E-11;  1.0000000E+04;  0.0000000E+00;  9.9999814E+03;-0.030760132;0.0;0.00092897785;10.528852
  2.1999735E-01;  9.9999998E-03;  1.0000006E-01;1390;-0.0032099881;0.0;5.830378e-05;1000.0316;  4.0000001E-01;26.172096;3;-2.7856638;0.0;0.039923325;0;-0.030020289;  1.0000657E+04;  0.0000000E+00; -6.2544976E-11;  1.0000000E+04;  0.0000000E+00;  9.9999766E+03;-0.031188034;0.0;0.0011677438;12.471862
  2.1999733E-01;  9.9999998E-03;  1.2000008E-01;1391;-0.0032410286;0.0;8.1975188e-05;1000.0317;  4.0000001E-01;26.270859;3;-2.8257153;0.0;0.057295352;0;-0.030231345;  1.0000665E+04;  0.0000000E+00; -2.0228531E-11;  1.0000000E+04;  0.0000000E+00;  9.9999707E+03;-0.03166927;0.0;0.001437925;14.737559
  2.1999732E-01;  9.9999998E-03;  1.4000010E-01;1392;-0.0032701741;0.0;0.00011054641;1000.0318;  4.0000001E-01;26.369621;3;-2.865716;0.0;0.077578217;0;-0.030436836;  1.0000673E+04;  0.0000000E+00;  5.5188121E-10;  1.0000000E+04;  0.0000000E+00;  9.9999668E+03;-0.032173045;0.0;0.001736209;17.313707
  2.3999675E-01;  9.9999998E-03; -1.4226982E-13;1416;-0.0037935202;0.0;-3.2809347e-10;1000.0385;  4.0000001E-01;31.900328;3;-3.160084;0.0;-9.2288178e-07;0;-0.035173543;  1.0000784E+04;  0.0000000E+00; -4.0731957E-18;  1.0000000E+04;  0.0000000E+00;  9.9999883E+03;-0.03571054;0.0;0.00053699804;8.2434311
  2.3999675E-01;  9.9999998E-03;  2.0000009E-02;1417;-0.0037986874;0.0;8.0913187e-06;1000.0385;  4.0000001E-01;31.900328;3;-3.1660678;0.0;0.0056964383;0;-0.035202317;  1.0000784E+04;  0.0000000E+00;  6.3778677E-11;  1.0000000E+04;  0.0000000E+00;  9.9999873E+03;-0.035780437;0.0;0.00057812018;8.5552692
  2.3999673E-01;  9.9999998E-03;  4.0000018E-02;1418;-0.00381402;0.0;1.7746201e-05;1000.0386;  4.0000001E-01;31.99909;3;-3.1838443;0.0;0.01270976;0;-0.035288107;  1.0000788E+04;  0.0000000E+00; -5.4588421E-12;  1.0000000E+04;  0.0000000E+00;  9.9999844E+03;-0.035988353;0.0;0.00070024555;9.48878
  2.3999672E-01;  9.9999998E-03;  6.0000032E-02;1419;-0.0038389172;0.0;3.0707244e-05;1000.0387;  4.0000001E-01;32.097855;3;-3.2127719;0.0;0.02234708;0;-0.035429128;  1.0000791E+04;  0.0000000E+00; -8.2849456E-11;  1.0000000E+04;  0.0000000E+00;  9.9999814E+03;-0.036328603;0.0;0.0008994753;11.035802
  2.3999670E-01;  9.9999998E-03;  8.0000050E-02;1420;-0.0038722779;0.0;4.827002e-05;1000.0388;  4.0000001E-01;32.196617;3;-3.2517049;0.0;0.035627943;0;-0.035621367;  1.0000800E+04;  0.0000000E+00; -1.3187459E-10;  1.0000000E+04;  0.0000000E+00;  9.9999766E+03;-0.036790445;0.0;0.0011690777;13.177752
  2.3999669E-01;  9.9999998E-03;  1.0000007E-01;1421;-0.0039121904;0.0;7.2247807e-05;1000.0388;  4.0000001E-01;32.196617;3;-3.2987754;0.0;0.053744093;0;-0.035856701;  1.0000809E+04;  0.0000000E+00; -1.0072644E-11;  1.0000000E+04;  0.0000000E+00;  9.9999707E+03;-0.037356719;0.0;0.0015000185;15.884895
  2.3999666E-01;  9.9999998E-03;  1.2000010E-01;1422;-0.0039556976;0.0;0.00010322688;1000.0389;  4.0000001E-01;32.29538;3;-3.3510621;0.0;0.077172332;0;-0.036118235;  1.0000817E+04;  0.0000000E+00;  9.2677324E-12;  1.0000000E+04;  0.0000000E+00;  9.9999629E+03;-0.038002469;0.0;0.0018842341;19.135437
  2.3999664E-01;  9.9999998E-03;  1.4000013E-01;1423;-0.0039981692;0.0;0.00014164197;1000.0391;  4.0000001E-01;32.394142;3;-3.4043884;0.0;0.10528015;0;-0.036370475;  1.0000830E+04;  0.0000000E+00;  2.9865307E-10;  1.0000000E+04;  0.0000000E+00;  9.9999531E+03;-0.038693991;0.0;0.0023235148;22.977255
  2.5999594E-01;  9.9999998E-03; -1.2236574E-13;1447;-0.0045916433;0.0;7.4903084e-11;1000.0472;  4.0000001E-01;39.109997;3;-3.7145443;0.0;5.9877721e-07;0;-0.041834608;  1.0000959E+04;  0.0000000E+00; -1.3019221E-16;  1.0000000E+04;  0.0000000E+00;  9.9999863E+03;-0.042452518;0.0;0.00061791122;9.8440752
  2.5999594E-01;  9.9999998E-03;  2.0000011E-02;1448;-0.0045984625;0.0;9.0152625e-06;1000.0472;  4.0000001E-01;39.109997;3;-3.7220612;0.0;0.007249299;0;-0.041870501;  1.0000961E+04;  0.0000000E+00;  9.6849945E-11;  1.0000000E+04;  0.0000000E+00;  9.9999844E+03;-0.042542424;0.0;0.00067192392;10.249997
  2.5999594E-01;  9.9999998E-03;  4.0000021E-02;1449;-0.0046187453;0.0;2.0180223e-05;1000.0473;  4.0000001E-01;39.208759;3;-3.7444267;0.0;0.016325388;0;-0.041977394;  1.0000966E+04;  0.0000000E+00;  1.2191717E-10;  1.0000000E+04;  0.0000000E+00;  9.9999814E+03;-0.042810287;0.0;0.00083289377;11.470892
  2.5999591E-01;  9.9999998E-03;  6.0000036E-02;1450;-0.0046517802;0.0;3.5734163e-05;1000.0474;  4.0000001E-01;39.307522;3;-3.7808335;0.0;0.028826457;0;-0.042152587;  1.0000974E+04;  0.0000000E+00;  1.2846751E-10;  1.0000000E+04;  0.0000000E+00;  9.9999766E+03;-0.043250017;0.0;0.0010974295;13.513701
  2.5999588E-01;  9.9999998E-03;  8.0000058E-02;1451;-0.0046963594;0.0;5.7603862e-05;1000.0475;  4.0000001E-01;39.307522;3;-3.8300638;0.0;0.046499941;0;-0.04239025;  1.0000982E+04;  0.0000000E+00; -8.0734482E-11;  1.0000000E+04;  0.0000000E+00;  9.9999697E+03;-0.043849885;0.0;0.0014596342;16.384388
  2.5999585E-01;  9.9999998E-03;  1.0000008E-01;1452;-0.0047502015;0.0;8.8344997e-05;1000.0477;  4.0000001E-01;39.505047;3;-3.8898652;0.0;0.070924163;0;-0.042678811;  1.0000995E+04;  0.0000000E+00; -5.1259236E-10;  1.0000000E+04;  0.0000000E+00;  9.9999619E+03;-0.044590604;0.0;0.001911794;20.087774
  2.5999582E-01;  9.9999998E-03;  1.2000012E-01;1453;-0.0048099281;0.0;0.0001284334;1000.048;  4.0000001E-01;39.702572;3;-3.9569914;0.0;0.10212686;0;-0.042995259;  1.0001007E+04;  0.0000000E+00; -2.4426755E-10;  1.0000000E+04;  0.0000000E+00;  9.9999521E+03;-0.045443825;0.0;0.0024485658;24.653133
  2.5999579E-01;  9.9999998E-03;  1.4000016E-01;1454;-0.0048699905;0.0;0.0001796803;1000.048;  4.0000001E-01;39.801334;3;-4.0266123;0.0;0.14084275;0;-0.04329364;  1.0001023E+04;  0.0000000E+00;  2.9103778E-10;  1.0000000E+04;  0.0000000E+00;  9.9999375E+03;-0.046371274;0.0;0.003077632;30.211428
  2.7999499E-01;  9.9999998E-03; -4.1743722E-13;1478;-0.0055368338;0.0;1.5679553e-10;1000.0574;  4.0000001E-01;47.504818;3;-4.3487892;0.0;2.7466208e-06;0;-0.049576059;  1.0001167E+04;  0.0000000E+00;  1.3151660E-16;  1.0000000E+04;  0.0000000E+00;  9.9999844E+03;-0.050280329;0.0;0.00070427032;11.754361
  2.7999496E-01;  9.9999998E-03;  2.0000011E-02;1479;-0.0055457503;0.0;9.661775e-06;1000.0574;  4.0000001E-01;47.60358;3;-4.3581586;0.0;0.0087690158;0;-0.049621228;  1.0001170E+04;  0.0000000E+00;  2.6913619E-10;  1.0000000E+04;  0.0000000E+00;  9.9999824E+03;-0.050394908;0.0;0.00077367888;12.268931
  2.7999496E-01;  9.9999998E-03;  4.0000025E-02;1480;-0.0055723032;0.0;2.2148295e-05;1000.0576;  4.0000001E-01;47.702343;3;-4.3859987;0.0;0.019810198;0;-0.049755406;  1.0001176E+04;  0.0000000E+00;  7.2663535E-11;  1.0000000E+04;  0.0000000E+00;  9.9999785E+03;-0.050736722;0.0;0.00098131469;13.824865
  2.7999493E-01;  9.9999998E-03;  6.0000043E-02;1481;-0.0056157182;0.0;4.0427447e-05;1000.0577;  4.0000001E-01;47.801105;3;-4.4314981;0.0;0.035758127;0;-0.049974333;  1.0001185E+04;  0.0000000E+00;  2.2632328E-11;  1.0000000E+04;  0.0000000E+00;  9.9999727E+03;-0.051299527;0.0;0.0013251927;16.45579
  2.7999490E-01;  9.9999998E-03;  8.0000065E-02;1482;-0.0056746388;0.0;6.7234119e-05;1000.0578;  4.0000001E-01;47.899868;3;-4.4931097;0.0;0.058749616;0;-0.050269097;  1.0001198E+04;  0.0000000E+00; -2.6190447E-10;  1.0000000E+04;  0.0000000E+00;  9.9999629E+03;-0.0520707;0.0;0.0018016031;20.210545
  2.7999485E-01;  9.9999998E-03;  1.0000011E-01;1483;-0.0057463967;0.0;0.00010588609;1000.0582;  4.0000001E-01;48.196156;3;-4.5681891;0.0;0.090558574;0;-0.050623007;  1.0001214E+04;  0.0000000E+00; -8.4740420E-10;  1.0000000E+04;  0.0000000E+00;  9.9999531E+03;-0.053028662;0.0;0.0024056556;25.151821
  2.7999482E-01;  9.9999998E-03;  1.2000015E-01;1484;-0.0058271256;0.0;0.00015707692;1000.0585;  4.0000001E-01;48.393681;3;-4.6531606;0.0;0.1315058;0;-0.051004563;  1.0001233E+04;  0.0000000E+00; -4.7500748E-10;  1.0000000E+04;  0.0000000E+00;  9.9999365E+03;-0.054140314;0.0;0.0031357508;31.384855
  2.7999476E-01;  9.9999998E-03;  1.4000021E-01;1485;-0.0059103514;0.0;0.00022443138;1000.0587;  4.0000001E-01;48.689968;3;-4.7425804;0.0;0.18381044;0;-0.051354811;  1.0001254E+04;  0.0000000E+00;  1.2673350E-10;  1.0000000E+04;  0.0000000E+00;  9.9999209E+03;-0.055359773;0.0;0.0040049623;39.14444
  2.9999381E-01;  9.9999998E-03; -2.1305294E-13;1509;-0.0066517368;0.0;3.5139728e-11;1000.0698;  4.0000001E-01;57.874886;3;-5.0711308;0.0;1.4696266e-06;0;-0.058521952;  1.0001416E+04;  0.0000000E+00; -4.9513205E-16;  1.0000000E+04;  0.0000000E+00;  9.9999814E+03;-0.059323937;0.0;0.00080198364;14.125554
  2.9999378E-01;  9.9999998E-03;  2.0000013E-02;1510;-0.0066633029;0.0;9.8855835e-06;1000.0699;  4.0000001E-01;57.874886;3;-5.0827384;0.0;0.010030705;0;-0.05857956;  1.0001420E+04;  0.0000000E+00;  2.3123409E-10;  1.0000000E+04;  0.0000000E+00;  9.9999785E+03;-0.059468366;0.0;0.0008888052;14.75757
  2.9999378E-01;  9.9999998E-03;  4.0000029E-02;1511;-0.0066977725;0.0;2.334039e-05;1000.0699;  4.0000001E-01;57.973648;3;-5.1171827;0.0;0.022952113;0;-0.058750425;  1.0001426E+04;  0.0000000E+00;  2.6694807E-10;  1.0000000E+04;  0.0000000E+00;  9.9999736E+03;-0.05990003;0.0;0.0011496044;16.680191
  2.9999372E-01;  9.9999998E-03;  6.0000047E-02;1512;-0.0067543527;0.0;4.4377623e-05;1000.0703;  4.0000001E-01;58.269936;3;-5.1735744;0.0;0.042587921;0;-0.059027836;  1.0001439E+04;  0.0000000E+00;  2.4629451E-10;  1.0000000E+04;  0.0000000E+00;  9.9999668E+03;-0.060612872;0.0;0.0015850354;19.96883
  2.9999369E-01;  9.9999998E-03;  8.0000080E-02;1513;-0.0068314937;0.0;7.6433163e-05;1000.0706;  4.0000001E-01;58.467461;3;-5.2499104;0.0;0.071162701;0;-0.059398398;  1.0001458E+04;  0.0000000E+00;  2.2862362E-10;  1.0000000E+04;  0.0000000E+00;  9.9999551E+03;-0.061593771;0.0;0.0021953732;24.738861
  2.9999363E-01;  9.9999998E-03;  1.0000012E-01;1514;-0.0069261673;0.0;0.00012361906;1000.071;  4.0000001E-01;58.862511;3;-5.34339;0.0;0.11123488;0;-0.059838317;  1.0001479E+04;  0.0000000E+00; -3.3986736E-10;  1.0000000E+04;  0.0000000E+00;  9.9999395E+03;-0.062818743;0.0;0.0029804278;31.140532
  2.9999354E-01;  9.9999998E-03;  1.2000018E-01;1515;-0.0070340177;0.0;0.00018799935;1000.0712;  4.0000001E-01;59.060036;3;-5.4499025;0.0;0.16470084;0;-0.060305323;  1.0001506E+04;  0.0000000E+00; -5.7075716E-10;  1.0000000E+04;  0.0000000E+00;  9.9999219E+03;-0.064248644;0.0;0.0039433199;39.38559
  2.9999349E-01;  9.9999998E-03;  1.4000025E-01;1516;-0.0071475096;0.0;0.00027464674;1000.0714;  4.0000001E-01;59.158798;3;-5.5632463;0.0;0.23366278;0;-0.060725044;  1.0001533E+04;  0.0000000E+00; -8.4276447E-11;  1.0000000E+04;  0.0000000E+00;  9.9998965E+03;-0.065826386;0.0;0.0051013413;49.836399
  3.1999236E-01;  9.9999998E-03; -7.1189101E-14;1540;-0.0079623638;0.0;-2.230332e-10;1000.0845;  4.0000001E-01;70.022682;3;-5.8900228;0.0;-1.6902004e-07;0;-0.068793871;  1.0001716E+04;  0.0000000E+00; -6.2555432E-16;  1.0000000E+04;  0.0000000E+00;  9.9999756E+03;-0.069722518;0.0;0.0009286509;17.242874
  3.1999236E-01;  9.9999998E-03;  2.0000013E-02;1541;-0.0079772519;0.0;9.6547719e-06;1000.0845;  4.0000001E-01;70.022682;3;-5.9043264;0.0;0.010765497;0;-0.068868712;  1.0001720E+04;  0.0000000E+00;  1.4172536E-11;  1.0000000E+04;  0.0000000E+00;  9.9999736E+03;-0.069902554;0.0;0.0010338407;17.990929
  3.1999233E-01;  9.9999998E-03;  4.0000029E-02;1542;-0.0080216732;0.0;2.3698341e-05;1000.0847;  4.0000001E-01;70.121445;3;-5.9467268;0.0;0.025190528;0;-0.069090046;  1.0001729E+04;  0.0000000E+00;  2.9935648E-10;  1.0000000E+04;  0.0000000E+00;  9.9999678E+03;-0.070441313;0.0;0.0013512702;20.282555
  3.1999227E-01;  9.9999998E-03;  6.0000055E-02;1543;-0.0080948342;0.0;4.7351437e-05;1000.0851;  4.0000001E-01;70.516495;3;-6.0162072;0.0;0.048668373;0;-0.069447905;  1.0001746E+04;  0.0000000E+00;  4.3131951E-10;  1.0000000E+04;  0.0000000E+00;  9.9999590E+03;-0.071333796;0.0;0.0018858946;24.253714
  3.1999221E-01;  9.9999998E-03;  8.0000088E-02;1544;-0.0081949783;0.0;8.4553489e-05;1000.0855;  4.0000001E-01;70.812782;3;-6.1102319;0.0;0.082786322;0;-0.069922976;  1.0001766E+04;  0.0000000E+00;  2.6155370E-10;  1.0000000E+04;  0.0000000E+00;  9.9999443E+03;-0.072567366;0.0;0.0026443871;30.11582
  3.1999213E-01;  9.9999998E-03;  1.0000014E-01;1545;-0.0083188619;0.0;0.00014135565;1000.0859;  4.0000001E-01;71.207832;3;-6.2258749;0.0;0.13301198;0;-0.070482284;  1.0001795E+04;  0.0000000E+00; -5.8498284E-10;  1.0000000E+04;  0.0000000E+00;  9.9999268E+03;-0.074116074;0.0;0.0036337874;38.144447
  3.1999204E-01;  9.9999998E-03;  1.2000021E-01;1546;-0.0084615573;0.0;0.00022067723;1000.0865;  4.0000001E-01;71.701653;3;-6.3582168;0.0;0.20094015;0;-0.071070239;  1.0001829E+04;  0.0000000E+00; -8.7578372E-10;  1.0000000E+04;  0.0000000E+00;  9.9999023E+03;-0.075933821;0.0;0.0048635863;48.69862
  3.1999192E-01;  9.9999998E-03;  1.4000030E-01;1547;-0.0086142775;0.0;0.00032967335;1000.0869;  4.0000001E-01;71.99794;3;-6.5002208;0.0;0.28975624;0;-0.071594395;  1.0001868E+04;  0.0000000E+00;  3.6013612E-10;  1.0000000E+04;  0.0000000E+00;  9.9998701E+03;-0.077949241;0.0;0.0063548461;62.30545
  3.3999065E-01;  9.9999998E-03; -2.6351095E-13;1571;-0.0094986493;0.0;-1.7772903e-10;1000.1019;  4.0000001E-01;84.442017;3;-6.8141184;0.0;-1.0108351e-07;0;-0.080503672;  1.0002069E+04;  0.0000000E+00; -2.3913474E-16;  1.0000000E+04;  0.0000000E+00;  9.9999697E+03;-0.081626013;0.0;0.0011223407;21.607185
  3.3999062E-01;  9.9999998E-03;  2.0000014E-02;1572;-0.0095176734;0.0;9.2294931e-06;1000.102;  4.0000001E-01;84.540779;3;-6.8316693;0.0;0.010751833;0;-0.080602296;  1.0002072E+04;  0.0000000E+00;  2.1931047E-10;  1.0000000E+04;  0.0000000E+00;  9.9999668E+03;-0.08184737;0.0;0.0012450728;22.455154
  3.3999059E-01;  9.9999998E-03;  4.0000033E-02;1573;-0.0095744804;0.0;2.3682251e-05;1000.1022;  4.0000001E-01;84.738304;3;-6.8836842;0.0;0.026099663;0;-0.080893688;  1.0002084E+04;  0.0000000E+00;  2.3639415E-10;  1.0000000E+04;  0.0000000E+00;  9.9999600E+03;-0.082511112;0.0;0.0016174259;25.074917
  3.3999053E-01;  9.9999998E-03;  6.0000062E-02;1574;-0.0096683372;0.0;4.9875231e-05;1000.1028;  4.0000001E-01;85.133354;3;-6.9688931;0.0;0.053376477;0;-0.081363566;  1.0002104E+04;  0.0000000E+00;  5.4043520E-10;  1.0000000E+04;  0.0000000E+00;  9.9999492E+03;-0.083614387;0.0;0.002250822;29.684858
  3.3999041E-01;  9.9999998E-03;  8.0000103E-02;1575;-0.00979733;0.0;9.219459e-05;1000.1035;  4.0000001E-01;85.725929;3;-7.0842791;0.0;0.093178116;0;-0.08198534;  1.0002134E+04;  0.0000000E+00; -2.6809156E-11;  1.0000000E+04;  0.0000000E+00;  9.9999346E+03;-0.085146874;0.0;0.003161534;36.627338
  3.3999029E-01;  9.9999998E-03;  1.0000016E-01;1576;-0.0099580791;0.0;0.00015923157;1000.104;  4.0000001E-01;86.120979;3;-7.2264118;0.0;0.15533568;0;-0.082714505;  1.0002171E+04;  0.0000000E+00; -5.7240157E-10;  1.0000000E+04;  0.0000000E+00;  9.9999102E+03;-0.087081991;0.0;0.004367487;46.349819
  3.3999017E-01;  9.9999998E-03;  1.2000024E-01;1577;-0.010145037;0.0;0.00025489522;1000.1049;  4.0000001E-01;86.911079;3;-7.3897071;0.0;0.23909879;0;-0.08347936;  1.0002216E+04;  0.0000000E+00; -6.0246874E-10;  1.0000000E+04;  0.0000000E+00;  9.9998799E+03;-0.089367181;0.0;0.0058878176;59.413662
  3.3999002E-01;  9.9999998E-03;  1.4000036E-01;1578;-0.010347941;0.0;0.00038896364;1000.1053;  4.0000001E-01;87.306129;3;-7.5657024;0.0;0.35159397;0;-0.084165677;  1.0002267E+04;  0.0000000E+00;  6.5850925E-10;  1.0000000E+04;  0.0000000E+00;  9.9998398E+03;-0.091914974;0.0;0.0077493;76.573082
  3.5998854E-01;  9.9999998E-03; -8.5436275E-13;1602;-0.011293954;0.0;-2.4741006e-10;1000.1223;  4.0000001E-01;101.33041;3;-7.8520737;0.0;1.1853854e-06;0;-0.093744569;  1.0002488E+04;  0.0000000E+00; -2.6428301E-16;  1.0000000E+04;  0.0000000E+00;  9.9999580E+03;-0.095197894;0.0;0.0014533233;28.040903
  3.5998851E-01;  9.9999998E-03;  2.0000020E-02;1603;-0.011318055;0.0;9.465909e-06;1000.1225;  4.0000001E-01;101.52793;3;-7.873569;0.0;0.010061346;0;-0.093875907;  1.0002493E+04;  0.0000000E+00;  3.0399566E-10;  1.0000000E+04;  0.0000000E+00;  9.9999561E+03;-0.095466122;0.0;0.0015902118;28.954935
  3.5998845E-01;  9.9999998E-03;  4.0000044E-02;1604;-0.011390084;0.0;2.4893783e-05;1000.1229;  4.0000001E-01;101.82422;3;-7.9372134;0.0;0.025750188;0;-0.094263658;  1.0002508E+04;  0.0000000E+00;  2.8925681E-10;  1.0000000E+04;  0.0000000E+00;  9.9999492E+03;-0.09627191;0.0;0.0020082556;31.808945
  3.5998836E-01;  9.9999998E-03;  6.0000073E-02;1605;-0.011509382;0.0;5.3620173e-05;1000.1234;  4.0000001E-01;102.21927;3;-8.0411425;0.0;0.055118822;0;-0.094888806;  1.0002532E+04;  0.0000000E+00;  5.5717268E-11;  1.0000000E+04;  0.0000000E+00;  9.9999355E+03;-0.097616777;0.0;0.002727974;36.926426
  3.5998824E-01;  9.9999998E-03;  8.0000117E-02;1606;-0.011674177;0.0;0.00010171159;1000.1244;  4.0000001E-01;103.00937;3;-8.1825352;0.0;0.10231192;0;-0.09571594;  1.0002568E+04;  0.0000000E+00; -1.0641739E-09;  1.0000000E+04;  0.0000000E+00;  9.9999180E+03;-0.099495254;0.0;0.0037793147;44.817856
  3.5998809E-01;  9.9999998E-03;  1.0000019E-01;1607;-0.011880866;0.0;0.00017936186;1000.1252;  4.0000001E-01;103.79947;3;-8.356267;0.0;0.1773231;0;-0.096686967;  1.0002616E+04;  0.0000000E+00; -2.7812528E-09;  1.0000000E+04;  0.0000000E+00;  9.9998916E+03;-0.10188314;0.0;0.0051961718;56.15443
  3.5998791E-01;  9.9999998E-03;  1.2000029E-01;1608;-0.012123154;0.0;0.00029197143;1000.1263;  4.0000001E-01;104.68833;3;-8.555994;0.0;0.27731761;0;-0.097710885;  1.0002673E+04;  0.0000000E+00; -5.1470579E-09;  1.0000000E+04;  0.0000000E+00;  9.9998555E+03;-0.10472385;0.0;0.0070129666;71.769005
  3.5998771E-01;  9.9999998E-03;  1.4000042E-01;1609;-0.012388831;0.0;0.00045062814;1000.1273;  4.0000001E-01;105.47843;3;-8.7711954;0.0;0.41279247;0;-0.098646149;  1.0002738E+04;  0.0000000E+00; -2.1121431E-09;  1.0000000E+04;  0.0000000E+00;  9.9998057E+03;-0.10791413;0.0;0.0092679774;92.737946
  3.7998599E-01;  9.9999998E-03; -2.0100296E-13;1633;-0.013383308;0.0;7.8791246e-10;1000.1461;  4.0000001E-01;121.0829;3;-9.0120487;0.0;4.2901602e-06;0;-0.10858298;  1.0002982E+04;  0.0000000E+00;  7.0385553E-16;  1.0000000E+04;  0.0000000E+00;  9.9999414E+03;-0.11062117;0.0;0.0020381915;37.811573
  3.7998599E-01;  9.9999998E-03;  2.0000027E-02;1634;-0.013413534;0.0;1.2191388e-05;1000.1464;  4.0000001E-01;121.28043;3;-9.0383139;0.0;0.0092374524;0;-0.1087581;  1.0002987E+04;  0.0000000E+00;  2.2334082E-10;  1.0000000E+04;  0.0000000E+00;  9.9999375E+03;-0.11094075;0.0;0.0021826564;38.741188
  3.7998590E-01;  9.9999998E-03;  4.0000059E-02;1635;-0.013503977;0.0;3.0801155e-05;1000.147;  4.0000001E-01;121.77424;3;-9.1160021;0.0;0.025180675;0;-0.10927578;  1.0003006E+04;  0.0000000E+00;  1.4860344E-10;  1.0000000E+04;  0.0000000E+00;  9.9999316E+03;-0.1119034;0.0;0.002627617;41.684105
  3.7998581E-01;  9.9999998E-03;  6.0000099E-02;1636;-0.013654188;0.0;6.3789092e-05;1000.1478;  4.0000001E-01;122.46558;3;-9.2426624;0.0;0.056863643;0;-0.11011173;  1.0003038E+04;  0.0000000E+00; -1.3188148E-09;  1.0000000E+04;  0.0000000E+00;  9.9999180E+03;-0.11351725;0.0;0.003405527;47.087372
  3.7998563E-01;  9.9999998E-03;  8.0000155E-02;1637;-0.013862604;0.0;0.00011870978;1000.1489;  4.0000001E-01;123.35445;3;-9.41504;0.0;0.11121062;0;-0.11122122;  1.0003082E+04;  0.0000000E+00; -4.3686277E-09;  1.0000000E+04;  0.0000000E+00;  9.9998984E+03;-0.11578583;0.0;0.0045646084;55.660652
  3.7998542E-01;  9.9999998E-03;  1.0000023E-01;1638;-0.01412566;0.0;0.00020702624;1000.1505;  4.0000001E-01;124.63836;3;-9.6264963;0.0;0.19845599;0;-0.11253136;  1.0003139E+04;  0.0000000E+00; -9.1030419E-09;  1.0000000E+04;  0.0000000E+00;  9.9998682E+03;-0.11869239;0.0;0.0061610243;68.345482
  3.7998518E-01;  9.9999998E-03;  1.2000034E-01;1639;-0.01443601;0.0;0.00033628527;1000.1519;  4.0000001E-01;125.82351;3;-9.8684177;0.0;0.31354761;0;-0.11392804;  1.0003212E+04;  0.0000000E+00; -1.5043289E-08;  1.0000000E+04;  0.0000000E+00;  9.9998262E+03;-0.1221806;0.0;0.0082525611;86.320236
  3.7998492E-01;  9.9999998E-03;  1.4000051E-01;1640;-0.014780297;0.0;0.00052045361;1000.1534;  4.0000001E-01;127.10742;3;-10.130816;0.0;0.4784632;0;-0.11523575;  1.0003298E+04;  0.0000000E+00; -8.8093008E-09;  1.0000000E+04;  0.0000000E+00;  9.9997686E+03;-0.12613507;0.0;0.010899319;111.10941
  3.9998296E-01;  9.9999998E-03;  4.9834773E-13;1664;-0.015801789;0.0;3.632879e-10;1000.174;  4.0000001E-01;144.09454;3;-10.30099;0.0;-2.7675342e-06;0;-0.12505013;  1.0003566E+04;  0.0000000E+00; -5.3285493E-16;  1.0000000E+04;  0.0000000E+00;  9.9999121E+03;-0.12810472;0.0;0.0030545869;52.754997
  3.9998293E-01;  9.9999998E-03;  2.0000042E-02;1665;-0.015839264;0.0;2.0625976e-05;1000.1743;  4.0000001E-01;144.39084;3;-10.332949;0.0;0.0095025105;0;-0.12528217;  1.0003574E+04;  0.0000000E+00;  1.3674406E-10;  1.0000000E+04;  0.0000000E+00;  9.9999111E+03;-0.12847884;0.0;0.0031966679;53.641663
  3.9998287E-01;  9.9999998E-03;  4.0000089E-02;1666;-0.015951563;0.0;4.76196e-05;1000.1748;  4.0000001E-01;144.78589;3;-10.427531;0.0;0.026836526;0;-0.12596905;  1.0003596E+04;  0.0000000E+00; -4.9455673E-10;  1.0000000E+04;  0.0000000E+00;  9.9999043E+03;-0.1296085;0.0;0.0036394377;56.499699
  3.9998272E-01;  9.9999998E-03;  6.0000144E-02;1667;-0.016138611;0.0;8.9115179e-05;1000.1761;  4.0000001E-01;145.87227;3;-10.581512;0.0;0.061876241;0;-0.12708235;  1.0003632E+04;  0.0000000E+00; -4.3206487E-09;  1.0000000E+04;  0.0000000E+00;  9.9998906E+03;-0.13151208;0.0;0.0044297203;61.905342
  3.9998251E-01;  9.9999998E-03;  8.0000214E-02;1668;-0.016399294;0.0;0.00015372966;1000.1777;  4.0000001E-01;147.25494;3;-10.790801;0.0;0.12368996;0;-0.12856913;  1.0003686E+04;  0.0000000E+00; -1.0013959E-08;  1.0000000E+04;  0.0000000E+00;  9.9998691E+03;-0.13420725;0.0;0.0056381221;70.777588
  3.9998224E-01;  9.9999998E-03;  1.0000031E-01;1669;-0.01673042;0.0;0.00025401008;1000.1796;  4.0000001E-01;148.83514;3;-11.0471;0.0;0.22362429;0;-0.13034147;  1.0003756E+04;  0.0000000E+00; -2.2309800E-08;  1.0000000E+04;  0.0000000E+00;  9.9998359E+03;-0.13769086;0.0;0.0073493859;84.349533
  3.9998192E-01;  9.9999998E-03;  1.2000043E-01;1670;-0.017123945;0.0;0.00040069636;1000.1819;  4.0000001E-01;150.71164;3;-11.339683;0.0;0.35687527;0;-0.13226035;  1.0003846E+04;  0.0000000E+00; -3.2700893E-08;  1.0000000E+04;  0.0000000E+00;  9.9997920E+03;-0.14191446;0.0;0.0096541094;104.2026
  3.9998156E-01;  9.9999998E-03;  1.4000061E-01;1671;-0.017565351;0.0;0.00060938013;1000.184;  4.0000001E-01;152.39061;3;-11.656463;0.0;0.5498507;0;-0.13410825;  1.0003955E+04;  0.0000000E+00; -3.0947856E-08;  1.0000000E+04;  0.0000000E+00;  9.9997256E+03;-0.14675723;0.0;0.012648985;132.44777
  4.1997936E-01;  9.9999998E-03; -1.2198290E-12;1695;-0.018585639;0.0;-2.4703093e-09;1000.2059;  4.0000001E-01;170.56287;3;-11.724436;0.0;-6.1037144e-06;0;-0.14312623;  1.0004252E+04;  0.0000000E+00;  6.0196736E-16;  1.0000000E+04;  0.0000000E+00;  9.9998672E+03;-0.14787944;0.0;0.0047532013;75.363152
  4.1997933E-01;  9.9999998E-03;  2.0000072E-02;1696;-0.01863149;0.0;3.9804188e-05;1000.2062;  4.0000001E-01;170.85915;3;-11.763077;0.0;0.013087949;0;-0.14342876;  1.0004262E+04;  0.0000000E+00; -5.0730298E-10;  1.0000000E+04;  0.0000000E+00;  9.9998643E+03;-0.14830896;0.0;0.0048802118;76.160011
  4.1997921E-01;  9.9999998E-03;  4.0000144E-02;1697;-0.01876921;0.0;8.5307729e-05;1000.2072;  4.0000001E-01;171.64925;3;-11.877823;0.0;0.035473395;0;-0.14432678;  1.0004285E+04;  0.0000000E+00; -2.6971116E-09;  1.0000000E+04;  0.0000000E+00;  9.9998574E+03;-0.1496098;0.0;0.0052830218;78.786774
  4.1997904E-01;  9.9999998E-03;  6.0000226E-02;1698;-0.018999279;0.0;0.0001438887;1000.2087;  4.0000001E-01;172.93317;3;-12.064374;0.0;0.076735161;0;-0.14579013;  1.0004330E+04;  0.0000000E+00; -6.7690653E-09;  1.0000000E+04;  0.0000000E+00;  9.9998467E+03;-0.15181386;0.0;0.0060237357;83.930191
  4.1997880E-01;  9.9999998E-03;  8.0000319E-02;1699;-0.019321445;0.0;0.00022459115;1000.2109;  4.0000001E-01;174.71088;3;-12.317335;0.0;0.14743468;0;-0.14776103;  1.0004394E+04;  0.0000000E+00; -1.6946489E-08;  1.0000000E+04;  0.0000000E+00;  9.9998242E+03;-0.15495826;0.0;0.0071972269;92.687073
  4.1997847E-01;  9.9999998E-03;  1.0000043E-01;1700;-0.019733507;0.0;0.00034083024;1000.2136;  4.0000001E-01;176.98242;3;-12.626532;0.0;0.26095834;0;-0.15014078;  1.0004479E+04;  0.0000000E+00; -3.6935269E-08;  1.0000000E+04;  0.0000000E+00;  9.9997949E+03;-0.15906145;0.0;0.0089206696;106.54856
  4.1997805E-01;  9.9999998E-03;  1.2000058E-01;1701;-0.020227315;0.0;0.00050686265;1000.2167;  4.0000001E-01;179.55025;3;-12.978539;0.0;0.41456559;0;-0.15276591;  1.0004589E+04;  0.0000000E+00; -5.9982455E-08;  1.0000000E+04;  0.0000000E+00;  9.9997451E+03;-0.1640919;0.0;0.011325991;127.50303
  4.1997755E-01;  9.9999998E-03;  1.4000079E-01;1702;-0.020787552;0.0;0.0007386264;1000.2198;  4.0000001E-01;182.11807;3;-13.358876;0.0;0.63304436;0;-0.15537064;  1.0004720E+04;  0.0000000E+00; -6.1169970E-08;  1.0000000E+04;  0.0000000E+00;  9.9996738E+03;-0.16993487;0.0;0.014564229;158.35928
  4.3997508E-01;  9.9999998E-03; -1.7040397E-12;1726;-0.021777559;0.0;-1.4425638e-09;1000.2426;  4.0000001E-01;200.98164;3;-13.286946;0.0;3.6815127e-06;0;-0.16268818;  1.0005057E+04;  0.0000000E+00; -1.3905837E-15;  1.0000000E+04;  0.0000000E+00;  9.9997988E+03;-0.17015055;0.0;0.0074623725;108.79025
  4.3997505E-01;  9.9999998E-03;  2.0000121E-02;1727;-0.021832904;0.0;7.7255812e-05;1000.2429;  4.0000001E-01;201.27792;3;-13.333449;0.0;0.024415426;0;-0.16307342;  1.0005064E+04;  0.0000000E+00; -4.9420545E-10;  1.0000000E+04;  0.0000000E+00;  9.9997969E+03;-0.17063431;0.0;0.0075608939;109.49655
  4.3997490E-01;  9.9999998E-03;  4.0000245E-02;1728;-0.021999504;0.0;0.00015835307;1000.2443;  4.0000001E-01;202.3643;3;-13.471913;0.0;0.058785323;0;-0.16422063;  1.0005094E+04;  0.0000000E+00; -3.4135363E-09;  1.0000000E+04;  0.0000000E+00;  9.9997910E+03;-0.17210342;0.0;0.0078827823;111.87191
  4.3997470E-01;  9.9999998E-03;  6.0000367E-02;1729;-0.02227873;0.0;0.00024945129;1000.2462;  4.0000001E-01;203.9445;3;-13.696722;0.0;0.11256422;0;-0.16610259;  1.0005144E+04;  0.0000000E+00; -7.1827357E-09;  1.0000000E+04;  0.0000000E+00;  9.9997822E+03;-0.17460591;0.0;0.0085033234;116.65759
  4.3997437E-01;  9.9999998E-03;  8.0000497E-02;1730;-0.022671865;0.0;0.0003585658;1000.2489;  4.0000001E-01;206.21605;3;-14.000704;0.0;0.19597593;0;-0.16866459;  1.0005217E+04;  0.0000000E+00; -1.9937209E-08;  1.0000000E+04;  0.0000000E+00;  9.9997607E+03;-0.17820334;0.0;0.0095387613;125.03117
  4.3997395E-01;  9.9999998E-03;  1.0000064E-01;1731;-0.023178417;0.0;0.00049958157;1000.2523;  4.0000001E-01;209.08015;3;-14.371885;0.0;0.32540777;0;-0.17180601;  1.0005318E+04;  0.0000000E+00; -4.6766132E-08;  1.0000000E+04;  0.0000000E+00;  9.9997295E+03;-0.18294278;0.0;0.01113677;138.61804
  4.3997341E-01;  9.9999998E-03;  1.2000082E-01;1732;-0.023791501;0.0;0.00068979483;1000.2565;  4.0000001E-01;212.53685;3;-14.793093;0.0;0.50009257;0;-0.175346;  1.0005451E+04;  0.0000000E+00; -8.7113719E-08;  1.0000000E+04;  0.0000000E+00;  9.9996797E+03;-0.1888203;0.0;0.013474306;159.71284
  4.3997279E-01;  9.9999998E-03;  1.4000106E-01;1733;-0.024494959;0.0;0.00094490487;1000.2607;  4.0000001E-01;215.99353;3;-15.24684;0.0;0.74125385;0;-0.17896771;  1.0005609E+04;  0.0000000E+00; -1.0276293E-07;  1.0000000E+04;  0.0000000E+00;  9.9996074E+03;-0.19574143;0.0;0.016773721;191.84792
  4.5996997E-01;  9.9999998E-03;  2.4296195E-13;1757;-0.025434403;0.0;3.677631e-10;1000.2847;  4.0000045E-01;235.84465;3;-14.993271;0.0;1.4906955e-06;0;-0.18337342;  1.0005979E+04;  0.0000000E+00; -3.1947237E-16;  1.0000000E+04;  0.0000000E+00;  9.9996963E+03;-0.19495244;0.0;0.011579022;156.71809
  4.5996994E-01;  9.9999998E-03;  2.0000203E-02;1758;-0.025500253;0.0;0.00014326234;1000.2852;  4.0000039E-01;236.33846;3;-15.049106;0.0;0.049525388;0;-0.18384847;  1.0005989E+04;  0.0000000E+00; -1.8019662E-10;  1.0000000E+04;  0.0000000E+00;  9.9996963E+03;-0.19548704;0.0;0.011638573;157.42876
  4.5996979E-01;  9.9999998E-03;  4.0000401E-02;1759;-0.025698861;0.0;0.00028770961;1000.2865;  4.0000039E-01;237.32608;3;-15.214884;0.0;0.10996235;0;-0.1852688;  1.0006021E+04;  0.0000000E+00; -1.2438577E-09;  1.0000000E+04;  0.0000000E+00;  9.9996924E+03;-0.19711465;0.0;0.011845837;159.80388
  4.5996952E-01;  9.9999998E-03;  6.0000598E-02;1760;-0.026032893;0.0;0.00043603827;1000.2889;  4.0000036E-01;239.4001;3;-15.483737;0.0;0.18725759;0;-0.18761761;  1.0006078E+04;  0.0000000E+00; -5.8473555E-09;  1.0000000E+04;  0.0000000E+00;  9.9996797E+03;-0.19990005;0.0;0.012282435;164.53308
  4.5996913E-01;  9.9999998E-03;  8.0000795E-02;1761;-0.026506118;0.0;0.00059425342;1000.2922;  4.0000039E-01;242.06668;3;-15.846618;0.0;0.29079604;0;-0.19085646;  1.0006162E+04;  0.0000000E+00; -1.7033569E-08;  1.0000000E+04;  0.0000000E+00;  9.9996641E+03;-0.20393179;0.0;0.013075342;172.68962
  4.5996863E-01;  9.9999998E-03;  1.0000100E-01;1762;-0.02712067;0.0;0.00077681494;1000.2966;  4.0000039E-01;245.72089;3;-16.288839;0.0;0.44052005;0;-0.19489872;  1.0006280E+04;  0.0000000E+00; -4.0722622E-08;  1.0000000E+04;  0.0000000E+00;  9.9996338E+03;-0.20928964;0.0;0.014390915;185.78319
  4.5996794E-01;  9.9999998E-03;  1.2000123E-01;1763;-0.027872257;0.0;0.0010025088;1000.3019;  4.0000045E-01;250.06644;3;-16.789101;0.0;0.64206767;0;-0.19956237;  1.0006435E+04;  0.0000000E+00; -8.8818254E-08;  1.0000000E+04;  0.0000000E+00;  9.9995869E+03;-0.2160071;0.0;0.016444728;206.15558
  4.5996714E-01;  9.9999998E-03;  1.4000152E-01;1764;-0.028745856;0.0;0.0012865055;1000.308;  4.0000048E-01;255.20209;3;-17.327295;0.0;0.89722002;0;-0.20448665;  1.0006625E+04;  0.0000000E+00; -1.2448658E-07;  1.0000000E+04;  0.0000000E+00;  9.9995146E+03;-0.2240275;0.0;0.01954085;237.94133
  4.7996390E-01;  9.9999998E-03;  2.2191540E-13;1788;-0.029631656;0.0;-6.6344036e-10;1000.3312;  4.0000123E-01;274.46054;3;-16.850355;0.0;-2.0576508e-06;0;-0.20432451;  1.0007015E+04;  0.0000000E+00;  4.0444296E-16;  1.0000000E+04;  0.0000000E+00;  9.9995566E+03;-0.2218665;0.0;0.017541984;223.02507
  4.7996384E-01;  9.9999998E-03;  2.0000322E-02;1789;-0.029708765;0.0;0.00025112179;1000.3317;  4.0000120E-01;274.75684;3;-16.916864;0.0;0.10006808;0;-0.20488693;  1.0007025E+04;  0.0000000E+00; -1.0875795E-10;  1.0000000E+04;  0.0000000E+00;  9.9995537E+03;-0.22244735;0.0;0.017560419;223.99303
  4.7996366E-01;  9.9999998E-03;  4.0000640E-02;1790;-0.029941699;0.0;0.00049803423;1000.3333;  4.0000123E-01;276.1395;3;-17.113331;0.0;0.20684052;0;-0.20657681;  1.0007061E+04;  0.0000000E+00;  1.0169313E-09;  1.0000000E+04;  0.0000000E+00;  9.9995469E+03;-0.22421886;0.0;0.017642055;227.07333
  4.7996336E-01;  9.9999998E-03;  6.0000949E-02;1791;-0.030334968;0.0;0.0007396728;1000.3359;  4.0000126E-01;278.31229;3;-17.431257;0.0;0.32291478;0;-0.20939916;  1.0007126E+04;  0.0000000E+00;  5.9403471E-10;  1.0000000E+04;  0.0000000E+00;  9.9995352E+03;-0.22726075;0.0;0.017861584;232.73746
  4.7996289E-01;  9.9999998E-03;  8.0001257E-02;1792;-0.030895872;0.0;0.00098087476;1000.3397;  4.0000120E-01;281.47266;3;-17.860218;0.0;0.46247715;0;-0.21335;  1.0007221E+04;  0.0000000E+00;  3.0303438E-09;  1.0000000E+04;  0.0000000E+00;  9.9995146E+03;-0.23168534;0.0;0.01833535;241.66403
  4.7996226E-01;  9.9999998E-03;  1.0000156E-01;1793;-0.031630989;0.0;0.0012339586;1000.345;  4.0000126E-01;285.81821;3;-18.382517;0.0;0.63920712;0;-0.21838401;  1.0007354E+04;  0.0000000E+00; -5.0348548E-09;  1.0000000E+04;  0.0000000E+00;  9.9994902E+03;-0.23760645;0.0;0.019222433;254.84326
  4.7996143E-01;  9.9999998E-03;  1.2000189E-01;1794;-0.032540474;0.0;0.0015182238;1000.3516;  4.0000117E-01;291.34891;3;-18.975147;0.0;0.87028414;0;-0.22434421;  1.0007529E+04;  0.0000000E+00; -2.3311884E-08;  1.0000000E+04;  0.0000000E+00;  9.9994492E+03;-0.24509937;0.0;0.020755162;274.21445
  4.7996041E-01;  9.9999998E-03;  1.4000225E-01;1795;-0.033609901;0.0;0.0018469471;1000.3595;  4.0000123E-01;297.86722;3;-19.605778;0.0;1.1382388;0;-0.23084399;  1.0007752E+04;  0.0000000E+00; -3.0247623E-08;  1.0000000E+04;  0.0000000E+00;  9.9993809E+03;-0.25416055;0.0;0.023316564;304.20309
  4.9995661E-01;  9.9999998E-03;  6.8387787E-13;1819;-0.03445771;0.0;7.8551221e-10;1000.3807;  4.0000287E-01;315.34784;3;-18.868303;0.0;2.486629e-06;0;-0.22385496;  1.0008115E+04;  0.0000000E+00; -2.4142819E-15;  1.0000000E+04;  0.0000000E+00;  9.9993613E+03;-0.24964517;0.0;0.025790222;311.2569
  4.9995652E-01;  9.9999998E-03;  2.0000493E-02;1820;-0.034546349;0.0;0.0004104703;1000.3812;  4.0000284E-01;315.84164;3;-18.945478;0.0;0.18301849;0;-0.22448823;  1.0008126E+04;  0.0000000E+00;  8.2786250E-10;  1.0000000E+04;  0.0000000E+00;  9.9993604E+03;-0.25026795;0.0;0.025779724;312.96173
  4.9995634E-01;  9.9999998E-03;  4.0000983E-02;1821;-0.034814786;0.0;0.00081253215;1000.3824;  4.0000284E-01;316.82928;3;-19.174164;0.0;0.36562896;0;-0.22640297;  1.0008166E+04;  0.0000000E+00;  3.8894190E-09;  1.0000000E+04;  0.0000000E+00;  9.9993506E+03;-0.25216812;0.0;0.025765149;318.10895
  4.9995598E-01;  9.9999998E-03;  6.0001459E-02;1822;-0.035270441;0.0;0.001201127;1000.3853;  4.0000272E-01;319.19958;3;-19.545692;0.0;0.54966784;0;-0.22964133;  1.0008236E+04;  0.0000000E+00;  1.7839206E-08;  1.0000000E+04;  0.0000000E+00;  9.9993330E+03;-0.25543454;0.0;0.025793206;326.71628
  4.9995545E-01;  9.9999998E-03;  8.0001928E-02;1823;-0.035924926;0.0;0.001576732;1000.3893;  4.0000269E-01;322.5575;3;-20.047022;0.0;0.74439871;0;-0.23426041;  1.0008342E+04;  0.0000000E+00;  5.8964964E-08;  1.0000000E+04;  0.0000000E+00;  9.9993096E+03;-0.260196;0.0;0.025935594;338.65778
  4.9995467E-01;  9.9999998E-03;  1.0000241E-01;1824;-0.036790613;0.0;0.0019484417;1000.3953;  4.0000278E-01;327.49561;3;-20.657492;0.0;0.96153462;0;-0.24029003;  1.0008491E+04;  0.0000000E+00;  1.4339601E-07;  1.0000000E+04;  0.0000000E+00;  9.9992783E+03;-0.26659203;0.0;0.026301991;353.84546
  4.9995369E-01;  9.9999998E-03;  1.2000289E-01;1825;-0.037873432;0.0;0.0023295935;1000.4032;  4.0000278E-01;334.01392;3;-21.349766;0.0;1.2133193;0;-0.24763775;  1.0008688E+04;  0.0000000E+00;  2.8571904E-07;  1.0000000E+04;  0.0000000E+00;  9.9992373E+03;-0.27473798;0.0;0.027100231;373.18723
  4.9995241E-01;  9.9999998E-03;  1.4000340E-01;1826;-0.039162774;0.0;0.0027372073;1000.4128;  4.0000275E-01;342.01364;3;-22.086939;0.0;1.5174394;0;-0.25592157;  1.0008940E+04;  0.0000000E+00;  4.6565779E-07;  1.0000000E+04;  0.0000000E+00;  9.9991787E+03;-0.28469327;0.0;0.028771704;400.95966
  5.1994795E-01;  9.9999998E-03; -1.1025299E-12;1850;-0.039990231;0.0;-3.0238823e-09;1000.4341;  4.0000778E-01;359.69159;3;-21.060839;0.0;-4.9277887e-06;0;-0.23918825;  1.0009181E+04;  0.0000000E+00;  1.3193100E-15;  1.0000000E+04;  0.0000000E+00;  9.9991133E+03;-0.27590033;0.0;0.03671208;424.01205
  5.1994783E-01;  9.9999998E-03;  2.0000724E-02;1851;-0.040090777;0.0;0.00063185778;1000.4346;  4.0000775E-01;359.98788;3;-21.149311;0.0;0.31135657;0;-0.23985851;  1.0009194E+04;  0.0000000E+00;  2.8559091E-09;  1.0000000E+04;  0.0000000E+00;  9.9991064E+03;-0.27656269;0.0;0.036704183;427.22375
  5.1994765E-01;  9.9999998E-03;  4.0001445E-02;1852;-0.040395912;0.0;0.0012521915;1000.4357;  4.0000778E-01;360.97552;3;-21.41127;0.0;0.61457735;0;-0.24190176;  1.0009238E+04;  0.0000000E+00;  1.9141092E-08;  1.0000000E+04;  0.0000000E+00;  9.9990898E+03;-0.27858019;0.0;0.036678441;436.64542
  5.1994723E-01;  9.9999998E-03;  6.0002163E-02;1853;-0.040915713;0.0;0.0018535559;1000.4381;  4.0000790E-01;362.95074;3;-21.836565;0.0;0.90283251;0;-0.24541658;  1.0009316E+04;  0.0000000E+00;  7.8046575E-08;  1.0000000E+04;  0.0000000E+00;  9.9990596E+03;-0.28204173;0.0;0.036625139;451.52405
  5.1994658E-01;  9.9999998E-03;  8.0002882E-02;1854;-0.041667193;0.0;0.002435796;1000.4421;  4.0000775E-01;366.30865;3;-22.411312;0.0;1.1844419;0;-0.25055215;  1.0009433E+04;  0.0000000E+00;  2.3807011E-07;  1.0000000E+04;  0.0000000E+00;  9.9990234E+03;-0.28707734;0.0;0.036525182;470.39999
  5.1994568E-01;  9.9999998E-03;  1.0000361E-01;1855;-0.042670865;0.0;0.0029958158;1000.4485;  4.0000778E-01;371.54306;3;-23.114704;0.0;1.4627424;0;-0.25745609;  1.0009598E+04;  0.0000000E+00;  5.8411729E-07;  1.0000000E+04;  0.0000000E+00;  9.9989814E+03;-0.29383692;0.0;0.036380839;491.42044
  5.1994449E-01;  9.9999998E-03;  1.2000435E-01;1856;-0.043938562;0.0;0.0035426335;1000.4572;  4.0000778E-01;378.75269;3;-23.911318;0.0;1.7510527;0;-0.26614857;  1.0009815E+04;  0.0000000E+00;  1.1633787E-06;  1.0000000E+04;  0.0000000E+00;  9.9989375E+03;-0.30246457;0.0;0.036315996;513.78809
  5.1994294E-01;  9.9999998E-03;  1.4000511E-01;1857;-0.045463413;0.0;0.0040818588;1000.4684;  4.0000775E-01;388.1351;3;-24.759058;0.0;2.0648406;0;-0.2762869;  1.0010096E+04;  0.0000000E+00;  1.9060438E-06;  1.0000000E+04;  0.0000000E+00;  9.9988838E+03;-0.31308135;0.0;0.036794461;541.31335
  5.3993779E-01;  9.9999998E-03; -1.2412233E-12;1881;-0.046259422;0.0;3.3258638e-09;1000.4955;  4.0002084E-01;410.55331;3;-23.427732;0.0;1.2387049e-05;0;-0.24644189;  1.0010067E+04;  0.0000000E+00; -4.6649985E-16;  1.0000000E+04;  0.0000000E+00;  9.9988018E+03;-0.29704577;0.0;0.050603878;562.4953
  5.3993773E-01;  9.9999998E-03;  2.0001017E-02;1882;-0.046372432;0.0;0.00092445523;1000.4957;  4.0002072E-01;410.65207;3;-23.527142;0.0;0.4985792;0;-0.24709353;  1.0010085E+04;  0.0000000E+00;  1.2273649E-08;  1.0000000E+04;  0.0000000E+00;  9.9987900E+03;-0.29774657;0.0;0.050653037;568.32495
  5.3993750E-01;  9.9999998E-03;  4.0002037E-02;1883;-0.04671593;0.0;0.0018359002;1000.4965;  4.0002072E-01;411.34341;3;-23.823059;0.0;0.97247976;0;-0.24910641;  1.0010136E+04;  0.0000000E+00;  6.5607111E-08;  1.0000000E+04;  0.0000000E+00;  9.9987549E+03;-0.29987422;0.0;0.050767809;585.22253
  5.3993702E-01;  9.9999998E-03;  6.0003068E-02;1884;-0.047302958;0.0;0.0027253891;1000.4983;  4.0002078E-01;412.82483;3;-24.306175;0.0;1.4156699;0;-0.25265509;  1.0010220E+04;  0.0000000E+00;  2.3295077E-07;  1.0000000E+04;  0.0000000E+00;  9.9987061E+03;-0.30350175;0.0;0.050846681;611.25873
  5.3993630E-01;  9.9999998E-03;  8.0004126E-02;1885;-0.048155665;0.0;0.00358955;1000.5016;  4.0002075E-01;415.59018;3;-24.95685;0.0;1.8218981;0;-0.25801861;  1.0010348E+04;  0.0000000E+00;  6.7702831E-07;  1.0000000E+04;  0.0000000E+00;  9.9986436E+03;-0.30874205;0.0;0.050723426;642.99933
  5.3993523E-01;  9.9999998E-03;  1.0000522E-01;1886;-0.04929987;0.0;0.0044310624;1000.5074;  4.0002069E-01;420.33075;3;-25.749861;0.0;2.2001438;0;-0.26550958;  1.0010530E+04;  0.0000000E+00;  1.5993106E-06;  1.0000000E+04;  0.0000000E+00;  9.9985781E+03;-0.31573287;0.0;0.050223287;676.1145
  5.3993386E-01;  9.9999998E-03;  1.2000635E-01;1887;-0.050756805;0.0;0.005245131;1000.5164;  4.0002072E-01;427.83664;3;-26.65102;0.0;2.54368;0;-0.2753045;  1.0010767E+04;  0.0000000E+00;  3.0493327E-06;  1.0000000E+04;  0.0000000E+00;  9.9985186E+03;-0.324626;0.0;0.049321495;707.70721
  5.3993201E-01;  9.9999998E-03;  1.4000751E-01;1888;-0.052523322;0.0;0.0060155634;1000.5284;  4.0002063E-01;437.71286;3;-27.607985;0.0;2.8636236;0;-0.2871159;  1.0011070E+04;  0.0000000E+00;  4.6685309E-06;  1.0000000E+04;  0.0000000E+00;  9.9984580E+03;-0.33558512;0.0;0.048469223;741.50012
  5.5992645E-01;  9.9999998E-03; -2.7543087E-12;1912;-0.05316747;0.0;2.5401761e-09;1000.5906;  4.0005583E-01;489.36414;3;-25.939295;0.0;1.0879639e-05;0;-0.24082878;  1.0010588E+04;  0.0000000E+00; -3.0305380E-15;  1.0000000E+04;  0.0000000E+00;  9.9984258E+03;-0.3084918;0.0;0.067663014;726.44678
  5.5992633E-01;  9.9999998E-03;  2.0001380E-02;1913;-0.053294852;0.0;0.0012912342;1000.5906;  4.0005589E-01;489.26538;3;-26.052219;0.0;0.71968478;0;-0.24137893;  1.0010607E+04;  0.0000000E+00;  2.4230673E-08;  1.0000000E+04;  0.0000000E+00;  9.9984082E+03;-0.30922753;0.0;0.0678486;736.38055
  5.5992609E-01;  9.9999998E-03;  4.0002778E-02;1914;-0.053680904;0.0;0.0025756275;1000.5903;  4.0005592E-01;489.06787;3;-26.384249;0.0;1.421814;0;-0.24312007;  1.0010661E+04;  0.0000000E+00;  1.3586923E-07;  1.0000000E+04;  0.0000000E+00;  9.9983467E+03;-0.31144857;0.0;0.0683285;765.04663
  5.5992556E-01;  9.9999998E-03;  6.0004216E-02;1915;-0.05433863;0.0;0.0038474195;1000.5907;  4.0005586E-01;489.36414;3;-26.923576;0.0;2.0815542;0;-0.2463294;  1.0010754E+04;  0.0000000E+00;  4.8904099E-07;  1.0000000E+04;  0.0000000E+00;  9.9982607E+03;-0.31519783;0.0;0.068868428;808.84967
  5.5992472E-01;  9.9999998E-03;  8.0005720E-02;1916;-0.055295315;0.0;0.0050998395;1000.5923;  4.0005580E-01;490.74683;3;-27.651461;0.0;2.6777349;0;-0.25145766;  1.0010894E+04;  0.0000000E+00;  1.4143111E-06;  1.0000000E+04;  0.0000000E+00;  9.9981543E+03;-0.32054833;0.0;0.069090657;861.67358
  5.5992353E-01;  9.9999998E-03;  1.0000730E-01;1917;-0.056584094;0.0;0.0063240803;1000.5968;  4.0005589E-01;494.401;3;-28.532106;0.0;3.1937704;0;-0.25902769;  1.0011088E+04;  0.0000000E+00;  3.2541850E-06;  1.0000000E+04;  0.0000000E+00;  9.9980488E+03;-0.32759991;0.0;0.068572231;916.18658
  5.5992192E-01;  9.9999998E-03;  1.2000898E-01;1918;-0.058232263;0.0;0.0075156824;1000.6045;  4.0005583E-01;500.8205;3;-29.526001;0.0;3.6389079;0;-0.26938891;  1.0011339E+04;  0.0000000E+00;  5.8541877E-06;  1.0000000E+04;  0.0000000E+00;  9.9979541E+03;-0.33648029;0.0;0.067091376;967.75317
  5.5991977E-01;  9.9999998E-03;  1.4001071E-01;1919;-0.06023879;0.0;0.0086468924;1000.6156;  4.0005577E-01;510.00534;3;-30.586853;0.0;3.995517;0;-0.28229505;  1.0011661E+04;  0.0000000E+00;  8.0357977E-06;  1.0000000E+04;  0.0000000E+00;  9.9978545E+03;-0.34735835;0.0;0.065063283;1021.5313
  5.7991439E-01;  9.9999998E-03; -3.6754589E-13;1943;-0.060434725;0.0;2.9331104e-09;1000.7971;  4.0014899E-01;660.31836;3;-28.550398;0.0;1.4578422e-05;0;-0.21630082;  1.0010493E+04;  0.0000000E+00; -9.0741179E-16;  1.0000000E+04;  0.0000000E+00;  9.9979883E+03;-0.30431628;0.0;0.088015467;914.34998
  5.7991427E-01;  9.9999998E-03;  2.0001790E-02;1944;-0.060578126;0.0;0.0017110863;1000.7964;  4.0014893E-01;659.82458;3;-28.671799;0.0;0.9970296;0;-0.21662974;  1.0010513E+04;  0.0000000E+00;  1.8647603E-08;  1.0000000E+04;  0.0000000E+00;  9.9979561E+03;-0.30507168;0.0;0.088441938;930.25781
  5.7991397E-01;  9.9999998E-03;  4.0003624E-02;1945;-0.061010547;0.0;0.00342738;1000.7947;  4.0014899E-01;658.44189;3;-29.038002;0.0;1.971094;0;-0.2177507;  1.0010572E+04;  0.0000000E+00;  1.5205742E-07;  1.0000000E+04;  0.0000000E+00;  9.9978623E+03;-0.30733716;0.0;0.089586459;976.1087
  5.7991338E-01;  9.9999998E-03;  6.0005546E-02;1946;-0.061744045;0.0;0.0051563247;1000.7926;  4.0014893E-01;656.66425;3;-29.629078;0.0;2.8955224;0;-0.22007622;  1.0010672E+04;  0.0000000E+00;  6.8958434E-07;  1.0000000E+04;  0.0000000E+00;  9.9977178E+03;-0.31111437;0.0;0.091038153;1046.0897
  5.7991242E-01;  9.9999998E-03;  8.0007605E-02;1947;-0.062805422;0.0;0.006895259;1000.7913;  4.0014893E-01;655.57782;3;-30.42071;0.0;3.7363157;0;-0.22427601;  1.0010819E+04;  0.0000000E+00;  2.1817652E-06;  1.0000000E+04;  0.0000000E+00;  9.9975469E+03;-0.31641832;0.0;0.092142321;1130.741
  5.7991105E-01;  9.9999998E-03;  1.0000983E-01;1948;-0.064237013;0.0;0.0086329263;1000.7926;  4.0014893E-01;656.66425;3;-31.376106;0.0;4.458487;0;-0.23111784;  1.0011019E+04;  0.0000000E+00;  4.9966397E-06;  1.0000000E+04;  0.0000000E+00;  9.9973711E+03;-0.32328472;0.0;0.092166863;1219.6383
  5.7990921E-01;  9.9999998E-03;  1.2001222E-01;1949;-0.066073798;0.0;0.010341028;1000.7971;  4.0014893E-01;660.41718;3;-32.444817;0.0;5.0281954;0;-0.24111679;  1.0011276E+04;  0.0000000E+00;  8.3024488E-06;  1.0000000E+04;  0.0000000E+00;  9.9972041E+03;-0.33178157;0.0;0.090664782;1307.7909
  5.7990676E-01;  9.9999998E-03;  1.4001474E-01;1950;-0.068312675;0.0;0.011961835;1000.804;  4.0014896E-01;666.14532;3;-33.576225;0.0;5.4600015;0;-0.25405568;  1.0011602E+04;  0.0000000E+00;  9.0496032E-06;  1.0000000E+04;  0.0000000E+00;  9.9970205E+03;-0.34202728;0.0;0.087971598;1404.2761
  5.9990257E-01;  9.9999998E-03;  3.3929179E-12;1974;-0.06757009;0.0;-1.3622059e-09;1001.3128;  4.0038556E-01;1087.6539;3;-31.120457;0.0;-8.7648368e-06;0;-0.16444057;  1.0009481E+04;  0.0000000E+00;  5.0932393E-16;  1.0000000E+04;  0.0000000E+00;  9.9974902E+03;-0.27618068;0.0;0.11174012;1123.7749
  5.9990245E-01;  9.9999998E-03;  2.0002237E-02;1975;-0.067731634;0.0;0.0021950852;1001.3113;  4.0038559E-01;1086.37;3;-31.240658;0.0;1.3368149;0;-0.16438204;  1.0009501E+04;  0.0000000E+00; -3.4750151E-08;  1.0000000E+04;  0.0000000E+00;  9.9974404E+03;-0.27691802;0.0;0.11253598;1147.8651
  5.9990203E-01;  9.9999998E-03;  4.0004540E-02;1976;-0.06822411;0.0;0.0044055753;1001.3071;  4.0038556E-01;1082.8146;3;-31.639788;0.0;2.6769567;0;-0.16439867;  1.0009560E+04;  0.0000000E+00; -1.7087595E-08;  1.0000000E+04;  0.0000000E+00;  9.9972959E+03;-0.27911425;0.0;0.11471557;1217.3075
  5.9990138E-01;  9.9999998E-03;  6.0006991E-02;1977;-0.06904579;0.0;0.0066553229;1001.3012;  4.0038568E-01;1077.9753;3;-32.275673;0.0;3.9505563;0;-0.16508082;  1.0009663E+04;  0.0000000E+00;  5.2067958E-07;  1.0000000E+04;  0.0000000E+00;  9.9970742E+03;-0.2827296;0.0;0.11764879;1323.5031
  5.9990031E-01;  9.9999998E-03;  8.0009691E-02;1978;-0.070216134;0.0;0.0089710243;1001.2951;  4.0038553E-01;1072.9385;3;-33.107265;0.0;5.0921392;0;-0.16737029;  1.0009810E+04;  0.0000000E+00;  2.3024854E-06;  1.0000000E+04;  0.0000000E+00;  9.9968105E+03;-0.28771466;0.0;0.12034436;1453.1371
  5.9989876E-01;  9.9999998E-03;  1.0001269E-01;1979;-0.071781039;0.0;0.01134902;1001.2909;  4.0038550E-01;1069.4819;3;-34.102455;0.0;6.0594144;0;-0.17231002;  1.0010002E+04;  0.0000000E+00;  5.5209453E-06;  1.0000000E+04;  0.0000000E+00;  9.9965303E+03;-0.2940253;0.0;0.12171527;1593.1501
  5.9989661E-01;  9.9999998E-03;  1.2001600E-01;1980;-0.073782988;0.0;0.013727595;1001.2885;  4.0038544E-01;1067.5067;3;-35.215454;0.0;6.7964144;0;-0.18057233;  1.0010248E+04;  0.0000000E+00;  7.7611503E-06;  1.0000000E+04;  0.0000000E+00;  9.9962402E+03;-0.30162776;0.0;0.12105542;1740.3617
  5.9989381E-01;  9.9999998E-03;  1.4001949E-01;1981;-0.076244086;0.0;0.015998837;1001.287;  4.0038553E-01;1066.2228;3;-36.378258;0.0;7.3178124;0;-0.19202855;  1.0010549E+04;  0.0000000E+00;  3.2580765E-06;  1.0000000E+04;  0.0000000E+00;  9.9959102E+03;-0.31052962;0.0;0.11850107;1910.3759
  6.1989176E-01;  9.9999998E-03; -4.3141766E-12;2005;-0.074113794;0.0;-1.3629211e-09;1002.5258;  4.0092713E-01;2092.5334;3;-33.476692;0.0;4.7662179e-06;0;-0.074863762;  1.0007225E+04;  0.0000000E+00;  8.3821999E-16;  1.0000000E+04;  0.0000000E+00;  9.9969336E+03;-0.21368028;0.0;0.13881652;1351.5531
  6.1989158E-01;  9.9999998E-03;  2.0002687E-02;2006;-0.074295856;0.0;0.0027530894;1002.5231;  4.0092719E-01;2090.262;3;-33.597523;0.0;1.8116767;0;-0.074200764;  1.0007241E+04;  0.0000000E+00; -1.5967689E-07;  1.0000000E+04;  0.0000000E+00;  9.9968604E+03;-0.21432918;0.0;0.14012842;1386.2141
  6.1989111E-01;  9.9999998E-03;  4.0005479E-02;2007;-0.074849762;0.0;0.0055364911;1002.5153;  4.0092722E-01;2083.8425;3;-34.027576;0.0;3.599992;0;-0.072481811;  1.0007297E+04;  0.0000000E+00; -4.8004136E-07;  1.0000000E+04;  0.0000000E+00;  9.9966533E+03;-0.21625043;0.0;0.14376862;1486.1827
  6.1989033E-01;  9.9999998E-03;  6.0008507E-02;2008;-0.075765148;0.0;0.008393351;1002.5039;  4.0092725E-01;2074.3616;3;-34.701607;0.0;5.264174;0;-0.070526391;  1.0007388E+04;  0.0000000E+00; -3.6515945E-07;  1.0000000E+04;  0.0000000E+00;  9.9963320E+03;-0.21937209;0.0;0.1488457;1639.5221
  6.1988908E-01;  9.9999998E-03;  8.0011941E-02;2009;-0.077068135;0.0;0.01137064;1002.4906;  4.0092719E-01;2063.3992;3;-35.595352;0.0;6.7056227;0;-0.069609061;  1.0007517E+04;  0.0000000E+00;  1.0506133E-06;  1.0000000E+04;  0.0000000E+00;  9.9959424E+03;-0.22358926;0.0;0.1539802;1828.7264
  6.1988735E-01;  9.9999998E-03;  1.0001589E-01;2010;-0.078804106;0.0;0.014476744;1002.4774;  4.0092725E-01;2052.4368;3;-36.629257;0.0;7.9200411;0;-0.071084157;  1.0007684E+04;  0.0000000E+00;  3.3645329E-06;  1.0000000E+04;  0.0000000E+00;  9.9955156E+03;-0.22877151;0.0;0.15768735;2038.8877
  6.1988491E-01;  9.9999998E-03;  1.2002033E-01;2011;-0.080977514;0.0;0.017657196;1002.4645;  4.0092719E-01;2041.7706;3;-37.737301;0.0;8.7936792;0;-0.075835094;  1.0007893E+04;  0.0000000E+00;  1.9425845E-06;  1.0000000E+04;  0.0000000E+00;  9.9950488E+03;-0.23476093;0.0;0.15892583;2270.8696
  6.1988175E-01;  9.9999998E-03;  1.4002506E-01;2012;-0.083630219;0.0;0.02068859;1002.449;  4.0092734E-01;2028.9318;3;-38.894855;0.0;9.3274183;0;-0.083981156;  1.0008134E+04;  0.0000000E+00; -1.2274755E-05;  1.0000000E+04;  0.0000000E+00;  9.9945000E+03;-0.24140279;0.0;0.15742163;2548.6382
  6.3988256E-01;  9.9999998E-03;  1.9696631E-12;2036;-0.079667941;0.0;3.3220696e-10;1004.7891;  4.0191984E-01;3967.564;3;-35.569687;0.0;-1.6700185e-05;0;0.061250716;  1.0003497E+04;  0.0000000E+00;  8.7129478E-16;  1.0000000E+04;  0.0000000E+00;  9.9963291E+03;-0.1077162;0.0;0.16896692;1593.385
  6.3988239E-01;  9.9999998E-03;  2.0003138E-02;2037;-0.079870634;0.0;0.0033446278;1004.7847;  4.0191975E-01;3963.9099;3;-35.721943;0.0;2.3279519;0;0.062772639;  1.0003511E+04;  0.0000000E+00; -3.4635204E-07;  1.0000000E+04;  0.0000000E+00;  9.9962295E+03;-0.10817308;0.0;0.17094572;1640.8763
  6.3988185E-01;  9.9999998E-03;  4.0006429E-02;2038;-0.080482699;0.0;0.0067228172;1004.7722;  4.0191975E-01;3953.54;3;-36.164616;0.0;4.5421381;0;0.066970177;  1.0003549E+04;  0.0000000E+00; -1.2193200E-06;  1.0000000E+04;  0.0000000E+00;  9.9959404E+03;-0.10951365;0.0;0.17648382;1777.9299
  6.3988084E-01;  9.9999998E-03;  6.0010068E-02;2039;-0.081509389;0.0;0.01019649;1004.7531;  4.0191975E-01;3937.6399;3;-36.860809;0.0;6.5632539;0;0.072740905;  1.0003615E+04;  0.0000000E+00; -1.9793563E-06;  1.0000000E+04;  0.0000000E+00;  9.9954961E+03;-0.11165058;0.0;0.18439148;1988.7743
  6.3987941E-01;  9.9999998E-03;  8.0014281E-02;2040;-0.082955211;0.0;0.013853617;1004.7302;  4.0191981E-01;3918.7769;3;-37.728226;0.0;8.3468361;0;0.078405723;  1.0003706E+04;  0.0000000E+00; -1.7681688E-06;  1.0000000E+04;  0.0000000E+00;  9.9949502E+03;-0.11444396;0.0;0.19284968;2251.4385
  6.3987732E-01;  9.9999998E-03;  1.0001926E-01;2041;-0.084862784;0.0;0.017756952;1004.705;  4.0191981E-01;3897.8398;3;-38.758087;0.0;9.843195;0;0.08221332;  1.0003817E+04;  0.0000000E+00; -1.7185960E-06;  1.0000000E+04;  0.0000000E+00;  9.9943340E+03;-0.11769649;0.0;0.19990981;2549.772
  6.3987458E-01;  9.9999998E-03;  1.2002503E-01;2042;-0.087223157;0.0;0.02186802;1004.6765;  4.0191969E-01;3874.2363;3;-39.883656;0.0;10.972754;0;0.082923882;  1.0003949E+04;  0.0000000E+00; -8.6058444E-06;  1.0000000E+04;  0.0000000E+00;  9.9936465E+03;-0.12113576;0.0;0.20405965;2890.0789
  6.3987106E-01;  9.9999998E-03;  1.4003128E-01;2043;-0.090050586;0.0;0.025928721;1004.6419;  4.0191975E-01;3845.5959;3;-41.06097;0.0;11.665719;0;0.0799179;  1.0004091E+04;  0.0000000E+00; -3.3852441E-05;  1.0000000E+04;  0.0000000E+00;  9.9928203E+03;-0.12442539;0.0;0.20434329;3305.1848
  6.5987569E-01;  9.9999998E-03; -2.8705571E-12;2067;-0.083950274;0.0;-1.4737579e-08;1007.6163;  4.0316740E-01;6309.6743;3;-37.226677;0.0;-1.9895902e-05;0;0.24513075;  9.9983545E+03;  0.0000000E+00;  1.7723504E-15;  1.0000000E+04;  0.0000000E+00;  9.9956904E+03;0.043700155;0.0;0.20143059;1842.8661
  6.5987551E-01;  9.9999998E-03;  2.0003682E-02;2068;-0.084172688;0.0;0.0040384866;1007.6099;  4.0316740E-01;6304.4399;3;-37.374882;0.0;2.8954258;0;0.24776518;  9.9983574E+03;  0.0000000E+00; -5.2633590E-07;  1.0000000E+04;  0.0000000E+00;  9.9955586E+03;0.043561425;0.0;0.20420375;1904.8879
  6.5987480E-01;  9.9999998E-03;  4.0007576E-02;2069;-0.084844366;0.0;0.0081254346;1007.5915;  4.0316743E-01;6289.1323;3;-37.805504;0.0;5.6489563;0;0.25518614;  9.9983711E+03;  0.0000000E+00; -1.9559811E-06;  1.0000000E+04;  0.0000000E+00;  9.9951807E+03;0.04317347;0.0;0.21201268;2083.9629
  6.5987366E-01;  9.9999998E-03;  6.0011957E-02;2070;-0.085971057;0.0;0.012357562;1007.5631;  4.0316734E-01;6265.6279;3;-38.473087;0.0;8.1605682;0;0.26595837;  9.9983916E+03;  0.0000000E+00; -3.6974277E-06;  1.0000000E+04;  0.0000000E+00;  9.9945947E+03;0.042620558;0.0;0.2233378;2360.0742
  6.5987200E-01;  9.9999998E-03;  8.0017149E-02;2071;-0.087546699;0.0;0.016888727;1007.5276;  4.0316743E-01;6236.1978;3;-39.298756;0.0;10.396971;0;0.27790943;  9.9984170E+03;  0.0000000E+00; -5.0322178E-06;  1.0000000E+04;  0.0000000E+00;  9.9938711E+03;0.042044252;0.0;0.23586518;2706.4104
  6.5986967E-01;  9.9999998E-03;  1.0002343E-01;2072;-0.089567117;0.0;0.0218118;1007.4871;  4.0316737E-01;6202.6201;3;-40.280476;0.0;12.203779;0;0.28874481;  9.9984424E+03;  0.0000000E+00; -7.4757863E-06;  1.0000000E+04;  0.0000000E+00;  9.9930430E+03;0.041663028;0.0;0.24708179;3105.4724
  6.5986669E-01;  9.9999998E-03;  1.2003078E-01;2073;-0.091978766;0.0;0.027015682;1007.4405;  4.0316743E-01;6164.0054;3;-41.255913;0.0;13.468258;0;0.29663137;  9.9984629E+03;  0.0000000E+00; -1.8657704E-05;  1.0000000E+04;  0.0000000E+00;  9.9920977E+03;0.041811906;0.0;0.25481945;3568.895
  6.5986300E-01;  9.9999998E-03;  1.4003882E-01;2074;-0.094815359;0.0;0.032223649;1007.3831;  4.0316752E-01;6116.5029;3;-42.427864;0.0;14.30479;0;0.3001532;  9.9984648E+03;  0.0000000E+00; -5.0161314E-05;  1.0000000E+04;  0.0000000E+00;  9.9909521E+03;0.042974994;0.0;0.25717819;4137.3467
  6.7987323E-01;  9.9999998E-03;  4.6830369E-12;2098;-0.085966527;0.0;1.4146196e-09;1009.7657;  4.0416279E-01;8090.2661;3;-38.139847;0.0;-1.0709628e-05;0;0.46394715;  9.9922959E+03;  0.0000000E+00;  4.3817412E-15;  1.0000000E+04;  0.0000000E+00;  9.9950439E+03;0.22916198;0.0;0.23478517;2090.8994
  6.7987299E-01;  9.9999998E-03;  2.0004304E-02;2099;-0.086201042;0.0;0.0048971549;1009.7569;  4.0416268E-01;8082.958;3;-38.291515;0.0;3.6975944;0;0.46788174;  9.9922910E+03;  0.0000000E+00; -5.9308383E-07;  1.0000000E+04;  0.0000000E+00;  9.9948789E+03;0.22946022;0.0;0.2384215;2168.1411
  6.7987233E-01;  9.9999998E-03;  4.0008895E-02;2100;-0.086906321;0.0;0.0098783756;1009.7321;  4.0416262E-01;8062.3179;3;-38.743183;0.0;7.2247915;0;0.47908011;  9.9922695E+03;  0.0000000E+00; -2.2488446E-06;  1.0000000E+04;  0.0000000E+00;  9.9944053E+03;0.23037675;0.0;0.24870336;2391.2107
  6.7987114E-01;  9.9999998E-03;  6.0014158E-02;2101;-0.088081084;0.0;0.015093962;1009.6933;  4.0416279E-01;8030.2217;3;-39.433083;0.0;10.462495;0;0.49574023;  9.9922285E+03;  0.0000000E+00; -4.4927242E-06;  1.0000000E+04;  0.0000000E+00;  9.9936748E+03;0.23197806;0.0;0.26376218;2735.5654
  6.7986935E-01;  9.9999998E-03;  8.0020532E-02;2102;-0.089721754;0.0;0.020753352;1009.6443;  4.0416276E-01;7989.6328;3;-40.311729;0.0;13.314323;0;0.51512003;  9.9921689E+03;  0.0000000E+00; -6.6967959E-06;  1.0000000E+04;  0.0000000E+00;  9.9927607E+03;0.23437765;0.0;0.28074238;3169.0391
  6.7986697E-01;  9.9999998E-03;  1.0002839E-01;2103;-0.091809243;0.0;0.027012751;1009.5873;  4.0416291E-01;7942.4268;3;-41.298306;0.0;15.674137;0;0.53422397;  9.9920850E+03;  0.0000000E+00; -1.0205545E-05;  1.0000000E+04;  0.0000000E+00;  9.9917119E+03;0.23776254;0.0;0.29646143;3671.8755
  6.7986393E-01;  9.9999998E-03;  1.2003773E-01;2104;-0.09428291;0.0;0.033754017;1009.5204;  4.0416291E-01;7887.0244;3;-42.258354;0.0;17.414082;0;0.55035412;  9.9919668E+03;  0.0000000E+00; -2.1474149E-05;  1.0000000E+04;  0.0000000E+00;  9.9905068E+03;0.24244699;0.0;0.30790716;4259.3706
  6.7986017E-01;  9.9999998E-03;  1.4004804E-01;2105;-0.097093955;0.0;0.040496748;1009.4391;  4.0416309E-01;7819.6719;3;-43.138626;0.0;18.302811;0;0.56098801;  9.9918008E+03;  0.0000000E+00; -4.9997896E-05;  1.0000000E+04;  0.0000000E+00;  9.9890586E+03;0.24894989;0.0;0.31203812;4977.7744
  6.9987977E-01;  9.9999998E-03;  1.9363790E-11;2129;-0.083802238;0.0;1.2046908e-08;1010.7931;  4.0470710E-01;8941.1719;3;-38.212143;0.0;1.0449439e-06;0;0.68763083;  9.9863203E+03;  0.0000000E+00;  5.0682144E-15;  1.0000000E+04;  0.0000000E+00;  9.9944268E+03;0.42059174;0.0;0.26703909;2326.812
  6.9987959E-01;  9.9999998E-03;  2.0004777E-02;2130;-0.084034294;0.0;0.005682807;1010.7823;  4.0470713E-01;8932.2842;3;-38.384247;0.0;4.5176978;0;0.69291198;  9.9863008E+03;  0.0000000E+00; -4.8900046E-07;  1.0000000E+04;  0.0000000E+00;  9.9942295E+03;0.42139706;0.0;0.27151492;2418.6182
  6.9987893E-01;  9.9999998E-03;  4.0009946E-02;2131;-0.084733628;0.0;0.011494275;1010.7507;  4.0470722E-01;8906.0146;3;-38.884983;0.0;8.8431969;0;0.70803177;  9.9862402E+03;  0.0000000E+00; -1.8794111E-06;  1.0000000E+04;  0.0000000E+00;  9.9936641E+03;0.42383006;0.0;0.28420174;2683.7158
  6.9987786E-01;  9.9999998E-03;  6.0016021E-02;2132;-0.085897118;0.0;0.017670017;1010.7017;  4.0470725E-01;8865.5254;3;-39.640999;0.0;12.846422;0;0.7308253;  9.9861387E+03;  0.0000000E+00; -3.7958700E-06;  1.0000000E+04;  0.0000000E+00;  9.9927930E+03;0.42793953;0.0;0.30288574;3092.9563
  6.9987625E-01;  9.9999998E-03;  8.0023602E-02;2133;-0.087527066;0.0;0.024529088;1010.6392;  4.0470731E-01;8813.6787;3;-40.601078;0.0;16.449631;0;0.7579577;  9.9859893E+03;  0.0000000E+00; -5.6682084E-06;  1.0000000E+04;  0.0000000E+00;  9.9917031E+03;0.43380511;0.0;0.32415262;3608.3579
  6.9987398E-01;  9.9999998E-03;  1.0003316E-01;2134;-0.089604497;0.0;0.032303274;1010.566;  4.0470731E-01;8753.0439;3;-41.679111;0.0;19.617054;0;0.78563303;  9.9857842E+03;  0.0000000E+00; -8.1262406E-06;  1.0000000E+04;  0.0000000E+00;  9.9904482E+03;0.44155067;0.0;0.34408236;4206.5659
  6.9987112E-01;  9.9999998E-03;  1.2004468E-01;2135;-0.092006408;0.0;0.040908724;1010.4802;  4.0470755E-01;8681.9404;3;-42.586086;0.0;22.197489;0;0.81010121;  9.9855195E+03;  0.0000000E+00; -1.5356865E-05;  1.0000000E+04;  0.0000000E+00;  9.9890146E+03;0.45138845;0.0;0.35871276;4904.0283
  6.9986761E-01;  9.9999998E-03;  1.4005752E-01;2136;-0.09466888;0.0;0.049799468;1010.3772;  4.0470776E-01;8596.6162;3;-43.28083;0.0;24.041529;0;0.82750428;  9.9851797E+03;  0.0000000E+00; -3.3412041E-05;  1.0000000E+04;  0.0000000E+00;  9.9873057E+03;0.46370628;0.0;0.36379799;5749.9053
  7.1990991E-01;  9.9999998E-03;  1.4073756E-12;2160;-0.065362327;0.0;-4.7956739e-10;1011.126;  4.0494522E-01;9216.7422;3;-32.046848;0.0;4.6486384e-06;0;0.87406933;  9.9816797E+03;  0.0000000E+00; -1.3898060E-15;  1.0000000E+04;  0.0000000E+00;  9.9938721E+03;0.5780223;0.0;0.29604706;2540.2219
  7.1990979E-01;  9.9999998E-03;  2.0005304E-02;2161;-0.065564856;0.0;0.0064103883;1011.1133;  4.0494525E-01;9206.1758;3;-32.21521;0.0;5.2220297;0;0.88056242;  9.9816504E+03;  0.0000000E+00; -2.9124263E-07;  1.0000000E+04;  0.0000000E+00;  9.9936475E+03;0.57932299;0.0;0.30123946;2644.5952
  7.1990925E-01;  9.9999998E-03;  4.0011063E-02;2162;-0.066172414;0.0;0.012975444;1011.0762;  4.0494522E-01;9175.4639;3;-32.707771;0.0;10.226808;0;0.89921653;  9.9815576E+03;  0.0000000E+00; -1.1078615E-06;  1.0000000E+04;  0.0000000E+00;  9.9930039E+03;0.58324307;0.0;0.31597343;2945.8457
  7.1990836E-01;  9.9999998E-03;  6.0017869E-02;2163;-0.067190133;0.0;0.019980233;1011.0182;  4.0494531E-01;9127.3721;3;-33.490974;0.0;14.882323;0;0.92754394;  9.9813984E+03;  0.0000000E+00; -2.1673770E-06;  1.0000000E+04;  0.0000000E+00;  9.9920127E+03;0.58982772;0.0;0.33771622;3410.4336
  7.1990705E-01;  9.9999998E-03;  8.0026425E-02;2164;-0.068637796;0.0;0.027819445;1010.9442;  4.0494552E-01;9066.0469;3;-34.517353;0.0;19.15675;0;0.96166682;  9.9811680E+03;  0.0000000E+00; -2.9351988E-06;  1.0000000E+04;  0.0000000E+00;  9.9907754E+03;0.59914416;0.0;0.36252263;3994.4382
  7.1990514E-01;  9.9999998E-03;  1.0003724E-01;2165;-0.070549779;0.0;0.036789507;1010.8571;  4.0494555E-01;8993.957;3;-35.728321;0.0;23.052101;0;0.99700636;  9.9808545E+03;  0.0000000E+00; -3.4035240E-06;  1.0000000E+04;  0.0000000E+00;  9.9893564E+03;0.61126095;0.0;0.38574541;4669.7666
  7.1990258E-01;  9.9999998E-03;  1.2005033E-01;2166;-0.072950169;0.0;0.046834536;1010.7557;  4.0494579E-01;8910.0186;3;-37.025871;0.0;26.512251;0;1.0287479;  9.9804561E+03;  0.0000000E+00; -5.4626039E-06;  1.0000000E+04;  0.0000000E+00;  9.9877441E+03;0.62624991;0.0;0.40249798;5451.6665
  7.1989924E-01;  9.9999998E-03;  1.4006500E-01;2167;-0.075846516;0.0;0.057393182;1010.6354;  4.0494609E-01;8810.377;3;-38.372101;0.0;29.358686;0;1.0516829;  9.9799600E+03;  0.0000000E+00; -1.2395428E-05;  1.0000000E+04;  0.0000000E+00;  9.9858516E+03;0.64422786;0.0;0.40745512;6390.064
  7.3994482E-01;  9.9999998E-03;  7.0616729E-12;2191;-0.040589526;0.0;2.2068104e-08;1011.2147;  4.0503889E-01;9289.7715;3;-20.504868;0.0;3.6469079e-05;0;0.98895085;  9.9792578E+03;  0.0000000E+00;  1.2502375E-15;  1.0000000E+04;  0.0000000E+00;  9.9934150E+03;0.66900361;0.0;0.31994721;2721.0205
  7.3994470E-01;  9.9999998E-03;  2.0005731E-02;2192;-0.040743973;0.0;0.0069456059;1011.2003;  4.0503901E-01;9277.9219;3;-20.632704;0.0;5.6799488;0;0.99636304;  9.9792197E+03;  0.0000000E+00; -1.0898043E-07;  1.0000000E+04;  0.0000000E+00;  9.9931689E+03;0.67069942;0.0;0.3256636;2835.0513
  7.3994428E-01;  9.9999998E-03;  4.0011942E-02;2193;-0.041204832;0.0;0.014044338;1011.1589;  4.0503898E-01;9243.6563;3;-21.004787;0.0;11.11132;0;1.0176945;  9.9791035E+03;  0.0000000E+00; -4.0116259E-07;  1.0000000E+04;  0.0000000E+00;  9.9924658E+03;0.67580938;0.0;0.34188512;3163.9626
  7.3994362E-01;  9.9999998E-03;  6.0019262E-02;2194;-0.041968804;0.0;0.021590129;1011.0944;  4.0503907E-01;9190.2334;3;-21.589699;0.0;16.137678;0;1.0502027;  9.9789053E+03;  0.0000000E+00; -6.8433894E-07;  1.0000000E+04;  0.0000000E+00;  9.9913838E+03;0.68439114;0.0;0.36581159;3670.387
  7.3994261E-01;  9.9999998E-03;  8.0028437E-02;2195;-0.043040846;0.0;0.029995631;1011.0117;  4.0503916E-01;9121.7021;3;-22.343321;0.0;20.712006;0;1.0895586;  9.9786123E+03;  0.0000000E+00; -5.3413748E-07;  1.0000000E+04;  0.0000000E+00;  9.9900352E+03;0.69651932;0.0;0.39303926;4304.8838
  7.3994124E-01;  9.9999998E-03;  1.0004000E-01;2196;-0.044436831;0.0;0.039567504;1010.9149;  4.0503940E-01;9041.5176;3;-23.215187;0.0;24.826324;0;1.1305201;  9.9782227E+03;  0.0000000E+00;  3.7402788E-07;  1.0000000E+04;  0.0000000E+00;  9.9885039E+03;0.71222961;0.0;0.41829053;5034.1401
  7.3993939E-01;  9.9999998E-03;  1.2005397E-01;2197;-0.046172872;0.0;0.050234981;1010.8028;  4.0503961E-01;8948.5967;3;-24.150873;0.0;28.424955;0;1.1673622;  9.9777246E+03;  0.0000000E+00;  1.4894013E-06;  1.0000000E+04;  0.0000000E+00;  9.9867813E+03;0.73145109;0.0;0.43591109;5870.6782
  7.3993695E-01;  9.9999998E-03;  1.4006957E-01;2198;-0.048239373;0.0;0.061377369;1010.6714;  4.0503973E-01;8839.7754;3;-25.08811;0.0;31.299372;0;1.1937355;  9.9771152E+03;  0.0000000E+00;  1.2187405E-06;  1.0000000E+04;  0.0000000E+00;  9.9847793E+03;0.75396347;0.0;0.43977198;6864.0532
  7.5997132E-01;  9.9999998E-03;  3.0861900E-11;2222;-0.021765674;0.0;1.0716835e-08;1011.2743;  4.0507418E-01;9338.7793;3;-11.724609;0.0;-2.229173e-05;0;1.0268033;  9.9790361E+03;  0.0000000E+00;  4.4511048E-15;  1.0000000E+04;  0.0000000E+00;  9.9930762E+03;0.68921179;0.0;0.33759147;2860.0977
  7.5997126E-01;  9.9999998E-03;  2.0006035E-02;2223;-0.021868844;0.0;0.0073265731;1011.2592;  4.0507436E-01;9326.2383;3;-11.809301;0.0;6.0037503;0;1.0347683;  9.9789951E+03;  0.0000000E+00; -1.1506716E-08;  1.0000000E+04;  0.0000000E+00;  9.9928184E+03;0.69114709;0.0;0.34362128;2980.5857
  7.5997102E-01;  9.9999998E-03;  4.0012561E-02;2224;-0.022174234;0.0;0.014798307;1011.2151;  4.0507439E-01;9289.7031;3;-12.053818;0.0;11.73088;0;1.0577031;  9.9788643E+03;  0.0000000E+00; -2.0402512E-08;  1.0000000E+04;  0.0000000E+00;  9.9920742E+03;0.69697911;0.0;0.36072403;3327.8901
  7.5997055E-01;  9.9999998E-03;  6.0020234E-02;2225;-0.022672916;0.0;0.022709996;1011.1464;  4.0507445E-01;9232.7285;3;-12.431838;0.0;17.003204;0;1.0926845;  9.9786445E+03;  0.0000000E+00;  7.1181923E-08;  1.0000000E+04;  0.0000000E+00;  9.9909326E+03;0.70678186;0.0;0.38590264;3861.6899
  7.5996995E-01;  9.9999998E-03;  8.0029815E-02;2226;-0.0233589;0.0;0.031483993;1011.0587;  4.0507457E-01;9160.1523;3;-12.906983;0.0;21.760258;0;1.1350466;  9.9783193E+03;  0.0000000E+00;  5.1322974E-07;  1.0000000E+04;  0.0000000E+00;  9.9895176E+03;0.72063929;0.0;0.41440728;4527.9834
  7.5996906E-01;  9.9999998E-03;  1.0004188E-01;2227;-0.024233209;0.0;0.04143266;1010.9563;  4.0507472E-01;9075.3311;3;-13.438821;0.0;25.985525;0;1.1790479;  9.9778848E+03;  0.0000000E+00;  1.5947311E-06;  1.0000000E+04;  0.0000000E+00;  9.9879180E+03;0.73856288;0.0;0.44048506;5288.6162
  7.5996786E-01;  9.9999998E-03;  1.2005641E-01;2228;-0.025296938;0.0;0.052466094;1010.8387;  4.0507492E-01;8977.8711;3;-13.984806;0.0;29.611343;0;1.2182989;  9.9773320E+03;  0.0000000E+00;  3.2685871E-06;  1.0000000E+04;  0.0000000E+00;  9.9861387E+03;0.76035303;0.0;0.45794585;6152.8823
  7.5996643E-01;  9.9999998E-03;  1.4007257E-01;2229;-0.02653111;0.0;0.063907057;1010.7021;  4.0507522E-01;8864.8096;3;-14.496958;0.0;32.409534;0;1.2456574;  9.9766680E+03;  0.0000000E+00;  4.8727461E-06;  1.0000000E+04;  0.0000000E+00;  9.9840938E+03;0.78546518;0.0;0.46019226;7169.7139
  7.7999043E-01;  9.9999998E-03; -1.1656314E-11;2253;-0.0081174383;0.0;-1.0540073e-10;1011.3588;  4.0508720E-01;9408.1553;3;-5.2428031;0.0;1.8674706e-05;0;1.0078039;  9.9802871E+03;  0.0000000E+00; -2.2639622E-15;  1.0000000E+04;  0.0000000E+00;  9.9928633E+03;0.65918726;0.0;0.34861663;2950.928
  7.7999043E-01;  9.9999998E-03;  2.0006215E-02;2254;-0.0081705125;0.0;0.0075527225;1011.3434;  4.0508726E-01;9395.3193;3;-5.2858596;0.0;6.1936555;0;1.015974;  9.9802451E+03;  0.0000000E+00;  1.5095607E-08;  1.0000000E+04;  0.0000000E+00;  9.9925977E+03;0.66119951;0.0;0.35477453;3074.8723
  7.7999032E-01;  9.9999998E-03;  4.0012926E-02;2255;-0.0083250441;0.0;0.015239265;1011.2982;  4.0508735E-01;9357.8984;3;-5.4079771;0.0;12.08863;0;1.0394964;  9.9801123E+03;  0.0000000E+00;  6.4768599E-08;  1.0000000E+04;  0.0000000E+00;  9.9918330E+03;0.66726649;0.0;0.37222987;3431.9441
  7.7999008E-01;  9.9999998E-03;  6.0020790E-02;2256;-0.0085696271;0.0;0.023350051;1011.2277;  4.0508741E-01;9299.4453;3;-5.5904374;0.0;17.489693;0;1.075344;  9.9798887E+03;  0.0000000E+00;  1.8585196E-07;  1.0000000E+04;  0.0000000E+00;  9.9906602E+03;0.67747205;0.0;0.39787191;3979.9185
  7.7998978E-01;  9.9999998E-03;  8.0030590E-02;2257;-0.008891847;0.0;0.03231116;1011.1381;  4.0508750E-01;9225.2939;3;-5.8075809;0.0;22.327021;0;1.118641;  9.9795586E+03;  0.0000000E+00;  4.7237182E-07;  1.0000000E+04;  0.0000000E+00;  9.9892100E+03;0.6919052;0.0;0.42673579;4661.6216
  7.7998936E-01;  9.9999998E-03;  1.0004292E-01;2258;-0.0092831543;0.0;0.042438742;1011.0338;  4.0508774E-01;9138.8994;3;-6.0322371;0.0;26.579601;0;1.1633356;  9.9791152E+03;  0.0000000E+00;  1.0521481E-06;  1.0000000E+04;  0.0000000E+00;  9.9875850E+03;0.71056008;0.0;0.45277542;5435.1587
  7.7998888E-01;  9.9999998E-03;  1.2005772E-01;2259;-0.0097367913;0.0;0.053631421;1010.9149;  4.0508789E-01;9040.459;3;-6.2384791;0.0;30.173685;0;1.2026629;  9.9785488E+03;  0.0000000E+00;  1.9786366E-06;  1.0000000E+04;  0.0000000E+00;  9.9857920E+03;0.73315442;0.0;0.4695085;6306.9883
  7.7998823E-01;  9.9999998E-03;  1.4007413E-01;2260;-0.010236305;0.0;0.065172985;1010.778;  4.0508822E-01;8927.0107;3;-6.3995013;0.0;32.868805;0;1.229085;  9.9778770E+03;  0.0000000E+00;  2.9935447E-06;  1.0000000E+04;  0.0000000E+00;  9.9837451E+03;0.75891888;0.0;0.47016615;7325.5771
  8.0000544E-01;  9.9999998E-03; -3.5222391E-11;2284;0.0027481306;0.0;-3.0133425e-08;1011.4569;  4.0509081E-01;9488.5547;3;0.11607677;0.0;-2.9108254e-05;0;0.95954084;  9.9821309E+03;  0.0000000E+00;  1.9210443E-15;  1.0000000E+04;  0.0000000E+00;  9.9927734E+03;0.60628712;0.0;0.35325369;2990.7983
  8.0000544E-01;  9.9999998E-03;  2.0006280E-02;2285;0.0027416525;0.0;0.007634318;1011.4412;  4.0509081E-01;9475.4238;3;0.11112237;0.0;6.2599678;0;0.96765155;  9.9820918E+03;  0.0000000E+00;  5.4885372E-09;  1.0000000E+04;  0.0000000E+00;  9.9925059E+03;0.60825002;0.0;0.35940152;3115.6462
  8.0000544E-01;  9.9999998E-03;  4.0013049E-02;2286;0.0027264447;0.0;0.01539056;1011.3959;  4.0509093E-01;9438.0059;3;0.10013265;0.0;12.206815;0;0.99099082;  9.9819639E+03;  0.0000000E+00;  2.2034843E-08;  1.0000000E+04;  0.0000000E+00;  9.9917354E+03;0.61417174;0.0;0.37681907;3475.1868
  8.0000544E-01;  9.9999998E-03;  6.0020965E-02;2287;0.0027141285;0.0;0.023551792;1011.3255;  4.0509108E-01;9379.6572;3;0.09343259;0.0;17.63455;0;1.0264995;  9.9817461E+03;  0.0000000E+00;  5.3153173E-08;  1.0000000E+04;  0.0000000E+00;  9.9905576E+03;0.6241374;0.0;0.40236217;4026.3594
  8.0000544E-01;  9.9999998E-03;  8.0030814E-02;2288;0.0027200393;0.0;0.032543413;1011.2362;  4.0509117E-01;9305.71;3;0.10464093;0.0;22.468409;0;1.0692185;  9.9814297E+03;  0.0000000E+00;  1.0953511E-07;  1.0000000E+04;  0.0000000E+00;  9.9891025E+03;0.63823628;0.0;0.43098223;4710.3789
  8.0000544E-01;  9.9999998E-03;  1.0004319E-01;2289;0.0027587544;0.0;0.042684682;1011.1327;  4.0509126E-01;9220.0137;3;0.14664033;0.0;26.687752;0;1.1129774;  9.9810000E+03;  0.0000000E+00;  2.0798332E-07;  1.0000000E+04;  0.0000000E+00;  9.9874775E+03;0.65645987;0.0;0.45651755;5483.1421
  8.0000550E-01;  9.9999998E-03;  1.2005804E-01;2290;0.0028411134;0.0;0.053872649;1011.0156;  4.0509146E-01;9122.9648;3;0.22818369;0.0;30.220005;0;1.1508999;  9.9804570E+03;  0.0000000E+00;  3.4519368E-07;  1.0000000E+04;  0.0000000E+00;  9.9856943E+03;0.67850029;0.0;0.47239962;6349.1226
  8.0000561E-01;  9.9999998E-03;  1.4007449E-01;2291;0.0029771023;0.0;0.065375239;1010.881;  4.0509176E-01;9011.5996;3;0.35451075;0.0;32.822021;0;1.1753995;  9.9798125E+03;  0.0000000E+00;  4.5259600E-07;  1.0000000E+04;  0.0000000E+00;  9.9836719E+03;0.7035017;0.0;0.4718979;7356.5078
  8.2001948E-01;  9.9999998E-03;  9.1972237E-12;2315;0.013094623;0.0;7.4396374e-09;1011.5374;  4.0508485E-01;9553.9258;3;5.3842816;0.0;-3.013364e-05;0;0.90154415;  9.9839854E+03;  0.0000000E+00; -2.6107048E-15;  1.0000000E+04;  0.0000000E+00;  9.9927998E+03;0.54947329;0.0;0.35207087;2980.9966
  8.2001948E-01;  9.9999998E-03;  2.0006241E-02;2316;0.013130151;0.0;0.0075870398;1011.5219;  4.0508494E-01;9541.1914;3;5.4131093;0.0;6.2182217;0;0.90943223;  9.9839463E+03;  0.0000000E+00; -5.6318874E-09;  1.0000000E+04;  0.0000000E+00;  9.9925352E+03;0.55131501;0.0;0.35811722;3104.6663
  8.2001960E-01;  9.9999998E-03;  4.0012959E-02;2317;0.013240288;0.0;0.015285359;1011.4775;  4.0508500E-01;9504.3701;3;5.5003324;0.0;12.117009;0;0.93211448;  9.9838291E+03;  0.0000000E+00; -2.1723908E-08;  1.0000000E+04;  0.0000000E+00;  9.9917705E+03;0.55687064;0.0;0.37524387;3460.752
  8.2001978E-01;  9.9999998E-03;  6.0020808E-02;2318;0.013435585;0.0;0.023369366;1011.4083;  4.0508509E-01;9447.1152;3;5.6477709;0.0;17.486076;0;0.96655929;  9.9836230E+03;  0.0000000E+00; -4.5720149E-08;  1.0000000E+04;  0.0000000E+00;  9.9906016E+03;0.56622189;0.0;0.40033743;4006.3196
  8.2002002E-01;  9.9999998E-03;  8.0030560E-02;2319;0.013732601;0.0;0.032260127;1011.3207;  4.0508518E-01;9374.5596;3;5.8578448;0.0;22.25021;0;1.0078391;  9.9833252E+03;  0.0000000E+00; -8.1697465E-08;  1.0000000E+04;  0.0000000E+00;  9.9891631E+03;0.57945782;0.0;0.42838126;4682.458
  8.2002044E-01;  9.9999998E-03;  1.0004281E-01;2320;0.014150117;0.0;0.042279162;1011.2197;  4.0508527E-01;9290.8477;3;6.1301274;0.0;26.393105;0;1.0498222;  9.9829238E+03;  0.0000000E+00; -1.5711174E-07;  1.0000000E+04;  0.0000000E+00;  9.9875605E+03;0.59657729;0.0;0.45324489;5444.3813
  8.2002103E-01;  9.9999998E-03;  1.2005752E-01;2321;0.014703051;0.0;0.053330127;1011.1057;  4.0508559E-01;9196.4756;3;6.4592152;0.0;29.849079;0;1.0857207;  9.9824170E+03;  0.0000000E+00; -3.4109661E-07;  1.0000000E+04;  0.0000000E+00;  9.9858047E+03;0.61729914;0.0;0.46842152;6295.4775
  8.2002181E-01;  9.9999998E-03;  1.4007378E-01;2322;0.015397569;0.0;0.064686425;1010.9753;  4.0508583E-01;9088.4805;3;6.8330584;0.0;32.381325;0;1.1081461;  9.9818135E+03;  0.0000000E+00; -7.5042755E-07;  1.0000000E+04;  0.0000000E+00;  9.9838223E+03;0.64080352;0.0;0.46734259;7283.6162
  8.4003407E-01;  9.9999998E-03;  1.8232651E-11;2346;0.023973323;0.0;2.9119541e-08;1011.426;  4.0500253E-01;9460.1602;3;10.978141;0.0;2.0407198e-05;0;0.83927906;  9.9857168E+03;  0.0000000E+00;  1.1699528E-15;  1.0000000E+04;  0.0000000E+00;  9.9929268E+03;0.49351346;0.0;0.34576556;2926.1326
  8.4003413E-01;  9.9999998E-03;  2.0006113E-02;2347;0.024046313;0.0;0.0074278926;1011.4111;  4.0500265E-01;9447.8232;3;11.036535;0.0;6.084682;0;0.84685713;  9.9856797E+03;  0.0000000E+00; -1.0754662E-08;  1.0000000E+04;  0.0000000E+00;  9.9926689E+03;0.49520576;0.0;0.35165137;3046.8987
  8.4003437E-01;  9.9999998E-03;  4.0012687E-02;2348;0.024268026;0.0;0.014958515;1011.3678;  4.0500268E-01;9411.9951;3;11.209589;0.0;11.851448;0;0.86863565;  9.9855723E+03;  0.0000000E+00; -3.3507526E-08;  1.0000000E+04;  0.0000000E+00;  9.9919199E+03;0.50030947;0.0;0.36832619;3394.6372
  8.4003466E-01;  9.9999998E-03;  6.0020357E-02;2349;0.024647735;0.0;0.02285701;1011.3007;  4.0500277E-01;9356.4277;3;11.491985;0.0;17.09169;0;0.90165937;  9.9853818E+03;  0.0000000E+00; -5.1440058E-08;  1.0000000E+04;  0.0000000E+00;  9.9907754E+03;0.50889981;0.0;0.39275953;3927.3667
  8.4003520E-01;  9.9999998E-03;  8.0029882E-02;2350;0.025202727;0.0;0.031537019;1011.2158;  4.0500295E-01;9286.1533;3;11.875934;0.0;21.733225;0;0.94111884;  9.9851064E+03;  0.0000000E+00; -4.3208036E-08;  1.0000000E+04;  0.0000000E+00;  9.9893691E+03;0.52106553;0.0;0.42005333;4587.2847
  8.4003597E-01;  9.9999998E-03;  1.0004186E-01;2351;0.025956165;0.0;0.041320007;1011.1182;  4.0500304E-01;9205.3184;3;12.35078;0.0;25.766235;0;0.98104393;  9.9847363E+03;  0.0000000E+00; -4.4564757E-08;  1.0000000E+04;  0.0000000E+00;  9.9878047E+03;0.53682888;0.0;0.44421509;5330.1611
  8.4003699E-01;  9.9999998E-03;  1.2005624E-01;2352;0.02692892;0.0;0.052121013;1011.0083;  4.0500328E-01;9114.3174;3;12.900934;0.0;29.135248;0;1.0148647;  9.9842666E+03;  0.0000000E+00; -1.9083943E-07;  1.0000000E+04;  0.0000000E+00;  9.9860928E+03;0.55596977;0.0;0.45889488;6158.8833
  8.4003836E-01;  9.9999998E-03;  1.4007215E-01;2353;0.028128758;0.0;0.063234024;1010.8826;  4.0500349E-01;9010.2881;3;13.503693;0.0;31.614901;0;1.0355443;  9.9837061E+03;  0.0000000E+00; -7.7718931E-07;  1.0000000E+04;  0.0000000E+00;  9.9841543E+03;0.57779634;0.0;0.45774797;7120.689
  8.6004913E-01;  9.9999998E-03;  1.9744234E-11;2377;0.035176456;0.0;8.8141201e-09;1011.1242;  4.0484089E-01;9208.2969;3;16.727768;0.0;1.2520468e-07;0;0.76752961;  9.9875283E+03;  0.0000000E+00;  8.0228494E-16;  1.0000000E+04;  0.0000000E+00;  9.9931406E+03;0.43246549;0.0;0.33506408;2833.0239
  8.6004925E-01;  9.9999998E-03;  2.0005902E-02;2378;0.035282545;0.0;0.0071708746;1011.1097;  4.0484083E-01;9196.2578;3;16.81193;0.0;5.8722677;0;0.77474409;  9.9874941E+03;  0.0000000E+00; -1.4225980E-08;  1.0000000E+04;  0.0000000E+00;  9.9928896E+03;0.4339993;0.0;0.34074479;2949.376
  8.6004949E-01;  9.9999998E-03;  4.0012248E-02;2379;0.035602827;0.0;0.014438148;1011.0682;  4.0484086E-01;9161.918;3;17.06019;0.0;11.435177;0;0.79547262;  9.9873936E+03;  0.0000000E+00; -4.1863444E-08;  1.0000000E+04;  0.0000000E+00;  9.9921670E+03;0.43862477;0.0;0.35684785;3284.4734
  8.6005002E-01;  9.9999998E-03;  6.0019650E-02;2380;0.036145598;0.0;0.022057176;1011.0037;  4.0484098E-01;9108.5332;3;17.46101;0.0;16.486681;0;0.82687461;  9.9872188E+03;  0.0000000E+00; -3.8891059E-08;  1.0000000E+04;  0.0000000E+00;  9.9910596E+03;0.44640842;0.0;0.38046616;3797.998
  8.6005074E-01;  9.9999998E-03;  8.0028847E-02;2381;0.036929484;0.0;0.030430954;1010.9224;  4.0484110E-01;9041.2354;3;17.998646;0.0;20.960077;0;0.86432731;  9.9869668E+03;  0.0000000E+00;  5.0430202E-08;  1.0000000E+04;  0.0000000E+00;  9.9897002E+03;0.4574452;0.0;0.40688211;4434.2354
  8.6005181E-01;  9.9999998E-03;  1.0004041E-01;2382;0.03798252;0.0;0.039877724;1010.8289;  4.0484121E-01;8963.7734;3;18.65481;0.0;24.852747;0;0.90210235;  9.9866230E+03;  0.0000000E+00;  1.9416412E-07;  1.0000000E+04;  0.0000000E+00;  9.9881855E+03;0.47179469;0.0;0.43030769;5150.3276
  8.6005324E-01;  9.9999998E-03;  1.2005431E-01;2383;0.039333377;0.0;0.050324537;1010.7238;  4.0484139E-01;8876.7393;3;19.407755;0.0;28.119549;0;0.93394774;  9.9861895E+03;  0.0000000E+00;  1.4374857E-07;  1.0000000E+04;  0.0000000E+00;  9.9865303E+03;0.48933682;0.0;0.44461092;5948.8628
  8.6005515E-01;  9.9999998E-03;  1.4006972E-01;2384;0.040996827;0.0;0.061094847;1010.6028;  4.0484157E-01;8776.6807;3;20.229969;0.0;30.549028;0;0.95328712;  9.9856709E+03;  0.0000000E+00; -5.9007937E-07;  1.0000000E+04;  0.0000000E+00;  9.9846572E+03;0.50957566;0.0;0.44371146;6875.9419
  8.8006353E-01;  9.9999998E-03; -2.4004314E-11;2408;0.045862678;0.0;-2.3140268e-08;1010.6672;  4.0460867E-01;8827.3086;3;22.204735;0.0;-1.2312084e-05;0;0.67913496;  9.9896797E+03;  0.0000000E+00;  1.8580491E-14;  1.0000000E+04;  0.0000000E+00;  9.9934268E+03;0.35842553;0.0;0.32070944;2709.3879
  8.8006365E-01;  9.9999998E-03;  2.0005619E-02;2409;0.045997478;0.0;0.0068281679;1010.6534;  4.0460867E-01;8815.9639;3;22.311306;0.0;5.591486;0;0.68592715;  9.9896465E+03;  0.0000000E+00; -2.3779203E-08;  1.0000000E+04;  0.0000000E+00;  9.9931855E+03;0.35978359;0.0;0.32614353;2819.9297
  8.8006395E-01;  9.9999998E-03;  4.0011663E-02;2410;0.046403334;0.0;0.01374804;1010.6141;  4.0460879E-01;8783.3115;3;22.624855;0.0;10.887712;0;0.70543861;  9.9895557E+03;  0.0000000E+00; -7.5159448E-08;  1.0000000E+04;  0.0000000E+00;  9.9924961E+03;0.36387902;0.0;0.34155959;3138.4229
  8.8006461E-01;  9.9999998E-03;  6.0018715E-02;2411;0.047088228;0.0;0.021004923;1010.553;  4.0460888E-01;8732.8037;3;23.129162;0.0;15.697534;0;0.73498344;  9.9893955E+03;  0.0000000E+00; -9.5782617E-08;  1.0000000E+04;  0.0000000E+00;  9.9914414E+03;0.37077671;0.0;0.36420676;3626.813
  8.8006550E-01;  9.9999998E-03;  8.0027483E-02;2412;0.048072286;0.0;0.028987793;1010.4758;  4.0460894E-01;8668.9785;3;23.802217;0.0;19.961386;0;0.77017617;  9.9891670E+03;  0.0000000E+00;  9.7289643E-10;  1.0000000E+04;  0.0000000E+00;  9.9901387E+03;0.38058367;0.0;0.3895925;4232.2568
  8.8006681E-01;  9.9999998E-03;  1.0003852E-01;2413;0.049389042;0.0;0.038007822;1010.3873;  4.0460899E-01;8595.6826;3;24.620237;0.0;23.683472;0;0.80558789;  9.9888564E+03;  0.0000000E+00;  1.7398021E-07;  1.0000000E+04;  0.0000000E+00;  9.9886885E+03;0.3934122;0.0;0.41217566;4913.7803
  8.8006866E-01;  9.9999998E-03;  1.2005181E-01;2414;0.051075857;0.0;0.048002534;1010.2877;  4.0460920E-01;8513.2129;3;25.557972;0.0;26.827271;0;0.83536339;  9.9884600E+03;  0.0000000E+00;  8.2676216E-08;  1.0000000E+04;  0.0000000E+00;  9.9871064E+03;0.40928078;0.0;0.42608258;5673.5562
  8.8007098E-01;  9.9999998E-03;  1.4006655E-01;2415;0.053157326;0.0;0.058328588;1010.1729;  4.0460941E-01;8418.2139;3;26.58659;0.0;29.194925;0;0.85349691;  9.9879766E+03;  0.0000000E+00; -1.0856196E-06;  1.0000000E+04;  0.0000000E+00;  9.9853145E+03;0.42795876;0.0;0.42553818;6555.9531
  9.0007579E-01;  9.9999998E-03; -5.4207257E-11;2439;0.055013221;0.0;-3.0844905e-08;1010.089;  4.0431893E-01;8345.4775;3;26.946733;0.0;4.4764602e-06;0;0.57355857;  9.9922314E+03;  0.0000000E+00; -3.8759007E-17;  1.0000000E+04;  0.0000000E+00;  9.9937676E+03;0.27008793;0.0;0.30347067;2562.5793
  9.0007591E-01;  9.9999998E-03;  2.0005280E-02;2440;0.055174723;0.0;0.0064127357;1010.0764;  4.0431893E-01;8335.0244;3;27.073944;0.0;5.2512932;0;0.57984507;  9.9922090E+03;  0.0000000E+00; -3.6998372E-08;  1.0000000E+04;  0.0000000E+00;  9.9935410E+03;0.27122971;0.0;0.30861536;2666.0303
  9.0007633E-01;  9.9999998E-03;  4.0010959E-02;2441;0.055660561;0.0;0.012913528;1010.0397;  4.0431890E-01;8304.6533;3;27.448202;0.0;10.226193;0;0.59790325;  9.9921289E+03;  0.0000000E+00; -1.3742839E-07;  1.0000000E+04;  0.0000000E+00;  9.9928877E+03;0.27467695;0.0;0.32322627;2964.2612
  9.0007704E-01;  9.9999998E-03;  6.0017589E-02;2442;0.056478206;0.0;0.019736419;1009.9826;  4.0431899E-01;8257.4199;3;28.048815;0.0;14.747902;0;0.62523067;  9.9919912E+03;  0.0000000E+00; -2.3259132E-07;  1.0000000E+04;  0.0000000E+00;  9.9918945E+03;0.2804991;0.0;0.3447316;3422.0015
  9.0007818E-01;  9.9999998E-03;  8.0025852E-02;2443;0.057649337;0.0;0.027254118;1009.9106;  4.0431902E-01;8197.959;3;28.844679;0.0;18.765022;0;0.65772086;  9.9917910E+03;  0.0000000E+00; -2.3167026E-07;  1.0000000E+04;  0.0000000E+00;  9.9906660E+03;0.2888225;0.0;0.36889836;3989.9097
  9.0007973E-01;  9.9999998E-03;  1.0003626E-01;2444;0.059209596;0.0;0.03576703;1009.8282;  4.0431908E-01;8129.7222;3;29.809612;0.0;22.287094;0;0.69029295;  9.9915186E+03;  0.0000000E+00; -1.7728304E-07;  1.0000000E+04;  0.0000000E+00;  9.9892988E+03;0.29982764;0.0;0.39046529;4629.2686
  9.0008187E-01;  9.9999998E-03;  1.2004881E-01;2445;0.061201077;0.0;0.045220554;1009.7351;  4.0431929E-01;8052.7085;3;30.916168;0.0;25.284691;0;0.71755338;  9.9911660E+03;  0.0000000E+00; -5.3908923E-07;  1.0000000E+04;  0.0000000E+00;  9.9878018E+03;0.31370097;0.0;0.40385237;5341.6226
  9.0008467E-01;  9.9999998E-03;  1.4006272E-01;2446;0.063656934;0.0;0.055005606;1009.6279;  4.0431949E-01;7964.0601;3;32.132931;0.0;27.571642;0;0.73416436;  9.9907256E+03;  0.0000000E+00; -2.3711334E-06;  1.0000000E+04;  0.0000000E+00;  9.9861123E+03;0.33053514;0.0;0.40362918;6169.0137
  9.2008138E-01;  9.9999998E-03; -1.5438687E-12;2470;0.058957167;0.0;4.1008623e-09;1009.4153;  4.0398613E-01;7783.9839;3;29.179989;0.0;2.0210282e-06;0;0.45993429;  9.9949746E+03;  0.0000000E+00; -2.1396141E-15;  1.0000000E+04;  0.0000000E+00;  9.9941436E+03;0.17579268;0.0;0.2841416;2398.7788
  9.2008156E-01;  9.9999998E-03;  2.0004973E-02;2471;0.059164096;0.0;0.0059814169;1009.4036;  4.0398604E-01;7774.2271;3;29.324907;0.0;4.8602028;0;0.46561915;  9.9949531E+03;  0.0000000E+00; -4.6772890E-08;  1.0000000E+04;  0.0000000E+00;  9.9939326E+03;0.17666022;0.0;0.28895891;2494.0415
  9.2008215E-01;  9.9999998E-03;  4.0010296E-02;2472;0.059788808;0.0;0.012037364;1009.37;  4.0398616E-01;7746.4341;3;29.753195;0.0;9.4687023;0;0.48194212;  9.9948936E+03;  0.0000000E+00; -1.7323737E-07;  1.0000000E+04;  0.0000000E+00;  9.9933281E+03;0.17928807;0.0;0.30265403;2768.8628
  9.2008317E-01;  9.9999998E-03;  6.0016476E-02;2473;0.060847245;0.0;0.018380791;1009.3181;  4.0398613E-01;7703.5635;3;30.448345;0.0;13.663029;0;0.50660789;  9.9947852E+03;  0.0000000E+00; -3.4141885E-07;  1.0000000E+04;  0.0000000E+00;  9.9924033E+03;0.18375875;0.0;0.32284915;3191.144
  9.2008466E-01;  9.9999998E-03;  8.0024138E-02;2474;0.062350623;0.0;0.025359545;1009.2524;  4.0398622E-01;7649.2588;3;31.397543;0.0;17.399574;0;0.53582633;  9.9946270E+03;  0.0000000E+00; -4.7374169E-07;  1.0000000E+04;  0.0000000E+00;  9.9912559E+03;0.19022854;0.0;0.34559777;3715.561
  9.2008674E-01;  9.9999998E-03;  1.0003380E-01;2475;0.064328216;0.0;0.033269674;1009.1775;  4.0398630E-01;7587.2686;3;32.569992;0.0;20.690546;0;0.56490433;  9.9944082E+03;  0.0000000E+00; -6.2966035E-07;  1.0000000E+04;  0.0000000E+00;  9.9899844E+03;0.19895384;0.0;0.36595047;4305.9902
  9.2008942E-01;  9.9999998E-03;  1.2004545E-01;2476;0.066791169;0.0;0.042079471;1009.0925;  4.0398642E-01;7517.0977;3;33.888039;0.0;23.515388;0;0.58895838;  9.9941162E+03;  0.0000000E+00; -1.3144015E-06;  1.0000000E+04;  0.0000000E+00;  9.9885947E+03;0.21030127;0.0;0.37865713;4963.2583
  9.2009282E-01;  9.9999998E-03;  1.4005841E-01;2477;0.069773927;0.0;0.051225625;1008.9943;  4.0398660E-01;7435.79;3;35.374542;0.0;25.698446;0;0.60337436;  9.9937344E+03;  0.0000000E+00; -3.7359362E-06;  1.0000000E+04;  0.0000000E+00;  9.9870215E+03;0.22470817;0.0;0.37866622;5726.585
  9.4008183E-01;  9.9999998E-03;  1.0364713E-11;2501;0.059330188;0.0;9.5300159e-09;1008.6666;  4.0362650E-01;7159.6875;3;29.533676;0.0;1.8913415e-05;0;0.35192174;  9.9975449E+03;  0.0000000E+00;  8.9665637E-15;  1.0000000E+04;  0.0000000E+00;  9.9945430E+03;0.088409081;0.0;0.26351264;2222.9385
  9.4008201E-01;  9.9999998E-03;  2.0004673E-02;2502;0.059546791;0.0;0.0055243098;1008.6562;  4.0362653E-01;7151.0215;3;29.6812;0.0;4.4318419;0;0.35693753;  9.9975342E+03;  0.0000000E+00; -3.6067668E-08;  1.0000000E+04;  0.0000000E+00;  9.9943506E+03;0.088963725;0.0;0.26797381;2309.2002
  9.4008267E-01;  9.9999998E-03;  4.0009648E-02;2503;0.060202133;0.0;0.011113913;1008.6264;  4.0362653E-01;7126.4995;3;30.119284;0.0;8.6402636;0;0.37132645;  9.9974922E+03;  0.0000000E+00; -1.5185842E-07;  1.0000000E+04;  0.0000000E+00;  9.9937979E+03;0.09065944;0.0;0.28066701;2558.2495
  9.4008380E-01;  9.9999998E-03;  6.0015365E-02;2504;0.061311778;0.0;0.016953338;1008.5799;  4.0362662E-01;7087.9927;3;30.835793;0.0;12.485506;0;0.39301181;  9.9974219E+03;  0.0000000E+00; -3.3959725E-07;  1.0000000E+04;  0.0000000E+00;  9.9929473E+03;0.093598351;0.0;0.29941347;2941.3877
  9.4008541E-01;  9.9999998E-03;  8.0022402E-02;2505;0.062899105;0.0;0.023362994;1008.5217;  4.0362665E-01;7039.9331;3;31.810318;0.0;15.924941;0;0.41854301;  9.9973145E+03;  0.0000000E+00; -5.3469705E-07;  1.0000000E+04;  0.0000000E+00;  9.9918945E+03;0.097974233;0.0;0.32056877;3417.6702
  9.4008768E-01;  9.9999998E-03;  1.0003124E-01;2506;0.064982772;0.0;0.030620655;1008.4549;  4.0362665E-01;6984.7827;3;32.998749;0.0;18.963554;0;0.44364685;  9.9971582E+03;  0.0000000E+00; -7.8471476E-07;  1.0000000E+04;  0.0000000E+00;  9.9907285E+03;0.10411787;0.0;0.33952898;3953.9336
  9.4009060E-01;  9.9999998E-03;  1.2004193E-01;2507;0.067590639;0.0;0.038721111;1008.3797;  4.0362680E-01;6922.6406;3;34.369781;0.0;21.59458;0;0.46397275;  9.9969395E+03;  0.0000000E+00; -1.5418707E-06;  1.0000000E+04;  0.0000000E+00;  9.9894512E+03;0.11256073;0.0;0.351412;4550.4204
  9.4009435E-01;  9.9999998E-03;  1.4005385E-01;2508;0.07077153;0.0;0.047157459;1008.2916;  4.0362686E-01;6849.8613;3;35.908978;0.0;23.655027;0;0.47562665;  9.9966309E+03;  0.0000000E+00; -3.9374058E-06;  1.0000000E+04;  0.0000000E+00;  9.9880088E+03;0.12405477;0.0;0.35157189;5243.2432
  9.6008068E-01;  9.9999998E-03; -2.8657695E-12;2532;0.058668215;0.0;8.4185858e-09;1007.8672;  4.0325570E-01;6492.8271;3;29.387407;0.0;3.4620811e-05;0;0.25990471;  9.9996611E+03;  0.0000000E+00; -6.0338439E-15;  1.0000000E+04;  0.0000000E+00;  9.9949521E+03;0.017549535;0.0;0.24235518;2039.6211
  9.6008092E-01;  9.9999998E-03;  2.0004306E-02;2533;0.058883913;0.0;0.0050240294;1007.8582;  4.0325561E-01;6485.3496;3;29.537006;0.0;3.9858618;0;0.2642464;  9.9996523E+03;  0.0000000E+00; -1.9331900E-08;  1.0000000E+04;  0.0000000E+00;  9.9947773E+03;0.017803386;0.0;0.246443;2116.3933
  9.6008152E-01;  9.9999998E-03;  4.0008880E-02;2534;0.059536517;0.0;0.010111037;1007.8322;  4.0325579E-01;6463.9019;3;29.981951;0.0;7.7833109;0;0.27668464;  9.9996357E+03;  0.0000000E+00; -8.5851525E-08;  1.0000000E+04;  0.0000000E+00;  9.9942793E+03;0.018605234;0.0;0.25807941;2338.2095
  9.6008265E-01;  9.9999998E-03;  6.0014118E-02;2535;0.060645267;0.0;0.015432835;1007.7915;  4.0325576E-01;6430.3525;3;30.707129;0.0;11.271177;0;0.29536077;  9.9996016E+03;  0.0000000E+00; -2.1945327E-07;  1.0000000E+04;  0.0000000E+00;  9.9935059E+03;0.020080818;0.0;0.27527997;2679.8538
  9.6008426E-01;  9.9999998E-03;  8.0020539E-02;2536;0.062239137;0.0;0.021278465;1007.741;  4.0325576E-01;6388.6372;3;31.68363;0.0;14.410953;0;0.31717214;  9.9995430E+03;  0.0000000E+00; -3.8569985E-07;  1.0000000E+04;  0.0000000E+00;  9.9925547E+03;0.022462089;0.0;0.29471004;3105.0054
  9.6008658E-01;  9.9999998E-03;  1.0002859E-01;2537;0.064342961;0.0;0.027897341;1007.683;  4.0325585E-01;6340.8218;3;32.872467;0.0;17.204807;0;0.33828512;  9.9994531E+03;  0.0000000E+00; -5.7928469E-07;  1.0000000E+04;  0.0000000E+00;  9.9914961E+03;0.026143175;0.0;0.31214195;3583.8845
  9.6008956E-01;  9.9999998E-03;  1.2003830E-01;2538;0.066974156;0.0;0.035283644;1007.6174;  4.0325582E-01;6286.71;3;34.250999;0.0;19.649345;0;0.35488346;  9.9993076E+03;  0.0000000E+00; -1.0443257E-06;  1.0000000E+04;  0.0000000E+00;  9.9903428E+03;0.031785838;0.0;0.32309762;4116.5425
  9.6009338E-01;  9.9999998E-03;  1.4004914E-01;2539;0.070189327;0.0;0.042985383;1007.5402;  4.0325603E-01;6222.8574;3;35.787003;0.0;21.58182;0;0.36374512;  9.9990791E+03;  0.0000000E+00; -2.5979384E-06;  1.0000000E+04;  0.0000000E+00;  9.9890293E+03;0.040389806;0.0;0.32335532;4735.9131
  9.8007876E-01;  9.9999998E-03;  4.7730526E-12;2563;0.057406716;0.0;-3.6837577e-10;1007.0472;  4.0288800E-01;5808.29;3;28.931519;0.0;1.5340571e-05;0;0.18773472;  1.0001220E+04;  0.0000000E+00;  2.6720122E-15;  1.0000000E+04;  0.0000000E+00;  9.9953564E+03;-0.033665206;0.0;0.22139993;1853.5981
  9.8007900E-01;  9.9999998E-03;  2.0003941E-02;2564;0.057618812;0.0;0.0045324597;1007.0393;  4.0288800E-01;5801.8052;3;29.087507;0.0;3.5498157;0;0.19145119;  1.0001220E+04;  0.0000000E+00;  6.0076855E-09;  1.0000000E+04;  0.0000000E+00;  9.9951992E+03;-0.033653889;0.0;0.22510508;1920.6766
  9.8007953E-01;  9.9999998E-03;  4.0008120E-02;2565;0.058256879;0.0;0.0091316747;1007.0168;  4.0288794E-01;5783.333;3;29.556574;0.0;6.9481149;0;0.20208022;  1.0001218E+04;  0.0000000E+00; -7.9640641E-09;  1.0000000E+04;  0.0000000E+00;  9.9947529E+03;-0.033570848;0.0;0.23565106;2114.6099
  9.8008060E-01;  9.9999998E-03;  6.0012884E-02;2566;0.059340674;0.0;0.013947946;1006.9822;  4.0288800E-01;5754.7417;3;30.294682;0.0;10.082104;0;0.21797624;  1.0001215E+04;  0.0000000E+00; -6.0117046E-08;  1.0000000E+04;  0.0000000E+00;  9.9940664E+03;-0.033264875;0.0;0.25124112;2413.6868
  9.8008215E-01;  9.9999998E-03;  8.0018699E-02;2567;0.060897887;0.0;0.019227788;1006.9385;  4.0288809E-01;5718.7803;3;31.277397;0.0;12.920064;0;0.23638782;  1.0001200E+04;  0.0000000E+00; -1.4740893E-07;  1.0000000E+04;  0.0000000E+00;  9.9932158E+03;-0.032466441;0.0;0.26885426;2786.4236
  9.8008436E-01;  9.9999998E-03;  1.0002595E-01;2568;0.062972315;0.0;0.025208918;1006.8885;  4.0288809E-01;5677.5137;3;32.45694;0.0;15.49005;0;0.25393769;  1.0001159E+04;  0.0000000E+00; -2.3056691E-07;  1.0000000E+04;  0.0000000E+00;  9.9922656E+03;-0.030728245;0.0;0.28466594;3206.9824
  9.8008728E-01;  9.9999998E-03;  1.2003470E-01;2569;0.065593354;0.0;0.031897411;1006.8324;  4.0288818E-01;5631.2354;3;33.836529;0.0;17.764193;0;0.26733786;  1.0001074E+04;  0.0000000E+00; -3.2220709E-07;  1.0000000E+04;  0.0000000E+00;  9.9912334E+03;-0.027295137;0.0;0.294633;3675.8376
  9.8009109E-01;  9.9999998E-03;  1.4004447E-01;2570;0.068814673;0.0;0.038881835;1006.7649;  4.0288821E-01;5575.6226;3;35.394947;0.0;19.599968;0;0.27397543;  1.0000908E+04;  0.0000000E+00; -6.2551567E-07;  1.0000000E+04;  0.0000000E+00;  9.9900537E+03;-0.020995464;0.0;0.2949709;4222.792
  1.0000764E+00;  9.9999998E-03; -6.2299081E-12;2594;0.055858992;0.0;9.9786543e-09;1006.2385;  4.0253553E-01;5132.5361;3;28.288845;0.0;6.020072e-05;0;0.13386336;  1.0002276E+04;  0.0000000E+00;  1.5845756E-15;  1.0000000E+04;  0.0000000E+00;  9.9957402E+03;-0.067405634;0.0;0.20126899;1669.3793
  1.0000765E+00;  9.9999998E-03;  2.0003617E-02;2595;0.056063242;0.0;0.0040743751;1006.2319;  4.0253553E-01;5127.1421;3;28.444036;0.0;3.1555512;0;0.13703081;  1.0002280E+04;  0.0000000E+00;  2.0875104E-08;  1.0000000E+04;  0.0000000E+00;  9.9956035E+03;-0.067553245;0.0;0.20458406;1726.799
  1.0000771E+00;  9.9999998E-03;  4.0007442E-02;2596;0.056678455;0.0;0.0082184225;1006.2128;  4.0253547E-01;5111.4492;3;28.900387;0.0;6.1946545;0;0.1460778;  1.0002291E+04;  0.0000000E+00;  6.7710793E-08;  1.0000000E+04;  0.0000000E+00;  9.9952100E+03;-0.067937478;0.0;0.21401528;1892.9229
  1.0000781E+00;  9.9999998E-03;  6.0011771E-02;2597;0.057710011;0.0;0.01257111;1006.1832;  4.0253547E-01;5087.0278;3;29.628878;0.0;9.0328541;0;0.15956748;  1.0002304E+04;  0.0000000E+00;  9.4673503E-08;  1.0000000E+04;  0.0000000E+00;  9.9946045E+03;-0.068380944;0.0;0.22794843;2149.5234
  1.0000795E+00;  9.9999998E-03;  8.0017015E-02;2598;0.059191581;0.0;0.017368268;1006.1459;  4.0253553E-01;5056.4272;3;30.61989;0.0;11.646079;0;0.17510873;  1.0002314E+04;  0.0000000E+00;  6.2054575E-08;  1.0000000E+04;  0.0000000E+00;  9.9938564E+03;-0.068573169;0.0;0.24368191;2470.2561
  1.0000815E+00;  9.9999998E-03;  1.0002354E-01;2599;0.061181128;0.0;0.022785587;1006.1033;  4.0253556E-01;5021.3145;3;31.831041;0.0;13.989275;0;0.18980327;  1.0002306E+04;  0.0000000E+00; -4.7181864E-08;  1.0000000E+04;  0.0000000E+00;  9.9930166E+03;-0.068014383;0.0;0.25781766;2833.9424
  1.0000844E+00;  9.9999998E-03;  1.2003137E-01;2600;0.063747846;0.0;0.028809996;1006.0542;  4.0253547E-01;4980.9058;3;33.234707;0.0;16.091059;0;0.20089047;  1.0002259E+04;  0.0000000E+00; -1.3429447E-07;  1.0000000E+04;  0.0000000E+00;  9.9920938E+03;-0.065885857;0.0;0.26677632;3242.2212
  1.0000882E+00;  9.9999998E-03;  1.4004008E-01;2601;0.066966921;0.0;0.03508392;1005.9946;  4.0253553E-01;4931.8657;3;34.834812;0.0;17.830667;0;0.20630954;  1.0002128E+04;  0.0000000E+00;  1.1532121E-07;  1.0000000E+04;  0.0000000E+00;  9.9910342E+03;-0.060913634;0.0;0.26722318;3721.8584
  1.0200734E+00;  9.9999998E-03;  1.9251389E-12;2625;0.053983983;0.0;3.4287371e-09;1005.4717;  4.0220773E-01;4490.8984;3;27.529322;0.0;1.3508223e-05;0;0.094164744;  1.0002949E+04;  0.0000000E+00; -4.6948432E-16;  1.0000000E+04;  0.0000000E+00;  9.9961025E+03;-0.088243037;0.0;0.18240778;1490.3823
  1.0200735E+00;  9.9999998E-03;  2.0003326E-02;2626;0.054179311;0.0;0.003659341;1005.4661;  4.0220782E-01;4486.3003;3;27.684164;0.0;2.7669516;0;0.096861869;  1.0002953E+04;  0.0000000E+00;  4.1513132E-08;  1.0000000E+04;  0.0000000E+00;  9.9959824E+03;-0.088462576;0.0;0.18532445;1538.4044
  1.0200741E+00;  9.9999998E-03;  4.0006846E-02;2627;0.054766204;0.0;0.007393132;1005.4496;  4.0220782E-01;4472.7979;3;28.1425;0.0;5.4565234;0;0.10456134;  1.0002970E+04;  0.0000000E+00;  1.4921032E-07;  1.0000000E+04;  0.0000000E+00;  9.9956436E+03;-0.089054152;0.0;0.1936155;1677.4702
  1.0200750E+00;  9.9999998E-03;  6.0010798E-02;2628;0.055756282;0.0;0.011326665;1005.4246;  4.0220779E-01;4452.2505;3;28.886881;0.0;8.0087461;0;0.11603752;  1.0002992E+04;  0.0000000E+00;  2.6332089E-07;  1.0000000E+04;  0.0000000E+00;  9.9951191E+03;-0.089813903;0.0;0.20585142;1892.8584
  1.0200764E+00;  9.9999998E-03;  8.0015518E-02;2629;0.057186186;0.0;0.015642412;1005.3925;  4.0220788E-01;4425.8325;3;29.872841;0.0;10.38303;0;0.12928352;  1.0003011E+04;  0.0000000E+00;  2.2149486E-07;  1.0000000E+04;  0.0000000E+00;  9.9944658E+03;-0.090382248;0.0;0.21966577;2163.7451
  1.0200783E+00;  9.9999998E-03;  1.0002133E-01;2630;0.059114005;0.0;0.020516641;1005.3552;  4.0220779E-01;4395.207;3;31.077122;0.0;12.588528;0;0.14191532;  1.0003008E+04;  0.0000000E+00; -2.3232968E-07;  1.0000000E+04;  0.0000000E+00;  9.9937256E+03;-0.090194412;0.0;0.23210974;2474.3809
  1.0200812E+00;  9.9999998E-03;  1.2002829E-01;2631;0.061637681;0.0;0.02594869;1005.3115;  4.0220782E-01;4359.396;3;32.500664;0.0;14.582733;0;0.15172045;  1.0002965E+04;  0.0000000E+00; -1.2080139E-06;  1.0000000E+04;  0.0000000E+00;  9.9928955E+03;-0.088374883;0.0;0.24009533;2828.3179
  1.0200849E+00;  9.9999998E-03;  1.4003600E-01;2632;0.064870261;0.0;0.031567141;1005.2568;  4.0220788E-01;4314.4844;3;34.157879;0.0;16.230906;0;0.15714239;  1.0002839E+04;  0.0000000E+00; -2.2399051E-06;  1.0000000E+04;  0.0000000E+00;  9.9919355E+03;-0.083607212;0.0;0.2407496;3249.2861
  1.0400699E+00;  9.9999998E-03;  1.3396627E-11;2656;0.051826715;0.0;7.3524142e-09;1004.7679;  4.0191141E-01;3900.6768;3;26.671232;0.0;-4.819507e-06;0;0.064535424;  1.0003358E+04;  0.0000000E+00; -8.7164296E-16;  1.0000000E+04;  0.0000000E+00;  9.9964375E+03;-0.10050632;0.0;0.16504174;1318.472
  1.0400702E+00;  9.9999998E-03;  2.0003065E-02;2657;0.052012164;0.0;0.0032936747;1004.7632;  4.0191147E-01;3896.873;3;26.826368;0.0;2.4118264;0;0.066827245;  1.0003361E+04;  0.0000000E+00;  7.1378693E-08;  1.0000000E+04;  0.0000000E+00;  9.9963359E+03;-0.10072394;0.0;0.16755119;1357.5811
  1.0400707E+00;  9.9999998E-03;  4.0006306E-02;2658;0.052570276;0.0;0.0066625373;1004.7495;  4.0191141E-01;3885.657;3;27.275667;0.0;4.7837029;0;0.073377185;  1.0003373E+04;  0.0000000E+00;  2.6939907E-07;  1.0000000E+04;  0.0000000E+00;  9.9960498E+03;-0.10130195;0.0;0.17467913;1471.053
  1.0400715E+00;  9.9999998E-03;  6.0009930E-02;2659;0.053515624;0.0;0.010221744;1004.7277;  4.0191147E-01;3867.8091;3;28.01404;0.0;7.0698805;0;0.083186507;  1.0003391E+04;  0.0000000E+00;  4.7592201E-07;  1.0000000E+04;  0.0000000E+00;  9.9955977E+03;-0.10200772;0.0;0.18519422;1647.7896
  1.0400728E+00;  9.9999998E-03;  8.0014192E-02;2660;0.054887038;0.0;0.014114421;1004.6998;  4.0191144E-01;3844.9873;3;28.987547;0.0;9.24823;0;0.094666004;  1.0003402E+04;  0.0000000E+00;  3.2120431E-07;  1.0000000E+04;  0.0000000E+00;  9.9950313E+03;-0.10242245;0.0;0.19708845;1872.8678
  1.0400747E+00;  9.9999998E-03;  1.0001935E-01;2661;0.056761138;0.0;0.018485853;1004.6664;  4.0191144E-01;3817.5808;3;30.199917;0.0;11.309659;0;0.10599209;  1.0003391E+04;  0.0000000E+00; -9.5701307E-07;  1.0000000E+04;  0.0000000E+00;  9.9943760E+03;-0.10189388;0.0;0.20788597;2136.5598
  1.0400774E+00;  9.9999998E-03;  1.2002547E-01;2662;0.059259217;0.0;0.023320679;1004.6256;  4.0191147E-01;3784.2249;3;31.647907;0.0;13.190733;0;0.11554173;  1.0003327E+04;  0.0000000E+00; -4.2314987E-06;  1.0000000E+04;  0.0000000E+00;  9.9936240E+03;-0.099472798;0.0;0.21501453;2444.7976
  1.0400811E+00;  9.9999998E-03;  1.4003225E-01;2663;0.062521651;0.0;0.028321395;1004.573;  4.0191150E-01;3741.2129;3;33.36351;0.0;14.748754;0;0.12221453;  1.0003172E+04;  0.0000000E+00; -8.8017641E-06;  1.0000000E+04;  0.0000000E+00;  9.9927344E+03;-0.093856633;0.0;0.21607116;2818.0376
  1.0600662E+00;  9.9999998E-03;  8.1425864E-12;2687;0.049444608;0.0;4.575158e-09;1004.1422;  4.0165049E-01;3374.2449;3;25.751247;0.0;-1.4734396e-06;0;0.042245649;  1.0003570E+04;  0.0000000E+00;  1.5182829E-15;  1.0000000E+04;  0.0000000E+00;  9.9967432E+03;-0.10692947;0.0;0.14917512;1154.1012
  1.0600663E+00;  9.9999998E-03;  2.0002831E-02;2688;0.049617276;0.0;0.0029736154;1004.1381;  4.0165049E-01;3370.9431;3;25.913464;0.0;2.0936997;0;0.044186197;  1.0003574E+04;  0.0000000E+00;  1.1365992E-07;  1.0000000E+04;  0.0000000E+00;  9.9966602E+03;-0.10708872;0.0;0.15127492;1185.0496
  1.0600668E+00;  9.9999998E-03;  4.0005822E-02;2689;0.050149299;0.0;0.0060252119;1004.1263;  4.0165055E-01;3361.3291;3;26.360786;0.0;4.1793222;0;0.049759313;  1.0003582E+04;  0.0000000E+00;  4.1910616E-07;  1.0000000E+04;  0.0000000E+00;  9.9964189E+03;-0.10748106;0.0;0.15724038;1275.2484
  1.0600675E+00;  9.9999998E-03;  6.0009148E-02;2690;0.051052049;0.0;0.0092514604;1004.1074;  4.0165058E-01;3345.8879;3;27.06406;0.0;6.2405353;0;0.058224261;  1.0003585E+04;  0.0000000E+00;  6.7510780E-07;  1.0000000E+04;  0.0000000E+00;  9.9960381E+03;-0.10783629;0.0;0.16606055;1417.3925
  1.0600688E+00;  9.9999998E-03;  8.0013014E-02;2691;0.052378073;0.0;0.012779943;1004.0823;  4.0165055E-01;3325.4941;3;28.01882;0.0;8.2561474;0;0.068456516;  1.0003576E+04;  0.0000000E+00;  1.3187719E-07;  1.0000000E+04;  0.0000000E+00;  9.9955488E+03;-0.10765807;0.0;0.17611459;1602.6686
  1.0600708E+00;  9.9999998E-03;  1.0001760E-01;2692;0.054208402;0.0;0.016686361;1004.0507;  4.0165052E-01;3299.6616;3;29.214697;0.0;10.15778;0;0.079239033;  1.0003531E+04;  0.0000000E+00; -2.8421157E-06;  1.0000000E+04;  0.0000000E+00;  9.9949600E+03;-0.10618372;0.0;0.18542275;1827.5083
  1.0600734E+00;  9.9999998E-03;  1.2002293E-01;2693;0.056701284;0.0;0.02094302;1004.01;  4.0165058E-01;3266.5454;3;30.694672;0.0;11.885562;0;0.089537427;  1.0003424E+04;  0.0000000E+00; -1.0090295E-05;  1.0000000E+04;  0.0000000E+00;  9.9942578E+03;-0.10239497;0.0;0.1919324;2100.042
  1.0600772E+00;  9.9999998E-03;  1.4002876E-01;2694;0.059987716;0.0;0.025246922;1003.9565;  4.0165061E-01;3223.0376;3;32.483837;0.0;13.275915;0;0.098598883;  1.0003211E+04;  0.0000000E+00; -5.3217442E-05;  1.0000000E+04;  0.0000000E+00;  9.9934053E+03;-0.095101431;0.0;0.19370031;2436.8052
  1.0800622E+00;  9.9999998E-03;  1.2375841E-12;2718;0.046948191;0.0;2.260186e-09;1003.5991;  4.0142652E-01;2915.1401;3;24.815334;0.0;6.9559319e-06;0;0.026015677;  1.0003626E+04;  0.0000000E+00; -2.9272360E-15;  1.0000000E+04;  0.0000000E+00;  9.9970293E+03;-0.1086309;0.0;0.13464658;997.12445
  1.0800623E+00;  9.9999998E-03;  2.0002622E-02;2719;0.047112402;0.0;0.0027013365;1003.5956;  4.0142646E-01;2912.3401;3;24.947235;0.0;1.8533585;0;0.027669072;  1.0003625E+04;  0.0000000E+00;  1.4540340E-07;  1.0000000E+04;  0.0000000E+00;  9.9969629E+03;-0.10868411;0.0;0.13635318;1021.0248
  1.0800627E+00;  9.9999998E-03;  4.0005393E-02;2720;0.047614422;0.0;0.0054827221;1003.5852;  4.0142652E-01;2903.9392;3;25.360392;0.0;3.7172828;0;0.0324779;  1.0003619E+04;  0.0000000E+00;  4.8545854E-07;  1.0000000E+04;  0.0000000E+00;  9.9967598E+03;-0.10873914;0.0;0.14121704;1091.3472
  1.0800636E+00;  9.9999998E-03;  6.0008455E-02;2721;0.048486251;0.0;0.0084226932;1003.5681;  4.0142643E-01;2890.1309;3;26.050802;0.0;5.5727839;0;0.040011138;  1.0003601E+04;  0.0000000E+00;  5.3074365E-07;  1.0000000E+04;  0.0000000E+00;  9.9964375E+03;-0.10846172;0.0;0.14847286;1204.6348
  1.0800648E+00;  9.9999998E-03;  8.0011964E-02;2722;0.049785413;0.0;0.011606204;1003.5441;  4.0142652E-01;2870.6255;3;26.991213;0.0;7.3799877;0;0.049663089;  1.0003558E+04;  0.0000000E+00; -1.1359083E-06;  1.0000000E+04;  0.0000000E+00;  9.9960029E+03;-0.10724934;0.0;0.15691243;1357.9521
  1.0800667E+00;  9.9999998E-03;  1.0001601E-01;2723;0.051610459;0.0;0.015067843;1003.5121;  4.0142646E-01;2844.7463;3;28.195641;0.0;9.1129255;0;0.060819387;  1.0003464E+04;  0.0000000E+00; -7.2821049E-06;  1.0000000E+04;  0.0000000E+00;  9.9954570E+03;-0.10423933;0.0;0.16505872;1553.2123
  1.0800694E+00;  9.9999998E-03;  1.2002062E-01;2724;0.054115441;0.0;0.018765152;1003.4689;  4.0142661E-01;2809.7908;3;29.704071;0.0;10.664178;0;0.072910883;  1.0003286E+04;  0.0000000E+00; -2.0248657E-05;  1.0000000E+04;  0.0000000E+00;  9.9947764E+03;-0.098427691;0.0;0.17133857;1799.7427
  1.0800731E+00;  9.9999998E-03;  1.4002551E-01;2725;0.057435062;0.0;0.022421969;1003.4124;  4.0142664E-01;2763.9229;3;31.544479;0.0;11.932692;0;0.085157648;  1.0003003E+04;  0.0000000E+00; -7.2899292E-04;  1.0000000E+04;  0.0000000E+00;  9.9939316E+03;-0.089092597;0.0;0.17425025;2108.9175
  1.1000582E+00;  9.9999998E-03; -3.9239895E-13;2748;0.044453122;0.0;2.9899359e-09;1003.1371;  4.0123835E-01;2521.8933;3;23.786392;0.0;7.0952956e-06;0;0.015404575;  1.0003521E+04;  0.0000000E+00; -1.1361559E-15;  1.0000000E+04;  0.0000000E+00;  9.9972998E+03;-0.10585432;0.0;0.1212589;848.23853
  1.1000583E+00;  9.9999998E-03;  2.0002440E-02;2749;0.044611957;0.0;0.0024645375;1003.1339;  4.0123844E-01;2519.3059;3;23.909376;0.0;1.6491288;0;0.016890228;  1.0003515E+04;  0.0000000E+00;  9.9136862E-08;  1.0000000E+04;  0.0000000E+00;  9.9972412E+03;-0.10573547;0.0;0.1226257;866.62976
  1.1000588E+00;  9.9999998E-03;  4.0005006E-02;2750;0.045099519;0.0;0.0050007235;1003.1242;  4.0123844E-01;2511.543;3;24.326757;0.0;3.3234608;0;0.021319516;  1.0003492E+04;  0.0000000E+00;  1.7559530E-07;  1.0000000E+04;  0.0000000E+00;  9.9970693E+03;-0.10523709;0.0;0.12655661;921.63232
  1.1000596E+00;  9.9999998E-03;  6.0007822E-02;2751;0.045957498;0.0;0.0076821567;1003.1074;  4.0123844E-01;2497.9341;3;25.000912;0.0;5.0035429;0;0.028617583;  1.0003440E+04;  0.0000000E+00; -7.4354347E-07;  1.0000000E+04;  0.0000000E+00;  9.9967842E+03;-0.10392929;0.0;0.13254687;1013.2816
  1.1000608E+00;  9.9999998E-03;  8.0010965E-02;2752;0.047246367;0.0;0.010536463;1003.0824;  4.0123841E-01;2477.9041;3;25.946487;0.0;6.6456943;0;0.038683675;  1.0003341E+04;  0.0000000E+00; -5.0145318E-06;  1.0000000E+04;  0.0000000E+00;  9.9963848E+03;-0.10111249;0.0;0.13979617;1143.5179
  1.1000627E+00;  9.9999998E-03;  1.0001453E-01;2753;0.049091455;0.0;0.013611569;1003.047;  4.0123838E-01;2449.4402;3;27.165562;0.0;8.2105141;0;0.05136589;  1.0003172E+04;  0.0000000E+00; -1.6179523E-05;  1.0000000E+04;  0.0000000E+00;  9.9958506E+03;-0.095921345;0.0;0.14728723;1318.1129
  1.1000655E+00;  9.9999998E-03;  1.2001839E-01;2754;0.051601179;0.0;0.01671546;1002.9993;  4.0123844E-01;2411.105;3;28.71064;0.0;9.5569143;0;0.06621471;  1.0002907E+04;  0.0000000E+00; -2.7442208E-04;  1.0000000E+04;  0.0000000E+00;  9.9951621E+03;-0.087634221;0.0;0.15384893;1545.8398
  1.1000694E+00;  9.9999998E-03;  1.4002265E-01;2755;0.055063441;0.0;0.019884864;1002.9391;  4.0123853E-01;2362.7065;3;30.712585;0.0;10.605573;0;0.081533968;  1.0002560E+04;  0.0000000E+00; -5.1679774E-03;  1.0000000E+04;  0.0000000E+00;  9.9943086E+03;-0.076833412;0.0;0.15836738;1831.0618
  1.1200545E+00;  9.9999998E-03; -3.3058055E-12;2777;0.042095646;0.0;7.7195456e-10;1002.7499;  4.0108427E-01;2188.8528;3;22.801981;0.0;6.1468745e-06;0;0.010848403;  1.0003239E+04;  0.0000000E+00; -1.4256101E-15;  1.0000000E+04;  0.0000000E+00;  9.9975430E+03;-0.098148912;0.0;0.10899732;710.21533
  1.1200546E+00;  9.9999998E-03;  2.0002274E-02;2778;0.042250678;0.0;0.0022482886;1002.7465;  4.0108430E-01;2186.1008;3;22.924749;0.0;1.4630718;0;0.01238592;  1.0003224E+04;  0.0000000E+00; -1.4574657E-07;  1.0000000E+04;  0.0000000E+00;  9.9974922E+03;-0.097742029;0.0;0.11012795;724.93964
  1.1200551E+00;  9.9999998E-03;  4.0004652E-02;2779;0.042734135;0.0;0.0045626517;1002.7361;  4.0108430E-01;2177.845;3;23.324913;0.0;2.959744;0;0.017084658;  1.0003169E+04;  0.0000000E+00; -1.0503259E-06;  1.0000000E+04;  0.0000000E+00;  9.9973359E+03;-0.096346691;0.0;0.11343135;769.85699
  1.1200559E+00;  9.9999998E-03;  6.0007196E-02;2780;0.043586597;0.0;0.0069709476;1002.7174;  4.0108442E-01;2162.9468;3;23.999117;0.0;4.4816098;0;0.025164232;  1.0003065E+04;  0.0000000E+00; -4.3655882E-06;  1.0000000E+04;  0.0000000E+00;  9.9970684E+03;-0.09347485;0.0;0.11863908;847.52264
  1.1200572E+00;  9.9999998E-03;  8.0009997E-02;2781;0.044893552;0.0;0.0095280623;1002.6888;  4.0108436E-01;2140.2673;3;24.940966;0.0;5.9710908;0;0.036857814;  1.0002891E+04;  0.0000000E+00; -1.3114289E-05;  1.0000000E+04;  0.0000000E+00;  9.9966699E+03;-0.08843714;0.0;0.12529495;962.96539
  1.1200591E+00;  9.9999998E-03;  1.0001297E-01;2782;0.046741996;0.0;0.012098685;1002.6481;  4.0108430E-01;2107.8137;3;26.193979;0.0;7.2923546;0;0.052106023;  1.0002626E+04;  0.0000000E+00; -2.4069165E-04;  1.0000000E+04;  0.0000000E+00;  9.9961230E+03;-0.080633059;0.0;0.13273908;1123.3989
  1.1200620E+00;  9.9999998E-03;  1.2001625E-01;2783;0.049372114;0.0;0.01474175;1002.5953;  4.0108436E-01;2065.7756;3;27.83807;0.0;8.4142466;0;0.069684625;  1.0002283E+04;  0.0000000E+00; -3.5951936E-03;  1.0000000E+04;  0.0000000E+00;  9.9954121E+03;-0.070407301;0.0;0.14009193;1334.3763
  1.1200659E+00;  9.9999998E-03;  1.4001980E-01;2784;0.052852765;0.0;0.01726616;1002.5344;  4.0108433E-01;2017.2841;3;29.902632;0.0;9.1769133;0;0.086433955;  1.0001930E+04;  0.0000000E+00; -2.2463171E-02;  1.0000000E+04;  0.0000000E+00;  9.9945488E+03;-0.059940271;0.0;0.14637423;1593.9376
  1.1400511E+00;  9.9999998E-03; -6.2641710E-13;2805;0.039966315;0.0;1.3593651e-09;1002.4241;  4.0096065E-01;1904.8253;3;21.911005;0.0;-2.6575581e-06;0;0.014442667;  1.0002707E+04;  0.0000000E+00;  9.7458486E-18;  1.0000000E+04;  0.0000000E+00;  9.9977422E+03;-0.083806567;0.0;0.098249234;587.26563
  1.1400514E+00;  9.9999998E-03;  2.0002097E-02;2806;0.040120225;0.0;0.0020413636;1002.4199;  4.0096059E-01;1901.5464;3;22.028128;0.0;1.3030394;0;0.016290039;  1.0002677E+04;  0.0000000E+00; -7.8081683E-07;  1.0000000E+04;  0.0000000E+00;  9.9976943E+03;-0.082999058;0.0;0.099289097;600.10004
  1.1400518E+00;  9.9999998E-03;  4.0004246E-02;2807;0.040601611;0.0;0.0041136066;1002.4073;  4.0096071E-01;1891.6165;3;22.413506;0.0;2.6283298;0;0.021963358;  1.0002583E+04;  0.0000000E+00; -3.8096482E-06;  1.0000000E+04;  0.0000000E+00;  9.9975361E+03;-0.080411755;0.0;0.10237511;639.79059
  1.1400527E+00;  9.9999998E-03;  6.0006518E-02;2808;0.041463532;0.0;0.0062580891;1002.3849;  4.0096068E-01;1874.0049;3;23.081966;0.0;3.9726751;0;0.031759739;  1.0002408E+04;  0.0000000E+00; -3.0892919E-05;  1.0000000E+04;  0.0000000E+00;  9.9972588E+03;-0.075629599;0.0;0.10738934;709.94824
  1.1400540E+00;  9.9999998E-03;  8.0008879E-02;2809;0.042785339;0.0;0.0084102731;1002.3513;  4.0096065E-01;1847.5875;3;24.037224;0.0;5.2282786;0;0.045767151;  1.0002151E+04;  0.0000000E+00; -5.1155686E-04;  1.0000000E+04;  0.0000000E+00;  9.9968438E+03;-0.068314165;0.0;0.11408132;816.20673
  1.1400560E+00;  9.9999998E-03;  1.0001143E-01;2810;0.044716239;0.0;0.010612454;1002.3058;  4.0096059E-01;1811.8959;3;25.345091;0.0;6.365881;0;0.063165054;  1.0001819E+04;  0.0000000E+00; -4.1951220E-03;  1.0000000E+04;  0.0000000E+00;  9.9962705E+03;-0.058808848;0.0;0.1219739;964.14722
  1.1400589E+00;  9.9999998E-03;  1.2001413E-01;2811;0.047364958;0.0;0.012712537;1002.2516;  4.0096071E-01;1769.2714;3;27.044369;0.0;7.2104454;0;0.081505567;  1.0001467E+04;  0.0000000E+00; -2.0560227E-02;  1.0000000E+04;  0.0000000E+00;  9.9955391E+03;-0.048766684;0.0;0.13027225;1155.6586
  1.1400632E+00;  9.9999998E-03;  1.4001746E-01;2812;0.051115159;0.0;0.014951365;1002.1954;  4.0096074E-01;1725.1469;3;29.373825;0.0;7.7476373;0;0.096662961;  1.0001187E+04;  0.0000000E+00; -6.9137156E-02;  1.0000000E+04;  0.0000000E+00;  9.9946934E+03;-0.041236408;0.0;0.13789937;1391.3723
  1.1600482E+00;  9.9999998E-03;  5.6674565E-13;2832;0.038092572;0.0;2.182418e-09;1002.1437;  4.0086368E-01;1656.7311;3;21.102766;0.0;4.3358013e-06;0;0.029380906;  1.0001820E+04;  0.0000000E+00; -1.6809908E-15;  1.0000000E+04;  0.0000000E+00;  9.9978730E+03;-0.060490418;0.0;0.089871325;482.68204
  1.1600484E+00;  9.9999998E-03;  2.0001864E-02;2833;0.038246285;0.0;0.0018154562;1002.1386;  4.0086362E-01;1652.8612;3;21.224476;0.0;1.1577951;0;0.031676255;  1.0001778E+04;  0.0000000E+00; -8.8292072E-06;  1.0000000E+04;  0.0000000E+00;  9.9978145E+03;-0.059297688;0.0;0.090973943;494.95325
  1.1600490E+00;  9.9999998E-03;  4.0003754E-02;2834;0.038734008;0.0;0.003626985;1002.1233;  4.0086371E-01;1640.9755;3;21.606817;0.0;2.3031187;0;0.038550071;  1.0001645E+04;  0.0000000E+00; -1.9098421E-04;  1.0000000E+04;  0.0000000E+00;  9.9976426E+03;-0.055689454;0.0;0.094239525;532.71399
  1.1600498E+00;  9.9999998E-03;  6.0005691E-02;2835;0.039608683;0.0;0.0054527912;1002.0973;  4.0086359E-01;1620.8892;3;22.270586;0.0;3.4375281;0;0.04987336;  1.0001427E+04;  0.0000000E+00; -1.3975608E-03;  1.0000000E+04;  0.0000000E+00;  9.9973389E+03;-0.049669005;0.0;0.099542364;598.76819
  1.1600512E+00;  9.9999998E-03;  8.0007732E-02;2836;0.040977526;0.0;0.0072951559;1002.0605;  4.0086365E-01;1592.5103;3;23.265301;0.0;4.5042558;0;0.064929582;  1.0001141E+04;  0.0000000E+00; -6.8194703E-03;  1.0000000E+04;  0.0000000E+00;  9.9968936E+03;-0.041694447;0.0;0.10662403;696.82623
  1.1600534E+00;  9.9999998E-03;  1.0000985E-01;2837;0.042967875;0.0;0.009067134;1002.0151;  4.0086359E-01;1557.4047;3;24.619612;0.0;5.3796463;0;0.081939355;  1.0000822E+04;  0.0000000E+00; -2.4434129E-02;  1.0000000E+04;  0.0000000E+00;  9.9963027E+03;-0.033043809;0.0;0.11498316;830.61395
  1.1600566E+00;  9.9999998E-03;  1.2001245E-01;2838;0.045844339;0.0;0.01096126;1001.9658;  4.0086365E-01;1519.2573;3;26.532259;0.0;6.031404;0;0.097585164;  1.0000556E+04;  0.0000000E+00; -6.9660522E-02;  1.0000000E+04;  0.0000000E+00;  9.9955859E+03;-0.02617529;0.0;0.12376045;1005.3681
  1.1600614E+00;  9.9999998E-03;  1.4001596E-01;2839;0.049963333;0.0;0.013036486;1001.9208;  4.0086383E-01;1484.517;3;29.211811;0.0;6.2953181;0;0.10754736;  1.0000445E+04;  0.0000000E+00; -1.6097270E-01;  1.0000000E+04;  0.0000000E+00;  9.9947959E+03;-0.024194481;0.0;0.13174184;1236.8579
  1.1800457E+00;  9.9999998E-03;  9.9028511E-13;2858;0.036466334;0.0;1.6126253e-09;1001.8956;  4.0078902E-01;1434.561;3;20.397312;0.0;-1.049164e-06;0;0.056725148;  1.0000568E+04;  0.0000000E+00;  2.1634295E-15;  1.0000000E+04;  0.0000000E+00;  9.9978916E+03;-0.028254751;0.0;0.084979899;397.36331
  1.1800460E+00;  9.9999998E-03;  2.0001575E-02;2859;0.036635872;0.0;0.001553392;1001.8901;  4.0078905E-01;1430.4108;3;20.540468;0.0;1.0024291;0;0.059216108;  1.0000522E+04;  0.0000000E+00; -3.3695728E-04;  1.0000000E+04;  0.0000000E+00;  9.9978252E+03;-0.027000222;0.0;0.086216331;409.39532
  1.1800464E+00;  9.9999998E-03;  4.0003199E-02;2860;0.037142448;0.0;0.0031077205;1001.8734;  4.0078908E-01;1417.7794;3;20.925079;0.0;1.9825683;0;0.066411741;  1.0000390E+04;  0.0000000E+00; -2.5360063E-03;  1.0000000E+04;  0.0000000E+00;  9.9976289E+03;-0.023402711;0.0;0.089814454;445.72684
  1.1800474E+00;  9.9999998E-03;  6.0004842E-02;2861;0.038048133;0.0;0.0046391212;1001.847;  4.0078908E-01;1397.8396;3;21.637087;0.0;2.9126608;0;0.077451095;  1.0000189E+04;  0.0000000E+00; -1.0409467E-02;  1.0000000E+04;  0.0000000E+00;  9.9973018E+03;-0.018019646;0.0;0.095470741;507.26648
  1.1800489E+00;  9.9999998E-03;  8.0006622E-02;2862;0.039494611;0.0;0.0061867489;1001.8126;  4.0078911E-01;1371.764;3;22.663748;0.0;3.7647204;0;0.090696961;  9.9999590E+03;  0.0000000E+00; -3.1706195E-02;  1.0000000E+04;  0.0000000E+00;  9.9968438E+03;-0.012027441;0.0;0.1027244;596.79199
  1.1800514E+00;  9.9999998E-03;  1.0000879E-01;2863;0.041710392;0.0;0.0078453468;1001.7739;  4.0078905E-01;1342.4393;3;24.23004;0.0;4.461884;0;0.10361579;  9.9997617E+03;  0.0000000E+00; -7.8412436E-02;  1.0000000E+04;  0.0000000E+00;  9.9962686E+03;-0.007328419;0.0;0.11094421;722.15521
  1.1800551E+00;  9.9999998E-03;  1.2001166E-01;2864;0.044906795;0.0;0.0096474625;1001.737;  4.0078914E-01;1314.5563;3;26.434052;0.0;4.8443918;0;0.11256982;  9.9996865E+03;  0.0000000E+00; -1.6450118E-01;  1.0000000E+04;  0.0000000E+00;  9.9956045E+03;-0.0066251792;0.0;0.11919501;899.81927
  1.1800609E+00;  9.9999998E-03;  1.4001592E-01;2865;0.049661208;0.0;0.011892328;1001.7081;  4.0078917E-01;1292.6249;3;29.586767;0.0;5.0237331;0;0.11463399;  9.9998145E+03;  0.0000000E+00; -2.9635945E-01;  1.0000000E+04;  0.0000000E+00;  9.9949004E+03;-0.011886228;0.0;0.12652022;1149.4109
  1.2000437E+00;  9.9999998E-03; -1.9708176E-12;2882;0.035140023;0.0;4.1733633e-10;1001.6763;  4.0073290E-01;1235.9501;3;19.899303;0.0;-2.5298505e-08;0;0.093047209;  9.9991064E+03;  0.0000000E+00; -2.9733594E-15;  1.0000000E+04;  0.0000000E+00;  9.9977744E+03;0.0087531516;0.0;0.084294058;328.5556
  1.2000439E+00;  9.9999998E-03;  2.0001322E-02;2883;0.035318524;0.0;0.0012959886;1001.6711;  4.0073299E-01;1232.0824;3;20.045242;0.0;0.83822018;0;0.095180489;  9.9990742E+03;  0.0000000E+00; -1.9980327E-03;  1.0000000E+04;  0.0000000E+00;  9.9977061E+03;0.0095818769;0.0;0.08559861;339.75537
  1.2000445E+00;  9.9999998E-03;  4.0002726E-02;2884;0.03586534;0.0;0.002620748;1001.6562;  4.0073293E-01;1221.0947;3;20.471407;0.0;1.6697769;0;0.10109489;  9.9989854E+03;  0.0000000E+00; -1.0793295E-02;  1.0000000E+04;  0.0000000E+00;  9.9974980E+03;0.011778125;0.0;0.089316763;373.31738
  1.2000456E+00;  9.9999998E-03;  6.0004313E-02;2885;0.036877245;0.0;0.0040075956;1001.6342;  4.0073302E-01;1204.8326;3;21.218834;0.0;2.4516833;0;0.10923971;  9.9988760E+03;  0.0000000E+00; -3.4223426E-02;  1.0000000E+04;  0.0000000E+00;  9.9971641E+03;0.014352083;0.0;0.094887629;430.22437
  1.2000476E+00;  9.9999998E-03;  8.0006279E-02;2886;0.038553689;0.0;0.0055131745;1001.6082;  4.0073293E-01;1185.7566;3;22.430969;0.0;3.1304128;0;0.1172647;  9.9987959E+03;  0.0000000E+00; -8.3116643E-02;  1.0000000E+04;  0.0000000E+00;  9.9967285E+03;0.015672022;0.0;0.10159267;517.62799
  1.2000506E+00;  9.9999998E-03;  1.0000887E-01;2887;0.041079044;0.0;0.007175013;1001.5831;  4.0073299E-01;1167.2063;3;24.282988;0.0;3.5825586;0;0.12223223;  9.9988145E+03;  0.0000000E+00; -1.6738804E-01;  1.0000000E+04;  0.0000000E+00;  9.9962080E+03;0.013556902;0.0;0.10867532;650.83679
  1.2000555E+00;  9.9999998E-03;  1.2001270E-01;2888;0.04501209;0.0;0.00932319;1001.5627;  4.0073302E-01;1152.1686;3;26.991076;0.0;3.9244065;0;0.12228442;  9.9989902E+03;  0.0000000E+00; -2.9078972E-01;  1.0000000E+04;  0.0000000E+00;  9.9956240E+03;0.0066217962;0.0;0.11566263;844.82733
  1.2000636E+00;  9.9999998E-03;  1.4001842E-01;2889;0.051250391;0.0;0.012184372;1001.5439;  4.0073299E-01;1138.3563;3;31.126776;0.0;4.2288332;0;0.12033083;  9.9992676E+03;  0.0000000E+00; -4.4670036E-01;  1.0000000E+04;  0.0000000E+00;  9.9949736E+03;-0.0023692236;0.0;0.12270005;1100.0018
  1.2200426E+00;  9.9999998E-03; -2.1890162E-13;2905;0.034263328;0.0;-1.0986714e-09;1001.4906;  4.0069157E-01;1064.6869;3;19.711184;0.0;-3.3476026e-06;0;0.13130541;  9.9976943E+03;  0.0000000E+00; -1.6076072E-15;  1.0000000E+04;  0.0000000E+00;  9.9975430E+03;0.043707673;0.0;0.087597743;271.79611
  1.2200428E+00;  9.9999998E-03;  2.0001322E-02;2906;0.034465898;0.0;0.0012247954;1001.4869;  4.0069157E-01;1062.047;3;19.855814;0.0;0.77121913;0;0.13249347;  9.9976924E+03;  0.0000000E+00; -5.2926880E-03;  1.0000000E+04;  0.0000000E+00;  9.9974746E+03;0.043651044;0.0;0.088842429;281.74075
  1.2200437E+00;  9.9999998E-03;  4.0002834E-02;2907;0.0351215;0.0;0.0025077148;1001.4769;  4.0069163E-01;1054.8931;3;20.336226;0.0;1.4829077;0;0.13538489;  9.9976963E+03;  0.0000000E+00; -2.5114618E-02;  1.0000000E+04;  0.0000000E+00;  9.9972725E+03;0.043099754;0.0;0.092285126;312.22882
  1.2200452E+00;  9.9999998E-03;  6.0004760E-02;2908;0.036342829;0.0;0.0039283577;1001.4638;  4.0069163E-01;1045.5239;3;21.229034;0.0;2.1081216;0;0.13799445;  9.9977402E+03;  0.0000000E+00; -6.9134213E-02;  1.0000000E+04;  0.0000000E+00;  9.9969639E+03;0.040861182;0.0;0.097133271;367.49484
  1.2200480E+00;  9.9999998E-03;  8.0007479E-02;2909;0.038461395;0.0;0.0056786733;1001.4506;  4.0069160E-01;1036.0676;3;22.734648;0.0;2.6686678;0;0.13821343;  9.9978721E+03;  0.0000000E+00; -1.4733052E-01;  1.0000000E+04;  0.0000000E+00;  9.9965693E+03;0.03558971;0.0;0.10262372;459.99081
  1.2200527E+00;  9.9999998E-03;  1.0001139E-01;2910;0.042010318;0.0;0.0079632085;1001.4383;  4.0069169E-01;1027.2892;3;25.156244;0.0;3.1769023;0;0.13581586;  9.9980938E+03;  0.0000000E+00; -2.6368833E-01;  1.0000000E+04;  0.0000000E+00;  9.9960986E+03;0.027240299;0.0;0.10857555;603.63464
  1.2200605E+00;  9.9999998E-03;  1.2001672E-01;2911;0.047733516;0.0;0.010861229;1001.4207;  4.0069166E-01;1014.6739;3;29.013857;0.0;3.6813331;0;0.13559747;  9.9982998E+03;  0.0000000E+00; -4.1305152E-01;  1.0000000E+04;  0.0000000E+00;  9.9955459E+03;0.020080991;0.0;0.11551648;799.3291
  1.2200713E+00;  9.9999998E-03;  1.4002299E-01;2912;0.055468682;0.0;0.014095752;1001.387;  4.0069157E-01;990.64417;3;33.905537;0.0;4.6854963;0;0.14446348;  9.9982666E+03;  0.0000000E+00; -5.7231420E-01;  1.0000000E+04;  0.0000000E+00;  9.9949063E+03;0.020969812;0.0;0.12349367;1019.0415
  1.2400441E+00;  9.9999998E-03; -1.7335928E-12;2926;0.034440532;0.0;-2.5429125e-10;1001.3487;  4.0066183E-01;927.90204;3;19.91297;0.0;-1.9824365e-06;0;0.16126315;  9.9966582E+03;  0.0000000E+00;  5.9638857E-15;  1.0000000E+04;  0.0000000E+00;  9.9972314E+03;0.067427121;0.0;0.093836032;226.13539
  1.2400445E+00;  9.9999998E-03;  2.0001877E-02;2927;0.034727287;0.0;0.001462595;1001.3467;  4.0066180E-01;926.5069;3;20.117645;0.0;0.75896722;0;0.16124675;  9.9966875E+03;  0.0000000E+00; -8.6289011E-03;  1.0000000E+04;  0.0000000E+00;  9.9971670E+03;0.066293947;0.0;0.094952799;234.85358
  1.2400459E+00;  9.9999998E-03;  4.0004171E-02;2928;0.035673786;0.0;0.0031438852;1001.3414;  4.0066177E-01;922.89569;3;20.697664;0.0;1.5393753;0;0.16082564;  9.9967715E+03;  0.0000000E+00; -3.8728241E-02;  1.0000000E+04;  0.0000000E+00;  9.9969766E+03;0.062814571;0.0;0.098011069;262.56845
  1.2400489E+00;  9.9999998E-03;  6.0007270E-02;2929;0.037654553;0.0;0.0052463636;1001.3334;  4.0066174E-01;917.39539;3;21.949026;0.0;2.3251934;0;0.15979327;  9.9969004E+03;  0.0000000E+00; -1.0010104E-01;  1.0000000E+04;  0.0000000E+00;  9.9966885E+03;0.057388622;0.0;0.10240465;315.90216
  1.2400540E+00;  9.9999998E-03;  8.0011323E-02;2930;0.04117636;0.0;0.0078597991;1001.3198;  4.0066180E-01;907.95441;3;24.120256;0.0;3.2206671;0;0.16004221;  9.9970059E+03;  0.0000000E+00; -2.0175250E-01;  1.0000000E+04;  0.0000000E+00;  9.9963105E+03;0.052163072;0.0;0.10787914;407.33035
  1.2400618E+00;  9.9999998E-03;  1.0001609E-01;2931;0.046558093;0.0;0.010677336;1001.2952;  4.0066183E-01;891.0462;3;27.681475;0.0;4.0084934;0;0.16584881;  9.9969697E+03;  0.0000000E+00; -3.4105992E-01;  1.0000000E+04;  0.0000000E+00;  9.9958604E+03;0.051611125;0.0;0.11423768;541.69208
  1.2400711E+00;  9.9999998E-03;  1.2002143E-01;2932;0.053145763;0.0;0.013426295;1001.2573;  4.0066186E-01;864.95044;3;32.25185;0.0;4.7418346;0;0.17871007;  9.9967314E+03;  0.0000000E+00; -4.8732331E-01;  1.0000000E+04;  0.0000000E+00;  9.9953389E+03;0.057746835;0.0;0.12096325;695.2691
  1.2400805E+00;  9.9999998E-03;  1.4002737E-01;2933;0.059485108;0.0;0.016237751;1001.2131;  4.0066186E-01;834.50916;3;36.863731;0.0;5.8325295;0;0.19208348;  9.9964502E+03;  0.0000000E+00; -5.6161529E-01;  1.0000000E+04;  0.0000000E+00;  9.9947363E+03;0.063583083;0.0;0.12850039;799.57196
  1.2600565E+00;  9.9999998E-03; -9.3592788E-13;2944;0.040831033;0.0;-4.5574911e-10;1001.1956;  4.0064076E-01;787.96106;3;22.250683;0.0;-1.2596138e-07;0;0.21027647;  9.9949941E+03;  0.0000000E+00; -1.3838713E-16;  1.0000000E+04;  0.0000000E+00;  9.9968936E+03;0.10871249;0.0;0.10156398;162.0665
  1.2600571E+00;  9.9999998E-03;  2.0002581E-02;2945;0.041254692;0.0;0.0019128226;1001.1929;  4.0064070E-01;786.23145;3;22.526733;0.0;1.021924;0;0.21075228;  9.9950068E+03;  0.0000000E+00; -1.0099156E-02;  1.0000000E+04;  0.0000000E+00;  9.9968320E+03;0.10815775;0.0;0.10259452;168.70967
  1.2600590E+00;  9.9999998E-03;  4.0005688E-02;2946;0.042579759;0.0;0.0041299928;1001.1853;  4.0064082E-01;781.19965;3;23.403913;0.0;2.158241;0;0.21225521;  9.9950273E+03;  0.0000000E+00; -4.4810653E-02;  1.0000000E+04;  0.0000000E+00;  9.9966553E+03;0.10678806;0.0;0.10546714;190.52585
  1.2600625E+00;  9.9999998E-03;  6.0009707E-02;2947;0.044890884;0.0;0.0068344483;1001.1713;  4.0064076E-01;772.00128;3;24.980673;0.0;3.4628308;0;0.21518521;  9.9950293E+03;  0.0000000E+00; -1.1367184E-01;  1.0000000E+04;  0.0000000E+00;  9.9963779E+03;0.10533497;0.0;0.10985024;235.03706
  1.2600673E+00;  9.9999998E-03;  8.0014631E-02;2948;0.048171673;0.0;0.0098983506;1001.15;  4.0064070E-01;757.92944;3;27.401657;0.0;4.7570629;0;0.220245;  9.9949756E+03;  0.0000000E+00; -2.1864173E-01;  1.0000000E+04;  0.0000000E+00;  9.9960059E+03;0.10453577;0.0;0.11570923;311.37454
  1.2600731E+00;  9.9999998E-03;  1.0002005E-01;2949;0.05194208;0.0;0.012888102;1001.1247;  4.0064076E-01;741.26373;3;30.584387;0.0;5.6222715;0;0.223744;  9.9949316E+03;  0.0000000E+00; -3.2855853E-01;  1.0000000E+04;  0.0000000E+00;  9.9955469E+03;0.1010962;0.0;0.1226478;406.17319
  1.2600788E+00;  9.9999998E-03;  1.2002556E-01;2950;0.056093819;0.0;0.01531371;1001.1047;  4.0064073E-01;728.05524;3;34.860386;0.0;5.9470806;0;0.22364856;  9.9950488E+03;  0.0000000E+00; -3.6297682E-01;  1.0000000E+04;  0.0000000E+00;  9.9950264E+03;0.095237762;0.0;0.1284108;467.39911
  1.2600840E+00;  9.9999998E-03;  1.4003080E-01;2951;0.060283896;0.0;0.017112235;1001.0998;  4.0064073E-01;724.82562;3;39.942661;0.0;6.3485656;0;0.21645522;  9.9954814E+03;  0.0000000E+00; -2.1344675E-01;  1.0000000E+04;  0.0000000E+00;  9.9944980E+03;0.086076178;0.0;0.13037905;453.78052
  1.2800701E+00;  9.9999998E-03;  1.7930065E-12;2959;0.047634579;0.0;6.7594763e-10;1001.0144;  4.0062603E-01;637.6488;3;26.111694;0.0;1.8367427e-06;0;0.28406328;  9.9924463E+03;  0.0000000E+00; -7.3967835E-16;  1.0000000E+04;  0.0000000E+00;  9.9965635E+03;0.17461601;0.0;0.10944727;70.09005
  1.2800703E+00;  9.9999998E-03;  2.0003129E-02;2960;0.047836501;0.0;0.0021564912;1001.0153;  4.0062597E-01;638.24786;3;26.321321;0.0;1.1465015;0;0.28229964;  9.9925186E+03;  0.0000000E+00; -7.0270263E-03;  1.0000000E+04;  0.0000000E+00;  9.9965068E+03;0.17193921;0.0;0.11036044;76.919853
  1.2800711E+00;  9.9999998E-03;  4.0006954E-02;2961;0.048395757;0.0;0.0047078361;1001.018;  4.0062600E-01;639.97009;3;26.836172;0.0;2.466531;0;0.2765969;  9.9927471E+03;  0.0000000E+00; -3.0537412E-02;  1.0000000E+04;  0.0000000E+00;  9.9963369E+03;0.16355766;0.0;0.11303924;98.928894
  1.2800726E+00;  9.9999998E-03;  6.0011946E-02;2962;0.049216993;0.0;0.0078836652;1001.0235;  4.0062597E-01;643.41504;3;27.764458;0.0;4.0630937;0;0.26549202;  9.9931436E+03;  0.0000000E+00; -7.2192922E-02;  1.0000000E+04;  0.0000000E+00;  9.9960469E+03;0.14768074;0.0;0.11781129;139.83144
  1.2800742E+00;  9.9999998E-03;  8.0017947E-02;2963;0.050306898;0.0;0.011433128;1001.0331;  4.0062597E-01;649.4823;3;29.541349;0.0;5.6400409;0;0.24895719;  9.9937725E+03;  0.0000000E+00; -1.1229260E-01;  1.0000000E+04;  0.0000000E+00;  9.9956084E+03;0.1234212;0.0;0.12553599;198.7449
  1.2800765E+00;  9.9999998E-03;  1.0002385E-01;2964;0.052480798;0.0;0.014211364;1001.0435;  4.0062603E-01;655.99817;3;33.174931;0.0;6.0167198;0;0.23571211;  9.9945195E+03;  0.0000000E+00; -8.6111702E-02;  1.0000000E+04;  0.0000000E+00;  9.9950693E+03;0.10294104;0.0;0.13277107;256.17599
  1.2800788E+00;  9.9999998E-03;  1.2002864E-01;2965;0.055061396;0.0;0.015679851;1001.0717;  4.0062609E-01;673.67975;3;37.454597;0.0;6.0363517;0;0.21324338;  9.9955498E+03;  0.0000000E+00;  8.0042019E-02;  1.0000000E+04;  0.0000000E+00;  9.9946006E+03;0.081108779;0.0;0.1321346;323.79404
  1.3000724E+00;  9.9999998E-03;  1.5268871E-12;2970;0.047090836;0.0;1.7524631e-11;1001.0098;  4.0061611E-01;603.82111;3;27.561152;0.0;-6.9336966e-07;0;0.25531343;  9.9931357E+03;  0.0000000E+00; -9.4228807E-15;  1.0000000E+04;  0.0000000E+00;  9.9962734E+03;0.13870271;0.0;0.11661072;61.521317
  1.3000724E+00;  9.9999998E-03;  2.0003665E-02;2971;0.047135402;0.0;0.0023880098;1001.0153;  4.0061611E-01;607.10004;3;27.730301;0.0;1.3400034;0;0.25134844;  9.9933008E+03;  0.0000000E+00;  1.4877347E-03;  1.0000000E+04;  0.0000000E+00;  9.9962188E+03;0.13386872;0.0;0.11747973;70.03022
  1.3000724E+00;  9.9999998E-03;  4.0008221E-02;2972;0.047269616;0.0;0.0052822549;1001.0317;  4.0061617E-01;616.86554;3;28.364548;0.0;2.9439647;0;0.23930818;  9.9938115E+03;  0.0000000E+00;  1.0844706E-02;  1.0000000E+04;  0.0000000E+00;  9.9960352E+03;0.11885114;0.0;0.12045705;96.991646
  1.3000723E+00;  9.9999998E-03;  6.0014229E-02;2973;0.047490146;0.0;0.0089471061;1001.0563;  4.0061608E-01;631.62097;3;29.413099;0.0;4.9278746;0;0.22160184;  9.9946699E+03;  0.0000000E+00;  4.8369657E-02;  1.0000000E+04;  0.0000000E+00;  9.9956660E+03;0.09425503;0.0;0.12734681;148.50195
  1.3000723E+00;  9.9999998E-03;  8.0021039E-02;2974;0.048480716;0.0;0.012273241;1001.0784;  4.0061602E-01;644.8078;3;32.133198;0.0;5.6815825;0;0.20781891;  9.9957246E+03;  0.0000000E+00;  1.5532945E-01;  1.0000000E+04;  0.0000000E+00;  9.9950488E+03;0.070692867;0.0;0.13712604;234.43901
 -1.2108197E-07;  9.9999998E-03;  1.6000001E-01;1053;-0.00018549552;0.0;1.7089835e-05;1000.0029;  4.0000001E-01;2.3703029;3;-0.23160264;0.0;0.020146282;0;-0.0036710193;  1.0000061E+04;  0.0000000E+00; -1.2122947E-10;  1.0000000E+04;  0.0000000E+00;  9.9999980E+03;-0.0038106791;0.0;0.00013965985;1.0550419
 -1.1714922E-07;  9.9999998E-03;  1.8000001E-01;1054;-0.00017994287;0.0;2.1444412e-05;1000.0028;  4.0000001E-01;2.3703029;3;-0.22527128;0.0;0.025891729;0;-0.0035495404;  1.0000057E+04;  0.0000000E+00; -7.7133598E-11;  1.0000000E+04;  0.0000000E+00;  9.9999980E+03;-0.0036919899;0.0;0.00014244947;1.055702
 -1.1170929E-07;  9.9999998E-03;  2.0000002E-01;1055;-0.00017196669;0.0;2.6128855e-05;1000.0026;  4.0000001E-01;2.1727777;3;-0.21597394;0.0;0.032122839;0;-0.0033889851;  1.0000055E+04;  0.0000000E+00;  3.9166909E-11;  1.0000000E+04;  0.0000000E+00;  9.9999990E+03;-0.0035168405;0.0;0.00012785547;0.95001292
 -1.0435988E-07;  9.9999998E-03;  2.2000001E-01;1056;-0.00016088622;0.0;3.0984505e-05;1000.0025;  4.0000001E-01;2.0740151;3;-0.20304048;0.0;0.038700294;0;-0.0031805197;  1.0000053E+04;  0.0000000E+00;  1.7828129E-10;  1.0000000E+04;  0.0000000E+00;  1.0000000E+04;-0.0032676281;0.0;8.710855e-05;0.68237936
 -9.4828323E-08;  9.9999998E-03;  2.4000002E-01;1057;-0.0001462756;0.0;3.5332872e-05;1000.0023;  4.0000001E-01;1.8764899;3;-0.18614784;0.0;0.044803351;0;-0.0029126019;  1.0000046E+04;  0.0000000E+00;  1.5910155E-10;  1.0000000E+04;  0.0000000E+00;  1.0000000E+04;-0.0029295592;0.0;1.6957205e-05;0.23040369
 -8.2753907E-08;  9.9999998E-03;  2.6000002E-01;1058;-0.00012759221;0.0;3.8823069e-05;1000.002;  4.0000001E-01;1.580202;3;-0.16457713;0.0;0.050128959;0;-0.0025744543;  1.0000040E+04;  0.0000000E+00; -8.0200291E-11;  1.0000000E+04;  0.0000000E+00;  1.0000000E+04;-0.0024994111;0.0;-7.5043223e-05;0.36063737
 -6.8447768E-08;  9.9999998E-03;  2.8000003E-01;1059;-0.00010544952;0.0;4.0224622e-05;1000.0017;  4.0000001E-01;1.3826767;3;-0.1387246;0.0;0.053020559;0;-0.0021630174;  1.0000030E+04;  0.0000000E+00; -3.9121956E-10;  1.0000000E+04;  0.0000000E+00;  1.0000002E+04;-0.0019958224;0.0;-0.00016719488;0.95682025
  1.9999823E-02;  9.9999998E-03;  1.6000001E-01;1083;-0.00027023375;0.0;2.3967801e-05;1000.0037;  4.0000001E-01;3.0616415;3;-0.31929517;0.0;0.026395801;0;-0.0045657987;  1.0000077E+04;  0.0000000E+00; -1.6639430E-10;  1.0000000E+04;  0.0000000E+00;  9.9999971E+03;-0.0047613075;0.0;0.0001955086;1.4811225
  1.9999826E-02;  9.9999998E-03;  1.8000002E-01;1084;-0.00026281737;0.0;2.9910021e-05;1000.0035;  4.0000001E-01;2.8641162;3;-0.31148452;0.0;0.033790492;0;-0.0044277068;  1.0000073E+04;  0.0000000E+00; -6.7244307E-11;  1.0000000E+04;  0.0000000E+00;  9.9999971E+03;-0.004627862;0.0;0.00020015497;1.4883087
  1.9999836E-02;  9.9999998E-03;  2.0000002E-01;1085;-0.00025172377;0.0;3.6349011e-05;1000.0033;  4.0000001E-01;2.7653534;3;-0.29944244;0.0;0.041901253;0;-0.0042436845;  1.0000070E+04;  0.0000000E+00;  1.0823825E-10;  1.0000000E+04;  0.0000000E+00;  9.9999980E+03;-0.0044248574;0.0;0.00018117315;1.3477721
  1.9999845E-02;  9.9999998E-03;  2.2000003E-01;1086;-0.00023588109;0.0;4.2777363e-05;1000.0032;  4.0000001E-01;2.6665909;3;-0.28229329;0.0;0.050157636;0;-0.0040024286;  1.0000065E+04;  0.0000000E+00;  3.1048633E-10;  1.0000000E+04;  0.0000000E+00;  9.9999990E+03;-0.0041287383;0.0;0.00012630968;0.98006713
  1.9999860E-02;  9.9999998E-03;  2.4000002E-01;1087;-0.00021434879;0.0;4.808322e-05;1000.0029;  4.0000001E-01;2.3703029;3;-0.25923723;0.0;0.057400517;0;-0.0036883748;  1.0000059E+04;  0.0000000E+00;  4.2228065E-10;  1.0000000E+04;  0.0000000E+00;  1.0000000E+04;-0.0037189745;0.0;3.0599716e-05;0.35068008
  1.9999878E-02;  9.9999998E-03;  2.6000002E-01;1088;-0.00018602354;0.0;5.1692426e-05;1000.0026;  4.0000001E-01;2.1727777;3;-0.22888461;0.0;0.063048869;0;-0.0032861969;  1.0000051E+04;  0.0000000E+00;  2.5760194E-10;  1.0000000E+04;  0.0000000E+00;  1.0000001E+04;-0.0031896611;0.0;-9.6535819e-05;0.48250699
  1.9999901E-02;  9.9999998E-03;  2.8000003E-01;1089;-0.00015082375;0.0;5.2416581e-05;1000.0023;  4.0000001E-01;1.8764899;3;-0.19018838;0.0;0.065636456;0;-0.0027897728;  1.0000041E+04;  0.0000000E+00; -2.1926083E-10;  1.0000000E+04;  0.0000000E+00;  1.0000003E+04;-0.0025630156;0.0;-0.00022675727;1.3400506
  1.9999927E-02;  9.9999998E-03;  3.0000004E-01;1090;-0.00010942928;0.0;5.5019598e-05;1000.0018;  4.0000001E-01;1.4814394;3;-0.14198303;0.0;0.07161513;0;-0.0022140141;  1.0000028E+04;  0.0000000E+00; -4.9198506E-10;  1.0000000E+04;  0.0000000E+00;  1.0000005E+04;-0.0018966319;0.0;-0.00031738228;1.9533163
  3.9999746E-02;  9.9999998E-03;  1.6000003E-01;1114;-0.00038225311;0.0;2.9919085e-05;1000.0044;  4.0000001E-01;3.654217;3;-0.43072191;0.0;0.03064953;0;-0.0055100089;  1.0000094E+04;  0.0000000E+00; -1.3228231E-10;  1.0000000E+04;  0.0000000E+00;  9.9999971E+03;-0.0057643726;0.0;0.00025436372;1.9613529
  3.9999753E-02;  9.9999998E-03;  1.8000002E-01;1115;-0.00037270045;0.0;3.7151895e-05;1000.0043;  4.0000001E-01;3.5554545;3;-0.42137659;0.0;0.039061952;0;-0.0053625763;  1.0000093E+04;  0.0000000E+00;  1.0110025E-10;  1.0000000E+04;  0.0000000E+00;  9.9999971E+03;-0.005624292;0.0;0.00026171573;1.980626
  3.9999761E-02;  9.9999998E-03;  2.0000003E-01;1116;-0.00035793261;0.0;4.4895573e-05;1000.0042;  4.0000001E-01;3.4566917;3;-0.40635476;0.0;0.048222624;0;-0.0051621352;  1.0000088E+04;  0.0000000E+00;  1.1670206E-10;  1.0000000E+04;  0.0000000E+00;  9.9999971E+03;-0.0054014204;0.0;0.00023928532;1.8079525
  3.9999776E-02;  9.9999998E-03;  2.2000004E-01;1117;-0.0003361885;0.0;5.2650965e-05;1000.004;  4.0000001E-01;3.2591665;3;-0.38428715;0.0;0.057628036;0;-0.004893891;  1.0000083E+04;  0.0000000E+00;  4.9727056E-10;  1.0000000E+04;  0.0000000E+00;  9.9999980E+03;-0.0050646644;0.0;0.00017077348;1.334766
  3.9999798E-02;  9.9999998E-03;  2.4000004E-01;1118;-0.0003060094;0.0;5.8850866e-05;1000.0037;  4.0000001E-01;3.0616415;3;-0.35411054;0.0;0.065705337;0;-0.0045365714;  1.0000074E+04;  0.0000000E+00;  5.5242516E-10;  1.0000000E+04;  0.0000000E+00;  1.0000000E+04;-0.0045854496;0.0;4.887805e-05;0.50970978
  3.9999824E-02;  9.9999998E-03;  2.6000005E-01;1119;-0.00026566989;0.0;6.3362386e-05;1000.0033;  4.0000001E-01;2.7653534;3;-0.31371421;0.0;0.072648719;0;-0.0040681264;  1.0000064E+04;  0.0000000E+00;  3.8422507E-10;  1.0000000E+04;  0.0000000E+00;  1.0000001E+04;-0.0039526257;0.0;-0.00011550079;0.59794211
  3.9999858E-02;  9.9999998E-03;  2.8000003E-01;1120;-0.00021573278;0.0;6.482657e-05;1000.0028;  4.0000001E-01;2.3703029;3;-0.2623269;0.0;0.076847643;0;-0.0034776782;  1.0000052E+04;  0.0000000E+00; -6.4961231E-10;  1.0000000E+04;  0.0000000E+00;  1.0000005E+04;-0.0031902606;0.0;-0.00028741756;1.7594222
  3.9999895E-02;  9.9999998E-03;  3.0000004E-01;1121;-0.00015702184;0.0;6.592452e-05;1000.0023;  4.0000001E-01;1.8764899;3;-0.19771355;0.0;0.081878036;0;-0.0027837448;  1.0000039E+04;  0.0000000E+00; -7.7371920E-10;  1.0000000E+04;  0.0000000E+00;  1.0000007E+04;-0.0023694811;0.0;-0.00041426369;2.6322193
  5.9999648E-02;  9.9999998E-03;  1.6000003E-01;1145;-0.00051900174;0.0;3.5228706e-05;1000.0056;  4.0000001E-01;4.6418433;3;-0.56280434;0.0;0.033450261;0;-0.0066065015;  1.0000118E+04;  0.0000000E+00; -3.2872930E-11;  1.0000000E+04;  0.0000000E+00;  9.9999951E+03;-0.0069216602;0.0;0.0003151584;2.5060794
  5.9999656E-02;  9.9999998E-03;  1.8000004E-01;1146;-0.0005073697;0.0;4.3688098e-05;1000.0054;  4.0000001E-01;4.5430808;3;-0.55217874;0.0;0.04264947;0;-0.0064555183;  1.0000113E+04;  0.0000000E+00;  5.6387534E-11;  1.0000000E+04;  0.0000000E+00;  9.9999951E+03;-0.0067818188;0.0;0.00032630068;2.5449548
  5.9999671E-02;  9.9999998E-03;  2.0000003E-01;1147;-0.0004887316;0.0;5.2842362e-05;1000.0052;  4.0000001E-01;4.3455553;3;-0.53422672;0.0;0.05283457;0;-0.0062429369;  1.0000110E+04;  0.0000000E+00;  1.0123245E-10;  1.0000000E+04;  0.0000000E+00;  9.9999951E+03;-0.0065447809;0.0;0.00030184409;2.345119
  5.9999689E-02;  9.9999998E-03;  2.2000004E-01;1148;-0.00046056375;0.0;6.2021638e-05;1000.0049;  4.0000001E-01;4.0492678;3;-0.50714129;0.0;0.063347839;0;-0.0059490772;  1.0000104E+04;  0.0000000E+00;  3.3918823E-10;  1.0000000E+04;  0.0000000E+00;  9.9999971E+03;-0.0061697932;0.0;0.00022071606;1.7618985
  5.9999716E-02;  9.9999998E-03;  2.4000005E-01;1149;-0.00042066435;0.0;6.9444955e-05;1000.0047;  4.0000001E-01;3.8517423;3;-0.46946242;0.0;0.072579376;0;-0.0055448608;  1.0000094E+04;  0.0000000E+00; -1.5657120E-10;  1.0000000E+04;  0.0000000E+00;  1.0000000E+04;-0.0056172404;0.0;7.2379422e-05;0.72028536
  5.9999753E-02;  9.9999998E-03;  2.6000005E-01;1150;-0.00036664717;0.0;7.5020282e-05;1000.0042;  4.0000001E-01;3.4566917;3;-0.41855931;0.0;0.080802128;0;-0.004999232;  1.0000080E+04;  0.0000000E+00; -7.2865508E-10;  1.0000000E+04;  0.0000000E+00;  1.0000002E+04;-0.0048678382;0.0;-0.00013139375;0.70136786
  5.9999797E-02;  9.9999998E-03;  2.8000006E-01;1151;-0.00029923048;0.0;7.6747856e-05;1000.0037;  4.0000001E-01;3.0616415;3;-0.35304824;0.0;0.086041003;0;-0.0042956327;  1.0000065E+04;  0.0000000E+00; -1.0163897E-07;  1.0000000E+04;  0.0000000E+00;  1.0000005E+04;-0.0039469497;0.0;-0.00034868298;2.2175224
  5.9999853E-02;  9.9999998E-03;  3.0000004E-01;1152;-0.00021852003;0.0;7.8181023e-05;1000.0028;  4.0000001E-01;2.3703029;3;-0.26829672;0.0;0.092677295;0;-0.0034567234;  1.0000049E+04;  0.0000000E+00; -3.8213176E-07;  1.0000000E+04;  0.0000000E+00;  1.0000008E+04;-0.0029423267;0.0;-0.00051439682;3.388751
  7.9999529E-02;  9.9999998E-03;  1.6000003E-01;1176;-0.00068228156;0.0;4.0271712e-05;1000.007;  4.0000001E-01;5.7282324;3;-0.71767282;0.0;0.035333399;0;-0.0079570748;  1.0000143E+04;  0.0000000E+00;  1.0415112E-11;  1.0000000E+04;  0.0000000E+00;  9.9999932E+03;-0.0083371392;0.0;0.00038006422;3.1468985
  7.9999536E-02;  9.9999998E-03;  1.8000004E-01;1177;-0.00066892215;0.0;4.9945884e-05;1000.0067;  4.0000001E-01;5.5307069;3;-0.7063126;0.0;0.045169964;0;-0.0078077731;  1.0000141E+04;  0.0000000E+00; -2.9467345E-11;  1.0000000E+04;  0.0000000E+00;  9.9999932E+03;-0.008203947;0.0;0.00039617394;3.214545
  7.9999559E-02;  9.9999998E-03;  2.0000005E-01;1178;-0.00064659503;0.0;6.0583632e-05;1000.0065;  4.0000001E-01;5.3331819;3;-0.68584549;0.0;0.056324605;0;-0.007586218;  1.0000136E+04;  0.0000000E+00; -3.5268946E-10;  1.0000000E+04;  0.0000000E+00;  9.9999951E+03;-0.0079572527;0.0;0.00037103469;2.9920363
  7.9999581E-02;  9.9999998E-03;  2.2000006E-01;1179;-0.0006118415;0.0;7.1347888e-05;1000.0063;  4.0000001E-01;5.2344189;3;-0.65396059;0.0;0.067989975;0;-0.0072660055;  1.0000128E+04;  0.0000000E+00; -8.2439516E-10;  1.0000000E+04;  0.0000000E+00;  9.9999951E+03;-0.0075439694;0.0;0.00027796399;2.2899845
  7.9999618E-02;  9.9999998E-03;  2.4000005E-01;1180;-0.00056148291;0.0;8.0175276e-05;1000.0059;  4.0000001E-01;4.8393683;3;-0.6087119;0.0;0.078465968;0;-0.0068079256;  1.0000118E+04;  0.0000000E+00; -9.4987911E-07;  1.0000000E+04;  0.0000000E+00;  9.9999990E+03;-0.0069101681;0.0;0.00010224248;1.0018635
  7.9999663E-02;  9.9999998E-03;  2.6000005E-01;1181;-0.00049203518;0.0;8.7113993e-05;1000.0052;  4.0000001E-01;4.3455553;3;-0.54658794;0.0;0.088207215;0;-0.0061718849;  1.0000103E+04;  0.0000000E+00; -8.5971215E-06;  1.0000000E+04;  0.0000000E+00;  1.0000002E+04;-0.006027774;0.0;-0.00014411079;0.7883451
  7.9999723E-02;  9.9999998E-03;  2.8000006E-01;1182;-0.00040388177;0.0;8.9783069e-05;1000.0046;  4.0000001E-01;3.7529798;3;-0.46493274;0.0;0.095207721;0;-0.0053344285;  1.0000084E+04;  0.0000000E+00; -2.4417361E-05;  1.0000000E+04;  0.0000000E+00;  1.0000007E+04;-0.0049227001;0.0;-0.00041172822;2.7282951
  7.9999797E-02;  9.9999998E-03;  3.0000007E-01;1183;-0.0002962985;0.0;9.3256509e-05;1000.0037;  4.0000001E-01;3.0616415;3;-0.35619187;0.0;0.1057677;0;-0.0043188347;  1.0000063E+04;  0.0000000E+00; -4.3155567E-05;  1.0000000E+04;  0.0000000E+00;  1.0000011E+04;-0.0036981842;0.0;-0.00062065077;4.2578349
  9.9999383E-02;  9.9999998E-03;  1.6000004E-01;1207;-0.00087736477;0.0;4.5547757e-05;1000.0085;  4.0000001E-01;7.110909;3;-0.89972532;0.0;0.036772769;0;-0.0096495859;  1.0000179E+04;  0.0000000E+00; -3.7913356E-11;  1.0000000E+04;  0.0000000E+00;  9.9999932E+03;-0.010104144;0.0;0.00045455794;3.9381549
  9.9999398E-02;  9.9999998E-03;  1.8000005E-01;1208;-0.00086285145;0.0;5.6504163e-05;1000.0084;  4.0000001E-01;6.9133835;3;-0.88840175;0.0;0.047283079;0;-0.0095083453;  1.0000177E+04;  0.0000000E+00; -4.1548703E-10;  1.0000000E+04;  0.0000000E+00;  9.9999922E+03;-0.0099851741;0.0;0.00047682913;4.0463338
  9.9999413E-02;  9.9999998E-03;  2.0000005E-01;1209;-0.00083726703;0.0;6.8612862e-05;1000.0082;  4.0000001E-01;6.814621;3;-0.86618423;0.0;0.059160661;0;-0.0092823207;  1.0000172E+04;  0.0000000E+00; -1.1914401E-09;  1.0000000E+04;  0.0000000E+00;  9.9999932E+03;-0.0097342804;0.0;0.0004519597;3.8049777
  9.9999443E-02;  9.9999998E-03;  2.2000006E-01;1210;-0.00079596363;0.0;8.1031154e-05;1000.0078;  4.0000001E-01;6.518333;3;-0.83002502;0.0;0.071880266;0;-0.0089379074;  1.0000161E+04;  0.0000000E+00; -4.0231666E-06;  1.0000000E+04;  0.0000000E+00;  9.9999951E+03;-0.0092849145;0.0;0.00034700675;2.9712939
  9.9999487E-02;  9.9999998E-03;  2.4000007E-01;1211;-0.00073454017;0.0;9.1360867e-05;1000.0073;  4.0000001E-01;6.0245199;3;-0.77738625;0.0;0.083577231;0;-0.0084312726;  1.0000151E+04;  0.0000000E+00; -3.4828929E-05;  1.0000000E+04;  0.0000000E+00;  9.9999980E+03;-0.0085732359;0.0;0.0001419632;1.4064051
  9.9999547E-02;  9.9999998E-03;  2.6000008E-01;1212;-0.00064784888;0.0;0.00010015487;1000.0068;  4.0000001E-01;5.6294694;3;-0.70341396;0.0;0.095300138;0;-0.0077141635;  1.0000133E+04;  0.0000000E+00; -1.2323291E-04;  1.0000000E+04;  0.0000000E+00;  1.0000003E+04;-0.007561814;0.0;-0.00015234965;1.0143843
  9.9999629E-02;  9.9999998E-03;  2.8000009E-01;1213;-0.00053554814;0.0;0.000104778;1000.0059;  4.0000001E-01;4.9381313;3;-0.60373354;0.0;0.10527265;0;-0.0067467215;  1.0000108E+04;  0.0000000E+00; -2.6266807E-04;  1.0000000E+04;  0.0000000E+00;  1.0000009E+04;-0.0062677558;0.0;-0.00047896573;3.5182722
  9.9999726E-02;  9.9999998E-03;  3.0000007E-01;1214;-0.00039546809;0.0;0.00011209874;1000.0048;  4.0000001E-01;3.950505;3;-0.46666026;0.0;0.12205571;0;-0.0055361032;  1.0000083E+04;  0.0000000E+00; -4.1024163E-04;  1.0000000E+04;  0.0000000E+00;  1.0000013E+04;-0.0047967327;0.0;-0.00073937047;5.6098309
  1.1999920E-01;  9.9999998E-03;  1.6000004E-01;1238;-0.0011124432;0.0;5.1675295e-05;1000.0107;  4.0000001E-01;8.8886366;3;-1.1143886;0.0;0.038338546;0;-0.011754221;  1.0000224E+04;  0.0000000E+00; -4.1072223E-10;  1.0000000E+04;  0.0000000E+00;  9.9999902E+03;-0.012301912;0.0;0.00054768991;4.9613719
  1.1999922E-01;  9.9999998E-03;  1.8000005E-01;1239;-0.0010975582;0.0;6.4123327e-05;1000.0105;  4.0000001E-01;8.6911106;3;-1.1041776;0.0;0.049561504;0;-0.01162952;  1.0000220E+04;  0.0000000E+00; -1.3917705E-09;  1.0000000E+04;  0.0000000E+00;  9.9999902E+03;-0.012207706;0.0;0.00057818665;5.1327939
  1.1999924E-01;  9.9999998E-03;  2.0000006E-01;1240;-0.0010693165;0.0;7.7753226e-05;1000.0104;  4.0000001E-01;8.6911106;3;-1.081264;0.0;0.062011123;0;-0.011408299;  1.0000215E+04;  0.0000000E+00; -3.6228005E-06;  1.0000000E+04;  0.0000000E+00;  9.9999902E+03;-0.01196389;0.0;0.00055559102;4.8889647
  1.1999927E-01;  9.9999998E-03;  2.2000007E-01;1241;-0.0010216107;0.0;9.1957903e-05;1000.0099;  4.0000001E-01;8.197298;3;-1.0416515;0.0;0.07577379;0;-0.01105992;  1.0000206E+04;  0.0000000E+00; -4.8807389E-05;  1.0000000E+04;  0.0000000E+00;  9.9999932E+03;-0.011499934;0.0;0.00044001336;3.9296849
  1.1999933E-01;  9.9999998E-03;  2.4000008E-01;1242;-0.00094862242;0.0;0.00010388718;1000.0094;  4.0000001E-01;7.8022475;3;-0.98229384;0.0;0.088556975;0;-0.01054677;  1.0000191E+04;  0.0000000E+00; -2.3509917E-04;  1.0000000E+04;  0.0000000E+00;  9.9999971E+03;-0.010749678;0.0;0.00020290789;2.3016782
  1.1999940E-01;  9.9999998E-03;  2.6000008E-01;1243;-0.00084279809;0.0;0.0001152953;1000.0089;  4.0000001E-01;7.407197;3;-0.89620161;0.0;0.10304648;0;-0.0098116463;  1.0000173E+04;  0.0000000E+00; -6.5954489E-04;  1.0000000E+04;  0.0000000E+00;  1.0000003E+04;-0.0096623218;0.0;-0.00014932433;3.1922517
  1.1999950E-01;  9.9999998E-03;  2.8000009E-01;1244;-0.00070269569;0.0;0.00012325066;1000.0078;  4.0000001E-01;6.518333;3;-0.77709568;0.0;0.1174286;0;-0.0087794662;  1.0000147E+04;  0.0000000E+00; -1.2896307E-03;  1.0000000E+04;  0.0000000E+00;  1.0000010E+04;-0.0082280571;0.0;-0.00055140955;7.2039061
  1.1999962E-01;  9.9999998E-03;  3.0000010E-01;1245;-0.00052349747;0.0;0.00013693506;1000.0066;  4.0000001E-01;5.4319444;3;-0.60701823;0.0;0.14389163;0;-0.0073888684;  1.0000114E+04;  0.0000000E+00; -1.8623277E-03;  1.0000000E+04;  0.0000000E+00;  1.0000017E+04;-0.0065100244;0.0;-0.00087884406;10.871034
  1.3999897E-01;  9.9999998E-03;  1.6000006E-01;1269;-0.0013977442;0.0;5.9679638e-05;1000.0134;  4.0000001E-01;11.061414;3;-1.3675786;0.0;0.041153796;0;-0.014328218;  1.0000280E+04;  0.0000000E+00; -2.0937760E-10;  1.0000000E+04;  0.0000000E+00;  9.9999873E+03;-0.015001713;0.0;0.00067349547;6.3387237
  1.3999899E-01;  9.9999998E-03;  1.8000007E-01;1270;-0.0013835385;0.0;7.4029667e-05;1000.0132;  4.0000001E-01;10.962651;3;-1.3598741;0.0;0.053162064;0;-0.014229879;  1.0000279E+04;  0.0000000E+00; -7.0574282E-07;  1.0000000E+04;  0.0000000E+00;  9.9999873E+03;-0.014947993;0.0;0.00071811379;6.6315508
  1.3999902E-01;  9.9999998E-03;  2.0000008E-01;1271;-0.0013534285;0.0;8.9636589e-05;1000.0129;  4.0000001E-01;10.765126;3;-1.3375914;0.0;0.066347539;0;-0.014033334;  1.0000272E+04;  0.0000000E+00; -2.9535167E-05;  1.0000000E+04;  0.0000000E+00;  9.9999873E+03;-0.014738484;0.0;0.00070514967;6.4513512
  1.3999905E-01;  9.9999998E-03;  2.2000009E-01;1272;-0.0012997549;0.0;0.00010584793;1000.0126;  4.0000001E-01;10.468838;3;-1.2959157;0.0;0.081175715;0;-0.013728461;  1.0000263E+04;  0.0000000E+00; -2.2144364E-04;  1.0000000E+04;  0.0000000E+00;  9.9999902E+03;-0.014312773;0.0;0.00058431184;5.4925308
  1.3999912E-01;  9.9999998E-03;  2.4000010E-01;1273;-0.0012146026;0.0;0.00011988334;1000.0122;  4.0000001E-01;10.073788;3;-1.2308087;0.0;0.095235914;0;-0.013301738;  1.0000249E+04;  0.0000000E+00; -8.6164998E-04;  1.0000000E+04;  0.0000000E+00;  9.9999951E+03;-0.013613161;0.0;0.00031142341;5.1310158
  1.3999921E-01;  9.9999998E-03;  2.6000011E-01;1274;-0.001088131;0.0;0.00013441731;1000.0115;  4.0000001E-01;9.5799742;3;-1.1333445;0.0;0.11323717;0;-0.012694006;  1.0000229E+04;  0.0000000E+00; -2.2220130E-03;  1.0000000E+04;  0.0000000E+00;  1.0000002E+04;-0.012577058;0.0;-0.00011694775;10.497692
  1.3999933E-01;  9.9999998E-03;  2.8000012E-01;1275;-0.00091628288;0.0;0.00014767014;1000.0107;  4.0000001E-01;8.8886366;3;-0.99409103;0.0;0.13404363;0;-0.011765775;  1.0000202E+04;  0.0000000E+00; -4.1901227E-03;  1.0000000E+04;  0.0000000E+00;  1.0000012E+04;-0.011140412;0.0;-0.00062536355;20.239815
  1.3999949E-01;  9.9999998E-03;  3.0000013E-01;1276;-0.00069111196;0.0;0.00017035565;1000.0093;  4.0000001E-01;7.7034845;3;-0.78747678;0.0;0.17349315;0;-0.010292465;  1.0000167E+04;  0.0000000E+00; -5.8917021E-03;  1.0000000E+04;  0.0000000E+00;  1.0000021E+04;-0.0092445184;0.0;-0.0010479467;28.809
  1.5999869E-01;  9.9999998E-03;  1.6000007E-01;1300;-0.0017447352;0.0;7.1012386e-05;1000.0168;  4.0000001E-01;13.92553;3;-1.6656669;0.0;0.046732325;0;-0.017427091;  1.0000351E+04;  0.0000000E+00; -5.5282795E-10;  1.0000000E+04;  0.0000000E+00;  9.9999834E+03;-0.018280948;0.0;0.00085385767;8.2570362
  1.5999870E-01;  9.9999998E-03;  1.8000008E-01;1301;-0.0017325822;0.0;8.808649e-05;1000.0165;  4.0000001E-01;13.629242;3;-1.66214;0.0;0.06000315;0;-0.017365839;  1.0000348E+04;  0.0000000E+00; -6.3889684E-06;  1.0000000E+04;  0.0000000E+00;  9.9999824E+03;-0.018293058;0.0;0.00092721981;8.8060083
  1.5999873E-01;  9.9999998E-03;  2.0000009E-01;1302;-0.0017017401;0.0;0.00010671404;1000.0164;  4.0000001E-01;13.629242;3;-1.6421704;0.0;0.074665792;0;-0.017220333;  1.0000345E+04;  0.0000000E+00; -1.0484325E-04;  1.0000000E+04;  0.0000000E+00;  9.9999824E+03;-0.018161986;0.0;0.00094165187;8.858839
  1.5999877E-01;  9.9999998E-03;  2.2000012E-01;1303;-0.0016425304;0.0;0.00012610387;1000.0161;  4.0000001E-01;13.332954;3;-1.6000483;0.0;0.09102688;0;-0.017023373;  1.0000338E+04;  0.0000000E+00; -6.2020845E-04;  1.0000000E+04;  0.0000000E+00;  9.9999834E+03;-0.017852239;0.0;0.00082886522;8.3536997
  1.5999885E-01;  9.9999998E-03;  2.4000013E-01;1304;-0.0015446946;0.0;0.00014304729;1000.0158;  4.0000001E-01;13.135429;3;-1.5304807;0.0;0.10712419;0;-0.016814729;  1.0000325E+04;  0.0000000E+00; -2.2013218E-03;  1.0000000E+04;  0.0000000E+00;  9.9999902E+03;-0.01733176;0.0;0.00051703164;11.669881
  1.5999897E-01;  9.9999998E-03;  2.6000014E-01;1305;-0.0013964492;0.0;0.00016031328;1000.0154;  4.0000001E-01;12.740378;3;-1.4236867;0.0;0.12779915;0;-0.016561093;  1.0000310E+04;  0.0000000E+00; -5.5190767E-03;  1.0000000E+04;  0.0000000E+00;  1.0000000E+04;-0.016543452;0.0;-1.7640821e-05;26.200583
  1.5999912E-01;  9.9999998E-03;  2.8000015E-01;1306;-0.0011896625;0.0;0.00018018295;1000.015;  4.0000001E-01;12.345328;3;-1.2653768;0.0;0.15658575;0;-0.016040588;  1.0000284E+04;  0.0000000E+00; -1.0374730E-02;  1.0000000E+04;  0.0000000E+00;  1.0000014E+04;-0.015354314;0.0;-0.00068627438;49.34824
  1.5999933E-01;  9.9999998E-03;  3.0000019E-01;1307;-0.00091364124;0.0;0.0002125772;1000.0135;  4.0000001E-01;11.258939;3;-1.0226579;0.0;0.20963812;0;-0.014741221;  1.0000249E+04;  0.0000000E+00; -1.4694380E-02;  1.0000000E+04;  0.0000000E+00;  1.0000024E+04;-0.013485768;0.0;-0.0012554525;70.067169
  1.7999832E-01;  9.9999998E-03;  1.6000009E-01;1331;-0.0021659371;0.0;8.7681714e-05;1000.0208;  4.0000001E-01;17.283459;3;-2.0153487;0.0;0.057268877;0;-0.021117328;  1.0000438E+04;  0.0000000E+00; -6.8167708E-08;  1.0000000E+04;  0.0000000E+00;  9.9999775E+03;-0.022237973;0.0;0.001120646;10.987044
  1.7999834E-01;  9.9999998E-03;  1.8000010E-01;1332;-0.0021575831;0.0;0.00010902247;1000.0206;  4.0000001E-01;17.085934;3;-2.0179758;0.0;0.072910249;0;-0.021099707;  1.0000438E+04;  0.0000000E+00; -1.9548548E-05;  1.0000000E+04;  0.0000000E+00;  9.9999756E+03;-0.022350434;0.0;0.0012507273;12.045959
  1.7999837E-01;  9.9999998E-03;  2.0000012E-01;1333;-0.0021277147;0.0;0.00013197765;1000.0204;  4.0000001E-01;16.888409;3;-2.002568;0.0;0.089839324;0;-0.021023709;  1.0000434E+04;  0.0000000E+00; -2.3430704E-04;  1.0000000E+04;  0.0000000E+00;  9.9999746E+03;-0.022348735;0.0;0.0013250264;12.651115
  1.7999843E-01;  9.9999998E-03;  2.2000015E-01;1334;-0.0020643296;0.0;0.0001552512;1000.0203;  4.0000001E-01;16.789646;3;-1.96251;0.0;0.10788401;0;-0.020983903;  1.0000431E+04;  0.0000000E+00; -1.2494379E-03;  1.0000000E+04;  0.0000000E+00;  9.9999766E+03;-0.022231229;0.0;0.0012473257;13.278337
  1.7999852E-01;  9.9999998E-03;  2.4000016E-01;1335;-0.0019534754;0.0;0.00017655971;1000.0203;  4.0000001E-01;16.789646;3;-1.8903716;0.0;0.12711501;0;-0.021108264;  1.0000423E+04;  0.0000000E+00; -4.2846650E-03;  1.0000000E+04;  0.0000000E+00;  9.9999824E+03;-0.022009276;0.0;0.00090101198;22.330984
  1.7999865E-01;  9.9999998E-03;  2.6000017E-01;1336;-0.0017820424;0.0;0.00019679352;1000.0204;  4.0000001E-01;16.888409;3;-1.7766333;0.0;0.15021986;0;-0.021442864;  1.0000412E+04;  0.0000000E+00; -1.0742587E-02;  1.0000000E+04;  0.0000000E+00;  9.9999971E+03;-0.02166234;0.0;0.00021947554;51.361229
  1.7999883E-01;  9.9999998E-03;  2.8000021E-01;1337;-0.0015397161;0.0;0.00022051118;1000.0204;  4.0000001E-01;16.987171;3;-1.6036901;0.0;0.18400204;0;-0.021717951;  1.0000396E+04;  0.0000000E+00; -2.0527657E-02;  1.0000000E+04;  0.0000000E+00;  1.0000014E+04;-0.021016221;0.0;-0.00070172851;97.829826
  1.7999908E-01;  9.9999998E-03;  3.0000022E-01;1338;-0.0012128399;0.0;0.00025790432;1000.0198;  4.0000001E-01;16.394596;3;-1.3342812;0.0;0.2423979;0;-0.021035919;  1.0000363E+04;  0.0000000E+00; -2.9746894E-02;  1.0000000E+04;  0.0000000E+00;  1.0000030E+04;-0.019513128;0.0;-0.0015227908;141.76549
  1.9999787E-01;  9.9999998E-03;  1.6000010E-01;1362;-0.0026759214;0.0;0.00011152234;1000.0258;  4.0000001E-01;21.43149;3;-2.4240365;0.0;0.074936159;0;-0.025474576;  1.0000548E+04;  0.0000000E+00; -2.9216363E-07;  1.0000000E+04;  0.0000000E+00;  9.9999697E+03;-0.026988652;0.0;0.0015140761;14.875769
  1.9999789E-01;  9.9999998E-03;  1.8000013E-01;1363;-0.0026735258;0.0;0.00013947768;1000.0256;  4.0000001E-01;21.233965;3;-2.4350896;0.0;0.094617143;0;-0.025496593;  1.0000549E+04;  0.0000000E+00; -3.4696113E-05;  1.0000000E+04;  0.0000000E+00;  9.9999668E+03;-0.02724096;0.0;0.0017443672;16.843607
  1.9999792E-01;  9.9999998E-03;  2.0000017E-01;1364;-0.0026471061;0.0;0.00016841159;1000.0255;  4.0000001E-01;21.135202;3;-2.4271822;0.0;0.11470348;0;-0.025483266;  1.0000546E+04;  0.0000000E+00; -3.7255057E-04;  1.0000000E+04;  0.0000000E+00;  9.9999609E+03;-0.027412204;0.0;0.0019289381;18.473951
  1.9999798E-01;  9.9999998E-03;  2.2000019E-01;1365;-0.0025811011;0.0;0.00019813303;1000.0252;  4.0000001E-01;20.838913;3;-2.3920121;0.0;0.13626195;0;-0.02559403;  1.0000547E+04;  0.0000000E+00; -1.9186308E-03;  1.0000000E+04;  0.0000000E+00;  9.9999600E+03;-0.027529208;0.0;0.0019351785;20.574825
  1.9999808E-01;  9.9999998E-03;  2.4000020E-01;1366;-0.0024593242;0.0;0.00022183519;1000.0255;  4.0000001E-01;21.135202;3;-2.3220215;0.0;0.15586394;0;-0.026070287;  1.0000544E+04;  0.0000000E+00; -6.5595028E-03;  1.0000000E+04;  0.0000000E+00;  9.9999688E+03;-0.027646765;0.0;0.001576477;35.070572
  1.9999824E-01;  9.9999998E-03;  2.6000023E-01;1367;-0.0022646787;0.0;0.00024433265;1000.0264;  4.0000001E-01;21.82654;3;-2.2060161;0.0;0.17969447;0;-0.02709393;  1.0000543E+04;  0.0000000E+00; -1.6686292E-02;  1.0000000E+04;  0.0000000E+00;  9.9999863E+03;-0.027796544;0.0;0.00070261484;80.505814
  1.9999845E-01;  9.9999998E-03;  2.8000024E-01;1368;-0.0019891593;0.0;0.0002684643;1000.0273;  4.0000001E-01;22.61664;3;-2.0284324;0.0;0.21381867;0;-0.028427154;  1.0000536E+04;  0.0000000E+00; -3.2592613E-02;  1.0000000E+04;  0.0000000E+00;  1.0000013E+04;-0.027808763;0.0;-0.00061839115;156.17082
  1.9999875E-01;  9.9999998E-03;  3.0000028E-01;1369;-0.0016144831;0.0;0.00030636298;1000.0275;  4.0000001E-01;22.715403;3;-1.7457448;0.0;0.2712543;0;-0.02876321;  1.0000509E+04;  0.0000000E+00; -4.8201174E-02;  1.0000000E+04;  0.0000000E+00;  1.0000040E+04;-0.026878893;0.0;-0.0018843169;230.8598
  2.1999732E-01;  9.9999998E-03;  1.6000013E-01;1393;-0.0032917662;0.0;0.00014410354;1000.0318;  4.0000001E-01;26.369621;3;-2.9001322;0.0;0.10117074;0;-0.030583678;  1.0000680E+04;  0.0000000E+00; -3.2601747E-07;  1.0000000E+04;  0.0000000E+00;  9.9999580E+03;-0.032659896;0.0;0.0020762184;20.30312
  2.1999733E-01;  9.9999998E-03;  1.8000017E-01;1394;-0.0032980777;0.0;0.00018168859;1000.0317;  4.0000001E-01;26.270859;3;-2.9220874;0.0;0.12746531;0;-0.030629255;  1.0000684E+04;  0.0000000E+00; -4.0072420E-05;  1.0000000E+04;  0.0000000E+00;  9.9999512E+03;-0.033093147;0.0;0.0024638923;23.720963
  2.1999736E-01;  9.9999998E-03;  2.0000021E-01;1395;-0.0032780541;0.0;0.00021983172;1000.0314;  4.0000001E-01;25.974569;3;-2.9248874;0.0;0.15273076;0;-0.030641155;  1.0000686E+04;  0.0000000E+00; -4.3775589E-04;  1.0000000E+04;  0.0000000E+00;  9.9999443E+03;-0.033467252;0.0;0.0028260967;26.987854
  2.1999742E-01;  9.9999998E-03;  2.2000025E-01;1396;-0.0032128128;0.0;0.0002587896;1000.0313;  4.0000001E-01;25.974569;3;-2.8988147;0.0;0.17988624;0;-0.030825134;  1.0000688E+04;  0.0000000E+00; -2.2866926E-03;  1.0000000E+04;  0.0000000E+00;  9.9999385E+03;-0.033815343;0.0;0.0029902079;30.442612
  2.1999754E-01;  9.9999998E-03;  2.4000028E-01;1397;-0.0030831848;0.0;0.00029045405;1000.0318;  4.0000001E-01;26.369621;3;-2.8375201;0.0;0.20218605;0;-0.031522978;  1.0000690E+04;  0.0000000E+00; -7.9681892E-03;  1.0000000E+04;  0.0000000E+00;  9.9999463E+03;-0.034204733;0.0;0.0026817559;46.382233
  2.1999772E-01;  9.9999998E-03;  2.6000032E-01;1398;-0.0028662693;0.0;0.00032713337;1000.033;  4.0000001E-01;27.258484;3;-2.725642;0.0;0.23634839;0;-0.033053279;  1.0000689E+04;  0.0000000E+00; -2.0750994E-02;  1.0000000E+04;  0.0000000E+00;  9.9999678E+03;-0.034684964;0.0;0.001631683;101.69653
  2.1999797E-01;  9.9999998E-03;  2.8000036E-01;1399;-0.0025557776;0.0;0.0003764201;1000.0347;  4.0000001E-01;28.739923;3;-2.5509193;0.0;0.29215014;0;-0.035181556;  1.0000688E+04;  0.0000000E+00; -4.1452151E-02;  1.0000000E+04;  0.0000000E+00;  1.0000001E+04;-0.035072576;0.0;-0.00010897953;199.96803
  2.1999833E-01;  9.9999998E-03;  3.0000046E-01;1400;-0.0021083551;0.0;0.00047757316;1000.035;  4.0000001E-01;29.036211;3;-2.2385802;0.0;0.41572142;0;-0.035832539;  1.0000664E+04;  0.0000000E+00; -6.2627845E-02;  1.0000000E+04;  0.0000000E+00;  1.0000032E+04;-0.034284271;0.0;-0.0015482686;301.6499
  2.3999663E-01;  9.9999998E-03;  1.6000018E-01;1424;-0.0040332363;0.0;0.00018695895;1000.0391;  4.0000001E-01;32.394142;3;-3.4526696;0.0;0.13817737;0;-0.03654718;  1.0000841E+04;  0.0000000E+00; -9.2582340E-08;  1.0000000E+04;  0.0000000E+00;  9.9999443E+03;-0.039389342;0.0;0.0028421616;27.619364
  2.3999663E-01;  9.9999998E-03;  1.8000023E-01;1425;-0.0040519931;0.0;0.00023833306;1000.0389;  4.0000001E-01;32.196617;3;-3.4887288;0.0;0.17367528;0;-0.036594771;  1.0000850E+04;  0.0000000E+00; -2.9881241E-05;  1.0000000E+04;  0.0000000E+00;  9.9999277E+03;-0.040046431;0.0;0.0034516598;33.134007
  2.3999666E-01;  9.9999998E-03;  2.0000027E-01;1426;-0.004042313;0.0;0.00029263095;1000.0385;  4.0000001E-01;31.900328;3;-3.5058808;0.0;0.20974207;0;-0.03657965;  1.0000856E+04;  0.0000000E+00; -3.7832884E-04;  1.0000000E+04;  0.0000000E+00;  9.9999160E+03;-0.040647;0.0;0.0040673492;38.784809
  2.3999672E-01;  9.9999998E-03;  2.2000033E-01;1427;-0.0039836694;0.0;0.00035027714;1000.0384;  4.0000001E-01;31.801565;3;-3.495729;0.0;0.2494877;0;-0.036717288;  1.0000860E+04;  0.0000000E+00; -2.1085425E-03;  1.0000000E+04;  0.0000000E+00;  9.9999072E+03;-0.041202284;0.0;0.0044849976;43.825516
  2.3999685E-01;  9.9999998E-03;  2.4000040E-01;1428;-0.0038533632;0.0;0.00040967995;1000.0388;  4.0000001E-01;32.097855;3;-3.4527276;0.0;0.29286483;0;-0.037387576;  1.0000865E+04;  0.0000000E+00; -7.6609342E-03;  1.0000000E+04;  0.0000000E+00;  9.9999102E+03;-0.041749492;0.0;0.0043619154;55.968082
  2.3999704E-01;  9.9999998E-03;  2.6000047E-01;1429;-0.0036209461;0.0;0.00050246663;1000.0398;  4.0000001E-01;32.986717;3;-3.3577573;0.0;0.37604749;0;-0.038902879;  1.0000866E+04;  0.0000000E+00; -2.0646166E-02;  1.0000000E+04;  0.0000000E+00;  9.9999297E+03;-0.042302582;0.0;0.0033997034;105.85289
  2.3999733E-01;  9.9999998E-03;  2.8000063E-01;1430;-0.0032850925;0.0;0.00065743423;1000.0413;  4.0000001E-01;34.171867;3;-3.2025812;0.0;0.53855026;0;-0.040720053;  1.0000862E+04;  0.0000000E+00; -4.2358052E-02;  1.0000000E+04;  0.0000000E+00;  9.9999639E+03;-0.042650063;0.0;0.0019300105;206.71764
  2.3999773E-01;  9.9999998E-03;  3.0000085E-01;1431;-0.0027932525;0.0;0.0009389128;1000.0401;  4.0000001E-01;33.184242;3;-2.8977556;0.0;0.86346376;0;-0.039838132;  1.0000832E+04;  0.0000000E+00; -6.5409757E-02;  1.0000000E+04;  0.0000000E+00;  9.9999727E+03;-0.041697111;0.0;0.0018589788;317.19565
  2.5999576E-01;  9.9999998E-03;  1.6000022E-01;1455;-0.0049233595;0.0;0.00024042057;1000.048;  4.0000001E-01;39.702572;3;-4.0922699;0.0;0.18533133;0;-0.043492407;  1.0001037E+04;  0.0000000E+00; -4.6993165E-10;  1.0000000E+04;  0.0000000E+00;  9.9999219E+03;-0.047325369;0.0;0.0038329614;37.091984
  2.5999576E-01;  9.9999998E-03;  1.8000029E-01;1456;-0.0049597137;0.0;0.00031187694;1000.0477;  4.0000001E-01;39.505047;3;-4.1462202;0.0;0.23568045;0;-0.043525875;  1.0001051E+04;  0.0000000E+00; -1.2634972E-05;  1.0000000E+04;  0.0000000E+00;  9.9999033E+03;-0.048252992;0.0;0.0047271191;45.400482
  2.5999579E-01;  9.9999998E-03;  2.0000036E-01;1457;-0.004965981;0.0;0.00039328553;1000.0472;  4.0000001E-01;39.109997;3;-4.1824126;0.0;0.29184175;0;-0.043444514;  1.0001063E+04;  0.0000000E+00; -2.2948296E-04;  1.0000000E+04;  0.0000000E+00;  9.9998818E+03;-0.049110238;0.0;0.0056657246;54.252544
  2.5999585E-01;  9.9999998E-03;  2.2000046E-01;1458;-0.004921434;0.0;0.00048745068;1000.0468;  4.0000001E-01;38.714947;3;-4.1958709;0.0;0.35887289;0;-0.043434355;  1.0001073E+04;  0.0000000E+00; -1.4686226E-03;  1.0000000E+04;  0.0000000E+00;  9.9998652E+03;-0.049868718;0.0;0.0064343633;61.992035
  2.5999597E-01;  9.9999998E-03;  2.4000056E-01;1459;-0.0048034685;0.0;0.00059535011;1000.0467;  4.0000001E-01;38.714947;3;-4.1863279;0.0;0.4407663;0;-0.043840177;  1.0001076E+04;  0.0000000E+00; -5.7457029E-03;  1.0000000E+04;  0.0000000E+00;  9.9998604E+03;-0.050512351;0.0;0.0066721728;69.923157
  2.5999618E-01;  9.9999998E-03;  2.6000074E-01;1460;-0.004577491;0.0;0.00077092124;1000.0473;  4.0000001E-01;39.208759;3;-4.1361156;0.0;0.59614909;0;-0.044828329;  1.0001075E+04;  0.0000000E+00; -1.6268164E-02;  1.0000000E+04;  0.0000000E+00;  9.9998701E+03;-0.051003259;0.0;0.0061749294;99.260773
  2.5999647E-01;  9.9999998E-03;  2.8000098E-01;1461;-0.0042384099;0.0;0.0010602421;1000.0477;  4.0000001E-01;39.505047;3;-4.0322685;0.0;0.8871811;0;-0.045389615;  1.0001065E+04;  0.0000000E+00; -3.4406099E-02;  1.0000000E+04;  0.0000000E+00;  9.9998857E+03;-0.051137209;0.0;0.0057475958;176.45671
  2.5999689E-01;  9.9999998E-03;  3.0000132E-01;1462;-0.0037437484;0.0;0.0014765612;1000.0448;  4.0000001E-01;37.134743;3;-3.7964566;0.0;1.349936;0;-0.04272934;  1.0001028E+04;  0.0000000E+00; -5.3794112E-02;  1.0000000E+04;  0.0000000E+00;  9.9998672E+03;-0.050082803;0.0;0.0073534637;269.38828
  2.7999473E-01;  9.9999998E-03;  1.6000028E-01;1486;-0.005988331;0.0;0.00030567421;1000.0587;  4.0000001E-01;48.689968;3;-4.8298497;0.0;0.24473792;0;-0.051575102;  1.0001276E+04;  0.0000000E+00; -1.3999442E-09;  1.0000000E+04;  0.0000000E+00;  9.9998965E+03;-0.056628913;0.0;0.0050538098;48.886711
  2.7999470E-01;  9.9999998E-03;  1.8000038E-01;1487;-0.0060489466;0.0;0.00040455229;1000.0583;  4.0000001E-01;48.294918;3;-4.9060426;0.0;0.31570739;0;-0.051590536;  1.0001297E+04;  0.0000000E+00; -1.7433808E-06;  1.0000000E+04;  0.0000000E+00;  9.9998682E+03;-0.057878625;0.0;0.0062880875;60.701542
  2.7999470E-01;  9.9999998E-03;  2.0000048E-01;1488;-0.0060783927;0.0;0.00052166829;1000.0577;  4.0000001E-01;47.801105;3;-4.9667788;0.0;0.39781815;0;-0.051435445;  1.0001313E+04;  0.0000000E+00; -8.5868036E-05;  1.0000000E+04;  0.0000000E+00;  9.9998379E+03;-0.059034865;0.0;0.0075994194;73.523277
  2.7999476E-01;  9.9999998E-03;  2.2000062E-01;1489;-0.0060559437;0.0;0.00066499534;1000.0571;  4.0000001E-01;47.307293;3;-5.012136;0.0;0.50003064;0;-0.051250458;  1.0001326E+04;  0.0000000E+00; -7.2652037E-04;  1.0000000E+04;  0.0000000E+00;  9.9998115E+03;-0.060028203;0.0;0.008777746;85.256981
  2.7999485E-01;  9.9999998E-03;  2.4000078E-01;1490;-0.0059621404;0.0;0.00084028434;1000.0565;  4.0000001E-01;46.81348;3;-5.0484114;0.0;0.63557428;0;-0.051297516;  1.0001333E+04;  0.0000000E+00; -3.2440044E-03;  1.0000000E+04;  0.0000000E+00;  9.9997959E+03;-0.060795575;0.0;0.0094980616;93.622108
  2.7999505E-01;  9.9999998E-03;  2.6000103E-01;1491;-0.0057589444;0.0;0.0010986784;1000.0565;  4.0000001E-01;46.81348;3;-5.0647802;0.0;0.85513848;0;-0.051604208;  1.0001333E+04;  0.0000000E+00; -9.9211382E-03;  1.0000000E+04;  0.0000000E+00;  9.9997949E+03;-0.061261725;0.0;0.0096575161;104.97198
  2.7999535E-01;  9.9999998E-03;  2.8000140E-01;1492;-0.0054349587;0.0;0.0014927109;1000.0554;  4.0000001E-01;45.924618;3;-5.0454512;0.0;1.2305082;0;-0.050911497;  1.0001321E+04;  0.0000000E+00; -2.1913607E-02;  1.0000000E+04;  0.0000000E+00;  9.9997881E+03;-0.06125883;0.0;0.010347332;143.91956
  2.7999577E-01;  9.9999998E-03;  3.0000186E-01;1493;-0.0049618273;0.0;0.0019809932;1000.0516;  4.0000001E-01;42.764214;3;-4.9213314;0.0;1.7540435;0;-0.047388606;  1.0001285E+04;  0.0000000E+00; -3.4819659E-02;  1.0000000E+04;  0.0000000E+00;  9.9997480E+03;-0.060268026;0.0;0.012879422;204.19897
  2.9999343E-01;  9.9999998E-03;  1.6000035E-01;1517;-0.0072579705;0.0;0.00038150157;1000.0713;  4.0000001E-01;59.060036;3;-5.6765771;0.0;0.3153089;0;-0.060979631;  1.0001564E+04;  0.0000000E+00; -1.6547076E-09;  1.0000000E+04;  0.0000000E+00;  9.9998662E+03;-0.067476884;0.0;0.0064972537;63.083778
  2.9999337E-01;  9.9999998E-03;  1.8000047E-01;1518;-0.0073512937;0.0;0.00051473832;1000.071;  4.0000001E-01;58.862511;3;-5.7800741;0.0;0.41190264;0;-0.060986366;  1.0001592E+04;  0.0000000E+00; -8.2393257E-09;  1.0000000E+04;  0.0000000E+00;  9.9998281E+03;-0.069107987;0.0;0.0081216199;79.15271
  2.9999334E-01;  9.9999998E-03;  2.0000063E-01;1519;-0.0074123829;0.0;0.00067586498;1000.0701;  4.0000001E-01;58.072411;3;-5.8708348;0.0;0.52517837;0;-0.060775474;  1.0001617E+04;  0.0000000E+00; -1.3645293E-05;  1.0000000E+04;  0.0000000E+00;  9.9997891E+03;-0.0706148;0.0;0.0098393243;96.670059
  2.9999340E-01;  9.9999998E-03;  2.2000082E-01;1520;-0.0074201436;0.0;0.0008759512;1000.0693;  4.0000001E-01;57.479836;3;-5.9546871;0.0;0.66450387;0;-0.060454797;  1.0001637E+04;  0.0000000E+00; -2.1891652E-04;  1.0000000E+04;  0.0000000E+00;  9.9997529E+03;-0.071894877;0.0;0.011440079;113.27465
  2.9999349E-01;  9.9999998E-03;  2.4000105E-01;1521;-0.0073523181;0.0;0.0011170456;1000.0685;  4.0000001E-01;56.788494;3;-6.0405035;0.0;0.84638166;0;-0.060236044;  1.0001648E+04;  0.0000000E+00; -1.2633662E-03;  1.0000000E+04;  0.0000000E+00;  9.9997227E+03;-0.072860286;0.0;0.012624242;125.55079
  2.9999366E-01;  9.9999998E-03;  2.6000139E-01;1522;-0.0071768528;0.0;0.0014550311;1000.0679;  4.0000001E-01;56.294682;3;-6.1347113;0.0;1.1209674;0;-0.060059775;  1.0001652E+04;  0.0000000E+00; -4.4109905E-03;  1.0000000E+04;  0.0000000E+00;  9.9997080E+03;-0.073429957;0.0;0.013370181;133.37117
  2.9999396E-01;  9.9999998E-03;  2.8000185E-01;1523;-0.0068752291;0.0;0.0019249537;1000.0663;  4.0000001E-01;54.912006;3;-6.2156668;0.0;1.5434828;0;-0.05873334;  1.0001640E+04;  0.0000000E+00; -1.0537186E-02;  1.0000000E+04;  0.0000000E+00;  9.9996855E+03;-0.073492169;0.0;0.014758829;149.86772
  2.9999438E-01;  9.9999998E-03;  3.0000240E-01;1524;-0.0064192181;0.0;0.002465352;1000.0623;  4.0000001E-01;51.65284;3;-6.2182474;0.0;2.1014009;0;-0.055198677;  1.0001610E+04;  0.0000000E+00; -1.7386625E-02;  1.0000000E+04;  0.0000000E+00;  9.9996367E+03;-0.072770208;0.0;0.017571531;182.29539
  3.1999183E-01;  9.9999998E-03;  1.6000043E-01;1548;-0.0087670768;0.0;0.00046743607;1000.0868;  4.0000001E-01;71.899178;3;-6.6446209;0.0;0.39648622;0;-0.071914576;  1.0001909E+04;  0.0000000E+00; -1.7949241E-10;  1.0000000E+04;  0.0000000E+00;  9.9998291E+03;-0.080063641;0.0;0.0081490679;79.716728
  3.1999174E-01;  9.9999998E-03;  1.8000059E-01;1549;-0.0089032268;0.0;0.00064108183;1000.0864;  4.0000001E-01;71.50412;3;-6.7804217;0.0;0.52216136;0;-0.071937196;  1.0001948E+04;  0.0000000E+00; -1.0607850E-08;  1.0000000E+04;  0.0000000E+00;  9.9997822E+03;-0.082152478;0.0;0.010215284;100.87341
  3.1999168E-01;  9.9999998E-03;  2.0000079E-01;1550;-0.0090044755;0.0;0.00085261697;1000.0856;  4.0000001E-01;70.911545;3;-6.9050651;0.0;0.66916275;0;-0.071698271;  1.0001983E+04;  0.0000000E+00;  1.1039933E-08;  1.0000000E+04;  0.0000000E+00;  9.9997295E+03;-0.084073894;0.0;0.012375624;123.9285
  3.1999171E-01;  9.9999998E-03;  2.2000104E-01;1551;-0.0090467585;0.0;0.0011103064;1000.0845;  4.0000001E-01;70.022682;3;-7.029964;0.0;0.84596592;0;-0.071303576;  1.0002014E+04;  0.0000000E+00; -2.4211129E-05;  1.0000000E+04;  0.0000000E+00;  9.9996787E+03;-0.085696496;0.0;0.014392924;146.04181
  3.1999177E-01;  9.9999998E-03;  2.4000135E-01;1552;-0.0090071764;0.0;0.0014233107;1000.0834;  4.0000001E-01;69.13382;3;-7.1703296;0.0;1.0723224;0;-0.070947841;  1.0002031E+04;  0.0000000E+00; -2.6499122E-04;  1.0000000E+04;  0.0000000E+00;  9.9996377E+03;-0.086924993;0.0;0.01597715;163.28517
  3.1999198E-01;  9.9999998E-03;  2.6000178E-01;1553;-0.0088513969;0.0;0.0018358114;1000.0825;  4.0000001E-01;68.343719;3;-7.3409834;0.0;1.3852196;0;-0.070579104;  1.0002039E+04;  0.0000000E+00; -1.2208306E-03;  1.0000000E+04;  0.0000000E+00;  9.9996133E+03;-0.087701298;0.0;0.017122192;174.24594
  3.1999227E-01;  9.9999998E-03;  2.8000236E-01;1554;-0.0085570747;0.0;0.002371755;1000.0809;  4.0000001E-01;67.059807;3;-7.5234008;0.0;1.8402187;0;-0.069189832;  1.0002035E+04;  0.0000000E+00; -3.3691423E-03;  1.0000000E+04;  0.0000000E+00;  9.9995820E+03;-0.08798638;0.0;0.018796546;188.21614
  3.1999272E-01;  9.9999998E-03;  3.0000299E-01;1555;-0.0080959192;0.0;0.0029764485;1000.0771;  4.0000001E-01;63.899403;3;-7.6502261;0.0;2.4417787;0;-0.066020355;  1.0002018E+04;  0.0000000E+00; -6.0825371E-03;  1.0000000E+04;  0.0000000E+00;  9.9995264E+03;-0.08768905;0.0;0.021668697;212.58771
  3.3998987E-01;  9.9999998E-03;  1.6000052E-01;1579;-0.010554388;0.0;0.00056016963;1000.1055;  4.0000001E-01;87.4049;3;-7.7454543;0.0;0.48293379;0;-0.084606297;  1.0002321E+04;  0.0000000E+00;  3.0575109E-09;  1.0000000E+04;  0.0000000E+00;  9.9997900E+03;-0.09459807;0.0;0.0099917743;98.806305
  3.3998975E-01;  9.9999998E-03;  1.8000071E-01;1580;-0.010745111;0.0;0.00077848742;1000.105;  4.0000001E-01;87.009842;3;-7.9184122;0.0;0.64239895;0;-0.084692374;  1.0002373E+04;  0.0000000E+00; -1.0431765E-08;  1.0000000E+04;  0.0000000E+00;  9.9997266E+03;-0.09725038;0.0;0.012558009;125.98334
  3.3998966E-01;  9.9999998E-03;  2.0000097E-01;1581;-0.010897337;0.0;0.0010480157;1000.1041;  4.0000001E-01;86.219742;3;-8.0827055;0.0;0.83114046;0;-0.084465265;  1.0002421E+04;  0.0000000E+00;  5.5867471E-09;  1.0000000E+04;  0.0000000E+00;  9.9996572E+03;-0.099681869;0.0;0.015216601;155.66481
  3.3998963E-01;  9.9999998E-03;  2.2000130E-01;1582;-0.010981434;0.0;0.0013733758;1000.1029;  4.0000001E-01;85.232117;3;-8.2513542;0.0;1.0453466;0;-0.08403793;  1.0002462E+04;  0.0000000E+00;  2.7014565E-07;  1.0000000E+04;  0.0000000E+00;  9.9995967E+03;-0.10172082;0.0;0.017682895;184.2477
  3.3998969E-01;  9.9999998E-03;  2.4000169E-01;1583;-0.010968707;0.0;0.0017606376;1000.1017;  4.0000001E-01;84.244492;3;-8.4467297;0.0;1.3098149;0;-0.083627596;  1.0002491E+04;  0.0000000E+00; -9.0990770E-06;  1.0000000E+04;  0.0000000E+00;  9.9995459E+03;-0.10326242;0.0;0.019634819;207.04068
  3.3998990E-01;  9.9999998E-03;  2.6000223E-01;1584;-0.010821807;0.0;0.0022477491;1000.1008;  4.0000001E-01;83.553154;3;-8.6942377;0.0;1.6521572;0;-0.083259583;  1.0002508E+04;  0.0000000E+00; -1.2313743E-04;  1.0000000E+04;  0.0000000E+00;  9.9995107E+03;-0.1042775;0.0;0.021017917;222.1626
  3.3999023E-01;  9.9999998E-03;  2.8000292E-01;1585;-0.010511822;0.0;0.0028598576;1000.0992;  4.0000001E-01;82.170479;3;-8.9724121;0.0;2.1436229;0;-0.082043059;  1.0002511E+04;  0.0000000E+00; -4.8908696E-04;  1.0000000E+04;  0.0000000E+00;  9.9994727E+03;-0.10480119;0.0;0.022758136;238.85204
  3.3999076E-01;  9.9999998E-03;  3.0000368E-01;1586;-0.010011728;0.0;0.0035411371;1000.0958;  4.0000001E-01;79.306366;3;-9.2110949;0.0;2.7933202;0;-0.07931079;  1.0002506E+04;  0.0000000E+00; -1.0471771E-03;  1.0000000E+04;  0.0000000E+00;  9.9994082E+03;-0.10489316;0.0;0.025582364;264.88196
  3.5998750E-01;  9.9999998E-03;  1.6000061E-01;1610;-0.012663341;0.0;0.00065891078;1000.1276;  4.0000001E-01;105.77472;3;-8.9930067;0.0;0.57587373;0;-0.099291243;  1.0002813E+04;  0.0000000E+00;  8.0618250E-09;  1.0000000E+04;  0.0000000E+00;  9.9997422E+03;-0.11129539;0.0;0.012004142;120.39008
  3.5998729E-01;  9.9999998E-03;  1.8000086E-01;1611;-0.012923564;0.0;0.00092758681;1000.1274;  4.0000001E-01;105.57719;3;-9.2089911;0.0;0.77694237;0;-0.09951669;  1.0002884E+04;  0.0000000E+00; -6.1171361E-09;  1.0000000E+04;  0.0000000E+00;  9.9996660E+03;-0.11465356;0.0;0.01513687;154.59123
  3.5998714E-01;  9.9999998E-03;  2.0000118E-01;1612;-0.013139713;0.0;0.0012624268;1000.1265;  4.0000001E-01;104.78709;3;-9.414773;0.0;1.0067383;0;-0.099366888;  1.0002949E+04;  0.0000000E+00;  1.1837029E-09;  1.0000000E+04;  0.0000000E+00;  9.9995811E+03;-0.11773922;0.0;0.018372338;192.21893
  3.5998708E-01;  9.9999998E-03;  2.2000159E-01;1613;-0.013274775;0.0;0.0016641757;1000.1252;  4.0000001E-01;103.79947;3;-9.6305876;0.0;1.2614832;0;-0.09896142;  1.0003005E+04;  0.0000000E+00;  3.2111254E-07;  1.0000000E+04;  0.0000000E+00;  9.9995010E+03;-0.12032495;0.0;0.021363534;228.70187
  3.5998714E-01;  9.9999998E-03;  2.4000210E-01;1614;-0.013291389;0.0;0.0021353194;1000.124;  4.0000001E-01;102.71308;3;-9.8847847;0.0;1.5637931;0;-0.098542728;  1.0003047E+04;  0.0000000E+00;  1.5227704E-06;  1.0000000E+04;  0.0000000E+00;  9.9994336E+03;-0.12227302;0.0;0.023730291;258.25735
  3.5998732E-01;  9.9999998E-03;  2.6000276E-01;1615;-0.01314654;0.0;0.0027082504;1000.123;  4.0000001E-01;101.92298;3;-10.214184;0.0;1.9352198;0;-0.098216362;  1.0003070E+04;  0.0000000E+00;  4.0255636E-06;  1.0000000E+04;  0.0000000E+00;  9.9993896E+03;-0.1235617;0.0;0.025345331;278.31192
  3.5998774E-01;  9.9999998E-03;  2.8000361E-01;1616;-0.012802903;0.0;0.003411524;1000.1212;  4.0000001E-01;100.34278;3;-10.59427;0.0;2.4628093;0;-0.097142279;  1.0003085E+04;  0.0000000E+00;  3.6060474E-06;  1.0000000E+04;  0.0000000E+00;  9.9993418E+03;-0.12427379;0.0;0.027131513;299.21799
  3.5998836E-01;  9.9999998E-03;  3.0000454E-01;1617;-0.012228705;0.0;0.0041898754;1000.1177;  4.0000001E-01;97.577431;3;-10.938868;0.0;3.1726773;0;-0.094603114;  1.0003086E+04;  0.0000000E+00; -1.0726399E-05;  1.0000000E+04;  0.0000000E+00;  9.9992705E+03;-0.12455676;0.0;0.029953653;329.76804
  3.7998462E-01;  9.9999998E-03;  1.6000073E-01;1641;-0.01514007;0.0;0.00076790917;1000.1541;  4.0000001E-01;127.7;3;-10.400619;0.0;0.6758045;0;-0.11620759;  1.0003390E+04;  0.0000000E+00;  9.5262420E-09;  1.0000000E+04;  0.0000000E+00;  9.9996934E+03;-0.13036685;0.0;0.014159254;144.58739
  3.7998432E-01;  9.9999998E-03;  1.8000102E-01;1642;-0.015487923;0.0;0.0010897375;1000.1542;  4.0000001E-01;127.79876;3;-10.663676;0.0;0.92032886;0;-0.11668433;  1.0003485E+04;  0.0000000E+00;  1.8959008E-09;  1.0000000E+04;  0.0000000E+00;  9.9995977E+03;-0.1346104;0.0;0.017926075;186.76601
  3.7998411E-01;  9.9999998E-03;  2.0000140E-01;1643;-0.015784534;0.0;0.0014959609;1000.1534;  4.0000001E-01;127.10742;3;-10.91435;0.0;1.1972313;0;-0.11671271;  1.0003578E+04;  0.0000000E+00; -3.1961755E-10;  1.0000000E+04;  0.0000000E+00;  9.9994902E+03;-0.13854717;0.0;0.021834454;233.77509
  3.7998396E-01;  9.9999998E-03;  2.2000192E-01;1644;-0.015983174;0.0;0.0019841441;1000.1524;  4.0000001E-01;126.21856;3;-11.179952;0.0;1.4972289;0;-0.1164195;  1.0003658E+04;  0.0000000E+00;  3.8407092E-07;  1.0000000E+04;  0.0000000E+00;  9.9993906E+03;-0.14187931;0.0;0.025459806;279.86105
  3.7998399E-01;  9.9999998E-03;  2.4000254E-01;1645;-0.016036181;0.0;0.0025542669;1000.1512;  4.0000001E-01;125.23093;3;-11.498286;0.0;1.8422328;0;-0.11606452;  1.0003718E+04;  0.0000000E+00;  1.9750057E-06;  1.0000000E+04;  0.0000000E+00;  9.9993066E+03;-0.14441887;0.0;0.028354343;317.93704
  3.7998420E-01;  9.9999998E-03;  2.6000336E-01;1646;-0.015893241;0.0;0.0032328658;1000.1501;  4.0000001E-01;124.44083;3;-11.921379;0.0;2.2467027;0;-0.1158018;  1.0003760E+04;  0.0000000E+00;  5.4374495E-06;  1.0000000E+04;  0.0000000E+00;  9.9992471E+03;-0.14612597;0.0;0.030324169;344.8887
  3.7998465E-01;  9.9999998E-03;  2.8000441E-01;1647;-0.015507276;0.0;0.0040509179;1000.1481;  4.0000001E-01;122.76186;3;-12.420316;0.0;2.8135693;0;-0.11477622;  1.0003780E+04;  0.0000000E+00;  9.3243398E-06;  1.0000000E+04;  0.0000000E+00;  9.9991836E+03;-0.14709751;0.0;0.032321289;373.19131
  3.7998542E-01;  9.9999998E-03;  3.0000558E-01;1648;-0.01483891;0.0;0.0049460582;1000.1442;  4.0000001E-01;119.40394;3;-12.888772;0.0;3.587873;0;-0.11227404;  1.0003788E+04;  0.0000000E+00;  8.6571499E-06;  1.0000000E+04;  0.0000000E+00;  9.9990977E+03;-0.14752051;0.0;0.035246477;411.87347
  3.9998114E-01;  9.9999998E-03;  1.6000086E-01;1672;-0.018031593;0.0;0.00089613767;1000.1855;  4.0000001E-01;153.67451;3;-11.981199;0.0;0.78356665;0;-0.13557786;  1.0004072E+04;  0.0000000E+00;  5.9760015E-09;  1.0000000E+04;  0.0000000E+00;  9.9996377E+03;-0.15200573;0.0;0.016427882;171.77034
  3.9998075E-01;  9.9999998E-03;  1.8000121E-01;1673;-0.018489687;0.0;0.0012709409;1000.1863;  4.0000001E-01;154.36586;3;-12.295808;0.0;1.0749342;0;-0.13646685;  1.0004200E+04;  0.0000000E+00;  1.1872638E-08;  1.0000000E+04;  0.0000000E+00;  9.9995225E+03;-0.15734549;0.0;0.020878643;222.59258
  3.9998040E-01;  9.9999998E-03;  2.0000167E-01;1674;-0.01888858;0.0;0.0017517206;1000.1859;  4.0000001E-01;154.06956;3;-12.594473;0.0;1.4046224;0;-0.13682337;  1.0004325E+04;  0.0000000E+00;  1.2424463E-09;  1.0000000E+04;  0.0000000E+00;  9.9993955E+03;-0.16238208;0.0;0.02555871;280.29993
  3.9998019E-01;  9.9999998E-03;  2.2000229E-01;1675;-0.019169189;0.0;0.0023366446;1000.1852;  4.0000001E-01;153.37823;3;-12.911612;0.0;1.7560202;0;-0.13678356;  1.0004438E+04;  0.0000000E+00;  4.6984644E-07;  1.0000000E+04;  0.0000000E+00;  9.9992666E+03;-0.16673069;0.0;0.029947137;337.7258
  3.9998013E-01;  9.9999998E-03;  2.4000306E-01;1676;-0.019270191;0.0;0.0030233501;1000.1843;  4.0000001E-01;152.68689;3;-13.299108;0.0;2.1517556;0;-0.13661587;  1.0004527E+04;  0.0000000E+00;  2.5708230E-06;  1.0000000E+04;  0.0000000E+00;  9.9991592E+03;-0.17013134;0.0;0.033515468;386.19965
  3.9998034E-01;  9.9999998E-03;  2.6000410E-01;1677;-0.019132832;0.0;0.0038352564;1000.1835;  4.0000001E-01;151.99556;3;-13.828856;0.0;2.5976479;0;-0.13646561;  1.0004593E+04;  0.0000000E+00;  7.3001011E-06;  1.0000000E+04;  0.0000000E+00;  9.9990801E+03;-0.17250557;0.0;0.03603996;422.46539
  3.9998087E-01;  9.9999998E-03;  2.8000540E-01;1678;-0.018699987;0.0;0.0047979979;1000.1812;  4.0000001E-01;150.11906;3;-14.471107;0.0;3.2066011;0;-0.13542707;  1.0004631E+04;  0.0000000E+00;  1.2699703E-05;  1.0000000E+04;  0.0000000E+00;  9.9989912E+03;-0.17395067;0.0;0.0385236;462.89581
  3.9998180E-01;  9.9999998E-03;  3.0000684E-01;1679;-0.017926194;0.0;0.0058328453;1000.1763;  4.0000001E-01;146.06979;3;-15.096656;0.0;4.0479593;0;-0.13296349;  1.0004651E+04;  0.0000000E+00;  1.1577589E-05;  1.0000000E+04;  0.0000000E+00;  9.9988750E+03;-0.1746833;0.0;0.041719813;515.25366
  4.1997701E-01;  9.9999998E-03;  1.6000107E-01;1703;-0.021385768;0.0;0.0010622444;1000.2224;  4.0000001E-01;184.19208;3;-13.746056;0.0;0.90468502;0;-0.15756848;  1.0004871E+04;  0.0000000E+00; -1.6569953E-08;  1.0000000E+04;  0.0000000E+00;  9.9995742E+03;-0.17636402;0.0;0.018795533;202.92934
  4.1997644E-01;  9.9999998E-03;  1.8000145E-01;1704;-0.021982664;0.0;0.001484895;1000.224;  4.0000001E-01;185.57477;3;-14.117828;0.0;1.2416797;0;-0.15909517;  1.0005038E+04;  0.0000000E+00;  1.6505760E-08;  1.0000000E+04;  0.0000000E+00;  9.9994395E+03;-0.18302667;0.0;0.023931503;262.44934
  4.1997594E-01;  9.9999998E-03;  2.0000200E-01;1705;-0.022513673;0.0;0.0020396046;1000.2244;  4.0000001E-01;185.96982;3;-14.467277;0.0;1.6280452;0;-0.15999892;  1.0005206E+04;  0.0000000E+00;  1.0939794E-08;  1.0000000E+04;  0.0000000E+00;  9.9992861E+03;-0.189454;0.0;0.029455077;331.6843
  4.1997558E-01;  9.9999998E-03;  2.2000273E-01;1706;-0.022902675;0.0;0.002727642;1000.2245;  4.0000001E-01;186.06857;3;-14.838319;0.0;2.0394955;0;-0.16043225;  1.0005357E+04;  0.0000000E+00;  6.1085291E-07;  1.0000000E+04;  0.0000000E+00;  9.9991318E+03;-0.19515875;0.0;0.034726504;401.8129
  4.1997543E-01;  9.9999998E-03;  2.4000366E-01;1707;-0.02307063;0.0;0.0035474987;1000.2245;  4.0000001E-01;186.06857;3;-15.299636;0.0;2.4969435;0;-0.16066532;  1.0005494E+04;  0.0000000E+00;  3.3793326E-06;  1.0000000E+04;  0.0000000E+00;  9.9989971E+03;-0.19978045;0.0;0.039115135;462.12921
  4.1997564E-01;  9.9999998E-03;  2.6000494E-01;1708;-0.022946971;0.0;0.0045257835;1000.2244;  4.0000001E-01;185.96982;3;-15.948771;0.0;2.9984083;0;-0.16074745;  1.0005596E+04;  0.0000000E+00;  9.7358870E-06;  1.0000000E+04;  0.0000000E+00;  9.9988936E+03;-0.20317186;0.0;0.042424407;509.70691
  4.1997623E-01;  9.9999998E-03;  2.8000659E-01;1709;-0.022465186;0.0;0.0056758458;1000.2217;  4.0000001E-01;183.69827;3;-16.763119;0.0;3.6597478;0;-0.15960422;  1.0005668E+04;  0.0000000E+00;  1.6953643E-05;  1.0000000E+04;  0.0000000E+00;  9.9987695E+03;-0.20540722;0.0;0.045802988;567.98413
  4.1997731E-01;  9.9999998E-03;  3.0000839E-01;1710;-0.021574207;0.0;0.0068820561;1000.2158;  4.0000001E-01;178.76015;3;-17.585499;0.0;4.5674558;0;-0.15713421;  1.0005711E+04;  0.0000000E+00;  1.4668914E-05;  1.0000000E+04;  0.0000000E+00;  9.9986064E+03;-0.20672075;0.0;0.049586549;643.53265
  4.3997207E-01;  9.9999998E-03;  1.6000138E-01;1734;-0.025255412;0.0;0.0013001811;1000.2648;  4.0000001E-01;219.45023;3;-15.702724;0.0;1.0555171;0;-0.18218781;  1.0005801E+04;  0.0000000E+00; -5.0512948E-08;  1.0000000E+04;  0.0000000E+00;  9.9994980E+03;-0.20348765;0.0;0.021299837;240.28505
  4.3997130E-01;  9.9999998E-03;  1.8000181E-01;1735;-0.026027324;0.0;0.0017633467;1000.2677;  4.0000001E-01;221.82053;3;-16.141014;0.0;1.4252838;0;-0.18465593;  1.0006010E+04;  0.0000000E+00;  3.2446372E-09;  1.0000000E+04;  0.0000000E+00;  9.9993496E+03;-0.21169016;0.0;0.027034219;307.62283
  4.3997058E-01;  9.9999998E-03;  2.0000240E-01;1736;-0.026728721;0.0;0.0023821287;1000.2697;  4.0000001E-01;223.49948;3;-16.546705;0.0;1.8720219;0;-0.18641798;  1.0006229E+04;  0.0000000E+00;  5.2118210E-08;  1.0000000E+04;  0.0000000E+00;  9.9991709E+03;-0.21981898;0.0;0.033401001;388.29935
  4.3997002E-01;  9.9999998E-03;  2.2000323E-01;1737;-0.027262852;0.0;0.0031696642;1000.2714;  4.0000001E-01;224.78339;3;-16.973166;0.0;2.3478894;0;-0.18765652;  1.0006440E+04;  0.0000000E+00;  9.1075026E-07;  1.0000000E+04;  0.0000000E+00;  9.9989854E+03;-0.22727461;0.0;0.039618086;471.54831
  4.3996972E-01;  9.9999998E-03;  2.4000435E-01;1738;-0.027527222;0.0;0.004131339;1000.2729;  4.0000001E-01;226.06731;3;-17.513357;0.0;2.8804526;0;-0.18865508;  1.0006633E+04;  0.0000000E+00;  4.6509917E-06;  1.0000000E+04;  0.0000000E+00;  9.9988252E+03;-0.23356563;0.0;0.044910546;543.87286
  4.3996984E-01;  9.9999998E-03;  2.6000589E-01;1739;-0.027433829;0.0;0.0053113736;1000.2743;  4.0000001E-01;227.25246;3;-18.295284;0.0;3.4604404;0;-0.18925172;  1.0006790E+04;  0.0000000E+00;  1.3110810E-05;  1.0000000E+04;  0.0000000E+00;  9.9986963E+03;-0.23843594;0.0;0.049184211;602.84515
  4.3997049E-01;  9.9999998E-03;  2.8000799E-01;1740;-0.026905086;0.0;0.0067104422;1000.2714;  4.0000001E-01;224.88216;3;-19.313236;0.0;4.1927147;0;-0.18784994;  1.0006911E+04;  0.0000000E+00;  2.2240240E-05;  1.0000000E+04;  0.0000000E+00;  9.9985176E+03;-0.24190091;0.0;0.05405096;685.14636
  4.3997177E-01;  9.9999998E-03;  3.0001026E-01;1741;-0.025886111;0.0;0.0081327148;1000.2637;  4.0000001E-01;218.4626;3;-20.379478;0.0;5.1665406;0;-0.18519366;  1.0006997E+04;  0.0000000E+00;  1.7103506E-05;  1.0000000E+04;  0.0000000E+00;  9.9982793E+03;-0.24419065;0.0;0.058996987;796.79675
  4.5996618E-01;  9.9999998E-03;  1.6000187E-01;1765;-0.029703297;0.0;0.0016668701;1000.3138;  4.0000036E-01;259.94269;3;-17.863504;0.0;1.2431679;0;-0.20907599;  1.0006854E+04;  0.0000000E+00; -8.1127823E-08;  1.0000000E+04;  0.0000000E+00;  9.9994014E+03;-0.23316646;0.0;0.024090469;288.11768
  4.5996517E-01;  9.9999998E-03;  1.8000235E-01;1766;-0.030690562;0.0;0.0021608095;1000.3187;  4.0000039E-01;264.0907;3;-18.374025;0.0;1.6399634;0;-0.21286798;  1.0007114E+04;  0.0000000E+00;  5.9550551E-09;  1.0000000E+04;  0.0000000E+00;  9.9992373E+03;-0.24307655;0.0;0.030208573;361.32559
  4.5996416E-01;  9.9999998E-03;  2.0000298E-01;1767;-0.031609774;0.0;0.0028235801;1000.3226;  4.0000045E-01;267.2511;3;-18.843882;0.0;2.1379356;0;-0.2159003;  1.0007396E+04;  0.0000000E+00;  2.0619970E-07;  1.0000000E+04;  0.0000000E+00;  9.9990391E+03;-0.25319532;0.0;0.03729501;452.177
  4.5996332E-01;  9.9999998E-03;  2.2000389E-01;1768;-0.032337852;0.0;0.0036915974;1000.3264;  4.0000045E-01;270.4115;3;-19.33215;0.0;2.6776488;0;-0.21840978;  1.0007682E+04;  0.0000000E+00;  1.6153749E-06;  1.0000000E+04;  0.0000000E+00;  9.9988291E+03;-0.26281235;0.0;0.044402573;547.5199
  4.5996279E-01;  9.9999998E-03;  2.4000515E-01;1769;-0.032742247;0.0;0.0047876136;1000.3308;  4.0000036E-01;274.0657;3;-19.956173;0.0;3.2988281;0;-0.22074667;  1.0007950E+04;  0.0000000E+00;  6.9303010E-06;  1.0000000E+04;  0.0000000E+00;  9.9986455E+03;-0.27127743;0.0;0.050530761;629.89111
  4.5996276E-01;  9.9999998E-03;  2.6000702E-01;1770;-0.032709695;0.0;0.0061979648;1000.335;  4.0000045E-01;277.5224;3;-20.882917;0.0;3.9865515;0;-0.22241056;  1.0008185E+04;  0.0000000E+00;  1.8273928E-05;  1.0000000E+04;  0.0000000E+00;  9.9984980E+03;-0.27818307;0.0;0.055772517;696.49304
  4.5996341E-01;  9.9999998E-03;  2.8000966E-01;1771;-0.032145556;0.0;0.0079299482;1000.3325;  4.0000042E-01;275.44836;3;-22.142002;0.0;4.8289533;0;-0.22060066;  1.0008373E+04;  0.0000000E+00;  2.9179848E-05;  1.0000000E+04;  0.0000000E+00;  9.9982598E+03;-0.2834405;0.0;0.062839828;806.71332
  4.5996487E-01;  9.9999998E-03;  3.0001259E-01;1772;-0.030993937;0.0;0.0096398164;1000.3223;  4.0000039E-01;266.9548;3;-23.508507;0.0;5.8860602;0;-0.21725647;  1.0008519E+04;  0.0000000E+00;  1.7813172E-05;  1.0000000E+04;  0.0000000E+00;  9.9979082E+03;-0.28723782;0.0;0.069981351;972.7605
  4.7995919E-01;  9.9999998E-03;  1.6000268E-01;1796;-0.034800395;0.0;0.0022528481;1000.3676;  4.0000126E-01;304.48428;3;-20.233582;0.0;1.4975226;0;-0.23717083;  1.0008023E+04;  0.0000000E+00;  3.3435857E-08;  1.0000000E+04;  0.0000000E+00;  9.9992725E+03;-0.2646732;0.0;0.027502367;353.67783
  4.7995785E-01;  9.9999998E-03;  1.8000320E-01;1797;-0.036046565;0.0;0.0027693387;1000.3747;  4.0000129E-01;310.41003;3;-20.827299;0.0;1.9201943;0;-0.24272147;  1.0008339E+04;  0.0000000E+00;  1.9262893E-07;  1.0000000E+04;  0.0000000E+00;  9.9990986E+03;-0.27636012;0.0;0.033638649;430.10538
  4.7995651E-01;  9.9999998E-03;  2.0000386E-01;1798;-0.037236001;0.0;0.0034438311;1000.3816;  4.0000111E-01;316.13824;3;-21.364674;0.0;2.4309299;0;-0.24751088;  1.0008690E+04;  0.0000000E+00;  7.3717791E-07;  1.0000000E+04;  0.0000000E+00;  9.9988828E+03;-0.28866965;0.0;0.041158766;528.94501
  4.7995529E-01;  9.9999998E-03;  2.2000480E-01;1799;-0.038218804;0.0;0.0043496937;1000.3885;  4.0000120E-01;321.86646;3;-21.919941;0.0;3.0565512;0;-0.25188917;  1.0009061E+04;  0.0000000E+00;  3.2771204E-06;  1.0000000E+04;  0.0000000E+00;  9.9986504E+03;-0.30079633;0.0;0.04890715;634.02576
  4.7995442E-01;  9.9999998E-03;  2.4000618E-01;1800;-0.038823504;0.0;0.0055491356;1000.397;  4.0000117E-01;328.97736;3;-22.644518;0.0;3.7494709;0;-0.25635833;  1.0009425E+04;  0.0000000E+00;  1.1400564E-05;  1.0000000E+04;  0.0000000E+00;  9.9984561E+03;-0.31191617;0.0;0.055557836;721.67236
  4.7995412E-01;  9.9999998E-03;  2.6000834E-01;1801;-0.038907312;0.0;0.0071994867;1000.4064;  4.0000123E-01;336.68082;3;-23.73584;0.0;4.5827522;0;-0.26004857;  1.0009756E+04;  0.0000000E+00;  2.7160804E-05;  1.0000000E+04;  0.0000000E+00;  9.9983174E+03;-0.32143655;0.0;0.061387978;785.37665
  4.7995469E-01;  9.9999998E-03;  2.8001162E-01;1802;-0.038338978;0.0;0.0093650352;1000.4059;  4.0000114E-01;336.28577;3;-25.277197;0.0;5.6058578;0;-0.25782847;  1.0010039E+04;  0.0000000E+00;  3.9651019E-05;  1.0000000E+04;  0.0000000E+00;  9.9980205E+03;-0.32911652;0.0;0.071288042;919.52124
  4.7995624E-01;  9.9999998E-03;  3.0001542E-01;1803;-0.037071854;0.0;0.011461254;1000.3916;  4.0000117E-01;324.4343;3;-27.012421;0.0;6.7546091;0;-0.25290489;  1.0010271E+04;  0.0000000E+00;  1.6261840E-05;  1.0000000E+04;  0.0000000E+00;  9.9975039E+03;-0.33504713;0.0;0.082142249;1162.3289
  4.9995089E-01;  9.9999998E-03;  1.6000395E-01;1827;-0.040617991;0.0;0.0031867446;1000.4232;  4.0000281E-01;350.60596;3;-22.815214;0.0;1.8723289;0;-0.26431522;  1.0009252E+04;  0.0000000E+00;  6.9224990E-07;  1.0000000E+04;  0.0000000E+00;  9.9990781E+03;-0.29643959;0.0;0.03212437;448.06589
  4.9994919E-01;  9.9999998E-03;  1.8000454E-01;1828;-0.042163625;0.0;0.003718599;1000.4333;  4.0000275E-01;359.00076;3;-23.496799;0.0;2.3069868;0;-0.2720432;  1.0009624E+04;  0.0000000E+00;  1.0263323E-06;  1.0000000E+04;  0.0000000E+00;  9.9989082E+03;-0.30982226;0.0;0.037779052;525.69373
  4.9994740E-01;  9.9999998E-03;  2.0000525E-01;1829;-0.043679651;0.0;0.0043780175;1000.4433;  4.0000284E-01;367.29678;3;-24.119457;0.0;2.815788;0;-0.27907309;  1.0010051E+04;  0.0000000E+00;  2.2359909E-06;  1.0000000E+04;  0.0000000E+00;  9.9986758E+03;-0.32435137;0.0;0.045278292;630.85571
  4.9994570E-01;  9.9999998E-03;  2.2000617E-01;1830;-0.044986397;0.0;0.0052530449;1000.4542;  4.0000281E-01;376.28415;3;-24.749079;0.0;3.4555573;0;-0.28594255;  1.0010517E+04;  0.0000000E+00;  7.0510423E-06;  1.0000000E+04;  0.0000000E+00;  9.9984297E+03;-0.339158;0.0;0.053215444;743.36578
  4.9994439E-01;  9.9999998E-03;  2.4000758E-01;1831;-0.045869436;0.0;0.0064936359;1000.4683;  4.0000284E-01;387.93808;3;-25.594118;0.0;4.2248073;0;-0.29351103;  1.0010988E+04;  0.0000000E+00;  2.0636813E-05;  1.0000000E+04;  0.0000000E+00;  9.9982422E+03;-0.35325325;0.0;0.059742197;828.98291
  4.9994364E-01;  9.9999998E-03;  2.6000991E-01;1832;-0.046157073;0.0;0.0083538415;1000.4858;  4.0000281E-01;402.45615;3;-26.88755;0.0;5.2406144;0;-0.30065536;  1.0011432E+04;  0.0000000E+00;  4.4398555E-05;  1.0000000E+04;  0.0000000E+00;  9.9981504E+03;-0.36584699;0.0;0.065191641;868.99451
  4.9994391E-01;  9.9999998E-03;  2.8001398E-01;1833;-0.045660526;0.0;0.011051278;1000.4901;  4.0000287E-01;406.0116;3;-28.753075;0.0;6.5482402;0;-0.29842907;  1.0011829E+04;  0.0000000E+00;  5.8487229E-05;  1.0000000E+04;  0.0000000E+00;  9.9978350E+03;-0.37650669;0.0;0.078077629;1007.4115
  4.9994540E-01;  9.9999998E-03;  3.0001894E-01;1834;-0.044349864;0.0;0.013677165;1000.4708;  4.0000278E-01;390.11087;3;-30.93998;0.0;7.8073883;0;-0.29037547;  1.0012168E+04;  0.0000000E+00;  1.3545042E-05;  1.0000000E+04;  0.0000000E+00;  9.9971104E+03;-0.38515744;0.0;0.09478198;1347.6592
  5.1994109E-01;  9.9999998E-03;  1.6000587E-01;1858;-0.047207676;0.0;0.0046192929;1000.4811;  4.0000787E-01;398.60388;3;-25.603189;0.0;2.4237592;0;-0.28693306;  1.0010445E+04;  0.0000000E+00;  2.4953260E-06;  1.0000000E+04;  0.0000000E+00;  9.9987881E+03;-0.32578373;0.0;0.038850665;587.34406
  5.1993901E-01;  9.9999998E-03;  1.8000662E-01;1859;-0.049088281;0.0;0.0051815724;1000.4938;  4.0000775E-01;409.07266;3;-26.380789;0.0;2.8244023;0;-0.29710585;  1.0010873E+04;  0.0000000E+00;  3.0328749E-06;  1.0000000E+04;  0.0000000E+00;  9.9986152E+03;-0.34057733;0.0;0.043471485;667.66925
  5.1993674E-01;  9.9999998E-03;  2.0000742E-01;1860;-0.050975323;0.0;0.0058111502;1000.5067;  4.0000778E-01;419.73895;3;-27.09376;0.0;3.3211732;0;-0.3067013;  1.0011372E+04;  0.0000000E+00;  5.4680668E-06;  1.0000000E+04;  0.0000000E+00;  9.9983682E+03;-0.35707921;0.0;0.050377917;781.04169
  5.1993448E-01;  9.9999998E-03;  2.2000833E-01;1861;-0.052681509;0.0;0.0066002142;1000.5212;  4.0000778E-01;431.78793;3;-27.825283;0.0;3.9436853;0;-0.31653157;  1.0011929E+04;  0.0000000E+00;  1.5220292E-05;  1.0000000E+04;  0.0000000E+00;  9.9981104E+03;-0.37440634;0.0;0.057874765;901.26837
  5.1993251E-01;  9.9999998E-03;  2.4000970E-01;1862;-0.053944495;0.0;0.0077912323;1000.5419;  4.0000775E-01;448.97256;3;-28.808279;0.0;4.7320199;0;-0.32808864;  1.0012508E+04;  0.0000000E+00;  4.0669165E-05;  1.0000000E+04;  0.0000000E+00;  9.9979463E+03;-0.3914527;0.0;0.063364059;976.52911
  5.1993114E-01;  9.9999998E-03;  2.6001206E-01;1863;-0.054557942;0.0;0.0097543588;1000.5713;  4.0000775E-01;473.26804;3;-30.359943;0.0;6.0153356;0;-0.3406806;  1.0013068E+04;  0.0000000E+00;  8.0869810E-05;  1.0000000E+04;  0.0000000E+00;  9.9979688E+03;-0.40725568;0.0;0.066575065;961.93433
  5.1993072E-01;  9.9999998E-03;  2.8001690E-01;1864;-0.054287009;0.0;0.013058759;1000.5853;  4.0000775E-01;484.92197;3;-32.610249;0.0;7.6938114;0;-0.33941412;  1.0013591E+04;  0.0000000E+00;  9.7717544E-05;  1.0000000E+04;  0.0000000E+00;  9.9977217E+03;-0.42117026;0.0;0.081756137;1063.5586
  5.1993167E-01;  9.9999998E-03;  3.0002329E-01;1865;-0.053108778;0.0;0.016392775;1000.5604;  4.0000772E-01;464.28067;3;-35.400524;0.0;9.1809988;0;-0.32635713;  1.0014050E+04;  0.0000000E+00;  1.5253730E-05;  1.0000000E+04;  0.0000000E+00;  9.9967705E+03;-0.43288076;0.0;0.10652363;1505.5294
  5.3992981E-01;  9.9999998E-03;  1.6000864E-01;1889;-0.054562025;0.0;0.006720914;1000.5422;  4.0002078E-01;449.16922;3;-28.565058;0.0;3.1904883;0;-0.299889;  1.0011450E+04;  0.0000000E+00;  5.4798456E-06;  1.0000000E+04;  0.0000000E+00;  9.9983525E+03;-0.34880874;0.0;0.048919737;794.20111
  5.3992724E-01;  9.9999998E-03;  1.8000972E-01;1890;-0.056793582;0.0;0.0073706186;1000.556;  4.0002066E-01;460.62561;3;-29.458853;0.0;3.5516336;0;-0.31242827;  1.0011922E+04;  0.0000000E+00;  5.8353507E-06;  1.0000000E+04;  0.0000000E+00;  9.9981592E+03;-0.36446559;0.0;0.052037332;886.45361
  5.3992450E-01;  9.9999998E-03;  2.0001075E-01;1891;-0.059083544;0.0;0.0080004977;1000.57;  4.0002081E-01;472.27951;3;-30.267366;0.0;3.9715488;0;-0.32455492;  1.0012479E+04;  0.0000000E+00;  1.0893340E-05;  1.0000000E+04;  0.0000000E+00;  9.9978809E+03;-0.38231027;0.0;0.057755366;1017.3575
  5.3992164E-01;  9.9999998E-03;  2.2001171E-01;1892;-0.06125129;0.0;0.0086544286;1000.5873;  4.0002078E-01;486.50122;3;-31.123323;0.0;4.5393672;0;-0.33747754;  1.0013109E+04;  0.0000000E+00;  3.2424818E-05;  1.0000000E+04;  0.0000000E+00;  9.9975986E+03;-0.4015131;0.0;0.064035572;1151.1549
  5.3991896E-01;  9.9999998E-03;  2.4001297E-01;1893;-0.063013732;0.0;0.0096871592;1000.6144;  4.0002078E-01;509.01895;3;-32.278;0.0;5.3596773;0;-0.35372922;  1.0013775E+04;  0.0000000E+00;  8.5412605E-05;  1.0000000E+04;  0.0000000E+00;  9.9974756E+03;-0.42093807;0.0;0.067208864;1209.1145
  5.3991652E-01;  9.9999998E-03;  2.6001522E-01;1894;-0.064119376;0.0;0.011590974;1000.6588;  4.0002072E-01;545.75836;3;-34.108902;0.0;6.8232474;0;-0.37365291;  1.0014439E+04;  0.0000000E+00;  1.6143839E-04;  1.0000000E+04;  0.0000000E+00;  9.9976953E+03;-0.43952036;0.0;0.065867461;1102.5255
  5.3991497E-01;  9.9999998E-03;  2.8002071E-01;1895;-0.064316861;0.0;0.01549554;1000.689;  4.0002072E-01;570.84393;3;-36.864822;0.0;9.0473442;0;-0.37541088;  1.0015069E+04;  0.0000000E+00;  1.8242208E-04;  1.0000000E+04;  0.0000000E+00;  9.9976699E+03;-0.45642325;0.0;0.081012376;1095.9581
  5.3991461E-01;  9.9999998E-03;  3.0002880E-01;1896;-0.063583188;0.0;0.019699184;1000.6609;  4.0002075E-01;547.53613;3;-40.449165;0.0;10.94556;0;-0.3555896;  1.0015637E+04;  0.0000000E+00;  3.4450375E-05;  1.0000000E+04;  0.0000000E+00;  9.9965361E+03;-0.47104141;0.0;0.11545182;1614.5592
  5.5991715E-01;  9.9999998E-03;  1.6001245E-01;1920;-0.062558569;0.0;0.0096619213;1000.6281;  4.0005577E-01;520.37531;3;-31.642069;0.0;4.2772431;0;-0.29659325;  1.0012063E+04;  0.0000000E+00;  7.6329134E-06;  1.0000000E+04;  0.0000000E+00;  9.9977021E+03;-0.360488;0.0;0.063894749;1098.7872
  5.5991423E-01;  9.9999998E-03;  1.8001407E-01;1921;-0.065120302;0.0;0.010514402;1000.6401;  4.0005577E-01;530.25146;3;-32.645885;0.0;4.5341449;0;-0.31093204;  1.0012553E+04;  0.0000000E+00;  6.6220673E-06;  1.0000000E+04;  0.0000000E+00;  9.9974502E+03;-0.37615934;0.0;0.065227315;1223.6378
  5.5991095E-01;  9.9999998E-03;  2.0001554E-01;1922;-0.067817196;0.0;0.01121588;1000.6522;  4.0005577E-01;540.3252;3;-33.587132;0.0;4.8443937;0;-0.32508639;  1.0013141E+04;  0.0000000E+00;  1.7934786E-05;  1.0000000E+04;  0.0000000E+00;  9.9971035E+03;-0.39426017;0.0;0.069173791;1391.483
  5.5990744E-01;  9.9999998E-03;  2.2001675E-01;1923;-0.070481367;0.0;0.011763888;1000.6686;  4.0005592E-01;553.95428;3;-34.575302;0.0;5.3030939;0;-0.34068173;  1.0013802E+04;  0.0000000E+00;  6.7615263E-05;  1.0000000E+04;  0.0000000E+00;  9.9967734E+03;-0.4140712;0.0;0.073389463;1551.4948
  5.5990386E-01;  9.9999998E-03;  2.4001801E-01;1924;-0.072854377;0.0;0.012534816;1000.7003;  4.0005583E-01;580.12616;3;-35.961365;0.0;6.0915298;0;-0.36171088;  1.0014508E+04;  0.0000000E+00;  1.8263891E-04;  1.0000000E+04;  0.0000000E+00;  9.9966992E+03;-0.43452713;0.0;0.07281626;1588.7938
  5.5990022E-01;  9.9999998E-03;  2.6002014E-01;1925;-0.074658953;0.0;0.014203432;1000.7609;  4.0005574E-01;630.39581;3;-38.115139;0.0;7.7350354;0;-0.39045343;  1.0015221E+04;  0.0000000E+00;  3.3406608E-04;  1.0000000E+04;  0.0000000E+00;  9.9971973E+03;-0.45459086;0.0;0.064137436;1354.6512
  5.5989677E-01;  9.9999998E-03;  2.8002620E-01;1926;-0.075630695;0.0;0.018585242;1000.8143;  4.0005577E-01;674.64105;3;-41.467945;0.0;10.629442;0;-0.39768469;  1.0015914E+04;  0.0000000E+00;  3.5817397E-04;  1.0000000E+04;  0.0000000E+00;  9.9975713E+03;-0.47334406;0.0;0.07565935;1153.6099
  5.5989403E-01;  9.9999998E-03;  3.0003610E-01;1927;-0.075785354;0.0;0.023721769;1000.7874;  4.0005577E-01;652.32092;3;-46.047268;0.0;13.112857;0;-0.37041098;  1.0016550E+04;  0.0000000E+00;  9.0233458E-05;  1.0000000E+04;  0.0000000E+00;  9.9963936E+03;-0.48993981;0.0;0.11952882;1681.3903
  5.7990378E-01;  9.9999998E-03;  1.6001725E-01;1951;-0.070897728;0.0;0.013452169;1000.811;  4.0014893E-01;671.87354;3;-34.689625;0.0;5.7827005;0;-0.26877478;  1.0011997E+04;  0.0000000E+00;  3.9009915E-06;  1.0000000E+04;  0.0000000E+00;  9.9967666E+03;-0.35425964;0.0;0.085484862;1535.6584
  5.7990032E-01;  9.9999998E-03;  1.8001971E-01;1952;-0.07373745;0.0;0.014765257;1000.8162;  4.0014896E-01;676.12024;3;-35.751884;0.0;6.0017953;0;-0.28388855;  1.0012480E+04;  0.0000000E+00; -6.0416608E-07;  1.0000000E+04;  0.0000000E+00;  9.9963877E+03;-0.36880338;0.0;0.084914833;1725.7771
  5.7989657E-01;  9.9999998E-03;  2.0002191E-01;1953;-0.076776817;0.0;0.01571472;1000.8206;  4.0014896E-01;679.87317;3;-36.858429;0.0;6.0035758;0;-0.29908794;  1.0013045E+04;  0.0000000E+00;  2.5272808E-05;  1.0000000E+04;  0.0000000E+00;  9.9959131E+03;-0.3855989;0.0;0.086510964;1959.1992
  5.7989246E-01;  9.9999998E-03;  2.2002386E-01;1954;-0.079907946;0.0;0.016329337;1000.8312;  4.0014890E-01;688.56421;3;-38.032341;0.0;6.2969637;0;-0.31623578;  1.0013671E+04;  0.0000000E+00;  1.3548075E-04;  1.0000000E+04;  0.0000000E+00;  9.9954951E+03;-0.40401608;0.0;0.087780304;2164.5867
  5.7988793E-01;  9.9999998E-03;  2.4002536E-01;1955;-0.082969561;0.0;0.016740356;1000.8635;  4.0014893E-01;715.42725;3;-39.701725;0.0;6.9691539;0;-0.34127223;  1.0014333E+04;  0.0000000E+00;  3.7698407E-04;  1.0000000E+04;  0.0000000E+00;  9.9954814E+03;-0.42318976;0.0;0.081917517;2180.0283
  5.7988286E-01;  9.9999998E-03;  2.6002780E-01;1956;-0.085650891;0.0;0.018094985;1000.9382;  4.0014893E-01;777.25189;3;-42.219959;0.0;8.8429966;0;-0.37850854;  1.0015010E+04;  0.0000000E+00;  6.7436637E-04;  1.0000000E+04;  0.0000000E+00;  9.9962939E+03;-0.4423404;0.0;0.063831873;1800.1348
  5.7987702E-01;  9.9999998E-03;  2.8003460E-01;1957;-0.087709539;0.0;0.022701595;1001.0163;  4.0014887E-01;841.94055;3;-46.216763;0.0;12.462888;0;-0.39319065;  1.0015679E+04;  0.0000000E+00;  6.9326255E-04;  1.0000000E+04;  0.0000000E+00;  9.9971826E+03;-0.46069038;0.0;0.06749972;1352.1124
  5.7987070E-01;  9.9999998E-03;  3.0004621E-01;1958;-0.089216322;0.0;0.028651241;1000.9977;  4.0014887E-01;826.63257;3;-51.957695;0.0;15.692765;0;-0.35948664;  1.0016298E+04;  0.0000000E+00;  2.0333298E-04;  1.0000000E+04;  0.0000000E+00;  9.9961885E+03;-0.47731307;0.0;0.11782642;1778.1727
  5.9989035E-01;  9.9999998E-03;  1.6002294E-01;1982;-0.079122514;0.0;0.018005552;1001.283;  4.0038553E-01;1062.9636;3;-37.5466;0.0;7.5718665;0;-0.20569378;  1.0010908E+04;  0.0000000E+00; -1.2280146E-05;  1.0000000E+04;  0.0000000E+00;  9.9954727E+03;-0.32086486;0.0;0.11517107;2134.6685
  5.9988636E-01;  9.9999998E-03;  1.8002632E-01;1983;-0.082282998;0.0;0.019768665;1001.2745;  4.0038544E-01;1055.8529;3;-38.652664;0.0;7.6764808;0;-0.22029555;  1.0011330E+04;  0.0000000E+00; -2.2394697E-05;  1.0000000E+04;  0.0000000E+00;  9.9948848E+03;-0.3328464;0.0;0.11255085;2430.77
  5.9988201E-01;  9.9999998E-03;  2.0002963E-01;1984;-0.085573964;0.0;0.021294845;1001.2648;  4.0038550E-01;1047.8533;3;-39.780003;0.0;7.7369175;0;-0.23538399;  1.0011802E+04;  0.0000000E+00;  3.2766708E-05;  1.0000000E+04;  0.0000000E+00;  9.9942197E+03;-0.34629798;0.0;0.11091399;2762.9922
  5.9987730E-01;  9.9999998E-03;  2.2003271E-01;1985;-0.088989608;0.0;0.022377985;1001.2633;  4.0038556E-01;1046.5693;3;-41.216831;0.0;7.6821384;0;-0.25266907;  1.0012306E+04;  0.0000000E+00;  2.5365892E-04;  1.0000000E+04;  0.0000000E+00;  9.9936875E+03;-0.36067066;0.0;0.10800158;3029.7344
  5.9987199E-01;  9.9999998E-03;  2.4003562E-01;1986;-0.092644416;0.0;0.022815624;1001.29;  4.0038547E-01;1068.6918;3;-43.215954;0.0;8.1725435;0;-0.27928185;  1.0012821E+04;  0.0000000E+00;  7.1616430E-04;  1.0000000E+04;  0.0000000E+00;  9.9937051E+03;-0.37548965;0.0;0.09620779;3036.2285
  5.9986526E-01;  9.9999998E-03;  2.6003942E-01;1987;-0.096277259;0.0;0.023958696;1001.3705;  4.0038541E-01;1135.3555;3;-46.142471;0.0;10.1626;0;-0.32161871;  1.0013345E+04;  0.0000000E+00;  1.2553488E-03;  1.0000000E+04;  0.0000000E+00;  9.9947861E+03;-0.39050347;0.0;0.068884768;2535.3906
  5.9985697E-01;  9.9999998E-03;  2.8004789E-01;1988;-0.099602319;0.0;0.028497545;1001.4613;  4.0038532E-01;1210.6112;3;-50.755432;0.0;14.547318;0;-0.34292957;  1.0013868E+04;  0.0000000E+00;  1.2487588E-03;  1.0000000E+04;  0.0000000E+00;  9.9960713E+03;-0.40530732;0.0;0.062377758;1899.7328
  5.9984672E-01;  9.9999998E-03;  3.0006072E-01;1989;-0.10272285;0.0;0.034799881;1001.4579;  4.0038523E-01;1207.8459;3;-57.643242;0.0;18.727722;0;-0.30655551;  1.0014362E+04;  0.0000000E+00;  3.8371459E-04;  1.0000000E+04;  0.0000000E+00;  9.9955117E+03;-0.41907725;0.0;0.11252175;2108.0532
  6.1987776E-01;  9.9999998E-03;  1.6002972E-01;2013;-0.086746082;0.0;0.023382269;1002.427;  4.0092716E-01;2010.6611;3;-40.044083;0.0;9.5631189;0;-0.09495534;  1.0008408E+04;  0.0000000E+00; -4.3227796E-05;  1.0000000E+04;  0.0000000E+00;  9.9937930E+03;-0.24862011;0.0;0.15366477;2906.9604
  6.1987317E-01;  9.9999998E-03;  1.8003416E-01;2014;-0.090212673;0.0;0.025635825;1002.398;  4.0092707E-01;1986.6624;3;-41.166027;0.0;9.5400581;0;-0.10770099;  1.0008705E+04;  0.0000000E+00; -5.8478163E-05;  1.0000000E+04;  0.0000000E+00;  9.9929170E+03;-0.25631905;0.0;0.14861806;3350.1655
  6.1986810E-01;  9.9999998E-03;  2.0003869E-01;2015;-0.093845479;0.0;0.027662832;1002.3669;  4.0092716E-01;1960.8859;3;-42.304989;0.0;9.5233335;0;-0.12170447;  1.0009006E+04;  0.0000000E+00;  4.5354602E-05;  1.0000000E+04;  0.0000000E+00;  9.9920010E+03;-0.26410782;0.0;0.14240335;3813.0347
  6.1986256E-01;  9.9999998E-03;  2.2004361E-01;2016;-0.097535208;0.0;0.029477129;1002.3472;  4.0092710E-01;1944.4917;3;-43.714695;0.0;9.6415367;0;-0.13862325;  1.0009291E+04;  0.0000000E+00;  4.2985231E-04;  1.0000000E+04;  0.0000000E+00;  9.9913262E+03;-0.27162027;0.0;0.13299702;4158.5781
  6.1985618E-01;  9.9999998E-03;  2.4004926E-01;2017;-0.10146725;0.0;0.030797772;1002.361;  4.0092704E-01;1956.0466;3;-46.024811;0.0;10.053493;0;-0.16425626;  1.0009553E+04;  0.0000000E+00;  1.1946831E-03;  1.0000000E+04;  0.0000000E+00;  9.9913408E+03;-0.27894908;0.0;0.11469282;4172.5269
  6.1984867E-01;  9.9999998E-03;  2.6005751E-01;2018;-0.1058148;0.0;0.03249976;1002.4225;  4.0092701E-01;2007.007;3;-49.656982;0.0;11.70444;0;-0.20306695;  1.0009813E+04;  0.0000000E+00;  2.0417101E-03;  1.0000000E+04;  0.0000000E+00;  9.9923057E+03;-0.28652123;0.0;0.083454281;3731.7139
  6.1983860E-01;  9.9999998E-03;  2.8006896E-01;2019;-0.11026894;0.0;0.036700387;1002.4954;  4.0092680E-01;2067.3496;3;-54.745499;0.0;16.797316;0;-0.22572696;  1.0010076E+04;  0.0000000E+00;  1.9687549E-03;  1.0000000E+04;  0.0000000E+00;  9.9934912E+03;-0.29444554;0.0;0.068718575;3153.5508
  6.1982518E-01;  9.9999998E-03;  3.0008209E-01;2020;-0.11475334;0.0;0.042527474;1002.5103;  4.0092668E-01;2079.6946;3;-62.492931;0.0;22.315481;0;-0.19258112;  1.0010333E+04;  0.0000000E+00;  5.9790339E-04;  1.0000000E+04;  0.0000000E+00;  9.9935371E+03;-0.3020995;0.0;0.10951838;3066.6721
  6.3986677E-01;  9.9999998E-03;  1.6003747E-01;2044;-0.093347788;0.0;0.029500093;1004.5964;  4.0191978E-01;3807.8699;3;-42.161057;0.0;11.756193;0;0.073095143;  1.0004229E+04;  0.0000000E+00; -7.9615915E-05;  1.0000000E+04;  0.0000000E+00;  9.9917744E+03;-0.12718354;0.0;0.20027868;3830.8638
  6.3986158E-01;  9.9999998E-03;  1.8004344E-01;2045;-0.097083852;0.0;0.032484189;1004.5402;  4.0191972E-01;3761.354;3;-43.272842;0.0;11.588425;0;0.063182637;  1.0004341E+04;  0.0000000E+00; -9.4039751E-05;  1.0000000E+04;  0.0000000E+00;  9.9905479E+03;-0.12889169;0.0;0.19207433;4452.4565
  6.3985568E-01;  9.9999998E-03;  2.0004977E-01;2046;-0.10110261;0.0;0.035107344;1004.482;  4.0191960E-01;3713.1594;3;-44.445492;0.0;11.299751;0;0.050700769;  1.0004403E+04;  0.0000000E+00;  7.2162489E-05;  1.0000000E+04;  0.0000000E+00;  9.9893350E+03;-0.12897775;0.0;0.17967851;5070.2319
  6.3984936E-01;  9.9999998E-03;  2.2005813E-01;2047;-0.10520138;0.0;0.037852433;1004.4376;  4.0191975E-01;3676.3223;3;-45.916592;0.0;11.145557;0;0.034203902;  1.0004392E+04;  0.0000000E+00;  6.3422346E-04;  1.0000000E+04;  0.0000000E+00;  9.9884648E+03;-0.12738384;0.0;0.16158774;5523.6421
  6.3984275E-01;  9.9999998E-03;  2.4007057E-01;2048;-0.10933762;0.0;0.041008092;1004.4198;  4.0191960E-01;3661.6069;3;-48.381992;0.0;11.375628;0;0.01241143;  1.0004330E+04;  0.0000000E+00;  1.6899660E-03;  1.0000000E+04;  0.0000000E+00;  9.9881729E+03;-0.12484118;0.0;0.13725261;5696.1982
  6.3983512E-01;  9.9999998E-03;  2.6008698E-01;2049;-0.11382254;0.0;0.044365339;1004.415;  4.0191954E-01;3657.6567;3;-52.383305;0.0;13.210675;0;-0.011173032;  1.0004245E+04;  0.0000000E+00;  2.7848347E-03;  1.0000000E+04;  0.0000000E+00;  9.9881582E+03;-0.12245372;0.0;0.11128069;5731.4551
  6.3982415E-01;  9.9999998E-03;  2.8010076E-01;2050;-0.11891253;0.0;0.047035299;1004.4345;  4.0191942E-01;3673.7544;3;-57.93425;0.0;18.933756;0;-0.036503732;  1.0004168E+04;  0.0000000E+00;  2.5692554E-03;  1.0000000E+04;  0.0000000E+00;  9.9886230E+03;-0.12081899;0.0;0.084315255;5522.5254
  6.3980901E-01;  9.9999998E-03;  3.0011237E-01;2051;-0.12409277;0.0;0.051862665;1004.4699;  4.0191907E-01;3703.0859;3;-66.082726;0.0;26.406528;0;-0.007813558;  1.0004100E+04;  0.0000000E+00;  7.2558405E-04;  1.0000000E+04;  0.0000000E+00;  9.9894082E+03;-0.11955222;0.0;0.11173867;5076.3501
  6.5985852E-01;  9.9999998E-03;  1.6004689E-01;2075;-0.098151177;0.0;0.03693999;1007.3102;  4.0316758E-01;6056.0625;3;-43.57711;0.0;14.526251;0;0.29828885;  9.9984258E+03;  0.0000000E+00; -1.0078179E-04;  1.0000000E+04;  0.0000000E+00;  9.9895459E+03;0.045828741;0.0;0.25246012;4845.396
  6.5985310E-01;  9.9999998E-03;  1.8005499E-01;2076;-0.10193104;0.0;0.04097921;1007.2239;  4.0316752E-01;5984.5615;3;-44.608292;0.0;14.009432;0;0.29130927;  9.9983135E+03;  0.0000000E+00; -1.0536185E-04;  1.0000000E+04;  0.0000000E+00;  9.9879512E+03;0.051253621;0.0;0.24005565;5656.7964
  6.5984702E-01;  9.9999998E-03;  2.0006499E-01;2077;-0.10599188;0.0;0.045150451;1007.1358;  4.0316769E-01;5911.5791;3;-45.861439;0.0;13.395219;0;0.28018019;  9.9980977E+03;  0.0000000E+00;  1.1246874E-04;  1.0000000E+04;  0.0000000E+00;  9.9864141E+03;0.059868049;0.0;0.22031213;6442.9092
  6.5984064E-01;  9.9999998E-03;  2.2007991E-01;2078;-0.11000203;0.0;0.050349213;1007.0601;  4.0316769E-01;5848.8677;3;-47.39249;0.0;12.798429;0;0.26633397;  9.9977754E+03;  0.0000000E+00;  7.8424031E-04;  1.0000000E+04;  0.0000000E+00;  9.9852305E+03;0.071400635;0.0;0.19493333;7061.9956
  6.5983456E-01;  9.9999998E-03;  2.4010240E-01;2079;-0.1138792;0.0;0.056595944;1006.9879;  4.0316772E-01;5789.02;3;-50.000572;0.0;12.682444;0;0.25832921;  9.9973721E+03;  0.0000000E+00;  1.9692774E-03;  1.0000000E+04;  0.0000000E+00;  9.9841914E+03;0.084637158;0.0;0.17369205;7598.4331
  6.5982795E-01;  9.9999998E-03;  2.6012793E-01;2080;-0.11857443;0.0;0.059788223;1006.8759;  4.0316781E-01;5696.2856;3;-54.65015;0.0;13.196079;0;0.25490016;  9.9969316E+03;  0.0000000E+00;  3.0998262E-03;  1.0000000E+04;  0.0000000E+00;  9.9824033E+03;0.098017715;0.0;0.15688244;8504.1377
  6.5981621E-01;  9.9999998E-03;  2.8014052E-01;2081;-0.12456267;0.0;0.058030263;1006.8367;  4.0316787E-01;5663.8931;3;-60.423401;0.0;19.574266;0;0.20707512;  9.9964893E+03;  0.0000000E+00;  2.6457987E-03;  1.0000000E+04;  0.0000000E+00;  9.9820605E+03;0.1105266;0.0;0.096548527;8734.6406
  6.5980077E-01;  9.9999998E-03;  3.0014798E-01;2082;-0.12971823;0.0;0.062039461;1006.9119;  4.0316755E-01;5726.1108;3;-68.156494;0.0;31.172077;0;0.23336744;  9.9960713E+03;  0.0000000E+00;  5.8887224E-04;  1.0000000E+04;  0.0000000E+00;  9.9839873E+03;0.12208791;0.0;0.11127954;7725.8369
  6.7985564E-01;  9.9999998E-03;  1.6005841E-01;2106;-0.10031669;0.0;0.046610482;1009.3391;  4.0416327E-01;7736.8149;3;-44.032749;0.0;18.450397;0;0.56392092;  9.9915596E+03;  0.0000000E+00; -9.1892514E-05;  1.0000000E+04;  0.0000000E+00;  9.9873076E+03;0.25807622;0.0;0.30584469;5858.6831
  6.7985016E-01;  9.9999998E-03;  1.8006915E-01;2107;-0.10398108;0.0;0.052180734;1009.2242;  4.0416336E-01;7641.6133;3;-44.91843;0.0;17.972404;0;0.55888033;  9.9912168E+03;  0.0000000E+00; -8.2532802E-05;  1.0000000E+04;  0.0000000E+00;  9.9853691E+03;0.27080667;0.0;0.28807366;6845.5142
  6.7984408E-01;  9.9999998E-03;  2.0008326E-01;2108;-0.1078127;0.0;0.058443777;1009.1085;  4.0416363E-01;7545.8188;3;-45.864689;0.0;17.155884;0;0.54786259;  9.9907441E+03;  0.0000000E+00;  1.4313130E-04;  1.0000000E+04;  0.0000000E+00;  9.9835459E+03;0.28758904;0.0;0.26027355;7787.4009
  6.7983830E-01;  9.9999998E-03;  2.2010535E-01;2109;-0.11126635;0.0;0.066731922;1009.0024;  4.0416375E-01;7457.8267;3;-47.169655;0.0;16.149481;0;0.53729123;  9.9901523E+03;  0.0000000E+00;  7.7970244E-04;  1.0000000E+04;  0.0000000E+00;  9.9820264E+03;0.30790436;0.0;0.22938688;8578.2715
  6.7983389E-01;  9.9999998E-03;  2.4013716E-01;2110;-0.11424201;0.0;0.074628867;1008.8762;  4.0416402E-01;7353.3418;3;-50.333221;0.0;14.123155;0;0.5429908;  9.9894678E+03;  0.0000000E+00;  1.8279462E-03;  1.0000000E+04;  0.0000000E+00;  9.9802002E+03;0.33044553;0.0;0.21254525;9501.5078
  6.7982912E-01;  9.9999998E-03;  2.6016790E-01;2111;-0.11892801;0.0;0.074770272;1008.6798;  4.0416437E-01;7190.689;3;-56.325127;0.0;12.566059;0;0.54613882;  9.9887334E+03;  0.0000000E+00;  2.7185779E-03;  1.0000000E+04;  0.0000000E+00;  9.9770195E+03;0.35362849;0.0;0.19251032;11103.353
  6.7981786E-01;  9.9999998E-03;  2.8017727E-01;2112;-0.12577513;0.0;0.068479285;1008.6153;  4.0416479E-01;7137.1631;3;-62.115234;0.0;20.307098;0;0.47176191;  9.9879844E+03;  0.0000000E+00;  2.0557498E-03;  1.0000000E+04;  0.0000000E+00;  9.9764697E+03;0.37610811;0.0;0.095653802;11480.848
  6.7980647E-01;  9.9999998E-03;  3.0018038E-01;2113;-0.12933934;0.0;0.071526527;1008.7437;  4.0416446E-01;7243.623;3;-69.400253;0.0;34.956665;0;0.49726558;  9.9872813E+03;  0.0000000E+00;  3.1032233E-04;  1.0000000E+04;  0.0000000E+00;  9.9797256E+03;0.39679077;0.0;0.10047481;9812.4082
  6.9986326E-01;  9.9999998E-03;  1.6007048E-01;2137;-0.097688131;0.0;0.057976305;1010.2535;  4.0470791E-01;8494.1084;3;-43.840717;0.0;24.767237;0;0.83424091;  9.9847451E+03;  0.0000000E+00; -5.8418434E-05;  1.0000000E+04;  0.0000000E+00;  9.9852783E+03;0.47915816;0.0;0.35508278;6771.98
  6.9985807E-01;  9.9999998E-03;  1.8008384E-01;2138;-0.10118529;0.0;0.065395363;1010.1151;  4.0470830E-01;8379.5527;3;-44.5508;0.0;24.657682;0;0.82943833;  9.9841924E+03;  0.0000000E+00; -4.1965759E-05;  1.0000000E+04;  0.0000000E+00;  9.9830820E+03;0.49844238;0.0;0.33099592;7897.1909
  6.9985259E-01;  9.9999998E-03;  2.0010164E-01;2139;-0.10466969;0.0;0.073775277;1009.9784;  4.0470859E-01;8266.2803;3;-45.145603;0.0;23.969858;0;0.81651318;  9.9835234E+03;  0.0000000E+00;  1.3662309E-04;  1.0000000E+04;  0.0000000E+00;  9.9810381E+03;0.52154613;0.0;0.29496706;8958.7188
  6.9984800E-01;  9.9999998E-03;  2.2012888E-01;2140;-0.10704337;0.0;0.083854251;1009.8511;  4.0470892E-01;8160.8105;3;-45.581184;0.0;21.356674;0;0.80639625;  9.9827490E+03;  0.0000000E+00;  6.0496829E-04;  1.0000000E+04;  0.0000000E+00;  9.9792822E+03;0.54767734;0.0;0.25871891;9872.8125
  6.9984591E-01;  9.9999998E-03;  2.4016580E-01;2141;-0.10796715;0.0;0.090956695;1009.6947;  4.0470934E-01;8031.2437;3;-48.175198;0.0;15.980849;0;0.81758273;  9.9819063E+03;  0.0000000E+00;  1.3326354E-03;  1.0000000E+04;  0.0000000E+00;  9.9770098E+03;0.57574791;0.0;0.2418348;11018.108
  6.9984353E-01;  9.9999998E-03;  2.6019827E-01;2142;-0.11147841;0.0;0.087823875;1009.4626;  4.0470979E-01;7838.9683;3;-55.023273;0.0;13.335814;0;0.81846619;  9.9810176E+03;  0.0000000E+00;  1.8895406E-03;  1.0000000E+04;  0.0000000E+00;  9.9732803E+03;0.60459721;0.0;0.21386899;12903.828
  6.9983727E-01;  9.9999998E-03;  2.8020355E-01;2143;-0.11558561;0.0;0.077311821;1009.4254;  4.0471026E-01;7808.1567;3;-60.022945;0.0;22.223787;0;0.71244466;  9.9801191E+03;  0.0000000E+00;  1.3902045E-03;  1.0000000E+04;  0.0000000E+00;  9.9734121E+03;0.63268304;0.0;0.079761632;12984.331
  6.9983852E-01;  9.9999998E-03;  3.0020446E-01;2144;-0.11144996;0.0;0.080234148;1009.6028;  4.0471008E-01;7955.104;3;-62.236164;0.0;38.757725;0;0.74497563;  9.9792959E+03;  0.0000000E+00;  4.7412494E-04;  1.0000000E+04;  0.0000000E+00;  9.9777412E+03;0.65765357;0.0;0.087322071;10773.906
  7.1989506E-01;  9.9999998E-03;  1.6007984E-01;2168;-0.079183951;0.0;0.067257874;1010.4939;  4.0494630E-01;8693.0596;3;-39.641396;0.0;31.090334;0;1.0607744;  9.9793623E+03;  0.0000000E+00; -2.2344735E-05;  1.0000000E+04;  0.0000000E+00;  9.9836406E+03;0.66541082;0.0;0.39536363;7509.46
  7.1989030E-01;  9.9999998E-03;  1.8009497E-01;2169;-0.08278925;0.0;0.076091066;1010.3395;  4.0494671E-01;8565.1758;3;-40.733109;0.0;31.558758;0;1.0544012;  9.9786543E+03;  0.0000000E+00; -9.0321246E-06;  1.0000000E+04;  0.0000000E+00;  9.9812783E+03;0.68985599;0.0;0.36454511;8724.9688
  7.1988535E-01;  9.9999998E-03;  2.0011477E-01;2170;-0.086261809;0.0;0.085844822;1010.1907;  4.0494710E-01;8441.9326;3;-41.60463;0.0;31.400478;0;1.0368102;  9.9778574E+03;  0.0000000E+00;  9.6242038E-05;  1.0000000E+04;  0.0000000E+00;  9.9791191E+03;0.71682727;0.0;0.31998283;9853.6475
  7.1988112E-01;  9.9999998E-03;  2.2014444E-01;2171;-0.088669389;0.0;0.096911438;1010.0569;  4.0494743E-01;8331.0342;3;-41.813084;0.0;27.932261;0;1.021899;  9.9770068E+03;  0.0000000E+00;  3.6842347E-04;  1.0000000E+04;  0.0000000E+00;  9.9773066E+03;0.74508888;0.0;0.27681014;10804.836
  7.1987903E-01;  9.9999998E-03;  2.4018325E-01;2172;-0.088715471;0.0;0.10256286;1009.8981;  4.0494773E-01;8199.5947;3;-41.649841;0.0;18.896061;0;1.0280613;  9.9761387E+03;  0.0000000E+00;  7.9353992E-04;  1.0000000E+04;  0.0000000E+00;  9.9750225E+03;0.77364677;0.0;0.2544145;11962.204
  7.1987933E-01;  9.9999998E-03;  2.6021484E-01;2173;-0.087403633;0.0;0.095754273;1009.6844;  4.0494838E-01;8022.5317;3;-42.97858;0.0;14.552207;0;1.0083892;  9.9752627E+03;  0.0000000E+00;  1.1735258E-03;  1.0000000E+04;  0.0000000E+00;  9.9716455E+03;0.80180985;0.0;0.20657936;13698.503
  7.1988147E-01;  9.9999998E-03;  2.8021812E-01;2174;-0.084066041;0.0;0.083667368;1009.7049;  4.0494889E-01;8039.5171;3;-43.501717;0.0;25.122002;0;0.87718272;  9.9744170E+03;  0.0000000E+00;  1.1459442E-03;  1.0000000E+04;  0.0000000E+00;  9.9728633E+03;0.82830453;0.0;0.048878171;13266.903
  7.1988636E-01;  9.9999998E-03;  3.0021986E-01;2175;-0.077981263;0.0;0.087343387;1009.9083;  4.0494856E-01;8207.9883;3;-42.688839;0.0;43.176392;0;0.92158437;  9.9736611E+03;  0.0000000E+00;  5.4413348E-04;  1.0000000E+04;  0.0000000E+00;  9.9776416E+03;0.85093093;0.0;0.070653461;10810.802
  7.3993403E-01;  9.9999998E-03;  1.6008523E-01;2199;-0.05057035;0.0;0.071687736;1010.5193;  4.0504017E-01;8713.7725;3;-25.950207;0.0;32.949371;0;1.2033827;  9.9764033E+03;  0.0000000E+00; -5.6909397E-07;  1.0000000E+04;  0.0000000E+00;  9.9824678E+03;0.77938008;0.0;0.42400259;8037.2568
  7.3993075E-01;  9.9999998E-03;  1.8010101E-01;2200;-0.053015072;0.0;0.080728382;1010.3565;  4.0504050E-01;8578.9805;3;-26.648642;0.0;33.175781;0;1.1938596;  9.9756055E+03;  0.0000000E+00;  5.6965464E-06;  1.0000000E+04;  0.0000000E+00;  9.9800283E+03;0.80695492;0.0;0.38690466;9298.8047
  7.3992741E-01;  9.9999998E-03;  2.0012121E-01;2201;-0.055276368;0.0;0.090348288;1010.2043;  4.0504095E-01;8452.8779;3;-27.105906;0.0;32.538311;0;1.169052;  9.9747617E+03;  0.0000000E+00;  4.9438910E-05;  1.0000000E+04;  0.0000000E+00;  9.9778477E+03;0.83519483;0.0;0.33385718;10450.267
  7.3992467E-01;  9.9999998E-03;  2.2015099E-01;2202;-0.056739304;0.0;0.1009295;1010.0753;  4.0504131E-01;8346.0322;3;-27.008205;0.0;28.644011;0;1.1421525;  9.9739209E+03;  0.0000000E+00;  1.6930560E-04;  1.0000000E+04;  0.0000000E+00;  9.9761270E+03;0.86236656;0.0;0.27978599;11370.343
  7.3992342E-01;  9.9999998E-03;  2.4018946E-01;2203;-0.05645185;0.0;0.10542836;1009.9376;  4.0504181E-01;8231.9775;3;-26.30924;0.0;19.061464;0;1.12807;  9.9731270E+03;  0.0000000E+00;  3.7732339E-04;  1.0000000E+04;  0.0000000E+00;  9.9741807E+03;0.88734704;0.0;0.24072297;12382.4
  7.3992407E-01;  9.9999998E-03;  2.6022100E-01;2204;-0.054843303;0.0;0.098179191;1009.7654;  4.0504241E-01;8089.2861;3;-26.587185;0.0;15.16518;0;1.082134;  9.9723877E+03;  0.0000000E+00;  6.0235726E-04;  1.0000000E+04;  0.0000000E+00;  9.9714912E+03;0.90975791;0.0;0.17237608;13801.849
  7.3992616E-01;  9.9999998E-03;  2.8022552E-01;2205;-0.052146502;0.0;0.087096937;1009.8281;  4.0504265E-01;8141.228;3;-26.593819;0.0;27.090647;0;0.93820894;  9.9717266E+03;  0.0000000E+00;  6.1586034E-04;  1.0000000E+04;  0.0000000E+00;  9.9733750E+03;0.92926353;0.0;0.0089453971;13046.488
  7.3992985E-01;  9.9999998E-03;  3.0022919E-01;2206;-0.047751952;0.0;0.0922359;1010.0448;  4.0504235E-01;8320.7529;3;-25.439869;0.0;46.507454;0;0.99675071;  9.9711523E+03;  0.0000000E+00;  1.4336704E-04;  1.0000000E+04;  0.0000000E+00;  9.9782324E+03;0.94535369;0.0;0.051397022;10520.296
  7.5996464E-01;  9.9999998E-03;  1.6008866E-01;2230;-0.027872106;0.0;0.074357599;1010.5459;  4.0507555E-01;8735.3564;3;-14.916313;0.0;33.854198;0;1.2540662;  9.9759072E+03;  0.0000000E+00;  5.4809157E-06;  1.0000000E+04;  0.0000000E+00;  9.9817490E+03;0.8129366;0.0;0.44112968;8362.71
  7.5996280E-01;  9.9999998E-03;  1.8010464E-01;2231;-0.029196259;0.0;0.0832977;1010.381;  4.0507591E-01;8598.7939;3;-15.176534;0.0;33.727261;0;1.2405889;  9.9750859E+03;  0.0000000E+00;  6.8817326E-06;  1.0000000E+04;  0.0000000E+00;  9.9792900E+03;0.84130305;0.0;0.39928579;9639.5791
  7.5996095E-01;  9.9999998E-03;  2.0012476E-01;2232;-0.0303085;0.0;0.092511609;1010.2302;  4.0507650E-01;8473.8838;3;-15.227614;0.0;32.56881;0;1.208846;  9.9742578E+03;  0.0000000E+00;  1.7077469E-05;  1.0000000E+04;  0.0000000E+00;  9.9771191E+03;0.86850822;0.0;0.34033778;10794.079
  7.5995958E-01;  9.9999998E-03;  2.2015415E-01;2233;-0.030848442;0.0;0.10238148;1010.1093;  4.0507689E-01;8373.7578;3;-14.877143;0.0;28.122408;0;1.1709738;  9.9734883E+03;  0.0000000E+00;  4.8669110E-05;  1.0000000E+04;  0.0000000E+00;  9.9754854E+03;0.89249378;0.0;0.27847993;11680.967
  7.5995916E-01;  9.9999998E-03;  2.4019186E-01;2234;-0.030364901;0.0;0.10592477;1009.9919;  4.0507725E-01;8276.4951;3;-14.175713;0.0;18.502445;0;1.1387086;  9.9728135E+03;  0.0000000E+00;  1.0889934E-04;  1.0000000E+04;  0.0000000E+00;  9.9738252E+03;0.9120785;0.0;0.22663009;12567.852
  7.5995988E-01;  9.9999998E-03;  2.6022345E-01;2235;-0.029106112;0.0;0.09906961;1009.8546;  4.0507779E-01;8162.7422;3;-14.077902;0.0;15.492718;0;1.073168;  9.9722568E+03;  0.0000000E+00;  1.7275341E-04;  1.0000000E+04;  0.0000000E+00;  9.9716533E+03;0.92723399;0.0;0.14593402;13745.623
  7.5996131E-01;  9.9999998E-03;  2.8022942E-01;2236;-0.027452791;0.0;0.08932773;1009.9464;  4.0507799E-01;8238.7754;3;-14.07888;0.0;28.477673;0;0.92386228;  9.9717988E+03;  0.0000000E+00;  1.3086095E-04;  1.0000000E+04;  0.0000000E+00;  9.9739023E+03;0.93861604;0.0;-0.014753736;12803.742
  7.5996363E-01;  9.9999998E-03;  3.0023494E-01;2237;-0.024672724;0.0;0.095712997;1010.1687;  4.0507764E-01;8422.9316;3;-12.945219;0.0;48.725456;0;0.99183971;  9.9714277E+03;  0.0000000E+00; -1.7394485E-04;  1.0000000E+04;  0.0000000E+00;  9.9786777E+03;0.94727606;0.0;0.044563655;10297.517
  7.7998751E-01;  9.9999998E-03;  1.6009039E-01;2261;-0.010738716;0.0;0.075602874;1010.6224;  4.0508854E-01;8798.1582;3;-6.4831939;0.0;34.12347;0;1.2352108;  9.9771221E+03;  0.0000000E+00;  3.5444957E-06;  1.0000000E+04;  0.0000000E+00;  9.9814092E+03;0.78647679;0.0;0.44873396;8516.6709
  7.7998680E-01;  9.9999998E-03;  1.8010634E-01;2262;-0.011166477;0.0;0.084352627;1010.4593;  4.0508893E-01;8663.0859;3;-6.4540319;0.0;33.716946;0;1.2179571;  9.9763271E+03;  0.0000000E+00;  3.3092585E-06;  1.0000000E+04;  0.0000000E+00;  9.9789648E+03;0.81385773;0.0;0.40409943;9791.0107
  7.7998620E-01;  9.9999998E-03;  2.0012625E-01;2263;-0.011418464;0.0;0.093192168;1010.3121;  4.0508941E-01;8541.1465;3;-6.2887707;0.0;32.204025;0;1.180859;  9.9755566E+03;  0.0000000E+00;  2.9248106E-06;  1.0000000E+04;  0.0000000E+00;  9.9768076E+03;0.83870178;0.0;0.34215719;10940.806
  7.7998590E-01;  9.9999998E-03;  2.2015522E-01;2264;-0.011343777;0.0;0.10266197;1010.1984;  4.0508980E-01;8446.9512;3;-5.8982143;0.0;27.683064;0;1.1354415;  9.9748750E+03;  0.0000000E+00;  3.3870026E-06;  1.0000000E+04;  0.0000000E+00;  9.9752227E+03;0.85887456;0.0;0.27656704;11807.19
  7.7998608E-01;  9.9999998E-03;  2.4019247E-01;2265;-0.01080074;0.0;0.10585921;1010.095;  4.0509021E-01;8361.3457;3;-5.3310814;0.0;18.208033;0;1.092043;  9.9743291E+03;  0.0000000E+00;  4.2892507E-06;  1.0000000E+04;  0.0000000E+00;  9.9737139E+03;0.87329125;0.0;0.2187518;12625.742
  7.7998662E-01;  9.9999998E-03;  2.6022431E-01;2266;-0.010026413;0.0;0.099550515;1009.9786;  4.0509069E-01;8264.9785;3;-5.1620755;0.0;15.944021;0;1.0158758;  9.9739229E+03;  0.0000000E+00; -3.3888680E-06;  1.0000000E+04;  0.0000000E+00;  9.9718008E+03;0.88222975;0.0;0.13364607;13680.073
  7.7998739E-01;  9.9999998E-03;  2.8023148E-01;2267;-0.0093069682;0.0;0.090903722;1010.0837;  4.0509096E-01;8351.9658;3;-5.0551682;0.0;29.742651;0;0.86564165;  9.9736406E+03;  0.0000000E+00; -4.9762071E-05;  1.0000000E+04;  0.0000000E+00;  9.9741455E+03;0.88696516;0.0;-0.021323526;12683.871
  7.7998853E-01;  9.9999998E-03;  3.0023819E-01;2268;-0.0080382153;0.0;0.09796828;1010.3085;  4.0509045E-01;8538.1846;3;-4.4216919;0.0;50.263126;0;0.93685973;  9.9734395E+03;  0.0000000E+00; -1.7477447E-04;  1.0000000E+04;  0.0000000E+00;  9.9787998E+03;0.88936949;0.0;0.047490258;10228.135
  8.0000579E-01;  9.9999998E-03;  1.6009068E-01;2292;0.0031829467;0.0;0.075702488;1010.7287;  4.0509212E-01;8885.4248;3;0.52958435;0.0;33.948193;0;1.1791492;  9.9790908E+03;  0.0000000E+00;  4.0416808E-07;  1.0000000E+04;  0.0000000E+00;  9.9813652E+03;0.72989869;0.0;0.4492504;8533.7422
  8.0000609E-01;  9.9999998E-03;  1.8010651E-01;2293;0.003482833;0.0;0.084270112;1010.5694;  4.0509254E-01;8753.5244;3;0.75640851;0.0;33.385677;0;1.159193;  9.9783477E+03;  0.0000000E+00;  1.7467607E-07;  1.0000000E+04;  0.0000000E+00;  9.9789404E+03;0.75547707;0.0;0.40371603;9796.3359
  8.0000651E-01;  9.9999998E-03;  2.0012617E-01;2294;0.003886784;0.0;0.092873231;1010.4263;  4.0509298E-01;8634.9521;3;1.0319748;0.0;31.724361;0;1.1190659;  9.9776436E+03;  0.0000000E+00; -7.3604369E-08;  1.0000000E+04;  0.0000000E+00;  9.9767979E+03;0.77775997;0.0;0.34130591;10939.087
  8.0000699E-01;  9.9999998E-03;  2.2015491E-01;2295;0.0043719066;0.0;0.10231517;1010.3173;  4.0509346E-01;8544.7139;3;1.3720886;0.0;27.514944;0;1.070141;  9.9770469E+03;  0.0000000E+00; -6.2225774E-07;  1.0000000E+04;  0.0000000E+00;  9.9752246E+03;0.79470021;0.0;0.27544078;11799.191
  8.0000752E-01;  9.9999998E-03;  2.4019215E-01;2296;0.0048523722;0.0;0.10573744;1010.2202;  4.0509379E-01;8464.251;3;1.7145954;0.0;18.355549;0;1.0229779;  9.9765977E+03;  0.0000000E+00; -3.5866283E-06;  1.0000000E+04;  0.0000000E+00;  9.9737422E+03;0.80539697;0.0;0.21758097;12604.351
  8.0000788E-01;  9.9999998E-03;  2.6022425E-01;2297;0.0050971238;0.0;0.099851839;1010.1107;  4.0509433E-01;8373.6182;3;1.8682075;0.0;16.512424;0;0.94405675;  9.9762979E+03;  0.0000000E+00; -1.3228718E-05;  1.0000000E+04;  0.0000000E+00;  9.9718594E+03;0.81034309;0.0;0.13371366;13640.6
  8.0000806E-01;  9.9999998E-03;  2.8023219E-01;2298;0.0050704367;0.0;0.091705635;1010.2164;  4.0509453E-01;8461.0918;3;2.0198567;0.0;30.431719;0;0.79460663;  9.9761289E+03;  0.0000000E+00; -3.1010521E-05;  1.0000000E+04;  0.0000000E+00;  9.9741055E+03;0.81103379;0.0;-0.016427184;12687.943
  8.0000812E-01;  9.9999998E-03;  3.0023947E-01;2299;0.0049807173;0.0;0.099126443;1010.4406;  4.0509400E-01;8646.7988;3;2.1656473;0.0;51.185223;0;0.86595207;  9.9760420E+03;  0.0000000E+00; -4.9805432E-05;  1.0000000E+04;  0.0000000E+00;  9.9786338E+03;0.80945551;0.0;0.056496546;10294.021
  8.2002276E-01;  9.9999998E-03;  1.6008979E-01;2323;0.016228406;0.0;0.074860901;1010.8273;  4.0508613E-01;8965.9736;3;7.2331581;0.0;33.449837;0;1.1101182;  9.9811426E+03;  0.0000000E+00; -1.3514117E-06;  1.0000000E+04;  0.0000000E+00;  9.9815527E+03;0.66555876;0.0;0.44455943;8439.6055
  8.2002389E-01;  9.9999998E-03;  1.8010540E-01;2324;0.017171655;0.0;0.083281189;1010.6724;  4.0508661E-01;8837.6436;3;7.6351981;0.0;32.855858;0;1.0889852;  9.9804531E+03;  0.0000000E+00; -1.2959800E-06;  1.0000000E+04;  0.0000000E+00;  9.9791582E+03;0.68935066;0.0;0.39963454;9684.1387
  8.2002521E-01;  9.9999998E-03;  2.0012484E-01;2325;0.018149421;0.0;0.09179125;1010.5327;  4.0508705E-01;8722.0469;3;8.0111284;0.0;31.229658;0;1.0483096;  9.9798096E+03;  0.0000000E+00;  2.0511714E-06;  1.0000000E+04;  0.0000000E+00;  9.9770254E+03;0.70971608;0.0;0.33859351;10817.22
  8.2002640E-01;  9.9999998E-03;  2.2015354E-01;2326;0.0189768;0.0;0.10147043;1010.4261;  4.0508741E-01;8633.6963;3;8.2965288;0.0;27.515348;0;0.99957401;  9.9792705E+03;  0.0000000E+00;  1.2177137E-05;  1.0000000E+04;  0.0000000E+00;  9.9754375E+03;0.72471046;0.0;0.27486354;11680.222
  8.2002723E-01;  9.9999998E-03;  2.4019106E-01;2327;0.019319868;0.0;0.10546112;1010.3282;  4.0508786E-01;8552.749;3;8.3876696;0.0;18.743931;0;0.95454681;  9.9788789E+03;  0.0000000E+00;  2.8585715E-05;  1.0000000E+04;  0.0000000E+00;  9.9738887E+03;0.73359954;0.0;0.22094728;12512.521
  8.2002735E-01;  9.9999998E-03;  2.6022357E-01;2328;0.019073935;0.0;0.099931926;1010.2131;  4.0508828E-01;8457.291;3;8.6637669;0.0;16.955353;0;0.87976217;  9.9786318E+03;  0.0000000E+00;  4.2574185E-05;  1.0000000E+04;  0.0000000E+00;  9.9718428E+03;0.73699343;0.0;0.14276876;13619.55
  8.2002717E-01;  9.9999998E-03;  2.8023171E-01;2329;0.018634085;0.0;0.09171845;1010.3101;  4.0508854E-01;8537.6455;3;8.9386148;0.0;30.365021;0;0.7319448;  9.9785088E+03;  0.0000000E+00;  3.8271039E-05;  1.0000000E+04;  0.0000000E+00;  9.9738662E+03;0.73635024;0.0;-0.0044054301;12775.87
  8.2002616E-01;  9.9999998E-03;  3.0023894E-01;2330;0.017284248;0.0;0.099148057;1010.5322;  4.0508807E-01;8721.5527;3;8.6650152;0.0;51.436588;0;0.80092025;  9.9784688E+03;  0.0000000E+00;  1.7792721E-05;  1.0000000E+04;  0.0000000E+00;  9.9783027E+03;0.73338228;0.0;0.067537978;10432.401
  8.4004003E-01;  9.9999998E-03;  1.6008782E-01;2354;0.029539786;0.0;0.073200256;1010.7396;  4.0500385E-01;8891.8486;3;14.126781;0.0;32.678665;0;1.0366135;  9.9830791E+03;  0.0000000E+00; -1.8757935E-06;  1.0000000E+04;  0.0000000E+00;  9.9819385E+03;0.60097152;0.0;0.43564191;8248.0205
  8.4004200E-01;  9.9999998E-03;  1.8010311E-01;2355;0.031102134;0.0;0.081463896;1010.5887;  4.0500432E-01;8766.8936;3;14.726361;0.0;32.137257;0;1.0158305;  9.9824336E+03;  0.0000000E+00; -1.4625846E-06;  1.0000000E+04;  0.0000000E+00;  9.9795859E+03;0.62348181;0.0;0.39234868;9466.667
  8.4004408E-01;  9.9999998E-03;  2.0012221E-01;2356;0.032657307;0.0;0.089872323;1010.452;  4.0500468E-01;8653.7842;3;15.253311;0.0;30.634529;0;0.97675848;  9.9818232E+03;  0.0000000E+00;  7.5570197E-06;  1.0000000E+04;  0.0000000E+00;  9.9774746E+03;0.6429736;0.0;0.33378485;10583.214
  8.4004599E-01;  9.9999998E-03;  2.2015050E-01;2357;0.033865169;0.0;0.099655442;1010.3462;  4.0500510E-01;8566.1387;3;15.534199;0.0;27.447474;0;0.93070394;  9.9813154E+03;  0.0000000E+00;  3.5996040E-05;  1.0000000E+04;  0.0000000E+00;  9.9758789E+03;0.65755653;0.0;0.2731474;11444.02
  8.4004706E-01;  9.9999998E-03;  2.4018779E-01;2358;0.034050237;0.0;0.10414102;1010.2468;  4.0500540E-01;8483.8232;3;15.460998;0.0;19.035229;0;0.8903749;  9.9809395E+03;  0.0000000E+00;  8.6415821E-05;  1.0000000E+04;  0.0000000E+00;  9.9742744E+03;0.66654068;0.0;0.2238342;12293.572
  8.4004700E-01;  9.9999998E-03;  2.6022017E-01;2359;0.03342732;0.0;0.098903775;1010.1265;  4.0500590E-01;8384.2354;3;16.030912;0.0;17.211128;0;0.82162941;  9.9806973E+03;  0.0000000E+00;  1.3736122E-04;  1.0000000E+04;  0.0000000E+00;  9.9721221E+03;0.67052335;0.0;0.15110604;13443.312
  8.4004664E-01;  9.9999998E-03;  2.8022841E-01;2360;0.032739703;0.0;0.090687804;1010.2144;  4.0500617E-01;8456.9775;3;16.513849;0.0;30.068979;0;0.67791981;  9.9805713E+03;  0.0000000E+00;  1.2997977E-04;  1.0000000E+04;  0.0000000E+00;  9.9739707E+03;0.67079437;0.0;0.0071254373;12685.986
  8.4004486E-01;  9.9999998E-03;  3.0023542E-01;2361;0.030332368;0.0;0.097974613;1010.4316;  4.0500575E-01;8636.8076;3;15.971278;0.0;51.061085;0;0.74475181;  9.9805234E+03;  0.0000000E+00;  3.9706789E-05;  1.0000000E+04;  0.0000000E+00;  9.9783193E+03;0.66869253;0.0;0.076059312;10394.883
  8.6005747E-01;  9.9999998E-03;  1.6008489E-01;2385;0.04295646;0.0;0.070776597;1010.465;  4.0484190E-01;8662.6094;3;21.083015;0.0;31.63261;0;0.95425808;  9.9850781E+03;  0.0000000E+00; -2.2359209E-06;  1.0000000E+04;  0.0000000E+00;  9.9825068E+03;0.53147584;0.0;0.42278221;7964.9048
  8.6006021E-01;  9.9999998E-03;  1.8009970E-01;2386;0.045129627;0.0;0.07883054;1010.3186;  4.0484238E-01;8541.4316;3;21.911797;0.0;31.186502;0;0.93508559;  9.9844561E+03;  0.0000000E+00; -1.1923024E-06;  1.0000000E+04;  0.0000000E+00;  9.9802148E+03;0.55335701;0.0;0.38172859;9146.7754
  8.6006314E-01;  9.9999998E-03;  2.0011821E-01;2387;0.047286708;0.0;0.087059267;1010.1843;  4.0484273E-01;8430.2217;3;22.649475;0.0;29.841848;0;0.89932442;  9.9838574E+03;  0.0000000E+00;  1.6478394E-05;  1.0000000E+04;  0.0000000E+00;  9.9781416E+03;0.57306385;0.0;0.3262606;10236.046
  8.6006576E-01;  9.9999998E-03;  2.2014572E-01;2388;0.048949771;0.0;0.096697472;1010.079;  4.0484309E-01;8343.0889;3;23.075239;0.0;26.940914;0;0.85779852;  9.9833438E+03;  0.0000000E+00;  7.2622999E-05;  1.0000000E+04;  0.0000000E+00;  9.9765596E+03;0.58870602;0.0;0.2690925;11083.857
  8.6006707E-01;  9.9999998E-03;  2.4018210E-01;2389;0.048995063;0.0;0.10141373;1009.9781;  4.0484348E-01;8259.6074;3;22.915514;0.0;19.027098;0;0.82311773;  9.9829473E+03;  0.0000000E+00;  1.7445248E-04;  1.0000000E+04;  0.0000000E+00;  9.9749512E+03;0.59945869;0.0;0.22365904;11927.776
  8.6006683E-01;  9.9999998E-03;  2.6021370E-01;2390;0.048108671;0.0;0.096459538;1009.8566;  4.0484387E-01;8158.9565;3;23.852432;0.0;17.393139;0;0.76035249;  9.9826699E+03;  0.0000000E+00;  2.8122691E-04;  1.0000000E+04;  0.0000000E+00;  9.9728057E+03;0.60572553;0.0;0.15462698;13065.245
  8.6006653E-01;  9.9999998E-03;  2.8022200E-01;2391;0.04730789;0.0;0.088492975;1009.9352;  4.0484414E-01;8224.084;3;24.622015;0.0;29.429054;0;0.62437654;  9.9825010E+03;  0.0000000E+00;  2.7017781E-04;  1.0000000E+04;  0.0000000E+00;  9.9745137E+03;0.60852158;0.0;0.015854955;12373.147
  8.6006403E-01;  9.9999998E-03;  3.0022886E-01;2392;0.043950859;0.0;0.095555313;1010.1448;  4.0484369E-01;8397.5596;3;23.946665;0.0;49.967258;0;0.68879062;  9.9824102E+03;  0.0000000E+00;  9.0778405E-05;  1.0000000E+04;  0.0000000E+00;  9.9787578E+03;0.6088298;0.0;0.079960838;10149.608
  8.8007396E-01;  9.9999998E-03;  1.6008106E-01;2416;0.055622797;0.0;0.067632958;1010.0409;  4.0460962E-01;8309.0107;3;27.666586;0.0;30.29917;0;0.8548367;  9.9874131E+03;  0.0000000E+00; -3.5730866E-06;  1.0000000E+04;  0.0000000E+00;  9.9832520E+03;0.44880661;0.0;0.40603009;7594.7114
  8.8007742E-01;  9.9999998E-03;  1.8009523E-01;2417;0.05837743;0.0;0.075392626;1009.8992;  4.0461001E-01;8191.7178;3;28.737158;0.0;29.958967;0;0.83813632;  9.9868027E+03;  0.0000000E+00; -1.7643839E-06;  1.0000000E+04;  0.0000000E+00;  9.9810469E+03;0.47058547;0.0;0.36755085;8726.6572
  8.8008112E-01;  9.9999998E-03;  2.0011294E-01;2418;0.061131489;0.0;0.083327375;1009.7675;  4.0461031E-01;8082.7119;3;29.717865;0.0;28.77544;0;0.80695367;  9.9861914E+03;  0.0000000E+00;  2.6934471E-05;  1.0000000E+04;  0.0000000E+00;  9.9790371E+03;0.49141738;0.0;0.31553632;9775.7715
  8.8008446E-01;  9.9999998E-03;  2.2013921E-01;2419;0.06327273;0.0;0.092599168;1009.6617;  4.0461066E-01;7995.3096;3;30.33964;0.0;26.075361;0;0.77129519;  9.9856357E+03;  0.0000000E+00;  1.1865354E-04;  1.0000000E+04;  0.0000000E+00;  9.9774834E+03;0.50936484;0.0;0.26193035;10597.763
  8.8008606E-01;  9.9999998E-03;  2.4017400E-01;2420;0.063214861;0.0;0.097269692;1009.5605;  4.0461102E-01;7911.459;3;30.084801;0.0;18.70071;0;0.74275947;  9.9851797E+03;  0.0000000E+00;  2.8691409E-04;  1.0000000E+04;  0.0000000E+00;  9.9759277E+03;0.52328098;0.0;0.21947847;11410.486
  8.8008565E-01;  9.9999998E-03;  2.6020432E-01;2421;0.062052805;0.0;0.092668705;1009.4403;  4.0461141E-01;7812.0215;3;31.437759;0.0;17.308178;0;0.68674529;  9.9848369E+03;  0.0000000E+00;  4.6833820E-04;  1.0000000E+04;  0.0000000E+00;  9.9738818E+03;0.53314346;0.0;0.15360184;12490.658
  8.8008541E-01;  9.9999998E-03;  2.8021282E-01;2422;0.061314944;0.0;0.08532948;1009.5088;  4.0461162E-01;7868.7441;3;32.51754;0.0;28.607265;0;0.56236267;  9.9845889E+03;  0.0000000E+00;  4.5834552E-04;  1.0000000E+04;  0.0000000E+00;  9.9754619E+03;0.5395568;0.0;0.022805864;11854.136
  8.8008237E-01;  9.9999998E-03;  3.0021957E-01;2423;0.057174254;0.0;0.092061609;1009.7071;  4.0461129E-01;8032.7954;3;31.871202;0.0;48.176052;0;0.62496704;  9.9844326E+03;  0.0000000E+00;  1.8998478E-04;  1.0000000E+04;  0.0000000E+00;  9.9795469E+03;0.54317188;0.0;0.081795178;9727.5576
  9.0008819E-01;  9.9999998E-03;  1.6007644E-01;2447;0.066573448;0.0;0.063836858;1009.5029;  4.0431964E-01;7860.6201;3;33.421722;0.0;28.683853;0;0.73579764;  9.9901963E+03;  0.0000000E+00; -6.1045007E-06;  1.0000000E+04;  0.0000000E+00;  9.9841602E+03;0.35017666;0.0;0.38562101;7145.2363
  9.0009230E-01;  9.9999998E-03;  1.8008980E-01;2448;0.069848739;0.0;0.071206503;1009.3669;  4.0431997E-01;7748.2065;3;34.717323;0.0;28.44207;0;0.72185612;  9.9895918E+03;  0.0000000E+00; -4.2434317E-06;  1.0000000E+04;  0.0000000E+00;  9.9820605E+03;0.37195551;0.0;0.34990057;8213.7285
  9.0009665E-01;  9.9999998E-03;  2.0010646E-01;2449;0.07314647;0.0;0.078725211;1009.2382;  4.0432027E-01;7641.6104;3;35.93235;0.0;27.407595;0;0.69597268;  9.9889502E+03;  0.0000000E+00;  3.4534263E-05;  1.0000000E+04;  0.0000000E+00;  9.9801396E+03;0.3944006;0.0;0.30157205;9209.7119
  9.0010059E-01;  9.9999998E-03;  2.2013110E-01;2450;0.075653486;0.0;0.087336414;1009.1318;  4.0432048E-01;7553.6519;3;36.540192;0.0;24.588045;0;0.66705739;  9.9883281E+03;  0.0000000E+00;  1.6155078E-04;  1.0000000E+04;  0.0000000E+00;  9.9786475E+03;0.41553667;0.0;0.25152072;9993.3184
  9.0010232E-01;  9.9999998E-03;  2.4016361E-01;2451;0.075262114;0.0;0.091527671;1009.0311;  4.0432075E-01;7470.3276;3;36.079754;0.0;17.790442;0;0.64411187;  9.9877783E+03;  0.0000000E+00;  3.9929053E-04;  1.0000000E+04;  0.0000000E+00;  9.9771895E+03;0.43370953;0.0;0.21040234;10750.769
  9.0010166E-01;  9.9999998E-03;  2.6019239E-01;2452;0.073989689;0.0;0.087671742;1008.9142;  4.0432119E-01;7373.6919;3;38.048592;0.0;16.98324;0;0.59616661;  9.9873330E+03;  0.0000000E+00;  6.6423474E-04;  1.0000000E+04;  0.0000000E+00;  9.9753105E+03;0.44818586;0.0;0.14798072;11738.424
  9.0010178E-01;  9.9999998E-03;  2.8020123E-01;2453;0.073620498;0.0;0.081268884;1008.9705;  4.0432137E-01;7420.2349;3;39.564156;0.0;27.404949;0;0.48721266;  9.9869893E+03;  0.0000000E+00;  6.5705593E-04;  1.0000000E+04;  0.0000000E+00;  9.9767500E+03;0.45898849;0.0;0.028224181;11160.773
  9.0009856E-01;  9.9999998E-03;  3.0020803E-01;2454;0.068980753;0.0;0.087678827;1009.1516;  4.0432110E-01;7570.0205;3;39.064163;0.0;45.811375;0;0.54866195;  9.9867383E+03;  0.0000000E+00;  3.0490416E-04;  1.0000000E+04;  0.0000000E+00;  9.9805859E+03;0.46647906;0.0;0.082182854;9176.249
  9.2009711E-01;  9.9999998E-03;  1.6007121E-01;2478;0.073342912;0.0;0.059502579;1008.8785;  4.0398681E-01;7340.0933;3;36.996132;0.0;26.808716;0;0.60471821;  9.9932510E+03;  0.0000000E+00; -8.6345735E-06;  1.0000000E+04;  0.0000000E+00;  9.9851992E+03;0.24254963;0.0;0.36216858;6629.4771
  9.2010230E-01;  9.9999998E-03;  1.8008363E-01;2479;0.077514321;0.0;0.066417031;1008.7499;  4.0398702E-01;7233.752;3;38.74979;0.0;26.673832;0;0.59314263;  9.9926631E+03;  0.0000000E+00; -7.7504919E-06;  1.0000000E+04;  0.0000000E+00;  9.9832314E+03;0.26382571;0.0;0.32931688;7622.6431
  9.2010790E-01;  9.9999998E-03;  2.0009902E-01;2480;0.081836097;0.0;0.073406316;1008.6246;  4.0398729E-01;7130.27;3;40.498245;0.0;25.777542;0;0.57249874;  9.9919932E+03;  0.0000000E+00;  3.5946759E-05;  1.0000000E+04;  0.0000000E+00;  9.9814141E+03;0.28765795;0.0;0.28484079;8554.123
  9.2011285E-01;  9.9999998E-03;  2.2012168E-01;2481;0.08504159;0.0;0.081033617;1008.5187;  4.0398750E-01;7042.6538;3;41.052242;0.0;22.475101;0;0.55045319;  9.9912881E+03;  0.0000000E+00;  1.8618014E-04;  1.0000000E+04;  0.0000000E+00;  9.9800020E+03;0.31219226;0.0;0.23826095;9288.2656
  9.2011470E-01;  9.9999998E-03;  2.4015151E-01;2482;0.084376656;0.0;0.084747367;1008.4183;  4.0398782E-01;6959.6709;3;40.565842;0.0;16.668539;0;0.53320223;  9.9906221E+03;  0.0000000E+00;  4.7734758E-04;  1.0000000E+04;  0.0000000E+00;  9.9786768E+03;0.33520174;0.0;0.19800051;9974.3184
  9.2011386E-01;  9.9999998E-03;  2.6017851E-01;2483;0.083148032;0.0;0.081758484;1008.3055;  4.0398809E-01;6866.3413;3;43.268261;0.0;16.31749;0;0.49446326;  9.9900371E+03;  0.0000000E+00;  8.1777689E-04;  1.0000000E+04;  0.0000000E+00;  9.9770127E+03;0.3549439;0.0;0.13951935;10845.911
  9.2011416E-01;  9.9999998E-03;  2.8018770E-01;2484;0.083185002;0.0;0.07649859;1008.348;  4.0398824E-01;6901.5249;3;45.325066;0.0;25.981222;0;0.40355003;  9.9895654E+03;  0.0000000E+00;  8.2768599E-04;  1.0000000E+04;  0.0000000E+00;  9.9783086E+03;0.37066925;0.0;0.032880798;10325.897
  9.2011142E-01;  9.9999998E-03;  3.0019471E-01;2485;0.078460611;0.0;0.082569547;1008.5072;  4.0398809E-01;7033.1938;3;44.964169;0.0;43.224407;0;0.46242678;  9.9892031E+03;  0.0000000E+00;  3.9620558E-04;  1.0000000E+04;  0.0000000E+00;  9.9818252E+03;0.3824538;0.0;0.07997299;8524.0303
  9.4009900E-01;  9.9999998E-03;  1.6006564E-01;2509;0.074585781;0.0;0.054826155;1008.1863;  4.0362701E-01;6762.8032;3;37.593239;0.0;24.755863;0;0.4760496;  9.9962119E+03;  0.0000000E+00; -8.9828336E-06;  1.0000000E+04;  0.0000000E+00;  9.9863330E+03;0.13946921;0.0;0.3365804;6065.1611
  9.4010478E-01;  9.9999998E-03;  1.8007706E-01;2510;0.079121873;0.0;0.061261419;1008.0667;  4.0362722E-01;6664.0249;3;39.4375;0.0;24.738594;0;0.46615309;  9.9956572E+03;  0.0000000E+00; -9.3989374E-06;  1.0000000E+04;  0.0000000E+00;  9.9845107E+03;0.15947856;0.0;0.30667454;6974.4155
  9.4011158E-01;  9.9999998E-03;  2.0009103E-01;2511;0.084280454;0.0;0.067663476;1007.9467;  4.0362749E-01;6564.9512;3;41.48315;0.0;24.006401;0;0.4500801;  9.9949688E+03;  0.0000000E+00;  3.2189571E-05;  1.0000000E+04;  0.0000000E+00;  9.9828115E+03;0.18388669;0.0;0.26619342;7833.1187
  9.4011873E-01;  9.9999998E-03;  2.2011150E-01;2512;0.08925049;0.0;0.074538201;1007.8412;  4.0362769E-01;6477.793;3;43.009415;0.0;21.013184;0;0.43459129;  9.9941885E+03;  0.0000000E+00;  1.8632977E-04;  1.0000000E+04;  0.0000000E+00;  9.9814932E+03;0.21115345;0.0;0.22343783;8510.3232
  9.4012284E-01;  9.9999998E-03;  2.4013853E-01;2513;0.090551317;0.0;0.077755131;1007.7416;  4.0362784E-01;6395.4614;3;43.769672;0.0;15.656465;0;0.4234181;  9.9933877E+03;  0.0000000E+00;  4.9419131E-04;  1.0000000E+04;  0.0000000E+00;  9.9803057E+03;0.2386746;0.0;0.18474351;9119.4688
  9.4012213E-01;  9.9999998E-03;  2.6016364E-01;2514;0.089647621;0.0;0.075562671;1007.6315;  4.0362814E-01;6304.4658;3;47.06078;0.0;15.627536;0;0.39458898;  9.9926494E+03;  0.0000000E+00;  8.9910382E-04;  1.0000000E+04;  0.0000000E+00;  9.9788506E+03;0.26371258;0.0;0.13087639;9875.6748
  9.4012254E-01;  9.9999998E-03;  2.8017306E-01;2515;0.089977749;0.0;0.071415827;1007.6592;  4.0362832E-01;6327.4121;3;49.818001;0.0;24.743174;0;0.32127464;  9.9920215E+03;  0.0000000E+00;  9.9269254E-04;  1.0000000E+04;  0.0000000E+00;  9.9800137E+03;0.2845881;0.0;0.036686547;9410.8477
  9.4012010E-01;  9.9999998E-03;  3.0018017E-01;2516;0.085107781;0.0;0.076936238;1007.7943;  4.0362811E-01;6438.9917;3;49.210526;0.0;40.297848;0;0.37790871;  9.9915195E+03;  0.0000000E+00;  4.4295265E-04;  1.0000000E+04;  0.0000000E+00;  9.9831924E+03;0.30096373;0.0;0.076944962;7801.105
  9.6009815E-01;  9.9999998E-03;  1.6005990E-01;2540;0.074069291;0.0;0.05002211;1007.4458;  4.0325606E-01;6145.0347;3;37.487637;0.0;22.661283;0;0.36309782;  9.9987275E+03;  0.0000000E+00; -6.2238305E-06;  1.0000000E+04;  0.0000000E+00;  9.9875059E+03;0.053229209;0.0;0.3098686;5473.3755
  9.6010411E-01;  9.9999998E-03;  1.8007030E-01;2541;0.078722082;0.0;0.055948891;1007.3358;  4.0325630E-01;6054.2246;3;39.375137;0.0;22.786774;0;0.35451567;  9.9982129E+03;  0.0000000E+00; -7.1355785E-06;  1.0000000E+04;  0.0000000E+00;  9.9858350E+03;0.071561672;0.0;0.28295401;6294.2554
  9.6011126E-01;  9.9999998E-03;  2.0008275E-01;2542;0.084023736;0.0;0.061709952;1007.222;  4.0325648E-01;5960.2661;3;41.468967;0.0;22.200979;0;0.34234995;  9.9975146E+03;  0.0000000E+00;  2.5661337E-05;  1.0000000E+04;  0.0000000E+00;  9.9842695E+03;0.095809497;0.0;0.24654044;7075.0786
  9.6011925E-01;  9.9999998E-03;  2.2010104E-01;2543;0.089682385;0.0;0.068187751;1007.1181;  4.0325657E-01;5874.5713;3;43.637852;0.0;20.434345;0;0.33282188;  9.9966680E+03;  0.0000000E+00;  2.3977664E-04;  1.0000000E+04;  0.0000000E+00;  9.9830469E+03;0.12478503;0.0;0.20803685;7690.4849
  9.6012592E-01;  9.9999998E-03;  2.4012549E-01;2544;0.093414925;0.0;0.071185715;1007.0182;  4.0325674E-01;5792.124;3;45.645546;0.0;14.87726;0;0.32868069;  9.9957461E+03;  0.0000000E+00;  1.2590034E-03;  1.0000000E+04;  0.0000000E+00;  9.9819814E+03;0.1557564;0.0;0.1729243;8229.1289
  9.6012729E-01;  9.9999998E-03;  2.6014856E-01;2545;0.093960382;0.0;0.069292121;1006.9099;  4.0325701E-01;5702.791;3;49.504723;0.0;14.752257;0;0.30804285;  9.9948457E+03;  0.0000000E+00;  3.0141445E-03;  1.0000000E+04;  0.0000000E+00;  9.9807227E+03;0.18540989;0.0;0.12263296;8877.001
  9.6012813E-01;  9.9999998E-03;  2.8015795E-01;2546;0.094465956;0.0;0.065897971;1006.9236;  4.0325704E-01;5714.0068;3;52.700539;0.0;23.164713;0;0.24873815;  9.9940459E+03;  0.0000000E+00;  3.3014484E-03;  1.0000000E+04;  0.0000000E+00;  9.9817734E+03;0.21127802;0.0;0.037460137;8460.5938
  9.6012604E-01;  9.9999998E-03;  3.0016509E-01;2547;0.089805797;0.0;0.071000561;1007.0334;  4.0325695E-01;5804.7168;3;52.282593;0.0;37.132854;0;0.30533662;  9.9933848E+03;  0.0000000E+00;  4.1771447E-04;  1.0000000E+04;  0.0000000E+00;  9.9846182E+03;0.23231526;0.0;0.073021375;7038.9185
  9.8009592E-01;  9.9999998E-03;  1.6005418E-01;2571;0.072723366;0.0;0.04529665;1006.6805;  4.0288827E-01;5506.0581;3;37.128437;0.0;20.699684;0;0.27274263;  1.0000613E+04;  0.0000000E+00; -1.8546453E-06;  1.0000000E+04;  0.0000000E+00;  9.9886738E+03;-0.01026072;0.0;0.28300336;4877.0068
  9.8010200E-01;  9.9999998E-03;  1.8006356E-01;2572;0.077423334;0.0;0.050728012;1006.5798;  4.0288842E-01;5423.0322;3;39.052471;0.0;20.929737;0;0.26571405;  1.0000125E+04;  0.0000000E+00; -2.6344092E-06;  1.0000000E+04;  0.0000000E+00;  9.9871533E+03;0.0066045839;0.0;0.25910947;5609.6445
  9.8010933E-01;  9.9999998E-03;  2.0007454E-01;2573;0.082862794;0.0;0.055853963;1006.4719;  4.0288857E-01;5334.1113;3;41.199326;0.0;20.499926;0;0.25724816;  9.9994209E+03;  0.0000000E+00;  1.5139997E-04;  1.0000000E+04;  0.0000000E+00;  9.9857109E+03;0.030416295;0.0;0.22683187;6311.3394
  9.8011786E-01;  9.9999998E-03;  2.2009057E-01;2574;0.088902026;0.0;0.061666857;1006.3704;  4.0288869E-01;5250.3965;3;43.655968;0.0;19.468927;0;0.25269133;  9.9985186E+03;  0.0000000E+00;  1.5941766E-03;  1.0000000E+04;  0.0000000E+00;  9.9845918E+03;0.060137749;0.0;0.19255358;6863.7617
  9.8012608E-01;  9.9999998E-03;  2.4011268E-01;2575;0.094056487;0.0;0.065032125;1006.2707;  4.0288880E-01;5168.2549;3;46.220459;0.0;14.617668;0;0.25571373;  9.9974980E+03;  0.0000000E+00;  5.9788134E-03;  1.0000000E+04;  0.0000000E+00;  9.9836309E+03;0.093190394;0.0;0.16252334;7336.6323
  9.8013026E-01;  9.9999998E-03;  2.6013368E-01;2576;0.096728466;0.0;0.063084349;1006.1644;  4.0288889E-01;5080.6123;3;50.82616;0.0;13.750385;0;0.24142435;  9.9964561E+03;  0.0000000E+00;  1.1915573E-02;  1.0000000E+04;  0.0000000E+00;  9.9825508E+03;0.1262318;0.0;0.11519255;7885.4453
  9.8013228E-01;  9.9999998E-03;  2.8014278E-01;2577;0.097806059;0.0;0.060152031;1006.1668;  4.0288901E-01;5082.6743;3;54.682747;0.0;21.371574;0;0.192274;  9.9954912E+03;  0.0000000E+00;  1.1752467E-02;  1.0000000E+04;  0.0000000E+00;  9.9835518E+03;0.15641195;0.0;0.035862055;7495.0596
  9.8013103E-01;  9.9999998E-03;  3.0014983E-01;2578;0.093699984;0.0;0.064862452;1006.2554;  4.0288904E-01;5155.6768;3;54.980602;0.0;33.942001;0;0.24685553;  9.9946641E+03;  0.0000000E+00;  2.3887999E-04;  1.0000000E+04;  0.0000000E+00;  9.9861338E+03;0.18161933;0.0;0.065236196;6229.5591
  1.0000931E+00;  9.9999998E-03;  1.6004878E-01;2602;0.070951454;0.0;0.04090425;1005.9183;  4.0253574E-01;4869.1929;3;36.672157;0.0;18.950977;0;0.20548196;  1.0001857E+04;  0.0000000E+00;  6.2007888E-07;  1.0000000E+04;  0.0000000E+00;  9.9897842E+03;-0.051351085;0.0;0.25683305;4298.7075
  1.0000991E+00;  9.9999998E-03;  1.8005714E-01;2603;0.075698309;0.0;0.045804147;1005.8249;  4.0253577E-01;4792.2979;3;38.679134;0.0;19.281685;0;0.20074335;  1.0001383E+04;  0.0000000E+00; -3.0763406E-06;  1.0000000E+04;  0.0000000E+00;  9.9883975E+03;-0.035310991;0.0;0.23605433;4948.1064
  1.0001065E+00;  9.9999998E-03;  2.0006680E-01;2604;0.081209518;0.0;0.050394081;1005.7222;  4.0253580E-01;4707.8506;3;40.849083;0.0;19.019114;0;0.19608678;  1.0000666E+04;  0.0000000E+00;  4.4585552E-04;  1.0000000E+04;  0.0000000E+00;  9.9870732E+03;-0.012094595;0.0;0.20818138;5574.9839
  1.0001154E+00;  9.9999998E-03;  2.2008058E-01;2605;0.087457463;0.0;0.055273585;1005.6239;  4.0253606E-01;4626.9336;3;43.430977;0.0;18.132692;0;0.19555952;  9.9997383E+03;  0.0000000E+00;  4.2008804E-03;  1.0000000E+04;  0.0000000E+00;  9.9860430E+03;0.017308911;0.0;0.17825061;6067.4238
  1.0001252E+00;  9.9999998E-03;  2.4010034E-01;2606;0.093710728;0.0;0.058950588;1005.5265;  4.0253603E-01;4546.8008;3;46.368912;0.0;14.627116;0;0.20392565;  9.9986582E+03;  0.0000000E+00;  1.4743608E-02;  1.0000000E+04;  0.0000000E+00;  9.9851836E+03;0.050879437;0.0;0.15304622;6476.458
  1.0001321E+00;  9.9999998E-03;  2.6011935E-01;2607;0.09821973;0.0;0.05707125;1005.4241;  4.0253615E-01;4462.4526;3;50.963364;0.0;13.170877;0;0.19423749;  9.9975137E+03;  0.0000000E+00;  2.7604382E-02;  1.0000000E+04;  0.0000000E+00;  9.9842881E+03;0.085851513;0.0;0.10838597;6925.6201
  1.0001363E+00;  9.9999998E-03;  2.8012788E-01;2608;0.10052103;0.0;0.054410249;1005.4224;  4.0253633E-01;4461.0771;3;55.802277;0.0;19.754005;0;0.15156312;  9.9964072E+03;  0.0000000E+00;  2.5393615E-02;  1.0000000E+04;  0.0000000E+00;  9.9853525E+03;0.11936148;0.0;0.03220164;6513.1348
  1.0001369E+00;  9.9999998E-03;  3.0013469E-01;2609;0.097915709;0.0;0.058624521;1005.496;  4.0253621E-01;4521.6875;3;57.923527;0.0;30.843208;0;0.2000367;  9.9954258E+03;  0.0000000E+00; -1.9624524E-03;  1.0000000E+04;  0.0000000E+00;  9.9877891E+03;0.14785416;0.0;0.052182537;5357.9761
  1.0200897E+00;  9.9999998E-03;  1.6004373E-01;2633;0.068929851;0.0;0.03677462;1005.1859;  4.0220791E-01;4256.3643;3;36.06308;0.0;17.318743;0;0.15797146;  1.0002566E+04;  0.0000000E+00; -1.7801607E-05;  1.0000000E+04;  0.0000000E+00;  9.9907949E+03;-0.07411629;0.0;0.23208775;3758.5781
  1.0200958E+00;  9.9999998E-03;  1.8005113E-01;2634;0.073786296;0.0;0.041170765;1005.0975;  4.0220806E-01;4183.7632;3;38.195278;0.0;17.689585;0;0.15636604;  1.0002083E+04;  0.0000000E+00; -5.6752784E-04;  1.0000000E+04;  0.0000000E+00;  9.9895195E+03;-0.05836387;0.0;0.21472991;4334.2622
  1.0201033E+00;  9.9999998E-03;  2.0005986E-01;2635;0.079486683;0.0;0.0453883;1005.0005;  4.0220809E-01;4104.1167;3;40.601017;0.0;17.519674;0;0.15545386;  1.0001383E+04;  0.0000000E+00; -1.7297898E-03;  1.0000000E+04;  0.0000000E+00;  9.9882881E+03;-0.036245145;0.0;0.19169901;4894.5132
  1.0201126E+00;  9.9999998E-03;  2.2007187E-01;2636;0.085898541;0.0;0.049557459;1004.9067;  4.0220812E-01;4027.2087;3;43.289051;0.0;16.729309;0;0.15819302;  1.0000479E+04;  0.0000000E+00;  2.0175132E-03;  1.0000000E+04;  0.0000000E+00;  9.9873232E+03;-0.0085887993;0.0;0.16678183;5336.1514
  1.0201238E+00;  9.9999998E-03;  2.4008916E-01;2637;0.093114287;0.0;0.052854281;1004.814;  4.0220824E-01;3951.0825;3;46.672394;0.0;14.050001;0;0.16899952;  9.9994053E+03;  0.0000000E+00;  1.7669886E-02;  1.0000000E+04;  0.0000000E+00;  9.9865537E+03;0.023695819;0.0;0.14530371;5688.7158
  1.0201337E+00;  9.9999998E-03;  2.6010615E-01;2638;0.098998599;0.0;0.051474947;1004.7188;  4.0220839E-01;3872.9031;3;50.562325;0.0;12.555753;0;0.16402072;  9.9982109E+03;  0.0000000E+00;  3.6606535E-02;  1.0000000E+04;  0.0000000E+00;  9.9858467E+03;0.059018675;0.0;0.10500204;6035.814
  1.0201410E+00;  9.9999998E-03;  2.8011376E-01;2639;0.10277935;0.0;0.04914248;1004.7204;  4.0220830E-01;3874.269;3;56.475803;0.0;18.65151;0;0.12541845;  9.9969863E+03;  0.0000000E+00;  3.1387217E-02;  1.0000000E+04;  0.0000000E+00;  9.9871045E+03;0.094823524;0.0;0.030594934;5550.1846
  1.0201452E+00;  9.9999998E-03;  3.0012012E-01;2640;0.10334236;0.0;0.052416205;1004.7855;  4.0220815E-01;3927.5894;3;61.706944;0.0;27.810062;0;0.16101737;  9.9958408E+03;  0.0000000E+00; -5.6653158E-03;  1.0000000E+04;  0.0000000E+00;  9.9895420E+03;0.12708834;0.0;0.033929039;4451.8359
  1.0400860E+00;  9.9999998E-03;  1.6003899E-01;2664;0.066629097;0.0;0.03288338;1004.5042;  4.0191159E-01;3684.9368;3;35.390526;0.0;15.742432;0;0.12590119;  1.0002863E+04;  0.0000000E+00; -3.5531083E-04;  1.0000000E+04;  0.0000000E+00;  9.9916680E+03;-0.083558425;0.0;0.20945962;3271.7864
  1.0400923E+00;  9.9999998E-03;  1.8004578E-01;2665;0.071672067;0.0;0.036967743;1004.42;  4.0191171E-01;3616.0789;3;37.66877;0.0;16.219288;0;0.12789556;  1.0002381E+04;  0.0000000E+00; -4.1510467E-03;  1.0000000E+04;  0.0000000E+00;  9.9904746E+03;-0.068104364;0.0;0.19599994;3784.8386
  1.0401000E+00;  9.9999998E-03;  2.0005350E-01;2666;0.077509895;0.0;0.040651433;1004.3297;  4.0191171E-01;3542.1492;3;40.113106;0.0;16.173195;0;0.12994349;  1.0001737E+04;  0.0000000E+00; -1.3613673E-02;  1.0000000E+04;  0.0000000E+00;  9.9893193E+03;-0.048144579;0.0;0.17808807;4285.0791
  1.0401100E+00;  9.9999998E-03;  2.2006465E-01;2667;0.084517293;0.0;0.044526342;1004.2432;  4.0191177E-01;3471.436;3;43.320007;0.0;15.396846;0;0.13479438;  1.0000941E+04;  0.0000000E+00; -1.8788964E-02;  1.0000000E+04;  0.0000000E+00;  9.9883936E+03;-0.024087247;0.0;0.15888163;4686.5029
  1.0401227E+00;  9.9999998E-03;  2.4007986E-01;2668;0.092511371;0.0;0.047218893;1004.1577;  4.0191188E-01;3401.4043;3;47.022305;0.0;12.951852;0;0.14575595;  9.9999639E+03;  0.0000000E+00; -6.4565809E-03;  1.0000000E+04;  0.0000000E+00;  9.9876660E+03;0.0048105041;0.0;0.14094545;5000.4434
  1.0401360E+00;  9.9999998E-03;  2.6009461E-01;2669;0.099803299;0.0;0.046302944;1004.0725;  4.0191185E-01;3331.7629;3;50.957066;0.0;12.133755;0;0.14226887;  9.9987783E+03;  0.0000000E+00;  1.0162736E-02;  1.0000000E+04;  0.0000000E+00;  9.9871572E+03;0.038920712;0.0;0.10334815;5245.9072
  1.0401478E+00;  9.9999998E-03;  2.8010178E-01;2670;0.1057283;0.0;0.044592254;1004.0723;  4.0191180E-01;3331.5605;3;57.698032;0.0;17.121441;0;0.11185141;  9.9974063E+03;  0.0000000E+00;  2.3836349E-03;  1.0000000E+04;  0.0000000E+00;  9.9885283E+03;0.077235445;0.0;0.034615964;4726.3003
  1.0401576E+00;  9.9999998E-03;  3.0010805E-01;2671;0.11055748;0.0;0.047510449;1004.1157;  4.0191174E-01;3367.0537;3;66.715942;0.0;24.890495;0;0.14791526;  9.9959258E+03;  0.0000000E+00;  8.7153306E-03;  1.0000000E+04;  0.0000000E+00;  9.9908691E+03;0.11820618;0.0;0.029709075;3725.8694
  1.0600822E+00;  9.9999998E-03;  1.6003464E-01;2695;0.064207032;0.0;0.029269159;1003.8879;  4.0165064E-01;3167.0989;3;34.607113;0.0;14.245034;0;0.10589026;  1.0002864E+04;  0.0000000E+00; -2.2989132E-03;  1.0000000E+04;  0.0000000E+00;  9.9923848E+03;-0.083709717;0.0;0.18959998;2845.9382
  1.0600885E+00;  9.9999998E-03;  1.8004091E-01;2696;0.069379091;0.0;0.033025578;1003.8082;  4.0165067E-01;3102.1287;3;37.023106;0.0;14.782135;0;0.11109836;  1.0002410E+04;  0.0000000E+00; -1.6011426E-02;  1.0000000E+04;  0.0000000E+00;  9.9912471E+03;-0.069341034;0.0;0.1804394;3305.0598
  1.0600966E+00;  9.9999998E-03;  2.0004816E-01;2697;0.075635612;0.0;0.036475621;1003.7272;  4.0165073E-01;3036.186;3;40.065216;0.0;14.673057;0;0.11470407;  1.0001892E+04;  0.0000000E+00; -4.5886751E-02;  1.0000000E+04;  0.0000000E+00;  9.9901523E+03;-0.053221691;0.0;0.16792576;3752.9321
  1.0601077E+00;  9.9999998E-03;  2.2005884E-01;2698;0.083534837;0.0;0.039858222;1003.6515;  4.0165082E-01;2974.5137;3;43.915604;0.0;13.199025;0;0.11968639;  1.0001287E+04;  0.0000000E+00; -7.4393697E-02;  1.0000000E+04;  0.0000000E+00;  9.9892510E+03;-0.034725368;0.0;0.15441176;4125.4834
  1.0601220E+00;  9.9999998E-03;  2.4007268E-01;2699;0.092269942;0.0;0.042231701;1003.5746;  4.0165076E-01;2911.8691;3;47.667599;0.0;11.858381;0;0.12881327;  1.0000493E+04;  0.0000000E+00; -8.0261938E-02;  1.0000000E+04;  0.0000000E+00;  9.9885156E+03;-0.011056015;0.0;0.13986929;4424.457
  1.0601388E+00;  9.9999998E-03;  2.6008561E-01;2700;0.10131103;0.0;0.042082112;1003.496;  4.0165073E-01;2847.863;3;52.510994;0.0;11.877891;0;0.12940428;  9.9993320E+03;  0.0000000E+00; -8.3067328E-02;  1.0000000E+04;  0.0000000E+00;  9.9881094E+03;0.021671716;0.0;0.10773256;4607.957
  1.0601553E+00;  9.9999998E-03;  2.8009269E-01;2701;0.10964158;0.0;0.041449953;1003.4805;  4.0165085E-01;2835.2278;3;60.736034;0.0;15.740234;0;0.1182868;  9.9977100E+03;  0.0000000E+00; -7.9229511E-02;  1.0000000E+04;  0.0000000E+00;  9.9894268E+03;0.065250374;0.0;0.053036422;4121.7529
  1.0601709E+00;  9.9999998E-03;  3.0009931E-01;2702;0.118279;0.0;0.044538461;1003.4706;  4.0165070E-01;2827.0601;3;72.304428;0.0;21.98687;0;0.18121886;  9.9955264E+03;  0.0000000E+00;  1.0463591E-01;  1.0000000E+04;  0.0000000E+00;  9.9914229E+03;0.12571201;0.0;0.055506863;3311.3115
  1.0800782E+00;  9.9999998E-03;  1.6003087E-01;2726;0.061795831;0.0;0.026056647;1003.3438;  4.0142658E-01;2708.3018;3;33.842705;0.0;12.805416;0;0.095797017;  1.0002634E+04;  0.0000000E+00; -9.8750480E-03;  1.0000000E+04;  0.0000000E+00;  9.9929297E+03;-0.077291548;0.0;0.17308857;2480.1013
  1.0800848E+00;  9.9999998E-03;  1.8003656E-01;2727;0.06720385;0.0;0.029311553;1003.2705;  4.0142661E-01;2649.0105;3;36.649757;0.0;13.061849;0;0.102762;  1.0002258E+04;  0.0000000E+00; -4.4681739E-02;  1.0000000E+04;  0.0000000E+00;  9.9918408E+03;-0.065514416;0.0;0.16827641;2891.3228
  1.0800937E+00;  9.9999998E-03;  2.0004390E-01;2728;0.074160911;0.0;0.03251731;1003.202;  4.0142661E-01;2593.5801;3;40.221462;0.0;12.477375;0;0.10585672;  1.0001931E+04;  0.0000000E+00; -1.0898172E-01;  1.0000000E+04;  0.0000000E+00;  9.9908076E+03;-0.054973949;0.0;0.16083066;3301.7981
  1.0801061E+00;  9.9999998E-03;  2.2005445E-01;2729;0.08283332;0.0;0.035569333;1003.1401;  4.0142649E-01;2543.3608;3;44.246613;0.0;11.263751;0;0.10861911;  1.0001587E+04;  0.0000000E+00; -1.7424452E-01;  1.0000000E+04;  0.0000000E+00;  9.9899199E+03;-0.043430924;0.0;0.15205003;3670.0779
  1.0801221E+00;  9.9999998E-03;  2.4006720E-01;2730;0.09247528;0.0;0.037637986;1003.073;  4.0142658E-01;2488.9871;3;48.595184;0.0;10.587629;0;0.11411008;  1.0001012E+04;  0.0000000E+00; -2.1231847E-01;  1.0000000E+04;  0.0000000E+00;  9.9891631E+03;-0.025471391;0.0;0.13958147;3978.6626
  1.0801415E+00;  9.9999998E-03;  2.6007852E-01;2731;0.10283618;0.0;0.038151771;1002.9988;  4.0142649E-01;2428.9148;3;54.625233;0.0;11.285349;0;0.11806928;  9.9998379E+03;  0.0000000E+00; -2.4118982E-01;  1.0000000E+04;  0.0000000E+00;  9.9888643E+03;0.0070860703;0.0;0.11098322;4125.3208
  1.0801610E+00;  9.9999998E-03;  2.8008553E-01;2732;0.11288743;0.0;0.038786232;1002.9622;  4.0142664E-01;2399.1609;3;64.333534;0.0;14.961359;0;0.13076979;  9.9978525E+03;  0.0000000E+00; -1.6790248E-01;  1.0000000E+04;  0.0000000E+00;  9.9901152E+03;0.059857748;0.0;0.070912041;3627.1934
  1.0801803E+00;  9.9999998E-03;  3.0009201E-01;2733;0.12347907;0.0;0.041780006;1002.8933;  4.0142649E-01;2343.4346;3;77.143768;0.0;19.687864;0;0.22146302;  9.9947080E+03;  0.0000000E+00;  3.7999436E-01;  1.0000000E+04;  0.0000000E+00;  9.9918975E+03;0.14614448;0.0;0.075318545;3213.7527
  1.1000745E+00;  9.9999998E-03;  1.6002725E-01;2756;0.059498519;0.0;0.022840913;1002.8726;  4.0123853E-01;2309.2275;3;33.153839;0.0;11.182063;0;0.093991123;  1.0002219E+04;  0.0000000E+00; -3.1259105E-02;  1.0000000E+04;  0.0000000E+00;  9.9933242E+03;-0.066200383;0.0;0.16019151;2166.127
  1.1000817E+00;  9.9999998E-03;  1.8003292E-01;2757;0.065396145;0.0;0.025843235;1002.8093;  4.0123844E-01;2258.3347;3;36.392998;0.0;11.133433;0;0.10041163;  1.0001985E+04;  0.0000000E+00; -1.0034773E-01;  1.0000000E+04;  0.0000000E+00;  9.9922949E+03;-0.058824636;0.0;0.15923627;2540.1218
  1.1000917E+00;  9.9999998E-03;  2.0004065E-01;2758;0.073097557;0.0;0.028878743;1002.7563;  4.0123856E-01;2215.6807;3;40.354179;0.0;10.486789;0;0.10081208;  1.0001896E+04;  0.0000000E+00; -2.0818873E-01;  1.0000000E+04;  0.0000000E+00;  9.9913252E+03;-0.055055998;0.0;0.15586808;2941.6523
  1.1001054E+00;  9.9999998E-03;  2.2005118E-01;2759;0.082524776;0.0;0.031641014;1002.7086;  4.0123865E-01;2177.3359;3;44.836346;0.0;9.5475912;0;0.099713475;  1.0001812E+04;  0.0000000E+00; -3.1395382E-01;  1.0000000E+04;  0.0000000E+00;  9.9904600E+03;-0.050384399;0.0;0.15009788;3337.0481
  1.1001230E+00;  9.9999998E-03;  2.4006300E-01;2760;0.093120083;0.0;0.033644553;1002.6494;  4.0123853E-01;2129.7883;3;50.045002;0.0;9.5270138;0;0.10224994;  1.0001389E+04;  0.0000000E+00; -3.8671196E-01;  1.0000000E+04;  0.0000000E+00;  9.9897100E+03;-0.035806123;0.0;0.13805605;3671.6155
  1.1001433E+00;  9.9999998E-03;  2.6007259E-01;2761;0.10379512;0.0;0.034428898;1002.5844;  4.0123850E-01;2077.5437;3;57.23333;0.0;10.648401;0;0.10581839;  1.0000144E+04;  0.0000000E+00; -4.0000683E-01;  1.0000000E+04;  0.0000000E+00;  9.9896602E+03;-0.0018733934;0.0;0.10769179;3717.2463
  1.1001630E+00;  9.9999998E-03;  2.8007931E-01;2762;0.11438502;0.0;0.036222763;1002.5323;  4.0123856E-01;2035.6498;3;68.255669;0.0;14.433763;0;0.14238364;  9.9978408E+03;  0.0000000E+00; -1.3580965E-01;  1.0000000E+04;  0.0000000E+00;  9.9909326E+03;0.06092428;0.0;0.081459358;3032.5637
  1.1200715E+00;  9.9999998E-03;  1.6002420E-01;2785;0.057640936;0.0;0.019922981;1002.4742;  4.0108442E-01;1969.3602;3;32.704163;0.0;9.5175505;0;0.098033756;  1.0001681E+04;  0.0000000E+00; -8.0024138E-02;  1.0000000E+04;  0.0000000E+00;  9.9935977E+03;-0.052664544;0.0;0.1506983;1897.957
  1.1200794E+00;  9.9999998E-03;  1.8003017E-01;2786;0.064118318;0.0;0.022750499;1002.4243;  4.0108433E-01;1929.6892;3;36.341652;0.0;9.2455664;0;0.10133269;  1.0001639E+04;  0.0000000E+00; -1.9270012E-01;  1.0000000E+04;  0.0000000E+00;  9.9926455E+03;-0.051188417;0.0;0.1525211;2259.426
  1.1200906E+00;  9.9999998E-03;  2.0003840E-01;2787;0.072515577;0.0;0.025616942;1002.3873;  4.0108436E-01;1900.1677;3;40.77594;0.0;8.5319605;0;0.09750174;  1.0001791E+04;  0.0000000E+00; -3.4082189E-01;  1.0000000E+04;  0.0000000E+00;  9.9917588E+03;-0.054081198;0.0;0.15158294;2681.0195
  1.1201060E+00;  9.9999998E-03;  2.2004899E-01;2788;0.082846917;0.0;0.028343474;1002.3494;  4.0108427E-01;1869.9781;3;45.874401;0.0;8.2528219;0;0.093746282;  1.0001873E+04;  0.0000000E+00; -4.7645795E-01;  1.0000000E+04;  0.0000000E+00;  9.9909180E+03;-0.053283654;0.0;0.14702994;3109.5576
  1.1201248E+00;  9.9999998E-03;  2.4005975E-01;2789;0.093913093;0.0;0.030370394;1002.2929;  4.0108436E-01;1824.9836;3;52.087929;0.0;8.673811;0;0.096228436;  1.0001412E+04;  0.0000000E+00; -5.5721527E-01;  1.0000000E+04;  0.0000000E+00;  9.9902598E+03;-0.037509818;0.0;0.13373825;3419.4089
  1.1201441E+00;  9.9999998E-03;  2.6006791E-01;2790;0.10428268;0.0;0.031799562;1002.237;  4.0108433E-01;1780.464;3;60.581398;0.0;10.561905;0;0.10629658;  1.0000043E+04;  0.0000000E+00; -4.5331496E-01;  1.0000000E+04;  0.0000000E+00;  9.9905176E+03;0.00029987446;0.0;0.10599671;3193.7773
  1.1201619E+00;  9.9999998E-03;  2.8007415E-01;2791;0.11404925;0.0;0.034302954;1002.1776;  4.0108427E-01;1733.1953;3;71.952972;0.0;14.267611;0;0.16050261;  9.9975820E+03;  0.0000000E+00;  1.3019061E-01;  1.0000000E+04;  0.0000000E+00;  9.9917949E+03;0.068837963;0.0;0.09166465;2461.0242
  1.1400692E+00;  9.9999998E-03;  1.6002204E-01;2813;0.056338862;0.0;0.017406575;1002.1466;  4.0096068E-01;1686.734;3;32.567638;0.0;7.7917171;0;0.10426745;  1.0001104E+04;  0.0000000E+00; -1.7027766E-01;  1.0000000E+04;  0.0000000E+00;  9.9938076E+03;-0.039426193;0.0;0.14369364;1685.8148
  1.1400782E+00;  9.9999998E-03;  1.8002857E-01;2814;0.06344866;0.0;0.020169564;1002.1124;  4.0096074E-01;1659.8396;3;36.672272;0.0;7.4273863;0;0.10254282;  1.0001278E+04;  0.0000000E+00; -3.2343227E-01;  1.0000000E+04;  0.0000000E+00;  9.9929502E+03;-0.044321503;0.0;0.14686432;2063.0369
  1.1400911E+00;  9.9999998E-03;  2.0003748E-01;2815;0.072780706;0.0;0.0231483;1002.0866;  4.0096065E-01;1639.5914;3;41.690624;0.0;7.1581602;0;0.095942773;  1.0001584E+04;  0.0000000E+00; -4.9418852E-01;  1.0000000E+04;  0.0000000E+00;  9.9921289E+03;-0.051081784;0.0;0.14702456;2501.2644
  1.1401081E+00;  9.9999998E-03;  2.2004811E-01;2816;0.083939366;0.0;0.026167585;1002.0458;  4.0096065E-01;1607.4426;3;47.720219;0.0;7.5498338;0;0.096475445;  1.0001604E+04;  0.0000000E+00; -6.3488263E-01;  1.0000000E+04;  0.0000000E+00;  9.9912949E+03;-0.047594793;0.0;0.14407024;2918.6267
  1.1401266E+00;  9.9999998E-03;  2.4005754E-01;2817;0.094557673;0.0;0.028221544;1001.9885;  4.0096062E-01;1562.3671;3;54.845196;0.0;8.4351788;0;0.10305651;  1.0000924E+04;  0.0000000E+00; -6.3710892E-01;  1.0000000E+04;  0.0000000E+00;  9.9908379E+03;-0.026239041;0.0;0.12929554;3026.9824
  1.1401436E+00;  9.9999998E-03;  2.6006454E-01;2818;0.10411809;0.0;0.030359477;1001.9386;  4.0096074E-01;1523.1952;3;64.427971;0.0;11.15382;0;0.12663537;  9.9994141E+03;  0.0000000E+00; -2.7270249E-01;  1.0000000E+04;  0.0000000E+00;  9.9913535E+03;0.017270362;0.0;0.10936501;2414.8013
  1.1600684E+00;  9.9999998E-03;  1.6002114E-01;2840;0.055802941;0.0;0.015530915;1001.8876;  4.0086374E-01;1458.8948;3;32.883465;0.0;6.219501;0;0.10877148;  1.0000579E+04;  0.0000000E+00; -3.0435154E-01;  1.0000000E+04;  0.0000000E+00;  9.9940010E+03;-0.029032404;0.0;0.13780388;1549.1405
  1.1600789E+00;  9.9999998E-03;  1.8002857E-01;2841;0.063890263;0.0;0.018509259;1001.8654;  4.0086371E-01;1441.6521;3;37.632011;0.0;6.140892;0;0.10333553;  1.0000912E+04;  0.0000000E+00; -4.7799379E-01;  1.0000000E+04;  0.0000000E+00;  9.9932236E+03;-0.038066894;0.0;0.14140242;1934.5006
  1.1600939E+00;  9.9999998E-03;  2.0003828E-01;2842;0.074401014;0.0;0.021968497;1001.8347;  4.0086374E-01;1417.9548;3;43.498936;0.0;6.5932722;0;0.10272364;  1.0001130E+04;  0.0000000E+00; -6.4474130E-01;  1.0000000E+04;  0.0000000E+00;  9.9923994E+03;-0.040989637;0.0;0.14371328;2343.9102
  1.1601113E+00;  9.9999998E-03;  2.2004826E-01;2843;0.085406981;0.0;0.025013864;1001.7794;  4.0086365E-01;1375.1846;3;50.407089;0.0;7.4657998;0;0.11344288;  1.0000817E+04;  0.0000000E+00; -7.2432703E-01;  1.0000000E+04;  0.0000000E+00;  9.9916123E+03;-0.028259372;0.0;0.14170225;2612.0093
  1.1601280E+00;  9.9999998E-03;  2.4005637E-01;2844;0.095060945;0.0;0.027437523;1001.7192;  4.0086368E-01;1328.6396;3;58.54916;0.0;9.2664576;0;0.13224474;  9.9998369E+03;  0.0000000E+00; -5.0200939E-01;  1.0000000E+04;  0.0000000E+00;  9.9913896E+03;0.0016007256;0.0;0.13064401;2326.4321
  1.1601419E+00;  9.9999998E-03;  2.6006192E-01;2845;0.10289084;0.0;0.029537983;1001.6821;  4.0086362E-01;1299.9716;3;68.015892;0.0;12.064432;0;0.16015449;  9.9983281E+03;  0.0000000E+00;  2.3655297E-01;  1.0000000E+04;  0.0000000E+00;  9.9921602E+03;0.045786299;0.0;0.11436819;1870.8213
  1.1800698E+00;  9.9999998E-03;  1.6002224E-01;2866;0.056705784;0.0;0.014763636;1001.6871;  4.0078905E-01;1276.8235;3;34.025028;0.0;5.1500068;0;0.11135035;  1.0000118E+04;  0.0000000E+00; -4.6172085E-01;  1.0000000E+04;  0.0000000E+00;  9.9941807E+03;-0.021106606;0.0;0.13245696;1468.8619
  1.1800828E+00;  9.9999998E-03;  1.8003078E-01;2867;0.066242792;0.0;0.018397525;1001.659;  4.0078911E-01;1255.5134;3;39.685825;0.0;5.8923755;0;0.11286376;  1.0000339E+04;  0.0000000E+00; -6.2937146E-01;  1.0000000E+04;  0.0000000E+00;  9.9934014E+03;-0.025353489;0.0;0.13821726;1817.5743
  1.1800985E+00;  9.9999998E-03;  2.0004036E-01;2868;0.076691091;0.0;0.021967066;1001.6072;  4.0078914E-01;1216.2478;3;46.18158;0.0;6.8059678;0;0.12656675;  1.0000162E+04;  0.0000000E+00; -7.3190838E-01;  1.0000000E+04;  0.0000000E+00;  9.9925459E+03;-0.016659025;0.0;0.14322577;2086.7532
  1.1801144E+00;  9.9999998E-03;  2.2004904E-01;2869;0.086563513;0.0;0.024802959;1001.5382;  4.0078908E-01;1163.9929;3;53.762817;0.0;8.1924486;0;0.1493282;  9.9994395E+03;  0.0000000E+00; -6.0179526E-01;  1.0000000E+04;  0.0000000E+00;  9.9918926E+03;0.0075290417;0.0;0.14179917;2005.5834
  1.1801277E+00;  9.9999998E-03;  2.4005541E-01;2870;0.094396636;0.0;0.027047904;1001.4902;  4.0078908E-01;1127.7104;3;62.273083;0.0;10.475801;0;0.17075036;  9.9983955E+03;  0.0000000E+00; -4.4802139E-03;  1.0000000E+04;  0.0000000E+00;  9.9919785E+03;0.039155483;0.0;0.13159488;1555.0175
  1.2000753E+00;  9.9999998E-03;  1.6002582E-01;2890;0.059877805;0.0;0.015725156;1001.5145;  4.0073296E-01;1116.6284;3;36.413845;0.0;5.2263031;0;0.12522838;  9.9994092E+03;  0.0000000E+00; -6.1086327E-01;  1.0000000E+04;  0.0000000E+00;  9.9942451E+03;-0.0052037062;0.0;0.13043208;1384.4554
  1.2000893E+00;  9.9999998E-03;  1.8003419E-01;2891;0.069424562;0.0;0.019348798;1001.4626;  4.0073305E-01;1078.287;3;42.521465;0.0;6.3192797;0;0.14216858;  9.9991748E+03;  0.0000000E+00; -7.1615362E-01;  1.0000000E+04;  0.0000000E+00;  9.9934424E+03;0.0034416937;0.0;0.13872689;1605.0812
  1.2001034E+00;  9.9999998E-03;  2.0004259E-01;2892;0.07871788;0.0;0.022501631;1001.3924;  4.0073299E-01;1026.5009;3;49.747944;0.0;7.7016063;0;0.16962305;  9.9985566E+03;  0.0000000E+00; -6.0529900E-01;  1.0000000E+04;  0.0000000E+00;  9.9926592E+03;0.025526211;0.0;0.14409684;1564.5387
  1.2001157E+00;  9.9999998E-03;  2.2004944E-01;2893;0.086492173;0.0;0.024749359;1001.333;  4.0073302E-01;982.71631;3;57.401447;0.0;9.3686905;0;0.1916582;  9.9977705E+03;  0.0000000E+00; -8.4524266E-02;  1.0000000E+04;  0.0000000E+00;  9.9922598E+03;0.051511563;0.0;0.14014664;1253.0115
  1.2200837E+00;  9.9999998E-03;  1.6003008E-01;2913;0.063806117;0.0;0.017496122;1001.3334;  4.0069169E-01;952.30927;3;39.418674;0.0;6.0182223;0;0.16365708;  9.9979189E+03;  0.0000000E+00; -6.7422885E-01;  1.0000000E+04;  0.0000000E+00;  9.9941865E+03;0.030754117;0.0;0.13290296;1186.652
  1.2200954E+00;  9.9999998E-03;  1.8003745E-01;2914;0.071835108;0.0;0.020458639;1001.2703;  4.0069166E-01;907.25092;3;46.063171;0.0;7.2349243;0;0.1882486;  9.9974141E+03;  0.0000000E+00; -5.7089192E-01;  1.0000000E+04;  0.0000000E+00;  9.9934297E+03;0.04775963;0.0;0.14048897;1153.8446
  1.2201059E+00;  9.9999998E-03;  2.0004408E-01;2915;0.079117313;0.0;0.022943027;1001.2121;  4.0069172E-01;865.68695;3;53.382278;0.0;8.9489717;0;0.21419483;  9.9968408E+03;  0.0000000E+00; -8.2022503E-02;  1.0000000E+04;  0.0000000E+00;  9.9928418E+03;0.070553727;0.0;0.14364111;933.39056
  1.2201134E+00;  9.9999998E-03;  2.2004853E-01;2916;0.08363793;0.0;0.023691269;1001.204;  4.0069160E-01;859.88635;3;59.570892;0.0;9.8072748;0;0.19917342;  9.9966934E+03;  0.0000000E+00;  7.9118180E-01;  1.0000000E+04;  0.0000000E+00;  9.9928252E+03;0.072984241;0.0;0.12618917;1428.9594
  1.2400892E+00;  9.9999998E-03;  1.6003366E-01;2934;0.065765962;0.0;0.018671362;1001.1721;  4.0066180E-01;806.28455;3;42.774769;0.0;6.7090664;0;0.20504765;  9.9962910E+03;  0.0000000E+00; -4.4142285E-01;  1.0000000E+04;  0.0000000E+00;  9.9940752E+03;0.070444867;0.0;0.13460279;764.37164
  1.2400967E+00;  9.9999998E-03;  1.8003936E-01;2935;0.071409993;0.0;0.020567855;1001.1451;  4.0066189E-01;787.73914;3;49.096985;0.0;7.8772755;0;0.21088158;  9.9963271E+03;  0.0000000E+00; -3.8908923E-03;  1.0000000E+04;  0.0000000E+00;  9.9935020E+03;0.075381562;0.0;0.13550001;666.98779
  1.2600886E+00;  9.9999998E-03;  1.6003546E-01;2952;0.06432166;0.0;0.018449184;1001.1109;  4.0064079E-01;732.12439;3;45.29599;0.0;7.1067824;0;0.20145231;  9.9961680E+03;  0.0000000E+00;  1.7881529E-01;  1.0000000E+04;  0.0000000E+00;  9.9940371E+03;0.073761165;0.0;0.12769115;506.17432
