Pos.x;Pos.y;Pos.z;Idp;Vel.x;Vel.y;Vel.z;Rhop;Mass;Press;Type;Acec.x;Acec.y;Acec.z;CellOffSpring;GradVel;Qfxx;Qfxy;Qfxz;Qfyy;Qfyz;Qfzz;StrainDot.x;StrainDot.y;StrainDot.z;VonMises3D
 -2.2000000E-01;  9.9999998E-03; -3.8000000E-01;0;0.0;0.0;0.0;1000.0;  4.0000001E-01;0.0;0;0.0;0.0;0.0;0;0.0;  1.0000000E+04;  0.0000000E+00;  0.0000000E+00;  1.0000000E+04;  0.0000000E+00;  1.0000000E+04;0.0;0.0;0.0;0.0
 -2.2000000E-01;  9.9999998E-03; -3.6000001E-01;1;0.0;0.0;0.0;1000.0;  4.0000001E-01;0.0;0;0.0;0.0;0.0;0;0.0;  1.0000000E+04;  0.0000000E+00;  0.0000000E+00;  1.0000000E+04;  0.0000000E+00;  1.0000000E+04;0.0;0.0;0.0;0.0
 -2.0000000E-01;  9.9999998E-03; -4.0000001E-01;39;0.0;0.0;0.0;1000.0;  4.0000001E-01;0.0;0;0.0;0.0;0.0;0;0.0;  1.0000000E+04;  0.0000000E+00;  0.0000000E+00;  1.0000000E+04;  0.0000000E+00;  1.0000000E+04;0.0;0.0;0.0;0.0
 -2.0000000E-01;  9.9999998E-03; -3.8000000E-01;40;0.0;0.0;0.0;1000.0;  4.0000001E-01;0.0;0;0.0;0.0;0.0;0;0.0;  1.0000000E+04;  0.0000000E+00;  0.0000000E+00;  1.0000000E+04;  0.0000000E+00;  1.0000000E+04;0.0;0.0;0.0;0.0
 -2.0000000E-01;  9.9999998E-03; -3.6000001E-01;41;0.0;0.0;0.0;1000.0;  4.0000001E-01;0.0;0;0.0;0.0;0.0;0;0.0;  1.0000000E+04;  0.0000000E+00;  0.0000000E+00;  1.0000000E+04;  0.0000000E+00;  1.0000000E+04;0.0;0.0;0.0;0.0
 -1.8000001E-01;  9.9999998E-03; -4.0000001E-01;80;0.0;0.0;0.0;1000.0;  4.0000001E-01;0.0;0;0.0;0.0;0.0;0;0.0;  1.0000000E+04;  0.0000000E+00;  0.0000000E+00;  1.0000000E+04;  0.0000000E+00;  1.0000000E+04;0.0;0.0;0.0;0.0
 -1.8000001E-01;  9.9999998E-03; -3.8000000E-01;81;0.0;0.0;0.0;1000.0;  4.0000001E-01;0.0;0;0.0;0.0;0.0;0;0.0;  1.0000000E+04;  0.0000000E+00;  0.0000000E+00;  1.0000000E+04;  0.0000000E+00;  1.0000000E+04;0.0;0.0;0.0;0.0
 -1.8000001E-01;  9.9999998E-03; -3.6000001E-01;82;0.0;0.0;0.0;1000.0;  4.0000001E-01;0.0;0;0.0;0.0;0.0;0;0.0;  1.0000000E+04;  0.0000000E+00;  0.0000000E+00;  1.0000000E+04;  0.0000000E+00;  1.0000000E+04;0.0;0.0;0.0;0.0
 -1.6000000E-01;  9.9999998E-03; -4.0000001E-01;121;0.0;0.0;0.0;1000.0;  4.0000001E-01;0.0;0;0.0;0.0;0.0;0;0.0;  1.0000000E+04;  0.0000000E+00;  0.0000000E+00;  1.0000000E+04;  0.0000000E+00;  1.0000000E+04;0.0;0.0;0.0;0.0
 -1.6000000E-01;  9.9999998E-03; -3.8000000E-01;122;0.0;0.0;0.0;1000.0;  4.0000001E-01;0.0;0;0.0;0.0;0.0;0;0.0;  1.0000000E+04;  0.0000000E+00;  0.0000000E+00;  1.0000000E+04;  0.0000000E+00;  1.0000000E+04;0.0;0.0;0.0;0.0
 -1.6000000E-01;  9.9999998E-03; -3.6000001E-01;123;0.0;0.0;0.0;1000.0;  4.0000001E-01;0.0;0;0.0;0.0;0.0;0;0.0;  1.0000000E+04;  0.0000000E+00;  0.0000000E+00;  1.0000000E+04;  0.0000000E+00;  1.0000000E+04;0.0;0.0;0.0;0.0
 -1.4000000E-01;  9.9999998E-03; -4.0000001E-01;162;0.0;0.0;0.0;1000.0;  4.0000001E-01;0.0;0;0.0;0.0;0.0;0;0.0;  1.0000000E+04;  0.0000000E+00;  0.0000000E+00;  1.0000000E+04;  0.0000000E+00;  1.0000000E+04;0.0;0.0;0.0;0.0
 -1.4000000E-01;  9.9999998E-03; -3.8000000E-01;163;0.0;0.0;0.0;1000.0;  4.0000001E-01;0.0;0;0.0;0.0;0.0;0;0.0;  1.0000000E+04;  0.0000000E+00;  0.0000000E+00;  1.0000000E+04;  0.0000000E+00;  1.0000000E+04;0.0;0.0;0.0;0.0
 -1.4000000E-01;  9.9999998E-03; -3.6000001E-01;164;0.0;0.0;0.0;1000.0;  4.0000001E-01;0.0;0;0.0;0.0;0.0;0;-1.9177045e-07;  1.0000000E+04;  0.0000000E+00;  0.0000000E+00;  1.0000000E+04;  0.0000000E+00;  1.0000000E+04;-1.5144228e-07;0.0;-4.0328178e-08;0.00031779933
 -1.2000000E-01;  9.9999998E-03; -4.0000001E-01;203;0.0;0.0;0.0;1000.0;  4.0000001E-01;0.0;0;0.0;0.0;0.0;0;-5.8632157e-21;  1.0000000E+04;  0.0000000E+00;  0.0000000E+00;  1.0000000E+04;  0.0000000E+00;  1.0000000E+04;-4.1337426e-21;0.0;-1.7294731e-21;2.4670209e-18
 -1.2000000E-01;  9.9999998E-03; -3.8000000E-01;204;0.0;0.0;0.0;1000.0;  4.0000001E-01;0.0;0;0.0;0.0;0.0;0;-1.0139e-06;  1.0000000E+04;  0.0000000E+00;  0.0000000E+00;  1.0000000E+04;  0.0000000E+00;  1.0000000E+04;-7.1834302e-07;0.0;-2.9555702e-07;0.0023561122
 -1.2000000E-01;  9.9999998E-03; -3.6000001E-01;205;0.0;0.0;0.0;1000.0;  4.0000001E-01;0.0;0;0.0;0.0;0.0;0;-6.8459804e-06;  1.0000000E+04;  0.0000000E+00;  0.0000000E+00;  1.0000000E+04;  0.0000000E+00;  1.0000000E+04;-5.1770694e-06;0.0;-1.6689112e-06;0.013235464
 -1.0000000E-01;  9.9999998E-03; -4.0000001E-01;244;0.0;0.0;0.0;1000.0;  4.0000001E-01;0.0;0;0.0;0.0;0.0;0;-1.869478e-06;  1.0000000E+04;  0.0000000E+00;  0.0000000E+00;  1.0000000E+04;  0.0000000E+00;  1.0000000E+04;-1.2416378e-06;0.0;-6.2784011e-07;0.0050426777
 -1.0000000E-01;  9.9999998E-03; -3.8000000E-01;245;0.0;0.0;0.0;1000.0;  4.0000001E-01;0.0;0;0.0;0.0;0.0;0;-1.3579485e-05;  1.0000000E+04;  0.0000000E+00;  0.0000000E+00;  1.0000000E+04;  0.0000000E+00;  1.0000000E+04;-9.1274223e-06;0.0;-4.4520634e-06;0.03573351
 -1.0000000E-01;  9.9999998E-03; -3.6000001E-01;246;0.0;0.0;0.0;1000.0;  4.0000001E-01;0.0;0;0.0;0.0;0.0;0;-4.2746713e-05;  1.0000000E+04;  0.0000000E+00;  0.0000000E+00;  1.0000000E+04;  0.0000000E+00;  1.0000000E+04;-3.1104046e-05;0.0;-1.1642666e-05;0.093136877
 -7.9999998E-02;  9.9999998E-03; -4.0000001E-01;285;0.0;0.0;0.0;1000.0;  4.0000001E-01;0.0;0;0.0;0.0;0.0;0;-1.5789377e-05;  1.0000000E+04;  0.0000000E+00;  0.0000000E+00;  1.0000000E+04;  0.0000000E+00;  1.0000000E+04;-9.912691e-06;0.0;-5.8766873e-06;0.047512729
 -7.9999998E-02;  9.9999998E-03; -3.8000000E-01;286;0.0;0.0;0.0;1000.0;  4.0000001E-01;0.0;0;0.0;0.0;0.0;0;-5.9928767e-05;  1.0000000E+04;  0.0000000E+00;  0.0000000E+00;  1.0000000E+04;  0.0000000E+00;  1.0000000E+04;-3.8504168e-05;0.0;-2.1424599e-05;0.17338425
 -7.9999998E-02;  9.9999998E-03; -3.6000001E-01;287;0.0;0.0;0.0;1000.0001;  4.0000001E-01;0.098762624;0;0.0;0.0;0.0;0;-0.00014400018;  1.0000000E+04;  0.0000000E+00;  0.0000000E+00;  1.0000000E+04;  0.0000000E+00;  1.0000000E+04;-0.00010123465;0.0;-4.2765532e-05;0.34506139
 -5.9999999E-02;  9.9999998E-03; -4.0000001E-01;326;0.0;0.0;0.0;1000.0;  4.0000001E-01;0.0;0;0.0;0.0;0.0;0;-5.6520184e-05;  1.0000000E+04;  0.0000000E+00;  0.0000000E+00;  1.0000000E+04;  0.0000000E+00;  1.0000000E+04;-3.3674081e-05;0.0;-2.2846103e-05;0.18632007
 -5.9999999E-02;  9.9999998E-03; -3.8000000E-01;327;0.0;0.0;0.0;1000.0001;  4.0000001E-01;0.098762624;0;0.0;0.0;0.0;0;-0.00016524259;  1.0000000E+04;  0.0000000E+00;  0.0000000E+00;  1.0000000E+04;  0.0000000E+00;  1.0000000E+04;-0.00010152309;0.0;-6.371949e-05;0.52062786
 -5.9999999E-02;  9.9999998E-03; -3.6000001E-01;328;0.0;0.0;0.0;1000.0003;  4.0000001E-01;0.29628786;0;0.0;0.0;0.0;0;-0.00034737794;  1.0000000E+04;  0.0000000E+00;  0.0000000E+00;  1.0000000E+04;  0.0000000E+00;  1.0000000E+04;-0.00023584283;0.0;-0.0001115351;0.90945691
 -3.9999999E-02;  9.9999998E-03; -4.0000001E-01;367;0.0;0.0;0.0;1000.0001;  4.0000001E-01;0.098762624;0;0.0;0.0;0.0;0;-0.0001345304;  1.0000000E+04;  0.0000000E+00;  0.0000000E+00;  1.0000000E+04;  0.0000000E+00;  1.0000000E+04;-7.5751675e-05;0.0;-5.8778725e-05;0.48450693
 -3.9999999E-02;  9.9999998E-03; -3.8000000E-01;368;0.0;0.0;0.0;1000.0002;  4.0000001E-01;0.19752525;0;0.0;0.0;0.0;0;-0.00034469774;  1.0000000E+04;  0.0000000E+00;  0.0000000E+00;  1.0000000E+04;  0.0000000E+00;  1.0000000E+04;-0.00020169296;0.0;-0.00014300477;1.1819344
 -3.9999999E-02;  9.9999998E-03; -3.6000001E-01;369;0.0;0.0;0.0;1000.0006;  4.0000001E-01;0.49381313;0;0.0;0.0;0.0;0;-0.00067184167;  1.0000000E+04;  0.0000000E+00;  0.0000000E+00;  1.0000000E+04;  0.0000000E+00;  1.0000000E+04;-0.00043885165;0.0;-0.00023299002;1.9234365
 -2.0000000E-02;  9.9999998E-03; -4.0000001E-01;408;0.0;0.0;0.0;1000.0002;  4.0000001E-01;0.19752525;0;0.0;0.0;0.0;0;-0.00024948333;  1.0000000E+04;  0.0000000E+00;  0.0000000E+00;  1.0000000E+04;  0.0000000E+00;  1.0000000E+04;-0.00013199997;0.0;-0.00011748337;0.98128057
 -2.0000000E-02;  9.9999998E-03; -3.8000000E-01;409;0.0;0.0;0.0;1000.0006;  4.0000001E-01;0.49381313;0;0.0;0.0;0.0;0;-0.000594721;  1.0000000E+04;  0.0000000E+00;  0.0000000E+00;  1.0000000E+04;  0.0000000E+00;  1.0000000E+04;-0.00032997242;0.0;-0.00026474858;2.2189467
 -2.0000000E-02;  9.9999998E-03; -3.6000001E-01;410;0.0;0.0;0.0;1000.0011;  4.0000001E-01;0.88886362;0;0.0;0.0;0.0;0;-0.0011077509;  1.0000000E+04;  0.0000000E+00;  0.0000000E+00;  1.0000000E+04;  0.0000000E+00;  1.0000000E+04;-0.0006937288;0.0;-0.00041402213;3.4687803
  0.0000000E+00;  9.9999998E-03; -4.0000001E-01;449;0.0;0.0;0.0;1000.0004;  4.0000001E-01;0.29628786;0;0.0;0.0;0.0;0;-0.00039020824;  1.0000000E+04;  0.0000000E+00;  0.0000000E+00;  1.0000000E+04;  0.0000000E+00;  1.0000000E+04;-0.00019336292;0.0;-0.00019684531;1.671499
  0.0000000E+00;  9.9999998E-03; -3.8000000E-01;450;0.0;0.0;0.0;1000.0009;  4.0000001E-01;0.69133836;0;0.0;0.0;0.0;0;-0.00089399132;  1.0000000E+04;  0.0000000E+00;  0.0000000E+00;  1.0000000E+04;  0.0000000E+00;  1.0000000E+04;-0.00046970553;0.0;-0.00042428583;3.6179504
  0.0000000E+00;  9.9999998E-03; -3.6000001E-01;451;0.0;0.0;0.0;1000.0016;  4.0000001E-01;1.2839141;0;0.0;0.0;0.0;0;-0.001619098;  1.0000000E+04;  0.0000000E+00;  0.0000000E+00;  1.0000000E+04;  0.0000000E+00;  1.0000000E+04;-0.0009713805;0.0;-0.00064771745;5.5251617
  2.0000000E-02;  9.9999998E-03; -4.0000001E-01;461;0.0;0.0;0.0;1000.0005;  4.0000001E-01;0.3950505;0;0.0;0.0;0.0;0;-0.00054150703;  1.0000000E+04;  0.0000000E+00;  0.0000000E+00;  1.0000000E+04;  0.0000000E+00;  1.0000000E+04;-0.00025219287;0.0;-0.00028931414;2.5080783
  2.0000000E-02;  9.9999998E-03; -3.8000000E-01;462;0.0;0.0;0.0;1000.0012;  4.0000001E-01;0.98762625;0;0.0;0.0;0.0;0;-0.0012154009;  1.0000000E+04;  0.0000000E+00;  0.0000000E+00;  1.0000000E+04;  0.0000000E+00;  1.0000000E+04;-0.00060781901;0.0;-0.00060758181;5.2933373
  2.0000000E-02;  9.9999998E-03; -3.6000001E-01;463;0.0;0.0;0.0;1000.0021;  4.0000001E-01;1.7777272;0;0.0;0.0;0.0;0;-0.002163009;  1.0000000E+04;  0.0000000E+00;  0.0000000E+00;  1.0000000E+04;  0.0000000E+00;  1.0000000E+04;-0.0012495525;0.0;-0.00091345661;7.966898
  3.9999999E-02;  9.9999998E-03; -4.0000001E-01;471;0.0;0.0;0.0;1000.0007;  4.0000001E-01;0.59257573;0;0.0;0.0;0.0;0;-0.00069388328;  1.0000000E+04;  0.0000000E+00;  0.0000000E+00;  1.0000000E+04;  0.0000000E+00;  1.0000000E+04;-0.00030810456;0.0;-0.00038577869;3.4316249
  3.9999999E-02;  9.9999998E-03; -3.8000000E-01;472;0.0;0.0;0.0;1000.0016;  4.0000001E-01;1.2839141;0;0.0;0.0;0.0;0;-0.0015434215;  1.0000000E+04;  0.0000000E+00;  0.0000000E+00;  1.0000000E+04;  0.0000000E+00;  1.0000000E+04;-0.00074533903;0.0;-0.00079808244;7.1400833
  3.9999999E-02;  9.9999998E-03; -3.6000001E-01;473;0.0;0.0;0.0;1000.0028;  4.0000001E-01;2.3703029;0;0.0;0.0;0.0;0;-0.0027190091;  1.0000000E+04;  0.0000000E+00;  0.0000000E+00;  1.0000000E+04;  0.0000000E+00;  1.0000000E+04;-0.00153225;0.0;-0.0011867591;10.638005
  5.9999999E-02;  9.9999998E-03; -4.0000001E-01;481;0.0;0.0;0.0;1000.0009;  4.0000001E-01;0.69133836;0;0.0;0.0;0.0;0;-0.00085080357;  1.0000000E+04;  0.0000000E+00;  0.0000000E+00;  1.0000000E+04;  0.0000000E+00;  1.0000000E+04;-0.00037022459;0.0;-0.00048057895;4.4104829
  5.9999999E-02;  9.9999998E-03; -3.8000000E-01;482;0.0;0.0;0.0;1000.002;  4.0000001E-01;1.6789646;0;0.0;0.0;0.0;0;-0.0018870202;  1.0000000E+04;  0.0000000E+00;  0.0000000E+00;  1.0000000E+04;  0.0000000E+00;  1.0000000E+04;-0.00090126449;0.0;-0.0009857557;9.1067419
  5.9999999E-02;  9.9999998E-03; -3.6000001E-01;483;0.0;0.0;0.0;1000.0035;  4.0000001E-01;2.9628787;0;0.0;0.0;0.0;0;-0.0033082953;  1.0000000E+04;  0.0000000E+00;  0.0000000E+00;  1.0000000E+04;  0.0000000E+00;  1.0000000E+04;-0.0018546978;0.0;-0.0014535976;13.468216
  7.9999998E-02;  9.9999998E-03; -4.0000001E-01;491;0.0;0.0;0.0;1000.0011;  4.0000001E-01;0.88886362;0;0.0;0.0;0.0;0;-0.0010315733;  1.0000000E+04;  0.0000000E+00;  0.0000000E+00;  1.0000000E+04;  0.0000000E+00;  1.0000000E+04;-0.0004571797;0.0;-0.00057439361;5.4694524
  7.9999998E-02;  9.9999998E-03; -3.8000000E-01;492;0.0;0.0;0.0;1000.0025;  4.0000001E-01;2.0740151;0;0.0;0.0;0.0;0;-0.002287793;  1.0000000E+04;  0.0000000E+00;  0.0000000E+00;  1.0000000E+04;  0.0000000E+00;  1.0000000E+04;-0.0011155045;0.0;-0.0011722884;11.242504
  7.9999998E-02;  9.9999998E-03; -3.6000001E-01;493;0.0;0.0;0.0;1000.0045;  4.0000001E-01;3.654217;0;0.0;0.0;0.0;0;-0.0040085716;  1.0000000E+04;  0.0000000E+00;  0.0000000E+00;  1.0000000E+04;  0.0000000E+00;  1.0000000E+04;-0.0022902952;0.0;-0.0017182765;16.567692
  1.0000000E-01;  9.9999998E-03; -4.0000001E-01;501;0.0;0.0;0.0;1000.0015;  4.0000001E-01;1.2839141;0;0.0;0.0;0.0;0;-0.0012742484;  1.0000000E+04;  0.0000000E+00;  0.0000000E+00;  1.0000000E+04;  0.0000000E+00;  1.0000000E+04;-0.00059902074;0.0;-0.00067522761;6.9395428
  1.0000000E-01;  9.9999998E-03; -3.8000000E-01;502;0.0;0.0;0.0;1000.0032;  4.0000001E-01;2.6665909;0;0.0;0.0;0.0;0;-0.0028272865;  1.0000000E+04;  0.0000000E+00;  0.0000000E+00;  1.0000000E+04;  0.0000000E+00;  1.0000000E+04;-0.001453363;0.0;-0.0013739235;13.736934
  1.0000000E-01;  9.9999998E-03; -3.6000001E-01;503;0.0;0.0;0.0;1000.0056;  4.0000001E-01;4.6418433;0;0.0;0.0;0.0;0;-0.0049650259;  1.0000000E+04;  0.0000000E+00;  0.0000000E+00;  1.0000000E+04;  0.0000000E+00;  1.0000000E+04;-0.0029579776;0.0;-0.0020070486;20.413631
  1.2000000E-01;  9.9999998E-03; -4.0000001E-01;511;0.0;0.0;0.0;1000.002;  4.0000001E-01;1.580202;0;0.0;0.0;0.0;0;-0.0016442256;  1.0000000E+04;  0.0000000E+00;  0.0000000E+00;  1.0000000E+04;  0.0000000E+00;  1.0000000E+04;-0.00084173336;0.0;-0.00080249214;12.279964
  1.2000000E-01;  9.9999998E-03; -3.8000000E-01;512;0.0;0.0;0.0;1000.0043;  4.0000001E-01;3.5554545;0;0.0;0.0;0.0;0;-0.003642445;  1.0000000E+04;  0.0000000E+00;  0.0000000E+00;  1.0000000E+04;  0.0000000E+00;  1.0000000E+04;-0.0020119285;0.0;-0.0016305165;17.989767
  1.2000000E-01;  9.9999998E-03; -3.6000001E-01;513;0.0;0.0;0.0;1000.0075;  4.0000001E-01;6.2220454;0;0.0;0.0;0.0;0;-0.0064092744;  1.0000000E+04;  0.0000000E+00;  0.0000000E+00;  1.0000000E+04;  0.0000000E+00;  1.0000000E+04;-0.0040298072;0.0;-0.0023794672;26.263929
  1.4000000E-01;  9.9999998E-03; -4.0000001E-01;521;0.0;0.0;0.0;1000.0026;  4.0000001E-01;2.1727777;0;0.0;0.0;0.0;0;-0.0022633381;  1.0000000E+04;  0.0000000E+00;  0.0000000E+00;  1.0000000E+04;  0.0000000E+00;  1.0000000E+04;-0.001258489;0.0;-0.0010048491;34.381622
  1.4000000E-01;  9.9999998E-03; -3.8000000E-01;522;0.0;0.0;0.0;1000.006;  4.0000001E-01;5.0368938;0;0.0;0.0;0.0;0;-0.0049604233;  1.0000000E+04;  0.0000000E+00;  0.0000000E+00;  1.0000000E+04;  0.0000000E+00;  1.0000000E+04;-0.0029329737;0.0;-0.0020274499;33.559093
  1.4000000E-01;  9.9999998E-03; -3.6000001E-01;523;0.0;0.0;0.0;1000.0105;  4.0000001E-01;8.6911106;0;0.0;0.0;0.0;0;-0.0086906888;  1.0000000E+04;  0.0000000E+00;  0.0000000E+00;  1.0000000E+04;  0.0000000E+00;  1.0000000E+04;-0.0057411944;0.0;-0.0029494946;36.324921
  1.6000000E-01;  9.9999998E-03; -4.0000001E-01;531;0.0;0.0;0.0;1000.0041;  4.0000001E-01;3.3579292;0;0.0;0.0;0.0;0;-0.0033513578;  1.0000000E+04;  0.0000000E+00;  0.0000000E+00;  1.0000000E+04;  0.0000000E+00;  1.0000000E+04;-0.0019521951;0.0;-0.0013991628;99.256264
  1.6000000E-01;  9.9999998E-03; -3.8000000E-01;532;0.0;0.0;0.0;1000.0089;  4.0000001E-01;7.308434;0;0.0;0.0;0.0;0;-0.0070989258;  1.0000000E+04;  0.0000000E+00;  0.0000000E+00;  1.0000000E+04;  0.0000000E+00;  1.0000000E+04;-0.0043684579;0.0;-0.0027304678;85.724068
  1.6000000E-01;  9.9999998E-03; -3.6000001E-01;533;0.0;0.0;0.0;1000.015;  4.0000001E-01;12.345328;0;0.0;0.0;0.0;0;-0.012221713;  1.0000000E+04;  0.0000000E+00;  0.0000000E+00;  1.0000000E+04;  0.0000000E+00;  1.0000000E+04;-0.0083078118;0.0;-0.0039139008;51.942268
  1.8000001E-01;  9.9999998E-03; -4.0000001E-01;541;0.0;0.0;0.0;1000.0065;  4.0000001E-01;5.3331819;0;0.0;0.0;0.0;0;-0.0052440856;  1.0000000E+04;  0.0000000E+00;  0.0000000E+00;  1.0000000E+04;  0.0000000E+00;  1.0000000E+04;-0.002996844;0.0;-0.0022472413;251.20172
  1.8000001E-01;  9.9999998E-03; -3.8000000E-01;542;0.0;0.0;0.0;1000.013;  4.0000001E-01;10.765126;0;0.0;0.0;0.0;0;-0.010343937;  1.0000000E+04;  0.0000000E+00;  0.0000000E+00;  1.0000000E+04;  0.0000000E+00;  1.0000000E+04;-0.00630575;0.0;-0.0040381872;207.03287
  1.8000001E-01;  9.9999998E-03; -3.6000001E-01;543;0.0;0.0;0.0;1000.0216;  4.0000001E-01;17.876036;0;0.0;0.0;0.0;0;-0.017213132;  1.0000000E+04;  0.0000000E+00;  0.0000000E+00;  1.0000000E+04;  0.0000000E+00;  1.0000000E+04;-0.011626573;0.0;-0.005586558;70.645805
  2.0000000E-01;  9.9999998E-03; -3.8000000E-01;551;0.0;0.0;0.0;1000.0193;  4.0000001E-01;15.999545;0;0.0;0.0;0.0;0;-0.014890815;  1.0000000E+04;  0.0000000E+00;  0.0000000E+00;  1.0000000E+04;  0.0000000E+00;  1.0000000E+04;-0.0084665865;0.0;-0.0064242287;412.46298
  2.0000000E-01;  9.9999998E-03; -3.6000001E-01;552;0.0;0.0;0.0;1000.0303;  4.0000001E-01;25.085707;0;0.0;0.0;0.0;0;-0.023587929;  1.0000000E+04;  0.0000000E+00;  0.0000000E+00;  1.0000000E+04;  0.0000000E+00;  1.0000000E+04;-0.015172819;0.0;-0.0084151104;99.209312
 -2.2000000E-01;  9.9999998E-03; -3.4000000E-01;2;0.0;0.0;0.0;1000.0;  4.0000001E-01;0.0;0;0.0;0.0;0.0;0;0.0;  1.0000000E+04;  0.0000000E+00;  0.0000000E+00;  1.0000000E+04;  0.0000000E+00;  1.0000000E+04;0.0;0.0;0.0;0.0
 -2.2000000E-01;  9.9999998E-03; -3.1999999E-01;3;0.0;0.0;0.0;1000.0;  4.0000001E-01;0.0;0;0.0;0.0;0.0;0;0.0;  1.0000000E+04;  0.0000000E+00;  0.0000000E+00;  1.0000000E+04;  0.0000000E+00;  1.0000000E+04;0.0;0.0;0.0;0.0
 -2.2000000E-01;  9.9999998E-03; -3.0000001E-01;4;0.0;0.0;0.0;1000.0;  4.0000001E-01;0.0;0;0.0;0.0;0.0;0;0.0;  1.0000000E+04;  0.0000000E+00;  0.0000000E+00;  1.0000000E+04;  0.0000000E+00;  1.0000000E+04;0.0;0.0;0.0;0.0
 -2.2000000E-01;  9.9999998E-03; -2.8000000E-01;5;0.0;0.0;0.0;1000.0;  4.0000001E-01;0.0;0;0.0;0.0;0.0;0;0.0;  1.0000000E+04;  0.0000000E+00;  0.0000000E+00;  1.0000000E+04;  0.0000000E+00;  1.0000000E+04;0.0;0.0;0.0;0.0
 -2.2000000E-01;  9.9999998E-03; -2.5999999E-01;6;0.0;0.0;0.0;1000.0;  4.0000001E-01;0.0;0;0.0;0.0;0.0;0;0.0;  1.0000000E+04;  0.0000000E+00;  0.0000000E+00;  1.0000000E+04;  0.0000000E+00;  1.0000000E+04;0.0;0.0;0.0;0.0
 -2.2000000E-01;  9.9999998E-03; -2.3999999E-01;7;0.0;0.0;0.0;1000.0;  4.0000001E-01;0.0;0;0.0;0.0;0.0;0;0.0;  1.0000000E+04;  0.0000000E+00;  0.0000000E+00;  1.0000000E+04;  0.0000000E+00;  1.0000000E+04;0.0;0.0;0.0;0.0
 -2.2000000E-01;  9.9999998E-03; -2.2000000E-01;8;0.0;0.0;0.0;1000.0;  4.0000001E-01;0.0;0;0.0;0.0;0.0;0;0.0;  1.0000000E+04;  0.0000000E+00;  0.0000000E+00;  1.0000000E+04;  0.0000000E+00;  1.0000000E+04;0.0;0.0;0.0;0.0
 -2.2000000E-01;  9.9999998E-03; -2.0000000E-01;9;0.0;0.0;0.0;1000.0;  4.0000001E-01;0.0;0;0.0;0.0;0.0;0;0.0;  1.0000000E+04;  0.0000000E+00;  0.0000000E+00;  1.0000000E+04;  0.0000000E+00;  1.0000000E+04;0.0;0.0;0.0;0.0
 -2.0000000E-01;  9.9999998E-03; -3.4000000E-01;42;0.0;0.0;0.0;1000.0;  4.0000001E-01;0.0;0;0.0;0.0;0.0;0;0.0;  1.0000000E+04;  0.0000000E+00;  0.0000000E+00;  1.0000000E+04;  0.0000000E+00;  1.0000000E+04;0.0;0.0;0.0;0.0
 -2.0000000E-01;  9.9999998E-03; -3.1999999E-01;43;0.0;0.0;0.0;1000.0;  4.0000001E-01;0.0;0;0.0;0.0;0.0;0;0.0;  1.0000000E+04;  0.0000000E+00;  0.0000000E+00;  1.0000000E+04;  0.0000000E+00;  1.0000000E+04;0.0;0.0;0.0;0.0
 -2.0000000E-01;  9.9999998E-03; -3.0000001E-01;44;0.0;0.0;0.0;1000.0;  4.0000001E-01;0.0;0;0.0;0.0;0.0;0;0.0;  1.0000000E+04;  0.0000000E+00;  0.0000000E+00;  1.0000000E+04;  0.0000000E+00;  1.0000000E+04;0.0;0.0;0.0;0.0
 -2.0000000E-01;  9.9999998E-03; -2.8000000E-01;45;0.0;0.0;0.0;1000.0;  4.0000001E-01;0.0;0;0.0;0.0;0.0;0;0.0;  1.0000000E+04;  0.0000000E+00;  0.0000000E+00;  1.0000000E+04;  0.0000000E+00;  1.0000000E+04;0.0;0.0;0.0;0.0
 -2.0000000E-01;  9.9999998E-03; -2.5999999E-01;46;0.0;0.0;0.0;1000.0;  4.0000001E-01;0.0;0;0.0;0.0;0.0;0;0.0;  1.0000000E+04;  0.0000000E+00;  0.0000000E+00;  1.0000000E+04;  0.0000000E+00;  1.0000000E+04;0.0;0.0;0.0;0.0
 -2.0000000E-01;  9.9999998E-03; -2.3999999E-01;47;0.0;0.0;0.0;1000.0;  4.0000001E-01;0.0;0;0.0;0.0;0.0;0;0.0;  1.0000000E+04;  0.0000000E+00;  0.0000000E+00;  1.0000000E+04;  0.0000000E+00;  1.0000000E+04;0.0;0.0;0.0;0.0
 -2.0000000E-01;  9.9999998E-03; -2.2000000E-01;48;0.0;0.0;0.0;1000.0;  4.0000001E-01;0.0;0;0.0;0.0;0.0;0;0.0;  1.0000000E+04;  0.0000000E+00;  0.0000000E+00;  1.0000000E+04;  0.0000000E+00;  1.0000000E+04;0.0;0.0;0.0;0.0
 -2.0000000E-01;  9.9999998E-03; -2.0000000E-01;49;0.0;0.0;0.0;1000.0;  4.0000001E-01;0.0;0;0.0;0.0;0.0;0;0.0;  1.0000000E+04;  0.0000000E+00;  0.0000000E+00;  1.0000000E+04;  0.0000000E+00;  1.0000000E+04;0.0;0.0;0.0;0.0
 -1.8000001E-01;  9.9999998E-03; -3.4000000E-01;83;0.0;0.0;0.0;1000.0;  4.0000001E-01;0.0;0;0.0;0.0;0.0;0;0.0;  1.0000000E+04;  0.0000000E+00;  0.0000000E+00;  1.0000000E+04;  0.0000000E+00;  1.0000000E+04;0.0;0.0;0.0;0.0
 -1.8000001E-01;  9.9999998E-03; -3.1999999E-01;84;0.0;0.0;0.0;1000.0;  4.0000001E-01;0.0;0;0.0;0.0;0.0;0;0.0;  1.0000000E+04;  0.0000000E+00;  0.0000000E+00;  1.0000000E+04;  0.0000000E+00;  1.0000000E+04;0.0;0.0;0.0;0.0
 -1.8000001E-01;  9.9999998E-03; -3.0000001E-01;85;0.0;0.0;0.0;1000.0;  4.0000001E-01;0.0;0;0.0;0.0;0.0;0;0.0;  1.0000000E+04;  0.0000000E+00;  0.0000000E+00;  1.0000000E+04;  0.0000000E+00;  1.0000000E+04;0.0;0.0;0.0;0.0
 -1.8000001E-01;  9.9999998E-03; -2.8000000E-01;86;0.0;0.0;0.0;1000.0;  4.0000001E-01;0.0;0;0.0;0.0;0.0;0;0.0;  1.0000000E+04;  0.0000000E+00;  0.0000000E+00;  1.0000000E+04;  0.0000000E+00;  1.0000000E+04;0.0;0.0;0.0;0.0
 -1.8000001E-01;  9.9999998E-03; -2.5999999E-01;87;0.0;0.0;0.0;1000.0;  4.0000001E-01;0.0;0;0.0;0.0;0.0;0;0.0;  1.0000000E+04;  0.0000000E+00;  0.0000000E+00;  1.0000000E+04;  0.0000000E+00;  1.0000000E+04;0.0;0.0;0.0;0.0
 -1.8000001E-01;  9.9999998E-03; -2.3999999E-01;88;0.0;0.0;0.0;1000.0;  4.0000001E-01;0.0;0;0.0;0.0;0.0;0;0.0;  1.0000000E+04;  0.0000000E+00;  0.0000000E+00;  1.0000000E+04;  0.0000000E+00;  1.0000000E+04;0.0;0.0;0.0;0.0
 -1.8000001E-01;  9.9999998E-03; -2.2000000E-01;89;0.0;0.0;0.0;1000.0;  4.0000001E-01;0.0;0;0.0;0.0;0.0;0;0.0;  1.0000000E+04;  0.0000000E+00;  0.0000000E+00;  1.0000000E+04;  0.0000000E+00;  1.0000000E+04;0.0;0.0;0.0;0.0
 -1.8000001E-01;  9.9999998E-03; -2.0000000E-01;90;0.0;0.0;0.0;1000.0;  4.0000001E-01;0.0;0;0.0;0.0;0.0;0;0.0;  1.0000000E+04;  0.0000000E+00;  0.0000000E+00;  1.0000000E+04;  0.0000000E+00;  1.0000000E+04;0.0;0.0;0.0;0.0
 -1.6000000E-01;  9.9999998E-03; -3.4000000E-01;124;0.0;0.0;0.0;1000.0;  4.0000001E-01;0.0;0;0.0;0.0;0.0;0;0.0;  1.0000000E+04;  0.0000000E+00;  0.0000000E+00;  1.0000000E+04;  0.0000000E+00;  1.0000000E+04;0.0;0.0;0.0;0.0
 -1.6000000E-01;  9.9999998E-03; -3.1999999E-01;125;0.0;0.0;0.0;1000.0;  4.0000001E-01;0.0;0;0.0;0.0;0.0;0;-3.4364483e-08;  1.0000000E+04;  0.0000000E+00;  0.0000000E+00;  1.0000000E+04;  0.0000000E+00;  1.0000000E+04;-3.1630716e-08;0.0;-2.7337663e-09;2.0190282e-05
 -1.6000000E-01;  9.9999998E-03; -3.0000001E-01;126;0.0;0.0;0.0;1000.0;  4.0000001E-01;0.0;0;0.0;0.0;0.0;0;-2.1831822e-07;  1.0000000E+04;  0.0000000E+00;  0.0000000E+00;  1.0000000E+04;  0.0000000E+00;  1.0000000E+04;-2.0908844e-07;0.0;-9.2297796e-09;6.2839048e-05
 -1.6000000E-01;  9.9999998E-03; -2.8000000E-01;127;0.0;0.0;0.0;1000.0;  4.0000001E-01;0.0;0;0.0;0.0;0.0;0;-5.1459739e-07;  1.0000000E+04;  0.0000000E+00;  0.0000000E+00;  1.0000000E+04;  0.0000000E+00;  1.0000000E+04;-5.0629285e-07;0.0;-8.3045393e-09;3.5619832e-05
 -1.6000000E-01;  9.9999998E-03; -2.5999999E-01;128;0.0;0.0;0.0;1000.0;  4.0000001E-01;0.0;0;0.0;0.0;0.0;0;-7.6530483e-07;  1.0000000E+04;  0.0000000E+00;  0.0000000E+00;  1.0000000E+04;  0.0000000E+00;  1.0000000E+04;-7.6446054e-07;0.0;-8.4428109e-10;4.5352554e-05
 -1.6000000E-01;  9.9999998E-03; -2.3999999E-01;129;0.0;0.0;0.0;1000.0;  4.0000001E-01;0.0;0;0.0;0.0;0.0;0;-9.0119255e-07;  1.0000000E+04;  0.0000000E+00;  0.0000000E+00;  1.0000000E+04;  0.0000000E+00;  1.0000000E+04;-9.0346794e-07;0.0;2.275365e-09;7.9795333e-05
 -1.6000000E-01;  9.9999998E-03; -2.2000000E-01;130;0.0;0.0;0.0;1000.0;  4.0000001E-01;0.0;0;0.0;0.0;0.0;0;-9.9295812e-07;  1.0000000E+04;  0.0000000E+00;  0.0000000E+00;  1.0000000E+04;  0.0000000E+00;  1.0000000E+04;-9.9562749e-07;0.0;2.6693177e-09;8.9255082e-05
 -1.6000000E-01;  9.9999998E-03; -2.0000000E-01;131;0.0;0.0;0.0;1000.0;  4.0000001E-01;0.0;0;0.0;0.0;0.0;0;-1.0622638e-06;  1.0000000E+04;  0.0000000E+00;  0.0000000E+00;  1.0000000E+04;  0.0000000E+00;  1.0000000E+04;-1.064994e-06;0.0;2.7301525e-09;9.471528e-05
 -1.4000000E-01;  9.9999998E-03; -3.4000000E-01;165;0.0;0.0;0.0;1000.0;  4.0000001E-01;0.0;0;0.0;0.0;0.0;0;-1.650684e-06;  1.0000000E+04;  0.0000000E+00;  0.0000000E+00;  1.0000000E+04;  0.0000000E+00;  1.0000000E+04;-1.3953871e-06;0.0;-2.5529681e-07;0.0019823404
 -1.4000000E-01;  9.9999998E-03; -3.1999999E-01;166;0.0;0.0;0.0;1000.0;  4.0000001E-01;0.0;0;0.0;0.0;0.0;0;-5.3542753e-06;  1.0000000E+04;  0.0000000E+00;  0.0000000E+00;  1.0000000E+04;  0.0000000E+00;  1.0000000E+04;-4.8023626e-06;0.0;-5.5191288e-07;0.0042054118
 -1.4000000E-01;  9.9999998E-03; -3.0000001E-01;167;0.0;0.0;0.0;1000.0;  4.0000001E-01;0.0;0;0.0;0.0;0.0;0;-1.1374282e-05;  1.0000000E+04;  0.0000000E+00;  0.0000000E+00;  1.0000000E+04;  0.0000000E+00;  1.0000000E+04;-1.066141e-05;0.0;-7.1287201e-07;0.0051124217
 -1.4000000E-01;  9.9999998E-03; -2.8000000E-01;168;0.0;0.0;0.0;1000.0;  4.0000001E-01;0.0;0;0.0;0.0;0.0;0;-1.8746199e-05;  1.0000000E+04;  0.0000000E+00;  0.0000000E+00;  1.0000000E+04;  0.0000000E+00;  1.0000000E+04;-1.8133242e-05;0.0;-6.1295782e-07;0.0037687626
 -1.4000000E-01;  9.9999998E-03; -2.5999999E-01;169;0.0;0.0;0.0;1000.0;  4.0000001E-01;0.0;0;0.0;0.0;0.0;0;-2.5941798e-05;  1.0000000E+04;  0.0000000E+00;  0.0000000E+00;  1.0000000E+04;  0.0000000E+00;  1.0000000E+04;-2.5650274e-05;0.0;-2.9152383e-07;0.00066824484
 -1.4000000E-01;  9.9999998E-03; -2.3999999E-01;170;0.0;0.0;0.0;1000.0;  4.0000001E-01;0.0;0;0.0;0.0;0.0;0;-3.1735868e-05;  1.0000000E+04;  0.0000000E+00;  0.0000000E+00;  1.0000000E+04;  0.0000000E+00;  1.0000000E+04;-3.1808657e-05;0.0;7.2790279e-08;0.0026792441
 -1.4000000E-01;  9.9999998E-03; -2.2000000E-01;171;0.0;0.0;0.0;1000.0;  4.0000001E-01;0.0;0;0.0;0.0;0.0;0;-3.5757901e-05;  1.0000000E+04;  0.0000000E+00;  0.0000000E+00;  1.0000000E+04;  0.0000000E+00;  1.0000000E+04;-3.604337e-05;0.0;2.8546845e-07;0.0046825493
 -1.4000000E-01;  9.9999998E-03; -2.0000000E-01;172;0.0;0.0;0.0;1000.0;  4.0000001E-01;0.0;0;0.0;0.0;0.0;0;-3.8447335e-05;  1.0000000E+04;  0.0000000E+00;  0.0000000E+00;  1.0000000E+04;  0.0000000E+00;  1.0000000E+04;-3.8772967e-05;0.0;3.2563133e-07;0.0052065956
 -1.2000000E-01;  9.9999998E-03; -3.4000000E-01;206;0.0;0.0;0.0;1000.0;  4.0000001E-01;0.0;0;0.0;0.0;0.0;0;-2.0464868e-05;  1.0000000E+04;  0.0000000E+00;  0.0000000E+00;  1.0000000E+04;  0.0000000E+00;  1.0000000E+04;-1.6800421e-05;0.0;-3.6644465e-06;0.028818235
 -1.2000000E-01;  9.9999998E-03; -3.1999999E-01;207;0.0;0.0;0.0;1000.0;  4.0000001E-01;0.0;0;0.0;0.0;0.0;0;-4.3224609e-05;  1.0000000E+04;  0.0000000E+00;  0.0000000E+00;  1.0000000E+04;  0.0000000E+00;  1.0000000E+04;-3.801709e-05;0.0;-5.2075202e-06;0.039997596
 -1.2000000E-01;  9.9999998E-03; -3.0000001E-01;208;0.0;0.0;0.0;1000.0;  4.0000001E-01;0.0;0;0.0;0.0;0.0;0;-7.4216761e-05;  1.0000000E+04;  0.0000000E+00;  0.0000000E+00;  1.0000000E+04;  0.0000000E+00;  1.0000000E+04;-6.866199e-05;0.0;-5.5547725e-06;0.040706728
 -1.2000000E-01;  9.9999998E-03; -2.8000000E-01;209;0.0;0.0;0.0;1000.0;  4.0000001E-01;0.0;0;0.0;0.0;0.0;0;-0.00010967909;  1.0000000E+04;  0.0000000E+00;  0.0000000E+00;  1.0000000E+04;  0.0000000E+00;  1.0000000E+04;-0.00010520472;0.0;-4.4743642e-06;0.0295322
 -1.2000000E-01;  9.9999998E-03; -2.5999999E-01;210;0.0;0.0;0.0;1000.0001;  4.0000001E-01;0.098762624;0;0.0;0.0;0.0;0;-0.0001442034;  1.0000000E+04;  0.0000000E+00;  0.0000000E+00;  1.0000000E+04;  0.0000000E+00;  1.0000000E+04;-0.00014191653;0.0;-2.2868567e-06;0.0094517069
 -1.2000000E-01;  9.9999998E-03; -2.3999999E-01;211;0.0;0.0;0.0;1000.0001;  4.0000001E-01;0.098762624;0;0.0;0.0;0.0;0;-0.00017343339;  1.0000000E+04;  0.0000000E+00;  0.0000000E+00;  1.0000000E+04;  0.0000000E+00;  1.0000000E+04;-0.00017361046;0.0;1.7706387e-07;0.012535942
 -1.2000000E-01;  9.9999998E-03; -2.2000000E-01;212;0.0;0.0;0.0;1000.0001;  4.0000001E-01;0.098762624;0;0.0;0.0;0.0;0;-0.0001957636;  1.0000000E+04;  0.0000000E+00;  0.0000000E+00;  1.0000000E+04;  0.0000000E+00;  1.0000000E+04;-0.00019778407;0.0;2.0204707e-06;0.029065978
 -1.2000000E-01;  9.9999998E-03; -2.0000000E-01;213;0.0;0.0;0.0;1000.0002;  4.0000001E-01;0.19752525;0;0.0;0.0;0.0;0;-0.00021179467;  1.0000000E+04;  0.0000000E+00;  0.0000000E+00;  1.0000000E+04;  0.0000000E+00;  1.0000000E+04;-0.00021467087;0.0;2.8761992e-06;0.037240416
 -1.0000000E-01;  9.9999998E-03; -3.4000000E-01;247;0.0;0.0;0.0;1000.0;  4.0000001E-01;0.0;0;0.0;0.0;0.0;0;-9.3375791e-05;  1.0000000E+04;  0.0000000E+00;  0.0000000E+00;  1.0000000E+04;  0.0000000E+00;  1.0000000E+04;-7.4646654e-05;0.0;-1.8729137e-05;0.14832669
 -1.0000000E-01;  9.9999998E-03; -3.1999999E-01;248;0.0;0.0;0.0;1000.0001;  4.0000001E-01;0.098762624;0;0.0;0.0;0.0;0;-0.00016738835;  1.0000000E+04;  0.0000000E+00;  0.0000000E+00;  1.0000000E+04;  0.0000000E+00;  1.0000000E+04;-0.00014464762;0.0;-2.2740725e-05;0.1765628
 -1.0000000E-01;  9.9999998E-03; -3.0000001E-01;249;0.0;0.0;0.0;1000.0002;  4.0000001E-01;0.19752525;0;0.0;0.0;0.0;0;-0.00026193363;  1.0000000E+04;  0.0000000E+00;  0.0000000E+00;  1.0000000E+04;  0.0000000E+00;  1.0000000E+04;-0.00023960942;0.0;-2.2324222e-05;0.16705422
 -1.0000000E-01;  9.9999998E-03; -2.8000000E-01;250;0.0;0.0;0.0;1000.0003;  4.0000001E-01;0.29628786;0;0.0;0.0;0.0;0;-0.00036694203;  1.0000000E+04;  0.0000000E+00;  0.0000000E+00;  1.0000000E+04;  0.0000000E+00;  1.0000000E+04;-0.00034966029;0.0;-1.7281734e-05;0.11895106
 -1.0000000E-01;  9.9999998E-03; -2.5999999E-01;251;0.0;0.0;0.0;1000.0004;  4.0000001E-01;0.3950505;0;0.0;0.0;0.0;0;-0.0004683118;  1.0000000E+04;  0.0000000E+00;  0.0000000E+00;  1.0000000E+04;  0.0000000E+00;  1.0000000E+04;-0.00045955612;0.0;-8.7556955e-06;0.042593624
 -1.0000000E-01;  9.9999998E-03; -2.3999999E-01;252;0.0;0.0;0.0;1000.0005;  4.0000001E-01;0.3950505;0;0.0;0.0;0.0;0;-0.00055519544;  1.0000000E+04;  0.0000000E+00;  0.0000000E+00;  1.0000000E+04;  0.0000000E+00;  1.0000000E+04;-0.00055581232;0.0;6.1689792e-07;0.039745167
 -1.0000000E-01;  9.9999998E-03; -2.2000000E-01;253;0.0;0.0;0.0;1000.0006;  4.0000001E-01;0.49381313;0;0.0;0.0;0.0;0;-0.00062366738;  1.0000000E+04;  0.0000000E+00;  0.0000000E+00;  1.0000000E+04;  0.0000000E+00;  1.0000000E+04;-0.00063161069;0.0;7.9433376e-06;0.10430679
 -1.0000000E-01;  9.9999998E-03; -2.0000000E-01;254;0.0;0.0;0.0;1000.0006;  4.0000001E-01;0.49381313;0;0.0;0.0;0.0;0;-0.00067483482;  1.0000000E+04;  0.0000000E+00;  0.0000000E+00;  1.0000000E+04;  0.0000000E+00;  1.0000000E+04;-0.00068673928;0.0;1.1904441e-05;0.14060512
 -7.9999998E-02;  9.9999998E-03; -3.4000000E-01;288;0.0;0.0;0.0;1000.0002;  4.0000001E-01;0.19752525;0;0.0;0.0;0.0;0;-0.00027291139;  1.0000000E+04;  0.0000000E+00;  0.0000000E+00;  1.0000000E+04;  0.0000000E+00;  1.0000000E+04;-0.00021296259;0.0;-5.9948783e-05;0.4795984
 -7.9999998E-02;  9.9999998E-03; -3.1999999E-01;289;0.0;0.0;0.0;1000.0004;  4.0000001E-01;0.3950505;0;0.0;0.0;0.0;0;-0.00045051335;  1.0000000E+04;  0.0000000E+00;  0.0000000E+00;  1.0000000E+04;  0.0000000E+00;  1.0000000E+04;-0.00038308959;0.0;-6.7423774e-05;0.53049117
 -7.9999998E-02;  9.9999998E-03; -3.0000001E-01;290;0.0;0.0;0.0;1000.0006;  4.0000001E-01;0.49381313;0;0.0;0.0;0.0;0;-0.00067048363;  1.0000000E+04;  0.0000000E+00;  0.0000000E+00;  1.0000000E+04;  0.0000000E+00;  1.0000000E+04;-0.00060713815;0.0;-6.3345498e-05;0.48290002
 -7.9999998E-02;  9.9999998E-03; -2.8000000E-01;291;0.0;0.0;0.0;1000.0009;  4.0000001E-01;0.69133836;0;0.0;0.0;0.0;0;-0.00091034337;  1.0000000E+04;  0.0000000E+00;  0.0000000E+00;  1.0000000E+04;  0.0000000E+00;  1.0000000E+04;-0.00086256006;0.0;-4.778328e-05;0.33915341
 -7.9999998E-02;  9.9999998E-03; -2.5999999E-01;292;0.0;0.0;0.0;1000.0011;  4.0000001E-01;0.88886362;0;0.0;0.0;0.0;0;-0.0011398073;  1.0000000E+04;  0.0000000E+00;  0.0000000E+00;  1.0000000E+04;  0.0000000E+00;  1.0000000E+04;-0.0011160912;0.0;-2.3716162e-05;0.1260896
 -7.9999998E-02;  9.9999998E-03; -2.3999999E-01;293;0.0;0.0;0.0;1000.0013;  4.0000001E-01;1.0863888;0;0.0;0.0;0.0;0;-0.0013365793;  1.0000000E+04;  0.0000000E+00;  0.0000000E+00;  1.0000000E+04;  0.0000000E+00;  1.0000000E+04;-0.001338842;0.0;2.2625977e-06;0.10055783
 -7.9999998E-02;  9.9999998E-03; -2.2000000E-01;294;0.0;0.0;0.0;1000.0014;  4.0000001E-01;1.1851515;0;0.0;0.0;0.0;0;-0.0014933738;  1.0000000E+04;  0.0000000E+00;  0.0000000E+00;  1.0000000E+04;  0.0000000E+00;  1.0000000E+04;-0.0015162431;0.0;2.2869313e-05;0.28077403
 -7.9999998E-02;  9.9999998E-03; -2.0000000E-01;295;0.0;0.0;0.0;1000.0015;  4.0000001E-01;1.2839141;0;0.0;0.0;0.0;0;-0.001612775;  1.0000000E+04;  0.0000000E+00;  0.0000000E+00;  1.0000000E+04;  0.0000000E+00;  1.0000000E+04;-0.0016473616;0.0;3.4586468e-05;0.38643169
 -5.9999999E-02;  9.9999998E-03; -3.4000000E-01;329;0.0;0.0;0.0;1000.0006;  4.0000001E-01;0.49381313;0;0.0;0.0;0.0;0;-0.00060890522;  1.0000000E+04;  0.0000000E+00;  0.0000000E+00;  1.0000000E+04;  0.0000000E+00;  1.0000000E+04;-0.00046341552;0.0;-0.00014548971;1.1778563
 -5.9999999E-02;  9.9999998E-03; -3.1999999E-01;330;0.0;0.0;0.0;1000.0009;  4.0000001E-01;0.69133836;0;0.0;0.0;0.0;0;-0.00095772045;  1.0000000E+04;  0.0000000E+00;  0.0000000E+00;  1.0000000E+04;  0.0000000E+00;  1.0000000E+04;-0.00080076326;0.0;-0.00015695719;1.2524191
 -5.9999999E-02;  9.9999998E-03; -3.0000001E-01;331;0.0;0.0;0.0;1000.0014;  4.0000001E-01;1.1851515;0;0.0;0.0;0.0;0;-0.0013818619;  1.0000000E+04;  0.0000000E+00;  0.0000000E+00;  1.0000000E+04;  0.0000000E+00;  1.0000000E+04;-0.0012381611;0.0;-0.00014370072;1.1153911
 -5.9999999E-02;  9.9999998E-03; -2.8000000E-01;332;0.0;0.0;0.0;1000.0018;  4.0000001E-01;1.4814394;0;0.0;0.0;0.0;0;-0.0018380969;  1.0000000E+04;  0.0000000E+00;  0.0000000E+00;  1.0000000E+04;  0.0000000E+00;  1.0000000E+04;-0.0017318095;0.0;-0.00010628738;0.77513605
 -5.9999999E-02;  9.9999998E-03; -2.5999999E-01;333;0.0;0.0;0.0;1000.0022;  4.0000001E-01;1.7777272;0;0.0;0.0;0.0;0;-0.0022695654;  1.0000000E+04;  0.0000000E+00;  0.0000000E+00;  1.0000000E+04;  0.0000000E+00;  1.0000000E+04;-0.0022182295;0.0;-5.1335934e-05;0.29107302
 -5.9999999E-02;  9.9999998E-03; -2.3999999E-01;334;0.0;0.0;0.0;1000.0026;  4.0000001E-01;2.1727777;0;0.0;0.0;0.0;0;-0.002637187;  1.0000000E+04;  0.0000000E+00;  0.0000000E+00;  1.0000000E+04;  0.0000000E+00;  1.0000000E+04;-0.0026441049;0.0;6.9178463e-06;0.21615715
 -5.9999999E-02;  9.9999998E-03; -2.2000000E-01;335;0.0;0.0;0.0;1000.0029;  4.0000001E-01;2.4690657;0;0.0;0.0;0.0;0;-0.0029306442;  1.0000000E+04;  0.0000000E+00;  0.0000000E+00;  1.0000000E+04;  0.0000000E+00;  1.0000000E+04;-0.0029838106;0.0;5.3166463e-05;0.61977518
 -5.9999999E-02;  9.9999998E-03; -2.0000000E-01;336;0.0;0.0;0.0;1000.0031;  4.0000001E-01;2.5678282;0;0.0;0.0;0.0;0;-0.0031560995;  1.0000000E+04;  0.0000000E+00;  0.0000000E+00;  1.0000000E+04;  0.0000000E+00;  1.0000000E+04;-0.0032361187;0.0;8.0019345e-05;0.8602978
 -3.9999999E-02;  9.9999998E-03; -3.4000000E-01;370;0.0;0.0;0.0;1000.0011;  4.0000001E-01;0.88886362;0;0.0;0.0;0.0;0;-0.0011228423;  1.0000000E+04;  0.0000000E+00;  0.0000000E+00;  1.0000000E+04;  0.0000000E+00;  1.0000000E+04;-0.00083080557;0.0;-0.00029203677;2.3965201
 -3.9999999E-02;  9.9999998E-03; -3.1999999E-01;371;0.0;0.0;0.0;1000.0016;  4.0000001E-01;1.2839141;0;0.0;0.0;0.0;0;-0.0017121119;  1.0000000E+04;  0.0000000E+00;  0.0000000E+00;  1.0000000E+04;  0.0000000E+00;  1.0000000E+04;-0.0014042824;0.0;-0.00030782944;2.4944415
 -3.9999999E-02;  9.9999998E-03; -3.0000001E-01;372;0.0;0.0;0.0;1000.0024;  4.0000001E-01;1.9752525;0;0.0;0.0;0.0;0;-0.0024191325;  1.0000000E+04;  0.0000000E+00;  0.0000000E+00;  1.0000000E+04;  0.0000000E+00;  1.0000000E+04;-0.0021418273;0.0;-0.00027730528;2.1933579
 -3.9999999E-02;  9.9999998E-03; -2.8000000E-01;373;0.0;0.0;0.0;1000.0031;  4.0000001E-01;2.5678282;0;0.0;0.0;0.0;0;-0.0031688593;  1.0000000E+04;  0.0000000E+00;  0.0000000E+00;  1.0000000E+04;  0.0000000E+00;  1.0000000E+04;-0.0029674717;0.0;-0.00020138749;1.5080415
 -3.9999999E-02;  9.9999998E-03; -2.5999999E-01;374;0.0;0.0;0.0;1000.0038;  4.0000001E-01;3.160404;0;0.0;0.0;0.0;0;-0.0038665074;  1.0000000E+04;  0.0000000E+00;  0.0000000E+00;  1.0000000E+04;  0.0000000E+00;  1.0000000E+04;-0.0037727987;0.0;-9.3708724e-05;0.56041789
 -3.9999999E-02;  9.9999998E-03; -2.3999999E-01;375;0.0;0.0;0.0;1000.0043;  4.0000001E-01;3.5554545;0;0.0;0.0;0.0;0;-0.0044542649;  1.0000000E+04;  0.0000000E+00;  0.0000000E+00;  1.0000000E+04;  0.0000000E+00;  1.0000000E+04;-0.0044721025;0.0;1.7837749e-05;0.41242933
 -3.9999999E-02;  9.9999998E-03; -2.2000000E-01;376;0.0;0.0;0.0;1000.0048;  4.0000001E-01;3.950505;0;0.0;0.0;0.0;0;-0.0049221232;  1.0000000E+04;  0.0000000E+00;  0.0000000E+00;  1.0000000E+04;  0.0000000E+00;  1.0000000E+04;-0.0050276415;0.0;0.0001055184;1.1791675
 -3.9999999E-02;  9.9999998E-03; -2.0000000E-01;377;0.0;0.0;0.0;1000.0052;  4.0000001E-01;4.3455553;0;0.0;0.0;0.0;0;-0.0052828528;  1.0000000E+04;  0.0000000E+00;  0.0000000E+00;  1.0000000E+04;  0.0000000E+00;  1.0000000E+04;-0.0054395054;0.0;0.00015665262;1.6369039
 -2.0000000E-02;  9.9999998E-03; -3.4000000E-01;411;0.0;0.0;0.0;1000.0018;  4.0000001E-01;1.4814394;0;0.0;0.0;0.0;0;-0.0017951198;  1.0000000E+04;  0.0000000E+00;  0.0000000E+00;  1.0000000E+04;  0.0000000E+00;  1.0000000E+04;-0.0012875744;0.0;-0.00050754548;4.2312717
 -2.0000000E-02;  9.9999998E-03; -3.1999999E-01;412;0.0;0.0;0.0;1000.0027;  4.0000001E-01;2.2715404;0;0.0;0.0;0.0;0;-0.0026781657;  1.0000000E+04;  0.0000000E+00;  0.0000000E+00;  1.0000000E+04;  0.0000000E+00;  1.0000000E+04;-0.0021501458;0.0;-0.00052801985;4.3537302
 -2.0000000E-02;  9.9999998E-03; -3.0000001E-01;413;0.0;0.0;0.0;1000.0038;  4.0000001E-01;3.160404;0;0.0;0.0;0.0;0;-0.0037216013;  1.0000000E+04;  0.0000000E+00;  0.0000000E+00;  1.0000000E+04;  0.0000000E+00;  1.0000000E+04;-0.0032515693;0.0;-0.0004700319;3.7942092
 -2.0000000E-02;  9.9999998E-03; -2.8000000E-01;414;0.0;0.0;0.0;1000.0047;  4.0000001E-01;3.8517423;0;0.0;0.0;0.0;0;-0.0048069572;  1.0000000E+04;  0.0000000E+00;  0.0000000E+00;  1.0000000E+04;  0.0000000E+00;  1.0000000E+04;-0.0044727069;0.0;-0.00033425051;2.5711553
 -2.0000000E-02;  9.9999998E-03; -2.5999999E-01;415;0.0;0.0;0.0;1000.0058;  4.0000001E-01;4.8393683;0;0.0;0.0;0.0;0;-0.0057950788;  1.0000000E+04;  0.0000000E+00;  0.0000000E+00;  1.0000000E+04;  0.0000000E+00;  1.0000000E+04;-0.005647359;0.0;-0.00014771985;0.9251191
 -2.0000000E-02;  9.9999998E-03; -2.3999999E-01;416;0.0;0.0;0.0;1000.0066;  4.0000001E-01;5.4319444;0;0.0;0.0;0.0;0;-0.0066172956;  1.0000000E+04;  0.0000000E+00;  0.0000000E+00;  1.0000000E+04;  0.0000000E+00;  1.0000000E+04;-0.0066568288;0.0;3.953329e-05;0.7170949
 -2.0000000E-02;  9.9999998E-03; -2.2000000E-01;417;0.0;0.0;0.0;1000.0073;  4.0000001E-01;6.0245199;0;0.0;0.0;0.0;0;-0.0072688391;  1.0000000E+04;  0.0000000E+00;  0.0000000E+00;  1.0000000E+04;  0.0000000E+00;  1.0000000E+04;-0.0074530803;0.0;0.00018424111;1.9906029
 -2.0000000E-02;  9.9999998E-03; -2.0000000E-01;418;0.0;0.0;0.0;1000.0077;  4.0000001E-01;6.4195704;0;0.0;0.0;0.0;0;-0.0077711414;  1.0000000E+04;  0.0000000E+00;  0.0000000E+00;  1.0000000E+04;  0.0000000E+00;  1.0000000E+04;-0.008039291;0.0;0.00026814951;2.7454822
  0.0000000E+00;  9.9999998E-03; -3.4000000E-01;452;0.0;0.0;0.0;1000.0026;  4.0000001E-01;2.1727777;0;0.0;0.0;0.0;0;-0.0025683728;  1.0000000E+04;  0.0000000E+00;  0.0000000E+00;  1.0000000E+04;  0.0000000E+00;  1.0000000E+04;-0.001784427;0.0;-0.00078394578;6.6599431
  0.0000000E+00;  9.9999998E-03; -3.1999999E-01;453;0.0;0.0;0.0;1000.0038;  4.0000001E-01;3.160404;0;0.0;0.0;0.0;0;-0.003766557;  1.0000000E+04;  0.0000000E+00;  0.0000000E+00;  1.0000000E+04;  0.0000000E+00;  1.0000000E+04;-0.0029580223;0.0;-0.00080853474;6.8031101
  0.0000000E+00;  9.9999998E-03; -3.0000001E-01;454;0.0;0.0;0.0;1000.0051;  4.0000001E-01;4.1480303;0;0.0;0.0;0.0;0;-0.0051472224;  1.0000000E+04;  0.0000000E+00;  0.0000000E+00;  1.0000000E+04;  0.0000000E+00;  1.0000000E+04;-0.004438275;0.0;-0.00070894742;5.8556161
  2.0000000E-02;  9.9999998E-03; -3.4000000E-01;464;0.0;0.0;0.0;1000.0035;  4.0000001E-01;2.9628787;0;0.0;0.0;0.0;0;-0.0033780341;  1.0000000E+04;  0.0000000E+00;  0.0000000E+00;  1.0000000E+04;  0.0000000E+00;  1.0000000E+04;-0.0022828358;0.0;-0.0010951983;9.5212851
  2.0000000E-02;  9.9999998E-03; -3.1999999E-01;465;0.0;0.0;0.0;1000.0051;  4.0000001E-01;4.1480303;0;0.0;0.0;0.0;0;-0.0048818551;  1.0000000E+04;  0.0000000E+00;  0.0000000E+00;  1.0000000E+04;  0.0000000E+00;  1.0000000E+04;-0.0037617481;0.0;-0.0011201072;9.6574697
  3.9999999E-02;  9.9999998E-03; -3.4000000E-01;474;0.0;0.0;0.0;1000.0043;  4.0000001E-01;3.5554545;0;0.0;0.0;0.0;0;-0.0042019011;  1.0000000E+04;  0.0000000E+00;  0.0000000E+00;  1.0000000E+04;  0.0000000E+00;  1.0000000E+04;-0.0027924934;0.0;-0.0014094078;12.605898
  3.9999999E-02;  9.9999998E-03; -3.1999999E-01;475;0.0;0.0;0.0;1000.0063;  4.0000001E-01;5.2344189;0;0.0;0.0;0.0;0;-0.0060074427;  1.0000000E+04;  0.0000000E+00;  0.0000000E+00;  1.0000000E+04;  0.0000000E+00;  1.0000000E+04;-0.0045822719;0.0;-0.0014251709;12.65982
  5.9999999E-02;  9.9999998E-03; -3.4000000E-01;484;0.0;0.0;0.0;1000.0055;  4.0000001E-01;4.5430808;0;0.0;0.0;0.0;0;-0.0050846529;  1.0000000E+04;  0.0000000E+00;  0.0000000E+00;  1.0000000E+04;  0.0000000E+00;  1.0000000E+04;-0.0033743731;0.0;-0.0017102798;15.829193
  5.9999999E-02;  9.9999998E-03; -3.1999999E-01;485;0.0;0.0;0.0;1000.0077;  4.0000001E-01;6.4195704;0;0.0;0.0;0.0;0;-0.0072299978;  1.0000000E+04;  0.0000000E+00;  0.0000000E+00;  1.0000000E+04;  0.0000000E+00;  1.0000000E+04;-0.0055207638;0.0;-0.0017092342;15.734159
  7.9999998E-02;  9.9999998E-03; -3.4000000E-01;494;0.0;0.0;0.0;1000.0068;  4.0000001E-01;5.6294694;0;0.0;0.0;0.0;0;-0.0061508808;  1.0000000E+04;  0.0000000E+00;  0.0000000E+00;  1.0000000E+04;  0.0000000E+00;  1.0000000E+04;-0.0041452758;0.0;-0.002005605;19.354364
  7.9999998E-02;  9.9999998E-03; -3.1999999E-01;495;0.0;0.0;0.0;1000.0096;  4.0000001E-01;7.9997725;0;0.0;0.0;0.0;0;-0.008719136;  1.0000000E+04;  0.0000000E+00;  0.0000000E+00;  1.0000000E+04;  0.0000000E+00;  1.0000000E+04;-0.0067366138;0.0;-0.001982522;19.045975
  1.0000000E-01;  9.9999998E-03; -3.4000000E-01;504;0.0;0.0;0.0;1000.0086;  4.0000001E-01;7.110909;0;0.0;0.0;0.0;0;-0.007620547;  1.0000000E+04;  0.0000000E+00;  0.0000000E+00;  1.0000000E+04;  0.0000000E+00;  1.0000000E+04;-0.0052911458;0.0;-0.0023294014;24.461462
  1.0000000E-01;  9.9999998E-03; -3.1999999E-01;505;0.0;0.0;0.0;1000.0122;  4.0000001E-01;10.073788;0;0.0;0.0;0.0;0;-0.01075928;  1.0000000E+04;  0.0000000E+00;  0.0000000E+00;  1.0000000E+04;  0.0000000E+00;  1.0000000E+04;-0.0084790755;0.0;-0.0022802046;24.398018
  1.2000000E-01;  9.9999998E-03; -3.4000000E-01;514;0.0;0.0;0.0;1000.0115;  4.0000001E-01;9.5799742;0;0.0;0.0;0.0;0;-0.0098257894;  1.0000000E+04;  0.0000000E+00;  0.0000000E+00;  1.0000000E+04;  0.0000000E+00;  1.0000000E+04;-0.007073028;0.0;-0.0027527611;38.267498
  1.2000000E-01;  9.9999998E-03; -3.1999999E-01;515;0.0;0.0;0.0;1000.016;  4.0000001E-01;13.234192;0;0.0;0.0;0.0;0;-0.013757419;  1.0000000E+04;  0.0000000E+00;  0.0000000E+00;  1.0000000E+04;  0.0000000E+00;  1.0000000E+04;-0.011085475;0.0;-0.0026719442;44.442734
  1.4000000E-01;  9.9999998E-03; -3.4000000E-01;524;0.0;0.0;0.0;1000.0159;  4.0000001E-01;13.234192;0;0.0;0.0;0.0;0;-0.013236937;  1.0000000E+04;  0.0000000E+00;  0.0000000E+00;  1.0000000E+04;  0.0000000E+00;  1.0000000E+04;-0.0098319817;0.0;-0.0034049554;79.772659
  1.4000000E-01;  9.9999998E-03; -3.1999999E-01;525;0.0;0.0;0.0;1000.0217;  4.0000001E-01;17.974798;0;0.0;0.0;0.0;0;-0.018251376;  1.0000000E+04;  0.0000000E+00;  0.0000000E+00;  1.0000000E+04;  0.0000000E+00;  1.0000000E+04;-0.014970108;0.0;-0.0032812676;109.80373
  1.6000000E-01;  9.9999998E-03; -3.4000000E-01;534;0.0;0.0;0.0;1000.0225;  4.0000001E-01;18.666136;0;0.0;0.0;0.0;0;-0.018377025;  1.0000000E+04;  0.0000000E+00;  0.0000000E+00;  1.0000000E+04;  0.0000000E+00;  1.0000000E+04;-0.013871785;0.0;-0.0045052385;174.40933
  1.6000000E-01;  9.9999998E-03; -3.1999999E-01;535;0.0;0.0;0.0;1000.0303;  4.0000001E-01;25.085707;0;0.0;0.0;0.0;0;-0.024812959;  1.0000000E+04;  0.0000000E+00;  0.0000000E+00;  1.0000000E+04;  0.0000000E+00;  1.0000000E+04;-0.020493034;0.0;-0.0043199239;260.7966
  1.8000001E-01;  9.9999998E-03; -3.4000000E-01;544;0.0;0.0;0.0;1000.032;  4.0000001E-01;26.468384;0;0.0;0.0;0.0;0;-0.025470756;  1.0000000E+04;  0.0000000E+00;  0.0000000E+00;  1.0000000E+04;  0.0000000E+00;  1.0000000E+04;-0.019071039;0.0;-0.0063997172;336.69247
  1.8000001E-01;  9.9999998E-03; -3.1999999E-01;545;0.0;0.0;0.0;1000.0422;  4.0000001E-01;34.961967;0;0.0;0.0;0.0;0;-0.033713982;  1.0000000E+04;  0.0000000E+00;  0.0000000E+00;  1.0000000E+04;  0.0000000E+00;  1.0000000E+04;-0.027577892;0.0;-0.0061360905;532.81842
  2.0000000E-01;  9.9999998E-03; -3.4000000E-01;553;0.0;0.0;0.0;1000.044;  4.0000001E-01;36.443409;0;0.0;0.0;0.0;0;-0.034241382;  1.0000000E+04;  0.0000000E+00;  0.0000000E+00;  1.0000000E+04;  0.0000000E+00;  1.0000000E+04;-0.024680141;0.0;-0.0095612407;534.24054
  2.0000000E-01;  9.9999998E-03; -3.1999999E-01;554;0.0;0.0;0.0;1000.0572;  4.0000001E-01;47.406059;0;0.0;0.0;0.0;0;-0.044671521;  1.0000000E+04;  0.0000000E+00;  0.0000000E+00;  1.0000000E+04;  0.0000000E+00;  1.0000000E+04;-0.035444811;0.0;-0.0092267115;898.17957
 -2.2000000E-01;  9.9999998E-03; -1.8000001E-01;10;0.0;0.0;0.0;1000.0;  4.0000001E-01;0.0;0;0.0;0.0;0.0;0;0.0;  1.0000000E+04;  0.0000000E+00;  0.0000000E+00;  1.0000000E+04;  0.0000000E+00;  1.0000000E+04;0.0;0.0;0.0;0.0
 -2.2000000E-01;  9.9999998E-03; -1.6000000E-01;11;0.0;0.0;0.0;1000.0;  4.0000001E-01;0.0;0;0.0;0.0;0.0;0;0.0;  1.0000000E+04;  0.0000000E+00;  0.0000000E+00;  1.0000000E+04;  0.0000000E+00;  1.0000000E+04;0.0;0.0;0.0;0.0
 -2.2000000E-01;  9.9999998E-03; -1.4000000E-01;12;0.0;0.0;0.0;1000.0;  4.0000001E-01;0.0;0;0.0;0.0;0.0;0;0.0;  1.0000000E+04;  0.0000000E+00;  0.0000000E+00;  1.0000000E+04;  0.0000000E+00;  1.0000000E+04;0.0;0.0;0.0;0.0
 -2.2000000E-01;  9.9999998E-03; -1.2000000E-01;13;0.0;0.0;0.0;1000.0;  4.0000001E-01;0.0;0;0.0;0.0;0.0;0;0.0;  1.0000000E+04;  0.0000000E+00;  0.0000000E+00;  1.0000000E+04;  0.0000000E+00;  1.0000000E+04;0.0;0.0;0.0;0.0
 -2.2000000E-01;  9.9999998E-03; -1.0000000E-01;14;0.0;0.0;0.0;1000.0;  4.0000001E-01;0.0;0;0.0;0.0;0.0;0;0.0;  1.0000000E+04;  0.0000000E+00;  0.0000000E+00;  1.0000000E+04;  0.0000000E+00;  1.0000000E+04;0.0;0.0;0.0;0.0
 -2.2000000E-01;  9.9999998E-03; -7.9999998E-02;15;0.0;0.0;0.0;1000.0;  4.0000001E-01;0.0;0;0.0;0.0;0.0;0;0.0;  1.0000000E+04;  0.0000000E+00;  0.0000000E+00;  1.0000000E+04;  0.0000000E+00;  1.0000000E+04;0.0;0.0;0.0;0.0
 -2.2000000E-01;  9.9999998E-03; -5.9999999E-02;16;0.0;0.0;0.0;1000.0;  4.0000001E-01;0.0;0;0.0;0.0;0.0;0;0.0;  1.0000000E+04;  0.0000000E+00;  0.0000000E+00;  1.0000000E+04;  0.0000000E+00;  1.0000000E+04;0.0;0.0;0.0;0.0
 -2.2000000E-01;  9.9999998E-03; -3.9999999E-02;17;0.0;0.0;0.0;1000.0;  4.0000001E-01;0.0;0;0.0;0.0;0.0;0;0.0;  1.0000000E+04;  0.0000000E+00;  0.0000000E+00;  1.0000000E+04;  0.0000000E+00;  1.0000000E+04;0.0;0.0;0.0;0.0
 -2.2000000E-01;  9.9999998E-03; -2.0000000E-02;18;0.0;0.0;0.0;1000.0;  4.0000001E-01;0.0;0;0.0;0.0;0.0;0;0.0;  1.0000000E+04;  0.0000000E+00;  0.0000000E+00;  1.0000000E+04;  0.0000000E+00;  1.0000000E+04;0.0;0.0;0.0;0.0
 -2.0000000E-01;  9.9999998E-03; -1.8000001E-01;50;0.0;0.0;0.0;1000.0;  4.0000001E-01;0.0;0;0.0;0.0;0.0;0;0.0;  1.0000000E+04;  0.0000000E+00;  0.0000000E+00;  1.0000000E+04;  0.0000000E+00;  1.0000000E+04;0.0;0.0;0.0;0.0
 -2.0000000E-01;  9.9999998E-03; -1.6000000E-01;51;0.0;0.0;0.0;1000.0;  4.0000001E-01;0.0;0;0.0;0.0;0.0;0;0.0;  1.0000000E+04;  0.0000000E+00;  0.0000000E+00;  1.0000000E+04;  0.0000000E+00;  1.0000000E+04;0.0;0.0;0.0;0.0
 -2.0000000E-01;  9.9999998E-03; -1.4000000E-01;52;0.0;0.0;0.0;1000.0;  4.0000001E-01;0.0;0;0.0;0.0;0.0;0;0.0;  1.0000000E+04;  0.0000000E+00;  0.0000000E+00;  1.0000000E+04;  0.0000000E+00;  1.0000000E+04;0.0;0.0;0.0;0.0
 -2.0000000E-01;  9.9999998E-03; -1.2000000E-01;53;0.0;0.0;0.0;1000.0;  4.0000001E-01;0.0;0;0.0;0.0;0.0;0;0.0;  1.0000000E+04;  0.0000000E+00;  0.0000000E+00;  1.0000000E+04;  0.0000000E+00;  1.0000000E+04;0.0;0.0;0.0;0.0
 -2.0000000E-01;  9.9999998E-03; -1.0000000E-01;54;0.0;0.0;0.0;1000.0;  4.0000001E-01;0.0;0;0.0;0.0;0.0;0;0.0;  1.0000000E+04;  0.0000000E+00;  0.0000000E+00;  1.0000000E+04;  0.0000000E+00;  1.0000000E+04;0.0;0.0;0.0;0.0
 -2.0000000E-01;  9.9999998E-03; -7.9999998E-02;55;0.0;0.0;0.0;1000.0;  4.0000001E-01;0.0;0;0.0;0.0;0.0;0;0.0;  1.0000000E+04;  0.0000000E+00;  0.0000000E+00;  1.0000000E+04;  0.0000000E+00;  1.0000000E+04;0.0;0.0;0.0;0.0
 -2.0000000E-01;  9.9999998E-03; -5.9999999E-02;56;0.0;0.0;0.0;1000.0;  4.0000001E-01;0.0;0;0.0;0.0;0.0;0;0.0;  1.0000000E+04;  0.0000000E+00;  0.0000000E+00;  1.0000000E+04;  0.0000000E+00;  1.0000000E+04;0.0;0.0;0.0;0.0
 -2.0000000E-01;  9.9999998E-03; -3.9999999E-02;57;0.0;0.0;0.0;1000.0;  4.0000001E-01;0.0;0;0.0;0.0;0.0;0;0.0;  1.0000000E+04;  0.0000000E+00;  0.0000000E+00;  1.0000000E+04;  0.0000000E+00;  1.0000000E+04;0.0;0.0;0.0;0.0
 -2.0000000E-01;  9.9999998E-03; -2.0000000E-02;58;0.0;0.0;0.0;1000.0;  4.0000001E-01;0.0;0;0.0;0.0;0.0;0;0.0;  1.0000000E+04;  0.0000000E+00;  0.0000000E+00;  1.0000000E+04;  0.0000000E+00;  1.0000000E+04;0.0;0.0;0.0;0.0
 -1.8000001E-01;  9.9999998E-03; -1.8000001E-01;91;0.0;0.0;0.0;1000.0;  4.0000001E-01;0.0;0;0.0;0.0;0.0;0;0.0;  1.0000000E+04;  0.0000000E+00;  0.0000000E+00;  1.0000000E+04;  0.0000000E+00;  1.0000000E+04;0.0;0.0;0.0;0.0
 -1.8000001E-01;  9.9999998E-03; -1.6000000E-01;92;0.0;0.0;0.0;1000.0;  4.0000001E-01;0.0;0;0.0;0.0;0.0;0;0.0;  1.0000000E+04;  0.0000000E+00;  0.0000000E+00;  1.0000000E+04;  0.0000000E+00;  1.0000000E+04;0.0;0.0;0.0;0.0
 -1.8000001E-01;  9.9999998E-03; -1.4000000E-01;93;0.0;0.0;0.0;1000.0;  4.0000001E-01;0.0;0;0.0;0.0;0.0;0;0.0;  1.0000000E+04;  0.0000000E+00;  0.0000000E+00;  1.0000000E+04;  0.0000000E+00;  1.0000000E+04;0.0;0.0;0.0;0.0
 -1.8000001E-01;  9.9999998E-03; -1.2000000E-01;94;0.0;0.0;0.0;1000.0;  4.0000001E-01;0.0;0;0.0;0.0;0.0;0;0.0;  1.0000000E+04;  0.0000000E+00;  0.0000000E+00;  1.0000000E+04;  0.0000000E+00;  1.0000000E+04;0.0;0.0;0.0;0.0
 -1.8000001E-01;  9.9999998E-03; -1.0000000E-01;95;0.0;0.0;0.0;1000.0;  4.0000001E-01;0.0;0;0.0;0.0;0.0;0;0.0;  1.0000000E+04;  0.0000000E+00;  0.0000000E+00;  1.0000000E+04;  0.0000000E+00;  1.0000000E+04;0.0;0.0;0.0;0.0
 -1.8000001E-01;  9.9999998E-03; -7.9999998E-02;96;0.0;0.0;0.0;1000.0;  4.0000001E-01;0.0;0;0.0;0.0;0.0;0;0.0;  1.0000000E+04;  0.0000000E+00;  0.0000000E+00;  1.0000000E+04;  0.0000000E+00;  1.0000000E+04;0.0;0.0;0.0;0.0
 -1.8000001E-01;  9.9999998E-03; -5.9999999E-02;97;0.0;0.0;0.0;1000.0;  4.0000001E-01;0.0;0;0.0;0.0;0.0;0;0.0;  1.0000000E+04;  0.0000000E+00;  0.0000000E+00;  1.0000000E+04;  0.0000000E+00;  1.0000000E+04;0.0;0.0;0.0;0.0
 -1.8000001E-01;  9.9999998E-03; -3.9999999E-02;98;0.0;0.0;0.0;1000.0;  4.0000001E-01;0.0;0;0.0;0.0;0.0;0;0.0;  1.0000000E+04;  0.0000000E+00;  0.0000000E+00;  1.0000000E+04;  0.0000000E+00;  1.0000000E+04;0.0;0.0;0.0;0.0
 -1.8000001E-01;  9.9999998E-03; -2.0000000E-02;99;0.0;0.0;0.0;1000.0;  4.0000001E-01;0.0;0;0.0;0.0;0.0;0;0.0;  1.0000000E+04;  0.0000000E+00;  0.0000000E+00;  1.0000000E+04;  0.0000000E+00;  1.0000000E+04;0.0;0.0;0.0;0.0
 -1.6000000E-01;  9.9999998E-03; -1.8000001E-01;132;0.0;0.0;0.0;1000.0;  4.0000001E-01;0.0;0;0.0;0.0;0.0;0;-1.1118937e-06;  1.0000000E+04;  0.0000000E+00;  0.0000000E+00;  1.0000000E+04;  0.0000000E+00;  1.0000000E+04;-1.1144506e-06;0.0;2.5569746e-09;9.708765e-05
 -1.6000000E-01;  9.9999998E-03; -1.6000000E-01;133;0.0;0.0;0.0;1000.0;  4.0000001E-01;0.0;0;0.0;0.0;0.0;0;-1.1453307e-06;  1.0000000E+04;  0.0000000E+00;  0.0000000E+00;  1.0000000E+04;  0.0000000E+00;  1.0000000E+04;-1.1475752e-06;0.0;2.2445485e-09;9.7315715e-05
 -1.6000000E-01;  9.9999998E-03; -1.4000000E-01;134;0.0;0.0;0.0;1000.0;  4.0000001E-01;0.0;0;0.0;0.0;0.0;0;-1.1662016e-06;  1.0000000E+04;  0.0000000E+00;  0.0000000E+00;  1.0000000E+04;  0.0000000E+00;  1.0000000E+04;-1.1680885e-06;0.0;1.8869077e-09;9.6370713e-05
 -1.6000000E-01;  9.9999998E-03; -1.2000000E-01;135;0.0;0.0;0.0;1000.0;  4.0000001E-01;0.0;0;0.0;0.0;0.0;0;-1.1779161e-06;  1.0000000E+04;  0.0000000E+00;  0.0000000E+00;  1.0000000E+04;  0.0000000E+00;  1.0000000E+04;-1.1794601e-06;0.0;1.5439403e-09;9.4934527e-05
 -1.6000000E-01;  9.9999998E-03; -1.0000000E-01;136;0.0;0.0;0.0;1000.0;  4.0000001E-01;0.0;0;0.0;0.0;0.0;0;-1.1834422e-06;  1.0000000E+04;  0.0000000E+00;  0.0000000E+00;  1.0000000E+04;  0.0000000E+00;  1.0000000E+04;-1.1846672e-06;0.0;1.2250236e-09;9.3249917e-05
 -1.6000000E-01;  9.9999998E-03; -7.9999998E-02;137;0.0;0.0;0.0;1000.0;  4.0000001E-01;0.0;0;0.0;0.0;0.0;0;-1.1851253e-06;  1.0000000E+04;  0.0000000E+00;  0.0000000E+00;  1.0000000E+04;  0.0000000E+00;  1.0000000E+04;-1.1860745e-06;0.0;9.4932862e-10;9.1593676e-05
 -1.6000000E-01;  9.9999998E-03; -5.9999999E-02;138;0.0;0.0;0.0;1000.0;  4.0000001E-01;0.0;0;0.0;0.0;0.0;0;-1.1847611e-06;  1.0000000E+04;  0.0000000E+00;  0.0000000E+00;  1.0000000E+04;  0.0000000E+00;  1.0000000E+04;-1.1854885e-06;0.0;7.2738232e-10;9.0141832e-05
 -1.6000000E-01;  9.9999998E-03; -3.9999999E-02;139;0.0;0.0;0.0;1000.0;  4.0000001E-01;0.0;0;0.0;0.0;0.0;0;-1.1836501e-06;  1.0000000E+04;  0.0000000E+00;  0.0000000E+00;  1.0000000E+04;  0.0000000E+00;  1.0000000E+04;-1.1842139e-06;0.0;5.6385968e-10;8.9000074e-05
 -1.6000000E-01;  9.9999998E-03; -2.0000000E-02;140;0.0;0.0;0.0;1000.0;  4.0000001E-01;0.0;0;0.0;0.0;0.0;0;-1.1826537e-06;  1.0000000E+04;  0.0000000E+00;  0.0000000E+00;  1.0000000E+04;  0.0000000E+00;  1.0000000E+04;-1.1831187e-06;0.0;4.6502324e-10;8.8283778e-05
 -1.4000000E-01;  9.9999998E-03; -1.8000001E-01;173;0.0;0.0;0.0;1000.0;  4.0000001E-01;0.0;0;0.0;0.0;0.0;0;-4.0380663e-05;  1.0000000E+04;  0.0000000E+00;  0.0000000E+00;  1.0000000E+04;  0.0000000E+00;  1.0000000E+04;-4.0692095e-05;0.0;3.1143179e-07;0.0052526547
 -1.4000000E-01;  9.9999998E-03; -1.6000000E-01;174;0.0;0.0;0.0;1000.0;  4.0000001E-01;0.0;0;0.0;0.0;0.0;0;-4.1733208e-05;  1.0000000E+04;  0.0000000E+00;  0.0000000E+00;  1.0000000E+04;  0.0000000E+00;  1.0000000E+04;-4.2012398e-05;0.0;2.7919037e-07;0.0051226341
 -1.4000000E-01;  9.9999998E-03; -1.4000000E-01;175;0.0;0.0;0.0;1000.0;  4.0000001E-01;0.0;0;0.0;0.0;0.0;0;-4.2622301e-05;  1.0000000E+04;  0.0000000E+00;  0.0000000E+00;  1.0000000E+04;  0.0000000E+00;  1.0000000E+04;-4.286096e-05;0.0;2.3865883e-07;0.0048987032
 -1.4000000E-01;  9.9999998E-03; -1.2000000E-01;176;0.0;0.0;0.0;1000.0;  4.0000001E-01;0.0;0;0.0;0.0;0.0;0;-4.3162545e-05;  1.0000000E+04;  0.0000000E+00;  0.0000000E+00;  1.0000000E+04;  0.0000000E+00;  1.0000000E+04;-4.3359418e-05;0.0;1.9687135e-07;0.0046420796
 -1.4000000E-01;  9.9999998E-03; -1.0000000E-01;177;0.0;0.0;0.0;1000.0;  4.0000001E-01;0.0;0;0.0;0.0;0.0;0;-4.3456799e-05;  1.0000000E+04;  0.0000000E+00;  0.0000000E+00;  1.0000000E+04;  0.0000000E+00;  1.0000000E+04;-4.361472e-05;0.0;1.5791986e-07;0.0043897051
 -1.4000000E-01;  9.9999998E-03; -7.9999998E-02;178;0.0;0.0;0.0;1000.0;  4.0000001E-01;0.0;0;0.0;0.0;0.0;0;-4.3590797e-05;  1.0000000E+04;  0.0000000E+00;  0.0000000E+00;  1.0000000E+04;  0.0000000E+00;  1.0000000E+04;-4.371483e-05;0.0;1.2403432e-07;0.004162366
 -1.4000000E-01;  9.9999998E-03; -5.9999999E-02;179;0.0;0.0;0.0;1000.0;  4.0000001E-01;0.0;0;0.0;0.0;0.0;0;-4.3631575e-05;  1.0000000E+04;  0.0000000E+00;  0.0000000E+00;  1.0000000E+04;  0.0000000E+00;  1.0000000E+04;-4.3728065e-05;0.0;9.6491789e-08;0.0039725443
 -1.4000000E-01;  9.9999998E-03; -3.9999999E-02;180;0.0;0.0;0.0;1000.0;  4.0000001E-01;0.0;0;0.0;0.0;0.0;0;-4.3627977e-05;  1.0000000E+04;  0.0000000E+00;  0.0000000E+00;  1.0000000E+04;  0.0000000E+00;  1.0000000E+04;-4.3704258e-05;0.0;7.6281083e-08;0.0038302653
 -1.4000000E-01;  9.9999998E-03; -2.0000000E-02;181;0.0;0.0;0.0;1000.0;  4.0000001E-01;0.0;0;0.0;0.0;0.0;0;-4.361316e-05;  1.0000000E+04;  0.0000000E+00;  0.0000000E+00;  1.0000000E+04;  0.0000000E+00;  1.0000000E+04;-4.3677115e-05;0.0;6.3955071e-08;0.003742126
 -1.2000000E-01;  9.9999998E-03; -1.8000001E-01;214;0.0;0.0;0.0;1000.0002;  4.0000001E-01;0.19752525;0;0.0;0.0;0.0;0;-0.00022302203;  1.0000000E+04;  0.0000000E+00;  0.0000000E+00;  1.0000000E+04;  0.0000000E+00;  1.0000000E+04;-0.000225946;0.0;2.9239727e-06;0.03863262
 -1.2000000E-01;  9.9999998E-03; -1.6000000E-01;215;0.0;0.0;0.0;1000.0002;  4.0000001E-01;0.19752525;0;0.0;0.0;0.0;0;-0.0002309109;  1.0000000E+04;  0.0000000E+00;  0.0000000E+00;  1.0000000E+04;  0.0000000E+00;  1.0000000E+04;-0.00023357215;0.0;2.6612506e-06;0.037364587
 -1.2000000E-01;  9.9999998E-03; -1.4000000E-01;216;0.0;0.0;0.0;1000.0002;  4.0000001E-01;0.19752525;0;0.0;0.0;0.0;0;-0.00023623856;  1.0000000E+04;  0.0000000E+00;  0.0000000E+00;  1.0000000E+04;  0.0000000E+00;  1.0000000E+04;-0.00023854154;0.0;2.3029911e-06;0.035195455
 -1.2000000E-01;  9.9999998E-03; -1.2000000E-01;217;0.0;0.0;0.0;1000.0002;  4.0000001E-01;0.19752525;0;0.0;0.0;0.0;0;-0.00023960252;  1.0000000E+04;  0.0000000E+00;  0.0000000E+00;  1.0000000E+04;  0.0000000E+00;  1.0000000E+04;-0.00024152097;0.0;1.9184586e-06;0.032691553
 -1.2000000E-01;  9.9999998E-03; -1.0000000E-01;218;0.0;0.0;0.0;1000.0002;  4.0000001E-01;0.19752525;0;0.0;0.0;0.0;0;-0.00024155081;  1.0000000E+04;  0.0000000E+00;  0.0000000E+00;  1.0000000E+04;  0.0000000E+00;  1.0000000E+04;-0.00024310326;0.0;1.5524525e-06;0.030223785
 -1.2000000E-01;  9.9999998E-03; -7.9999998E-02;219;0.0;0.0;0.0;1000.0002;  4.0000001E-01;0.19752525;0;0.0;0.0;0.0;0;-0.00024254947;  1.0000000E+04;  0.0000000E+00;  0.0000000E+00;  1.0000000E+04;  0.0000000E+00;  1.0000000E+04;-0.00024378058;0.0;1.2311037e-06;0.028010819
 -1.2000000E-01;  9.9999998E-03; -5.9999999E-02;220;0.0;0.0;0.0;1000.0002;  4.0000001E-01;0.19752525;0;0.0;0.0;0.0;0;-0.00024296893;  1.0000000E+04;  0.0000000E+00;  0.0000000E+00;  1.0000000E+04;  0.0000000E+00;  1.0000000E+04;-0.00024393847;0.0;9.6954182e-07;0.02618123
 -1.2000000E-01;  9.9999998E-03; -3.9999999E-02;221;0.0;0.0;0.0;1000.0002;  4.0000001E-01;0.19752525;0;0.0;0.0;0.0;0;-0.00024308384;  1.0000000E+04;  0.0000000E+00;  0.0000000E+00;  1.0000000E+04;  0.0000000E+00;  1.0000000E+04;-0.00024386084;0.0;7.7700543e-07;0.024817562
 -1.2000000E-01;  9.9999998E-03; -2.0000000E-02;222;0.0;0.0;0.0;1000.0002;  4.0000001E-01;0.19752525;0;0.0;0.0;0.0;0;-0.000243081;  1.0000000E+04;  0.0000000E+00;  0.0000000E+00;  1.0000000E+04;  0.0000000E+00;  1.0000000E+04;-0.00024374039;0.0;6.5939656e-07;0.02397676
 -1.0000000E-01;  9.9999998E-03; -1.8000001E-01;255;0.0;0.0;0.0;1000.0006;  4.0000001E-01;0.49381313;0;0.0;0.0;0.0;0;-0.00071179314;  1.0000000E+04;  0.0000000E+00;  0.0000000E+00;  1.0000000E+04;  0.0000000E+00;  1.0000000E+04;-0.00072466669;0.0;1.2873568e-05;0.15200384
 -1.0000000E-01;  9.9999998E-03; -1.6000000E-01;256;0.0;0.0;0.0;1000.0006;  4.0000001E-01;0.49381313;0;0.0;0.0;0.0;0;-0.00073784392;  1.0000000E+04;  0.0000000E+00;  0.0000000E+00;  1.0000000E+04;  0.0000000E+00;  1.0000000E+04;-0.00074984977;0.0;1.2005842e-05;0.1480832
 -1.0000000E-01;  9.9999998E-03; -1.4000000E-01;257;0.0;0.0;0.0;1000.0007;  4.0000001E-01;0.59257573;0;0.0;0.0;0.0;0;-0.00075567618;  1.0000000E+04;  0.0000000E+00;  0.0000000E+00;  1.0000000E+04;  0.0000000E+00;  1.0000000E+04;-0.00076617394;0.0;1.0497769e-05;0.13861887
 -1.0000000E-01;  9.9999998E-03; -1.2000000E-01;258;0.0;0.0;0.0;1000.0007;  4.0000001E-01;0.59257573;0;0.0;0.0;0.0;0;-0.00076720631;  1.0000000E+04;  0.0000000E+00;  0.0000000E+00;  1.0000000E+04;  0.0000000E+00;  1.0000000E+04;-0.00077602552;0.0;8.8192119e-06;0.12740162
 -1.0000000E-01;  9.9999998E-03; -1.0000000E-01;259;0.0;0.0;0.0;1000.0007;  4.0000001E-01;0.59257573;0;0.0;0.0;0.0;0;-0.00077412481;  1.0000000E+04;  0.0000000E+00;  0.0000000E+00;  1.0000000E+04;  0.0000000E+00;  1.0000000E+04;-0.00078131561;0.0;7.1908207e-06;0.11620627
 -1.0000000E-01;  9.9999998E-03; -7.9999998E-02;260;0.0;0.0;0.0;1000.0007;  4.0000001E-01;0.59257573;0;0.0;0.0;0.0;0;-0.00077788823;  1.0000000E+04;  0.0000000E+00;  0.0000000E+00;  1.0000000E+04;  0.0000000E+00;  1.0000000E+04;-0.000783636;0.0;5.747786e-06;0.1061244
 -1.0000000E-01;  9.9999998E-03; -5.9999999E-02;261;0.0;0.0;0.0;1000.0007;  4.0000001E-01;0.59257573;0;0.0;0.0;0.0;0;-0.00077966944;  1.0000000E+04;  0.0000000E+00;  0.0000000E+00;  1.0000000E+04;  0.0000000E+00;  1.0000000E+04;-0.00078423781;0.0;4.5683923e-06;0.097792342
 -1.0000000E-01;  9.9999998E-03; -3.9999999E-02;262;0.0;0.0;0.0;1000.0007;  4.0000001E-01;0.59257573;0;0.0;0.0;0.0;0;-0.00078034721;  1.0000000E+04;  0.0000000E+00;  0.0000000E+00;  1.0000000E+04;  0.0000000E+00;  1.0000000E+04;-0.00078404613;0.0;3.698907e-06;0.091596842
 -1.0000000E-01;  9.9999998E-03; -2.0000000E-02;263;0.0;0.0;0.0;1000.0007;  4.0000001E-01;0.59257573;0;0.0;0.0;0.0;0;-0.00078052242;  1.0000000E+04;  0.0000000E+00;  0.0000000E+00;  1.0000000E+04;  0.0000000E+00;  1.0000000E+04;-0.00078368955;0.0;3.1671618e-06;0.087784313
 -7.9999998E-02;  9.9999998E-03; -1.8000001E-01;296;0.0;0.0;0.0;1000.0016;  4.0000001E-01;1.2839141;0;0.0;0.0;0.0;0;-0.0017008799;  1.0000000E+04;  0.0000000E+00;  0.0000000E+00;  1.0000000E+04;  0.0000000E+00;  1.0000000E+04;-0.0017390634;0.0;3.8183542e-05;0.42468089
 -7.9999998E-02;  9.9999998E-03; -1.6000000E-01;297;0.0;0.0;0.0;1000.0017;  4.0000001E-01;1.3826767;0;0.0;0.0;0.0;0;-0.00176396;  1.0000000E+04;  0.0000000E+00;  0.0000000E+00;  1.0000000E+04;  0.0000000E+00;  1.0000000E+04;-0.0018004227;0.0;3.6462687e-05;0.41886008
 -7.9999998E-02;  9.9999998E-03; -1.4000000E-01;298;0.0;0.0;0.0;1000.0017;  4.0000001E-01;1.3826767;0;0.0;0.0;0.0;0;-0.0018075014;  1.0000000E+04;  0.0000000E+00;  0.0000000E+00;  1.0000000E+04;  0.0000000E+00;  1.0000000E+04;-0.001839696;0.0;3.2194534e-05;0.39160454
 -7.9999998E-02;  9.9999998E-03; -1.2000000E-01;299;0.0;0.0;0.0;1000.0018;  4.0000001E-01;1.4814394;0;0.0;0.0;0.0;0;-0.001836048;  1.0000000E+04;  0.0000000E+00;  0.0000000E+00;  1.0000000E+04;  0.0000000E+00;  1.0000000E+04;-0.0018632871;0.0;2.7239053e-05;0.35793847
 -7.9999998E-02;  9.9999998E-03; -1.0000000E-01;300;0.0;0.0;0.0;1000.0018;  4.0000001E-01;1.4814394;0;0.0;0.0;0.0;0;-0.0018535242;  1.0000000E+04;  0.0000000E+00;  0.0000000E+00;  1.0000000E+04;  0.0000000E+00;  1.0000000E+04;-0.0018758739;0.0;2.2349635e-05;0.32386661
 -7.9999998E-02;  9.9999998E-03; -7.9999998E-02;301;0.0;0.0;0.0;1000.0018;  4.0000001E-01;1.4814394;0;0.0;0.0;0.0;0;-0.0018633355;  1.0000000E+04;  0.0000000E+00;  0.0000000E+00;  1.0000000E+04;  0.0000000E+00;  1.0000000E+04;-0.001881313;0.0;1.7977545e-05;0.29298216
 -7.9999998E-02;  9.9999998E-03; -5.9999999E-02;302;0.0;0.0;0.0;1000.0018;  4.0000001E-01;1.4814394;0;0.0;0.0;0.0;0;-0.0018682431;  1.0000000E+04;  0.0000000E+00;  0.0000000E+00;  1.0000000E+04;  0.0000000E+00;  1.0000000E+04;-0.0018826321;0.0;1.4389028e-05;0.26740867
 -7.9999998E-02;  9.9999998E-03; -3.9999999E-02;303;0.0;0.0;0.0;1000.0019;  4.0000001E-01;1.580202;0;0.0;0.0;0.0;0;-0.0018703311;  1.0000000E+04;  0.0000000E+00;  0.0000000E+00;  1.0000000E+04;  0.0000000E+00;  1.0000000E+04;-0.0018820696;0.0;1.1738516e-05;0.24839738
 -7.9999998E-02;  9.9999998E-03; -2.0000000E-02;304;0.0;0.0;0.0;1000.0019;  4.0000001E-01;1.580202;0;0.0;0.0;0.0;0;-0.0018710305;  1.0000000E+04;  0.0000000E+00;  0.0000000E+00;  1.0000000E+04;  0.0000000E+00;  1.0000000E+04;-0.0018811467;0.0;1.0116139e-05;0.23670703
 -5.9999999E-02;  9.9999998E-03; -1.8000001E-01;337;0.0;0.0;0.0;1000.0032;  4.0000001E-01;2.6665909;0;0.0;0.0;0.0;0;-0.0033246023;  1.0000000E+04;  0.0000000E+00;  0.0000000E+00;  1.0000000E+04;  0.0000000E+00;  1.0000000E+04;-0.0034135154;0.0;8.8913192e-05;0.95143402
 -5.9999999E-02;  9.9999998E-03; -1.6000000E-01;338;0.0;0.0;0.0;1000.0034;  4.0000001E-01;2.8641162;0;0.0;0.0;0.0;0;-0.0034467729;  1.0000000E+04;  0.0000000E+00;  0.0000000E+00;  1.0000000E+04;  0.0000000E+00;  1.0000000E+04;-0.0035325761;0.0;8.5803164e-05;0.94317901
 -5.9999999E-02;  9.9999998E-03; -1.4000000E-01;339;0.0;0.0;0.0;1000.0035;  4.0000001E-01;2.8641162;0;0.0;0.0;0.0;0;-0.0035318197;  1.0000000E+04;  0.0000000E+00;  0.0000000E+00;  1.0000000E+04;  0.0000000E+00;  1.0000000E+04;-0.0036083045;0.0;7.6484845e-05;0.88308626
 -5.9999999E-02;  9.9999998E-03; -1.2000000E-01;340;0.0;0.0;0.0;1000.0036;  4.0000001E-01;2.9628787;0;0.0;0.0;0.0;0;-0.0035879931;  1.0000000E+04;  0.0000000E+00;  0.0000000E+00;  1.0000000E+04;  0.0000000E+00;  1.0000000E+04;-0.0036530697;0.0;6.5076587e-05;0.80446327
 -5.9999999E-02;  9.9999998E-03; -1.0000000E-01;341;0.0;0.0;0.0;1000.0036;  4.0000001E-01;2.9628787;0;0.0;0.0;0.0;0;-0.0036227289;  1.0000000E+04;  0.0000000E+00;  0.0000000E+00;  1.0000000E+04;  0.0000000E+00;  1.0000000E+04;-0.0036763907;0.0;5.3661868e-05;0.72394049
 -5.9999999E-02;  9.9999998E-03; -7.9999998E-02;342;0.0;0.0;0.0;1000.0036;  4.0000001E-01;2.9628787;0;0.0;0.0;0.0;0;-0.0036425306;  1.0000000E+04;  0.0000000E+00;  0.0000000E+00;  1.0000000E+04;  0.0000000E+00;  1.0000000E+04;-0.0036859054;0.0;4.3374777e-05;0.65049958
 -5.9999999E-02;  9.9999998E-03; -5.9999999E-02;343;0.0;0.0;0.0;1000.0036;  4.0000001E-01;2.9628787;0;0.0;0.0;0.0;0;-0.0036526853;  1.0000000E+04;  0.0000000E+00;  0.0000000E+00;  1.0000000E+04;  0.0000000E+00;  1.0000000E+04;-0.0036875829;0.0;3.4897635e-05;0.58953595
 -5.9999999E-02;  9.9999998E-03; -3.9999999E-02;344;0.0;0.0;0.0;1000.0036;  4.0000001E-01;2.9628787;0;0.0;0.0;0.0;0;-0.0036572039;  1.0000000E+04;  0.0000000E+00;  0.0000000E+00;  1.0000000E+04;  0.0000000E+00;  1.0000000E+04;-0.0036858285;0.0;2.8624732e-05;0.54419124
 -5.9999999E-02;  9.9999998E-03; -2.0000000E-02;345;0.0;0.0;0.0;1000.0036;  4.0000001E-01;2.9628787;0;0.0;0.0;0.0;0;-0.0036588486;  1.0000000E+04;  0.0000000E+00;  0.0000000E+00;  1.0000000E+04;  0.0000000E+00;  1.0000000E+04;-0.0036836306;0.0;2.4781986e-05;0.5163129
 -3.9999999E-02;  9.9999998E-03; -1.8000001E-01;378;0.0;0.0;0.0;1000.0054;  4.0000001E-01;4.5430808;0;0.0;0.0;0.0;0;-0.005554426;  1.0000000E+04;  0.0000000E+00;  0.0000000E+00;  1.0000000E+04;  0.0000000E+00;  1.0000000E+04;-0.0057284362;0.0;0.00017401036;1.8121171
 -3.9999999E-02;  9.9999998E-03; -1.6000000E-01;379;0.0;0.0;0.0;1000.0057;  4.0000001E-01;4.7406058;0;0.0;0.0;0.0;0;-0.0057529528;  1.0000000E+04;  0.0000000E+00;  0.0000000E+00;  1.0000000E+04;  0.0000000E+00;  1.0000000E+04;-0.0059214463;0.0;0.0001684937;1.7972901
 -3.9999999E-02;  9.9999998E-03; -1.4000000E-01;380;0.0;0.0;0.0;1000.0059;  4.0000001E-01;4.8393683;0;0.0;0.0;0.0;0;-0.0058919131;  1.0000000E+04;  0.0000000E+00;  0.0000000E+00;  1.0000000E+04;  0.0000000E+00;  1.0000000E+04;-0.0060429578;0.0;0.00015104449;1.6829479
 -3.9999999E-02;  9.9999998E-03; -1.2000000E-01;381;0.0;0.0;0.0;1000.006;  4.0000001E-01;4.9381313;0;0.0;0.0;0.0;0;-0.0059839729;  1.0000000E+04;  0.0000000E+00;  0.0000000E+00;  1.0000000E+04;  0.0000000E+00;  1.0000000E+04;-0.0061130086;0.0;0.00012903547;1.5289674
 -3.9999999E-02;  9.9999998E-03; -1.0000000E-01;382;0.0;0.0;0.0;1000.0061;  4.0000001E-01;5.0368938;0;0.0;0.0;0.0;0;-0.0060410309;  1.0000000E+04;  0.0000000E+00;  0.0000000E+00;  1.0000000E+04;  0.0000000E+00;  1.0000000E+04;-0.0061478149;0.0;0.0001067839;1.369936
 -3.9999999E-02;  9.9999998E-03; -7.9999998E-02;383;0.0;0.0;0.0;1000.0062;  4.0000001E-01;5.1356564;0;0.0;0.0;0.0;0;-0.0060736733;  1.0000000E+04;  0.0000000E+00;  0.0000000E+00;  1.0000000E+04;  0.0000000E+00;  1.0000000E+04;-0.006160283;0.0;8.6609747e-05;1.2242311
 -3.9999999E-02;  9.9999998E-03; -5.9999999E-02;384;0.0;0.0;0.0;1000.0062;  4.0000001E-01;5.1356564;0;0.0;0.0;0.0;0;-0.0060905078;  1.0000000E+04;  0.0000000E+00;  0.0000000E+00;  1.0000000E+04;  0.0000000E+00;  1.0000000E+04;-0.006160439;0.0;6.9931331e-05;1.1030316
 -3.9999999E-02;  9.9999998E-03; -3.9999999E-02;385;0.0;0.0;0.0;1000.0062;  4.0000001E-01;5.1356564;0;0.0;0.0;0.0;0;-0.0060980716;  1.0000000E+04;  0.0000000E+00;  0.0000000E+00;  1.0000000E+04;  0.0000000E+00;  1.0000000E+04;-0.0061556422;0.0;5.7570454e-05;1.0128293
 -3.9999999E-02;  9.9999998E-03; -2.0000000E-02;386;0.0;0.0;0.0;1000.0062;  4.0000001E-01;5.1356564;0;0.0;0.0;0.0;0;-0.0061008683;  1.0000000E+04;  0.0000000E+00;  0.0000000E+00;  1.0000000E+04;  0.0000000E+00;  1.0000000E+04;-0.0061508617;0.0;4.9993436e-05;0.95737487
 -2.0000000E-02;  9.9999998E-03; -1.8000001E-01;419;0.0;0.0;0.0;1000.0082;  4.0000001E-01;6.814621;0;0.0;0.0;0.0;0;-0.0081503028;  1.0000000E+04;  0.0000000E+00;  0.0000000E+00;  1.0000000E+04;  0.0000000E+00;  1.0000000E+04;-0.0084467949;0.0;0.00029649239;3.0312479
 -2.0000000E-02;  9.9999998E-03; -1.6000000E-01;420;0.0;0.0;0.0;1000.0084;  4.0000001E-01;7.0121465;0;0.0;0.0;0.0;0;-0.0084284972;  1.0000000E+04;  0.0000000E+00;  0.0000000E+00;  1.0000000E+04;  0.0000000E+00;  1.0000000E+04;-0.0087154908;0.0;0.0002869931;3.0002105
 -2.0000000E-02;  9.9999998E-03; -1.4000000E-01;421;0.0;0.0;0.0;1000.0085;  4.0000001E-01;7.110909;0;0.0;0.0;0.0;0;-0.0086234491;  1.0000000E+04;  0.0000000E+00;  0.0000000E+00;  1.0000000E+04;  0.0000000E+00;  1.0000000E+04;-0.0088812532;0.0;0.00025780371;2.8043611
 -2.0000000E-02;  9.9999998E-03; -1.2000000E-01;422;0.0;0.0;0.0;1000.0087;  4.0000001E-01;7.2096715;0;0.0;0.0;0.0;0;-0.0087522455;  1.0000000E+04;  0.0000000E+00;  0.0000000E+00;  1.0000000E+04;  0.0000000E+00;  1.0000000E+04;-0.0089730686;0.0;0.00022082296;2.5411532
 -2.0000000E-02;  9.9999998E-03; -1.0000000E-01;423;0.0;0.0;0.0;1000.0089;  4.0000001E-01;7.308434;0;0.0;0.0;0.0;0;-0.0088316444;  1.0000000E+04;  0.0000000E+00;  0.0000000E+00;  1.0000000E+04;  0.0000000E+00;  1.0000000E+04;-0.0090148114;0.0;0.00018316686;2.2679327
 -2.0000000E-02;  9.9999998E-03; -7.9999998E-02;424;0.0;0.0;0.0;1000.009;  4.0000001E-01;7.407197;0;0.0;0.0;0.0;0;-0.0088767055;  1.0000000E+04;  0.0000000E+00;  0.0000000E+00;  1.0000000E+04;  0.0000000E+00;  1.0000000E+04;-0.0090255924;0.0;0.00014888693;2.0169368
 -2.0000000E-02;  9.9999998E-03; -5.9999999E-02;425;0.0;0.0;0.0;1000.009;  4.0000001E-01;7.407197;0;0.0;0.0;0.0;0;-0.0088996384;  1.0000000E+04;  0.0000000E+00;  0.0000000E+00;  1.0000000E+04;  0.0000000E+00;  1.0000000E+04;-0.009020119;0.0;0.00012048087;1.8078829
 -2.0000000E-02;  9.9999998E-03; -3.9999999E-02;426;0.0;0.0;0.0;1000.009;  4.0000001E-01;7.407197;0;0.0;0.0;0.0;0;-0.0089097042;  1.0000000E+04;  0.0000000E+00;  0.0000000E+00;  1.0000000E+04;  0.0000000E+00;  1.0000000E+04;-0.0090091089;0.0;9.9404555e-05;1.6522386
 -2.0000000E-02;  9.9999998E-03; -2.0000000E-02;427;0.0;0.0;0.0;1000.009;  4.0000001E-01;7.5059595;0;0.0;0.0;0.0;0;-0.0089132776;  1.0000000E+04;  0.0000000E+00;  0.0000000E+00;  1.0000000E+04;  0.0000000E+00;  1.0000000E+04;-0.0089997575;0.0;8.6479544e-05;1.5565633
 -2.2000000E-01;  9.9999998E-03;  0.0000000E+00;19;0.0;0.0;0.0;1000.0;  4.0000001E-01;0.0;0;0.0;0.0;0.0;0;0.0;  1.0000000E+04;  0.0000000E+00;  0.0000000E+00;  1.0000000E+04;  0.0000000E+00;  1.0000000E+04;0.0;0.0;0.0;0.0
 -2.2000000E-01;  9.9999998E-03;  2.0000000E-02;20;0.0;0.0;0.0;1000.0;  4.0000001E-01;0.0;0;0.0;0.0;0.0;0;0.0;  1.0000000E+04;  0.0000000E+00;  0.0000000E+00;  1.0000000E+04;  0.0000000E+00;  1.0000000E+04;0.0;0.0;0.0;0.0
 -2.2000000E-01;  9.9999998E-03;  3.9999999E-02;21;0.0;0.0;0.0;1000.0;  4.0000001E-01;0.0;0;0.0;0.0;0.0;0;0.0;  1.0000000E+04;  0.0000000E+00;  0.0000000E+00;  1.0000000E+04;  0.0000000E+00;  1.0000000E+04;0.0;0.0;0.0;0.0
 -2.2000000E-01;  9.9999998E-03;  5.9999999E-02;22;0.0;0.0;0.0;1000.0;  4.0000001E-01;0.0;0;0.0;0.0;0.0;0;0.0;  1.0000000E+04;  0.0000000E+00;  0.0000000E+00;  1.0000000E+04;  0.0000000E+00;  1.0000000E+04;0.0;0.0;0.0;0.0
 -2.2000000E-01;  9.9999998E-03;  7.9999998E-02;23;0.0;0.0;0.0;1000.0;  4.0000001E-01;0.0;0;0.0;0.0;0.0;0;0.0;  1.0000000E+04;  0.0000000E+00;  0.0000000E+00;  1.0000000E+04;  0.0000000E+00;  1.0000000E+04;0.0;0.0;0.0;0.0
 -2.2000000E-01;  9.9999998E-03;  1.0000000E-01;24;0.0;0.0;0.0;1000.0;  4.0000001E-01;0.0;0;0.0;0.0;0.0;0;0.0;  1.0000000E+04;  0.0000000E+00;  0.0000000E+00;  1.0000000E+04;  0.0000000E+00;  1.0000000E+04;0.0;0.0;0.0;0.0
 -2.2000000E-01;  9.9999998E-03;  1.2000000E-01;25;0.0;0.0;0.0;1000.0;  4.0000001E-01;0.0;0;0.0;0.0;0.0;0;0.0;  1.0000000E+04;  0.0000000E+00;  0.0000000E+00;  1.0000000E+04;  0.0000000E+00;  1.0000000E+04;0.0;0.0;0.0;0.0
 -2.2000000E-01;  9.9999998E-03;  1.4000000E-01;26;0.0;0.0;0.0;1000.0;  4.0000001E-01;0.0;0;0.0;0.0;0.0;0;0.0;  1.0000000E+04;  0.0000000E+00;  0.0000000E+00;  1.0000000E+04;  0.0000000E+00;  1.0000000E+04;0.0;0.0;0.0;0.0
 -2.0000000E-01;  9.9999998E-03;  0.0000000E+00;59;0.0;0.0;0.0;1000.0;  4.0000001E-01;0.0;0;0.0;0.0;0.0;0;0.0;  1.0000000E+04;  0.0000000E+00;  0.0000000E+00;  1.0000000E+04;  0.0000000E+00;  1.0000000E+04;0.0;0.0;0.0;0.0
 -2.0000000E-01;  9.9999998E-03;  2.0000000E-02;60;0.0;0.0;0.0;1000.0;  4.0000001E-01;0.0;0;0.0;0.0;0.0;0;0.0;  1.0000000E+04;  0.0000000E+00;  0.0000000E+00;  1.0000000E+04;  0.0000000E+00;  1.0000000E+04;0.0;0.0;0.0;0.0
 -2.0000000E-01;  9.9999998E-03;  3.9999999E-02;61;0.0;0.0;0.0;1000.0;  4.0000001E-01;0.0;0;0.0;0.0;0.0;0;0.0;  1.0000000E+04;  0.0000000E+00;  0.0000000E+00;  1.0000000E+04;  0.0000000E+00;  1.0000000E+04;0.0;0.0;0.0;0.0
 -2.0000000E-01;  9.9999998E-03;  5.9999999E-02;62;0.0;0.0;0.0;1000.0;  4.0000001E-01;0.0;0;0.0;0.0;0.0;0;0.0;  1.0000000E+04;  0.0000000E+00;  0.0000000E+00;  1.0000000E+04;  0.0000000E+00;  1.0000000E+04;0.0;0.0;0.0;0.0
 -2.0000000E-01;  9.9999998E-03;  7.9999998E-02;63;0.0;0.0;0.0;1000.0;  4.0000001E-01;0.0;0;0.0;0.0;0.0;0;0.0;  1.0000000E+04;  0.0000000E+00;  0.0000000E+00;  1.0000000E+04;  0.0000000E+00;  1.0000000E+04;0.0;0.0;0.0;0.0
 -2.0000000E-01;  9.9999998E-03;  1.0000000E-01;64;0.0;0.0;0.0;1000.0;  4.0000001E-01;0.0;0;0.0;0.0;0.0;0;0.0;  1.0000000E+04;  0.0000000E+00;  0.0000000E+00;  1.0000000E+04;  0.0000000E+00;  1.0000000E+04;0.0;0.0;0.0;0.0
 -2.0000000E-01;  9.9999998E-03;  1.2000000E-01;65;0.0;0.0;0.0;1000.0;  4.0000001E-01;0.0;0;0.0;0.0;0.0;0;0.0;  1.0000000E+04;  0.0000000E+00;  0.0000000E+00;  1.0000000E+04;  0.0000000E+00;  1.0000000E+04;0.0;0.0;0.0;0.0
 -2.0000000E-01;  9.9999998E-03;  1.4000000E-01;66;0.0;0.0;0.0;1000.0;  4.0000001E-01;0.0;0;0.0;0.0;0.0;0;0.0;  1.0000000E+04;  0.0000000E+00;  0.0000000E+00;  1.0000000E+04;  0.0000000E+00;  1.0000000E+04;0.0;0.0;0.0;0.0
 -1.8000001E-01;  9.9999998E-03;  0.0000000E+00;100;0.0;0.0;0.0;1000.0;  4.0000001E-01;0.0;0;0.0;0.0;0.0;0;0.0;  1.0000000E+04;  0.0000000E+00;  0.0000000E+00;  1.0000000E+04;  0.0000000E+00;  1.0000000E+04;0.0;0.0;0.0;0.0
 -1.8000001E-01;  9.9999998E-03;  2.0000000E-02;101;0.0;0.0;0.0;1000.0;  4.0000001E-01;0.0;0;0.0;0.0;0.0;0;0.0;  1.0000000E+04;  0.0000000E+00;  0.0000000E+00;  1.0000000E+04;  0.0000000E+00;  1.0000000E+04;0.0;0.0;0.0;0.0
 -1.8000001E-01;  9.9999998E-03;  3.9999999E-02;102;0.0;0.0;0.0;1000.0;  4.0000001E-01;0.0;0;0.0;0.0;0.0;0;0.0;  1.0000000E+04;  0.0000000E+00;  0.0000000E+00;  1.0000000E+04;  0.0000000E+00;  1.0000000E+04;0.0;0.0;0.0;0.0
 -1.8000001E-01;  9.9999998E-03;  5.9999999E-02;103;0.0;0.0;0.0;1000.0;  4.0000001E-01;0.0;0;0.0;0.0;0.0;0;0.0;  1.0000000E+04;  0.0000000E+00;  0.0000000E+00;  1.0000000E+04;  0.0000000E+00;  1.0000000E+04;0.0;0.0;0.0;0.0
 -1.8000001E-01;  9.9999998E-03;  7.9999998E-02;104;0.0;0.0;0.0;1000.0;  4.0000001E-01;0.0;0;0.0;0.0;0.0;0;0.0;  1.0000000E+04;  0.0000000E+00;  0.0000000E+00;  1.0000000E+04;  0.0000000E+00;  1.0000000E+04;0.0;0.0;0.0;0.0
 -1.8000001E-01;  9.9999998E-03;  1.0000000E-01;105;0.0;0.0;0.0;1000.0;  4.0000001E-01;0.0;0;0.0;0.0;0.0;0;0.0;  1.0000000E+04;  0.0000000E+00;  0.0000000E+00;  1.0000000E+04;  0.0000000E+00;  1.0000000E+04;0.0;0.0;0.0;0.0
 -1.8000001E-01;  9.9999998E-03;  1.2000000E-01;106;0.0;0.0;0.0;1000.0;  4.0000001E-01;0.0;0;0.0;0.0;0.0;0;0.0;  1.0000000E+04;  0.0000000E+00;  0.0000000E+00;  1.0000000E+04;  0.0000000E+00;  1.0000000E+04;0.0;0.0;0.0;0.0
 -1.8000001E-01;  9.9999998E-03;  1.4000000E-01;107;0.0;0.0;0.0;1000.0;  4.0000001E-01;0.0;0;0.0;0.0;0.0;0;0.0;  1.0000000E+04;  0.0000000E+00;  0.0000000E+00;  1.0000000E+04;  0.0000000E+00;  1.0000000E+04;0.0;0.0;0.0;0.0
 -1.6000000E-01;  9.9999998E-03;  0.0000000E+00;141;0.0;0.0;0.0;1000.0;  4.0000001E-01;0.0;0;0.0;0.0;0.0;0;-1.1822677e-06;  1.0000000E+04;  0.0000000E+00;  0.0000000E+00;  1.0000000E+04;  0.0000000E+00;  1.0000000E+04;-1.1826995e-06;0.0;4.3176376e-10;8.8039684e-05
 -1.6000000E-01;  9.9999998E-03;  2.0000000E-02;142;0.0;0.0;0.0;1000.0;  4.0000001E-01;0.0;0;0.0;0.0;0.0;0;-1.1826536e-06;  1.0000000E+04;  0.0000000E+00;  0.0000000E+00;  1.0000000E+04;  0.0000000E+00;  1.0000000E+04;-1.1831186e-06;0.0;4.650203e-10;8.8283792e-05
 -1.6000000E-01;  9.9999998E-03;  3.9999999E-02;143;0.0;0.0;0.0;1000.0;  4.0000001E-01;0.0;0;0.0;0.0;0.0;0;-1.1836501e-06;  1.0000000E+04;  0.0000000E+00;  0.0000000E+00;  1.0000000E+04;  0.0000000E+00;  1.0000000E+04;-1.1842139e-06;0.0;5.6386096e-10;8.9000081e-05
 -1.6000000E-01;  9.9999998E-03;  5.9999999E-02;144;0.0;0.0;0.0;1000.0;  4.0000001E-01;0.0;0;0.0;0.0;0.0;0;-1.1847612e-06;  1.0000000E+04;  0.0000000E+00;  0.0000000E+00;  1.0000000E+04;  0.0000000E+00;  1.0000000E+04;-1.1854886e-06;0.0;7.273846e-10;9.0141839e-05
 -1.6000000E-01;  9.9999998E-03;  7.9999998E-02;145;0.0;0.0;0.0;1000.0;  4.0000001E-01;0.0;0;0.0;0.0;0.0;0;-1.1851254e-06;  1.0000000E+04;  0.0000000E+00;  0.0000000E+00;  1.0000000E+04;  0.0000000E+00;  1.0000000E+04;-1.1860747e-06;0.0;9.4933128e-10;9.1593691e-05
 -1.6000000E-01;  9.9999998E-03;  1.0000000E-01;146;0.0;0.0;0.0;1000.0;  4.0000001E-01;0.0;0;0.0;0.0;0.0;0;-1.1834424e-06;  1.0000000E+04;  0.0000000E+00;  0.0000000E+00;  1.0000000E+04;  0.0000000E+00;  1.0000000E+04;-1.1846673e-06;0.0;1.2250261e-09;9.3249939e-05
 -1.6000000E-01;  9.9999998E-03;  1.2000000E-01;147;0.0;0.0;0.0;1000.0;  4.0000001E-01;0.0;0;0.0;0.0;0.0;0;-1.1779161e-06;  1.0000000E+04;  0.0000000E+00;  0.0000000E+00;  1.0000000E+04;  0.0000000E+00;  1.0000000E+04;-1.1794601e-06;0.0;1.5439372e-09;9.4934527e-05
 -1.6000000E-01;  9.9999998E-03;  1.4000000E-01;148;0.0;0.0;0.0;1000.0;  4.0000001E-01;0.0;0;0.0;0.0;0.0;0;-1.1662016e-06;  1.0000000E+04;  0.0000000E+00;  0.0000000E+00;  1.0000000E+04;  0.0000000E+00;  1.0000000E+04;-1.1680885e-06;0.0;1.8869029e-09;9.6370684e-05
 -1.4000000E-01;  9.9999998E-03;  0.0000000E+00;182;0.0;0.0;0.0;1000.0;  4.0000001E-01;0.0;0;0.0;0.0;0.0;0;-4.3606164e-05;  1.0000000E+04;  0.0000000E+00;  0.0000000E+00;  1.0000000E+04;  0.0000000E+00;  1.0000000E+04;-4.3665968e-05;0.0;5.9805139e-08;0.0037121773
 -1.4000000E-01;  9.9999998E-03;  2.0000000E-02;183;0.0;0.0;0.0;1000.0;  4.0000001E-01;0.0;0;0.0;0.0;0.0;0;-4.361316e-05;  1.0000000E+04;  0.0000000E+00;  0.0000000E+00;  1.0000000E+04;  0.0000000E+00;  1.0000000E+04;-4.3677115e-05;0.0;6.3955071e-08;0.0037421265
 -1.4000000E-01;  9.9999998E-03;  3.9999999E-02;184;0.0;0.0;0.0;1000.0;  4.0000001E-01;0.0;0;0.0;0.0;0.0;0;-4.362797e-05;  1.0000000E+04;  0.0000000E+00;  0.0000000E+00;  1.0000000E+04;  0.0000000E+00;  1.0000000E+04;-4.3704251e-05;0.0;7.6281133e-08;0.003830265
 -1.4000000E-01;  9.9999998E-03;  5.9999999E-02;185;0.0;0.0;0.0;1000.0;  4.0000001E-01;0.0;0;0.0;0.0;0.0;0;-4.3631564e-05;  1.0000000E+04;  0.0000000E+00;  0.0000000E+00;  1.0000000E+04;  0.0000000E+00;  1.0000000E+04;-4.3728058e-05;0.0;9.6491988e-08;0.0039725443
 -1.4000000E-01;  9.9999998E-03;  7.9999998E-02;186;0.0;0.0;0.0;1000.0;  4.0000001E-01;0.0;0;0.0;0.0;0.0;0;-4.3590804e-05;  1.0000000E+04;  0.0000000E+00;  0.0000000E+00;  1.0000000E+04;  0.0000000E+00;  1.0000000E+04;-4.3714837e-05;0.0;1.2403456e-07;0.004162367
 -1.4000000E-01;  9.9999998E-03;  1.0000000E-01;187;0.0;0.0;0.0;1000.0;  4.0000001E-01;0.0;0;0.0;0.0;0.0;0;-4.3456806e-05;  1.0000000E+04;  0.0000000E+00;  0.0000000E+00;  1.0000000E+04;  0.0000000E+00;  1.0000000E+04;-4.3614727e-05;0.0;1.5791989e-07;0.0043897056
 -1.4000000E-01;  9.9999998E-03;  1.2000000E-01;188;0.0;0.0;0.0;1000.0;  4.0000001E-01;0.0;0;0.0;0.0;0.0;0;-4.3162549e-05;  1.0000000E+04;  0.0000000E+00;  0.0000000E+00;  1.0000000E+04;  0.0000000E+00;  1.0000000E+04;-4.3359421e-05;0.0;1.9687117e-07;0.00464208
 -1.4000000E-01;  9.9999998E-03;  1.4000000E-01;189;0.0;0.0;0.0;1000.0;  4.0000001E-01;0.0;0;0.0;0.0;0.0;0;-4.2622305e-05;  1.0000000E+04;  0.0000000E+00;  0.0000000E+00;  1.0000000E+04;  0.0000000E+00;  1.0000000E+04;-4.2860964e-05;0.0;2.3865871e-07;0.0048987032
 -1.2000000E-01;  9.9999998E-03;  0.0000000E+00;223;0.0;0.0;0.0;1000.0002;  4.0000001E-01;0.19752525;0;0.0;0.0;0.0;0;-0.00024306827;  1.0000000E+04;  0.0000000E+00;  0.0000000E+00;  1.0000000E+04;  0.0000000E+00;  1.0000000E+04;-0.00024368815;0.0;6.1988658e-07;0.023692843
 -1.2000000E-01;  9.9999998E-03;  2.0000000E-02;224;0.0;0.0;0.0;1000.0002;  4.0000001E-01;0.19752525;0;0.0;0.0;0.0;0;-0.00024308098;  1.0000000E+04;  0.0000000E+00;  0.0000000E+00;  1.0000000E+04;  0.0000000E+00;  1.0000000E+04;-0.00024374037;0.0;6.5939713e-07;0.023976762
 -1.2000000E-01;  9.9999998E-03;  3.9999999E-02;225;0.0;0.0;0.0;1000.0002;  4.0000001E-01;0.19752525;0;0.0;0.0;0.0;0;-0.00024308391;  1.0000000E+04;  0.0000000E+00;  0.0000000E+00;  1.0000000E+04;  0.0000000E+00;  1.0000000E+04;-0.00024386091;0.0;7.7700645e-07;0.024817564
 -1.2000000E-01;  9.9999998E-03;  5.9999999E-02;226;0.0;0.0;0.0;1000.0002;  4.0000001E-01;0.19752525;0;0.0;0.0;0.0;0;-0.0002429689;  1.0000000E+04;  0.0000000E+00;  0.0000000E+00;  1.0000000E+04;  0.0000000E+00;  1.0000000E+04;-0.00024393844;0.0;9.6954273e-07;0.02618123
 -1.2000000E-01;  9.9999998E-03;  7.9999998E-02;227;0.0;0.0;0.0;1000.0002;  4.0000001E-01;0.19752525;0;0.0;0.0;0.0;0;-0.00024254945;  1.0000000E+04;  0.0000000E+00;  0.0000000E+00;  1.0000000E+04;  0.0000000E+00;  1.0000000E+04;-0.00024378055;0.0;1.2311045e-06;0.028010821
 -1.2000000E-01;  9.9999998E-03;  1.0000000E-01;228;0.0;0.0;0.0;1000.0002;  4.0000001E-01;0.19752525;0;0.0;0.0;0.0;0;-0.00024155081;  1.0000000E+04;  0.0000000E+00;  0.0000000E+00;  1.0000000E+04;  0.0000000E+00;  1.0000000E+04;-0.00024310326;0.0;1.5524528e-06;0.030223789
 -1.2000000E-01;  9.9999998E-03;  1.2000000E-01;229;0.0;0.0;0.0;1000.0002;  4.0000001E-01;0.19752525;0;0.0;0.0;0.0;0;-0.00023960254;  1.0000000E+04;  0.0000000E+00;  0.0000000E+00;  1.0000000E+04;  0.0000000E+00;  1.0000000E+04;-0.00024152099;0.0;1.9184579e-06;0.032691553
 -1.2000000E-01;  9.9999998E-03;  1.4000000E-01;230;0.0;0.0;0.0;1000.0002;  4.0000001E-01;0.19752525;0;0.0;0.0;0.0;0;-0.00023623851;  1.0000000E+04;  0.0000000E+00;  0.0000000E+00;  1.0000000E+04;  0.0000000E+00;  1.0000000E+04;-0.0002385415;0.0;2.3029904e-06;0.035195459
 -1.0000000E-01;  9.9999998E-03;  0.0000000E+00;264;0.0;0.0;0.0;1000.0007;  4.0000001E-01;0.59257573;0;0.0;0.0;0.0;0;-0.00078054273;  1.0000000E+04;  0.0000000E+00;  0.0000000E+00;  1.0000000E+04;  0.0000000E+00;  1.0000000E+04;-0.00078353111;0.0;2.9883829e-06;0.086498238
 -1.0000000E-01;  9.9999998E-03;  2.0000000E-02;265;0.0;0.0;0.0;1000.0007;  4.0000001E-01;0.59257573;0;0.0;0.0;0.0;0;-0.00078052253;  1.0000000E+04;  0.0000000E+00;  0.0000000E+00;  1.0000000E+04;  0.0000000E+00;  1.0000000E+04;-0.00078368967;0.0;3.1671641e-06;0.087784313
 -1.0000000E-01;  9.9999998E-03;  3.9999999E-02;266;0.0;0.0;0.0;1000.0007;  4.0000001E-01;0.59257573;0;0.0;0.0;0.0;0;-0.00078034727;  1.0000000E+04;  0.0000000E+00;  0.0000000E+00;  1.0000000E+04;  0.0000000E+00;  1.0000000E+04;-0.00078404619;0.0;3.6989113e-06;0.091596864
 -1.0000000E-01;  9.9999998E-03;  5.9999999E-02;267;0.0;0.0;0.0;1000.0007;  4.0000001E-01;0.59257573;0;0.0;0.0;0.0;0;-0.00077966973;  1.0000000E+04;  0.0000000E+00;  0.0000000E+00;  1.0000000E+04;  0.0000000E+00;  1.0000000E+04;-0.0007842381;0.0;4.568396e-06;0.097792365
 -1.0000000E-01;  9.9999998E-03;  7.9999998E-02;268;0.0;0.0;0.0;1000.0007;  4.0000001E-01;0.59257573;0;0.0;0.0;0.0;0;-0.00077788817;  1.0000000E+04;  0.0000000E+00;  0.0000000E+00;  1.0000000E+04;  0.0000000E+00;  1.0000000E+04;-0.00078363594;0.0;5.7477896e-06;0.10612442
 -1.0000000E-01;  9.9999998E-03;  1.0000000E-01;269;0.0;0.0;0.0;1000.0007;  4.0000001E-01;0.59257573;0;0.0;0.0;0.0;0;-0.00077412487;  1.0000000E+04;  0.0000000E+00;  0.0000000E+00;  1.0000000E+04;  0.0000000E+00;  1.0000000E+04;-0.00078131567;0.0;7.1908207e-06;0.11620627
 -1.0000000E-01;  9.9999998E-03;  1.2000000E-01;270;0.0;0.0;0.0;1000.0007;  4.0000001E-01;0.59257573;0;0.0;0.0;0.0;0;-0.00076720631;  1.0000000E+04;  0.0000000E+00;  0.0000000E+00;  1.0000000E+04;  0.0000000E+00;  1.0000000E+04;-0.00077602552;0.0;8.8192119e-06;0.12740162
 -1.0000000E-01;  9.9999998E-03;  1.4000000E-01;271;0.0;0.0;0.0;1000.0007;  4.0000001E-01;0.59257573;0;0.0;0.0;0.0;0;-0.00075567618;  1.0000000E+04;  0.0000000E+00;  0.0000000E+00;  1.0000000E+04;  0.0000000E+00;  1.0000000E+04;-0.00076617394;0.0;1.0497769e-05;0.13861889
 -7.9999998E-02;  9.9999998E-03;  0.0000000E+00;305;0.0;0.0;0.0;1000.0019;  4.0000001E-01;1.580202;0;0.0;0.0;0.0;0;-0.0018711732;  1.0000000E+04;  0.0000000E+00;  0.0000000E+00;  1.0000000E+04;  0.0000000E+00;  1.0000000E+04;-0.0018807434;0.0;9.5702217e-06;0.23276401
 -7.9999998E-02;  9.9999998E-03;  2.0000000E-02;306;0.0;0.0;0.0;1000.0019;  4.0000001E-01;1.580202;0;0.0;0.0;0.0;0;-0.0018710301;  1.0000000E+04;  0.0000000E+00;  0.0000000E+00;  1.0000000E+04;  0.0000000E+00;  1.0000000E+04;-0.0018811462;0.0;1.0116146e-05;0.23670706
 -7.9999998E-02;  9.9999998E-03;  3.9999999E-02;307;0.0;0.0;0.0;1000.0019;  4.0000001E-01;1.580202;0;0.0;0.0;0.0;0;-0.0018703304;  1.0000000E+04;  0.0000000E+00;  0.0000000E+00;  1.0000000E+04;  0.0000000E+00;  1.0000000E+04;-0.0018820689;0.0;1.1738526e-05;0.24839742
 -7.9999998E-02;  9.9999998E-03;  5.9999999E-02;308;0.0;0.0;0.0;1000.0018;  4.0000001E-01;1.4814394;0;0.0;0.0;0.0;0;-0.0018682429;  1.0000000E+04;  0.0000000E+00;  0.0000000E+00;  1.0000000E+04;  0.0000000E+00;  1.0000000E+04;-0.0018826319;0.0;1.4389038e-05;0.26740879
 -7.9999998E-02;  9.9999998E-03;  7.9999998E-02;309;0.0;0.0;0.0;1000.0018;  4.0000001E-01;1.4814394;0;0.0;0.0;0.0;0;-0.0018633353;  1.0000000E+04;  0.0000000E+00;  0.0000000E+00;  1.0000000E+04;  0.0000000E+00;  1.0000000E+04;-0.0018813128;0.0;1.7977549e-05;0.29298228
 -7.9999998E-02;  9.9999998E-03;  1.0000000E-01;310;0.0;0.0;0.0;1000.0018;  4.0000001E-01;1.4814394;0;0.0;0.0;0.0;0;-0.0018535246;  1.0000000E+04;  0.0000000E+00;  0.0000000E+00;  1.0000000E+04;  0.0000000E+00;  1.0000000E+04;-0.0018758742;0.0;2.2349637e-05;0.32386667
 -7.9999998E-02;  9.9999998E-03;  1.2000000E-01;311;0.0;0.0;0.0;1000.0018;  4.0000001E-01;1.4814394;0;0.0;0.0;0.0;0;-0.001836048;  1.0000000E+04;  0.0000000E+00;  0.0000000E+00;  1.0000000E+04;  0.0000000E+00;  1.0000000E+04;-0.0018632871;0.0;2.7239057e-05;0.35793847
 -7.9999998E-02;  9.9999998E-03;  1.4000000E-01;312;0.0;0.0;0.0;1000.0017;  4.0000001E-01;1.3826767;0;0.0;0.0;0.0;0;-0.0018075015;  1.0000000E+04;  0.0000000E+00;  0.0000000E+00;  1.0000000E+04;  0.0000000E+00;  1.0000000E+04;-0.0018396961;0.0;3.219453e-05;0.3916046
 -5.9999999E-02;  9.9999998E-03;  0.0000000E+00;346;0.0;0.0;0.0;1000.0036;  4.0000001E-01;2.9628787;0;0.0;0.0;0.0;0;-0.0036592223;  1.0000000E+04;  0.0000000E+00;  0.0000000E+00;  1.0000000E+04;  0.0000000E+00;  1.0000000E+04;-0.0036827105;0.0;2.3488286e-05;0.50690955
 -5.9999999E-02;  9.9999998E-03;  2.0000000E-02;347;0.0;0.0;0.0;1000.0036;  4.0000001E-01;2.9628787;0;0.0;0.0;0.0;0;-0.0036588486;  1.0000000E+04;  0.0000000E+00;  0.0000000E+00;  1.0000000E+04;  0.0000000E+00;  1.0000000E+04;-0.0036836306;0.0;2.4782001e-05;0.51631296
 -5.9999999E-02;  9.9999998E-03;  3.9999999E-02;348;0.0;0.0;0.0;1000.0036;  4.0000001E-01;2.9628787;0;0.0;0.0;0.0;0;-0.0036572043;  1.0000000E+04;  0.0000000E+00;  0.0000000E+00;  1.0000000E+04;  0.0000000E+00;  1.0000000E+04;-0.003685829;0.0;2.8624749e-05;0.5441913
 -5.9999999E-02;  9.9999998E-03;  5.9999999E-02;349;0.0;0.0;0.0;1000.0036;  4.0000001E-01;2.9628787;0;0.0;0.0;0.0;0;-0.0036526856;  1.0000000E+04;  0.0000000E+00;  0.0000000E+00;  1.0000000E+04;  0.0000000E+00;  1.0000000E+04;-0.0036875831;0.0;3.4897657e-05;0.58953613
 -5.9999999E-02;  9.9999998E-03;  7.9999998E-02;350;0.0;0.0;0.0;1000.0036;  4.0000001E-01;2.9628787;0;0.0;0.0;0.0;0;-0.0036425295;  1.0000000E+04;  0.0000000E+00;  0.0000000E+00;  1.0000000E+04;  0.0000000E+00;  1.0000000E+04;-0.0036859042;0.0;4.3374788e-05;0.65049976
 -5.9999999E-02;  9.9999998E-03;  1.0000000E-01;351;0.0;0.0;0.0;1000.0036;  4.0000001E-01;2.9628787;0;0.0;0.0;0.0;0;-0.0036227279;  1.0000000E+04;  0.0000000E+00;  0.0000000E+00;  1.0000000E+04;  0.0000000E+00;  1.0000000E+04;-0.0036763898;0.0;5.3661875e-05;0.72394067
 -5.9999999E-02;  9.9999998E-03;  1.2000000E-01;352;0.0;0.0;0.0;1000.0036;  4.0000001E-01;2.9628787;0;0.0;0.0;0.0;0;-0.0035879924;  1.0000000E+04;  0.0000000E+00;  0.0000000E+00;  1.0000000E+04;  0.0000000E+00;  1.0000000E+04;-0.003653069;0.0;6.5076587e-05;0.80446333
 -5.9999999E-02;  9.9999998E-03;  1.4000000E-01;353;0.0;0.0;0.0;1000.0035;  4.0000001E-01;2.8641162;0;0.0;0.0;0.0;0;-0.0035318183;  1.0000000E+04;  0.0000000E+00;  0.0000000E+00;  1.0000000E+04;  0.0000000E+00;  1.0000000E+04;-0.0036083031;0.0;7.6484859e-05;0.88308638
 -3.9999999E-02;  9.9999998E-03;  0.0000000E+00;387;0.0;0.0;0.0;1000.0062;  4.0000001E-01;5.1356564;0;0.0;0.0;0.0;0;-0.0061015161;  1.0000000E+04;  0.0000000E+00;  0.0000000E+00;  1.0000000E+04;  0.0000000E+00;  1.0000000E+04;-0.0061489581;0.0;4.7442103e-05;0.93867254
 -3.9999999E-02;  9.9999998E-03;  2.0000000E-02;388;0.0;0.0;0.0;1000.0062;  4.0000001E-01;5.1356564;0;0.0;0.0;0.0;0;-0.0061008665;  1.0000000E+04;  0.0000000E+00;  0.0000000E+00;  1.0000000E+04;  0.0000000E+00;  1.0000000E+04;-0.0061508599;0.0;4.9993465e-05;0.95737493
 -3.9999999E-02;  9.9999998E-03;  3.9999999E-02;389;0.0;0.0;0.0;1000.0062;  4.0000001E-01;5.1356564;0;0.0;0.0;0.0;0;-0.006098072;  1.0000000E+04;  0.0000000E+00;  0.0000000E+00;  1.0000000E+04;  0.0000000E+00;  1.0000000E+04;-0.0061556427;0.0;5.7570505e-05;1.0128295
 -3.9999999E-02;  9.9999998E-03;  5.9999999E-02;390;0.0;0.0;0.0;1000.0062;  4.0000001E-01;5.1356564;0;0.0;0.0;0.0;0;-0.0060905078;  1.0000000E+04;  0.0000000E+00;  0.0000000E+00;  1.0000000E+04;  0.0000000E+00;  1.0000000E+04;-0.006160439;0.0;6.9931339e-05;1.103032
 -3.9999999E-02;  9.9999998E-03;  7.9999998E-02;391;0.0;0.0;0.0;1000.0062;  4.0000001E-01;5.1356564;0;0.0;0.0;0.0;0;-0.0060736728;  1.0000000E+04;  0.0000000E+00;  0.0000000E+00;  1.0000000E+04;  0.0000000E+00;  1.0000000E+04;-0.0061602825;0.0;8.6609754e-05;1.2242315
 -3.9999999E-02;  9.9999998E-03;  1.0000000E-01;392;0.0;0.0;0.0;1000.0061;  4.0000001E-01;5.0368938;0;0.0;0.0;0.0;0;-0.0060410323;  1.0000000E+04;  0.0000000E+00;  0.0000000E+00;  1.0000000E+04;  0.0000000E+00;  1.0000000E+04;-0.0061478163;0.0;0.00010678393;1.3699363
 -3.9999999E-02;  9.9999998E-03;  1.2000000E-01;393;0.0;0.0;0.0;1000.006;  4.0000001E-01;4.9381313;0;0.0;0.0;0.0;0;-0.0059839734;  1.0000000E+04;  0.0000000E+00;  0.0000000E+00;  1.0000000E+04;  0.0000000E+00;  1.0000000E+04;-0.0061130091;0.0;0.0001290355;1.5289677
 -3.9999999E-02;  9.9999998E-03;  1.4000000E-01;394;0.0;0.0;0.0;1000.0059;  4.0000001E-01;4.8393683;0;0.0;0.0;0.0;0;-0.0058919149;  1.0000000E+04;  0.0000000E+00;  0.0000000E+00;  1.0000000E+04;  0.0000000E+00;  1.0000000E+04;-0.0060429596;0.0;0.00015104453;1.6829485
 -2.0000000E-02;  9.9999998E-03;  0.0000000E+00;428;0.0;0.0;0.0;1000.009;  4.0000001E-01;7.5059595;0;0.0;0.0;0.0;0;-0.0089140683;  1.0000000E+04;  0.0000000E+00;  0.0000000E+00;  1.0000000E+04;  0.0000000E+00;  1.0000000E+04;-0.0089961952;0.0;8.2127161e-05;1.5243034
 -2.0000000E-02;  9.9999998E-03;  2.0000000E-02;429;0.0;0.0;0.0;1000.009;  4.0000001E-01;7.5059595;0;0.0;0.0;0.0;0;-0.0089132786;  1.0000000E+04;  0.0000000E+00;  0.0000000E+00;  1.0000000E+04;  0.0000000E+00;  1.0000000E+04;-0.0089997584;0.0;8.647958e-05;1.5565633
 -2.0000000E-02;  9.9999998E-03;  3.9999999E-02;430;0.0;0.0;0.0;1000.009;  4.0000001E-01;7.407197;0;0.0;0.0;0.0;0;-0.008909706;  1.0000000E+04;  0.0000000E+00;  0.0000000E+00;  1.0000000E+04;  0.0000000E+00;  1.0000000E+04;-0.0090091107;0.0;9.9404628e-05;1.6522391
 -2.0000000E-02;  9.9999998E-03;  5.9999999E-02;431;0.0;0.0;0.0;1000.009;  4.0000001E-01;7.407197;0;0.0;0.0;0.0;0;-0.0088996394;  1.0000000E+04;  0.0000000E+00;  0.0000000E+00;  1.0000000E+04;  0.0000000E+00;  1.0000000E+04;-0.0090201199;0.0;0.00012048097;1.807883
 -2.0000000E-02;  9.9999998E-03;  7.9999998E-02;432;0.0;0.0;0.0;1000.009;  4.0000001E-01;7.407197;0;0.0;0.0;0.0;0;-0.0088767083;  1.0000000E+04;  0.0000000E+00;  0.0000000E+00;  1.0000000E+04;  0.0000000E+00;  1.0000000E+04;-0.0090255952;0.0;0.00014888699;2.0169373
 -2.0000000E-02;  9.9999998E-03;  1.0000000E-01;433;0.0;0.0;0.0;1000.0089;  4.0000001E-01;7.308434;0;0.0;0.0;0.0;0;-0.008831651;  1.0000000E+04;  0.0000000E+00;  0.0000000E+00;  1.0000000E+04;  0.0000000E+00;  1.0000000E+04;-0.0090148179;0.0;0.00018316694;2.2679329
 -2.0000000E-02;  9.9999998E-03;  1.2000000E-01;434;0.0;0.0;0.0;1000.0087;  4.0000001E-01;7.2096715;0;0.0;0.0;0.0;0;-0.0087522473;  1.0000000E+04;  0.0000000E+00;  0.0000000E+00;  1.0000000E+04;  0.0000000E+00;  1.0000000E+04;-0.0089730704;0.0;0.00022082296;2.5411537
 -2.0000000E-02;  9.9999998E-03;  1.4000000E-01;435;0.0;0.0;0.0;1000.0085;  4.0000001E-01;7.110909;0;0.0;0.0;0.0;0;-0.0086234482;  1.0000000E+04;  0.0000000E+00;  0.0000000E+00;  1.0000000E+04;  0.0000000E+00;  1.0000000E+04;-0.0088812523;0.0;0.0002578038;2.8043616
 -2.2000000E-01;  9.9999998E-03;  1.6000000E-01;27;0.0;0.0;0.0;1000.0;  4.0000001E-01;0.0;0;0.0;0.0;0.0;0;0.0;  1.0000000E+04;  0.0000000E+00;  0.0000000E+00;  1.0000000E+04;  0.0000000E+00;  1.0000000E+04;0.0;0.0;0.0;0.0
 -2.2000000E-01;  9.9999998E-03;  1.8000001E-01;28;0.0;0.0;0.0;1000.0;  4.0000001E-01;0.0;0;0.0;0.0;0.0;0;0.0;  1.0000000E+04;  0.0000000E+00;  0.0000000E+00;  1.0000000E+04;  0.0000000E+00;  1.0000000E+04;0.0;0.0;0.0;0.0
 -2.2000000E-01;  9.9999998E-03;  2.0000000E-01;29;0.0;0.0;0.0;1000.0;  4.0000001E-01;0.0;0;0.0;0.0;0.0;0;0.0;  1.0000000E+04;  0.0000000E+00;  0.0000000E+00;  1.0000000E+04;  0.0000000E+00;  1.0000000E+04;0.0;0.0;0.0;0.0
 -2.2000000E-01;  9.9999998E-03;  2.2000000E-01;30;0.0;0.0;0.0;1000.0;  4.0000001E-01;0.0;0;0.0;0.0;0.0;0;0.0;  1.0000000E+04;  0.0000000E+00;  0.0000000E+00;  1.0000000E+04;  0.0000000E+00;  1.0000000E+04;0.0;0.0;0.0;0.0
 -2.2000000E-01;  9.9999998E-03;  2.3999999E-01;31;0.0;0.0;0.0;1000.0;  4.0000001E-01;0.0;0;0.0;0.0;0.0;0;0.0;  1.0000000E+04;  0.0000000E+00;  0.0000000E+00;  1.0000000E+04;  0.0000000E+00;  1.0000000E+04;0.0;0.0;0.0;0.0
 -2.2000000E-01;  9.9999998E-03;  2.5999999E-01;32;0.0;0.0;0.0;1000.0;  4.0000001E-01;0.0;0;0.0;0.0;0.0;0;0.0;  1.0000000E+04;  0.0000000E+00;  0.0000000E+00;  1.0000000E+04;  0.0000000E+00;  1.0000000E+04;0.0;0.0;0.0;0.0
 -2.2000000E-01;  9.9999998E-03;  2.8000000E-01;33;0.0;0.0;0.0;1000.0;  4.0000001E-01;0.0;0;0.0;0.0;0.0;0;0.0;  1.0000000E+04;  0.0000000E+00;  0.0000000E+00;  1.0000000E+04;  0.0000000E+00;  1.0000000E+04;0.0;0.0;0.0;0.0
 -2.2000000E-01;  9.9999998E-03;  3.0000001E-01;34;0.0;0.0;0.0;1000.0;  4.0000001E-01;0.0;0;0.0;0.0;0.0;0;0.0;  1.0000000E+04;  0.0000000E+00;  0.0000000E+00;  1.0000000E+04;  0.0000000E+00;  1.0000000E+04;0.0;0.0;0.0;0.0
 -2.2000000E-01;  9.9999998E-03;  3.1999999E-01;35;0.0;0.0;0.0;1000.0;  4.0000001E-01;0.0;0;0.0;0.0;0.0;0;0.0;  1.0000000E+04;  0.0000000E+00;  0.0000000E+00;  1.0000000E+04;  0.0000000E+00;  1.0000000E+04;0.0;0.0;0.0;0.0
 -2.0000000E-01;  9.9999998E-03;  1.6000000E-01;67;0.0;0.0;0.0;1000.0;  4.0000001E-01;0.0;0;0.0;0.0;0.0;0;0.0;  1.0000000E+04;  0.0000000E+00;  0.0000000E+00;  1.0000000E+04;  0.0000000E+00;  1.0000000E+04;0.0;0.0;0.0;0.0
 -2.0000000E-01;  9.9999998E-03;  1.8000001E-01;68;0.0;0.0;0.0;1000.0;  4.0000001E-01;0.0;0;0.0;0.0;0.0;0;0.0;  1.0000000E+04;  0.0000000E+00;  0.0000000E+00;  1.0000000E+04;  0.0000000E+00;  1.0000000E+04;0.0;0.0;0.0;0.0
 -2.0000000E-01;  9.9999998E-03;  2.0000000E-01;69;0.0;0.0;0.0;1000.0;  4.0000001E-01;0.0;0;0.0;0.0;0.0;0;0.0;  1.0000000E+04;  0.0000000E+00;  0.0000000E+00;  1.0000000E+04;  0.0000000E+00;  1.0000000E+04;0.0;0.0;0.0;0.0
 -2.0000000E-01;  9.9999998E-03;  2.2000000E-01;70;0.0;0.0;0.0;1000.0;  4.0000001E-01;0.0;0;0.0;0.0;0.0;0;0.0;  1.0000000E+04;  0.0000000E+00;  0.0000000E+00;  1.0000000E+04;  0.0000000E+00;  1.0000000E+04;0.0;0.0;0.0;0.0
 -2.0000000E-01;  9.9999998E-03;  2.3999999E-01;71;0.0;0.0;0.0;1000.0;  4.0000001E-01;0.0;0;0.0;0.0;0.0;0;0.0;  1.0000000E+04;  0.0000000E+00;  0.0000000E+00;  1.0000000E+04;  0.0000000E+00;  1.0000000E+04;0.0;0.0;0.0;0.0
 -2.0000000E-01;  9.9999998E-03;  2.5999999E-01;72;0.0;0.0;0.0;1000.0;  4.0000001E-01;0.0;0;0.0;0.0;0.0;0;0.0;  1.0000000E+04;  0.0000000E+00;  0.0000000E+00;  1.0000000E+04;  0.0000000E+00;  1.0000000E+04;0.0;0.0;0.0;0.0
 -2.0000000E-01;  9.9999998E-03;  2.8000000E-01;73;0.0;0.0;0.0;1000.0;  4.0000001E-01;0.0;0;0.0;0.0;0.0;0;0.0;  1.0000000E+04;  0.0000000E+00;  0.0000000E+00;  1.0000000E+04;  0.0000000E+00;  1.0000000E+04;0.0;0.0;0.0;0.0
 -2.0000000E-01;  9.9999998E-03;  3.0000001E-01;74;0.0;0.0;0.0;1000.0;  4.0000001E-01;0.0;0;0.0;0.0;0.0;0;0.0;  1.0000000E+04;  0.0000000E+00;  0.0000000E+00;  1.0000000E+04;  0.0000000E+00;  1.0000000E+04;0.0;0.0;0.0;0.0
 -2.0000000E-01;  9.9999998E-03;  3.1999999E-01;75;0.0;0.0;0.0;1000.0;  4.0000001E-01;0.0;0;0.0;0.0;0.0;0;0.0;  1.0000000E+04;  0.0000000E+00;  0.0000000E+00;  1.0000000E+04;  0.0000000E+00;  1.0000000E+04;0.0;0.0;0.0;0.0
 -1.8000001E-01;  9.9999998E-03;  1.6000000E-01;108;0.0;0.0;0.0;1000.0;  4.0000001E-01;0.0;0;0.0;0.0;0.0;0;0.0;  1.0000000E+04;  0.0000000E+00;  0.0000000E+00;  1.0000000E+04;  0.0000000E+00;  1.0000000E+04;0.0;0.0;0.0;0.0
 -1.8000001E-01;  9.9999998E-03;  1.8000001E-01;109;0.0;0.0;0.0;1000.0;  4.0000001E-01;0.0;0;0.0;0.0;0.0;0;0.0;  1.0000000E+04;  0.0000000E+00;  0.0000000E+00;  1.0000000E+04;  0.0000000E+00;  1.0000000E+04;0.0;0.0;0.0;0.0
 -1.8000001E-01;  9.9999998E-03;  2.0000000E-01;110;0.0;0.0;0.0;1000.0;  4.0000001E-01;0.0;0;0.0;0.0;0.0;0;0.0;  1.0000000E+04;  0.0000000E+00;  0.0000000E+00;  1.0000000E+04;  0.0000000E+00;  1.0000000E+04;0.0;0.0;0.0;0.0
 -1.8000001E-01;  9.9999998E-03;  2.2000000E-01;111;0.0;0.0;0.0;1000.0;  4.0000001E-01;0.0;0;0.0;0.0;0.0;0;0.0;  1.0000000E+04;  0.0000000E+00;  0.0000000E+00;  1.0000000E+04;  0.0000000E+00;  1.0000000E+04;0.0;0.0;0.0;0.0
 -1.8000001E-01;  9.9999998E-03;  2.3999999E-01;112;0.0;0.0;0.0;1000.0;  4.0000001E-01;0.0;0;0.0;0.0;0.0;0;0.0;  1.0000000E+04;  0.0000000E+00;  0.0000000E+00;  1.0000000E+04;  0.0000000E+00;  1.0000000E+04;0.0;0.0;0.0;0.0
 -1.8000001E-01;  9.9999998E-03;  2.5999999E-01;113;0.0;0.0;0.0;1000.0;  4.0000001E-01;0.0;0;0.0;0.0;0.0;0;0.0;  1.0000000E+04;  0.0000000E+00;  0.0000000E+00;  1.0000000E+04;  0.0000000E+00;  1.0000000E+04;0.0;0.0;0.0;0.0
 -1.8000001E-01;  9.9999998E-03;  2.8000000E-01;114;0.0;0.0;0.0;1000.0;  4.0000001E-01;0.0;0;0.0;0.0;0.0;0;0.0;  1.0000000E+04;  0.0000000E+00;  0.0000000E+00;  1.0000000E+04;  0.0000000E+00;  1.0000000E+04;0.0;0.0;0.0;0.0
 -1.8000001E-01;  9.9999998E-03;  3.0000001E-01;115;0.0;0.0;0.0;1000.0;  4.0000001E-01;0.0;0;0.0;0.0;0.0;0;0.0;  1.0000000E+04;  0.0000000E+00;  0.0000000E+00;  1.0000000E+04;  0.0000000E+00;  1.0000000E+04;0.0;0.0;0.0;0.0
 -1.8000001E-01;  9.9999998E-03;  3.1999999E-01;116;0.0;0.0;0.0;1000.0;  4.0000001E-01;0.0;0;0.0;0.0;0.0;0;0.0;  1.0000000E+04;  0.0000000E+00;  0.0000000E+00;  1.0000000E+04;  0.0000000E+00;  1.0000000E+04;0.0;0.0;0.0;0.0
 -1.6000000E-01;  9.9999998E-03;  1.6000000E-01;149;0.0;0.0;0.0;1000.0;  4.0000001E-01;0.0;0;0.0;0.0;0.0;0;-1.1453305e-06;  1.0000000E+04;  0.0000000E+00;  0.0000000E+00;  1.0000000E+04;  0.0000000E+00;  1.0000000E+04;-1.1475751e-06;0.0;2.2445485e-09;9.7315693e-05
 -1.6000000E-01;  9.9999998E-03;  1.8000001E-01;150;0.0;0.0;0.0;1000.0;  4.0000001E-01;0.0;0;0.0;0.0;0.0;0;-1.1118939e-06;  1.0000000E+04;  0.0000000E+00;  0.0000000E+00;  1.0000000E+04;  0.0000000E+00;  1.0000000E+04;-1.1144508e-06;0.0;2.5569791e-09;9.7087694e-05
 -1.6000000E-01;  9.9999998E-03;  2.0000000E-01;151;0.0;0.0;0.0;1000.0;  4.0000001E-01;0.0;0;0.0;0.0;0.0;0;-1.062264e-06;  1.0000000E+04;  0.0000000E+00;  0.0000000E+00;  1.0000000E+04;  0.0000000E+00;  1.0000000E+04;-1.0649942e-06;0.0;2.7301585e-09;9.4715331e-05
 -1.6000000E-01;  9.9999998E-03;  2.2000000E-01;152;0.0;0.0;0.0;1000.0;  4.0000001E-01;0.0;0;0.0;0.0;0.0;0;-9.9295846e-07;  1.0000000E+04;  0.0000000E+00;  0.0000000E+00;  1.0000000E+04;  0.0000000E+00;  1.0000000E+04;-9.9562783e-07;0.0;2.6693223e-09;8.9255125e-05
 -1.6000000E-01;  9.9999998E-03;  2.3999999E-01;153;0.0;0.0;0.0;1000.0;  4.0000001E-01;0.0;0;0.0;0.0;0.0;0;-9.0119255e-07;  1.0000000E+04;  0.0000000E+00;  0.0000000E+00;  1.0000000E+04;  0.0000000E+00;  1.0000000E+04;-9.0346794e-07;0.0;2.2753615e-09;7.9795347e-05
 -1.6000000E-01;  9.9999998E-03;  2.5999999E-01;154;0.0;0.0;0.0;1000.0;  4.0000001E-01;0.0;0;0.0;0.0;0.0;0;-7.6530489e-07;  1.0000000E+04;  0.0000000E+00;  0.0000000E+00;  1.0000000E+04;  0.0000000E+00;  1.0000000E+04;-7.6446059e-07;0.0;-8.4428065e-10;4.5352575e-05
 -1.6000000E-01;  9.9999998E-03;  2.8000000E-01;155;0.0;0.0;0.0;1000.0;  4.0000001E-01;0.0;0;0.0;0.0;0.0;0;-5.145975e-07;  1.0000000E+04;  0.0000000E+00;  0.0000000E+00;  1.0000000E+04;  0.0000000E+00;  1.0000000E+04;-5.0629296e-07;0.0;-8.3045384e-09;3.5619825e-05
 -1.6000000E-01;  9.9999998E-03;  3.0000001E-01;156;0.0;0.0;0.0;1000.0;  4.0000001E-01;0.0;0;0.0;0.0;0.0;0;-2.1831822e-07;  1.0000000E+04;  0.0000000E+00;  0.0000000E+00;  1.0000000E+04;  0.0000000E+00;  1.0000000E+04;-2.0908844e-07;0.0;-9.2297823e-09;6.2839048e-05
 -1.6000000E-01;  9.9999998E-03;  3.1999999E-01;157;0.0;0.0;0.0;1000.0;  4.0000001E-01;0.0;0;0.0;0.0;0.0;0;-3.4364493e-08;  1.0000000E+04;  0.0000000E+00;  0.0000000E+00;  1.0000000E+04;  0.0000000E+00;  1.0000000E+04;-3.1630726e-08;0.0;-2.7337672e-09;2.0190277e-05
 -1.4000000E-01;  9.9999998E-03;  1.6000000E-01;190;0.0;0.0;0.0;1000.0;  4.0000001E-01;0.0;0;0.0;0.0;0.0;0;-4.1733198e-05;  1.0000000E+04;  0.0000000E+00;  0.0000000E+00;  1.0000000E+04;  0.0000000E+00;  1.0000000E+04;-4.2012387e-05;0.0;2.791904e-07;0.0051226341
 -1.4000000E-01;  9.9999998E-03;  1.8000001E-01;191;0.0;0.0;0.0;1000.0;  4.0000001E-01;0.0;0;0.0;0.0;0.0;0;-4.0380666e-05;  1.0000000E+04;  0.0000000E+00;  0.0000000E+00;  1.0000000E+04;  0.0000000E+00;  1.0000000E+04;-4.0692099e-05;0.0;3.1143216e-07;0.0052526575
 -1.4000000E-01;  9.9999998E-03;  2.0000000E-01;192;0.0;0.0;0.0;1000.0;  4.0000001E-01;0.0;0;0.0;0.0;0.0;0;-3.8447331e-05;  1.0000000E+04;  0.0000000E+00;  0.0000000E+00;  1.0000000E+04;  0.0000000E+00;  1.0000000E+04;-3.8772963e-05;0.0;3.2563182e-07;0.005206598
 -1.4000000E-01;  9.9999998E-03;  2.2000000E-01;193;0.0;0.0;0.0;1000.0;  4.0000001E-01;0.0;0;0.0;0.0;0.0;0;-3.575789e-05;  1.0000000E+04;  0.0000000E+00;  0.0000000E+00;  1.0000000E+04;  0.0000000E+00;  1.0000000E+04;-3.6043359e-05;0.0;2.8546881e-07;0.0046825511
 -1.4000000E-01;  9.9999998E-03;  2.3999999E-01;194;0.0;0.0;0.0;1000.0;  4.0000001E-01;0.0;0;0.0;0.0;0.0;0;-3.1735864e-05;  1.0000000E+04;  0.0000000E+00;  0.0000000E+00;  1.0000000E+04;  0.0000000E+00;  1.0000000E+04;-3.1808653e-05;0.0;7.2790343e-08;0.0026792453
 -1.4000000E-01;  9.9999998E-03;  2.5999999E-01;195;0.0;0.0;0.0;1000.0;  4.0000001E-01;0.0;0;0.0;0.0;0.0;0;-2.5941796e-05;  1.0000000E+04;  0.0000000E+00;  0.0000000E+00;  1.0000000E+04;  0.0000000E+00;  1.0000000E+04;-2.5650272e-05;0.0;-2.9152389e-07;0.00066824455
 -1.4000000E-01;  9.9999998E-03;  2.8000000E-01;196;0.0;0.0;0.0;1000.0;  4.0000001E-01;0.0;0;0.0;0.0;0.0;0;-1.8746201e-05;  1.0000000E+04;  0.0000000E+00;  0.0000000E+00;  1.0000000E+04;  0.0000000E+00;  1.0000000E+04;-1.8133243e-05;0.0;-6.129581e-07;0.0037687635
 -1.4000000E-01;  9.9999998E-03;  3.0000001E-01;197;0.0;0.0;0.0;1000.0;  4.0000001E-01;0.0;0;0.0;0.0;0.0;0;-1.1374284e-05;  1.0000000E+04;  0.0000000E+00;  0.0000000E+00;  1.0000000E+04;  0.0000000E+00;  1.0000000E+04;-1.0661412e-05;0.0;-7.1287212e-07;0.0051124217
 -1.4000000E-01;  9.9999998E-03;  3.1999999E-01;198;0.0;0.0;0.0;1000.0;  4.0000001E-01;0.0;0;0.0;0.0;0.0;0;-5.3542753e-06;  1.0000000E+04;  0.0000000E+00;  0.0000000E+00;  1.0000000E+04;  0.0000000E+00;  1.0000000E+04;-4.8023626e-06;0.0;-5.5191288e-07;0.0042054099
 -1.2000000E-01;  9.9999998E-03;  1.6000000E-01;231;0.0;0.0;0.0;1000.0002;  4.0000001E-01;0.19752525;0;0.0;0.0;0.0;0;-0.00023091093;  1.0000000E+04;  0.0000000E+00;  0.0000000E+00;  1.0000000E+04;  0.0000000E+00;  1.0000000E+04;-0.00023357218;0.0;2.661252e-06;0.037364591
 -1.2000000E-01;  9.9999998E-03;  1.8000001E-01;232;0.0;0.0;0.0;1000.0002;  4.0000001E-01;0.19752525;0;0.0;0.0;0.0;0;-0.00022302207;  1.0000000E+04;  0.0000000E+00;  0.0000000E+00;  1.0000000E+04;  0.0000000E+00;  1.0000000E+04;-0.00022594605;0.0;2.9239757e-06;0.038632635
 -1.2000000E-01;  9.9999998E-03;  2.0000000E-01;233;0.0;0.0;0.0;1000.0002;  4.0000001E-01;0.19752525;0;0.0;0.0;0.0;0;-0.00021179472;  1.0000000E+04;  0.0000000E+00;  0.0000000E+00;  1.0000000E+04;  0.0000000E+00;  1.0000000E+04;-0.00021467092;0.0;2.8762017e-06;0.037240434
 -1.2000000E-01;  9.9999998E-03;  2.2000000E-01;234;0.0;0.0;0.0;1000.0001;  4.0000001E-01;0.098762624;0;0.0;0.0;0.0;0;-0.00019576363;  1.0000000E+04;  0.0000000E+00;  0.0000000E+00;  1.0000000E+04;  0.0000000E+00;  1.0000000E+04;-0.0001977841;0.0;2.0204736e-06;0.029065991
 -1.2000000E-01;  9.9999998E-03;  2.3999999E-01;235;0.0;0.0;0.0;1000.0001;  4.0000001E-01;0.098762624;0;0.0;0.0;0.0;0;-0.00017343341;  1.0000000E+04;  0.0000000E+00;  0.0000000E+00;  1.0000000E+04;  0.0000000E+00;  1.0000000E+04;-0.00017361048;0.0;1.7706557e-07;0.012535951
 -1.2000000E-01;  9.9999998E-03;  2.5999999E-01;236;0.0;0.0;0.0;1000.0001;  4.0000001E-01;0.098762624;0;0.0;0.0;0.0;0;-0.00014420343;  1.0000000E+04;  0.0000000E+00;  0.0000000E+00;  1.0000000E+04;  0.0000000E+00;  1.0000000E+04;-0.00014191656;0.0;-2.2868571e-06;0.0094517041
 -1.2000000E-01;  9.9999998E-03;  2.8000000E-01;237;0.0;0.0;0.0;1000.0;  4.0000001E-01;0.0;0;0.0;0.0;0.0;0;-0.00010967912;  1.0000000E+04;  0.0000000E+00;  0.0000000E+00;  1.0000000E+04;  0.0000000E+00;  1.0000000E+04;-0.00010520476;0.0;-4.4743651e-06;0.029532207
 -1.2000000E-01;  9.9999998E-03;  3.0000001E-01;238;0.0;0.0;0.0;1000.0;  4.0000001E-01;0.0;0;0.0;0.0;0.0;0;-7.4216761e-05;  1.0000000E+04;  0.0000000E+00;  0.0000000E+00;  1.0000000E+04;  0.0000000E+00;  1.0000000E+04;-6.866199e-05;0.0;-5.5547735e-06;0.040706728
 -1.2000000E-01;  9.9999998E-03;  3.1999999E-01;239;0.0;0.0;0.0;1000.0;  4.0000001E-01;0.0;0;0.0;0.0;0.0;0;-4.3224609e-05;  1.0000000E+04;  0.0000000E+00;  0.0000000E+00;  1.0000000E+04;  0.0000000E+00;  1.0000000E+04;-3.8017086e-05;0.0;-5.2075211e-06;0.039997593
 -1.0000000E-01;  9.9999998E-03;  1.6000000E-01;272;0.0;0.0;0.0;1000.0006;  4.0000001E-01;0.49381313;0;0.0;0.0;0.0;0;-0.0007378438;  1.0000000E+04;  0.0000000E+00;  0.0000000E+00;  1.0000000E+04;  0.0000000E+00;  1.0000000E+04;-0.00074984966;0.0;1.200585e-05;0.14808321
 -1.0000000E-01;  9.9999998E-03;  1.8000001E-01;273;0.0;0.0;0.0;1000.0006;  4.0000001E-01;0.49381313;0;0.0;0.0;0.0;0;-0.00071179308;  1.0000000E+04;  0.0000000E+00;  0.0000000E+00;  1.0000000E+04;  0.0000000E+00;  1.0000000E+04;-0.00072466664;0.0;1.2873576e-05;0.15200388
 -1.0000000E-01;  9.9999998E-03;  2.0000000E-01;274;0.0;0.0;0.0;1000.0006;  4.0000001E-01;0.49381313;0;0.0;0.0;0.0;0;-0.00067483482;  1.0000000E+04;  0.0000000E+00;  0.0000000E+00;  1.0000000E+04;  0.0000000E+00;  1.0000000E+04;-0.00068673928;0.0;1.1904451e-05;0.1406052
 -1.0000000E-01;  9.9999998E-03;  2.2000000E-01;275;0.0;0.0;0.0;1000.0006;  4.0000001E-01;0.49381313;0;0.0;0.0;0.0;0;-0.0006236675;  1.0000000E+04;  0.0000000E+00;  0.0000000E+00;  1.0000000E+04;  0.0000000E+00;  1.0000000E+04;-0.00063161086;0.0;7.9433457e-06;0.10430686
 -1.0000000E-01;  9.9999998E-03;  2.3999999E-01;276;0.0;0.0;0.0;1000.0005;  4.0000001E-01;0.3950505;0;0.0;0.0;0.0;0;-0.00055519555;  1.0000000E+04;  0.0000000E+00;  0.0000000E+00;  1.0000000E+04;  0.0000000E+00;  1.0000000E+04;-0.00055581244;0.0;6.1690787e-07;0.039745219
 -1.0000000E-01;  9.9999998E-03;  2.5999999E-01;277;0.0;0.0;0.0;1000.0004;  4.0000001E-01;0.3950505;0;0.0;0.0;0.0;0;-0.0004683118;  1.0000000E+04;  0.0000000E+00;  0.0000000E+00;  1.0000000E+04;  0.0000000E+00;  1.0000000E+04;-0.00045955612;0.0;-8.7556909e-06;0.042593602
 -1.0000000E-01;  9.9999998E-03;  2.8000000E-01;278;0.0;0.0;0.0;1000.0003;  4.0000001E-01;0.29628786;0;0.0;0.0;0.0;0;-0.00036694194;  1.0000000E+04;  0.0000000E+00;  0.0000000E+00;  1.0000000E+04;  0.0000000E+00;  1.0000000E+04;-0.0003496602;0.0;-1.7281742e-05;0.1189511
 -1.0000000E-01;  9.9999998E-03;  3.0000001E-01;279;0.0;0.0;0.0;1000.0002;  4.0000001E-01;0.19752525;0;0.0;0.0;0.0;0;-0.00026193366;  1.0000000E+04;  0.0000000E+00;  0.0000000E+00;  1.0000000E+04;  0.0000000E+00;  1.0000000E+04;-0.00023960944;0.0;-2.232423e-05;0.16705422
 -1.0000000E-01;  9.9999998E-03;  3.1999999E-01;280;0.0;0.0;0.0;1000.0001;  4.0000001E-01;0.098762624;0;0.0;0.0;0.0;0;-0.00016738835;  1.0000000E+04;  0.0000000E+00;  0.0000000E+00;  1.0000000E+04;  0.0000000E+00;  1.0000000E+04;-0.00014464762;0.0;-2.2740729e-05;0.17656283
 -7.9999998E-02;  9.9999998E-03;  1.6000000E-01;313;0.0;0.0;0.0;1000.0017;  4.0000001E-01;1.3826767;0;0.0;0.0;0.0;0;-0.0017639595;  1.0000000E+04;  0.0000000E+00;  0.0000000E+00;  1.0000000E+04;  0.0000000E+00;  1.0000000E+04;-0.0018004222;0.0;3.646269e-05;0.41886011
 -7.9999998E-02;  9.9999998E-03;  1.8000001E-01;314;0.0;0.0;0.0;1000.0016;  4.0000001E-01;1.2839141;0;0.0;0.0;0.0;0;-0.0017008804;  1.0000000E+04;  0.0000000E+00;  0.0000000E+00;  1.0000000E+04;  0.0000000E+00;  1.0000000E+04;-0.0017390639;0.0;3.8183567e-05;0.42468104
 -7.9999998E-02;  9.9999998E-03;  2.0000000E-01;315;0.0;0.0;0.0;1000.0015;  4.0000001E-01;1.2839141;0;0.0;0.0;0.0;0;-0.0016127754;  1.0000000E+04;  0.0000000E+00;  0.0000000E+00;  1.0000000E+04;  0.0000000E+00;  1.0000000E+04;-0.0016473619;0.0;3.4586479e-05;0.38643181
 -7.9999998E-02;  9.9999998E-03;  2.2000000E-01;316;0.0;0.0;0.0;1000.0014;  4.0000001E-01;1.1851515;0;0.0;0.0;0.0;0;-0.001493374;  1.0000000E+04;  0.0000000E+00;  0.0000000E+00;  1.0000000E+04;  0.0000000E+00;  1.0000000E+04;-0.0015162433;0.0;2.2869348e-05;0.28077427
 -7.9999998E-02;  9.9999998E-03;  2.3999999E-01;317;0.0;0.0;0.0;1000.0013;  4.0000001E-01;1.0863888;0;0.0;0.0;0.0;0;-0.0013365794;  1.0000000E+04;  0.0000000E+00;  0.0000000E+00;  1.0000000E+04;  0.0000000E+00;  1.0000000E+04;-0.0013388421;0.0;2.2626211e-06;0.100558
 -7.9999998E-02;  9.9999998E-03;  2.5999999E-01;318;0.0;0.0;0.0;1000.0011;  4.0000001E-01;0.88886362;0;0.0;0.0;0.0;0;-0.0011398075;  1.0000000E+04;  0.0000000E+00;  0.0000000E+00;  1.0000000E+04;  0.0000000E+00;  1.0000000E+04;-0.0011160914;0.0;-2.3716157e-05;0.12608953
 -7.9999998E-02;  9.9999998E-03;  2.8000000E-01;319;0.0;0.0;0.0;1000.0009;  4.0000001E-01;0.69133836;0;0.0;0.0;0.0;0;-0.00091034331;  1.0000000E+04;  0.0000000E+00;  0.0000000E+00;  1.0000000E+04;  0.0000000E+00;  1.0000000E+04;-0.00086256;0.0;-4.7783291e-05;0.33915347
 -7.9999998E-02;  9.9999998E-03;  3.0000001E-01;320;0.0;0.0;0.0;1000.0006;  4.0000001E-01;0.49381313;0;0.0;0.0;0.0;0;-0.00067048386;  1.0000000E+04;  0.0000000E+00;  0.0000000E+00;  1.0000000E+04;  0.0000000E+00;  1.0000000E+04;-0.00060713832;0.0;-6.3345513e-05;0.48289996
 -7.9999998E-02;  9.9999998E-03;  3.1999999E-01;321;0.0;0.0;0.0;1000.0004;  4.0000001E-01;0.3950505;0;0.0;0.0;0.0;0;-0.00045051341;  1.0000000E+04;  0.0000000E+00;  0.0000000E+00;  1.0000000E+04;  0.0000000E+00;  1.0000000E+04;-0.00038308962;0.0;-6.7423804e-05;0.53049123
 -5.9999999E-02;  9.9999998E-03;  1.6000000E-01;354;0.0;0.0;0.0;1000.0034;  4.0000001E-01;2.8641162;0;0.0;0.0;0.0;0;-0.0034467722;  1.0000000E+04;  0.0000000E+00;  0.0000000E+00;  1.0000000E+04;  0.0000000E+00;  1.0000000E+04;-0.0035325754;0.0;8.5803185e-05;0.94317907
 -5.9999999E-02;  9.9999998E-03;  1.8000001E-01;355;0.0;0.0;0.0;1000.0032;  4.0000001E-01;2.6665909;0;0.0;0.0;0.0;0;-0.0033246018;  1.0000000E+04;  0.0000000E+00;  0.0000000E+00;  1.0000000E+04;  0.0000000E+00;  1.0000000E+04;-0.0034135149;0.0;8.891325e-05;0.9514342
 -5.9999999E-02;  9.9999998E-03;  2.0000000E-01;356;0.0;0.0;0.0;1000.0031;  4.0000001E-01;2.5678282;0;0.0;0.0;0.0;0;-0.0031561002;  1.0000000E+04;  0.0000000E+00;  0.0000000E+00;  1.0000000E+04;  0.0000000E+00;  1.0000000E+04;-0.0032361196;0.0;8.0019374e-05;0.86029828
 -5.9999999E-02;  9.9999998E-03;  2.2000000E-01;357;0.0;0.0;0.0;1000.0029;  4.0000001E-01;2.4690657;0;0.0;0.0;0.0;0;-0.0029306444;  1.0000000E+04;  0.0000000E+00;  0.0000000E+00;  1.0000000E+04;  0.0000000E+00;  1.0000000E+04;-0.0029838108;0.0;5.3166517e-05;0.61977571
 -5.9999999E-02;  9.9999998E-03;  2.3999999E-01;358;0.0;0.0;0.0;1000.0026;  4.0000001E-01;2.1727777;0;0.0;0.0;0.0;0;-0.0026371863;  1.0000000E+04;  0.0000000E+00;  0.0000000E+00;  1.0000000E+04;  0.0000000E+00;  1.0000000E+04;-0.0026441042;0.0;6.9179023e-06;0.21615748
 -5.9999999E-02;  9.9999998E-03;  2.5999999E-01;359;0.0;0.0;0.0;1000.0022;  4.0000001E-01;1.7777272;0;0.0;0.0;0.0;0;-0.0022695654;  1.0000000E+04;  0.0000000E+00;  0.0000000E+00;  1.0000000E+04;  0.0000000E+00;  1.0000000E+04;-0.0022182295;0.0;-5.1335908e-05;0.29107282
 -5.9999999E-02;  9.9999998E-03;  2.8000000E-01;360;0.0;0.0;0.0;1000.0018;  4.0000001E-01;1.4814394;0;0.0;0.0;0.0;0;-0.0018380971;  1.0000000E+04;  0.0000000E+00;  0.0000000E+00;  1.0000000E+04;  0.0000000E+00;  1.0000000E+04;-0.0017318097;0.0;-0.00010628738;0.77513623
 -5.9999999E-02;  9.9999998E-03;  3.0000001E-01;361;0.0;0.0;0.0;1000.0014;  4.0000001E-01;1.1851515;0;0.0;0.0;0.0;0;-0.0013818622;  1.0000000E+04;  0.0000000E+00;  0.0000000E+00;  1.0000000E+04;  0.0000000E+00;  1.0000000E+04;-0.0012381615;0.0;-0.00014370076;1.1153915
 -5.9999999E-02;  9.9999998E-03;  3.1999999E-01;362;0.0;0.0;0.0;1000.0009;  4.0000001E-01;0.69133836;0;0.0;0.0;0.0;0;-0.00095772097;  1.0000000E+04;  0.0000000E+00;  0.0000000E+00;  1.0000000E+04;  0.0000000E+00;  1.0000000E+04;-0.00080076372;0.0;-0.00015695723;1.2524194
 -3.9999999E-02;  9.9999998E-03;  1.6000000E-01;395;0.0;0.0;0.0;1000.0057;  4.0000001E-01;4.7406058;0;0.0;0.0;0.0;0;-0.0057529514;  1.0000000E+04;  0.0000000E+00;  0.0000000E+00;  1.0000000E+04;  0.0000000E+00;  1.0000000E+04;-0.0059214453;0.0;0.00016849383;1.7972904
 -3.9999999E-02;  9.9999998E-03;  1.8000001E-01;396;0.0;0.0;0.0;1000.0054;  4.0000001E-01;4.5430808;0;0.0;0.0;0.0;0;-0.005554426;  1.0000000E+04;  0.0000000E+00;  0.0000000E+00;  1.0000000E+04;  0.0000000E+00;  1.0000000E+04;-0.0057284366;0.0;0.00017401043;1.8121171
 -3.9999999E-02;  9.9999998E-03;  2.0000000E-01;397;0.0;0.0;0.0;1000.0052;  4.0000001E-01;4.3455553;0;0.0;0.0;0.0;0;-0.0052828528;  1.0000000E+04;  0.0000000E+00;  0.0000000E+00;  1.0000000E+04;  0.0000000E+00;  1.0000000E+04;-0.0054395054;0.0;0.00015665275;1.6369046
 -3.9999999E-02;  9.9999998E-03;  2.2000000E-01;398;0.0;0.0;0.0;1000.0048;  4.0000001E-01;3.950505;0;0.0;0.0;0.0;0;-0.0049221264;  1.0000000E+04;  0.0000000E+00;  0.0000000E+00;  1.0000000E+04;  0.0000000E+00;  1.0000000E+04;-0.0050276448;0.0;0.00010551855;1.1791682
 -3.9999999E-02;  9.9999998E-03;  2.3999999E-01;399;0.0;0.0;0.0;1000.0043;  4.0000001E-01;3.5554545;0;0.0;0.0;0.0;0;-0.004454264;  1.0000000E+04;  0.0000000E+00;  0.0000000E+00;  1.0000000E+04;  0.0000000E+00;  1.0000000E+04;-0.004472102;0.0;1.7837885e-05;0.4124299
 -3.9999999E-02;  9.9999998E-03;  2.5999999E-01;400;0.0;0.0;0.0;1000.0038;  4.0000001E-01;3.160404;0;0.0;0.0;0.0;0;-0.0038665084;  1.0000000E+04;  0.0000000E+00;  0.0000000E+00;  1.0000000E+04;  0.0000000E+00;  1.0000000E+04;-0.0037727996;0.0;-9.3708695e-05;0.56041753
 -3.9999999E-02;  9.9999998E-03;  2.8000000E-01;401;0.0;0.0;0.0;1000.0031;  4.0000001E-01;2.5678282;0;0.0;0.0;0.0;0;-0.0031688605;  1.0000000E+04;  0.0000000E+00;  0.0000000E+00;  1.0000000E+04;  0.0000000E+00;  1.0000000E+04;-0.0029674729;0.0;-0.00020138749;1.5080415
 -3.9999999E-02;  9.9999998E-03;  3.0000001E-01;402;0.0;0.0;0.0;1000.0024;  4.0000001E-01;1.9752525;0;0.0;0.0;0.0;0;-0.0024191332;  1.0000000E+04;  0.0000000E+00;  0.0000000E+00;  1.0000000E+04;  0.0000000E+00;  1.0000000E+04;-0.0021418277;0.0;-0.00027730543;2.1933587
 -3.9999999E-02;  9.9999998E-03;  3.1999999E-01;403;0.0;0.0;0.0;1000.0016;  4.0000001E-01;1.2839141;0;0.0;0.0;0.0;0;-0.0017121126;  1.0000000E+04;  0.0000000E+00;  0.0000000E+00;  1.0000000E+04;  0.0000000E+00;  1.0000000E+04;-0.0014042829;0.0;-0.00030782967;2.4944425
 -2.0000000E-02;  9.9999998E-03;  1.6000000E-01;436;0.0;0.0;0.0;1000.0084;  4.0000001E-01;7.0121465;0;0.0;0.0;0.0;0;-0.0084284991;  1.0000000E+04;  0.0000000E+00;  0.0000000E+00;  1.0000000E+04;  0.0000000E+00;  1.0000000E+04;-0.0087154927;0.0;0.00028699313;3.0002115
 -2.0000000E-02;  9.9999998E-03;  1.8000001E-01;437;0.0;0.0;0.0;1000.0082;  4.0000001E-01;6.814621;0;0.0;0.0;0.0;0;-0.0081503028;  1.0000000E+04;  0.0000000E+00;  0.0000000E+00;  1.0000000E+04;  0.0000000E+00;  1.0000000E+04;-0.0084467959;0.0;0.00029649262;3.0312486
 -2.0000000E-02;  9.9999998E-03;  2.0000000E-01;438;0.0;0.0;0.0;1000.0077;  4.0000001E-01;6.4195704;0;0.0;0.0;0.0;0;-0.0077711404;  1.0000000E+04;  0.0000000E+00;  0.0000000E+00;  1.0000000E+04;  0.0000000E+00;  1.0000000E+04;-0.0080392901;0.0;0.00026814948;2.7454834
 -2.0000000E-02;  9.9999998E-03;  2.2000000E-01;439;0.0;0.0;0.0;1000.0073;  4.0000001E-01;6.0245199;0;0.0;0.0;0.0;0;-0.00726884;  1.0000000E+04;  0.0000000E+00;  0.0000000E+00;  1.0000000E+04;  0.0000000E+00;  1.0000000E+04;-0.0074530812;0.0;0.00018424141;1.9906044
 -2.0000000E-02;  9.9999998E-03;  2.3999999E-01;440;0.0;0.0;0.0;1000.0066;  4.0000001E-01;5.4319444;0;0.0;0.0;0.0;0;-0.0066172956;  1.0000000E+04;  0.0000000E+00;  0.0000000E+00;  1.0000000E+04;  0.0000000E+00;  1.0000000E+04;-0.0066568288;0.0;3.9533428e-05;0.71709627
 -2.0000000E-02;  9.9999998E-03;  2.5999999E-01;441;0.0;0.0;0.0;1000.0058;  4.0000001E-01;4.8393683;0;0.0;0.0;0.0;0;-0.0057950802;  1.0000000E+04;  0.0000000E+00;  0.0000000E+00;  1.0000000E+04;  0.0000000E+00;  1.0000000E+04;-0.0056473603;0.0;-0.00014771977;0.92511845
 -2.0000000E-02;  9.9999998E-03;  2.8000000E-01;442;0.0;0.0;0.0;1000.0047;  4.0000001E-01;3.8517423;0;0.0;0.0;0.0;0;-0.0048069577;  1.0000000E+04;  0.0000000E+00;  0.0000000E+00;  1.0000000E+04;  0.0000000E+00;  1.0000000E+04;-0.0044727074;0.0;-0.00033425048;2.5711553
 -2.0000000E-02;  9.9999998E-03;  3.0000001E-01;443;0.0;0.0;0.0;1000.0038;  4.0000001E-01;3.160404;0;0.0;0.0;0.0;0;-0.003721603;  1.0000000E+04;  0.0000000E+00;  0.0000000E+00;  1.0000000E+04;  0.0000000E+00;  1.0000000E+04;-0.0032515707;0.0;-0.00047003219;3.7942107
 -2.0000000E-02;  9.9999998E-03;  3.1999999E-01;444;0.0;0.0;0.0;1000.0027;  4.0000001E-01;2.2715404;0;0.0;0.0;0.0;0;-0.0026781664;  1.0000000E+04;  0.0000000E+00;  0.0000000E+00;  1.0000000E+04;  0.0000000E+00;  1.0000000E+04;-0.0021501463;0.0;-0.00052802009;4.3537316
  0.0000000E+00;  9.9999998E-03;  3.0000001E-01;455;0.0;0.0;0.0;1000.0051;  4.0000001E-01;4.1480303;0;0.0;0.0;0.0;0;-0.0051472215;  1.0000000E+04;  0.0000000E+00;  0.0000000E+00;  1.0000000E+04;  0.0000000E+00;  1.0000000E+04;-0.0044382741;0.0;-0.00070894766;5.8556185
  0.0000000E+00;  9.9999998E-03;  3.1999999E-01;456;0.0;0.0;0.0;1000.0038;  4.0000001E-01;3.160404;0;0.0;0.0;0.0;0;-0.0037665584;  1.0000000E+04;  0.0000000E+00;  0.0000000E+00;  1.0000000E+04;  0.0000000E+00;  1.0000000E+04;-0.0029580232;0.0;-0.00080853509;6.8031125
  2.0000000E-02;  9.9999998E-03;  3.1999999E-01;466;0.0;0.0;0.0;1000.0051;  4.0000001E-01;4.1480303;0;0.0;0.0;0.0;0;-0.004881857;  1.0000000E+04;  0.0000000E+00;  0.0000000E+00;  1.0000000E+04;  0.0000000E+00;  1.0000000E+04;-0.0037617492;0.0;-0.0011201076;9.6574717
  3.9999999E-02;  9.9999998E-03;  3.1999999E-01;476;0.0;0.0;0.0;1000.0063;  4.0000001E-01;5.2344189;0;0.0;0.0;0.0;0;-0.0060074427;  1.0000000E+04;  0.0000000E+00;  0.0000000E+00;  1.0000000E+04;  0.0000000E+00;  1.0000000E+04;-0.0045822714;0.0;-0.0014251713;12.659822
  5.9999999E-02;  9.9999998E-03;  3.1999999E-01;486;0.0;0.0;0.0;1000.0077;  4.0000001E-01;6.4195704;0;0.0;0.0;0.0;0;-0.0072299968;  1.0000000E+04;  0.0000000E+00;  0.0000000E+00;  1.0000000E+04;  0.0000000E+00;  1.0000000E+04;-0.0055207629;0.0;-0.0017092342;15.734159
  7.9999998E-02;  9.9999998E-03;  3.1999999E-01;496;0.0;0.0;0.0;1000.0096;  4.0000001E-01;7.9997725;0;0.0;0.0;0.0;0;-0.0087191351;  1.0000000E+04;  0.0000000E+00;  0.0000000E+00;  1.0000000E+04;  0.0000000E+00;  1.0000000E+04;-0.0067366143;0.0;-0.0019825213;19.045977
  1.0000000E-01;  9.9999998E-03;  3.1999999E-01;506;0.0;0.0;0.0;1000.0122;  4.0000001E-01;10.073788;0;0.0;0.0;0.0;0;-0.010759283;  1.0000000E+04;  0.0000000E+00;  0.0000000E+00;  1.0000000E+04;  0.0000000E+00;  1.0000000E+04;-0.0084790774;0.0;-0.0022802053;24.398022
  1.2000000E-01;  9.9999998E-03;  3.1999999E-01;516;0.0;0.0;0.0;1000.016;  4.0000001E-01;13.234192;0;0.0;0.0;0.0;0;-0.013757421;  1.0000000E+04;  0.0000000E+00;  0.0000000E+00;  1.0000000E+04;  0.0000000E+00;  1.0000000E+04;-0.011085477;0.0;-0.0026719444;44.442745
  1.4000000E-01;  9.9999998E-03;  3.1999999E-01;526;0.0;0.0;0.0;1000.0217;  4.0000001E-01;17.974798;0;0.0;0.0;0.0;0;-0.018251378;  1.0000000E+04;  0.0000000E+00;  0.0000000E+00;  1.0000000E+04;  0.0000000E+00;  1.0000000E+04;-0.014970111;0.0;-0.0032812678;109.80373
  1.6000000E-01;  9.9999998E-03;  3.1999999E-01;536;0.0;0.0;0.0;1000.0303;  4.0000001E-01;25.085707;0;0.0;0.0;0.0;0;-0.024812963;  1.0000000E+04;  0.0000000E+00;  0.0000000E+00;  1.0000000E+04;  0.0000000E+00;  1.0000000E+04;-0.020493038;0.0;-0.0043199244;260.7966
  1.8000001E-01;  9.9999998E-03;  3.1999999E-01;546;0.0;0.0;0.0;1000.0422;  4.0000001E-01;34.961967;0;0.0;0.0;0.0;0;-0.033713985;  1.0000000E+04;  0.0000000E+00;  0.0000000E+00;  1.0000000E+04;  0.0000000E+00;  1.0000000E+04;-0.027577894;0.0;-0.0061360914;532.81842
  2.0000000E-01;  9.9999998E-03;  3.1999999E-01;555;0.0;0.0;0.0;1000.0572;  4.0000001E-01;47.406059;0;0.0;0.0;0.0;0;-0.044671506;  1.0000000E+04;  0.0000000E+00;  0.0000000E+00;  1.0000000E+04;  0.0000000E+00;  1.0000000E+04;-0.035444796;0.0;-0.0092267096;898.17944
 -2.2000000E-01;  9.9999998E-03;  3.4000000E-01;36;0.0;0.0;0.0;1000.0;  4.0000001E-01;0.0;0;0.0;0.0;0.0;0;0.0;  1.0000000E+04;  0.0000000E+00;  0.0000000E+00;  1.0000000E+04;  0.0000000E+00;  1.0000000E+04;0.0;0.0;0.0;0.0
 -2.2000000E-01;  9.9999998E-03;  3.6000001E-01;37;0.0;0.0;0.0;1000.0;  4.0000001E-01;0.0;0;0.0;0.0;0.0;0;0.0;  1.0000000E+04;  0.0000000E+00;  0.0000000E+00;  1.0000000E+04;  0.0000000E+00;  1.0000000E+04;0.0;0.0;0.0;0.0
 -2.2000000E-01;  9.9999998E-03;  3.8000000E-01;38;0.0;0.0;0.0;1000.0;  4.0000001E-01;0.0;0;0.0;0.0;0.0;0;0.0;  1.0000000E+04;  0.0000000E+00;  0.0000000E+00;  1.0000000E+04;  0.0000000E+00;  1.0000000E+04;0.0;0.0;0.0;0.0
 -2.0000000E-01;  9.9999998E-03;  3.4000000E-01;76;0.0;0.0;0.0;1000.0;  4.0000001E-01;0.0;0;0.0;0.0;0.0;0;0.0;  1.0000000E+04;  0.0000000E+00;  0.0000000E+00;  1.0000000E+04;  0.0000000E+00;  1.0000000E+04;0.0;0.0;0.0;0.0
 -2.0000000E-01;  9.9999998E-03;  3.6000001E-01;77;0.0;0.0;0.0;1000.0;  4.0000001E-01;0.0;0;0.0;0.0;0.0;0;0.0;  1.0000000E+04;  0.0000000E+00;  0.0000000E+00;  1.0000000E+04;  0.0000000E+00;  1.0000000E+04;0.0;0.0;0.0;0.0
 -2.0000000E-01;  9.9999998E-03;  3.8000000E-01;78;0.0;0.0;0.0;1000.0;  4.0000001E-01;0.0;0;0.0;0.0;0.0;0;0.0;  1.0000000E+04;  0.0000000E+00;  0.0000000E+00;  1.0000000E+04;  0.0000000E+00;  1.0000000E+04;0.0;0.0;0.0;0.0
 -2.0000000E-01;  9.9999998E-03;  4.0000001E-01;79;0.0;0.0;0.0;1000.0;  4.0000001E-01;0.0;0;0.0;0.0;0.0;0;0.0;  1.0000000E+04;  0.0000000E+00;  0.0000000E+00;  1.0000000E+04;  0.0000000E+00;  1.0000000E+04;0.0;0.0;0.0;0.0
 -1.8000001E-01;  9.9999998E-03;  3.4000000E-01;117;0.0;0.0;0.0;1000.0;  4.0000001E-01;0.0;0;0.0;0.0;0.0;0;0.0;  1.0000000E+04;  0.0000000E+00;  0.0000000E+00;  1.0000000E+04;  0.0000000E+00;  1.0000000E+04;0.0;0.0;0.0;0.0
 -1.8000001E-01;  9.9999998E-03;  3.6000001E-01;118;0.0;0.0;0.0;1000.0;  4.0000001E-01;0.0;0;0.0;0.0;0.0;0;0.0;  1.0000000E+04;  0.0000000E+00;  0.0000000E+00;  1.0000000E+04;  0.0000000E+00;  1.0000000E+04;0.0;0.0;0.0;0.0
 -1.8000001E-01;  9.9999998E-03;  3.8000000E-01;119;0.0;0.0;0.0;1000.0;  4.0000001E-01;0.0;0;0.0;0.0;0.0;0;0.0;  1.0000000E+04;  0.0000000E+00;  0.0000000E+00;  1.0000000E+04;  0.0000000E+00;  1.0000000E+04;0.0;0.0;0.0;0.0
 -1.8000001E-01;  9.9999998E-03;  4.0000001E-01;120;0.0;0.0;0.0;1000.0;  4.0000001E-01;0.0;0;0.0;0.0;0.0;0;0.0;  1.0000000E+04;  0.0000000E+00;  0.0000000E+00;  1.0000000E+04;  0.0000000E+00;  1.0000000E+04;0.0;0.0;0.0;0.0
 -1.6000000E-01;  9.9999998E-03;  3.4000000E-01;158;0.0;0.0;0.0;1000.0;  4.0000001E-01;0.0;0;0.0;0.0;0.0;0;0.0;  1.0000000E+04;  0.0000000E+00;  0.0000000E+00;  1.0000000E+04;  0.0000000E+00;  1.0000000E+04;0.0;0.0;0.0;0.0
 -1.6000000E-01;  9.9999998E-03;  3.6000001E-01;159;0.0;0.0;0.0;1000.0;  4.0000001E-01;0.0;0;0.0;0.0;0.0;0;0.0;  1.0000000E+04;  0.0000000E+00;  0.0000000E+00;  1.0000000E+04;  0.0000000E+00;  1.0000000E+04;0.0;0.0;0.0;0.0
 -1.6000000E-01;  9.9999998E-03;  3.8000000E-01;160;0.0;0.0;0.0;1000.0;  4.0000001E-01;0.0;0;0.0;0.0;0.0;0;0.0;  1.0000000E+04;  0.0000000E+00;  0.0000000E+00;  1.0000000E+04;  0.0000000E+00;  1.0000000E+04;0.0;0.0;0.0;0.0
 -1.6000000E-01;  9.9999998E-03;  4.0000001E-01;161;0.0;0.0;0.0;1000.0;  4.0000001E-01;0.0;0;0.0;0.0;0.0;0;0.0;  1.0000000E+04;  0.0000000E+00;  0.0000000E+00;  1.0000000E+04;  0.0000000E+00;  1.0000000E+04;0.0;0.0;0.0;0.0
 -1.4000000E-01;  9.9999998E-03;  3.4000000E-01;199;0.0;0.0;0.0;1000.0;  4.0000001E-01;0.0;0;0.0;0.0;0.0;0;-1.6506841e-06;  1.0000000E+04;  0.0000000E+00;  0.0000000E+00;  1.0000000E+04;  0.0000000E+00;  1.0000000E+04;-1.3953872e-06;0.0;-2.5529684e-07;0.0019823399
 -1.4000000E-01;  9.9999998E-03;  3.6000001E-01;200;0.0;0.0;0.0;1000.0;  4.0000001E-01;0.0;0;0.0;0.0;0.0;0;-1.917705e-07;  1.0000000E+04;  0.0000000E+00;  0.0000000E+00;  1.0000000E+04;  0.0000000E+00;  1.0000000E+04;-1.5144231e-07;0.0;-4.0328185e-08;0.00031779933
 -1.4000000E-01;  9.9999998E-03;  3.8000000E-01;201;0.0;0.0;0.0;1000.0;  4.0000001E-01;0.0;0;0.0;0.0;0.0;0;0.0;  1.0000000E+04;  0.0000000E+00;  0.0000000E+00;  1.0000000E+04;  0.0000000E+00;  1.0000000E+04;0.0;0.0;0.0;0.0
 -1.4000000E-01;  9.9999998E-03;  4.0000001E-01;202;0.0;0.0;0.0;1000.0;  4.0000001E-01;0.0;0;0.0;0.0;0.0;0;0.0;  1.0000000E+04;  0.0000000E+00;  0.0000000E+00;  1.0000000E+04;  0.0000000E+00;  1.0000000E+04;0.0;0.0;0.0;0.0
 -1.2000000E-01;  9.9999998E-03;  3.4000000E-01;240;0.0;0.0;0.0;1000.0;  4.0000001E-01;0.0;0;0.0;0.0;0.0;0;-2.0464868e-05;  1.0000000E+04;  0.0000000E+00;  0.0000000E+00;  1.0000000E+04;  0.0000000E+00;  1.0000000E+04;-1.6800421e-05;0.0;-3.6644469e-06;0.028818231
 -1.2000000E-01;  9.9999998E-03;  3.6000001E-01;241;0.0;0.0;0.0;1000.0;  4.0000001E-01;0.0;0;0.0;0.0;0.0;0;-6.8459817e-06;  1.0000000E+04;  0.0000000E+00;  0.0000000E+00;  1.0000000E+04;  0.0000000E+00;  1.0000000E+04;-5.1770703e-06;0.0;-1.6689114e-06;0.013235463
 -1.2000000E-01;  9.9999998E-03;  3.8000000E-01;242;0.0;0.0;0.0;1000.0;  4.0000001E-01;0.0;0;0.0;0.0;0.0;0;-1.0139001e-06;  1.0000000E+04;  0.0000000E+00;  0.0000000E+00;  1.0000000E+04;  0.0000000E+00;  1.0000000E+04;-7.1834296e-07;0.0;-2.9555713e-07;0.0023561127
 -1.2000000E-01;  9.9999998E-03;  4.0000001E-01;243;0.0;0.0;0.0;1000.0;  4.0000001E-01;0.0;0;0.0;0.0;0.0;0;-5.8632153e-21;  1.0000000E+04;  0.0000000E+00;  0.0000000E+00;  1.0000000E+04;  0.0000000E+00;  1.0000000E+04;-4.1337414e-21;0.0;-1.7294737e-21;2.4670213e-18
 -1.0000000E-01;  9.9999998E-03;  3.4000000E-01;281;0.0;0.0;0.0;1000.0;  4.0000001E-01;0.0;0;0.0;0.0;0.0;0;-9.3375813e-05;  1.0000000E+04;  0.0000000E+00;  0.0000000E+00;  1.0000000E+04;  0.0000000E+00;  1.0000000E+04;-7.4646676e-05;0.0;-1.8729139e-05;0.14832669
 -1.0000000E-01;  9.9999998E-03;  3.6000001E-01;282;0.0;0.0;0.0;1000.0;  4.0000001E-01;0.0;0;0.0;0.0;0.0;0;-4.2746717e-05;  1.0000000E+04;  0.0000000E+00;  0.0000000E+00;  1.0000000E+04;  0.0000000E+00;  1.0000000E+04;-3.1104049e-05;0.0;-1.1642665e-05;0.093136892
 -1.0000000E-01;  9.9999998E-03;  3.8000000E-01;283;0.0;0.0;0.0;1000.0;  4.0000001E-01;0.0;0;0.0;0.0;0.0;0;-1.3579487e-05;  1.0000000E+04;  0.0000000E+00;  0.0000000E+00;  1.0000000E+04;  0.0000000E+00;  1.0000000E+04;-9.1274214e-06;0.0;-4.4520657e-06;0.035733517
 -1.0000000E-01;  9.9999998E-03;  4.0000001E-01;284;0.0;0.0;0.0;1000.0;  4.0000001E-01;0.0;0;0.0;0.0;0.0;0;-1.8694784e-06;  1.0000000E+04;  0.0000000E+00;  0.0000000E+00;  1.0000000E+04;  0.0000000E+00;  1.0000000E+04;-1.241638e-06;0.0;-6.2784045e-07;0.0050426791
 -7.9999998E-02;  9.9999998E-03;  3.4000000E-01;322;0.0;0.0;0.0;1000.0002;  4.0000001E-01;0.19752525;0;0.0;0.0;0.0;0;-0.00027291145;  1.0000000E+04;  0.0000000E+00;  0.0000000E+00;  1.0000000E+04;  0.0000000E+00;  1.0000000E+04;-0.00021296267;0.0;-5.994879e-05;0.47959837
 -7.9999998E-02;  9.9999998E-03;  3.6000001E-01;323;0.0;0.0;0.0;1000.0001;  4.0000001E-01;0.098762624;0;0.0;0.0;0.0;0;-0.00014400022;  1.0000000E+04;  0.0000000E+00;  0.0000000E+00;  1.0000000E+04;  0.0000000E+00;  1.0000000E+04;-0.00010123468;0.0;-4.2765547e-05;0.34506136
 -7.9999998E-02;  9.9999998E-03;  3.8000000E-01;324;0.0;0.0;0.0;1000.0;  4.0000001E-01;0.0;0;0.0;0.0;0.0;0;-5.9928774e-05;  1.0000000E+04;  0.0000000E+00;  0.0000000E+00;  1.0000000E+04;  0.0000000E+00;  1.0000000E+04;-3.8504168e-05;0.0;-2.1424607e-05;0.17338425
 -7.9999998E-02;  9.9999998E-03;  4.0000001E-01;325;0.0;0.0;0.0;1000.0;  4.0000001E-01;0.0;0;0.0;0.0;0.0;0;-1.5789379e-05;  1.0000000E+04;  0.0000000E+00;  0.0000000E+00;  1.0000000E+04;  0.0000000E+00;  1.0000000E+04;-9.912691e-06;0.0;-5.8766886e-06;0.047512744
 -5.9999999E-02;  9.9999998E-03;  3.4000000E-01;363;0.0;0.0;0.0;1000.0006;  4.0000001E-01;0.49381313;0;0.0;0.0;0.0;0;-0.00060890528;  1.0000000E+04;  0.0000000E+00;  0.0000000E+00;  1.0000000E+04;  0.0000000E+00;  1.0000000E+04;-0.00046341555;0.0;-0.00014548974;1.1778562
 -5.9999999E-02;  9.9999998E-03;  3.6000001E-01;364;0.0;0.0;0.0;1000.0003;  4.0000001E-01;0.29628786;0;0.0;0.0;0.0;0;-0.00034737799;  1.0000000E+04;  0.0000000E+00;  0.0000000E+00;  1.0000000E+04;  0.0000000E+00;  1.0000000E+04;-0.00023584288;0.0;-0.00011153512;0.90945691
 -5.9999999E-02;  9.9999998E-03;  3.8000000E-01;365;0.0;0.0;0.0;1000.0001;  4.0000001E-01;0.098762624;0;0.0;0.0;0.0;0;-0.00016524256;  1.0000000E+04;  0.0000000E+00;  0.0000000E+00;  1.0000000E+04;  0.0000000E+00;  1.0000000E+04;-0.00010152307;0.0;-6.3719483e-05;0.52062774
 -5.9999999E-02;  9.9999998E-03;  4.0000001E-01;366;0.0;0.0;0.0;1000.0;  4.0000001E-01;0.0;0;0.0;0.0;0.0;0;-5.6520192e-05;  1.0000000E+04;  0.0000000E+00;  0.0000000E+00;  1.0000000E+04;  0.0000000E+00;  1.0000000E+04;-3.3674085e-05;0.0;-2.2846107e-05;0.1863201
 -3.9999999E-02;  9.9999998E-03;  3.4000000E-01;404;0.0;0.0;0.0;1000.0011;  4.0000001E-01;0.88886362;0;0.0;0.0;0.0;0;-0.0011228428;  1.0000000E+04;  0.0000000E+00;  0.0000000E+00;  1.0000000E+04;  0.0000000E+00;  1.0000000E+04;-0.00083080574;0.0;-0.00029203697;2.3965206
 -3.9999999E-02;  9.9999998E-03;  3.6000001E-01;405;0.0;0.0;0.0;1000.0006;  4.0000001E-01;0.49381313;0;0.0;0.0;0.0;0;-0.00067184167;  1.0000000E+04;  0.0000000E+00;  0.0000000E+00;  1.0000000E+04;  0.0000000E+00;  1.0000000E+04;-0.00043885162;0.0;-0.00023299006;1.9234362
 -3.9999999E-02;  9.9999998E-03;  3.8000000E-01;406;0.0;0.0;0.0;1000.0002;  4.0000001E-01;0.19752525;0;0.0;0.0;0.0;0;-0.00034469774;  1.0000000E+04;  0.0000000E+00;  0.0000000E+00;  1.0000000E+04;  0.0000000E+00;  1.0000000E+04;-0.00020169299;0.0;-0.00014300476;1.1819342
 -3.9999999E-02;  9.9999998E-03;  4.0000001E-01;407;0.0;0.0;0.0;1000.0001;  4.0000001E-01;0.098762624;0;0.0;0.0;0.0;0;-0.0001345304;  1.0000000E+04;  0.0000000E+00;  0.0000000E+00;  1.0000000E+04;  0.0000000E+00;  1.0000000E+04;-7.5751675e-05;0.0;-5.8778725e-05;0.48450702
 -2.0000000E-02;  9.9999998E-03;  3.4000000E-01;445;0.0;0.0;0.0;1000.0018;  4.0000001E-01;1.4814394;0;0.0;0.0;0.0;0;-0.0017951203;  1.0000000E+04;  0.0000000E+00;  0.0000000E+00;  1.0000000E+04;  0.0000000E+00;  1.0000000E+04;-0.0012875746;0.0;-0.00050754566;4.2312732
 -2.0000000E-02;  9.9999998E-03;  3.6000001E-01;446;0.0;0.0;0.0;1000.0011;  4.0000001E-01;0.88886362;0;0.0;0.0;0.0;0;-0.0011077512;  1.0000000E+04;  0.0000000E+00;  0.0000000E+00;  1.0000000E+04;  0.0000000E+00;  1.0000000E+04;-0.00069372891;0.0;-0.00041402219;3.468781
 -2.0000000E-02;  9.9999998E-03;  3.8000000E-01;447;0.0;0.0;0.0;1000.0006;  4.0000001E-01;0.49381313;0;0.0;0.0;0.0;0;-0.00059472094;  1.0000000E+04;  0.0000000E+00;  0.0000000E+00;  1.0000000E+04;  0.0000000E+00;  1.0000000E+04;-0.00032997233;0.0;-0.00026474861;2.2189465
 -2.0000000E-02;  9.9999998E-03;  4.0000001E-01;448;0.0;0.0;0.0;1000.0002;  4.0000001E-01;0.19752525;0;0.0;0.0;0.0;0;-0.00024948339;  1.0000000E+04;  0.0000000E+00;  0.0000000E+00;  1.0000000E+04;  0.0000000E+00;  1.0000000E+04;-0.00013199999;0.0;-0.00011748341;0.98128086
  0.0000000E+00;  9.9999998E-03;  3.4000000E-01;457;0.0;0.0;0.0;1000.0026;  4.0000001E-01;2.1727777;0;0.0;0.0;0.0;0;-0.002568373;  1.0000000E+04;  0.0000000E+00;  0.0000000E+00;  1.0000000E+04;  0.0000000E+00;  1.0000000E+04;-0.0017844272;0.0;-0.00078394584;6.6599441
  0.0000000E+00;  9.9999998E-03;  3.6000001E-01;458;0.0;0.0;0.0;1000.0016;  4.0000001E-01;1.2839141;0;0.0;0.0;0.0;0;-0.0016190987;  1.0000000E+04;  0.0000000E+00;  0.0000000E+00;  1.0000000E+04;  0.0000000E+00;  1.0000000E+04;-0.00097138091;0.0;-0.00064771774;5.5251622
  0.0000000E+00;  9.9999998E-03;  3.8000000E-01;459;0.0;0.0;0.0;1000.0009;  4.0000001E-01;0.69133836;0;0.0;0.0;0.0;0;-0.00089399132;  1.0000000E+04;  0.0000000E+00;  0.0000000E+00;  1.0000000E+04;  0.0000000E+00;  1.0000000E+04;-0.00046970544;0.0;-0.00042428588;3.6179504
  0.0000000E+00;  9.9999998E-03;  4.0000001E-01;460;0.0;0.0;0.0;1000.0004;  4.0000001E-01;0.29628786;0;0.0;0.0;0.0;0;-0.00039020827;  1.0000000E+04;  0.0000000E+00;  0.0000000E+00;  1.0000000E+04;  0.0000000E+00;  1.0000000E+04;-0.00019336295;0.0;-0.00019684531;1.6714993
  2.0000000E-02;  9.9999998E-03;  3.4000000E-01;467;0.0;0.0;0.0;1000.0035;  4.0000001E-01;2.9628787;0;0.0;0.0;0.0;0;-0.0033780346;  1.0000000E+04;  0.0000000E+00;  0.0000000E+00;  1.0000000E+04;  0.0000000E+00;  1.0000000E+04;-0.0022828362;0.0;-0.0010951984;9.5212889
  2.0000000E-02;  9.9999998E-03;  3.6000001E-01;468;0.0;0.0;0.0;1000.0021;  4.0000001E-01;1.7777272;0;0.0;0.0;0.0;0;-0.0021630095;  1.0000000E+04;  0.0000000E+00;  0.0000000E+00;  1.0000000E+04;  0.0000000E+00;  1.0000000E+04;-0.0012495526;0.0;-0.00091345684;7.9669008
  2.0000000E-02;  9.9999998E-03;  3.8000000E-01;469;0.0;0.0;0.0;1000.0012;  4.0000001E-01;0.98762625;0;0.0;0.0;0.0;0;-0.0012154006;  1.0000000E+04;  0.0000000E+00;  0.0000000E+00;  1.0000000E+04;  0.0000000E+00;  1.0000000E+04;-0.00060781877;0.0;-0.00060758193;5.2933373
  2.0000000E-02;  9.9999998E-03;  4.0000001E-01;470;0.0;0.0;0.0;1000.0005;  4.0000001E-01;0.3950505;0;0.0;0.0;0.0;0;-0.00054150703;  1.0000000E+04;  0.0000000E+00;  0.0000000E+00;  1.0000000E+04;  0.0000000E+00;  1.0000000E+04;-0.0002521929;0.0;-0.00028931416;2.5080783
  3.9999999E-02;  9.9999998E-03;  3.4000000E-01;477;0.0;0.0;0.0;1000.0043;  4.0000001E-01;3.5554545;0;0.0;0.0;0.0;0;-0.004201903;  1.0000000E+04;  0.0000000E+00;  0.0000000E+00;  1.0000000E+04;  0.0000000E+00;  1.0000000E+04;-0.0027924948;0.0;-0.0014094083;12.605902
  3.9999999E-02;  9.9999998E-03;  3.6000001E-01;478;0.0;0.0;0.0;1000.0028;  4.0000001E-01;2.3703029;0;0.0;0.0;0.0;0;-0.0027190084;  1.0000000E+04;  0.0000000E+00;  0.0000000E+00;  1.0000000E+04;  0.0000000E+00;  1.0000000E+04;-0.0015322495;0.0;-0.001186759;10.638008
  3.9999999E-02;  9.9999998E-03;  3.8000000E-01;479;0.0;0.0;0.0;1000.0016;  4.0000001E-01;1.2839141;0;0.0;0.0;0.0;0;-0.0015434215;  1.0000000E+04;  0.0000000E+00;  0.0000000E+00;  1.0000000E+04;  0.0000000E+00;  1.0000000E+04;-0.00074533885;0.0;-0.00079808268;7.1400847
  3.9999999E-02;  9.9999998E-03;  4.0000001E-01;480;0.0;0.0;0.0;1000.0007;  4.0000001E-01;0.59257573;0;0.0;0.0;0.0;0;-0.00069388328;  1.0000000E+04;  0.0000000E+00;  0.0000000E+00;  1.0000000E+04;  0.0000000E+00;  1.0000000E+04;-0.00030810462;0.0;-0.00038577869;3.4316254
  5.9999999E-02;  9.9999998E-03;  3.4000000E-01;487;0.0;0.0;0.0;1000.0055;  4.0000001E-01;4.5430808;0;0.0;0.0;0.0;0;-0.0050846543;  1.0000000E+04;  0.0000000E+00;  0.0000000E+00;  1.0000000E+04;  0.0000000E+00;  1.0000000E+04;-0.0033743733;0.0;-0.0017102808;15.829193
  5.9999999E-02;  9.9999998E-03;  3.6000001E-01;488;0.0;0.0;0.0;1000.0035;  4.0000001E-01;2.9628787;0;0.0;0.0;0.0;0;-0.0033082955;  1.0000000E+04;  0.0000000E+00;  0.0000000E+00;  1.0000000E+04;  0.0000000E+00;  1.0000000E+04;-0.0018546979;0.0;-0.0014535976;13.468216
  5.9999999E-02;  9.9999998E-03;  3.8000000E-01;489;0.0;0.0;0.0;1000.002;  4.0000001E-01;1.6789646;0;0.0;0.0;0.0;0;-0.0018870202;  1.0000000E+04;  0.0000000E+00;  0.0000000E+00;  1.0000000E+04;  0.0000000E+00;  1.0000000E+04;-0.00090126437;0.0;-0.00098575582;9.1067438
  5.9999999E-02;  9.9999998E-03;  4.0000001E-01;490;0.0;0.0;0.0;1000.0009;  4.0000001E-01;0.69133836;0;0.0;0.0;0.0;0;-0.00085080368;  1.0000000E+04;  0.0000000E+00;  0.0000000E+00;  1.0000000E+04;  0.0000000E+00;  1.0000000E+04;-0.00037022465;0.0;-0.00048057907;4.4104834
  7.9999998E-02;  9.9999998E-03;  3.4000000E-01;497;0.0;0.0;0.0;1000.0068;  4.0000001E-01;5.6294694;0;0.0;0.0;0.0;0;-0.0061508799;  1.0000000E+04;  0.0000000E+00;  0.0000000E+00;  1.0000000E+04;  0.0000000E+00;  1.0000000E+04;-0.0041452753;0.0;-0.0020056046;19.354366
  7.9999998E-02;  9.9999998E-03;  3.6000001E-01;498;0.0;0.0;0.0;1000.0045;  4.0000001E-01;3.654217;0;0.0;0.0;0.0;0;-0.0040085725;  1.0000000E+04;  0.0000000E+00;  0.0000000E+00;  1.0000000E+04;  0.0000000E+00;  1.0000000E+04;-0.0022902957;0.0;-0.0017182771;16.567692
  7.9999998E-02;  9.9999998E-03;  3.8000000E-01;499;0.0;0.0;0.0;1000.0025;  4.0000001E-01;2.0740151;0;0.0;0.0;0.0;0;-0.0022877939;  1.0000000E+04;  0.0000000E+00;  0.0000000E+00;  1.0000000E+04;  0.0000000E+00;  1.0000000E+04;-0.0011155049;0.0;-0.0011722889;11.242504
  7.9999998E-02;  9.9999998E-03;  4.0000001E-01;500;0.0;0.0;0.0;1000.0011;  4.0000001E-01;0.88886362;0;0.0;0.0;0.0;0;-0.0010315735;  1.0000000E+04;  0.0000000E+00;  0.0000000E+00;  1.0000000E+04;  0.0000000E+00;  1.0000000E+04;-0.00045717965;0.0;-0.0005743939;5.4694529
  1.0000000E-01;  9.9999998E-03;  3.4000000E-01;507;0.0;0.0;0.0;1000.0086;  4.0000001E-01;7.110909;0;0.0;0.0;0.0;0;-0.0076205479;  1.0000000E+04;  0.0000000E+00;  0.0000000E+00;  1.0000000E+04;  0.0000000E+00;  1.0000000E+04;-0.0052911462;0.0;-0.0023294017;24.461466
  1.0000000E-01;  9.9999998E-03;  3.6000001E-01;508;0.0;0.0;0.0;1000.0056;  4.0000001E-01;4.6418433;0;0.0;0.0;0.0;0;-0.0049650259;  1.0000000E+04;  0.0000000E+00;  0.0000000E+00;  1.0000000E+04;  0.0000000E+00;  1.0000000E+04;-0.0029579776;0.0;-0.0020070486;20.413633
  1.0000000E-01;  9.9999998E-03;  3.8000000E-01;509;0.0;0.0;0.0;1000.0032;  4.0000001E-01;2.6665909;0;0.0;0.0;0.0;0;-0.0028272867;  1.0000000E+04;  0.0000000E+00;  0.0000000E+00;  1.0000000E+04;  0.0000000E+00;  1.0000000E+04;-0.0014533631;0.0;-0.0013739237;13.736938
  1.0000000E-01;  9.9999998E-03;  4.0000001E-01;510;0.0;0.0;0.0;1000.0015;  4.0000001E-01;1.2839141;0;0.0;0.0;0.0;0;-0.0012742486;  1.0000000E+04;  0.0000000E+00;  0.0000000E+00;  1.0000000E+04;  0.0000000E+00;  1.0000000E+04;-0.0005990208;0.0;-0.00067522778;6.9395437
  1.2000000E-01;  9.9999998E-03;  3.4000000E-01;517;0.0;0.0;0.0;1000.0115;  4.0000001E-01;9.5799742;0;0.0;0.0;0.0;0;-0.0098257922;  1.0000000E+04;  0.0000000E+00;  0.0000000E+00;  1.0000000E+04;  0.0000000E+00;  1.0000000E+04;-0.0070730299;0.0;-0.0027527618;38.267502
  1.2000000E-01;  9.9999998E-03;  3.6000001E-01;518;0.0;0.0;0.0;1000.0075;  4.0000001E-01;6.2220454;0;0.0;0.0;0.0;0;-0.0064092753;  1.0000000E+04;  0.0000000E+00;  0.0000000E+00;  1.0000000E+04;  0.0000000E+00;  1.0000000E+04;-0.0040298076;0.0;-0.0023794675;26.263931
  1.2000000E-01;  9.9999998E-03;  3.8000000E-01;519;0.0;0.0;0.0;1000.0043;  4.0000001E-01;3.5554545;0;0.0;0.0;0.0;0;-0.0036424457;  1.0000000E+04;  0.0000000E+00;  0.0000000E+00;  1.0000000E+04;  0.0000000E+00;  1.0000000E+04;-0.0020119294;0.0;-0.0016305163;17.989769
  1.2000000E-01;  9.9999998E-03;  4.0000001E-01;520;0.0;0.0;0.0;1000.002;  4.0000001E-01;1.580202;0;0.0;0.0;0.0;0;-0.0016442258;  1.0000000E+04;  0.0000000E+00;  0.0000000E+00;  1.0000000E+04;  0.0000000E+00;  1.0000000E+04;-0.00084173348;0.0;-0.00080249226;12.279964
  1.4000000E-01;  9.9999998E-03;  3.4000000E-01;527;0.0;0.0;0.0;1000.0159;  4.0000001E-01;13.234192;0;0.0;0.0;0.0;0;-0.01323694;  1.0000000E+04;  0.0000000E+00;  0.0000000E+00;  1.0000000E+04;  0.0000000E+00;  1.0000000E+04;-0.0098319836;0.0;-0.0034049558;79.772644
  1.4000000E-01;  9.9999998E-03;  3.6000001E-01;528;0.0;0.0;0.0;1000.0105;  4.0000001E-01;8.6911106;0;0.0;0.0;0.0;0;-0.0086906897;  1.0000000E+04;  0.0000000E+00;  0.0000000E+00;  1.0000000E+04;  0.0000000E+00;  1.0000000E+04;-0.0057411948;0.0;-0.0029494946;36.324924
  1.4000000E-01;  9.9999998E-03;  3.8000000E-01;529;0.0;0.0;0.0;1000.006;  4.0000001E-01;5.0368938;0;0.0;0.0;0.0;0;-0.0049604243;  1.0000000E+04;  0.0000000E+00;  0.0000000E+00;  1.0000000E+04;  0.0000000E+00;  1.0000000E+04;-0.0029329746;0.0;-0.0020274499;33.55909
  1.4000000E-01;  9.9999998E-03;  4.0000001E-01;530;0.0;0.0;0.0;1000.0026;  4.0000001E-01;2.1727777;0;0.0;0.0;0.0;0;-0.0022633383;  1.0000000E+04;  0.0000000E+00;  0.0000000E+00;  1.0000000E+04;  0.0000000E+00;  1.0000000E+04;-0.0012584891;0.0;-0.0010048491;34.381622
  1.6000000E-01;  9.9999998E-03;  3.4000000E-01;537;0.0;0.0;0.0;1000.0225;  4.0000001E-01;18.666136;0;0.0;0.0;0.0;0;-0.018377025;  1.0000000E+04;  0.0000000E+00;  0.0000000E+00;  1.0000000E+04;  0.0000000E+00;  1.0000000E+04;-0.013871787;0.0;-0.0045052385;174.40941
  1.6000000E-01;  9.9999998E-03;  3.6000001E-01;538;0.0;0.0;0.0;1000.015;  4.0000001E-01;12.345328;0;0.0;0.0;0.0;0;-0.012221714;  1.0000000E+04;  0.0000000E+00;  0.0000000E+00;  1.0000000E+04;  0.0000000E+00;  1.0000000E+04;-0.0083078137;0.0;-0.0039139008;51.942284
  1.6000000E-01;  9.9999998E-03;  3.8000000E-01;539;0.0;0.0;0.0;1000.0089;  4.0000001E-01;7.308434;0;0.0;0.0;0.0;0;-0.0070989248;  1.0000000E+04;  0.0000000E+00;  0.0000000E+00;  1.0000000E+04;  0.0000000E+00;  1.0000000E+04;-0.0043684575;0.0;-0.0027304674;85.724083
  1.6000000E-01;  9.9999998E-03;  4.0000001E-01;540;0.0;0.0;0.0;1000.0041;  4.0000001E-01;3.3579292;0;0.0;0.0;0.0;0;-0.0033513573;  1.0000000E+04;  0.0000000E+00;  0.0000000E+00;  1.0000000E+04;  0.0000000E+00;  1.0000000E+04;-0.0019521947;0.0;-0.0013991626;99.256279
  1.8000001E-01;  9.9999998E-03;  3.4000000E-01;547;0.0;0.0;0.0;1000.032;  4.0000001E-01;26.468384;0;0.0;0.0;0.0;0;-0.025470762;  1.0000000E+04;  0.0000000E+00;  0.0000000E+00;  1.0000000E+04;  0.0000000E+00;  1.0000000E+04;-0.019071043;0.0;-0.0063997186;336.6926
  1.8000001E-01;  9.9999998E-03;  3.6000001E-01;548;0.0;0.0;0.0;1000.0216;  4.0000001E-01;17.876036;0;0.0;0.0;0.0;0;-0.017213132;  1.0000000E+04;  0.0000000E+00;  0.0000000E+00;  1.0000000E+04;  0.0000000E+00;  1.0000000E+04;-0.011626575;0.0;-0.0055865562;70.645821
  1.8000001E-01;  9.9999998E-03;  3.8000000E-01;549;0.0;0.0;0.0;1000.013;  4.0000001E-01;10.765126;0;0.0;0.0;0.0;0;-0.010343938;  1.0000000E+04;  0.0000000E+00;  0.0000000E+00;  1.0000000E+04;  0.0000000E+00;  1.0000000E+04;-0.0063057509;0.0;-0.0040381872;207.03284
  1.8000001E-01;  9.9999998E-03;  4.0000001E-01;550;0.0;0.0;0.0;1000.0065;  4.0000001E-01;5.3331819;0;0.0;0.0;0.0;0;-0.0052440846;  1.0000000E+04;  0.0000000E+00;  0.0000000E+00;  1.0000000E+04;  0.0000000E+00;  1.0000000E+04;-0.0029968438;0.0;-0.0022472406;251.20177
  2.0000000E-01;  9.9999998E-03;  3.4000000E-01;556;0.0;0.0;0.0;1000.044;  4.0000001E-01;36.443409;0;0.0;0.0;0.0;0;-0.034241378;  1.0000000E+04;  0.0000000E+00;  0.0000000E+00;  1.0000000E+04;  0.0000000E+00;  1.0000000E+04;-0.024680139;0.0;-0.0095612388;534.24066
  2.0000000E-01;  9.9999998E-03;  3.6000001E-01;557;0.0;0.0;0.0;1000.0303;  4.0000001E-01;25.085707;0;0.0;0.0;0.0;0;-0.023587931;  1.0000000E+04;  0.0000000E+00;  0.0000000E+00;  1.0000000E+04;  0.0000000E+00;  1.0000000E+04;-0.015172821;0.0;-0.0084151104;99.209312
  2.0000000E-01;  9.9999998E-03;  3.8000000E-01;558;0.0;0.0;0.0;1000.0193;  4.0000001E-01;15.999545;0;0.0;0.0;0.0;0;-0.014890816;  1.0000000E+04;  0.0000000E+00;  0.0000000E+00;  1.0000000E+04;  0.0000000E+00;  1.0000000E+04;-0.0084665874;0.0;-0.0064242287;412.46304
  1.9200000E+00;  9.9999998E-03; -3.6000001E-01;559;0.0;0.0;0.0;1000.0;  4.0000001E-01;0.0;0;0.0;0.0;0.0;0;0.0;  1.0000000E+04;  0.0000000E+00;  0.0000000E+00;  1.0000000E+04;  0.0000000E+00;  1.0000000E+04;0.0;0.0;0.0;0.0
  1.9200000E+00;  9.9999998E-03; -3.4000000E-01;560;0.0;0.0;0.0;1000.0;  4.0000001E-01;0.0;0;0.0;0.0;0.0;0;0.0;  1.0000000E+04;  0.0000000E+00;  0.0000000E+00;  1.0000000E+04;  0.0000000E+00;  1.0000000E+04;0.0;0.0;0.0;0.0
  1.9200000E+00;  9.9999998E-03; -3.1999999E-01;561;0.0;0.0;0.0;1000.0;  4.0000001E-01;0.0;0;0.0;0.0;0.0;0;0.0;  1.0000000E+04;  0.0000000E+00;  0.0000000E+00;  1.0000000E+04;  0.0000000E+00;  1.0000000E+04;0.0;0.0;0.0;0.0
  1.9400001E+00;  9.9999998E-03; -3.8000000E-01;562;0.0;0.0;0.0;1000.0;  4.0000001E-01;0.0;0;0.0;0.0;0.0;0;0.0;  1.0000000E+04;  0.0000000E+00;  0.0000000E+00;  1.0000000E+04;  0.0000000E+00;  1.0000000E+04;0.0;0.0;0.0;0.0
  1.9400001E+00;  9.9999998E-03; -3.6000001E-01;563;0.0;0.0;0.0;1000.0;  4.0000001E-01;0.0;0;0.0;0.0;0.0;0;0.0;  1.0000000E+04;  0.0000000E+00;  0.0000000E+00;  1.0000000E+04;  0.0000000E+00;  1.0000000E+04;0.0;0.0;0.0;0.0
  1.9400001E+00;  9.9999998E-03; -3.4000000E-01;564;0.0;0.0;0.0;1000.0;  4.0000001E-01;0.0;0;0.0;0.0;0.0;0;0.0;  1.0000000E+04;  0.0000000E+00;  0.0000000E+00;  1.0000000E+04;  0.0000000E+00;  1.0000000E+04;0.0;0.0;0.0;0.0
  1.9400001E+00;  9.9999998E-03; -3.1999999E-01;565;0.0;0.0;0.0;1000.0;  4.0000001E-01;0.0;0;0.0;0.0;0.0;0;0.0;  1.0000000E+04;  0.0000000E+00;  0.0000000E+00;  1.0000000E+04;  0.0000000E+00;  1.0000000E+04;0.0;0.0;0.0;0.0
  1.9400001E+00;  9.9999998E-03; -3.0000001E-01;566;0.0;0.0;0.0;1000.0;  4.0000001E-01;0.0;0;0.0;0.0;0.0;0;0.0;  1.0000000E+04;  0.0000000E+00;  0.0000000E+00;  1.0000000E+04;  0.0000000E+00;  1.0000000E+04;0.0;0.0;0.0;0.0
  1.9400001E+00;  9.9999998E-03; -2.8000000E-01;567;0.0;0.0;0.0;1000.0;  4.0000001E-01;0.0;0;0.0;0.0;0.0;0;0.0;  1.0000000E+04;  0.0000000E+00;  0.0000000E+00;  1.0000000E+04;  0.0000000E+00;  1.0000000E+04;0.0;0.0;0.0;0.0
  1.9400001E+00;  9.9999998E-03; -2.5999999E-01;568;0.0;0.0;0.0;1000.0;  4.0000001E-01;0.0;0;0.0;0.0;0.0;0;0.0;  1.0000000E+04;  0.0000000E+00;  0.0000000E+00;  1.0000000E+04;  0.0000000E+00;  1.0000000E+04;0.0;0.0;0.0;0.0
  1.9400001E+00;  9.9999998E-03; -2.3999999E-01;569;0.0;0.0;0.0;1000.0;  4.0000001E-01;0.0;0;0.0;0.0;0.0;0;0.0;  1.0000000E+04;  0.0000000E+00;  0.0000000E+00;  1.0000000E+04;  0.0000000E+00;  1.0000000E+04;0.0;0.0;0.0;0.0
  1.9400001E+00;  9.9999998E-03; -2.2000000E-01;570;0.0;0.0;0.0;1000.0;  4.0000001E-01;0.0;0;0.0;0.0;0.0;0;0.0;  1.0000000E+04;  0.0000000E+00;  0.0000000E+00;  1.0000000E+04;  0.0000000E+00;  1.0000000E+04;0.0;0.0;0.0;0.0
  1.9600000E+00;  9.9999998E-03; -3.8000000E-01;571;0.0;0.0;0.0;1000.0;  4.0000001E-01;0.0;0;0.0;0.0;0.0;0;0.0;  1.0000000E+04;  0.0000000E+00;  0.0000000E+00;  1.0000000E+04;  0.0000000E+00;  1.0000000E+04;0.0;0.0;0.0;0.0
  1.9600000E+00;  9.9999998E-03; -3.6000001E-01;572;0.0;0.0;0.0;1000.0;  4.0000001E-01;0.0;0;0.0;0.0;0.0;0;0.0;  1.0000000E+04;  0.0000000E+00;  0.0000000E+00;  1.0000000E+04;  0.0000000E+00;  1.0000000E+04;0.0;0.0;0.0;0.0
  1.9600000E+00;  9.9999998E-03; -3.4000000E-01;573;0.0;0.0;0.0;1000.0;  4.0000001E-01;0.0;0;0.0;0.0;0.0;0;0.0;  1.0000000E+04;  0.0000000E+00;  0.0000000E+00;  1.0000000E+04;  0.0000000E+00;  1.0000000E+04;0.0;0.0;0.0;0.0
  1.9600000E+00;  9.9999998E-03; -3.1999999E-01;574;0.0;0.0;0.0;1000.0;  4.0000001E-01;0.0;0;0.0;0.0;0.0;0;0.0;  1.0000000E+04;  0.0000000E+00;  0.0000000E+00;  1.0000000E+04;  0.0000000E+00;  1.0000000E+04;0.0;0.0;0.0;0.0
  1.9600000E+00;  9.9999998E-03; -3.0000001E-01;575;0.0;0.0;0.0;1000.0;  4.0000001E-01;0.0;0;0.0;0.0;0.0;0;0.0;  1.0000000E+04;  0.0000000E+00;  0.0000000E+00;  1.0000000E+04;  0.0000000E+00;  1.0000000E+04;0.0;0.0;0.0;0.0
  1.9600000E+00;  9.9999998E-03; -2.8000000E-01;576;0.0;0.0;0.0;1000.0;  4.0000001E-01;0.0;0;0.0;0.0;0.0;0;0.0;  1.0000000E+04;  0.0000000E+00;  0.0000000E+00;  1.0000000E+04;  0.0000000E+00;  1.0000000E+04;0.0;0.0;0.0;0.0
  1.9600000E+00;  9.9999998E-03; -2.5999999E-01;577;0.0;0.0;0.0;1000.0;  4.0000001E-01;0.0;0;0.0;0.0;0.0;0;0.0;  1.0000000E+04;  0.0000000E+00;  0.0000000E+00;  1.0000000E+04;  0.0000000E+00;  1.0000000E+04;0.0;0.0;0.0;0.0
  1.9600000E+00;  9.9999998E-03; -2.3999999E-01;578;0.0;0.0;0.0;1000.0;  4.0000001E-01;0.0;0;0.0;0.0;0.0;0;0.0;  1.0000000E+04;  0.0000000E+00;  0.0000000E+00;  1.0000000E+04;  0.0000000E+00;  1.0000000E+04;0.0;0.0;0.0;0.0
  1.9600000E+00;  9.9999998E-03; -2.2000000E-01;579;0.0;0.0;0.0;1000.0;  4.0000001E-01;0.0;0;0.0;0.0;0.0;0;0.0;  1.0000000E+04;  0.0000000E+00;  0.0000000E+00;  1.0000000E+04;  0.0000000E+00;  1.0000000E+04;0.0;0.0;0.0;0.0
  1.9600000E+00;  9.9999998E-03; -2.0000000E-01;580;0.0;0.0;0.0;1000.0;  4.0000001E-01;0.0;0;0.0;0.0;0.0;0;0.0;  1.0000000E+04;  0.0000000E+00;  0.0000000E+00;  1.0000000E+04;  0.0000000E+00;  1.0000000E+04;0.0;0.0;0.0;0.0
  1.9600000E+00;  9.9999998E-03; -1.8000001E-01;581;0.0;0.0;0.0;1000.0;  4.0000001E-01;0.0;0;0.0;0.0;0.0;0;0.0;  1.0000000E+04;  0.0000000E+00;  0.0000000E+00;  1.0000000E+04;  0.0000000E+00;  1.0000000E+04;0.0;0.0;0.0;0.0
  1.9600000E+00;  9.9999998E-03; -1.6000000E-01;582;0.0;0.0;0.0;1000.0;  4.0000001E-01;0.0;0;0.0;0.0;0.0;0;0.0;  1.0000000E+04;  0.0000000E+00;  0.0000000E+00;  1.0000000E+04;  0.0000000E+00;  1.0000000E+04;0.0;0.0;0.0;0.0
  1.9600000E+00;  9.9999998E-03; -1.4000000E-01;583;0.0;0.0;0.0;1000.0;  4.0000001E-01;0.0;0;0.0;0.0;0.0;0;0.0;  1.0000000E+04;  0.0000000E+00;  0.0000000E+00;  1.0000000E+04;  0.0000000E+00;  1.0000000E+04;0.0;0.0;0.0;0.0
  1.9600000E+00;  9.9999998E-03; -1.2000000E-01;584;0.0;0.0;0.0;1000.0;  4.0000001E-01;0.0;0;0.0;0.0;0.0;0;0.0;  1.0000000E+04;  0.0000000E+00;  0.0000000E+00;  1.0000000E+04;  0.0000000E+00;  1.0000000E+04;0.0;0.0;0.0;0.0
  1.9800000E+00;  9.9999998E-03; -3.8000000E-01;585;0.0;0.0;0.0;1000.0;  4.0000001E-01;0.0;0;0.0;0.0;0.0;0;0.0;  1.0000000E+04;  0.0000000E+00;  0.0000000E+00;  1.0000000E+04;  0.0000000E+00;  1.0000000E+04;0.0;0.0;0.0;0.0
  1.9800000E+00;  9.9999998E-03; -3.6000001E-01;586;0.0;0.0;0.0;1000.0;  4.0000001E-01;0.0;0;0.0;0.0;0.0;0;0.0;  1.0000000E+04;  0.0000000E+00;  0.0000000E+00;  1.0000000E+04;  0.0000000E+00;  1.0000000E+04;0.0;0.0;0.0;0.0
  1.9800000E+00;  9.9999998E-03; -3.4000000E-01;587;0.0;0.0;0.0;1000.0;  4.0000001E-01;0.0;0;0.0;0.0;0.0;0;0.0;  1.0000000E+04;  0.0000000E+00;  0.0000000E+00;  1.0000000E+04;  0.0000000E+00;  1.0000000E+04;0.0;0.0;0.0;0.0
  1.9800000E+00;  9.9999998E-03; -3.1999999E-01;588;0.0;0.0;0.0;1000.0;  4.0000001E-01;0.0;0;0.0;0.0;0.0;0;0.0;  1.0000000E+04;  0.0000000E+00;  0.0000000E+00;  1.0000000E+04;  0.0000000E+00;  1.0000000E+04;0.0;0.0;0.0;0.0
  1.9800000E+00;  9.9999998E-03; -3.0000001E-01;589;0.0;0.0;0.0;1000.0;  4.0000001E-01;0.0;0;0.0;0.0;0.0;0;0.0;  1.0000000E+04;  0.0000000E+00;  0.0000000E+00;  1.0000000E+04;  0.0000000E+00;  1.0000000E+04;0.0;0.0;0.0;0.0
  1.9800000E+00;  9.9999998E-03; -2.8000000E-01;590;0.0;0.0;0.0;1000.0;  4.0000001E-01;0.0;0;0.0;0.0;0.0;0;0.0;  1.0000000E+04;  0.0000000E+00;  0.0000000E+00;  1.0000000E+04;  0.0000000E+00;  1.0000000E+04;0.0;0.0;0.0;0.0
  1.9800000E+00;  9.9999998E-03; -2.5999999E-01;591;0.0;0.0;0.0;1000.0;  4.0000001E-01;0.0;0;0.0;0.0;0.0;0;0.0;  1.0000000E+04;  0.0000000E+00;  0.0000000E+00;  1.0000000E+04;  0.0000000E+00;  1.0000000E+04;0.0;0.0;0.0;0.0
  1.9800000E+00;  9.9999998E-03; -2.3999999E-01;592;0.0;0.0;0.0;1000.0;  4.0000001E-01;0.0;0;0.0;0.0;0.0;0;0.0;  1.0000000E+04;  0.0000000E+00;  0.0000000E+00;  1.0000000E+04;  0.0000000E+00;  1.0000000E+04;0.0;0.0;0.0;0.0
  1.9800000E+00;  9.9999998E-03; -2.2000000E-01;593;0.0;0.0;0.0;1000.0;  4.0000001E-01;0.0;0;0.0;0.0;0.0;0;0.0;  1.0000000E+04;  0.0000000E+00;  0.0000000E+00;  1.0000000E+04;  0.0000000E+00;  1.0000000E+04;0.0;0.0;0.0;0.0
  1.9800000E+00;  9.9999998E-03; -2.0000000E-01;594;0.0;0.0;0.0;1000.0;  4.0000001E-01;0.0;0;0.0;0.0;0.0;0;0.0;  1.0000000E+04;  0.0000000E+00;  0.0000000E+00;  1.0000000E+04;  0.0000000E+00;  1.0000000E+04;0.0;0.0;0.0;0.0
  1.9800000E+00;  9.9999998E-03; -1.8000001E-01;595;0.0;0.0;0.0;1000.0;  4.0000001E-01;0.0;0;0.0;0.0;0.0;0;0.0;  1.0000000E+04;  0.0000000E+00;  0.0000000E+00;  1.0000000E+04;  0.0000000E+00;  1.0000000E+04;0.0;0.0;0.0;0.0
  1.9800000E+00;  9.9999998E-03; -1.6000000E-01;596;0.0;0.0;0.0;1000.0;  4.0000001E-01;0.0;0;0.0;0.0;0.0;0;0.0;  1.0000000E+04;  0.0000000E+00;  0.0000000E+00;  1.0000000E+04;  0.0000000E+00;  1.0000000E+04;0.0;0.0;0.0;0.0
  1.9800000E+00;  9.9999998E-03; -1.4000000E-01;597;0.0;0.0;0.0;1000.0;  4.0000001E-01;0.0;0;0.0;0.0;0.0;0;0.0;  1.0000000E+04;  0.0000000E+00;  0.0000000E+00;  1.0000000E+04;  0.0000000E+00;  1.0000000E+04;0.0;0.0;0.0;0.0
  1.9800000E+00;  9.9999998E-03; -1.2000000E-01;598;0.0;0.0;0.0;1000.0;  4.0000001E-01;0.0;0;0.0;0.0;0.0;0;0.0;  1.0000000E+04;  0.0000000E+00;  0.0000000E+00;  1.0000000E+04;  0.0000000E+00;  1.0000000E+04;0.0;0.0;0.0;0.0
  1.9800000E+00;  9.9999998E-03; -1.0000000E-01;599;0.0;0.0;0.0;1000.0;  4.0000001E-01;0.0;0;0.0;0.0;0.0;0;0.0;  1.0000000E+04;  0.0000000E+00;  0.0000000E+00;  1.0000000E+04;  0.0000000E+00;  1.0000000E+04;0.0;0.0;0.0;0.0
  1.9800000E+00;  9.9999998E-03; -7.9999998E-02;600;0.0;0.0;0.0;1000.0;  4.0000001E-01;0.0;0;0.0;0.0;0.0;0;0.0;  1.0000000E+04;  0.0000000E+00;  0.0000000E+00;  1.0000000E+04;  0.0000000E+00;  1.0000000E+04;0.0;0.0;0.0;0.0
  1.9800000E+00;  9.9999998E-03; -5.9999999E-02;601;0.0;0.0;0.0;1000.0;  4.0000001E-01;0.0;0;0.0;0.0;0.0;0;0.0;  1.0000000E+04;  0.0000000E+00;  0.0000000E+00;  1.0000000E+04;  0.0000000E+00;  1.0000000E+04;0.0;0.0;0.0;0.0
  1.9800000E+00;  9.9999998E-03; -3.9999999E-02;602;0.0;0.0;0.0;1000.0;  4.0000001E-01;0.0;0;0.0;0.0;0.0;0;0.0;  1.0000000E+04;  0.0000000E+00;  0.0000000E+00;  1.0000000E+04;  0.0000000E+00;  1.0000000E+04;0.0;0.0;0.0;0.0
  1.9800000E+00;  9.9999998E-03; -2.0000000E-02;603;0.0;0.0;0.0;1000.0;  4.0000001E-01;0.0;0;0.0;0.0;0.0;0;0.0;  1.0000000E+04;  0.0000000E+00;  0.0000000E+00;  1.0000000E+04;  0.0000000E+00;  1.0000000E+04;0.0;0.0;0.0;0.0
  2.0000000E+00;  9.9999998E-03; -3.8000000E-01;604;0.0;0.0;0.0;1000.0;  4.0000001E-01;0.0;0;0.0;0.0;0.0;0;0.0;  1.0000000E+04;  0.0000000E+00;  0.0000000E+00;  1.0000000E+04;  0.0000000E+00;  1.0000000E+04;0.0;0.0;0.0;0.0
  2.0000000E+00;  9.9999998E-03; -3.6000001E-01;605;0.0;0.0;0.0;1000.0;  4.0000001E-01;0.0;0;0.0;0.0;0.0;0;0.0;  1.0000000E+04;  0.0000000E+00;  0.0000000E+00;  1.0000000E+04;  0.0000000E+00;  1.0000000E+04;0.0;0.0;0.0;0.0
  2.0000000E+00;  9.9999998E-03; -3.4000000E-01;606;0.0;0.0;0.0;1000.0;  4.0000001E-01;0.0;0;0.0;0.0;0.0;0;0.0;  1.0000000E+04;  0.0000000E+00;  0.0000000E+00;  1.0000000E+04;  0.0000000E+00;  1.0000000E+04;0.0;0.0;0.0;0.0
  2.0000000E+00;  9.9999998E-03; -3.1999999E-01;607;0.0;0.0;0.0;1000.0;  4.0000001E-01;0.0;0;0.0;0.0;0.0;0;0.0;  1.0000000E+04;  0.0000000E+00;  0.0000000E+00;  1.0000000E+04;  0.0000000E+00;  1.0000000E+04;0.0;0.0;0.0;0.0
  2.0000000E+00;  9.9999998E-03; -3.0000001E-01;608;0.0;0.0;0.0;1000.0;  4.0000001E-01;0.0;0;0.0;0.0;0.0;0;0.0;  1.0000000E+04;  0.0000000E+00;  0.0000000E+00;  1.0000000E+04;  0.0000000E+00;  1.0000000E+04;0.0;0.0;0.0;0.0
  2.0000000E+00;  9.9999998E-03; -2.8000000E-01;609;0.0;0.0;0.0;1000.0;  4.0000001E-01;0.0;0;0.0;0.0;0.0;0;0.0;  1.0000000E+04;  0.0000000E+00;  0.0000000E+00;  1.0000000E+04;  0.0000000E+00;  1.0000000E+04;0.0;0.0;0.0;0.0
  2.0000000E+00;  9.9999998E-03; -2.5999999E-01;610;0.0;0.0;0.0;1000.0;  4.0000001E-01;0.0;0;0.0;0.0;0.0;0;0.0;  1.0000000E+04;  0.0000000E+00;  0.0000000E+00;  1.0000000E+04;  0.0000000E+00;  1.0000000E+04;0.0;0.0;0.0;0.0
  2.0000000E+00;  9.9999998E-03; -2.3999999E-01;611;0.0;0.0;0.0;1000.0;  4.0000001E-01;0.0;0;0.0;0.0;0.0;0;0.0;  1.0000000E+04;  0.0000000E+00;  0.0000000E+00;  1.0000000E+04;  0.0000000E+00;  1.0000000E+04;0.0;0.0;0.0;0.0
  2.0000000E+00;  9.9999998E-03; -2.2000000E-01;612;0.0;0.0;0.0;1000.0;  4.0000001E-01;0.0;0;0.0;0.0;0.0;0;0.0;  1.0000000E+04;  0.0000000E+00;  0.0000000E+00;  1.0000000E+04;  0.0000000E+00;  1.0000000E+04;0.0;0.0;0.0;0.0
  2.0000000E+00;  9.9999998E-03; -2.0000000E-01;613;0.0;0.0;0.0;1000.0;  4.0000001E-01;0.0;0;0.0;0.0;0.0;0;0.0;  1.0000000E+04;  0.0000000E+00;  0.0000000E+00;  1.0000000E+04;  0.0000000E+00;  1.0000000E+04;0.0;0.0;0.0;0.0
  2.0000000E+00;  9.9999998E-03; -1.8000001E-01;614;0.0;0.0;0.0;1000.0;  4.0000001E-01;0.0;0;0.0;0.0;0.0;0;0.0;  1.0000000E+04;  0.0000000E+00;  0.0000000E+00;  1.0000000E+04;  0.0000000E+00;  1.0000000E+04;0.0;0.0;0.0;0.0
  2.0000000E+00;  9.9999998E-03; -1.6000000E-01;615;0.0;0.0;0.0;1000.0;  4.0000001E-01;0.0;0;0.0;0.0;0.0;0;0.0;  1.0000000E+04;  0.0000000E+00;  0.0000000E+00;  1.0000000E+04;  0.0000000E+00;  1.0000000E+04;0.0;0.0;0.0;0.0
  2.0000000E+00;  9.9999998E-03; -1.4000000E-01;616;0.0;0.0;0.0;1000.0;  4.0000001E-01;0.0;0;0.0;0.0;0.0;0;0.0;  1.0000000E+04;  0.0000000E+00;  0.0000000E+00;  1.0000000E+04;  0.0000000E+00;  1.0000000E+04;0.0;0.0;0.0;0.0
  2.0000000E+00;  9.9999998E-03; -1.2000000E-01;617;0.0;0.0;0.0;1000.0;  4.0000001E-01;0.0;0;0.0;0.0;0.0;0;0.0;  1.0000000E+04;  0.0000000E+00;  0.0000000E+00;  1.0000000E+04;  0.0000000E+00;  1.0000000E+04;0.0;0.0;0.0;0.0
  2.0000000E+00;  9.9999998E-03; -1.0000000E-01;618;0.0;0.0;0.0;1000.0;  4.0000001E-01;0.0;0;0.0;0.0;0.0;0;0.0;  1.0000000E+04;  0.0000000E+00;  0.0000000E+00;  1.0000000E+04;  0.0000000E+00;  1.0000000E+04;0.0;0.0;0.0;0.0
  2.0000000E+00;  9.9999998E-03; -7.9999998E-02;619;0.0;0.0;0.0;1000.0;  4.0000001E-01;0.0;0;0.0;0.0;0.0;0;0.0;  1.0000000E+04;  0.0000000E+00;  0.0000000E+00;  1.0000000E+04;  0.0000000E+00;  1.0000000E+04;0.0;0.0;0.0;0.0
  2.0000000E+00;  9.9999998E-03; -5.9999999E-02;620;0.0;0.0;0.0;1000.0;  4.0000001E-01;0.0;0;0.0;0.0;0.0;0;0.0;  1.0000000E+04;  0.0000000E+00;  0.0000000E+00;  1.0000000E+04;  0.0000000E+00;  1.0000000E+04;0.0;0.0;0.0;0.0
  2.0000000E+00;  9.9999998E-03; -3.9999999E-02;621;0.0;0.0;0.0;1000.0;  4.0000001E-01;0.0;0;0.0;0.0;0.0;0;0.0;  1.0000000E+04;  0.0000000E+00;  0.0000000E+00;  1.0000000E+04;  0.0000000E+00;  1.0000000E+04;0.0;0.0;0.0;0.0
  2.0000000E+00;  9.9999998E-03; -2.0000000E-02;622;0.0;0.0;0.0;1000.0;  4.0000001E-01;0.0;0;0.0;0.0;0.0;0;0.0;  1.0000000E+04;  0.0000000E+00;  0.0000000E+00;  1.0000000E+04;  0.0000000E+00;  1.0000000E+04;0.0;0.0;0.0;0.0
  2.0000000E+00;  9.9999998E-03;  0.0000000E+00;623;0.0;0.0;0.0;1000.0;  4.0000001E-01;0.0;0;0.0;0.0;0.0;0;0.0;  1.0000000E+04;  0.0000000E+00;  0.0000000E+00;  1.0000000E+04;  0.0000000E+00;  1.0000000E+04;0.0;0.0;0.0;0.0
  2.0000000E+00;  9.9999998E-03;  2.0000000E-02;624;0.0;0.0;0.0;1000.0;  4.0000001E-01;0.0;0;0.0;0.0;0.0;0;0.0;  1.0000000E+04;  0.0000000E+00;  0.0000000E+00;  1.0000000E+04;  0.0000000E+00;  1.0000000E+04;0.0;0.0;0.0;0.0
  2.0000000E+00;  9.9999998E-03;  3.9999999E-02;625;0.0;0.0;0.0;1000.0;  4.0000001E-01;0.0;0;0.0;0.0;0.0;0;0.0;  1.0000000E+04;  0.0000000E+00;  0.0000000E+00;  1.0000000E+04;  0.0000000E+00;  1.0000000E+04;0.0;0.0;0.0;0.0
  2.0000000E+00;  9.9999998E-03;  5.9999999E-02;626;0.0;0.0;0.0;1000.0;  4.0000001E-01;0.0;0;0.0;0.0;0.0;0;0.0;  1.0000000E+04;  0.0000000E+00;  0.0000000E+00;  1.0000000E+04;  0.0000000E+00;  1.0000000E+04;0.0;0.0;0.0;0.0
  2.0000000E+00;  9.9999998E-03;  7.9999998E-02;627;0.0;0.0;0.0;1000.0;  4.0000001E-01;0.0;0;0.0;0.0;0.0;0;0.0;  1.0000000E+04;  0.0000000E+00;  0.0000000E+00;  1.0000000E+04;  0.0000000E+00;  1.0000000E+04;0.0;0.0;0.0;0.0
  2.0200000E+00;  9.9999998E-03; -4.0000001E-01;628;0.0;0.0;0.0;1000.0;  4.0000001E-01;0.0;0;0.0;0.0;0.0;0;0.0;  1.0000000E+04;  0.0000000E+00;  0.0000000E+00;  1.0000000E+04;  0.0000000E+00;  1.0000000E+04;0.0;0.0;0.0;0.0
  2.0200000E+00;  9.9999998E-03; -3.8000000E-01;629;0.0;0.0;0.0;1000.0;  4.0000001E-01;0.0;0;0.0;0.0;0.0;0;0.0;  1.0000000E+04;  0.0000000E+00;  0.0000000E+00;  1.0000000E+04;  0.0000000E+00;  1.0000000E+04;0.0;0.0;0.0;0.0
  2.0200000E+00;  9.9999998E-03; -3.6000001E-01;630;0.0;0.0;0.0;1000.0;  4.0000001E-01;0.0;0;0.0;0.0;0.0;0;0.0;  1.0000000E+04;  0.0000000E+00;  0.0000000E+00;  1.0000000E+04;  0.0000000E+00;  1.0000000E+04;0.0;0.0;0.0;0.0
  2.0200000E+00;  9.9999998E-03; -3.4000000E-01;631;0.0;0.0;0.0;1000.0;  4.0000001E-01;0.0;0;0.0;0.0;0.0;0;0.0;  1.0000000E+04;  0.0000000E+00;  0.0000000E+00;  1.0000000E+04;  0.0000000E+00;  1.0000000E+04;0.0;0.0;0.0;0.0
  2.0200000E+00;  9.9999998E-03; -3.1999999E-01;632;0.0;0.0;0.0;1000.0;  4.0000001E-01;0.0;0;0.0;0.0;0.0;0;0.0;  1.0000000E+04;  0.0000000E+00;  0.0000000E+00;  1.0000000E+04;  0.0000000E+00;  1.0000000E+04;0.0;0.0;0.0;0.0
  2.0200000E+00;  9.9999998E-03; -3.0000001E-01;633;0.0;0.0;0.0;1000.0;  4.0000001E-01;0.0;0;0.0;0.0;0.0;0;0.0;  1.0000000E+04;  0.0000000E+00;  0.0000000E+00;  1.0000000E+04;  0.0000000E+00;  1.0000000E+04;0.0;0.0;0.0;0.0
  2.0200000E+00;  9.9999998E-03; -2.8000000E-01;634;0.0;0.0;0.0;1000.0;  4.0000001E-01;0.0;0;0.0;0.0;0.0;0;0.0;  1.0000000E+04;  0.0000000E+00;  0.0000000E+00;  1.0000000E+04;  0.0000000E+00;  1.0000000E+04;0.0;0.0;0.0;0.0
  2.0200000E+00;  9.9999998E-03; -2.5999999E-01;635;0.0;0.0;0.0;1000.0;  4.0000001E-01;0.0;0;0.0;0.0;0.0;0;0.0;  1.0000000E+04;  0.0000000E+00;  0.0000000E+00;  1.0000000E+04;  0.0000000E+00;  1.0000000E+04;0.0;0.0;0.0;0.0
  2.0200000E+00;  9.9999998E-03; -2.3999999E-01;636;0.0;0.0;0.0;1000.0;  4.0000001E-01;0.0;0;0.0;0.0;0.0;0;0.0;  1.0000000E+04;  0.0000000E+00;  0.0000000E+00;  1.0000000E+04;  0.0000000E+00;  1.0000000E+04;0.0;0.0;0.0;0.0
  2.0200000E+00;  9.9999998E-03; -2.2000000E-01;637;0.0;0.0;0.0;1000.0;  4.0000001E-01;0.0;0;0.0;0.0;0.0;0;0.0;  1.0000000E+04;  0.0000000E+00;  0.0000000E+00;  1.0000000E+04;  0.0000000E+00;  1.0000000E+04;0.0;0.0;0.0;0.0
  2.0200000E+00;  9.9999998E-03; -2.0000000E-01;638;0.0;0.0;0.0;1000.0;  4.0000001E-01;0.0;0;0.0;0.0;0.0;0;0.0;  1.0000000E+04;  0.0000000E+00;  0.0000000E+00;  1.0000000E+04;  0.0000000E+00;  1.0000000E+04;0.0;0.0;0.0;0.0
  2.0200000E+00;  9.9999998E-03; -1.8000001E-01;639;0.0;0.0;0.0;1000.0;  4.0000001E-01;0.0;0;0.0;0.0;0.0;0;0.0;  1.0000000E+04;  0.0000000E+00;  0.0000000E+00;  1.0000000E+04;  0.0000000E+00;  1.0000000E+04;0.0;0.0;0.0;0.0
  2.0200000E+00;  9.9999998E-03; -1.6000000E-01;640;0.0;0.0;0.0;1000.0;  4.0000001E-01;0.0;0;0.0;0.0;0.0;0;0.0;  1.0000000E+04;  0.0000000E+00;  0.0000000E+00;  1.0000000E+04;  0.0000000E+00;  1.0000000E+04;0.0;0.0;0.0;0.0
  2.0200000E+00;  9.9999998E-03; -1.4000000E-01;641;0.0;0.0;0.0;1000.0;  4.0000001E-01;0.0;0;0.0;0.0;0.0;0;0.0;  1.0000000E+04;  0.0000000E+00;  0.0000000E+00;  1.0000000E+04;  0.0000000E+00;  1.0000000E+04;0.0;0.0;0.0;0.0
  2.0200000E+00;  9.9999998E-03; -1.2000000E-01;642;0.0;0.0;0.0;1000.0;  4.0000001E-01;0.0;0;0.0;0.0;0.0;0;0.0;  1.0000000E+04;  0.0000000E+00;  0.0000000E+00;  1.0000000E+04;  0.0000000E+00;  1.0000000E+04;0.0;0.0;0.0;0.0
  2.0200000E+00;  9.9999998E-03; -1.0000000E-01;643;0.0;0.0;0.0;1000.0;  4.0000001E-01;0.0;0;0.0;0.0;0.0;0;0.0;  1.0000000E+04;  0.0000000E+00;  0.0000000E+00;  1.0000000E+04;  0.0000000E+00;  1.0000000E+04;0.0;0.0;0.0;0.0
  2.0200000E+00;  9.9999998E-03; -7.9999998E-02;644;0.0;0.0;0.0;1000.0;  4.0000001E-01;0.0;0;0.0;0.0;0.0;0;0.0;  1.0000000E+04;  0.0000000E+00;  0.0000000E+00;  1.0000000E+04;  0.0000000E+00;  1.0000000E+04;0.0;0.0;0.0;0.0
  2.0200000E+00;  9.9999998E-03; -5.9999999E-02;645;0.0;0.0;0.0;1000.0;  4.0000001E-01;0.0;0;0.0;0.0;0.0;0;0.0;  1.0000000E+04;  0.0000000E+00;  0.0000000E+00;  1.0000000E+04;  0.0000000E+00;  1.0000000E+04;0.0;0.0;0.0;0.0
  2.0200000E+00;  9.9999998E-03; -3.9999999E-02;646;0.0;0.0;0.0;1000.0;  4.0000001E-01;0.0;0;0.0;0.0;0.0;0;0.0;  1.0000000E+04;  0.0000000E+00;  0.0000000E+00;  1.0000000E+04;  0.0000000E+00;  1.0000000E+04;0.0;0.0;0.0;0.0
  2.0200000E+00;  9.9999998E-03; -2.0000000E-02;647;0.0;0.0;0.0;1000.0;  4.0000001E-01;0.0;0;0.0;0.0;0.0;0;0.0;  1.0000000E+04;  0.0000000E+00;  0.0000000E+00;  1.0000000E+04;  0.0000000E+00;  1.0000000E+04;0.0;0.0;0.0;0.0
  2.0200000E+00;  9.9999998E-03;  0.0000000E+00;648;0.0;0.0;0.0;1000.0;  4.0000001E-01;0.0;0;0.0;0.0;0.0;0;0.0;  1.0000000E+04;  0.0000000E+00;  0.0000000E+00;  1.0000000E+04;  0.0000000E+00;  1.0000000E+04;0.0;0.0;0.0;0.0
  2.0200000E+00;  9.9999998E-03;  2.0000000E-02;649;0.0;0.0;0.0;1000.0;  4.0000001E-01;0.0;0;0.0;0.0;0.0;0;0.0;  1.0000000E+04;  0.0000000E+00;  0.0000000E+00;  1.0000000E+04;  0.0000000E+00;  1.0000000E+04;0.0;0.0;0.0;0.0
  2.0200000E+00;  9.9999998E-03;  3.9999999E-02;650;0.0;0.0;0.0;1000.0;  4.0000001E-01;0.0;0;0.0;0.0;0.0;0;0.0;  1.0000000E+04;  0.0000000E+00;  0.0000000E+00;  1.0000000E+04;  0.0000000E+00;  1.0000000E+04;0.0;0.0;0.0;0.0
  2.0200000E+00;  9.9999998E-03;  5.9999999E-02;651;0.0;0.0;0.0;1000.0;  4.0000001E-01;0.0;0;0.0;0.0;0.0;0;0.0;  1.0000000E+04;  0.0000000E+00;  0.0000000E+00;  1.0000000E+04;  0.0000000E+00;  1.0000000E+04;0.0;0.0;0.0;0.0
  2.0200000E+00;  9.9999998E-03;  7.9999998E-02;652;0.0;0.0;0.0;1000.0;  4.0000001E-01;0.0;0;0.0;0.0;0.0;0;0.0;  1.0000000E+04;  0.0000000E+00;  0.0000000E+00;  1.0000000E+04;  0.0000000E+00;  1.0000000E+04;0.0;0.0;0.0;0.0
  2.0200000E+00;  9.9999998E-03;  1.0000000E-01;653;0.0;0.0;0.0;1000.0;  4.0000001E-01;0.0;0;0.0;0.0;0.0;0;0.0;  1.0000000E+04;  0.0000000E+00;  0.0000000E+00;  1.0000000E+04;  0.0000000E+00;  1.0000000E+04;0.0;0.0;0.0;0.0
  2.0200000E+00;  9.9999998E-03;  1.2000000E-01;654;0.0;0.0;0.0;1000.0;  4.0000001E-01;0.0;0;0.0;0.0;0.0;0;0.0;  1.0000000E+04;  0.0000000E+00;  0.0000000E+00;  1.0000000E+04;  0.0000000E+00;  1.0000000E+04;0.0;0.0;0.0;0.0
  2.0200000E+00;  9.9999998E-03;  1.4000000E-01;655;0.0;0.0;0.0;1000.0;  4.0000001E-01;0.0;0;0.0;0.0;0.0;0;0.0;  1.0000000E+04;  0.0000000E+00;  0.0000000E+00;  1.0000000E+04;  0.0000000E+00;  1.0000000E+04;0.0;0.0;0.0;0.0
  2.0200000E+00;  9.9999998E-03;  1.6000000E-01;656;0.0;0.0;0.0;1000.0;  4.0000001E-01;0.0;0;0.0;0.0;0.0;0;0.0;  1.0000000E+04;  0.0000000E+00;  0.0000000E+00;  1.0000000E+04;  0.0000000E+00;  1.0000000E+04;0.0;0.0;0.0;0.0
  2.0200000E+00;  9.9999998E-03;  1.8000001E-01;657;0.0;0.0;0.0;1000.0;  4.0000001E-01;0.0;0;0.0;0.0;0.0;0;0.0;  1.0000000E+04;  0.0000000E+00;  0.0000000E+00;  1.0000000E+04;  0.0000000E+00;  1.0000000E+04;0.0;0.0;0.0;0.0
  2.0400000E+00;  9.9999998E-03; -4.0000001E-01;658;0.0;0.0;0.0;1000.0;  4.0000001E-01;0.0;0;0.0;0.0;0.0;0;0.0;  1.0000000E+04;  0.0000000E+00;  0.0000000E+00;  1.0000000E+04;  0.0000000E+00;  1.0000000E+04;0.0;0.0;0.0;0.0
  2.0400000E+00;  9.9999998E-03; -3.8000000E-01;659;0.0;0.0;0.0;1000.0;  4.0000001E-01;0.0;0;0.0;0.0;0.0;0;0.0;  1.0000000E+04;  0.0000000E+00;  0.0000000E+00;  1.0000000E+04;  0.0000000E+00;  1.0000000E+04;0.0;0.0;0.0;0.0
  2.0400000E+00;  9.9999998E-03; -3.6000001E-01;660;0.0;0.0;0.0;1000.0;  4.0000001E-01;0.0;0;0.0;0.0;0.0;0;0.0;  1.0000000E+04;  0.0000000E+00;  0.0000000E+00;  1.0000000E+04;  0.0000000E+00;  1.0000000E+04;0.0;0.0;0.0;0.0
  2.0400000E+00;  9.9999998E-03; -3.4000000E-01;661;0.0;0.0;0.0;1000.0;  4.0000001E-01;0.0;0;0.0;0.0;0.0;0;0.0;  1.0000000E+04;  0.0000000E+00;  0.0000000E+00;  1.0000000E+04;  0.0000000E+00;  1.0000000E+04;0.0;0.0;0.0;0.0
  2.0400000E+00;  9.9999998E-03; -3.1999999E-01;662;0.0;0.0;0.0;1000.0;  4.0000001E-01;0.0;0;0.0;0.0;0.0;0;0.0;  1.0000000E+04;  0.0000000E+00;  0.0000000E+00;  1.0000000E+04;  0.0000000E+00;  1.0000000E+04;0.0;0.0;0.0;0.0
  2.0400000E+00;  9.9999998E-03; -3.0000001E-01;663;0.0;0.0;0.0;1000.0;  4.0000001E-01;0.0;0;0.0;0.0;0.0;0;0.0;  1.0000000E+04;  0.0000000E+00;  0.0000000E+00;  1.0000000E+04;  0.0000000E+00;  1.0000000E+04;0.0;0.0;0.0;0.0
  2.0400000E+00;  9.9999998E-03; -2.8000000E-01;664;0.0;0.0;0.0;1000.0;  4.0000001E-01;0.0;0;0.0;0.0;0.0;0;0.0;  1.0000000E+04;  0.0000000E+00;  0.0000000E+00;  1.0000000E+04;  0.0000000E+00;  1.0000000E+04;0.0;0.0;0.0;0.0
  2.0400000E+00;  9.9999998E-03; -2.5999999E-01;665;0.0;0.0;0.0;1000.0;  4.0000001E-01;0.0;0;0.0;0.0;0.0;0;0.0;  1.0000000E+04;  0.0000000E+00;  0.0000000E+00;  1.0000000E+04;  0.0000000E+00;  1.0000000E+04;0.0;0.0;0.0;0.0
  2.0400000E+00;  9.9999998E-03; -2.3999999E-01;666;0.0;0.0;0.0;1000.0;  4.0000001E-01;0.0;0;0.0;0.0;0.0;0;0.0;  1.0000000E+04;  0.0000000E+00;  0.0000000E+00;  1.0000000E+04;  0.0000000E+00;  1.0000000E+04;0.0;0.0;0.0;0.0
  2.0400000E+00;  9.9999998E-03; -2.2000000E-01;667;0.0;0.0;0.0;1000.0;  4.0000001E-01;0.0;0;0.0;0.0;0.0;0;0.0;  1.0000000E+04;  0.0000000E+00;  0.0000000E+00;  1.0000000E+04;  0.0000000E+00;  1.0000000E+04;0.0;0.0;0.0;0.0
  2.0400000E+00;  9.9999998E-03; -2.0000000E-01;668;0.0;0.0;0.0;1000.0;  4.0000001E-01;0.0;0;0.0;0.0;0.0;0;0.0;  1.0000000E+04;  0.0000000E+00;  0.0000000E+00;  1.0000000E+04;  0.0000000E+00;  1.0000000E+04;0.0;0.0;0.0;0.0
  2.0400000E+00;  9.9999998E-03; -1.8000001E-01;669;0.0;0.0;0.0;1000.0;  4.0000001E-01;0.0;0;0.0;0.0;0.0;0;0.0;  1.0000000E+04;  0.0000000E+00;  0.0000000E+00;  1.0000000E+04;  0.0000000E+00;  1.0000000E+04;0.0;0.0;0.0;0.0
  2.0400000E+00;  9.9999998E-03; -1.6000000E-01;670;0.0;0.0;0.0;1000.0;  4.0000001E-01;0.0;0;0.0;0.0;0.0;0;0.0;  1.0000000E+04;  0.0000000E+00;  0.0000000E+00;  1.0000000E+04;  0.0000000E+00;  1.0000000E+04;0.0;0.0;0.0;0.0
  2.0400000E+00;  9.9999998E-03; -1.4000000E-01;671;0.0;0.0;0.0;1000.0;  4.0000001E-01;0.0;0;0.0;0.0;0.0;0;0.0;  1.0000000E+04;  0.0000000E+00;  0.0000000E+00;  1.0000000E+04;  0.0000000E+00;  1.0000000E+04;0.0;0.0;0.0;0.0
  2.0400000E+00;  9.9999998E-03; -1.2000000E-01;672;0.0;0.0;0.0;1000.0;  4.0000001E-01;0.0;0;0.0;0.0;0.0;0;0.0;  1.0000000E+04;  0.0000000E+00;  0.0000000E+00;  1.0000000E+04;  0.0000000E+00;  1.0000000E+04;0.0;0.0;0.0;0.0
  2.0400000E+00;  9.9999998E-03; -1.0000000E-01;673;0.0;0.0;0.0;1000.0;  4.0000001E-01;0.0;0;0.0;0.0;0.0;0;0.0;  1.0000000E+04;  0.0000000E+00;  0.0000000E+00;  1.0000000E+04;  0.0000000E+00;  1.0000000E+04;0.0;0.0;0.0;0.0
  2.0400000E+00;  9.9999998E-03; -7.9999998E-02;674;0.0;0.0;0.0;1000.0;  4.0000001E-01;0.0;0;0.0;0.0;0.0;0;0.0;  1.0000000E+04;  0.0000000E+00;  0.0000000E+00;  1.0000000E+04;  0.0000000E+00;  1.0000000E+04;0.0;0.0;0.0;0.0
  2.0400000E+00;  9.9999998E-03; -5.9999999E-02;675;0.0;0.0;0.0;1000.0;  4.0000001E-01;0.0;0;0.0;0.0;0.0;0;0.0;  1.0000000E+04;  0.0000000E+00;  0.0000000E+00;  1.0000000E+04;  0.0000000E+00;  1.0000000E+04;0.0;0.0;0.0;0.0
  2.0400000E+00;  9.9999998E-03; -3.9999999E-02;676;0.0;0.0;0.0;1000.0;  4.0000001E-01;0.0;0;0.0;0.0;0.0;0;0.0;  1.0000000E+04;  0.0000000E+00;  0.0000000E+00;  1.0000000E+04;  0.0000000E+00;  1.0000000E+04;0.0;0.0;0.0;0.0
  2.0400000E+00;  9.9999998E-03; -2.0000000E-02;677;0.0;0.0;0.0;1000.0;  4.0000001E-01;0.0;0;0.0;0.0;0.0;0;0.0;  1.0000000E+04;  0.0000000E+00;  0.0000000E+00;  1.0000000E+04;  0.0000000E+00;  1.0000000E+04;0.0;0.0;0.0;0.0
  2.0400000E+00;  9.9999998E-03;  0.0000000E+00;678;0.0;0.0;0.0;1000.0;  4.0000001E-01;0.0;0;0.0;0.0;0.0;0;0.0;  1.0000000E+04;  0.0000000E+00;  0.0000000E+00;  1.0000000E+04;  0.0000000E+00;  1.0000000E+04;0.0;0.0;0.0;0.0
  2.0400000E+00;  9.9999998E-03;  2.0000000E-02;679;0.0;0.0;0.0;1000.0;  4.0000001E-01;0.0;0;0.0;0.0;0.0;0;0.0;  1.0000000E+04;  0.0000000E+00;  0.0000000E+00;  1.0000000E+04;  0.0000000E+00;  1.0000000E+04;0.0;0.0;0.0;0.0
  2.0400000E+00;  9.9999998E-03;  3.9999999E-02;680;0.0;0.0;0.0;1000.0;  4.0000001E-01;0.0;0;0.0;0.0;0.0;0;0.0;  1.0000000E+04;  0.0000000E+00;  0.0000000E+00;  1.0000000E+04;  0.0000000E+00;  1.0000000E+04;0.0;0.0;0.0;0.0
  2.0400000E+00;  9.9999998E-03;  5.9999999E-02;681;0.0;0.0;0.0;1000.0;  4.0000001E-01;0.0;0;0.0;0.0;0.0;0;0.0;  1.0000000E+04;  0.0000000E+00;  0.0000000E+00;  1.0000000E+04;  0.0000000E+00;  1.0000000E+04;0.0;0.0;0.0;0.0
  2.0400000E+00;  9.9999998E-03;  7.9999998E-02;682;0.0;0.0;0.0;1000.0;  4.0000001E-01;0.0;0;0.0;0.0;0.0;0;0.0;  1.0000000E+04;  0.0000000E+00;  0.0000000E+00;  1.0000000E+04;  0.0000000E+00;  1.0000000E+04;0.0;0.0;0.0;0.0
  2.0400000E+00;  9.9999998E-03;  1.0000000E-01;683;0.0;0.0;0.0;1000.0;  4.0000001E-01;0.0;0;0.0;0.0;0.0;0;0.0;  1.0000000E+04;  0.0000000E+00;  0.0000000E+00;  1.0000000E+04;  0.0000000E+00;  1.0000000E+04;0.0;0.0;0.0;0.0
  2.0400000E+00;  9.9999998E-03;  1.2000000E-01;684;0.0;0.0;0.0;1000.0;  4.0000001E-01;0.0;0;0.0;0.0;0.0;0;0.0;  1.0000000E+04;  0.0000000E+00;  0.0000000E+00;  1.0000000E+04;  0.0000000E+00;  1.0000000E+04;0.0;0.0;0.0;0.0
  2.0400000E+00;  9.9999998E-03;  1.4000000E-01;685;0.0;0.0;0.0;1000.0;  4.0000001E-01;0.0;0;0.0;0.0;0.0;0;0.0;  1.0000000E+04;  0.0000000E+00;  0.0000000E+00;  1.0000000E+04;  0.0000000E+00;  1.0000000E+04;0.0;0.0;0.0;0.0
  2.0400000E+00;  9.9999998E-03;  1.6000000E-01;686;0.0;0.0;0.0;1000.0;  4.0000001E-01;0.0;0;0.0;0.0;0.0;0;0.0;  1.0000000E+04;  0.0000000E+00;  0.0000000E+00;  1.0000000E+04;  0.0000000E+00;  1.0000000E+04;0.0;0.0;0.0;0.0
  2.0400000E+00;  9.9999998E-03;  1.8000001E-01;687;0.0;0.0;0.0;1000.0;  4.0000001E-01;0.0;0;0.0;0.0;0.0;0;0.0;  1.0000000E+04;  0.0000000E+00;  0.0000000E+00;  1.0000000E+04;  0.0000000E+00;  1.0000000E+04;0.0;0.0;0.0;0.0
  2.0400000E+00;  9.9999998E-03;  2.0000000E-01;688;0.0;0.0;0.0;1000.0;  4.0000001E-01;0.0;0;0.0;0.0;0.0;0;0.0;  1.0000000E+04;  0.0000000E+00;  0.0000000E+00;  1.0000000E+04;  0.0000000E+00;  1.0000000E+04;0.0;0.0;0.0;0.0
  2.0400000E+00;  9.9999998E-03;  2.2000000E-01;689;0.0;0.0;0.0;1000.0;  4.0000001E-01;0.0;0;0.0;0.0;0.0;0;0.0;  1.0000000E+04;  0.0000000E+00;  0.0000000E+00;  1.0000000E+04;  0.0000000E+00;  1.0000000E+04;0.0;0.0;0.0;0.0
  2.0400000E+00;  9.9999998E-03;  2.3999999E-01;690;0.0;0.0;0.0;1000.0;  4.0000001E-01;0.0;0;0.0;0.0;0.0;0;0.0;  1.0000000E+04;  0.0000000E+00;  0.0000000E+00;  1.0000000E+04;  0.0000000E+00;  1.0000000E+04;0.0;0.0;0.0;0.0
  2.0400000E+00;  9.9999998E-03;  2.5999999E-01;691;0.0;0.0;0.0;1000.0;  4.0000001E-01;0.0;0;0.0;0.0;0.0;0;0.0;  1.0000000E+04;  0.0000000E+00;  0.0000000E+00;  1.0000000E+04;  0.0000000E+00;  1.0000000E+04;0.0;0.0;0.0;0.0
  2.0400000E+00;  9.9999998E-03;  2.8000000E-01;692;0.0;0.0;0.0;1000.0;  4.0000001E-01;0.0;0;0.0;0.0;0.0;0;0.0;  1.0000000E+04;  0.0000000E+00;  0.0000000E+00;  1.0000000E+04;  0.0000000E+00;  1.0000000E+04;0.0;0.0;0.0;0.0
  2.0599999E+00;  9.9999998E-03; -4.0000001E-01;693;0.0;0.0;0.0;1000.0;  4.0000001E-01;0.0;0;0.0;0.0;0.0;0;0.0;  1.0000000E+04;  0.0000000E+00;  0.0000000E+00;  1.0000000E+04;  0.0000000E+00;  1.0000000E+04;0.0;0.0;0.0;0.0
  2.0599999E+00;  9.9999998E-03; -3.8000000E-01;694;0.0;0.0;0.0;1000.0;  4.0000001E-01;0.0;0;0.0;0.0;0.0;0;0.0;  1.0000000E+04;  0.0000000E+00;  0.0000000E+00;  1.0000000E+04;  0.0000000E+00;  1.0000000E+04;0.0;0.0;0.0;0.0
  2.0599999E+00;  9.9999998E-03; -3.6000001E-01;695;0.0;0.0;0.0;1000.0;  4.0000001E-01;0.0;0;0.0;0.0;0.0;0;0.0;  1.0000000E+04;  0.0000000E+00;  0.0000000E+00;  1.0000000E+04;  0.0000000E+00;  1.0000000E+04;0.0;0.0;0.0;0.0
  2.0599999E+00;  9.9999998E-03; -3.4000000E-01;696;0.0;0.0;0.0;1000.0;  4.0000001E-01;0.0;0;0.0;0.0;0.0;0;0.0;  1.0000000E+04;  0.0000000E+00;  0.0000000E+00;  1.0000000E+04;  0.0000000E+00;  1.0000000E+04;0.0;0.0;0.0;0.0
  2.0599999E+00;  9.9999998E-03; -3.1999999E-01;697;0.0;0.0;0.0;1000.0;  4.0000001E-01;0.0;0;0.0;0.0;0.0;0;0.0;  1.0000000E+04;  0.0000000E+00;  0.0000000E+00;  1.0000000E+04;  0.0000000E+00;  1.0000000E+04;0.0;0.0;0.0;0.0
  2.0599999E+00;  9.9999998E-03; -3.0000001E-01;698;0.0;0.0;0.0;1000.0;  4.0000001E-01;0.0;0;0.0;0.0;0.0;0;0.0;  1.0000000E+04;  0.0000000E+00;  0.0000000E+00;  1.0000000E+04;  0.0000000E+00;  1.0000000E+04;0.0;0.0;0.0;0.0
  2.0599999E+00;  9.9999998E-03; -2.8000000E-01;699;0.0;0.0;0.0;1000.0;  4.0000001E-01;0.0;0;0.0;0.0;0.0;0;0.0;  1.0000000E+04;  0.0000000E+00;  0.0000000E+00;  1.0000000E+04;  0.0000000E+00;  1.0000000E+04;0.0;0.0;0.0;0.0
  2.0599999E+00;  9.9999998E-03; -2.5999999E-01;700;0.0;0.0;0.0;1000.0;  4.0000001E-01;0.0;0;0.0;0.0;0.0;0;0.0;  1.0000000E+04;  0.0000000E+00;  0.0000000E+00;  1.0000000E+04;  0.0000000E+00;  1.0000000E+04;0.0;0.0;0.0;0.0
  2.0599999E+00;  9.9999998E-03; -2.3999999E-01;701;0.0;0.0;0.0;1000.0;  4.0000001E-01;0.0;0;0.0;0.0;0.0;0;0.0;  1.0000000E+04;  0.0000000E+00;  0.0000000E+00;  1.0000000E+04;  0.0000000E+00;  1.0000000E+04;0.0;0.0;0.0;0.0
  2.0599999E+00;  9.9999998E-03; -2.2000000E-01;702;0.0;0.0;0.0;1000.0;  4.0000001E-01;0.0;0;0.0;0.0;0.0;0;0.0;  1.0000000E+04;  0.0000000E+00;  0.0000000E+00;  1.0000000E+04;  0.0000000E+00;  1.0000000E+04;0.0;0.0;0.0;0.0
  2.0599999E+00;  9.9999998E-03; -2.0000000E-01;703;0.0;0.0;0.0;1000.0;  4.0000001E-01;0.0;0;0.0;0.0;0.0;0;0.0;  1.0000000E+04;  0.0000000E+00;  0.0000000E+00;  1.0000000E+04;  0.0000000E+00;  1.0000000E+04;0.0;0.0;0.0;0.0
  2.0599999E+00;  9.9999998E-03; -1.8000001E-01;704;0.0;0.0;0.0;1000.0;  4.0000001E-01;0.0;0;0.0;0.0;0.0;0;0.0;  1.0000000E+04;  0.0000000E+00;  0.0000000E+00;  1.0000000E+04;  0.0000000E+00;  1.0000000E+04;0.0;0.0;0.0;0.0
  2.0599999E+00;  9.9999998E-03; -1.6000000E-01;705;0.0;0.0;0.0;1000.0;  4.0000001E-01;0.0;0;0.0;0.0;0.0;0;0.0;  1.0000000E+04;  0.0000000E+00;  0.0000000E+00;  1.0000000E+04;  0.0000000E+00;  1.0000000E+04;0.0;0.0;0.0;0.0
  2.0599999E+00;  9.9999998E-03; -1.4000000E-01;706;0.0;0.0;0.0;1000.0;  4.0000001E-01;0.0;0;0.0;0.0;0.0;0;0.0;  1.0000000E+04;  0.0000000E+00;  0.0000000E+00;  1.0000000E+04;  0.0000000E+00;  1.0000000E+04;0.0;0.0;0.0;0.0
  2.0599999E+00;  9.9999998E-03; -1.2000000E-01;707;0.0;0.0;0.0;1000.0;  4.0000001E-01;0.0;0;0.0;0.0;0.0;0;0.0;  1.0000000E+04;  0.0000000E+00;  0.0000000E+00;  1.0000000E+04;  0.0000000E+00;  1.0000000E+04;0.0;0.0;0.0;0.0
  2.0599999E+00;  9.9999998E-03; -1.0000000E-01;708;0.0;0.0;0.0;1000.0;  4.0000001E-01;0.0;0;0.0;0.0;0.0;0;0.0;  1.0000000E+04;  0.0000000E+00;  0.0000000E+00;  1.0000000E+04;  0.0000000E+00;  1.0000000E+04;0.0;0.0;0.0;0.0
  2.0599999E+00;  9.9999998E-03; -7.9999998E-02;709;0.0;0.0;0.0;1000.0;  4.0000001E-01;0.0;0;0.0;0.0;0.0;0;0.0;  1.0000000E+04;  0.0000000E+00;  0.0000000E+00;  1.0000000E+04;  0.0000000E+00;  1.0000000E+04;0.0;0.0;0.0;0.0
  2.0599999E+00;  9.9999998E-03; -5.9999999E-02;710;0.0;0.0;0.0;1000.0;  4.0000001E-01;0.0;0;0.0;0.0;0.0;0;0.0;  1.0000000E+04;  0.0000000E+00;  0.0000000E+00;  1.0000000E+04;  0.0000000E+00;  1.0000000E+04;0.0;0.0;0.0;0.0
  2.0599999E+00;  9.9999998E-03; -3.9999999E-02;711;0.0;0.0;0.0;1000.0;  4.0000001E-01;0.0;0;0.0;0.0;0.0;0;0.0;  1.0000000E+04;  0.0000000E+00;  0.0000000E+00;  1.0000000E+04;  0.0000000E+00;  1.0000000E+04;0.0;0.0;0.0;0.0
  2.0599999E+00;  9.9999998E-03; -2.0000000E-02;712;0.0;0.0;0.0;1000.0;  4.0000001E-01;0.0;0;0.0;0.0;0.0;0;0.0;  1.0000000E+04;  0.0000000E+00;  0.0000000E+00;  1.0000000E+04;  0.0000000E+00;  1.0000000E+04;0.0;0.0;0.0;0.0
  2.0599999E+00;  9.9999998E-03;  0.0000000E+00;713;0.0;0.0;0.0;1000.0;  4.0000001E-01;0.0;0;0.0;0.0;0.0;0;0.0;  1.0000000E+04;  0.0000000E+00;  0.0000000E+00;  1.0000000E+04;  0.0000000E+00;  1.0000000E+04;0.0;0.0;0.0;0.0
  2.0599999E+00;  9.9999998E-03;  2.0000000E-02;714;0.0;0.0;0.0;1000.0;  4.0000001E-01;0.0;0;0.0;0.0;0.0;0;0.0;  1.0000000E+04;  0.0000000E+00;  0.0000000E+00;  1.0000000E+04;  0.0000000E+00;  1.0000000E+04;0.0;0.0;0.0;0.0
  2.0599999E+00;  9.9999998E-03;  3.9999999E-02;715;0.0;0.0;0.0;1000.0;  4.0000001E-01;0.0;0;0.0;0.0;0.0;0;0.0;  1.0000000E+04;  0.0000000E+00;  0.0000000E+00;  1.0000000E+04;  0.0000000E+00;  1.0000000E+04;0.0;0.0;0.0;0.0
  2.0599999E+00;  9.9999998E-03;  5.9999999E-02;716;0.0;0.0;0.0;1000.0;  4.0000001E-01;0.0;0;0.0;0.0;0.0;0;0.0;  1.0000000E+04;  0.0000000E+00;  0.0000000E+00;  1.0000000E+04;  0.0000000E+00;  1.0000000E+04;0.0;0.0;0.0;0.0
  2.0599999E+00;  9.9999998E-03;  7.9999998E-02;717;0.0;0.0;0.0;1000.0;  4.0000001E-01;0.0;0;0.0;0.0;0.0;0;0.0;  1.0000000E+04;  0.0000000E+00;  0.0000000E+00;  1.0000000E+04;  0.0000000E+00;  1.0000000E+04;0.0;0.0;0.0;0.0
  2.0599999E+00;  9.9999998E-03;  1.0000000E-01;718;0.0;0.0;0.0;1000.0;  4.0000001E-01;0.0;0;0.0;0.0;0.0;0;0.0;  1.0000000E+04;  0.0000000E+00;  0.0000000E+00;  1.0000000E+04;  0.0000000E+00;  1.0000000E+04;0.0;0.0;0.0;0.0
  2.0599999E+00;  9.9999998E-03;  1.2000000E-01;719;0.0;0.0;0.0;1000.0;  4.0000001E-01;0.0;0;0.0;0.0;0.0;0;0.0;  1.0000000E+04;  0.0000000E+00;  0.0000000E+00;  1.0000000E+04;  0.0000000E+00;  1.0000000E+04;0.0;0.0;0.0;0.0
  2.0599999E+00;  9.9999998E-03;  1.4000000E-01;720;0.0;0.0;0.0;1000.0;  4.0000001E-01;0.0;0;0.0;0.0;0.0;0;0.0;  1.0000000E+04;  0.0000000E+00;  0.0000000E+00;  1.0000000E+04;  0.0000000E+00;  1.0000000E+04;0.0;0.0;0.0;0.0
  2.0599999E+00;  9.9999998E-03;  1.6000000E-01;721;0.0;0.0;0.0;1000.0;  4.0000001E-01;0.0;0;0.0;0.0;0.0;0;0.0;  1.0000000E+04;  0.0000000E+00;  0.0000000E+00;  1.0000000E+04;  0.0000000E+00;  1.0000000E+04;0.0;0.0;0.0;0.0
  2.0599999E+00;  9.9999998E-03;  1.8000001E-01;722;0.0;0.0;0.0;1000.0;  4.0000001E-01;0.0;0;0.0;0.0;0.0;0;0.0;  1.0000000E+04;  0.0000000E+00;  0.0000000E+00;  1.0000000E+04;  0.0000000E+00;  1.0000000E+04;0.0;0.0;0.0;0.0
  2.0599999E+00;  9.9999998E-03;  2.0000000E-01;723;0.0;0.0;0.0;1000.0;  4.0000001E-01;0.0;0;0.0;0.0;0.0;0;0.0;  1.0000000E+04;  0.0000000E+00;  0.0000000E+00;  1.0000000E+04;  0.0000000E+00;  1.0000000E+04;0.0;0.0;0.0;0.0
  2.0599999E+00;  9.9999998E-03;  2.2000000E-01;724;0.0;0.0;0.0;1000.0;  4.0000001E-01;0.0;0;0.0;0.0;0.0;0;0.0;  1.0000000E+04;  0.0000000E+00;  0.0000000E+00;  1.0000000E+04;  0.0000000E+00;  1.0000000E+04;0.0;0.0;0.0;0.0
  2.0599999E+00;  9.9999998E-03;  2.3999999E-01;725;0.0;0.0;0.0;1000.0;  4.0000001E-01;0.0;0;0.0;0.0;0.0;0;0.0;  1.0000000E+04;  0.0000000E+00;  0.0000000E+00;  1.0000000E+04;  0.0000000E+00;  1.0000000E+04;0.0;0.0;0.0;0.0
  2.0599999E+00;  9.9999998E-03;  2.5999999E-01;726;0.0;0.0;0.0;1000.0;  4.0000001E-01;0.0;0;0.0;0.0;0.0;0;0.0;  1.0000000E+04;  0.0000000E+00;  0.0000000E+00;  1.0000000E+04;  0.0000000E+00;  1.0000000E+04;0.0;0.0;0.0;0.0
  2.0599999E+00;  9.9999998E-03;  2.8000000E-01;727;0.0;0.0;0.0;1000.0;  4.0000001E-01;0.0;0;0.0;0.0;0.0;0;0.0;  1.0000000E+04;  0.0000000E+00;  0.0000000E+00;  1.0000000E+04;  0.0000000E+00;  1.0000000E+04;0.0;0.0;0.0;0.0
  2.0599999E+00;  9.9999998E-03;  3.0000001E-01;728;0.0;0.0;0.0;1000.0;  4.0000001E-01;0.0;0;0.0;0.0;0.0;0;0.0;  1.0000000E+04;  0.0000000E+00;  0.0000000E+00;  1.0000000E+04;  0.0000000E+00;  1.0000000E+04;0.0;0.0;0.0;0.0
  2.0599999E+00;  9.9999998E-03;  3.1999999E-01;729;0.0;0.0;0.0;1000.0;  4.0000001E-01;0.0;0;0.0;0.0;0.0;0;0.0;  1.0000000E+04;  0.0000000E+00;  0.0000000E+00;  1.0000000E+04;  0.0000000E+00;  1.0000000E+04;0.0;0.0;0.0;0.0
  2.0599999E+00;  9.9999998E-03;  3.4000000E-01;730;0.0;0.0;0.0;1000.0;  4.0000001E-01;0.0;0;0.0;0.0;0.0;0;0.0;  1.0000000E+04;  0.0000000E+00;  0.0000000E+00;  1.0000000E+04;  0.0000000E+00;  1.0000000E+04;0.0;0.0;0.0;0.0
  2.0599999E+00;  9.9999998E-03;  3.6000001E-01;731;0.0;0.0;0.0;1000.0;  4.0000001E-01;0.0;0;0.0;0.0;0.0;0;0.0;  1.0000000E+04;  0.0000000E+00;  0.0000000E+00;  1.0000000E+04;  0.0000000E+00;  1.0000000E+04;0.0;0.0;0.0;0.0
  2.0599999E+00;  9.9999998E-03;  3.8000000E-01;732;0.0;0.0;0.0;1000.0;  4.0000001E-01;0.0;0;0.0;0.0;0.0;0;0.0;  1.0000000E+04;  0.0000000E+00;  0.0000000E+00;  1.0000000E+04;  0.0000000E+00;  1.0000000E+04;0.0;0.0;0.0;0.0
  2.0799999E+00;  9.9999998E-03; -4.0000001E-01;733;0.0;0.0;0.0;1000.0;  4.0000001E-01;0.0;0;0.0;0.0;0.0;0;0.0;  1.0000000E+04;  0.0000000E+00;  0.0000000E+00;  1.0000000E+04;  0.0000000E+00;  1.0000000E+04;0.0;0.0;0.0;0.0
  2.0799999E+00;  9.9999998E-03; -3.8000000E-01;734;0.0;0.0;0.0;1000.0;  4.0000001E-01;0.0;0;0.0;0.0;0.0;0;0.0;  1.0000000E+04;  0.0000000E+00;  0.0000000E+00;  1.0000000E+04;  0.0000000E+00;  1.0000000E+04;0.0;0.0;0.0;0.0
  2.0799999E+00;  9.9999998E-03; -3.6000001E-01;735;0.0;0.0;0.0;1000.0;  4.0000001E-01;0.0;0;0.0;0.0;0.0;0;0.0;  1.0000000E+04;  0.0000000E+00;  0.0000000E+00;  1.0000000E+04;  0.0000000E+00;  1.0000000E+04;0.0;0.0;0.0;0.0
  2.0799999E+00;  9.9999998E-03; -3.4000000E-01;736;0.0;0.0;0.0;1000.0;  4.0000001E-01;0.0;0;0.0;0.0;0.0;0;0.0;  1.0000000E+04;  0.0000000E+00;  0.0000000E+00;  1.0000000E+04;  0.0000000E+00;  1.0000000E+04;0.0;0.0;0.0;0.0
  2.0799999E+00;  9.9999998E-03; -3.1999999E-01;737;0.0;0.0;0.0;1000.0;  4.0000001E-01;0.0;0;0.0;0.0;0.0;0;0.0;  1.0000000E+04;  0.0000000E+00;  0.0000000E+00;  1.0000000E+04;  0.0000000E+00;  1.0000000E+04;0.0;0.0;0.0;0.0
  2.0799999E+00;  9.9999998E-03; -3.0000001E-01;738;0.0;0.0;0.0;1000.0;  4.0000001E-01;0.0;0;0.0;0.0;0.0;0;0.0;  1.0000000E+04;  0.0000000E+00;  0.0000000E+00;  1.0000000E+04;  0.0000000E+00;  1.0000000E+04;0.0;0.0;0.0;0.0
  2.0799999E+00;  9.9999998E-03; -2.8000000E-01;739;0.0;0.0;0.0;1000.0;  4.0000001E-01;0.0;0;0.0;0.0;0.0;0;0.0;  1.0000000E+04;  0.0000000E+00;  0.0000000E+00;  1.0000000E+04;  0.0000000E+00;  1.0000000E+04;0.0;0.0;0.0;0.0
  2.0799999E+00;  9.9999998E-03; -2.5999999E-01;740;0.0;0.0;0.0;1000.0;  4.0000001E-01;0.0;0;0.0;0.0;0.0;0;0.0;  1.0000000E+04;  0.0000000E+00;  0.0000000E+00;  1.0000000E+04;  0.0000000E+00;  1.0000000E+04;0.0;0.0;0.0;0.0
  2.0799999E+00;  9.9999998E-03; -2.3999999E-01;741;0.0;0.0;0.0;1000.0;  4.0000001E-01;0.0;0;0.0;0.0;0.0;0;0.0;  1.0000000E+04;  0.0000000E+00;  0.0000000E+00;  1.0000000E+04;  0.0000000E+00;  1.0000000E+04;0.0;0.0;0.0;0.0
  2.0799999E+00;  9.9999998E-03; -2.2000000E-01;742;0.0;0.0;0.0;1000.0;  4.0000001E-01;0.0;0;0.0;0.0;0.0;0;0.0;  1.0000000E+04;  0.0000000E+00;  0.0000000E+00;  1.0000000E+04;  0.0000000E+00;  1.0000000E+04;0.0;0.0;0.0;0.0
  2.0799999E+00;  9.9999998E-03; -2.0000000E-01;743;0.0;0.0;0.0;1000.0;  4.0000001E-01;0.0;0;0.0;0.0;0.0;0;0.0;  1.0000000E+04;  0.0000000E+00;  0.0000000E+00;  1.0000000E+04;  0.0000000E+00;  1.0000000E+04;0.0;0.0;0.0;0.0
  2.0799999E+00;  9.9999998E-03; -1.8000001E-01;744;0.0;0.0;0.0;1000.0;  4.0000001E-01;0.0;0;0.0;0.0;0.0;0;0.0;  1.0000000E+04;  0.0000000E+00;  0.0000000E+00;  1.0000000E+04;  0.0000000E+00;  1.0000000E+04;0.0;0.0;0.0;0.0
  2.0799999E+00;  9.9999998E-03; -1.6000000E-01;745;0.0;0.0;0.0;1000.0;  4.0000001E-01;0.0;0;0.0;0.0;0.0;0;0.0;  1.0000000E+04;  0.0000000E+00;  0.0000000E+00;  1.0000000E+04;  0.0000000E+00;  1.0000000E+04;0.0;0.0;0.0;0.0
  2.0799999E+00;  9.9999998E-03; -1.4000000E-01;746;0.0;0.0;0.0;1000.0;  4.0000001E-01;0.0;0;0.0;0.0;0.0;0;0.0;  1.0000000E+04;  0.0000000E+00;  0.0000000E+00;  1.0000000E+04;  0.0000000E+00;  1.0000000E+04;0.0;0.0;0.0;0.0
  2.0799999E+00;  9.9999998E-03; -1.2000000E-01;747;0.0;0.0;0.0;1000.0;  4.0000001E-01;0.0;0;0.0;0.0;0.0;0;0.0;  1.0000000E+04;  0.0000000E+00;  0.0000000E+00;  1.0000000E+04;  0.0000000E+00;  1.0000000E+04;0.0;0.0;0.0;0.0
  2.0799999E+00;  9.9999998E-03; -1.0000000E-01;748;0.0;0.0;0.0;1000.0;  4.0000001E-01;0.0;0;0.0;0.0;0.0;0;0.0;  1.0000000E+04;  0.0000000E+00;  0.0000000E+00;  1.0000000E+04;  0.0000000E+00;  1.0000000E+04;0.0;0.0;0.0;0.0
  2.0799999E+00;  9.9999998E-03; -7.9999998E-02;749;0.0;0.0;0.0;1000.0;  4.0000001E-01;0.0;0;0.0;0.0;0.0;0;0.0;  1.0000000E+04;  0.0000000E+00;  0.0000000E+00;  1.0000000E+04;  0.0000000E+00;  1.0000000E+04;0.0;0.0;0.0;0.0
  2.0799999E+00;  9.9999998E-03; -5.9999999E-02;750;0.0;0.0;0.0;1000.0;  4.0000001E-01;0.0;0;0.0;0.0;0.0;0;0.0;  1.0000000E+04;  0.0000000E+00;  0.0000000E+00;  1.0000000E+04;  0.0000000E+00;  1.0000000E+04;0.0;0.0;0.0;0.0
  2.0799999E+00;  9.9999998E-03; -3.9999999E-02;751;0.0;0.0;0.0;1000.0;  4.0000001E-01;0.0;0;0.0;0.0;0.0;0;0.0;  1.0000000E+04;  0.0000000E+00;  0.0000000E+00;  1.0000000E+04;  0.0000000E+00;  1.0000000E+04;0.0;0.0;0.0;0.0
  2.0799999E+00;  9.9999998E-03; -2.0000000E-02;752;0.0;0.0;0.0;1000.0;  4.0000001E-01;0.0;0;0.0;0.0;0.0;0;0.0;  1.0000000E+04;  0.0000000E+00;  0.0000000E+00;  1.0000000E+04;  0.0000000E+00;  1.0000000E+04;0.0;0.0;0.0;0.0
  2.0799999E+00;  9.9999998E-03;  0.0000000E+00;753;0.0;0.0;0.0;1000.0;  4.0000001E-01;0.0;0;0.0;0.0;0.0;0;0.0;  1.0000000E+04;  0.0000000E+00;  0.0000000E+00;  1.0000000E+04;  0.0000000E+00;  1.0000000E+04;0.0;0.0;0.0;0.0
  2.0799999E+00;  9.9999998E-03;  2.0000000E-02;754;0.0;0.0;0.0;1000.0;  4.0000001E-01;0.0;0;0.0;0.0;0.0;0;0.0;  1.0000000E+04;  0.0000000E+00;  0.0000000E+00;  1.0000000E+04;  0.0000000E+00;  1.0000000E+04;0.0;0.0;0.0;0.0
  2.0799999E+00;  9.9999998E-03;  3.9999999E-02;755;0.0;0.0;0.0;1000.0;  4.0000001E-01;0.0;0;0.0;0.0;0.0;0;0.0;  1.0000000E+04;  0.0000000E+00;  0.0000000E+00;  1.0000000E+04;  0.0000000E+00;  1.0000000E+04;0.0;0.0;0.0;0.0
  2.0799999E+00;  9.9999998E-03;  5.9999999E-02;756;0.0;0.0;0.0;1000.0;  4.0000001E-01;0.0;0;0.0;0.0;0.0;0;0.0;  1.0000000E+04;  0.0000000E+00;  0.0000000E+00;  1.0000000E+04;  0.0000000E+00;  1.0000000E+04;0.0;0.0;0.0;0.0
  2.0799999E+00;  9.9999998E-03;  7.9999998E-02;757;0.0;0.0;0.0;1000.0;  4.0000001E-01;0.0;0;0.0;0.0;0.0;0;0.0;  1.0000000E+04;  0.0000000E+00;  0.0000000E+00;  1.0000000E+04;  0.0000000E+00;  1.0000000E+04;0.0;0.0;0.0;0.0
  2.0799999E+00;  9.9999998E-03;  1.0000000E-01;758;0.0;0.0;0.0;1000.0;  4.0000001E-01;0.0;0;0.0;0.0;0.0;0;0.0;  1.0000000E+04;  0.0000000E+00;  0.0000000E+00;  1.0000000E+04;  0.0000000E+00;  1.0000000E+04;0.0;0.0;0.0;0.0
  2.0799999E+00;  9.9999998E-03;  1.2000000E-01;759;0.0;0.0;0.0;1000.0;  4.0000001E-01;0.0;0;0.0;0.0;0.0;0;0.0;  1.0000000E+04;  0.0000000E+00;  0.0000000E+00;  1.0000000E+04;  0.0000000E+00;  1.0000000E+04;0.0;0.0;0.0;0.0
  2.0799999E+00;  9.9999998E-03;  1.4000000E-01;760;0.0;0.0;0.0;1000.0;  4.0000001E-01;0.0;0;0.0;0.0;0.0;0;0.0;  1.0000000E+04;  0.0000000E+00;  0.0000000E+00;  1.0000000E+04;  0.0000000E+00;  1.0000000E+04;0.0;0.0;0.0;0.0
  2.0799999E+00;  9.9999998E-03;  1.6000000E-01;761;0.0;0.0;0.0;1000.0;  4.0000001E-01;0.0;0;0.0;0.0;0.0;0;0.0;  1.0000000E+04;  0.0000000E+00;  0.0000000E+00;  1.0000000E+04;  0.0000000E+00;  1.0000000E+04;0.0;0.0;0.0;0.0
  2.0799999E+00;  9.9999998E-03;  1.8000001E-01;762;0.0;0.0;0.0;1000.0;  4.0000001E-01;0.0;0;0.0;0.0;0.0;0;0.0;  1.0000000E+04;  0.0000000E+00;  0.0000000E+00;  1.0000000E+04;  0.0000000E+00;  1.0000000E+04;0.0;0.0;0.0;0.0
  2.0799999E+00;  9.9999998E-03;  2.0000000E-01;763;0.0;0.0;0.0;1000.0;  4.0000001E-01;0.0;0;0.0;0.0;0.0;0;0.0;  1.0000000E+04;  0.0000000E+00;  0.0000000E+00;  1.0000000E+04;  0.0000000E+00;  1.0000000E+04;0.0;0.0;0.0;0.0
  2.0799999E+00;  9.9999998E-03;  2.2000000E-01;764;0.0;0.0;0.0;1000.0;  4.0000001E-01;0.0;0;0.0;0.0;0.0;0;0.0;  1.0000000E+04;  0.0000000E+00;  0.0000000E+00;  1.0000000E+04;  0.0000000E+00;  1.0000000E+04;0.0;0.0;0.0;0.0
  2.0799999E+00;  9.9999998E-03;  2.3999999E-01;765;0.0;0.0;0.0;1000.0;  4.0000001E-01;0.0;0;0.0;0.0;0.0;0;0.0;  1.0000000E+04;  0.0000000E+00;  0.0000000E+00;  1.0000000E+04;  0.0000000E+00;  1.0000000E+04;0.0;0.0;0.0;0.0
  2.0799999E+00;  9.9999998E-03;  2.5999999E-01;766;0.0;0.0;0.0;1000.0;  4.0000001E-01;0.0;0;0.0;0.0;0.0;0;0.0;  1.0000000E+04;  0.0000000E+00;  0.0000000E+00;  1.0000000E+04;  0.0000000E+00;  1.0000000E+04;0.0;0.0;0.0;0.0
  2.0799999E+00;  9.9999998E-03;  2.8000000E-01;767;0.0;0.0;0.0;1000.0;  4.0000001E-01;0.0;0;0.0;0.0;0.0;0;0.0;  1.0000000E+04;  0.0000000E+00;  0.0000000E+00;  1.0000000E+04;  0.0000000E+00;  1.0000000E+04;0.0;0.0;0.0;0.0
  2.0799999E+00;  9.9999998E-03;  3.0000001E-01;768;0.0;0.0;0.0;1000.0;  4.0000001E-01;0.0;0;0.0;0.0;0.0;0;0.0;  1.0000000E+04;  0.0000000E+00;  0.0000000E+00;  1.0000000E+04;  0.0000000E+00;  1.0000000E+04;0.0;0.0;0.0;0.0
  2.0799999E+00;  9.9999998E-03;  3.1999999E-01;769;0.0;0.0;0.0;1000.0;  4.0000001E-01;0.0;0;0.0;0.0;0.0;0;0.0;  1.0000000E+04;  0.0000000E+00;  0.0000000E+00;  1.0000000E+04;  0.0000000E+00;  1.0000000E+04;0.0;0.0;0.0;0.0
  2.0799999E+00;  9.9999998E-03;  3.4000000E-01;770;0.0;0.0;0.0;1000.0;  4.0000001E-01;0.0;0;0.0;0.0;0.0;0;0.0;  1.0000000E+04;  0.0000000E+00;  0.0000000E+00;  1.0000000E+04;  0.0000000E+00;  1.0000000E+04;0.0;0.0;0.0;0.0
  2.0799999E+00;  9.9999998E-03;  3.6000001E-01;771;0.0;0.0;0.0;1000.0;  4.0000001E-01;0.0;0;0.0;0.0;0.0;0;0.0;  1.0000000E+04;  0.0000000E+00;  0.0000000E+00;  1.0000000E+04;  0.0000000E+00;  1.0000000E+04;0.0;0.0;0.0;0.0
  2.0799999E+00;  9.9999998E-03;  3.8000000E-01;772;0.0;0.0;0.0;1000.0;  4.0000001E-01;0.0;0;0.0;0.0;0.0;0;0.0;  1.0000000E+04;  0.0000000E+00;  0.0000000E+00;  1.0000000E+04;  0.0000000E+00;  1.0000000E+04;0.0;0.0;0.0;0.0
  2.0799999E+00;  9.9999998E-03;  4.0000001E-01;773;0.0;0.0;0.0;1000.0;  4.0000001E-01;0.0;0;0.0;0.0;0.0;0;0.0;  1.0000000E+04;  0.0000000E+00;  0.0000000E+00;  1.0000000E+04;  0.0000000E+00;  1.0000000E+04;0.0;0.0;0.0;0.0
  2.0999999E+00;  9.9999998E-03; -4.0000001E-01;774;0.0;0.0;0.0;1000.0;  4.0000001E-01;0.0;0;0.0;0.0;0.0;0;0.0;  1.0000000E+04;  0.0000000E+00;  0.0000000E+00;  1.0000000E+04;  0.0000000E+00;  1.0000000E+04;0.0;0.0;0.0;0.0
  2.0999999E+00;  9.9999998E-03; -3.8000000E-01;775;0.0;0.0;0.0;1000.0;  4.0000001E-01;0.0;0;0.0;0.0;0.0;0;0.0;  1.0000000E+04;  0.0000000E+00;  0.0000000E+00;  1.0000000E+04;  0.0000000E+00;  1.0000000E+04;0.0;0.0;0.0;0.0
  2.0999999E+00;  9.9999998E-03; -3.6000001E-01;776;0.0;0.0;0.0;1000.0;  4.0000001E-01;0.0;0;0.0;0.0;0.0;0;0.0;  1.0000000E+04;  0.0000000E+00;  0.0000000E+00;  1.0000000E+04;  0.0000000E+00;  1.0000000E+04;0.0;0.0;0.0;0.0
  2.0999999E+00;  9.9999998E-03; -3.4000000E-01;777;0.0;0.0;0.0;1000.0;  4.0000001E-01;0.0;0;0.0;0.0;0.0;0;0.0;  1.0000000E+04;  0.0000000E+00;  0.0000000E+00;  1.0000000E+04;  0.0000000E+00;  1.0000000E+04;0.0;0.0;0.0;0.0
  2.0999999E+00;  9.9999998E-03; -3.1999999E-01;778;0.0;0.0;0.0;1000.0;  4.0000001E-01;0.0;0;0.0;0.0;0.0;0;0.0;  1.0000000E+04;  0.0000000E+00;  0.0000000E+00;  1.0000000E+04;  0.0000000E+00;  1.0000000E+04;0.0;0.0;0.0;0.0
  2.0999999E+00;  9.9999998E-03; -3.0000001E-01;779;0.0;0.0;0.0;1000.0;  4.0000001E-01;0.0;0;0.0;0.0;0.0;0;0.0;  1.0000000E+04;  0.0000000E+00;  0.0000000E+00;  1.0000000E+04;  0.0000000E+00;  1.0000000E+04;0.0;0.0;0.0;0.0
  2.0999999E+00;  9.9999998E-03; -2.8000000E-01;780;0.0;0.0;0.0;1000.0;  4.0000001E-01;0.0;0;0.0;0.0;0.0;0;0.0;  1.0000000E+04;  0.0000000E+00;  0.0000000E+00;  1.0000000E+04;  0.0000000E+00;  1.0000000E+04;0.0;0.0;0.0;0.0
  2.0999999E+00;  9.9999998E-03; -2.5999999E-01;781;0.0;0.0;0.0;1000.0;  4.0000001E-01;0.0;0;0.0;0.0;0.0;0;0.0;  1.0000000E+04;  0.0000000E+00;  0.0000000E+00;  1.0000000E+04;  0.0000000E+00;  1.0000000E+04;0.0;0.0;0.0;0.0
  2.0999999E+00;  9.9999998E-03; -2.3999999E-01;782;0.0;0.0;0.0;1000.0;  4.0000001E-01;0.0;0;0.0;0.0;0.0;0;0.0;  1.0000000E+04;  0.0000000E+00;  0.0000000E+00;  1.0000000E+04;  0.0000000E+00;  1.0000000E+04;0.0;0.0;0.0;0.0
  2.0999999E+00;  9.9999998E-03; -2.2000000E-01;783;0.0;0.0;0.0;1000.0;  4.0000001E-01;0.0;0;0.0;0.0;0.0;0;0.0;  1.0000000E+04;  0.0000000E+00;  0.0000000E+00;  1.0000000E+04;  0.0000000E+00;  1.0000000E+04;0.0;0.0;0.0;0.0
  2.0999999E+00;  9.9999998E-03; -2.0000000E-01;784;0.0;0.0;0.0;1000.0;  4.0000001E-01;0.0;0;0.0;0.0;0.0;0;0.0;  1.0000000E+04;  0.0000000E+00;  0.0000000E+00;  1.0000000E+04;  0.0000000E+00;  1.0000000E+04;0.0;0.0;0.0;0.0
  2.0999999E+00;  9.9999998E-03; -1.8000001E-01;785;0.0;0.0;0.0;1000.0;  4.0000001E-01;0.0;0;0.0;0.0;0.0;0;0.0;  1.0000000E+04;  0.0000000E+00;  0.0000000E+00;  1.0000000E+04;  0.0000000E+00;  1.0000000E+04;0.0;0.0;0.0;0.0
  2.0999999E+00;  9.9999998E-03; -1.6000000E-01;786;0.0;0.0;0.0;1000.0;  4.0000001E-01;0.0;0;0.0;0.0;0.0;0;0.0;  1.0000000E+04;  0.0000000E+00;  0.0000000E+00;  1.0000000E+04;  0.0000000E+00;  1.0000000E+04;0.0;0.0;0.0;0.0
  2.0999999E+00;  9.9999998E-03; -1.4000000E-01;787;0.0;0.0;0.0;1000.0;  4.0000001E-01;0.0;0;0.0;0.0;0.0;0;0.0;  1.0000000E+04;  0.0000000E+00;  0.0000000E+00;  1.0000000E+04;  0.0000000E+00;  1.0000000E+04;0.0;0.0;0.0;0.0
  2.0999999E+00;  9.9999998E-03; -1.2000000E-01;788;0.0;0.0;0.0;1000.0;  4.0000001E-01;0.0;0;0.0;0.0;0.0;0;0.0;  1.0000000E+04;  0.0000000E+00;  0.0000000E+00;  1.0000000E+04;  0.0000000E+00;  1.0000000E+04;0.0;0.0;0.0;0.0
  2.0999999E+00;  9.9999998E-03; -1.0000000E-01;789;0.0;0.0;0.0;1000.0;  4.0000001E-01;0.0;0;0.0;0.0;0.0;0;0.0;  1.0000000E+04;  0.0000000E+00;  0.0000000E+00;  1.0000000E+04;  0.0000000E+00;  1.0000000E+04;0.0;0.0;0.0;0.0
  2.0999999E+00;  9.9999998E-03; -7.9999998E-02;790;0.0;0.0;0.0;1000.0;  4.0000001E-01;0.0;0;0.0;0.0;0.0;0;0.0;  1.0000000E+04;  0.0000000E+00;  0.0000000E+00;  1.0000000E+04;  0.0000000E+00;  1.0000000E+04;0.0;0.0;0.0;0.0
  2.0999999E+00;  9.9999998E-03; -5.9999999E-02;791;0.0;0.0;0.0;1000.0;  4.0000001E-01;0.0;0;0.0;0.0;0.0;0;0.0;  1.0000000E+04;  0.0000000E+00;  0.0000000E+00;  1.0000000E+04;  0.0000000E+00;  1.0000000E+04;0.0;0.0;0.0;0.0
  2.0999999E+00;  9.9999998E-03; -3.9999999E-02;792;0.0;0.0;0.0;1000.0;  4.0000001E-01;0.0;0;0.0;0.0;0.0;0;0.0;  1.0000000E+04;  0.0000000E+00;  0.0000000E+00;  1.0000000E+04;  0.0000000E+00;  1.0000000E+04;0.0;0.0;0.0;0.0
  2.0999999E+00;  9.9999998E-03; -2.0000000E-02;793;0.0;0.0;0.0;1000.0;  4.0000001E-01;0.0;0;0.0;0.0;0.0;0;0.0;  1.0000000E+04;  0.0000000E+00;  0.0000000E+00;  1.0000000E+04;  0.0000000E+00;  1.0000000E+04;0.0;0.0;0.0;0.0
  2.0999999E+00;  9.9999998E-03;  0.0000000E+00;794;0.0;0.0;0.0;1000.0;  4.0000001E-01;0.0;0;0.0;0.0;0.0;0;0.0;  1.0000000E+04;  0.0000000E+00;  0.0000000E+00;  1.0000000E+04;  0.0000000E+00;  1.0000000E+04;0.0;0.0;0.0;0.0
  2.0999999E+00;  9.9999998E-03;  2.0000000E-02;795;0.0;0.0;0.0;1000.0;  4.0000001E-01;0.0;0;0.0;0.0;0.0;0;0.0;  1.0000000E+04;  0.0000000E+00;  0.0000000E+00;  1.0000000E+04;  0.0000000E+00;  1.0000000E+04;0.0;0.0;0.0;0.0
  2.0999999E+00;  9.9999998E-03;  3.9999999E-02;796;0.0;0.0;0.0;1000.0;  4.0000001E-01;0.0;0;0.0;0.0;0.0;0;0.0;  1.0000000E+04;  0.0000000E+00;  0.0000000E+00;  1.0000000E+04;  0.0000000E+00;  1.0000000E+04;0.0;0.0;0.0;0.0
  2.0999999E+00;  9.9999998E-03;  5.9999999E-02;797;0.0;0.0;0.0;1000.0;  4.0000001E-01;0.0;0;0.0;0.0;0.0;0;0.0;  1.0000000E+04;  0.0000000E+00;  0.0000000E+00;  1.0000000E+04;  0.0000000E+00;  1.0000000E+04;0.0;0.0;0.0;0.0
  2.0999999E+00;  9.9999998E-03;  7.9999998E-02;798;0.0;0.0;0.0;1000.0;  4.0000001E-01;0.0;0;0.0;0.0;0.0;0;0.0;  1.0000000E+04;  0.0000000E+00;  0.0000000E+00;  1.0000000E+04;  0.0000000E+00;  1.0000000E+04;0.0;0.0;0.0;0.0
  2.0999999E+00;  9.9999998E-03;  1.0000000E-01;799;0.0;0.0;0.0;1000.0;  4.0000001E-01;0.0;0;0.0;0.0;0.0;0;0.0;  1.0000000E+04;  0.0000000E+00;  0.0000000E+00;  1.0000000E+04;  0.0000000E+00;  1.0000000E+04;0.0;0.0;0.0;0.0
  2.0999999E+00;  9.9999998E-03;  1.2000000E-01;800;0.0;0.0;0.0;1000.0;  4.0000001E-01;0.0;0;0.0;0.0;0.0;0;0.0;  1.0000000E+04;  0.0000000E+00;  0.0000000E+00;  1.0000000E+04;  0.0000000E+00;  1.0000000E+04;0.0;0.0;0.0;0.0
  2.0999999E+00;  9.9999998E-03;  1.4000000E-01;801;0.0;0.0;0.0;1000.0;  4.0000001E-01;0.0;0;0.0;0.0;0.0;0;0.0;  1.0000000E+04;  0.0000000E+00;  0.0000000E+00;  1.0000000E+04;  0.0000000E+00;  1.0000000E+04;0.0;0.0;0.0;0.0
  2.0999999E+00;  9.9999998E-03;  1.6000000E-01;802;0.0;0.0;0.0;1000.0;  4.0000001E-01;0.0;0;0.0;0.0;0.0;0;0.0;  1.0000000E+04;  0.0000000E+00;  0.0000000E+00;  1.0000000E+04;  0.0000000E+00;  1.0000000E+04;0.0;0.0;0.0;0.0
  2.0999999E+00;  9.9999998E-03;  1.8000001E-01;803;0.0;0.0;0.0;1000.0;  4.0000001E-01;0.0;0;0.0;0.0;0.0;0;0.0;  1.0000000E+04;  0.0000000E+00;  0.0000000E+00;  1.0000000E+04;  0.0000000E+00;  1.0000000E+04;0.0;0.0;0.0;0.0
  2.0999999E+00;  9.9999998E-03;  2.0000000E-01;804;0.0;0.0;0.0;1000.0;  4.0000001E-01;0.0;0;0.0;0.0;0.0;0;0.0;  1.0000000E+04;  0.0000000E+00;  0.0000000E+00;  1.0000000E+04;  0.0000000E+00;  1.0000000E+04;0.0;0.0;0.0;0.0
  2.0999999E+00;  9.9999998E-03;  2.2000000E-01;805;0.0;0.0;0.0;1000.0;  4.0000001E-01;0.0;0;0.0;0.0;0.0;0;0.0;  1.0000000E+04;  0.0000000E+00;  0.0000000E+00;  1.0000000E+04;  0.0000000E+00;  1.0000000E+04;0.0;0.0;0.0;0.0
  2.0999999E+00;  9.9999998E-03;  2.3999999E-01;806;0.0;0.0;0.0;1000.0;  4.0000001E-01;0.0;0;0.0;0.0;0.0;0;0.0;  1.0000000E+04;  0.0000000E+00;  0.0000000E+00;  1.0000000E+04;  0.0000000E+00;  1.0000000E+04;0.0;0.0;0.0;0.0
  2.0999999E+00;  9.9999998E-03;  2.5999999E-01;807;0.0;0.0;0.0;1000.0;  4.0000001E-01;0.0;0;0.0;0.0;0.0;0;0.0;  1.0000000E+04;  0.0000000E+00;  0.0000000E+00;  1.0000000E+04;  0.0000000E+00;  1.0000000E+04;0.0;0.0;0.0;0.0
  2.0999999E+00;  9.9999998E-03;  2.8000000E-01;808;0.0;0.0;0.0;1000.0;  4.0000001E-01;0.0;0;0.0;0.0;0.0;0;0.0;  1.0000000E+04;  0.0000000E+00;  0.0000000E+00;  1.0000000E+04;  0.0000000E+00;  1.0000000E+04;0.0;0.0;0.0;0.0
  2.0999999E+00;  9.9999998E-03;  3.0000001E-01;809;0.0;0.0;0.0;1000.0;  4.0000001E-01;0.0;0;0.0;0.0;0.0;0;0.0;  1.0000000E+04;  0.0000000E+00;  0.0000000E+00;  1.0000000E+04;  0.0000000E+00;  1.0000000E+04;0.0;0.0;0.0;0.0
  2.0999999E+00;  9.9999998E-03;  3.1999999E-01;810;0.0;0.0;0.0;1000.0;  4.0000001E-01;0.0;0;0.0;0.0;0.0;0;0.0;  1.0000000E+04;  0.0000000E+00;  0.0000000E+00;  1.0000000E+04;  0.0000000E+00;  1.0000000E+04;0.0;0.0;0.0;0.0
  2.0999999E+00;  9.9999998E-03;  3.4000000E-01;811;0.0;0.0;0.0;1000.0;  4.0000001E-01;0.0;0;0.0;0.0;0.0;0;0.0;  1.0000000E+04;  0.0000000E+00;  0.0000000E+00;  1.0000000E+04;  0.0000000E+00;  1.0000000E+04;0.0;0.0;0.0;0.0
  2.0999999E+00;  9.9999998E-03;  3.6000001E-01;812;0.0;0.0;0.0;1000.0;  4.0000001E-01;0.0;0;0.0;0.0;0.0;0;0.0;  1.0000000E+04;  0.0000000E+00;  0.0000000E+00;  1.0000000E+04;  0.0000000E+00;  1.0000000E+04;0.0;0.0;0.0;0.0
  2.0999999E+00;  9.9999998E-03;  3.8000000E-01;813;0.0;0.0;0.0;1000.0;  4.0000001E-01;0.0;0;0.0;0.0;0.0;0;0.0;  1.0000000E+04;  0.0000000E+00;  0.0000000E+00;  1.0000000E+04;  0.0000000E+00;  1.0000000E+04;0.0;0.0;0.0;0.0
  2.0999999E+00;  9.9999998E-03;  4.0000001E-01;814;0.0;0.0;0.0;1000.0;  4.0000001E-01;0.0;0;0.0;0.0;0.0;0;0.0;  1.0000000E+04;  0.0000000E+00;  0.0000000E+00;  1.0000000E+04;  0.0000000E+00;  1.0000000E+04;0.0;0.0;0.0;0.0
  2.1199999E+00;  9.9999998E-03; -4.1999999E-01;815;0.0;0.0;0.0;1000.0;  4.0000001E-01;0.0;0;0.0;0.0;0.0;0;0.0;  1.0000000E+04;  0.0000000E+00;  0.0000000E+00;  1.0000000E+04;  0.0000000E+00;  1.0000000E+04;0.0;0.0;0.0;0.0
  2.1199999E+00;  9.9999998E-03; -4.0000001E-01;816;0.0;0.0;0.0;1000.0;  4.0000001E-01;0.0;0;0.0;0.0;0.0;0;0.0;  1.0000000E+04;  0.0000000E+00;  0.0000000E+00;  1.0000000E+04;  0.0000000E+00;  1.0000000E+04;0.0;0.0;0.0;0.0
  2.1199999E+00;  9.9999998E-03; -3.8000000E-01;817;0.0;0.0;0.0;1000.0;  4.0000001E-01;0.0;0;0.0;0.0;0.0;0;0.0;  1.0000000E+04;  0.0000000E+00;  0.0000000E+00;  1.0000000E+04;  0.0000000E+00;  1.0000000E+04;0.0;0.0;0.0;0.0
  2.1199999E+00;  9.9999998E-03; -3.6000001E-01;818;0.0;0.0;0.0;1000.0;  4.0000001E-01;0.0;0;0.0;0.0;0.0;0;0.0;  1.0000000E+04;  0.0000000E+00;  0.0000000E+00;  1.0000000E+04;  0.0000000E+00;  1.0000000E+04;0.0;0.0;0.0;0.0
  2.1199999E+00;  9.9999998E-03; -3.4000000E-01;819;0.0;0.0;0.0;1000.0;  4.0000001E-01;0.0;0;0.0;0.0;0.0;0;0.0;  1.0000000E+04;  0.0000000E+00;  0.0000000E+00;  1.0000000E+04;  0.0000000E+00;  1.0000000E+04;0.0;0.0;0.0;0.0
  2.1199999E+00;  9.9999998E-03; -3.1999999E-01;820;0.0;0.0;0.0;1000.0;  4.0000001E-01;0.0;0;0.0;0.0;0.0;0;0.0;  1.0000000E+04;  0.0000000E+00;  0.0000000E+00;  1.0000000E+04;  0.0000000E+00;  1.0000000E+04;0.0;0.0;0.0;0.0
  2.1199999E+00;  9.9999998E-03; -3.0000001E-01;821;0.0;0.0;0.0;1000.0;  4.0000001E-01;0.0;0;0.0;0.0;0.0;0;0.0;  1.0000000E+04;  0.0000000E+00;  0.0000000E+00;  1.0000000E+04;  0.0000000E+00;  1.0000000E+04;0.0;0.0;0.0;0.0
  2.1199999E+00;  9.9999998E-03; -2.8000000E-01;822;0.0;0.0;0.0;1000.0;  4.0000001E-01;0.0;0;0.0;0.0;0.0;0;0.0;  1.0000000E+04;  0.0000000E+00;  0.0000000E+00;  1.0000000E+04;  0.0000000E+00;  1.0000000E+04;0.0;0.0;0.0;0.0
  2.1199999E+00;  9.9999998E-03; -2.5999999E-01;823;0.0;0.0;0.0;1000.0;  4.0000001E-01;0.0;0;0.0;0.0;0.0;0;0.0;  1.0000000E+04;  0.0000000E+00;  0.0000000E+00;  1.0000000E+04;  0.0000000E+00;  1.0000000E+04;0.0;0.0;0.0;0.0
  2.1199999E+00;  9.9999998E-03; -2.3999999E-01;824;0.0;0.0;0.0;1000.0;  4.0000001E-01;0.0;0;0.0;0.0;0.0;0;0.0;  1.0000000E+04;  0.0000000E+00;  0.0000000E+00;  1.0000000E+04;  0.0000000E+00;  1.0000000E+04;0.0;0.0;0.0;0.0
  2.1199999E+00;  9.9999998E-03; -2.2000000E-01;825;0.0;0.0;0.0;1000.0;  4.0000001E-01;0.0;0;0.0;0.0;0.0;0;0.0;  1.0000000E+04;  0.0000000E+00;  0.0000000E+00;  1.0000000E+04;  0.0000000E+00;  1.0000000E+04;0.0;0.0;0.0;0.0
  2.1199999E+00;  9.9999998E-03; -2.0000000E-01;826;0.0;0.0;0.0;1000.0;  4.0000001E-01;0.0;0;0.0;0.0;0.0;0;0.0;  1.0000000E+04;  0.0000000E+00;  0.0000000E+00;  1.0000000E+04;  0.0000000E+00;  1.0000000E+04;0.0;0.0;0.0;0.0
  2.1199999E+00;  9.9999998E-03; -1.8000001E-01;827;0.0;0.0;0.0;1000.0;  4.0000001E-01;0.0;0;0.0;0.0;0.0;0;0.0;  1.0000000E+04;  0.0000000E+00;  0.0000000E+00;  1.0000000E+04;  0.0000000E+00;  1.0000000E+04;0.0;0.0;0.0;0.0
  2.1199999E+00;  9.9999998E-03; -1.6000000E-01;828;0.0;0.0;0.0;1000.0;  4.0000001E-01;0.0;0;0.0;0.0;0.0;0;0.0;  1.0000000E+04;  0.0000000E+00;  0.0000000E+00;  1.0000000E+04;  0.0000000E+00;  1.0000000E+04;0.0;0.0;0.0;0.0
  2.1199999E+00;  9.9999998E-03; -1.4000000E-01;829;0.0;0.0;0.0;1000.0;  4.0000001E-01;0.0;0;0.0;0.0;0.0;0;0.0;  1.0000000E+04;  0.0000000E+00;  0.0000000E+00;  1.0000000E+04;  0.0000000E+00;  1.0000000E+04;0.0;0.0;0.0;0.0
  2.1199999E+00;  9.9999998E-03; -1.2000000E-01;830;0.0;0.0;0.0;1000.0;  4.0000001E-01;0.0;0;0.0;0.0;0.0;0;0.0;  1.0000000E+04;  0.0000000E+00;  0.0000000E+00;  1.0000000E+04;  0.0000000E+00;  1.0000000E+04;0.0;0.0;0.0;0.0
  2.1199999E+00;  9.9999998E-03; -1.0000000E-01;831;0.0;0.0;0.0;1000.0;  4.0000001E-01;0.0;0;0.0;0.0;0.0;0;0.0;  1.0000000E+04;  0.0000000E+00;  0.0000000E+00;  1.0000000E+04;  0.0000000E+00;  1.0000000E+04;0.0;0.0;0.0;0.0
  2.1199999E+00;  9.9999998E-03; -7.9999998E-02;832;0.0;0.0;0.0;1000.0;  4.0000001E-01;0.0;0;0.0;0.0;0.0;0;0.0;  1.0000000E+04;  0.0000000E+00;  0.0000000E+00;  1.0000000E+04;  0.0000000E+00;  1.0000000E+04;0.0;0.0;0.0;0.0
  2.1199999E+00;  9.9999998E-03; -5.9999999E-02;833;0.0;0.0;0.0;1000.0;  4.0000001E-01;0.0;0;0.0;0.0;0.0;0;0.0;  1.0000000E+04;  0.0000000E+00;  0.0000000E+00;  1.0000000E+04;  0.0000000E+00;  1.0000000E+04;0.0;0.0;0.0;0.0
  2.1199999E+00;  9.9999998E-03; -3.9999999E-02;834;0.0;0.0;0.0;1000.0;  4.0000001E-01;0.0;0;0.0;0.0;0.0;0;0.0;  1.0000000E+04;  0.0000000E+00;  0.0000000E+00;  1.0000000E+04;  0.0000000E+00;  1.0000000E+04;0.0;0.0;0.0;0.0
  2.1199999E+00;  9.9999998E-03; -2.0000000E-02;835;0.0;0.0;0.0;1000.0;  4.0000001E-01;0.0;0;0.0;0.0;0.0;0;0.0;  1.0000000E+04;  0.0000000E+00;  0.0000000E+00;  1.0000000E+04;  0.0000000E+00;  1.0000000E+04;0.0;0.0;0.0;0.0
  2.1199999E+00;  9.9999998E-03;  0.0000000E+00;836;0.0;0.0;0.0;1000.0;  4.0000001E-01;0.0;0;0.0;0.0;0.0;0;0.0;  1.0000000E+04;  0.0000000E+00;  0.0000000E+00;  1.0000000E+04;  0.0000000E+00;  1.0000000E+04;0.0;0.0;0.0;0.0
  2.1199999E+00;  9.9999998E-03;  2.0000000E-02;837;0.0;0.0;0.0;1000.0;  4.0000001E-01;0.0;0;0.0;0.0;0.0;0;0.0;  1.0000000E+04;  0.0000000E+00;  0.0000000E+00;  1.0000000E+04;  0.0000000E+00;  1.0000000E+04;0.0;0.0;0.0;0.0
  2.1199999E+00;  9.9999998E-03;  3.9999999E-02;838;0.0;0.0;0.0;1000.0;  4.0000001E-01;0.0;0;0.0;0.0;0.0;0;0.0;  1.0000000E+04;  0.0000000E+00;  0.0000000E+00;  1.0000000E+04;  0.0000000E+00;  1.0000000E+04;0.0;0.0;0.0;0.0
  2.1199999E+00;  9.9999998E-03;  5.9999999E-02;839;0.0;0.0;0.0;1000.0;  4.0000001E-01;0.0;0;0.0;0.0;0.0;0;0.0;  1.0000000E+04;  0.0000000E+00;  0.0000000E+00;  1.0000000E+04;  0.0000000E+00;  1.0000000E+04;0.0;0.0;0.0;0.0
  2.1199999E+00;  9.9999998E-03;  7.9999998E-02;840;0.0;0.0;0.0;1000.0;  4.0000001E-01;0.0;0;0.0;0.0;0.0;0;0.0;  1.0000000E+04;  0.0000000E+00;  0.0000000E+00;  1.0000000E+04;  0.0000000E+00;  1.0000000E+04;0.0;0.0;0.0;0.0
  2.1199999E+00;  9.9999998E-03;  1.0000000E-01;841;0.0;0.0;0.0;1000.0;  4.0000001E-01;0.0;0;0.0;0.0;0.0;0;0.0;  1.0000000E+04;  0.0000000E+00;  0.0000000E+00;  1.0000000E+04;  0.0000000E+00;  1.0000000E+04;0.0;0.0;0.0;0.0
  2.1199999E+00;  9.9999998E-03;  1.2000000E-01;842;0.0;0.0;0.0;1000.0;  4.0000001E-01;0.0;0;0.0;0.0;0.0;0;0.0;  1.0000000E+04;  0.0000000E+00;  0.0000000E+00;  1.0000000E+04;  0.0000000E+00;  1.0000000E+04;0.0;0.0;0.0;0.0
  2.1199999E+00;  9.9999998E-03;  1.4000000E-01;843;0.0;0.0;0.0;1000.0;  4.0000001E-01;0.0;0;0.0;0.0;0.0;0;0.0;  1.0000000E+04;  0.0000000E+00;  0.0000000E+00;  1.0000000E+04;  0.0000000E+00;  1.0000000E+04;0.0;0.0;0.0;0.0
  2.1199999E+00;  9.9999998E-03;  1.6000000E-01;844;0.0;0.0;0.0;1000.0;  4.0000001E-01;0.0;0;0.0;0.0;0.0;0;0.0;  1.0000000E+04;  0.0000000E+00;  0.0000000E+00;  1.0000000E+04;  0.0000000E+00;  1.0000000E+04;0.0;0.0;0.0;0.0
  2.1199999E+00;  9.9999998E-03;  1.8000001E-01;845;0.0;0.0;0.0;1000.0;  4.0000001E-01;0.0;0;0.0;0.0;0.0;0;0.0;  1.0000000E+04;  0.0000000E+00;  0.0000000E+00;  1.0000000E+04;  0.0000000E+00;  1.0000000E+04;0.0;0.0;0.0;0.0
  2.1199999E+00;  9.9999998E-03;  2.0000000E-01;846;0.0;0.0;0.0;1000.0;  4.0000001E-01;0.0;0;0.0;0.0;0.0;0;0.0;  1.0000000E+04;  0.0000000E+00;  0.0000000E+00;  1.0000000E+04;  0.0000000E+00;  1.0000000E+04;0.0;0.0;0.0;0.0
  2.1199999E+00;  9.9999998E-03;  2.2000000E-01;847;0.0;0.0;0.0;1000.0;  4.0000001E-01;0.0;0;0.0;0.0;0.0;0;0.0;  1.0000000E+04;  0.0000000E+00;  0.0000000E+00;  1.0000000E+04;  0.0000000E+00;  1.0000000E+04;0.0;0.0;0.0;0.0
  2.1199999E+00;  9.9999998E-03;  2.3999999E-01;848;0.0;0.0;0.0;1000.0;  4.0000001E-01;0.0;0;0.0;0.0;0.0;0;0.0;  1.0000000E+04;  0.0000000E+00;  0.0000000E+00;  1.0000000E+04;  0.0000000E+00;  1.0000000E+04;0.0;0.0;0.0;0.0
  2.1199999E+00;  9.9999998E-03;  2.5999999E-01;849;0.0;0.0;0.0;1000.0;  4.0000001E-01;0.0;0;0.0;0.0;0.0;0;0.0;  1.0000000E+04;  0.0000000E+00;  0.0000000E+00;  1.0000000E+04;  0.0000000E+00;  1.0000000E+04;0.0;0.0;0.0;0.0
  2.1199999E+00;  9.9999998E-03;  2.8000000E-01;850;0.0;0.0;0.0;1000.0;  4.0000001E-01;0.0;0;0.0;0.0;0.0;0;0.0;  1.0000000E+04;  0.0000000E+00;  0.0000000E+00;  1.0000000E+04;  0.0000000E+00;  1.0000000E+04;0.0;0.0;0.0;0.0
  2.1199999E+00;  9.9999998E-03;  3.0000001E-01;851;0.0;0.0;0.0;1000.0;  4.0000001E-01;0.0;0;0.0;0.0;0.0;0;0.0;  1.0000000E+04;  0.0000000E+00;  0.0000000E+00;  1.0000000E+04;  0.0000000E+00;  1.0000000E+04;0.0;0.0;0.0;0.0
  2.1199999E+00;  9.9999998E-03;  3.1999999E-01;852;0.0;0.0;0.0;1000.0;  4.0000001E-01;0.0;0;0.0;0.0;0.0;0;0.0;  1.0000000E+04;  0.0000000E+00;  0.0000000E+00;  1.0000000E+04;  0.0000000E+00;  1.0000000E+04;0.0;0.0;0.0;0.0
  2.1199999E+00;  9.9999998E-03;  3.4000000E-01;853;0.0;0.0;0.0;1000.0;  4.0000001E-01;0.0;0;0.0;0.0;0.0;0;0.0;  1.0000000E+04;  0.0000000E+00;  0.0000000E+00;  1.0000000E+04;  0.0000000E+00;  1.0000000E+04;0.0;0.0;0.0;0.0
  2.1199999E+00;  9.9999998E-03;  3.6000001E-01;854;0.0;0.0;0.0;1000.0;  4.0000001E-01;0.0;0;0.0;0.0;0.0;0;0.0;  1.0000000E+04;  0.0000000E+00;  0.0000000E+00;  1.0000000E+04;  0.0000000E+00;  1.0000000E+04;0.0;0.0;0.0;0.0
  2.1199999E+00;  9.9999998E-03;  3.8000000E-01;855;0.0;0.0;0.0;1000.0;  4.0000001E-01;0.0;0;0.0;0.0;0.0;0;0.0;  1.0000000E+04;  0.0000000E+00;  0.0000000E+00;  1.0000000E+04;  0.0000000E+00;  1.0000000E+04;0.0;0.0;0.0;0.0
  2.1199999E+00;  9.9999998E-03;  4.0000001E-01;856;0.0;0.0;0.0;1000.0;  4.0000001E-01;0.0;0;0.0;0.0;0.0;0;0.0;  1.0000000E+04;  0.0000000E+00;  0.0000000E+00;  1.0000000E+04;  0.0000000E+00;  1.0000000E+04;0.0;0.0;0.0;0.0
  2.1400001E+00;  9.9999998E-03; -3.8000000E-01;857;0.0;0.0;0.0;1000.0;  4.0000001E-01;0.0;0;0.0;0.0;0.0;0;0.0;  1.0000000E+04;  0.0000000E+00;  0.0000000E+00;  1.0000000E+04;  0.0000000E+00;  1.0000000E+04;0.0;0.0;0.0;0.0
  2.1400001E+00;  9.9999998E-03; -3.6000001E-01;858;0.0;0.0;0.0;1000.0;  4.0000001E-01;0.0;0;0.0;0.0;0.0;0;0.0;  1.0000000E+04;  0.0000000E+00;  0.0000000E+00;  1.0000000E+04;  0.0000000E+00;  1.0000000E+04;0.0;0.0;0.0;0.0
  2.1400001E+00;  9.9999998E-03; -3.4000000E-01;859;0.0;0.0;0.0;1000.0;  4.0000001E-01;0.0;0;0.0;0.0;0.0;0;0.0;  1.0000000E+04;  0.0000000E+00;  0.0000000E+00;  1.0000000E+04;  0.0000000E+00;  1.0000000E+04;0.0;0.0;0.0;0.0
  2.1400001E+00;  9.9999998E-03; -3.1999999E-01;860;0.0;0.0;0.0;1000.0;  4.0000001E-01;0.0;0;0.0;0.0;0.0;0;0.0;  1.0000000E+04;  0.0000000E+00;  0.0000000E+00;  1.0000000E+04;  0.0000000E+00;  1.0000000E+04;0.0;0.0;0.0;0.0
  2.1400001E+00;  9.9999998E-03; -3.0000001E-01;861;0.0;0.0;0.0;1000.0;  4.0000001E-01;0.0;0;0.0;0.0;0.0;0;0.0;  1.0000000E+04;  0.0000000E+00;  0.0000000E+00;  1.0000000E+04;  0.0000000E+00;  1.0000000E+04;0.0;0.0;0.0;0.0
  2.1400001E+00;  9.9999998E-03; -2.8000000E-01;862;0.0;0.0;0.0;1000.0;  4.0000001E-01;0.0;0;0.0;0.0;0.0;0;0.0;  1.0000000E+04;  0.0000000E+00;  0.0000000E+00;  1.0000000E+04;  0.0000000E+00;  1.0000000E+04;0.0;0.0;0.0;0.0
  2.1400001E+00;  9.9999998E-03; -2.5999999E-01;863;0.0;0.0;0.0;1000.0;  4.0000001E-01;0.0;0;0.0;0.0;0.0;0;0.0;  1.0000000E+04;  0.0000000E+00;  0.0000000E+00;  1.0000000E+04;  0.0000000E+00;  1.0000000E+04;0.0;0.0;0.0;0.0
  2.1400001E+00;  9.9999998E-03; -2.3999999E-01;864;0.0;0.0;0.0;1000.0;  4.0000001E-01;0.0;0;0.0;0.0;0.0;0;0.0;  1.0000000E+04;  0.0000000E+00;  0.0000000E+00;  1.0000000E+04;  0.0000000E+00;  1.0000000E+04;0.0;0.0;0.0;0.0
  2.1400001E+00;  9.9999998E-03; -2.2000000E-01;865;0.0;0.0;0.0;1000.0;  4.0000001E-01;0.0;0;0.0;0.0;0.0;0;0.0;  1.0000000E+04;  0.0000000E+00;  0.0000000E+00;  1.0000000E+04;  0.0000000E+00;  1.0000000E+04;0.0;0.0;0.0;0.0
  2.1400001E+00;  9.9999998E-03; -2.0000000E-01;866;0.0;0.0;0.0;1000.0;  4.0000001E-01;0.0;0;0.0;0.0;0.0;0;0.0;  1.0000000E+04;  0.0000000E+00;  0.0000000E+00;  1.0000000E+04;  0.0000000E+00;  1.0000000E+04;0.0;0.0;0.0;0.0
  2.1400001E+00;  9.9999998E-03; -1.8000001E-01;867;0.0;0.0;0.0;1000.0;  4.0000001E-01;0.0;0;0.0;0.0;0.0;0;0.0;  1.0000000E+04;  0.0000000E+00;  0.0000000E+00;  1.0000000E+04;  0.0000000E+00;  1.0000000E+04;0.0;0.0;0.0;0.0
  2.1400001E+00;  9.9999998E-03; -1.6000000E-01;868;0.0;0.0;0.0;1000.0;  4.0000001E-01;0.0;0;0.0;0.0;0.0;0;0.0;  1.0000000E+04;  0.0000000E+00;  0.0000000E+00;  1.0000000E+04;  0.0000000E+00;  1.0000000E+04;0.0;0.0;0.0;0.0
  2.1400001E+00;  9.9999998E-03; -1.4000000E-01;869;0.0;0.0;0.0;1000.0;  4.0000001E-01;0.0;0;0.0;0.0;0.0;0;0.0;  1.0000000E+04;  0.0000000E+00;  0.0000000E+00;  1.0000000E+04;  0.0000000E+00;  1.0000000E+04;0.0;0.0;0.0;0.0
  2.1400001E+00;  9.9999998E-03; -1.2000000E-01;870;0.0;0.0;0.0;1000.0;  4.0000001E-01;0.0;0;0.0;0.0;0.0;0;0.0;  1.0000000E+04;  0.0000000E+00;  0.0000000E+00;  1.0000000E+04;  0.0000000E+00;  1.0000000E+04;0.0;0.0;0.0;0.0
  2.1400001E+00;  9.9999998E-03; -1.0000000E-01;871;0.0;0.0;0.0;1000.0;  4.0000001E-01;0.0;0;0.0;0.0;0.0;0;0.0;  1.0000000E+04;  0.0000000E+00;  0.0000000E+00;  1.0000000E+04;  0.0000000E+00;  1.0000000E+04;0.0;0.0;0.0;0.0
  2.1400001E+00;  9.9999998E-03; -7.9999998E-02;872;0.0;0.0;0.0;1000.0;  4.0000001E-01;0.0;0;0.0;0.0;0.0;0;0.0;  1.0000000E+04;  0.0000000E+00;  0.0000000E+00;  1.0000000E+04;  0.0000000E+00;  1.0000000E+04;0.0;0.0;0.0;0.0
  2.1400001E+00;  9.9999998E-03; -5.9999999E-02;873;0.0;0.0;0.0;1000.0;  4.0000001E-01;0.0;0;0.0;0.0;0.0;0;0.0;  1.0000000E+04;  0.0000000E+00;  0.0000000E+00;  1.0000000E+04;  0.0000000E+00;  1.0000000E+04;0.0;0.0;0.0;0.0
  2.1400001E+00;  9.9999998E-03; -3.9999999E-02;874;0.0;0.0;0.0;1000.0;  4.0000001E-01;0.0;0;0.0;0.0;0.0;0;0.0;  1.0000000E+04;  0.0000000E+00;  0.0000000E+00;  1.0000000E+04;  0.0000000E+00;  1.0000000E+04;0.0;0.0;0.0;0.0
  2.1400001E+00;  9.9999998E-03; -2.0000000E-02;875;0.0;0.0;0.0;1000.0;  4.0000001E-01;0.0;0;0.0;0.0;0.0;0;0.0;  1.0000000E+04;  0.0000000E+00;  0.0000000E+00;  1.0000000E+04;  0.0000000E+00;  1.0000000E+04;0.0;0.0;0.0;0.0
  2.1400001E+00;  9.9999998E-03;  0.0000000E+00;876;0.0;0.0;0.0;1000.0;  4.0000001E-01;0.0;0;0.0;0.0;0.0;0;0.0;  1.0000000E+04;  0.0000000E+00;  0.0000000E+00;  1.0000000E+04;  0.0000000E+00;  1.0000000E+04;0.0;0.0;0.0;0.0
  2.1400001E+00;  9.9999998E-03;  2.0000000E-02;877;0.0;0.0;0.0;1000.0;  4.0000001E-01;0.0;0;0.0;0.0;0.0;0;0.0;  1.0000000E+04;  0.0000000E+00;  0.0000000E+00;  1.0000000E+04;  0.0000000E+00;  1.0000000E+04;0.0;0.0;0.0;0.0
  2.1400001E+00;  9.9999998E-03;  3.9999999E-02;878;0.0;0.0;0.0;1000.0;  4.0000001E-01;0.0;0;0.0;0.0;0.0;0;0.0;  1.0000000E+04;  0.0000000E+00;  0.0000000E+00;  1.0000000E+04;  0.0000000E+00;  1.0000000E+04;0.0;0.0;0.0;0.0
  2.1400001E+00;  9.9999998E-03;  5.9999999E-02;879;0.0;0.0;0.0;1000.0;  4.0000001E-01;0.0;0;0.0;0.0;0.0;0;0.0;  1.0000000E+04;  0.0000000E+00;  0.0000000E+00;  1.0000000E+04;  0.0000000E+00;  1.0000000E+04;0.0;0.0;0.0;0.0
  2.1400001E+00;  9.9999998E-03;  7.9999998E-02;880;0.0;0.0;0.0;1000.0;  4.0000001E-01;0.0;0;0.0;0.0;0.0;0;0.0;  1.0000000E+04;  0.0000000E+00;  0.0000000E+00;  1.0000000E+04;  0.0000000E+00;  1.0000000E+04;0.0;0.0;0.0;0.0
  2.1400001E+00;  9.9999998E-03;  1.0000000E-01;881;0.0;0.0;0.0;1000.0;  4.0000001E-01;0.0;0;0.0;0.0;0.0;0;0.0;  1.0000000E+04;  0.0000000E+00;  0.0000000E+00;  1.0000000E+04;  0.0000000E+00;  1.0000000E+04;0.0;0.0;0.0;0.0
  2.1400001E+00;  9.9999998E-03;  1.2000000E-01;882;0.0;0.0;0.0;1000.0;  4.0000001E-01;0.0;0;0.0;0.0;0.0;0;0.0;  1.0000000E+04;  0.0000000E+00;  0.0000000E+00;  1.0000000E+04;  0.0000000E+00;  1.0000000E+04;0.0;0.0;0.0;0.0
  2.1400001E+00;  9.9999998E-03;  1.4000000E-01;883;0.0;0.0;0.0;1000.0;  4.0000001E-01;0.0;0;0.0;0.0;0.0;0;0.0;  1.0000000E+04;  0.0000000E+00;  0.0000000E+00;  1.0000000E+04;  0.0000000E+00;  1.0000000E+04;0.0;0.0;0.0;0.0
  2.1400001E+00;  9.9999998E-03;  1.6000000E-01;884;0.0;0.0;0.0;1000.0;  4.0000001E-01;0.0;0;0.0;0.0;0.0;0;0.0;  1.0000000E+04;  0.0000000E+00;  0.0000000E+00;  1.0000000E+04;  0.0000000E+00;  1.0000000E+04;0.0;0.0;0.0;0.0
  2.1400001E+00;  9.9999998E-03;  1.8000001E-01;885;0.0;0.0;0.0;1000.0;  4.0000001E-01;0.0;0;0.0;0.0;0.0;0;0.0;  1.0000000E+04;  0.0000000E+00;  0.0000000E+00;  1.0000000E+04;  0.0000000E+00;  1.0000000E+04;0.0;0.0;0.0;0.0
  2.1400001E+00;  9.9999998E-03;  2.0000000E-01;886;0.0;0.0;0.0;1000.0;  4.0000001E-01;0.0;0;0.0;0.0;0.0;0;0.0;  1.0000000E+04;  0.0000000E+00;  0.0000000E+00;  1.0000000E+04;  0.0000000E+00;  1.0000000E+04;0.0;0.0;0.0;0.0
  2.1400001E+00;  9.9999998E-03;  2.2000000E-01;887;0.0;0.0;0.0;1000.0;  4.0000001E-01;0.0;0;0.0;0.0;0.0;0;0.0;  1.0000000E+04;  0.0000000E+00;  0.0000000E+00;  1.0000000E+04;  0.0000000E+00;  1.0000000E+04;0.0;0.0;0.0;0.0
  2.1400001E+00;  9.9999998E-03;  2.3999999E-01;888;0.0;0.0;0.0;1000.0;  4.0000001E-01;0.0;0;0.0;0.0;0.0;0;0.0;  1.0000000E+04;  0.0000000E+00;  0.0000000E+00;  1.0000000E+04;  0.0000000E+00;  1.0000000E+04;0.0;0.0;0.0;0.0
  2.1400001E+00;  9.9999998E-03;  2.5999999E-01;889;0.0;0.0;0.0;1000.0;  4.0000001E-01;0.0;0;0.0;0.0;0.0;0;0.0;  1.0000000E+04;  0.0000000E+00;  0.0000000E+00;  1.0000000E+04;  0.0000000E+00;  1.0000000E+04;0.0;0.0;0.0;0.0
  2.1400001E+00;  9.9999998E-03;  2.8000000E-01;890;0.0;0.0;0.0;1000.0;  4.0000001E-01;0.0;0;0.0;0.0;0.0;0;0.0;  1.0000000E+04;  0.0000000E+00;  0.0000000E+00;  1.0000000E+04;  0.0000000E+00;  1.0000000E+04;0.0;0.0;0.0;0.0
  2.1400001E+00;  9.9999998E-03;  3.0000001E-01;891;0.0;0.0;0.0;1000.0;  4.0000001E-01;0.0;0;0.0;0.0;0.0;0;0.0;  1.0000000E+04;  0.0000000E+00;  0.0000000E+00;  1.0000000E+04;  0.0000000E+00;  1.0000000E+04;0.0;0.0;0.0;0.0
  2.1400001E+00;  9.9999998E-03;  3.1999999E-01;892;0.0;0.0;0.0;1000.0;  4.0000001E-01;0.0;0;0.0;0.0;0.0;0;0.0;  1.0000000E+04;  0.0000000E+00;  0.0000000E+00;  1.0000000E+04;  0.0000000E+00;  1.0000000E+04;0.0;0.0;0.0;0.0
  2.1400001E+00;  9.9999998E-03;  3.4000000E-01;893;0.0;0.0;0.0;1000.0;  4.0000001E-01;0.0;0;0.0;0.0;0.0;0;0.0;  1.0000000E+04;  0.0000000E+00;  0.0000000E+00;  1.0000000E+04;  0.0000000E+00;  1.0000000E+04;0.0;0.0;0.0;0.0
  2.1400001E+00;  9.9999998E-03;  3.6000001E-01;894;0.0;0.0;0.0;1000.0;  4.0000001E-01;0.0;0;0.0;0.0;0.0;0;0.0;  1.0000000E+04;  0.0000000E+00;  0.0000000E+00;  1.0000000E+04;  0.0000000E+00;  1.0000000E+04;0.0;0.0;0.0;0.0
  2.1400001E+00;  9.9999998E-03;  3.8000000E-01;895;0.0;0.0;0.0;1000.0;  4.0000001E-01;0.0;0;0.0;0.0;0.0;0;0.0;  1.0000000E+04;  0.0000000E+00;  0.0000000E+00;  1.0000000E+04;  0.0000000E+00;  1.0000000E+04;0.0;0.0;0.0;0.0
  2.1400001E+00;  9.9999998E-03;  4.0000001E-01;896;0.0;0.0;0.0;1000.0;  4.0000001E-01;0.0;0;0.0;0.0;0.0;0;0.0;  1.0000000E+04;  0.0000000E+00;  0.0000000E+00;  1.0000000E+04;  0.0000000E+00;  1.0000000E+04;0.0;0.0;0.0;0.0
  2.1600001E+00;  9.9999998E-03; -2.8000000E-01;897;0.0;0.0;0.0;1000.0;  4.0000001E-01;0.0;0;0.0;0.0;0.0;0;0.0;  1.0000000E+04;  0.0000000E+00;  0.0000000E+00;  1.0000000E+04;  0.0000000E+00;  1.0000000E+04;0.0;0.0;0.0;0.0
  2.1600001E+00;  9.9999998E-03; -2.5999999E-01;898;0.0;0.0;0.0;1000.0;  4.0000001E-01;0.0;0;0.0;0.0;0.0;0;0.0;  1.0000000E+04;  0.0000000E+00;  0.0000000E+00;  1.0000000E+04;  0.0000000E+00;  1.0000000E+04;0.0;0.0;0.0;0.0
  2.1600001E+00;  9.9999998E-03; -2.3999999E-01;899;0.0;0.0;0.0;1000.0;  4.0000001E-01;0.0;0;0.0;0.0;0.0;0;0.0;  1.0000000E+04;  0.0000000E+00;  0.0000000E+00;  1.0000000E+04;  0.0000000E+00;  1.0000000E+04;0.0;0.0;0.0;0.0
  2.1600001E+00;  9.9999998E-03; -2.2000000E-01;900;0.0;0.0;0.0;1000.0;  4.0000001E-01;0.0;0;0.0;0.0;0.0;0;0.0;  1.0000000E+04;  0.0000000E+00;  0.0000000E+00;  1.0000000E+04;  0.0000000E+00;  1.0000000E+04;0.0;0.0;0.0;0.0
  2.1600001E+00;  9.9999998E-03; -2.0000000E-01;901;0.0;0.0;0.0;1000.0;  4.0000001E-01;0.0;0;0.0;0.0;0.0;0;0.0;  1.0000000E+04;  0.0000000E+00;  0.0000000E+00;  1.0000000E+04;  0.0000000E+00;  1.0000000E+04;0.0;0.0;0.0;0.0
  2.1600001E+00;  9.9999998E-03; -1.8000001E-01;902;0.0;0.0;0.0;1000.0;  4.0000001E-01;0.0;0;0.0;0.0;0.0;0;0.0;  1.0000000E+04;  0.0000000E+00;  0.0000000E+00;  1.0000000E+04;  0.0000000E+00;  1.0000000E+04;0.0;0.0;0.0;0.0
  2.1600001E+00;  9.9999998E-03; -1.6000000E-01;903;0.0;0.0;0.0;1000.0;  4.0000001E-01;0.0;0;0.0;0.0;0.0;0;0.0;  1.0000000E+04;  0.0000000E+00;  0.0000000E+00;  1.0000000E+04;  0.0000000E+00;  1.0000000E+04;0.0;0.0;0.0;0.0
  2.1600001E+00;  9.9999998E-03; -1.4000000E-01;904;0.0;0.0;0.0;1000.0;  4.0000001E-01;0.0;0;0.0;0.0;0.0;0;0.0;  1.0000000E+04;  0.0000000E+00;  0.0000000E+00;  1.0000000E+04;  0.0000000E+00;  1.0000000E+04;0.0;0.0;0.0;0.0
  2.1600001E+00;  9.9999998E-03; -1.2000000E-01;905;0.0;0.0;0.0;1000.0;  4.0000001E-01;0.0;0;0.0;0.0;0.0;0;0.0;  1.0000000E+04;  0.0000000E+00;  0.0000000E+00;  1.0000000E+04;  0.0000000E+00;  1.0000000E+04;0.0;0.0;0.0;0.0
  2.1600001E+00;  9.9999998E-03; -1.0000000E-01;906;0.0;0.0;0.0;1000.0;  4.0000001E-01;0.0;0;0.0;0.0;0.0;0;0.0;  1.0000000E+04;  0.0000000E+00;  0.0000000E+00;  1.0000000E+04;  0.0000000E+00;  1.0000000E+04;0.0;0.0;0.0;0.0
  2.1600001E+00;  9.9999998E-03; -7.9999998E-02;907;0.0;0.0;0.0;1000.0;  4.0000001E-01;0.0;0;0.0;0.0;0.0;0;0.0;  1.0000000E+04;  0.0000000E+00;  0.0000000E+00;  1.0000000E+04;  0.0000000E+00;  1.0000000E+04;0.0;0.0;0.0;0.0
  2.1600001E+00;  9.9999998E-03; -5.9999999E-02;908;0.0;0.0;0.0;1000.0;  4.0000001E-01;0.0;0;0.0;0.0;0.0;0;0.0;  1.0000000E+04;  0.0000000E+00;  0.0000000E+00;  1.0000000E+04;  0.0000000E+00;  1.0000000E+04;0.0;0.0;0.0;0.0
  2.1600001E+00;  9.9999998E-03; -3.9999999E-02;909;0.0;0.0;0.0;1000.0;  4.0000001E-01;0.0;0;0.0;0.0;0.0;0;0.0;  1.0000000E+04;  0.0000000E+00;  0.0000000E+00;  1.0000000E+04;  0.0000000E+00;  1.0000000E+04;0.0;0.0;0.0;0.0
  2.1600001E+00;  9.9999998E-03; -2.0000000E-02;910;0.0;0.0;0.0;1000.0;  4.0000001E-01;0.0;0;0.0;0.0;0.0;0;0.0;  1.0000000E+04;  0.0000000E+00;  0.0000000E+00;  1.0000000E+04;  0.0000000E+00;  1.0000000E+04;0.0;0.0;0.0;0.0
  2.1600001E+00;  9.9999998E-03;  0.0000000E+00;911;0.0;0.0;0.0;1000.0;  4.0000001E-01;0.0;0;0.0;0.0;0.0;0;0.0;  1.0000000E+04;  0.0000000E+00;  0.0000000E+00;  1.0000000E+04;  0.0000000E+00;  1.0000000E+04;0.0;0.0;0.0;0.0
  2.1600001E+00;  9.9999998E-03;  2.0000000E-02;912;0.0;0.0;0.0;1000.0;  4.0000001E-01;0.0;0;0.0;0.0;0.0;0;0.0;  1.0000000E+04;  0.0000000E+00;  0.0000000E+00;  1.0000000E+04;  0.0000000E+00;  1.0000000E+04;0.0;0.0;0.0;0.0
  2.1600001E+00;  9.9999998E-03;  3.9999999E-02;913;0.0;0.0;0.0;1000.0;  4.0000001E-01;0.0;0;0.0;0.0;0.0;0;0.0;  1.0000000E+04;  0.0000000E+00;  0.0000000E+00;  1.0000000E+04;  0.0000000E+00;  1.0000000E+04;0.0;0.0;0.0;0.0
  2.1600001E+00;  9.9999998E-03;  5.9999999E-02;914;0.0;0.0;0.0;1000.0;  4.0000001E-01;0.0;0;0.0;0.0;0.0;0;0.0;  1.0000000E+04;  0.0000000E+00;  0.0000000E+00;  1.0000000E+04;  0.0000000E+00;  1.0000000E+04;0.0;0.0;0.0;0.0
  2.1600001E+00;  9.9999998E-03;  7.9999998E-02;915;0.0;0.0;0.0;1000.0;  4.0000001E-01;0.0;0;0.0;0.0;0.0;0;0.0;  1.0000000E+04;  0.0000000E+00;  0.0000000E+00;  1.0000000E+04;  0.0000000E+00;  1.0000000E+04;0.0;0.0;0.0;0.0
  2.1600001E+00;  9.9999998E-03;  1.0000000E-01;916;0.0;0.0;0.0;1000.0;  4.0000001E-01;0.0;0;0.0;0.0;0.0;0;0.0;  1.0000000E+04;  0.0000000E+00;  0.0000000E+00;  1.0000000E+04;  0.0000000E+00;  1.0000000E+04;0.0;0.0;0.0;0.0
  2.1600001E+00;  9.9999998E-03;  1.2000000E-01;917;0.0;0.0;0.0;1000.0;  4.0000001E-01;0.0;0;0.0;0.0;0.0;0;0.0;  1.0000000E+04;  0.0000000E+00;  0.0000000E+00;  1.0000000E+04;  0.0000000E+00;  1.0000000E+04;0.0;0.0;0.0;0.0
  2.1600001E+00;  9.9999998E-03;  1.4000000E-01;918;0.0;0.0;0.0;1000.0;  4.0000001E-01;0.0;0;0.0;0.0;0.0;0;0.0;  1.0000000E+04;  0.0000000E+00;  0.0000000E+00;  1.0000000E+04;  0.0000000E+00;  1.0000000E+04;0.0;0.0;0.0;0.0
  2.1600001E+00;  9.9999998E-03;  1.6000000E-01;919;0.0;0.0;0.0;1000.0;  4.0000001E-01;0.0;0;0.0;0.0;0.0;0;0.0;  1.0000000E+04;  0.0000000E+00;  0.0000000E+00;  1.0000000E+04;  0.0000000E+00;  1.0000000E+04;0.0;0.0;0.0;0.0
  2.1600001E+00;  9.9999998E-03;  1.8000001E-01;920;0.0;0.0;0.0;1000.0;  4.0000001E-01;0.0;0;0.0;0.0;0.0;0;0.0;  1.0000000E+04;  0.0000000E+00;  0.0000000E+00;  1.0000000E+04;  0.0000000E+00;  1.0000000E+04;0.0;0.0;0.0;0.0
  2.1600001E+00;  9.9999998E-03;  2.0000000E-01;921;0.0;0.0;0.0;1000.0;  4.0000001E-01;0.0;0;0.0;0.0;0.0;0;0.0;  1.0000000E+04;  0.0000000E+00;  0.0000000E+00;  1.0000000E+04;  0.0000000E+00;  1.0000000E+04;0.0;0.0;0.0;0.0
  2.1600001E+00;  9.9999998E-03;  2.2000000E-01;922;0.0;0.0;0.0;1000.0;  4.0000001E-01;0.0;0;0.0;0.0;0.0;0;0.0;  1.0000000E+04;  0.0000000E+00;  0.0000000E+00;  1.0000000E+04;  0.0000000E+00;  1.0000000E+04;0.0;0.0;0.0;0.0
  2.1600001E+00;  9.9999998E-03;  2.3999999E-01;923;0.0;0.0;0.0;1000.0;  4.0000001E-01;0.0;0;0.0;0.0;0.0;0;0.0;  1.0000000E+04;  0.0000000E+00;  0.0000000E+00;  1.0000000E+04;  0.0000000E+00;  1.0000000E+04;0.0;0.0;0.0;0.0
  2.1600001E+00;  9.9999998E-03;  2.5999999E-01;924;0.0;0.0;0.0;1000.0;  4.0000001E-01;0.0;0;0.0;0.0;0.0;0;0.0;  1.0000000E+04;  0.0000000E+00;  0.0000000E+00;  1.0000000E+04;  0.0000000E+00;  1.0000000E+04;0.0;0.0;0.0;0.0
  2.1600001E+00;  9.9999998E-03;  2.8000000E-01;925;0.0;0.0;0.0;1000.0;  4.0000001E-01;0.0;0;0.0;0.0;0.0;0;0.0;  1.0000000E+04;  0.0000000E+00;  0.0000000E+00;  1.0000000E+04;  0.0000000E+00;  1.0000000E+04;0.0;0.0;0.0;0.0
  2.1600001E+00;  9.9999998E-03;  3.0000001E-01;926;0.0;0.0;0.0;1000.0;  4.0000001E-01;0.0;0;0.0;0.0;0.0;0;0.0;  1.0000000E+04;  0.0000000E+00;  0.0000000E+00;  1.0000000E+04;  0.0000000E+00;  1.0000000E+04;0.0;0.0;0.0;0.0
  2.1600001E+00;  9.9999998E-03;  3.1999999E-01;927;0.0;0.0;0.0;1000.0;  4.0000001E-01;0.0;0;0.0;0.0;0.0;0;0.0;  1.0000000E+04;  0.0000000E+00;  0.0000000E+00;  1.0000000E+04;  0.0000000E+00;  1.0000000E+04;0.0;0.0;0.0;0.0
  2.1600001E+00;  9.9999998E-03;  3.4000000E-01;928;0.0;0.0;0.0;1000.0;  4.0000001E-01;0.0;0;0.0;0.0;0.0;0;0.0;  1.0000000E+04;  0.0000000E+00;  0.0000000E+00;  1.0000000E+04;  0.0000000E+00;  1.0000000E+04;0.0;0.0;0.0;0.0
  2.1600001E+00;  9.9999998E-03;  3.6000001E-01;929;0.0;0.0;0.0;1000.0;  4.0000001E-01;0.0;0;0.0;0.0;0.0;0;0.0;  1.0000000E+04;  0.0000000E+00;  0.0000000E+00;  1.0000000E+04;  0.0000000E+00;  1.0000000E+04;0.0;0.0;0.0;0.0
  2.1600001E+00;  9.9999998E-03;  3.8000000E-01;930;0.0;0.0;0.0;1000.0;  4.0000001E-01;0.0;0;0.0;0.0;0.0;0;0.0;  1.0000000E+04;  0.0000000E+00;  0.0000000E+00;  1.0000000E+04;  0.0000000E+00;  1.0000000E+04;0.0;0.0;0.0;0.0
  2.1600001E+00;  9.9999998E-03;  4.0000001E-01;931;0.0;0.0;0.0;1000.0;  4.0000001E-01;0.0;0;0.0;0.0;0.0;0;0.0;  1.0000000E+04;  0.0000000E+00;  0.0000000E+00;  1.0000000E+04;  0.0000000E+00;  1.0000000E+04;0.0;0.0;0.0;0.0
  2.1800001E+00;  9.9999998E-03; -1.8000001E-01;932;0.0;0.0;0.0;1000.0;  4.0000001E-01;0.0;0;0.0;0.0;0.0;0;0.0;  1.0000000E+04;  0.0000000E+00;  0.0000000E+00;  1.0000000E+04;  0.0000000E+00;  1.0000000E+04;0.0;0.0;0.0;0.0
  2.1800001E+00;  9.9999998E-03; -1.6000000E-01;933;0.0;0.0;0.0;1000.0;  4.0000001E-01;0.0;0;0.0;0.0;0.0;0;0.0;  1.0000000E+04;  0.0000000E+00;  0.0000000E+00;  1.0000000E+04;  0.0000000E+00;  1.0000000E+04;0.0;0.0;0.0;0.0
  2.1800001E+00;  9.9999998E-03; -1.4000000E-01;934;0.0;0.0;0.0;1000.0;  4.0000001E-01;0.0;0;0.0;0.0;0.0;0;0.0;  1.0000000E+04;  0.0000000E+00;  0.0000000E+00;  1.0000000E+04;  0.0000000E+00;  1.0000000E+04;0.0;0.0;0.0;0.0
  2.1800001E+00;  9.9999998E-03; -1.2000000E-01;935;0.0;0.0;0.0;1000.0;  4.0000001E-01;0.0;0;0.0;0.0;0.0;0;0.0;  1.0000000E+04;  0.0000000E+00;  0.0000000E+00;  1.0000000E+04;  0.0000000E+00;  1.0000000E+04;0.0;0.0;0.0;0.0
  2.1800001E+00;  9.9999998E-03; -1.0000000E-01;936;0.0;0.0;0.0;1000.0;  4.0000001E-01;0.0;0;0.0;0.0;0.0;0;0.0;  1.0000000E+04;  0.0000000E+00;  0.0000000E+00;  1.0000000E+04;  0.0000000E+00;  1.0000000E+04;0.0;0.0;0.0;0.0
  2.1800001E+00;  9.9999998E-03; -7.9999998E-02;937;0.0;0.0;0.0;1000.0;  4.0000001E-01;0.0;0;0.0;0.0;0.0;0;0.0;  1.0000000E+04;  0.0000000E+00;  0.0000000E+00;  1.0000000E+04;  0.0000000E+00;  1.0000000E+04;0.0;0.0;0.0;0.0
  2.1800001E+00;  9.9999998E-03; -5.9999999E-02;938;0.0;0.0;0.0;1000.0;  4.0000001E-01;0.0;0;0.0;0.0;0.0;0;0.0;  1.0000000E+04;  0.0000000E+00;  0.0000000E+00;  1.0000000E+04;  0.0000000E+00;  1.0000000E+04;0.0;0.0;0.0;0.0
  2.1800001E+00;  9.9999998E-03; -3.9999999E-02;939;0.0;0.0;0.0;1000.0;  4.0000001E-01;0.0;0;0.0;0.0;0.0;0;0.0;  1.0000000E+04;  0.0000000E+00;  0.0000000E+00;  1.0000000E+04;  0.0000000E+00;  1.0000000E+04;0.0;0.0;0.0;0.0
  2.1800001E+00;  9.9999998E-03; -2.0000000E-02;940;0.0;0.0;0.0;1000.0;  4.0000001E-01;0.0;0;0.0;0.0;0.0;0;0.0;  1.0000000E+04;  0.0000000E+00;  0.0000000E+00;  1.0000000E+04;  0.0000000E+00;  1.0000000E+04;0.0;0.0;0.0;0.0
  2.1800001E+00;  9.9999998E-03;  0.0000000E+00;941;0.0;0.0;0.0;1000.0;  4.0000001E-01;0.0;0;0.0;0.0;0.0;0;0.0;  1.0000000E+04;  0.0000000E+00;  0.0000000E+00;  1.0000000E+04;  0.0000000E+00;  1.0000000E+04;0.0;0.0;0.0;0.0
  2.1800001E+00;  9.9999998E-03;  2.0000000E-02;942;0.0;0.0;0.0;1000.0;  4.0000001E-01;0.0;0;0.0;0.0;0.0;0;0.0;  1.0000000E+04;  0.0000000E+00;  0.0000000E+00;  1.0000000E+04;  0.0000000E+00;  1.0000000E+04;0.0;0.0;0.0;0.0
  2.1800001E+00;  9.9999998E-03;  3.9999999E-02;943;0.0;0.0;0.0;1000.0;  4.0000001E-01;0.0;0;0.0;0.0;0.0;0;0.0;  1.0000000E+04;  0.0000000E+00;  0.0000000E+00;  1.0000000E+04;  0.0000000E+00;  1.0000000E+04;0.0;0.0;0.0;0.0
  2.1800001E+00;  9.9999998E-03;  5.9999999E-02;944;0.0;0.0;0.0;1000.0;  4.0000001E-01;0.0;0;0.0;0.0;0.0;0;0.0;  1.0000000E+04;  0.0000000E+00;  0.0000000E+00;  1.0000000E+04;  0.0000000E+00;  1.0000000E+04;0.0;0.0;0.0;0.0
  2.1800001E+00;  9.9999998E-03;  7.9999998E-02;945;0.0;0.0;0.0;1000.0;  4.0000001E-01;0.0;0;0.0;0.0;0.0;0;0.0;  1.0000000E+04;  0.0000000E+00;  0.0000000E+00;  1.0000000E+04;  0.0000000E+00;  1.0000000E+04;0.0;0.0;0.0;0.0
  2.1800001E+00;  9.9999998E-03;  1.0000000E-01;946;0.0;0.0;0.0;1000.0;  4.0000001E-01;0.0;0;0.0;0.0;0.0;0;0.0;  1.0000000E+04;  0.0000000E+00;  0.0000000E+00;  1.0000000E+04;  0.0000000E+00;  1.0000000E+04;0.0;0.0;0.0;0.0
  2.1800001E+00;  9.9999998E-03;  1.2000000E-01;947;0.0;0.0;0.0;1000.0;  4.0000001E-01;0.0;0;0.0;0.0;0.0;0;0.0;  1.0000000E+04;  0.0000000E+00;  0.0000000E+00;  1.0000000E+04;  0.0000000E+00;  1.0000000E+04;0.0;0.0;0.0;0.0
  2.1800001E+00;  9.9999998E-03;  1.4000000E-01;948;0.0;0.0;0.0;1000.0;  4.0000001E-01;0.0;0;0.0;0.0;0.0;0;0.0;  1.0000000E+04;  0.0000000E+00;  0.0000000E+00;  1.0000000E+04;  0.0000000E+00;  1.0000000E+04;0.0;0.0;0.0;0.0
  2.1800001E+00;  9.9999998E-03;  1.6000000E-01;949;0.0;0.0;0.0;1000.0;  4.0000001E-01;0.0;0;0.0;0.0;0.0;0;0.0;  1.0000000E+04;  0.0000000E+00;  0.0000000E+00;  1.0000000E+04;  0.0000000E+00;  1.0000000E+04;0.0;0.0;0.0;0.0
  2.1800001E+00;  9.9999998E-03;  1.8000001E-01;950;0.0;0.0;0.0;1000.0;  4.0000001E-01;0.0;0;0.0;0.0;0.0;0;0.0;  1.0000000E+04;  0.0000000E+00;  0.0000000E+00;  1.0000000E+04;  0.0000000E+00;  1.0000000E+04;0.0;0.0;0.0;0.0
  2.1800001E+00;  9.9999998E-03;  2.0000000E-01;951;0.0;0.0;0.0;1000.0;  4.0000001E-01;0.0;0;0.0;0.0;0.0;0;0.0;  1.0000000E+04;  0.0000000E+00;  0.0000000E+00;  1.0000000E+04;  0.0000000E+00;  1.0000000E+04;0.0;0.0;0.0;0.0
  2.1800001E+00;  9.9999998E-03;  2.2000000E-01;952;0.0;0.0;0.0;1000.0;  4.0000001E-01;0.0;0;0.0;0.0;0.0;0;0.0;  1.0000000E+04;  0.0000000E+00;  0.0000000E+00;  1.0000000E+04;  0.0000000E+00;  1.0000000E+04;0.0;0.0;0.0;0.0
  2.1800001E+00;  9.9999998E-03;  2.3999999E-01;953;0.0;0.0;0.0;1000.0;  4.0000001E-01;0.0;0;0.0;0.0;0.0;0;0.0;  1.0000000E+04;  0.0000000E+00;  0.0000000E+00;  1.0000000E+04;  0.0000000E+00;  1.0000000E+04;0.0;0.0;0.0;0.0
  2.1800001E+00;  9.9999998E-03;  2.5999999E-01;954;0.0;0.0;0.0;1000.0;  4.0000001E-01;0.0;0;0.0;0.0;0.0;0;0.0;  1.0000000E+04;  0.0000000E+00;  0.0000000E+00;  1.0000000E+04;  0.0000000E+00;  1.0000000E+04;0.0;0.0;0.0;0.0
  2.1800001E+00;  9.9999998E-03;  2.8000000E-01;955;0.0;0.0;0.0;1000.0;  4.0000001E-01;0.0;0;0.0;0.0;0.0;0;0.0;  1.0000000E+04;  0.0000000E+00;  0.0000000E+00;  1.0000000E+04;  0.0000000E+00;  1.0000000E+04;0.0;0.0;0.0;0.0
  2.1800001E+00;  9.9999998E-03;  3.0000001E-01;956;0.0;0.0;0.0;1000.0;  4.0000001E-01;0.0;0;0.0;0.0;0.0;0;0.0;  1.0000000E+04;  0.0000000E+00;  0.0000000E+00;  1.0000000E+04;  0.0000000E+00;  1.0000000E+04;0.0;0.0;0.0;0.0
  2.1800001E+00;  9.9999998E-03;  3.1999999E-01;957;0.0;0.0;0.0;1000.0;  4.0000001E-01;0.0;0;0.0;0.0;0.0;0;0.0;  1.0000000E+04;  0.0000000E+00;  0.0000000E+00;  1.0000000E+04;  0.0000000E+00;  1.0000000E+04;0.0;0.0;0.0;0.0
  2.1800001E+00;  9.9999998E-03;  3.4000000E-01;958;0.0;0.0;0.0;1000.0;  4.0000001E-01;0.0;0;0.0;0.0;0.0;0;0.0;  1.0000000E+04;  0.0000000E+00;  0.0000000E+00;  1.0000000E+04;  0.0000000E+00;  1.0000000E+04;0.0;0.0;0.0;0.0
  2.1800001E+00;  9.9999998E-03;  3.6000001E-01;959;0.0;0.0;0.0;1000.0;  4.0000001E-01;0.0;0;0.0;0.0;0.0;0;0.0;  1.0000000E+04;  0.0000000E+00;  0.0000000E+00;  1.0000000E+04;  0.0000000E+00;  1.0000000E+04;0.0;0.0;0.0;0.0
  2.1800001E+00;  9.9999998E-03;  3.8000000E-01;960;0.0;0.0;0.0;1000.0;  4.0000001E-01;0.0;0;0.0;0.0;0.0;0;0.0;  1.0000000E+04;  0.0000000E+00;  0.0000000E+00;  1.0000000E+04;  0.0000000E+00;  1.0000000E+04;0.0;0.0;0.0;0.0
  2.1800001E+00;  9.9999998E-03;  4.0000001E-01;961;0.0;0.0;0.0;1000.0;  4.0000001E-01;0.0;0;0.0;0.0;0.0;0;0.0;  1.0000000E+04;  0.0000000E+00;  0.0000000E+00;  1.0000000E+04;  0.0000000E+00;  1.0000000E+04;0.0;0.0;0.0;0.0
  2.2000000E+00;  9.9999998E-03; -7.9999998E-02;962;0.0;0.0;0.0;1000.0;  4.0000001E-01;0.0;0;0.0;0.0;0.0;0;0.0;  1.0000000E+04;  0.0000000E+00;  0.0000000E+00;  1.0000000E+04;  0.0000000E+00;  1.0000000E+04;0.0;0.0;0.0;0.0
  2.2000000E+00;  9.9999998E-03; -5.9999999E-02;963;0.0;0.0;0.0;1000.0;  4.0000001E-01;0.0;0;0.0;0.0;0.0;0;0.0;  1.0000000E+04;  0.0000000E+00;  0.0000000E+00;  1.0000000E+04;  0.0000000E+00;  1.0000000E+04;0.0;0.0;0.0;0.0
  2.2000000E+00;  9.9999998E-03; -3.9999999E-02;964;0.0;0.0;0.0;1000.0;  4.0000001E-01;0.0;0;0.0;0.0;0.0;0;0.0;  1.0000000E+04;  0.0000000E+00;  0.0000000E+00;  1.0000000E+04;  0.0000000E+00;  1.0000000E+04;0.0;0.0;0.0;0.0
  2.2000000E+00;  9.9999998E-03; -2.0000000E-02;965;0.0;0.0;0.0;1000.0;  4.0000001E-01;0.0;0;0.0;0.0;0.0;0;0.0;  1.0000000E+04;  0.0000000E+00;  0.0000000E+00;  1.0000000E+04;  0.0000000E+00;  1.0000000E+04;0.0;0.0;0.0;0.0
  2.2000000E+00;  9.9999998E-03;  0.0000000E+00;966;0.0;0.0;0.0;1000.0;  4.0000001E-01;0.0;0;0.0;0.0;0.0;0;0.0;  1.0000000E+04;  0.0000000E+00;  0.0000000E+00;  1.0000000E+04;  0.0000000E+00;  1.0000000E+04;0.0;0.0;0.0;0.0
  2.2000000E+00;  9.9999998E-03;  2.0000000E-02;967;0.0;0.0;0.0;1000.0;  4.0000001E-01;0.0;0;0.0;0.0;0.0;0;0.0;  1.0000000E+04;  0.0000000E+00;  0.0000000E+00;  1.0000000E+04;  0.0000000E+00;  1.0000000E+04;0.0;0.0;0.0;0.0
  2.2000000E+00;  9.9999998E-03;  3.9999999E-02;968;0.0;0.0;0.0;1000.0;  4.0000001E-01;0.0;0;0.0;0.0;0.0;0;0.0;  1.0000000E+04;  0.0000000E+00;  0.0000000E+00;  1.0000000E+04;  0.0000000E+00;  1.0000000E+04;0.0;0.0;0.0;0.0
  2.2000000E+00;  9.9999998E-03;  5.9999999E-02;969;0.0;0.0;0.0;1000.0;  4.0000001E-01;0.0;0;0.0;0.0;0.0;0;0.0;  1.0000000E+04;  0.0000000E+00;  0.0000000E+00;  1.0000000E+04;  0.0000000E+00;  1.0000000E+04;0.0;0.0;0.0;0.0
  2.2000000E+00;  9.9999998E-03;  7.9999998E-02;970;0.0;0.0;0.0;1000.0;  4.0000001E-01;0.0;0;0.0;0.0;0.0;0;0.0;  1.0000000E+04;  0.0000000E+00;  0.0000000E+00;  1.0000000E+04;  0.0000000E+00;  1.0000000E+04;0.0;0.0;0.0;0.0
  2.2000000E+00;  9.9999998E-03;  1.0000000E-01;971;0.0;0.0;0.0;1000.0;  4.0000001E-01;0.0;0;0.0;0.0;0.0;0;0.0;  1.0000000E+04;  0.0000000E+00;  0.0000000E+00;  1.0000000E+04;  0.0000000E+00;  1.0000000E+04;0.0;0.0;0.0;0.0
  2.2000000E+00;  9.9999998E-03;  1.2000000E-01;972;0.0;0.0;0.0;1000.0;  4.0000001E-01;0.0;0;0.0;0.0;0.0;0;0.0;  1.0000000E+04;  0.0000000E+00;  0.0000000E+00;  1.0000000E+04;  0.0000000E+00;  1.0000000E+04;0.0;0.0;0.0;0.0
  2.2000000E+00;  9.9999998E-03;  1.4000000E-01;973;0.0;0.0;0.0;1000.0;  4.0000001E-01;0.0;0;0.0;0.0;0.0;0;0.0;  1.0000000E+04;  0.0000000E+00;  0.0000000E+00;  1.0000000E+04;  0.0000000E+00;  1.0000000E+04;0.0;0.0;0.0;0.0
  2.2000000E+00;  9.9999998E-03;  1.6000000E-01;974;0.0;0.0;0.0;1000.0;  4.0000001E-01;0.0;0;0.0;0.0;0.0;0;0.0;  1.0000000E+04;  0.0000000E+00;  0.0000000E+00;  1.0000000E+04;  0.0000000E+00;  1.0000000E+04;0.0;0.0;0.0;0.0
  2.2000000E+00;  9.9999998E-03;  1.8000001E-01;975;0.0;0.0;0.0;1000.0;  4.0000001E-01;0.0;0;0.0;0.0;0.0;0;0.0;  1.0000000E+04;  0.0000000E+00;  0.0000000E+00;  1.0000000E+04;  0.0000000E+00;  1.0000000E+04;0.0;0.0;0.0;0.0
  2.2000000E+00;  9.9999998E-03;  2.0000000E-01;976;0.0;0.0;0.0;1000.0;  4.0000001E-01;0.0;0;0.0;0.0;0.0;0;0.0;  1.0000000E+04;  0.0000000E+00;  0.0000000E+00;  1.0000000E+04;  0.0000000E+00;  1.0000000E+04;0.0;0.0;0.0;0.0
  2.2000000E+00;  9.9999998E-03;  2.2000000E-01;977;0.0;0.0;0.0;1000.0;  4.0000001E-01;0.0;0;0.0;0.0;0.0;0;0.0;  1.0000000E+04;  0.0000000E+00;  0.0000000E+00;  1.0000000E+04;  0.0000000E+00;  1.0000000E+04;0.0;0.0;0.0;0.0
  2.2000000E+00;  9.9999998E-03;  2.3999999E-01;978;0.0;0.0;0.0;1000.0;  4.0000001E-01;0.0;0;0.0;0.0;0.0;0;0.0;  1.0000000E+04;  0.0000000E+00;  0.0000000E+00;  1.0000000E+04;  0.0000000E+00;  1.0000000E+04;0.0;0.0;0.0;0.0
  2.2000000E+00;  9.9999998E-03;  2.5999999E-01;979;0.0;0.0;0.0;1000.0;  4.0000001E-01;0.0;0;0.0;0.0;0.0;0;0.0;  1.0000000E+04;  0.0000000E+00;  0.0000000E+00;  1.0000000E+04;  0.0000000E+00;  1.0000000E+04;0.0;0.0;0.0;0.0
  2.2000000E+00;  9.9999998E-03;  2.8000000E-01;980;0.0;0.0;0.0;1000.0;  4.0000001E-01;0.0;0;0.0;0.0;0.0;0;0.0;  1.0000000E+04;  0.0000000E+00;  0.0000000E+00;  1.0000000E+04;  0.0000000E+00;  1.0000000E+04;0.0;0.0;0.0;0.0
  2.2000000E+00;  9.9999998E-03;  3.0000001E-01;981;0.0;0.0;0.0;1000.0;  4.0000001E-01;0.0;0;0.0;0.0;0.0;0;0.0;  1.0000000E+04;  0.0000000E+00;  0.0000000E+00;  1.0000000E+04;  0.0000000E+00;  1.0000000E+04;0.0;0.0;0.0;0.0
  2.2000000E+00;  9.9999998E-03;  3.1999999E-01;982;0.0;0.0;0.0;1000.0;  4.0000001E-01;0.0;0;0.0;0.0;0.0;0;0.0;  1.0000000E+04;  0.0000000E+00;  0.0000000E+00;  1.0000000E+04;  0.0000000E+00;  1.0000000E+04;0.0;0.0;0.0;0.0
  2.2000000E+00;  9.9999998E-03;  3.4000000E-01;983;0.0;0.0;0.0;1000.0;  4.0000001E-01;0.0;0;0.0;0.0;0.0;0;0.0;  1.0000000E+04;  0.0000000E+00;  0.0000000E+00;  1.0000000E+04;  0.0000000E+00;  1.0000000E+04;0.0;0.0;0.0;0.0
  2.2000000E+00;  9.9999998E-03;  3.6000001E-01;984;0.0;0.0;0.0;1000.0;  4.0000001E-01;0.0;0;0.0;0.0;0.0;0;0.0;  1.0000000E+04;  0.0000000E+00;  0.0000000E+00;  1.0000000E+04;  0.0000000E+00;  1.0000000E+04;0.0;0.0;0.0;0.0
  2.2000000E+00;  9.9999998E-03;  3.8000000E-01;985;0.0;0.0;0.0;1000.0;  4.0000001E-01;0.0;0;0.0;0.0;0.0;0;0.0;  1.0000000E+04;  0.0000000E+00;  0.0000000E+00;  1.0000000E+04;  0.0000000E+00;  1.0000000E+04;0.0;0.0;0.0;0.0
  2.2200000E+00;  9.9999998E-03;  2.0000000E-02;986;0.0;0.0;0.0;1000.0;  4.0000001E-01;0.0;0;0.0;0.0;0.0;0;0.0;  1.0000000E+04;  0.0000000E+00;  0.0000000E+00;  1.0000000E+04;  0.0000000E+00;  1.0000000E+04;0.0;0.0;0.0;0.0
  2.2200000E+00;  9.9999998E-03;  3.9999999E-02;987;0.0;0.0;0.0;1000.0;  4.0000001E-01;0.0;0;0.0;0.0;0.0;0;0.0;  1.0000000E+04;  0.0000000E+00;  0.0000000E+00;  1.0000000E+04;  0.0000000E+00;  1.0000000E+04;0.0;0.0;0.0;0.0
  2.2200000E+00;  9.9999998E-03;  5.9999999E-02;988;0.0;0.0;0.0;1000.0;  4.0000001E-01;0.0;0;0.0;0.0;0.0;0;0.0;  1.0000000E+04;  0.0000000E+00;  0.0000000E+00;  1.0000000E+04;  0.0000000E+00;  1.0000000E+04;0.0;0.0;0.0;0.0
  2.2200000E+00;  9.9999998E-03;  7.9999998E-02;989;0.0;0.0;0.0;1000.0;  4.0000001E-01;0.0;0;0.0;0.0;0.0;0;0.0;  1.0000000E+04;  0.0000000E+00;  0.0000000E+00;  1.0000000E+04;  0.0000000E+00;  1.0000000E+04;0.0;0.0;0.0;0.0
  2.2200000E+00;  9.9999998E-03;  1.0000000E-01;990;0.0;0.0;0.0;1000.0;  4.0000001E-01;0.0;0;0.0;0.0;0.0;0;0.0;  1.0000000E+04;  0.0000000E+00;  0.0000000E+00;  1.0000000E+04;  0.0000000E+00;  1.0000000E+04;0.0;0.0;0.0;0.0
  2.2200000E+00;  9.9999998E-03;  1.2000000E-01;991;0.0;0.0;0.0;1000.0;  4.0000001E-01;0.0;0;0.0;0.0;0.0;0;0.0;  1.0000000E+04;  0.0000000E+00;  0.0000000E+00;  1.0000000E+04;  0.0000000E+00;  1.0000000E+04;0.0;0.0;0.0;0.0
  2.2200000E+00;  9.9999998E-03;  1.4000000E-01;992;0.0;0.0;0.0;1000.0;  4.0000001E-01;0.0;0;0.0;0.0;0.0;0;0.0;  1.0000000E+04;  0.0000000E+00;  0.0000000E+00;  1.0000000E+04;  0.0000000E+00;  1.0000000E+04;0.0;0.0;0.0;0.0
  2.2200000E+00;  9.9999998E-03;  1.6000000E-01;993;0.0;0.0;0.0;1000.0;  4.0000001E-01;0.0;0;0.0;0.0;0.0;0;0.0;  1.0000000E+04;  0.0000000E+00;  0.0000000E+00;  1.0000000E+04;  0.0000000E+00;  1.0000000E+04;0.0;0.0;0.0;0.0
  2.2200000E+00;  9.9999998E-03;  1.8000001E-01;994;0.0;0.0;0.0;1000.0;  4.0000001E-01;0.0;0;0.0;0.0;0.0;0;0.0;  1.0000000E+04;  0.0000000E+00;  0.0000000E+00;  1.0000000E+04;  0.0000000E+00;  1.0000000E+04;0.0;0.0;0.0;0.0
  2.2200000E+00;  9.9999998E-03;  2.0000000E-01;995;0.0;0.0;0.0;1000.0;  4.0000001E-01;0.0;0;0.0;0.0;0.0;0;0.0;  1.0000000E+04;  0.0000000E+00;  0.0000000E+00;  1.0000000E+04;  0.0000000E+00;  1.0000000E+04;0.0;0.0;0.0;0.0
  2.2200000E+00;  9.9999998E-03;  2.2000000E-01;996;0.0;0.0;0.0;1000.0;  4.0000001E-01;0.0;0;0.0;0.0;0.0;0;0.0;  1.0000000E+04;  0.0000000E+00;  0.0000000E+00;  1.0000000E+04;  0.0000000E+00;  1.0000000E+04;0.0;0.0;0.0;0.0
  2.2200000E+00;  9.9999998E-03;  2.3999999E-01;997;0.0;0.0;0.0;1000.0;  4.0000001E-01;0.0;0;0.0;0.0;0.0;0;0.0;  1.0000000E+04;  0.0000000E+00;  0.0000000E+00;  1.0000000E+04;  0.0000000E+00;  1.0000000E+04;0.0;0.0;0.0;0.0
  2.2200000E+00;  9.9999998E-03;  2.5999999E-01;998;0.0;0.0;0.0;1000.0;  4.0000001E-01;0.0;0;0.0;0.0;0.0;0;0.0;  1.0000000E+04;  0.0000000E+00;  0.0000000E+00;  1.0000000E+04;  0.0000000E+00;  1.0000000E+04;0.0;0.0;0.0;0.0
  2.2200000E+00;  9.9999998E-03;  2.8000000E-01;999;0.0;0.0;0.0;1000.0;  4.0000001E-01;0.0;0;0.0;0.0;0.0;0;0.0;  1.0000000E+04;  0.0000000E+00;  0.0000000E+00;  1.0000000E+04;  0.0000000E+00;  1.0000000E+04;0.0;0.0;0.0;0.0
  2.2200000E+00;  9.9999998E-03;  3.0000001E-01;1000;0.0;0.0;0.0;1000.0;  4.0000001E-01;0.0;0;0.0;0.0;0.0;0;0.0;  1.0000000E+04;  0.0000000E+00;  0.0000000E+00;  1.0000000E+04;  0.0000000E+00;  1.0000000E+04;0.0;0.0;0.0;0.0
  2.2200000E+00;  9.9999998E-03;  3.1999999E-01;1001;0.0;0.0;0.0;1000.0;  4.0000001E-01;0.0;0;0.0;0.0;0.0;0;0.0;  1.0000000E+04;  0.0000000E+00;  0.0000000E+00;  1.0000000E+04;  0.0000000E+00;  1.0000000E+04;0.0;0.0;0.0;0.0
  2.2200000E+00;  9.9999998E-03;  3.4000000E-01;1002;0.0;0.0;0.0;1000.0;  4.0000001E-01;0.0;0;0.0;0.0;0.0;0;0.0;  1.0000000E+04;  0.0000000E+00;  0.0000000E+00;  1.0000000E+04;  0.0000000E+00;  1.0000000E+04;0.0;0.0;0.0;0.0
  2.2200000E+00;  9.9999998E-03;  3.6000001E-01;1003;0.0;0.0;0.0;1000.0;  4.0000001E-01;0.0;0;0.0;0.0;0.0;0;0.0;  1.0000000E+04;  0.0000000E+00;  0.0000000E+00;  1.0000000E+04;  0.0000000E+00;  1.0000000E+04;0.0;0.0;0.0;0.0
  2.2200000E+00;  9.9999998E-03;  3.8000000E-01;1004;0.0;0.0;0.0;1000.0;  4.0000001E-01;0.0;0;0.0;0.0;0.0;0;0.0;  1.0000000E+04;  0.0000000E+00;  0.0000000E+00;  1.0000000E+04;  0.0000000E+00;  1.0000000E+04;0.0;0.0;0.0;0.0
  2.2400000E+00;  9.9999998E-03;  1.2000000E-01;1005;0.0;0.0;0.0;1000.0;  4.0000001E-01;0.0;0;0.0;0.0;0.0;0;0.0;  1.0000000E+04;  0.0000000E+00;  0.0000000E+00;  1.0000000E+04;  0.0000000E+00;  1.0000000E+04;0.0;0.0;0.0;0.0
  2.2400000E+00;  9.9999998E-03;  1.4000000E-01;1006;0.0;0.0;0.0;1000.0;  4.0000001E-01;0.0;0;0.0;0.0;0.0;0;0.0;  1.0000000E+04;  0.0000000E+00;  0.0000000E+00;  1.0000000E+04;  0.0000000E+00;  1.0000000E+04;0.0;0.0;0.0;0.0
  2.2400000E+00;  9.9999998E-03;  1.6000000E-01;1007;0.0;0.0;0.0;1000.0;  4.0000001E-01;0.0;0;0.0;0.0;0.0;0;0.0;  1.0000000E+04;  0.0000000E+00;  0.0000000E+00;  1.0000000E+04;  0.0000000E+00;  1.0000000E+04;0.0;0.0;0.0;0.0
  2.2400000E+00;  9.9999998E-03;  1.8000001E-01;1008;0.0;0.0;0.0;1000.0;  4.0000001E-01;0.0;0;0.0;0.0;0.0;0;0.0;  1.0000000E+04;  0.0000000E+00;  0.0000000E+00;  1.0000000E+04;  0.0000000E+00;  1.0000000E+04;0.0;0.0;0.0;0.0
  2.2400000E+00;  9.9999998E-03;  2.0000000E-01;1009;0.0;0.0;0.0;1000.0;  4.0000001E-01;0.0;0;0.0;0.0;0.0;0;0.0;  1.0000000E+04;  0.0000000E+00;  0.0000000E+00;  1.0000000E+04;  0.0000000E+00;  1.0000000E+04;0.0;0.0;0.0;0.0
  2.2400000E+00;  9.9999998E-03;  2.2000000E-01;1010;0.0;0.0;0.0;1000.0;  4.0000001E-01;0.0;0;0.0;0.0;0.0;0;0.0;  1.0000000E+04;  0.0000000E+00;  0.0000000E+00;  1.0000000E+04;  0.0000000E+00;  1.0000000E+04;0.0;0.0;0.0;0.0
  2.2400000E+00;  9.9999998E-03;  2.3999999E-01;1011;0.0;0.0;0.0;1000.0;  4.0000001E-01;0.0;0;0.0;0.0;0.0;0;0.0;  1.0000000E+04;  0.0000000E+00;  0.0000000E+00;  1.0000000E+04;  0.0000000E+00;  1.0000000E+04;0.0;0.0;0.0;0.0
  2.2400000E+00;  9.9999998E-03;  2.5999999E-01;1012;0.0;0.0;0.0;1000.0;  4.0000001E-01;0.0;0;0.0;0.0;0.0;0;0.0;  1.0000000E+04;  0.0000000E+00;  0.0000000E+00;  1.0000000E+04;  0.0000000E+00;  1.0000000E+04;0.0;0.0;0.0;0.0
  2.2400000E+00;  9.9999998E-03;  2.8000000E-01;1013;0.0;0.0;0.0;1000.0;  4.0000001E-01;0.0;0;0.0;0.0;0.0;0;0.0;  1.0000000E+04;  0.0000000E+00;  0.0000000E+00;  1.0000000E+04;  0.0000000E+00;  1.0000000E+04;0.0;0.0;0.0;0.0
  2.2400000E+00;  9.9999998E-03;  3.0000001E-01;1014;0.0;0.0;0.0;1000.0;  4.0000001E-01;0.0;0;0.0;0.0;0.0;0;0.0;  1.0000000E+04;  0.0000000E+00;  0.0000000E+00;  1.0000000E+04;  0.0000000E+00;  1.0000000E+04;0.0;0.0;0.0;0.0
  2.2400000E+00;  9.9999998E-03;  3.1999999E-01;1015;0.0;0.0;0.0;1000.0;  4.0000001E-01;0.0;0;0.0;0.0;0.0;0;0.0;  1.0000000E+04;  0.0000000E+00;  0.0000000E+00;  1.0000000E+04;  0.0000000E+00;  1.0000000E+04;0.0;0.0;0.0;0.0
  2.2400000E+00;  9.9999998E-03;  3.4000000E-01;1016;0.0;0.0;0.0;1000.0;  4.0000001E-01;0.0;0;0.0;0.0;0.0;0;0.0;  1.0000000E+04;  0.0000000E+00;  0.0000000E+00;  1.0000000E+04;  0.0000000E+00;  1.0000000E+04;0.0;0.0;0.0;0.0
  2.2400000E+00;  9.9999998E-03;  3.6000001E-01;1017;0.0;0.0;0.0;1000.0;  4.0000001E-01;0.0;0;0.0;0.0;0.0;0;0.0;  1.0000000E+04;  0.0000000E+00;  0.0000000E+00;  1.0000000E+04;  0.0000000E+00;  1.0000000E+04;0.0;0.0;0.0;0.0
  2.2400000E+00;  9.9999998E-03;  3.8000000E-01;1018;0.0;0.0;0.0;1000.0;  4.0000001E-01;0.0;0;0.0;0.0;0.0;0;0.0;  1.0000000E+04;  0.0000000E+00;  0.0000000E+00;  1.0000000E+04;  0.0000000E+00;  1.0000000E+04;0.0;0.0;0.0;0.0
  2.2600000E+00;  9.9999998E-03;  2.2000000E-01;1019;0.0;0.0;0.0;1000.0;  4.0000001E-01;0.0;0;0.0;0.0;0.0;0;0.0;  1.0000000E+04;  0.0000000E+00;  0.0000000E+00;  1.0000000E+04;  0.0000000E+00;  1.0000000E+04;0.0;0.0;0.0;0.0
  2.2600000E+00;  9.9999998E-03;  2.3999999E-01;1020;0.0;0.0;0.0;1000.0;  4.0000001E-01;0.0;0;0.0;0.0;0.0;0;0.0;  1.0000000E+04;  0.0000000E+00;  0.0000000E+00;  1.0000000E+04;  0.0000000E+00;  1.0000000E+04;0.0;0.0;0.0;0.0
  2.2600000E+00;  9.9999998E-03;  2.5999999E-01;1021;0.0;0.0;0.0;1000.0;  4.0000001E-01;0.0;0;0.0;0.0;0.0;0;0.0;  1.0000000E+04;  0.0000000E+00;  0.0000000E+00;  1.0000000E+04;  0.0000000E+00;  1.0000000E+04;0.0;0.0;0.0;0.0
  2.2600000E+00;  9.9999998E-03;  2.8000000E-01;1022;0.0;0.0;0.0;1000.0;  4.0000001E-01;0.0;0;0.0;0.0;0.0;0;0.0;  1.0000000E+04;  0.0000000E+00;  0.0000000E+00;  1.0000000E+04;  0.0000000E+00;  1.0000000E+04;0.0;0.0;0.0;0.0
  2.2600000E+00;  9.9999998E-03;  3.0000001E-01;1023;0.0;0.0;0.0;1000.0;  4.0000001E-01;0.0;0;0.0;0.0;0.0;0;0.0;  1.0000000E+04;  0.0000000E+00;  0.0000000E+00;  1.0000000E+04;  0.0000000E+00;  1.0000000E+04;0.0;0.0;0.0;0.0
  2.2600000E+00;  9.9999998E-03;  3.1999999E-01;1024;0.0;0.0;0.0;1000.0;  4.0000001E-01;0.0;0;0.0;0.0;0.0;0;0.0;  1.0000000E+04;  0.0000000E+00;  0.0000000E+00;  1.0000000E+04;  0.0000000E+00;  1.0000000E+04;0.0;0.0;0.0;0.0
  2.2600000E+00;  9.9999998E-03;  3.4000000E-01;1025;0.0;0.0;0.0;1000.0;  4.0000001E-01;0.0;0;0.0;0.0;0.0;0;0.0;  1.0000000E+04;  0.0000000E+00;  0.0000000E+00;  1.0000000E+04;  0.0000000E+00;  1.0000000E+04;0.0;0.0;0.0;0.0
  2.2600000E+00;  9.9999998E-03;  3.6000001E-01;1026;0.0;0.0;0.0;1000.0;  4.0000001E-01;0.0;0;0.0;0.0;0.0;0;0.0;  1.0000000E+04;  0.0000000E+00;  0.0000000E+00;  1.0000000E+04;  0.0000000E+00;  1.0000000E+04;0.0;0.0;0.0;0.0
  2.2600000E+00;  9.9999998E-03;  3.8000000E-01;1027;0.0;0.0;0.0;1000.0;  4.0000001E-01;0.0;0;0.0;0.0;0.0;0;0.0;  1.0000000E+04;  0.0000000E+00;  0.0000000E+00;  1.0000000E+04;  0.0000000E+00;  1.0000000E+04;0.0;0.0;0.0;0.0
  2.2800000E+00;  9.9999998E-03;  3.1999999E-01;1028;0.0;0.0;0.0;1000.0;  4.0000001E-01;0.0;0;0.0;0.0;0.0;0;0.0;  1.0000000E+04;  0.0000000E+00;  0.0000000E+00;  1.0000000E+04;  0.0000000E+00;  1.0000000E+04;0.0;0.0;0.0;0.0
  2.2800000E+00;  9.9999998E-03;  3.4000000E-01;1029;0.0;0.0;0.0;1000.0;  4.0000001E-01;0.0;0;0.0;0.0;0.0;0;0.0;  1.0000000E+04;  0.0000000E+00;  0.0000000E+00;  1.0000000E+04;  0.0000000E+00;  1.0000000E+04;0.0;0.0;0.0;0.0
  2.2800000E+00;  9.9999998E-03;  3.6000001E-01;1030;0.0;0.0;0.0;1000.0;  4.0000001E-01;0.0;0;0.0;0.0;0.0;0;0.0;  1.0000000E+04;  0.0000000E+00;  0.0000000E+00;  1.0000000E+04;  0.0000000E+00;  1.0000000E+04;0.0;0.0;0.0;0.0
 -2.8110534E-07;  9.9999998E-03; -2.8000012E-01;1031;-0.00032152739;0.0;-0.00012283049;1000.0066;  4.0000001E-01;5.4319444;3;-0.34246713;0.0;-0.13095063;0;-0.0065271258;  1.0000122E+04;  0.0000000E+00; -6.2104681E-09;  1.0000000E+04;  0.0000000E+00;  1.0000010E+04;-0.0060451054;0.0;-0.00048202052;3.8142529
 -3.4039050E-07;  9.9999998E-03; -2.6000011E-01;1032;-0.00038994011;0.0;-0.00011822875;1000.0078;  4.0000001E-01;6.4195704;3;-0.40435994;0.0;-0.1223186;0;-0.0077759861;  1.0000154E+04;  0.0000000E+00; -1.1718015E-09;  1.0000000E+04;  0.0000000E+00;  1.0000004E+04;-0.0075727412;0.0;-0.00020324472;1.3276767
 -3.9040947E-07;  9.9999998E-03; -2.4000010E-01;1033;-0.00044760638;0.0;-0.00010677429;1000.0089;  4.0000001E-01;7.407197;3;-0.45553219;0.0;-0.10798903;0;-0.0088001713;  1.0000180E+04;  0.0000000E+00;  4.2247794E-10;  1.0000000E+04;  0.0000000E+00;  1.0000000E+04;-0.0088753048;0.0;7.5133285e-05;1.1411517
 -4.2942628E-07;  9.9999998E-03; -2.2000009E-01;1034;-0.00049231987;0.0;-9.2398281e-05;1000.0098;  4.0000001E-01;8.0985355;3;-0.49564409;0.0;-0.09170343;0;-0.0096059861;  1.0000201E+04;  0.0000000E+00;  6.4301126E-10;  1.0000000E+04;  0.0000000E+00;  9.9999951E+03;-0.0098928362;0.0;0.00028685038;3.026737
 -4.5883741E-07;  9.9999998E-03; -2.0000006E-01;1035;-0.00052552676;0.0;-7.6513315e-05;1000.0103;  4.0000001E-01;8.5923481;3;-0.52610469;0.0;-0.074758068;0;-0.010223907;  1.0000215E+04;  0.0000000E+00;  7.5474092E-11;  1.0000000E+04;  0.0000000E+00;  9.9999932E+03;-0.010632218;0.0;0.00040831001;4.131732
  1.9999711E-02;  9.9999998E-03; -3.0000013E-01;1060;-0.00032582684;0.0;-0.00016473708;1000.0067;  4.0000001E-01;5.5307069;3;-0.34240824;0.0;-0.17372316;0;-0.0064994656;  1.0000113E+04;  0.0000000E+00; -1.1773866E-08;  1.0000000E+04;  0.0000000E+00;  1.0000019E+04;-0.0056037507;0.0;-0.00089571462;7.6183181
  1.9999599E-02;  9.9999998E-03; -2.8000015E-01;1061;-0.00045286011;0.0;-0.00015516358;1000.0085;  4.0000001E-01;7.0121465;3;-0.45694864;0.0;-0.15520242;0;-0.0082038501;  1.0000155E+04;  0.0000000E+00; -3.4802168E-09;  1.0000000E+04;  0.0000000E+00;  1.0000013E+04;-0.0075721066;0.0;-0.00063174352;5.160459
  1.9999506E-02;  9.9999998E-03; -2.6000014E-01;1062;-0.00056094036;0.0;-0.00015295969;1000.0099;  4.0000001E-01;8.197298;3;-0.54680192;0.0;-0.14735439;0;-0.0096717691;  1.0000193E+04;  0.0000000E+00;  3.4406797E-09;  1.0000000E+04;  0.0000000E+00;  1.0000005E+04;-0.009422427;0.0;-0.00024934238;1.6916744
  1.9999430E-02;  9.9999998E-03; -2.4000013E-01;1063;-0.00064781046;0.0;-0.00014142774;1000.0111;  4.0000001E-01;9.1849241;3;-0.61661363;0.0;-0.13232134;0;-0.010858393;  1.0000225E+04;  0.0000000E+00;  4.8696740E-09;  1.0000000E+04;  0.0000000E+00;  9.9999980E+03;-0.01098194;0.0;0.00012354684;1.6789751
  1.9999372E-02;  9.9999998E-03; -2.2000012E-01;1064;-0.00071313273;0.0;-0.00012429638;1000.0121;  4.0000001E-01;9.9750252;3;-0.66943622;0.0;-0.11376949;0;-0.011777732;  1.0000249E+04;  0.0000000E+00;  3.3517629E-09;  1.0000000E+04;  0.0000000E+00;  9.9999932E+03;-0.01218101;0.0;0.00040327862;4.2196794
  1.9999331E-02;  9.9999998E-03; -2.0000009E-01;1065;-0.0007600133;0.0;-0.00010386558;1000.0128;  4.0000001E-01;10.567601;3;-0.70847678;0.0;-0.093449123;0;-0.012472373;  1.0000269E+04;  0.0000000E+00;  1.5344707E-09;  1.0000000E+04;  0.0000000E+00;  9.9999902E+03;-0.013033794;0.0;0.00056142057;5.6867499
  3.9999586E-02;  9.9999998E-03; -3.0000016E-01;1091;-0.00046097412;0.0;-0.00018924702;1000.0082;  4.0000001E-01;6.814621;3;-0.46665269;0.0;-0.18905777;0;-0.0079189735;  1.0000143E+04;  0.0000000E+00; -1.2721611E-08;  1.0000000E+04;  0.0000000E+00;  1.0000024E+04;-0.006794339;0.0;-0.0011246343;9.8762417
  3.9999429E-02;  9.9999998E-03; -2.8000018E-01;1092;-0.0006388505;0.0;-0.00018380028;1000.0104;  4.0000001E-01;8.5923481;3;-0.61563087;0.0;-0.17205441;0;-0.0099101607;  1.0000191E+04;  0.0000000E+00; -7.1938744E-09;  1.0000000E+04;  0.0000000E+00;  1.0000017E+04;-0.0091439318;0.0;-0.00076622923;6.4853201
  3.9999295E-02;  9.9999998E-03; -2.6000017E-01;1093;-0.00079043419;0.0;-0.00017922051;1000.0121;  4.0000001E-01;10.073788;3;-0.73098457;0.0;-0.15982085;0;-0.011603631;  1.0000237E+04;  0.0000000E+00;  2.6328366E-09;  1.0000000E+04;  0.0000000E+00;  1.0000006E+04;-0.01132359;0.0;-0.00028004101;1.9617029
  3.9999187E-02;  9.9999998E-03; -2.4000016E-01;1094;-0.00091273949;0.0;-0.00016547542;1000.0136;  4.0000001E-01;11.258939;3;-0.82050514;0.0;-0.14254645;0;-0.012943754;  1.0000274E+04;  0.0000000E+00;  5.5264811E-09;  1.0000000E+04;  0.0000000E+00;  9.9999971E+03;-0.013126882;0.0;0.00018312735;2.3428953
  3.9999109E-02;  9.9999998E-03; -2.2000013E-01;1095;-0.0010031268;0.0;-0.00014658447;1000.0146;  4.0000001E-01;12.147802;3;-0.88720274;0.0;-0.12331606;0;-0.013956234;  1.0000305E+04;  0.0000000E+00;  5.4444036E-09;  1.0000000E+04;  0.0000000E+00;  9.9999902E+03;-0.014481;0.0;0.00052476535;5.53686
  3.9999053E-02;  9.9999998E-03; -2.0000012E-01;1096;-0.0010665925;0.0;-0.00012301549;1000.0154;  4.0000001E-01;12.740378;3;-0.93589187;0.0;-0.10160118;0;-0.01470114;  1.0000323E+04;  0.0000000E+00;  2.8177536E-09;  1.0000000E+04;  0.0000000E+00;  9.9999863E+03;-0.015414691;0.0;0.00071355014;7.3423796
  5.9999425E-02;  9.9999998E-03; -3.0000019E-01;1122;-0.00063165557;0.0;-0.00021331891;1000.0101;  4.0000001E-01;8.3948231;3;-0.62095892;0.0;-0.2018646;0;-0.0094894823;  1.0000174E+04;  0.0000000E+00; -1.4268724E-06;  1.0000000E+04;  0.0000000E+00;  1.0000029E+04;-0.008158559;0.0;-0.0013309233;12.13305
  5.9999213E-02;  9.9999998E-03; -2.8000021E-01;1123;-0.00087191974;0.0;-0.0002060832;1000.0128;  4.0000001E-01;10.567601;3;-0.81023097;0.0;-0.18035454;0;-0.011816995;  1.0000233E+04;  0.0000000E+00; -3.8836899E-07;  1.0000000E+04;  0.0000000E+00;  1.0000019E+04;-0.010936228;0.0;-0.00088076771;7.7569242
  5.9999034E-02;  9.9999998E-03; -2.6000020E-01;1124;-0.0010731786;0.0;-0.00020066465;1000.0148;  4.0000001E-01;12.246566;3;-0.95197433;0.0;-0.16597247;0;-0.013769921;  1.0000287E+04;  0.0000000E+00; -9.8335233E-09;  1.0000000E+04;  0.0000000E+00;  1.0000007E+04;-0.013476447;0.0;-0.00029347377;2.1076839
  5.9998889E-02;  9.9999998E-03; -2.4000017E-01;1125;-0.0012339161;0.0;-0.00018488913;1000.0165;  4.0000001E-01;13.629242;3;-1.0604143;0.0;-0.14712375;0;-0.015279995;  1.0000333E+04;  0.0000000E+00; -1.7387844E-09;  1.0000000E+04;  0.0000000E+00;  9.9999961E+03;-0.015533303;0.0;0.00025330775;3.1614871
  5.9998784E-02;  9.9999998E-03; -2.2000016E-01;1126;-0.0013513721;0.0;-0.00016348033;1000.0176;  4.0000001E-01;14.518106;3;-1.1408813;0.0;-0.1266831;0;-0.016385358;  1.0000368E+04;  0.0000000E+00;  1.7496445E-09;  1.0000000E+04;  0.0000000E+00;  9.9999863E+03;-0.017033201;0.0;0.00064784335;6.9954996
  5.9998710E-02;  9.9999998E-03; -2.0000014E-01;1127;-0.0014320175;0.0;-0.000137041;1000.0185;  4.0000001E-01;15.308207;3;-1.198848;0.0;-0.1040822;0;-0.017168466;  1.0000388E+04;  0.0000000E+00;  1.9838891E-09;  1.0000000E+04;  0.0000000E+00;  9.9999814E+03;-0.018027108;0.0;0.00085864129;9.1005878
  7.9999223E-02;  9.9999998E-03; -3.0000025E-01;1153;-0.0008410064;0.0;-0.00024083522;1000.0127;  4.0000001E-01;10.468838;3;-0.80788708;0.0;-0.21652293;0;-0.011424542;  1.0000217E+04;  0.0000000E+00; -1.5545574E-04;  1.0000000E+04;  0.0000000E+00;  1.0000034E+04;-0.009906115;0.0;-0.0015184273;14.460812
  7.9998940E-02;  9.9999998E-03; -2.8000024E-01;1154;-0.0011546606;0.0;-0.00022646305;1000.0156;  4.0000001E-01;12.937903;3;-1.0435152;0.0;-0.18552262;0;-0.014147424;  1.0000290E+04;  0.0000000E+00; -8.7327193E-05;  1.0000000E+04;  0.0000000E+00;  1.0000022E+04;-0.013170604;0.0;-0.00097682071;8.9964571
  7.9998709E-02;  9.9999998E-03; -2.6000023E-01;1155;-0.0014121545;0.0;-0.00021859037;1000.0179;  4.0000001E-01;14.913157;3;-1.2138517;0.0;-0.16788751;0;-0.016395921;  1.0000353E+04;  0.0000000E+00; -3.0405261E-05;  1.0000000E+04;  0.0000000E+00;  1.0000007E+04;-0.016105579;0.0;-0.00029034127;2.1168597
  7.9998523E-02;  9.9999998E-03; -2.4000020E-01;1156;-0.0016141946;0.0;-0.00020021503;1000.02;  4.0000001E-01;16.493359;3;-1.3413072;0.0;-0.14733183;0;-0.018098477;  1.0000405E+04;  0.0000000E+00; -3.3141896E-06;  1.0000000E+04;  0.0000000E+00;  9.9999941E+03;-0.018432632;0.0;0.0003341554;4.1770897
  7.9998396E-02;  9.9999998E-03; -2.2000018E-01;1157;-0.0017591817;0.0;-0.00017620414;1000.0214;  4.0000001E-01;17.678509;3;-1.4347936;0.0;-0.12583156;0;-0.019306714;  1.0000441E+04;  0.0000000E+00; -1.2217739E-08;  1.0000000E+04;  0.0000000E+00;  9.9999834E+03;-0.020080084;0.0;0.0007733698;8.655158
  7.9998299E-02;  9.9999998E-03; -2.0000015E-01;1158;-0.0018562705;0.0;-0.00014696232;1000.0221;  4.0000001E-01;18.271086;3;-1.5010567;0.0;-0.1025444;0;-0.020123363;  1.0000465E+04;  0.0000000E+00; -3.8720538E-09;  1.0000000E+04;  0.0000000E+00;  9.9999805E+03;-0.021121657;0.0;0.00099829317;11.030812
  9.9998973E-02;  9.9999998E-03; -3.0000028E-01;1184;-0.0010990165;0.0;-0.00027494057;1000.0159;  4.0000001E-01;13.135429;3;-1.0358486;0.0;-0.23626149;0;-0.014135672;  1.0000279E+04;  0.0000000E+00; -1.4405190E-03;  1.0000000E+04;  0.0000000E+00;  1.0000040E+04;-0.012434326;0.0;-0.0017013457;18.339523
  9.9998601E-02;  9.9999998E-03; -2.8000027E-01;1185;-0.0014984782;0.0;-0.00024727482;1000.0195;  4.0000001E-01;16.197071;3;-1.3248149;0.0;-0.18941534;0;-0.017273648;  1.0000362E+04;  0.0000000E+00; -9.1516087E-04;  1.0000000E+04;  0.0000000E+00;  1.0000026E+04;-0.016211824;0.0;-0.0010618237;11.154155
  9.9998310E-02;  9.9999998E-03; -2.6000026E-01;1186;-0.0018185655;0.0;-0.00023415632;1000.0224;  4.0000001E-01;18.567373;3;-1.5255207;0.0;-0.16647422;0;-0.019785307;  1.0000440E+04;  0.0000000E+00; -4.2411144E-04;  1.0000000E+04;  0.0000000E+00;  1.0000007E+04;-0.01951422;0.0;-0.0002710871;2.8374481
  9.9998079E-02;  9.9999998E-03; -2.4000023E-01;1187;-0.0020644183;0.0;-0.00021221029;1000.0244;  4.0000001E-01;20.147575;3;-1.6717142;0.0;-0.14375511;0;-0.021640936;  1.0000499E+04;  0.0000000E+00; -1.1762785E-04;  1.0000000E+04;  0.0000000E+00;  9.9999922E+03;-0.022070294;0.0;0.00042935763;5.5186424
  9.9997923E-02;  9.9999998E-03; -2.2000021E-01;1188;-0.0022367369;0.0;-0.00018588369;1000.0259;  4.0000001E-01;21.530252;3;-1.7768871;0.0;-0.12179267;0;-0.022928562;  1.0000536E+04;  0.0000000E+00; -1.3216434E-05;  1.0000000E+04;  0.0000000E+00;  9.9999814E+03;-0.023836019;0.0;0.00090745691;10.638794
  9.9997811E-02;  9.9999998E-03; -2.0000017E-01;1189;-0.0023488468;0.0;-0.00015428079;1000.0269;  4.0000001E-01;22.320353;3;-1.84992;0.0;-0.098271564;0;-0.023766683;  1.0000564E+04;  0.0000000E+00; -1.5403533E-08;  1.0000000E+04;  0.0000000E+00;  9.9999756E+03;-0.024907826;0.0;0.0011411416;13.273849
  1.1999864E-01;  9.9999998E-03; -3.0000034E-01;1215;-0.0014218631;0.0;-0.00032043247;1000.0211;  4.0000001E-01;17.480984;3;-1.3173522;0.0;-0.26442277;0;-0.018293476;  1.0000374E+04;  0.0000000E+00; -6.3646175E-03;  1.0000000E+04;  0.0000000E+00;  1.0000048E+04;-0.016393328;0.0;-0.0019001471;36.993179
  1.1999818E-01;  9.9999998E-03; -2.8000030E-01;1216;-0.0019208901;0.0;-0.0002724583;1000.0251;  4.0000001E-01;20.74015;3;-1.6659019;0.0;-0.1952436;0;-0.02177885;  1.0000474E+04;  0.0000000E+00; -4.3717348E-03;  1.0000000E+04;  0.0000000E+00;  1.0000028E+04;-0.020635016;0.0;-0.0011438343;24.359608
  1.1999781E-01;  9.9999998E-03; -2.6000029E-01;1217;-0.0023099235;0.0;-0.0002504474;1000.0283;  4.0000001E-01;23.505505;3;-1.8974004;0.0;-0.16385251;0;-0.02436118;  1.0000556E+04;  0.0000000E+00; -2.2080403E-03;  1.0000000E+04;  0.0000000E+00;  1.0000007E+04;-0.024133576;0.0;-0.00022760342;10.972116
  1.1999754E-01;  9.9999998E-03; -2.4000025E-01;1218;-0.0026021469;0.0;-0.00022325799;1000.0302;  4.0000001E-01;24.986944;3;-2.0611634;0.0;-0.13781703;0;-0.026190933;  1.0000616E+04;  0.0000000E+00; -7.7204534E-04;  1.0000000E+04;  0.0000000E+00;  9.9999893E+03;-0.026748493;0.0;0.00055756042;8.313199
  1.1999734E-01;  9.9999998E-03; -2.2000022E-01;1219;-0.002801151;0.0;-0.00019531728;1000.0317;  4.0000001E-01;26.270859;3;-2.1757019;0.0;-0.11630115;0;-0.027438207;  1.0000660E+04;  0.0000000E+00; -1.5559621E-04;  1.0000000E+04;  0.0000000E+00;  9.9999756E+03;-0.028510116;0.0;0.0010719094;13.276748
  1.1999722E-01;  9.9999998E-03; -2.0000020E-01;1220;-0.0029266377;0.0;-0.00016153978;1000.0329;  4.0000001E-01;27.258484;3;-2.2533376;0.0;-0.093174592;0;-0.028237373;  1.0000685E+04;  0.0000000E+00; -1.1049015E-05;  1.0000000E+04;  0.0000000E+00;  9.9999688E+03;-0.029545693;0.0;0.0013083209;16.111164
  1.3999821E-01;  9.9999998E-03; -3.0000043E-01;1246;-0.0018320349;0.0;-0.00038343185;1000.0292;  4.0000001E-01;24.196842;3;-1.6683202;0.0;-0.30663729;0;-0.024844727;  1.0000529E+04;  0.0000000E+00; -1.9557871E-02;  1.0000000E+04;  0.0000000E+00;  1.0000057E+04;-0.022708464;0.0;-0.0021362624;99.162033
  1.3999763E-01;  9.9999998E-03; -2.8000036E-01;1247;-0.0024439115;0.0;-0.00030826946;1000.0334;  4.0000001E-01;27.752296;3;-2.0797894;0.0;-0.20790482;0;-0.02840759;  1.0000637E+04;  0.0000000E+00; -1.3791846E-02;  1.0000000E+04;  0.0000000E+00;  1.0000033E+04;-0.027181758;0.0;-0.0012258334;69.244408
  1.3999718E-01;  9.9999998E-03; -2.6000032E-01;1248;-0.0029073611;0.0;-0.00027396629;1000.0361;  4.0000001E-01;29.925076;3;-2.3391964;0.0;-0.16545129;0;-0.030613234;  1.0000718E+04;  0.0000000E+00; -7.2250147E-03;  1.0000000E+04;  0.0000000E+00;  1.0000006E+04;-0.030480221;0.0;-0.00013301393;35.744141
  1.3999686E-01;  9.9999998E-03; -2.4000029E-01;1249;-0.0032486396;0.0;-0.0002390828;1000.0379;  4.0000001E-01;31.406515;3;-2.518625;0.0;-0.13365906;0;-0.03203601;  1.0000775E+04;  0.0000000E+00; -2.7495562E-03;  1.0000000E+04;  0.0000000E+00;  9.9999834E+03;-0.032801397;0.0;0.00076538662;17.221964
  1.3999663E-01;  9.9999998E-03; -2.2000025E-01;1250;-0.0034740972;0.0;-0.00020902179;1000.0391;  4.0000001E-01;32.394142;3;-2.639678;0.0;-0.11265413;0;-0.032996316;  1.0000813E+04;  0.0000000E+00; -6.8630994E-04;  1.0000000E+04;  0.0000000E+00;  9.9999688E+03;-0.034315635;0.0;0.0013193175;17.513283
  1.3999650E-01;  9.9999998E-03; -2.0000021E-01;1251;-0.0036105427;0.0;-0.00017350918;1000.0399;  4.0000001E-01;33.08548;3;-2.7189262;0.0;-0.090484351;0;-0.033626366;  1.0000838E+04;  0.0000000E+00; -8.7473913E-05;  1.0000000E+04;  0.0000000E+00;  9.9999619E+03;-0.035173479;0.0;0.001547112;20.125854
  1.5999766E-01;  9.9999998E-03; -3.0000052E-01;1277;-0.0023623256;0.0;-0.00046080936;1000.0416;  4.0000001E-01;34.468155;3;-2.1132672;0.0;-0.35724545;0;-0.034842566;  1.0000770E+04;  0.0000000E+00; -4.7274139E-02;  1.0000000E+04;  0.0000000E+00;  1.0000065E+04;-0.032407422;0.0;-0.0024351436;235.53807
  1.5999694E-01;  9.9999998E-03; -2.8000045E-01;1278;-0.0030927837;0.0;-0.00035904767;1000.0455;  4.0000001E-01;37.628559;3;-2.5802417;0.0;-0.23008251;0;-0.037832595;  1.0000872E+04;  0.0000000E+00; -3.3076849E-02;  1.0000000E+04;  0.0000000E+00;  1.0000035E+04;-0.036537051;0.0;-0.0012955435;164.47702
  1.5999641E-01;  9.9999998E-03; -2.6000038E-01;1279;-0.0036363292;0.0;-0.00030898704;1000.0468;  4.0000001E-01;38.813713;3;-2.8633914;0.0;-0.17430842;0;-0.038904712;  1.0000938E+04;  0.0000000E+00; -1.7391821E-02;  1.0000000E+04;  0.0000000E+00;  1.0000000E+04;-0.038976256;0.0;7.1546063e-05;86.41568
  1.5999603E-01;  9.9999998E-03; -2.4000035E-01;1280;-0.0040257131;0.0;-0.00026950872;1000.0477;  4.0000001E-01;39.505051;3;-3.0520632;0.0;-0.13874733;0;-0.039356548;  1.0000980E+04;  0.0000000E+00; -6.8158628E-03;  1.0000000E+04;  0.0000000E+00;  9.9999717E+03;-0.040498041;0.0;0.0011414939;37.541023
  1.5999578E-01;  9.9999998E-03; -2.2000030E-01;1281;-0.0042772521;0.0;-0.00023596529;1000.0482;  4.0000001E-01;39.900101;3;-3.1761448;0.0;-0.1175878;0;-0.039695345;  1.0001010E+04;  0.0000000E+00; -1.8682897E-03;  1.0000000E+04;  0.0000000E+00;  9.9999541E+03;-0.041439459;0.0;0.0017441126;25.375444
  1.5999562E-01;  9.9999998E-03; -2.0000026E-01;1282;-0.0044222446;0.0;-0.00019714833;1000.0488;  4.0000001E-01;40.492676;3;-3.2539399;0.0;-0.095910065;0;-0.039986018;  1.0001025E+04;  0.0000000E+00; -3.0231598E-04;  1.0000000E+04;  0.0000000E+00;  9.9999492E+03;-0.041927386;0.0;0.0019413671;26.357794
  1.7999691E-01;  9.9999998E-03; -3.0000064E-01;1308;-0.0030639926;0.0;-0.0005250377;1000.0593;  4.0000001E-01;49.183788;3;-2.6945388;0.0;-0.3837328;0;-0.04881734;  1.0001104E+04;  0.0000000E+00; -9.2446893E-02;  1.0000000E+04;  0.0000000E+00;  1.0000081E+04;-0.04591601;0.0;-0.0029013306;460.63327
  1.7999606E-01;  9.9999998E-03; -2.8000054E-01;1309;-0.0038985831;0.0;-0.00042100009;1000.0611;  4.0000001E-01;50.665226;3;-3.1851909;0.0;-0.25633192;0;-0.050117016;  1.0001187E+04;  0.0000000E+00; -6.3226327E-02;  1.0000000E+04;  0.0000000E+00;  1.0000036E+04;-0.048794646;0.0;-0.0013223718;314.95605
  1.7999545E-01;  9.9999998E-03; -2.6000047E-01;1310;-0.0045193559;0.0;-0.00036442999;1000.0604;  4.0000001E-01;50.072651;3;-3.4794862;0.0;-0.19453204;0;-0.049145024;  1.0001221E+04;  0.0000000E+00; -3.2728061E-02;  1.0000000E+04;  0.0000000E+00;  9.9999883E+03;-0.049646202;0.0;0.00050117832;163.44951
  1.7999500E-01;  9.9999998E-03; -2.4000043E-01;1311;-0.0049575213;0.0;-0.00032261558;1000.0594;  4.0000001E-01;49.282551;3;-3.6707091;0.0;-0.15911204;0;-0.048075058;  1.0001237E+04;  0.0000000E+00; -1.2848583E-02;  1.0000000E+04;  0.0000000E+00;  9.9999512E+03;-0.049906991;0.0;0.0018319326;69.257767
  1.7999472E-01;  9.9999998E-03; -2.2000037E-01;1312;-0.0052345414;0.0;-0.00028299185;1000.059;  4.0000001E-01;48.887501;3;-3.794472;0.0;-0.13596264;0;-0.047512591;  1.0001249E+04;  0.0000000E+00; -3.6549352E-03;  1.0000000E+04;  0.0000000E+00;  9.9999336E+03;-0.04999879;0.0;0.0024861975;38.881454
  1.7999455E-01;  9.9999998E-03; -2.0000032E-01;1313;-0.005383248;0.0;-0.00024097944;1000.0591;  4.0000001E-01;48.986263;3;-3.8655505;0.0;-0.11630115;0;-0.047334541;  1.0001251E+04;  0.0000000E+00; -6.5827364E-04;  1.0000000E+04;  0.0000000E+00;  9.9999297E+03;-0.049945954;0.0;0.0026114129;36.309719
  1.9999589E-01;  9.9999998E-03; -3.0000076E-01;1339;-0.0039882632;0.0;-0.00057516294;1000.0809;  4.0000001E-01;67.059822;3;-3.4508204;0.0;-0.38319874;0;-0.065563425;  1.0001515E+04;  0.0000000E+00; -1.4409983E-01;  1.0000000E+04;  0.0000000E+00;  1.0000103E+04;-0.061823968;0.0;-0.0037394562;720.88025
  1.9999494E-01;  9.9999998E-03; -2.8000066E-01;1340;-0.0049068867;0.0;-0.0004885997;1000.0798;  4.0000001E-01;66.072197;3;-3.9239993;0.0;-0.27992034;0;-0.064163029;  1.0001563E+04;  0.0000000E+00; -9.6677519E-02;  1.0000000E+04;  0.0000000E+00;  1.0000034E+04;-0.062885284;0.0;-0.0012777415;483.54266
  1.9999424E-01;  9.9999998E-03; -2.6000059E-01;1341;-0.0055915443;0.0;-0.00043913594;1000.076;  4.0000001E-01;62.911793;3;-4.2046452;0.0;-0.22509956;0;-0.060584046;  1.0001559E+04;  0.0000000E+00; -4.9017787E-02;  1.0000000E+04;  0.0000000E+00;  9.9999629E+03;-0.061908852;0.0;0.0013248076;246.44211
  1.9999373E-01;  9.9999998E-03; -2.4000053E-01;1342;-0.0060743238;0.0;-0.00040095398;1000.073;  4.0000001E-01;60.442726;3;-4.3862009;0.0;-0.19694394;0;-0.057784706;  1.0001546E+04;  0.0000000E+00; -1.9011389E-02;  1.0000000E+04;  0.0000000E+00;  9.9999180E+03;-0.060821146;0.0;0.0030364413;104.60405
  1.9999342E-01;  9.9999998E-03; -2.2000048E-01;1343;-0.0063696029;0.0;-0.0003630553;1000.0715;  4.0000001E-01;59.257576;3;-4.5009198;0.0;-0.17840648;0;-0.056279428;  1.0001537E+04;  0.0000000E+00; -5.4430179E-03;  1.0000000E+04;  0.0000000E+00;  9.9998955E+03;-0.060003214;0.0;0.0037237871;58.395508
  1.9999325E-01;  9.9999998E-03; -2.0000041E-01;1344;-0.0065174815;0.0;-0.00031318079;1000.0714;  4.0000001E-01;59.158813;3;-4.5612288;0.0;-0.15808439;0;-0.055639651;  1.0001527E+04;  0.0000000E+00; -1.0193809E-03;  1.0000000E+04;  0.0000000E+00;  9.9998965E+03;-0.059340611;0.0;0.0037009621;51.712215
  2.1999465E-01;  9.9999998E-03; -3.0000117E-01;1370;-0.0050877193;0.0;-0.00087954826;1000.1005;  4.0000001E-01;83.256889;3;-4.326643;0.0;-0.57198763;0;-0.079952151;  1.0001921E+04;  0.0000000E+00; -1.7972013E-01;  1.0000000E+04;  0.0000000E+00;  1.0000086E+04;-0.076645084;0.0;-0.0033070694;903.06183
  2.1999352E-01;  9.9999998E-03; -2.8000093E-01;1371;-0.0061444305;0.0;-0.00067051587;1000.0984;  4.0000001E-01;81.577927;3;-4.80832;0.0;-0.37488604;0;-0.077551864;  1.0001958E+04;  0.0000000E+00; -1.1799940E-01;  1.0000000E+04;  0.0000000E+00;  1.0000008E+04;-0.076965608;0.0;-0.00058625313;593.13129
  2.1999273E-01;  9.9999998E-03; -2.6000080E-01;1372;-0.0068884664;0.0;-0.00058285927;1000.0924;  4.0000001E-01;76.541031;3;-5.0543647;0.0;-0.29735208;0;-0.072011337;  1.0001930E+04;  0.0000000E+00; -5.8608968E-02;  1.0000000E+04;  0.0000000E+00;  9.9999160E+03;-0.074898727;0.0;0.0028873906;298.30582
  2.1999218E-01;  9.9999998E-03; -2.4000071E-01;1373;-0.0074098073;0.0;-0.00052715407;1000.088;  4.0000001E-01;72.886818;3;-5.2135363;0.0;-0.26341105;0;-0.067930825;  1.0001902E+04;  0.0000000E+00; -2.2267606E-02;  1.0000000E+04;  0.0000000E+00;  9.9998584E+03;-0.07292442;0.0;0.004993597;132.40691
  2.1999183E-01;  9.9999998E-03; -2.2000064E-01;1374;-0.0077125193;0.0;-0.00048473023;1000.086;  4.0000001E-01;71.207855;3;-5.3058171;0.0;-0.24896869;0;-0.065784365;  1.0001879E+04;  0.0000000E+00; -6.2798597E-03;  1.0000000E+04;  0.0000000E+00;  9.9998398E+03;-0.071413949;0.0;0.0056295805;84.038895
  2.1999167E-01;  9.9999998E-03; -2.0000054E-01;1375;-0.0078511108;0.0;-0.00042307444;1000.0854;  4.0000001E-01;70.714035;3;-5.3480129;0.0;-0.22753009;0;-0.064856552;  1.0001857E+04;  0.0000000E+00; -1.1648522E-03;  1.0000000E+04;  0.0000000E+00;  9.9998516E+03;-0.070199251;0.0;0.0053427005;74.223434
  2.3999295E-01;  9.9999998E-03; -3.0000231E-01;1401;-0.0065395366;0.0;-0.0018675096;1000.1111;  4.0000001E-01;92.046768;3;-5.4297504;0.0;-1.3320885;0;-0.085561149;  1.0002323E+04;  0.0000000E+00; -1.8088941E-01;  1.0000000E+04;  0.0000000E+00;  9.9999014E+03;-0.089934841;0.0;0.0043736906;914.19171
  2.3999169E-01;  9.9999998E-03; -2.8000161E-01;1402;-0.0076813879;0.0;-0.0012594571;1000.1135;  4.0000001E-01;94.022018;3;-5.8674464;0.0;-0.78483701;0;-0.086943179;  1.0002368E+04;  0.0000000E+00; -1.1557933E-01;  1.0000000E+04;  0.0000000E+00;  9.9999014E+03;-0.090406917;0.0;0.0034637358;586.46747
  2.3999085E-01;  9.9999998E-03; -2.6000124E-01;1403;-0.0084655313;0.0;-0.00094123051;1000.1083;  4.0000001E-01;89.67646;3;-6.0524502;0.0;-0.52476597;0;-0.082255289;  1.0002345E+04;  0.0000000E+00; -5.5905651E-02;  1.0000000E+04;  0.0000000E+00;  9.9998223E+03;-0.088319823;0.0;0.0060645379;296.21027
  2.3999025E-01;  9.9999998E-03; -2.4000101E-01;1404;-0.0090071447;0.0;-0.00077059196;1000.1041;  4.0000001E-01;86.219772;3;-6.1664314;0.0;-0.41060638;0;-0.078163013;  1.0002312E+04;  0.0000000E+00; -2.0584553E-02;  1.0000000E+04;  0.0000000E+00;  9.9997715E+03;-0.086135872;0.0;0.0079728588;152.70227
  2.3998991E-01;  9.9999998E-03; -2.2000086E-01;1405;-0.009299512;0.0;-0.00067912758;1000.1021;  4.0000001E-01;84.54081;3;-6.2198229;0.0;-0.37004676;0;-0.075958267;  1.0002279E+04;  0.0000000E+00; -5.5915304E-03;  1.0000000E+04;  0.0000000E+00;  9.9997627E+03;-0.084270716;0.0;0.0083124451;118.28002
  2.3998976E-01;  9.9999998E-03; -2.0000073E-01;1406;-0.0094154663;0.0;-0.00058567215;1000.1015;  4.0000001E-01;84.046989;3;-6.234581;0.0;-0.335107;0;-0.075016171;  1.0002250E+04;  0.0000000E+00; -9.7640313E-04;  1.0000000E+04;  0.0000000E+00;  9.9997842E+03;-0.082626432;0.0;0.0076102582;105.13467
  2.5999057E-01;  9.9999998E-03; -3.0000362E-01;1432;-0.0085122325;0.0;-0.0029197009;1000.1187;  4.0000001E-01;98.367569;3;-6.8996668;0.0;-2.0715218;0;-0.08817178;  1.0002770E+04;  0.0000000E+00; -1.4190988E-01;  1.0000000E+04;  0.0000000E+00;  9.9996045E+03;-0.10378375;0.0;0.015611969;743.57874
  2.5998932E-01;  9.9999998E-03; -2.8000262E-01;1433;-0.0096344342;0.0;-0.0020903726;1000.126;  4.0000001E-01;104.39208;3;-7.1735864;0.0;-1.3506076;0;-0.09321858;  1.0002824E+04;  0.0000000E+00; -8.9453690E-02;  1.0000000E+04;  0.0000000E+00;  9.9996943E+03;-0.10433109;0.0;0.011112512;477.74158
  2.5998846E-01;  9.9999998E-03; -2.6000190E-01;1434;-0.010410156;0.0;-0.0015023282;1000.1244;  4.0000001E-01;103.00941;3;-7.244976;0.0;-0.88842154;0;-0.091560833;  1.0002813E+04;  0.0000000E+00; -4.2029917E-02;  1.0000000E+04;  0.0000000E+00;  9.9996729E+03;-0.10271723;0.0;0.011156397;264.75906
  2.5998789E-01;  9.9999998E-03; -2.4000148E-01;1435;-0.010918205;0.0;-0.0011682621;1000.1215;  4.0000001E-01;100.63911;3;-7.2640676;0.0;-0.66401374;0;-0.088681512;  1.0002785E+04;  0.0000000E+00; -1.4789723E-02;  1.0000000E+04;  0.0000000E+00;  9.9996484E+03;-0.10072506;0.0;0.012043549;184.42963
  2.5998756E-01;  9.9999998E-03; -2.2000122E-01;1436;-0.01117131;0.0;-0.00097989594;1000.1204;  4.0000001E-01;99.750244;3;-7.2563157;0.0;-0.56260133;0;-0.086993739;  1.0002752E+04;  0.0000000E+00; -3.7485042E-03;  1.0000000E+04;  0.0000000E+00;  9.9996592E+03;-0.098738551;0.0;0.011744814;164.1291
  2.5998744E-01;  9.9999998E-03; -2.0000099E-01;1437;-0.011248122;0.0;-0.00081755558;1000.1204;  4.0000001E-01;99.750244;3;-7.2318082;0.0;-0.49133223;0;-0.086276591;  1.0002710E+04;  0.0000000E+00; -5.7217362E-04;  1.0000000E+04;  0.0000000E+00;  9.9996992E+03;-0.096759379;0.0;0.010482788;144.92511
  2.7998754E-01;  9.9999998E-03; -3.0000487E-01;1463;-0.010973236;0.0;-0.003781917;1000.1317;  4.0000001E-01;109.13269;3;-8.686635;0.0;-2.5897899;0;-0.094481155;  1.0003318E+04;  0.0000000E+00; -8.6530827E-02;  1.0000000E+04;  0.0000000E+00;  9.9993164E+03;-0.1195716;0.0;0.025090443;543.51007
  2.7998635E-01;  9.9999998E-03; -2.8000370E-01;1464;-0.012017947;0.0;-0.0029062422;1000.1409;  4.0000001E-01;116.73741;3;-8.7200336;0.0;-1.8541071;0;-0.10057487;  1.0003370E+04;  0.0000000E+00; -5.3831432E-02;  1.0000000E+04;  0.0000000E+00;  9.9994492E+03;-0.12001494;0.0;0.019440074;377.1442
  2.7998552E-01;  9.9999998E-03; -2.6000273E-01;1465;-0.012735695;0.0;-0.0021653597;1000.1429;  4.0000001E-01;118.41637;3;-8.6163826;0.0;-1.3005474;0;-0.1015667;  1.0003368E+04;  0.0000000E+00; -2.4329348E-02;  1.0000000E+04;  0.0000000E+00;  9.9994902E+03;-0.11884531;0.0;0.01727861;271.59308
  2.7998498E-01;  9.9999998E-03; -2.4000210E-01;1466;-0.01317548;0.0;-0.0016870003;1000.142;  4.0000001E-01;117.62627;3;-8.507719;0.0;-0.98793608;0;-0.10024701;  1.0003342E+04;  0.0000000E+00; -7.9712309E-03;  1.0000000E+04;  0.0000000E+00;  9.9994990E+03;-0.1170921;0.0;0.016845081;241.32594
  2.7998474E-01;  9.9999998E-03; -2.2000167E-01;1467;-0.013367482;0.0;-0.0013689328;1000.142;  4.0000001E-01;117.62627;3;-8.4219437;0.0;-0.81205487;0;-0.099321134;  1.0003302E+04;  0.0000000E+00; -1.7787071E-03;  1.0000000E+04;  0.0000000E+00;  9.9995342E+03;-0.11503662;0.0;0.015715485;221.15149
  2.7998465E-01;  9.9999998E-03; -2.0000133E-01;1468;-0.013389514;0.0;-0.0011165332;1000.1425;  4.0000001E-01;118.02132;3;-8.3497324;0.0;-0.69491124;0;-0.098899737;  1.0003249E+04;  0.0000000E+00; -2.0580836E-04;  1.0000000E+04;  0.0000000E+00;  9.9995957E+03;-0.11275298;0.0;0.013853242;193.14294
  2.9998392E-01;  9.9999998E-03; -3.0000606E-01;1494;-0.013802068;0.0;-0.0045505394;1000.1532;  4.0000001E-01;126.90994;3;-10.662501;0.0;-3.0213788;0;-0.10618213;  1.0003989E+04;  0.0000000E+00; -4.0496413E-02;  1.0000000E+04;  0.0000000E+00;  9.9990771E+03;-0.13797636;0.0;0.031794235;475.827
  2.9998276E-01;  9.9999998E-03; -2.8000477E-01;1495;-0.014775527;0.0;-0.0036563512;1000.1625;  4.0000001E-01;134.61342;3;-10.430686;0.0;-2.2702303;0;-0.1118372;  1.0004028E+04;  0.0000000E+00; -2.4378715E-02;  1.0000000E+04;  0.0000000E+00;  9.9992207E+03;-0.13817254;0.0;0.026335334;385.30978
  2.9998198E-01;  9.9999998E-03; -2.6000363E-01;1496;-0.015425573;0.0;-0.0028454533;1000.166;  4.0000001E-01;137.57631;3;-10.129768;0.0;-1.6947582;0;-0.11397916;  1.0004028E+04;  0.0000000E+00; -1.0252562E-02;  1.0000000E+04;  0.0000000E+00;  9.9992949E+03;-0.13719593;0.0;0.023216771;336.50824
  2.9998150E-01;  9.9999998E-03; -2.4000280E-01;1497;-0.015793622;0.0;-0.0022561457;1000.1666;  4.0000001E-01;137.97136;3;-9.8855181;0.0;-1.334095;0;-0.11374368;  1.0003998E+04;  0.0000000E+00; -2.9593108E-03;  1.0000000E+04;  0.0000000E+00;  9.9993340E+03;-0.13553882;0.0;0.021795137;315.33344
  2.9998133E-01;  9.9999998E-03; -2.2000220E-01;1498;-0.015924305;0.0;-0.0018246388;1000.1673;  4.0000001E-01;138.56393;3;-9.7182837;0.0;-1.0972364;0;-0.11338412;  1.0003949E+04;  0.0000000E+00; -5.1259826E-04;  1.0000000E+04;  0.0000000E+00;  9.9993984E+03;-0.13336471;0.0;0.019980587;286.97482
  2.9998133E-01;  9.9999998E-03; -2.0000173E-01;1499;-0.015881065;0.0;-0.001472046;1000.168;  4.0000001E-01;139.25526;3;-9.5949287;0.0;-0.93193692;0;-0.11317319;  1.0003886E+04;  0.0000000E+00; -3.1168074E-05;  1.0000000E+04;  0.0000000E+00;  9.9994775E+03;-0.13077158;0.0;0.017598385;249.12056
  3.1997976E-01;  9.9999998E-03; -3.0000734E-01;1525;-0.016918838;0.0;-0.0053169243;1000.1833;  4.0000001E-01;151.89688;3;-12.743315;0.0;-3.4231608;0;-0.12258035;  1.0004799E+04;  0.0000000E+00; -1.3353812E-02;  1.0000000E+04;  0.0000000E+00;  9.9988701E+03;-0.15911682;0.0;0.036536474;531.43115
  3.1997856E-01;  9.9999998E-03; -2.8000587E-01;1526;-0.01786547;0.0;-0.0043865386;1000.1915;  4.0000001E-01;158.7115;3;-12.255098;0.0;-2.6480243;0;-0.12732485;  1.0004817E+04;  0.0000000E+00; -7.3792720E-03;  1.0000000E+04;  0.0000000E+00;  9.9990137E+03;-0.1589548;0.0;0.03162995;464.43301
  3.1997779E-01;  9.9999998E-03; -2.6000458E-01;1527;-0.018483864;0.0;-0.0035289603;1000.1951;  4.0000001E-01;161.67438;3;-11.765081;0.0;-2.0568876;0;-0.12947616;  1.0004807E+04;  0.0000000E+00; -2.6980056E-03;  1.0000000E+04;  0.0000000E+00;  9.9990996E+03;-0.15795286;0.0;0.028476696;424.76175
  3.1997737E-01;  9.9999998E-03; -2.4000357E-01;1528;-0.018803228;0.0;-0.0028561968;1000.1962;  4.0000001E-01;162.56325;3;-11.390468;0.0;-1.6699715;0;-0.12961528;  1.0004770E+04;  0.0000000E+00; -5.9130444E-04;  1.0000000E+04;  0.0000000E+00;  9.9991572E+03;-0.15625769;0.0;0.026642419;398.05084
  3.1997722E-01;  9.9999998E-03; -2.2000282E-01;1529;-0.018876068;0.0;-0.0023208656;1000.1974;  4.0000001E-01;163.55087;3;-11.144912;0.0;-1.3981802;0;-0.12950143;  1.0004711E+04;  0.0000000E+00; -5.3491611E-05;  1.0000000E+04;  0.0000000E+00;  9.9992402E+03;-0.15391982;0.0;0.024418382;360.50851
  3.1997731E-01;  9.9999998E-03; -2.0000219E-01;1530;-0.018766515;0.0;-0.0018770855;1000.1986;  4.0000001E-01;164.5385;3;-10.972399;0.0;-1.1965088;0;-0.12936257;  1.0004629E+04;  0.0000000E+00;  1.7255537E-07;  1.0000000E+04;  0.0000000E+00;  9.9993447E+03;-0.15101378;0.0;0.021651214;312.73773
  3.3997497E-01;  9.9999998E-03; -3.0000877E-01;1556;-0.020321621;0.0;-0.0061345417;1000.2205;  4.0000001E-01;182.61203;3;-14.905639;0.0;-3.8319786;0;-0.14245465;  1.0005742E+04;  0.0000000E+00; -2.1904814E-03;  1.0000000E+04;  0.0000000E+00;  9.9986670E+03;-0.1827748;0.0;0.040320136;625.08026
  3.3997369E-01;  9.9999998E-03; -2.8000712E-01;1557;-0.021315947;0.0;-0.0051472415;1000.2276;  4.0000001E-01;188.5378;3;-14.192988;0.0;-3.0145712;0;-0.14628622;  1.0005740E+04;  0.0000000E+00; -1.0173996E-03;  1.0000000E+04;  0.0000000E+00;  9.9988125E+03;-0.18231769;0.0;0.036031473;561.28796
  3.3997285E-01;  9.9999998E-03; -2.6000562E-01;1558;-0.021951588;0.0;-0.0042313887;1000.2308;  4.0000001E-01;191.20438;3;-13.526033;0.0;-2.4032288;0;-0.1479685;  1.0005719E+04;  0.0000000E+00; -2.5494045E-04;  1.0000000E+04;  0.0000000E+00;  9.9989004E+03;-0.18124779;0.0;0.033279289;521.13666
  3.3997244E-01;  9.9999998E-03; -2.4000442E-01;1559;-0.022249592;0.0;-0.0034909162;1000.2318;  4.0000001E-01;192.09325;3;-13.026879;0.0;-2.0070336;0;-0.14799006;  1.0005670E+04;  0.0000000E+00; -1.6422058E-05;  1.0000000E+04;  0.0000000E+00;  9.9989707E+03;-0.1794844;0.0;0.031494334;489.1604
  3.3997235E-01;  9.9999998E-03; -2.2000349E-01;1560;-0.022275183;0.0;-0.0028614041;1000.2332;  4.0000001E-01;193.17964;3;-12.705943;0.0;-1.7104408;0;-0.14789726;  1.0005595E+04;  0.0000000E+00;  1.5591460E-06;  1.0000000E+04;  0.0000000E+00;  9.9990693E+03;-0.1769723;0.0;0.029075047;442.88327
  3.3997253E-01;  9.9999998E-03; -2.0000270E-01;1561;-0.0220937;0.0;-0.0023196621;1000.2344;  4.0000001E-01;194.26602;3;-12.485119;0.0;-1.4827259;0;-0.14773536;  1.0005493E+04;  0.0000000E+00;  1.3736275E-07;  1.0000000E+04;  0.0000000E+00;  9.9991914E+03;-0.17374307;0.0;0.026007704;384.41635
  3.5996941E-01;  9.9999998E-03; -3.0001044E-01;1587;-0.02410234;0.0;-0.0070377872;1000.2635;  4.0000001E-01;218.36406;3;-17.198219;0.0;-4.2640486;0;-0.16493455;  1.0006831E+04;  0.0000000E+00; -1.2398713E-05;  1.0000000E+04;  0.0000000E+00;  9.9984434E+03;-0.20902674;0.0;0.044092197;736.17377
  3.5996792E-01;  9.9999998E-03; -2.8000852E-01;1588;-0.025213074;0.0;-0.0059699202;1000.2701;  4.0000001E-01;223.79601;3;-16.277914;0.0;-3.3845191;0;-0.16818492;  1.0006820E+04;  0.0000000E+00;  1.9777721E-05;  1.0000000E+04;  0.0000000E+00;  9.9985869E+03;-0.20851983;0.0;0.040334906;670.84253
  3.5996699E-01;  9.9999998E-03; -2.6000679E-01;1589;-0.025902066;0.0;-0.0049838629;1000.2732;  4.0000001E-01;226.36383;3;-15.431752;0.0;-2.7481167;0;-0.16928566;  1.0006785E+04;  0.0000000E+00;  1.6791480E-05;  1.0000000E+04;  0.0000000E+00;  9.9986787E+03;-0.20744911;0.0;0.038163453;629.18475
  3.5996658E-01;  9.9999998E-03; -2.4000537E-01;1590;-0.026195269;0.0;-0.0041740243;1000.2741;  4.0000001E-01;227.05518;3;-14.802594;0.0;-2.3503098;0;-0.16900849;  1.0006727E+04;  0.0000000E+00;  6.9686594E-06;  1.0000000E+04;  0.0000000E+00;  9.9987568E+03;-0.20561357;0.0;0.036605079;591.9502
  3.5996655E-01;  9.9999998E-03; -2.2000423E-01;1591;-0.026177;0.0;-0.0034467129;1000.2754;  4.0000001E-01;228.14156;3;-14.404249;0.0;-2.0372753;0;-0.16882861;  1.0006632E+04;  0.0000000E+00;  1.7236695E-06;  1.0000000E+04;  0.0000000E+00;  9.9988770E+03;-0.20288657;0.0;0.034057956;535.74884
  3.5996681E-01;  9.9999998E-03; -2.0000327E-01;1592;-0.025918534;0.0;-0.0028001075;1000.2766;  4.0000001E-01;229.12918;3;-14.137468;0.0;-1.7846898;0;-0.1685669;  1.0006507E+04;  0.0000000E+00;  1.0852475E-07;  1.0000000E+04;  0.0000000E+00;  9.9990264E+03;-0.19926681;0.0;0.030699911;464.72427
  3.7996283E-01;  9.9999998E-03; -3.0001241E-01;1618;-0.028398136;0.0;-0.0080493335;1000.3139;  4.0000001E-01;260.04184;3;-19.69602;0.0;-4.7174644;0;-0.19029894;  1.0008115E+04;  0.0000000E+00;  2.9531497E-05;  1.0000000E+04;  0.0000000E+00;  9.9981680E+03;-0.23872882;0.0;0.04842988;872.8241
  3.7996107E-01;  9.9999998E-03; -2.8001016E-01;1619;-0.029655535;0.0;-0.006886676;1000.3207;  4.0000001E-01;265.77005;3;-18.54442;0.0;-3.7693226;0;-0.19307317;  1.0008098E+04;  0.0000000E+00;  3.4654324E-05;  1.0000000E+04;  0.0000000E+00;  9.9983203E+03;-0.23825622;0.0;0.045183048;801.86707
  3.7996003E-01;  9.9999998E-03; -2.6000810E-01;1620;-0.030412592;0.0;-0.0058156783;1000.3235;  4.0000001E-01;268.0416;3;-17.495842;0.0;-3.1074703;0;-0.19357544;  1.0008054E+04;  0.0000000E+00;  2.1695083E-05;  1.0000000E+04;  0.0000000E+00;  9.9984199E+03;-0.23713616;0.0;0.043560721;754.42737
  3.7995958E-01;  9.9999998E-03; -2.4000645E-01;1621;-0.030708287;0.0;-0.0049190228;1000.3242;  4.0000001E-01;268.63419;3;-16.73097;0.0;-2.6988161;0;-0.19293043;  1.0007970E+04;  0.0000000E+00;  8.6284908E-06;  1.0000000E+04;  0.0000000E+00;  9.9985156E+03;-0.23511794;0.0;0.042187516;709.01141
  3.7995964E-01;  9.9999998E-03; -2.2000507E-01;1622;-0.030641956;0.0;-0.0040839333;1000.3253;  4.0000001E-01;269.52304;3;-16.241585;0.0;-2.3844309;0;-0.19257653;  1.0007847E+04;  0.0000000E+00;  1.9649322E-06;  1.0000000E+04;  0.0000000E+00;  9.9986611E+03;-0.23203884;0.0;0.039462313;640.1814
  3.7996006E-01;  9.9999998E-03; -2.0000388E-01;1623;-0.030299019;0.0;-0.0033211114;1000.3262;  4.0000001E-01;270.31314;3;-15.930761;0.0;-2.1083136;0;-0.19212094;  1.0007684E+04;  0.0000000E+00;  9.4054677E-08;  1.0000000E+04;  0.0000000E+00;  9.9988408E+03;-0.22788233;0.0;0.035761394;553.95447
  3.9995497E-01;  9.9999998E-03; -3.0001476E-01;1649;-0.03330915;0.0;-0.0091944253;1000.3736;  4.0000001E-01;309.52182;3;-22.434139;0.0;-5.19946;0;-0.21924031;  1.0009654E+04;  0.0000000E+00;  3.8745216E-05;  1.0000000E+04;  0.0000000E+00;  9.9978223E+03;-0.27279657;0.0;0.053556256;1041.766
  3.9995292E-01;  9.9999998E-03; -2.8001210E-01;1650;-0.034722906;0.0;-0.007926356;1000.3808;  4.0000001E-01;315.44757;3;-21.005211;0.0;-4.1764131;0;-0.22129613;  1.0009618E+04;  0.0000000E+00;  4.5918423E-05;  1.0000000E+04;  0.0000000E+00;  9.9979990E+03;-0.27219287;0.0;0.050896741;959.22461
  3.9995176E-01;  9.9999998E-03; -2.6000965E-01;1651;-0.035553377;0.0;-0.0067538926;1000.3834;  4.0000001E-01;317.62033;3;-19.719946;0.0;-3.4925613;0;-0.22111087;  1.0009550E+04;  0.0000000E+00;  2.8218170E-05;  1.0000000E+04;  0.0000000E+00;  9.9981230E+03;-0.2708261;0.0;0.04971524;899.18304
  3.9995131E-01;  9.9999998E-03; -2.4000764E-01;1652;-0.035854239;0.0;-0.0057459893;1000.3835;  4.0000001E-01;317.71909;3;-18.798815;0.0;-3.0813885;0;-0.22005068;  1.0009432E+04;  0.0000000E+00;  1.0839056E-05;  1.0000000E+04;  0.0000000E+00;  9.9982422E+03;-0.26840892;0.0;0.04835825;841.12317
  3.9995149E-01;  9.9999998E-03; -2.2000599E-01;1653;-0.035735656;0.0;-0.0047835642;1000.3842;  4.0000001E-01;318.31168;3;-18.218512;0.0;-2.7610514;0;-0.21941675;  1.0009264E+04;  0.0000000E+00;  2.3024079E-06;  1.0000000E+04;  0.0000000E+00;  9.9984219E+03;-0.26475266;0.0;0.045335904;756.26349
  3.9995208E-01;  9.9999998E-03; -2.0000458E-01;1654;-0.035298157;0.0;-0.0038894466;1000.3844;  4.0000001E-01;318.50919;3;-17.868082;0.0;-2.4580872;0;-0.2186514;  1.0009048E+04;  0.0000000E+00;  8.2567176E-08;  1.0000000E+04;  0.0000000E+00;  9.9986436E+03;-0.25983849;0.0;0.041187089;651.76306
  4.1994560E-01;  9.9999998E-03; -3.0001757E-01;1680;-0.038911473;0.0;-0.010511577;1000.4449;  4.0000001E-01;368.5817;3;-25.413202;0.0;-5.7320914;0;-0.25218287;  1.0011494E+04;  0.0000000E+00;  4.8671409E-05;  1.0000000E+04;  0.0000000E+00;  9.9974072E+03;-0.31183133;0.0;0.059648443;1248.8474
  4.1994321E-01;  9.9999998E-03; -2.8001440E-01;1681;-0.040493421;0.0;-0.0091243703;1000.4521;  4.0000001E-01;374.6062;3;-23.663111;0.0;-4.6201935;0;-0.2531386;  1.0011427E+04;  0.0000000E+00;  6.0173959E-05;  1.0000000E+04;  0.0000000E+00;  9.9976240E+03;-0.31083646;0.0;0.057697862;1144.2803
  4.1994190E-01;  9.9999998E-03; -2.6001143E-01;1682;-0.041400891;0.0;-0.0078230174;1000.4548;  4.0000001E-01;376.77899;3;-22.102013;0.0;-3.9232848;0;-0.25222346;  1.0011309E+04;  0.0000000E+00;  3.6816229E-05;  1.0000000E+04;  0.0000000E+00;  9.9977900E+03;-0.30893114;0.0;0.05670768;1062.1758
  4.1994151E-01;  9.9999998E-03; -2.4000901E-01;1683;-0.041706771;0.0;-0.0066705602;1000.4539;  4.0000001E-01;376.08765;3;-21.005585;0.0;-3.5081806;0;-0.25068057;  1.0011138E+04;  0.0000000E+00;  1.3846724E-05;  1.0000000E+04;  0.0000000E+00;  9.9979434E+03;-0.30580181;0.0;0.055121258;986.78973
  4.1994184E-01;  9.9999998E-03; -2.2000702E-01;1684;-0.041530196;0.0;-0.0055564921;1000.4531;  4.0000001E-01;375.3963;3;-20.334421;0.0;-3.1728086;0;-0.24961947;  1.0010900E+04;  0.0000000E+00;  2.8320355E-06;  1.0000000E+04;  0.0000000E+00;  9.9981631E+03;-0.30125302;0.0;0.051633555;882.68591
  4.1994271E-01;  9.9999998E-03; -2.0000537E-01;1685;-0.040983409;0.0;-0.0045170016;1000.452;  4.0000001E-01;374.50745;3;-19.953196;0.0;-2.8341265;0;-0.24838524;  1.0010620E+04;  0.0000000E+00;  9.5380521E-08;  1.0000000E+04;  0.0000000E+00;  9.9984258E+03;-0.29528707;0.0;0.046901841;757.09283
  4.3993437E-01;  9.9999998E-03; -3.0002093E-01;1711;-0.04530092;0.0;-0.012043341;1000.5288;  4.0000001E-01;438.11035;3;-28.655277;0.0;-6.3034511;0;-0.28934732;  1.0013677E+04;  0.0000000E+00;  5.6982051E-05;  1.0000000E+04;  0.0000000E+00;  9.9969043E+03;-0.35629073;0.0;0.0669434;1496.2981
  4.3993166E-01;  9.9999998E-03; -2.8001708E-01;1712;-0.047059704;0.0;-0.010522897;1000.537;  4.0000001E-01;444.92496;3;-26.518173;0.0;-5.1181369;0;-0.28883317;  1.0013548E+04;  0.0000000E+00;  7.7868797E-05;  1.0000000E+04;  0.0000000E+00;  9.9971953E+03;-0.35452843;0.0;0.065695263;1353.7173
  4.3993023E-01;  9.9999998E-03; -2.6001346E-01;1713;-0.048046034;0.0;-0.0090434402;1000.5394;  4.0000001E-01;446.90021;3;-24.637537;0.0;-4.4120374;0;-0.28726178;  1.0013359E+04;  0.0000000E+00;  4.8450500E-05;  1.0000000E+04;  0.0000000E+00;  9.9974316E+03;-0.35167417;0.0;0.064412378;1237.3376
  4.3992990E-01;  9.9999998E-03; -2.4001054E-01;1714;-0.048352931;0.0;-0.0077015213;1000.5363;  4.0000001E-01;444.33237;3;-23.346722;0.0;-3.9836419;0;-0.28510469;  1.0013104E+04;  0.0000000E+00;  1.8358327E-05;  1.0000000E+04;  0.0000000E+00;  9.9976279E+03;-0.34740853;0.0;0.062303856;1141.8694
  4.3993050E-01;  9.9999998E-03; -2.2000821E-01;1715;-0.048106842;0.0;-0.0064152228;1000.5334;  4.0000001E-01;441.86331;3;-22.588545;0.0;-3.6196563;0;-0.28336444;  1.0012780E+04;  0.0000000E+00;  3.8885096E-06;  1.0000000E+04;  0.0000000E+00;  9.9978887E+03;-0.34155825;0.0;0.058193807;1016.9695
  4.3993172E-01;  9.9999998E-03; -2.0000632E-01;1716;-0.047429275;0.0;-0.005224444;1000.5299;  4.0000001E-01;438.99921;3;-22.189276;0.0;-3.2344236;0;-0.28142503;  1.0012406E+04;  0.0000000E+00;  2.2710948E-07;  1.0000000E+04;  0.0000000E+00;  9.9982012E+03;-0.33418146;0.0;0.052756421;868.77704
  4.5992088E-01;  9.9999998E-03; -3.0002502E-01;1742;-0.052598808;0.0;-0.01385646;1000.6279;  4.0000048E-01;520.18164;3;-32.170067;0.0;-6.9348502;0;-0.33053035;  1.0016215E+04;  0.0000000E+00;  6.1034996E-05;  1.0000000E+04;  0.0000000E+00;  9.9963242E+03;-0.40618947;0.0;0.075659126;1783.7111
  4.5991781E-01;  9.9999998E-03; -2.8002030E-01;1743;-0.054536365;0.0;-0.012171287;1000.6377;  4.0000054E-01;528.28015;3;-29.572546;0.0;-5.6923194;0;-0.32836267;  1.0015996E+04;  0.0000000E+00;  1.0063162E-04;  1.0000000E+04;  0.0000000E+00;  9.9967402E+03;-0.40314525;0.0;0.074782573;1576.9982
  4.5991632E-01;  9.9999998E-03; -2.6001579E-01;1744;-0.055597767;0.0;-0.010432187;1000.6397;  4.0000054E-01;529.95911;3;-27.324217;0.0;-4.9730477;0;-0.3263827;  1.0015706E+04;  0.0000000E+00;  6.5488617E-05;  1.0000000E+04;  0.0000000E+00;  9.9970723E+03;-0.39880329;0.0;0.072420612;1414.0253
  4.5991620E-01;  9.9999998E-03; -2.4001230E-01;1745;-0.055894528;0.0;-0.0088514797;1000.633;  4.0000045E-01;524.42841;3;-25.820707;0.0;-4.5080838;0;-0.32329816;  1.0015334E+04;  0.0000000E+00;  2.5976877E-05;  1.0000000E+04;  0.0000000E+00;  9.9973047E+03;-0.39286837;0.0;0.069570199;1300.9098
  4.5991713E-01;  9.9999998E-03; -2.2000965E-01;1746;-0.055557556;0.0;-0.0073848069;1000.6257;  4.0000054E-01;518.40393;3;-24.982443;0.0;-4.0991254;0;-0.32046527;  1.0014893E+04;  0.0000000E+00;  6.2278054E-06;  1.0000000E+04;  0.0000000E+00;  9.9976055E+03;-0.38523173;0.0;0.064766474;1157.0372
  4.5991883E-01;  9.9999998E-03; -2.0000757E-01;1747;-0.054718032;0.0;-0.006052108;1000.619;  4.0000057E-01;512.77448;3;-24.580851;0.0;-3.6515408;0;-0.31747997;  1.0014401E+04;  0.0000000E+00;  6.9891178E-07;  1.0000000E+04;  0.0000000E+00;  9.9979609E+03;-0.37604806;0.0;0.058568105;987.19952
  4.7990456E-01;  9.9999998E-03; -3.0002999E-01;1773;-0.060969934;0.0;-0.016032407;1000.7415;  4.0000147E-01;614.30176;3;-35.982513;0.0;-7.6608295;0;-0.37473911;  1.0019081E+04;  0.0000000E+00;  5.8539965E-05;  1.0000000E+04;  0.0000000E+00;  9.9956826E+03;-0.46047992;0.0;0.085740805;2099.2837
  4.7990125E-01;  9.9999998E-03; -2.8002408E-01;1774;-0.063067228;0.0;-0.01412815;1000.7549;  4.0000144E-01;625.46191;3;-32.834213;0.0;-6.3681026;0;-0.37100357;  1.0018733E+04;  0.0000000E+00;  1.3268218E-04;  1.0000000E+04;  0.0000000E+00;  9.9962988E+03;-0.45553502;0.0;0.084531464;1793.8669
  4.7989982E-01;  9.9999998E-03; -2.6001847E-01;1775;-0.064185031;0.0;-0.012006969;1000.7552;  4.0000156E-01;625.65942;3;-30.161606;0.0;-5.6053991;0;-0.36903614;  1.0018301E+04;  0.0000000E+00;  9.2870963E-05;  1.0000000E+04;  0.0000000E+00;  9.9967412E+03;-0.44907853;0.0;0.080042377;1578.7441
  4.7990006E-01;  9.9999998E-03; -2.4001440E-01;1776;-0.064443253;0.0;-0.010143315;1000.7415;  4.0000144E-01;614.30176;3;-28.430347;0.0;-5.0721221;0;-0.36441386;  1.0017780E+04;  0.0000000E+00;  3.9906114E-05;  1.0000000E+04;  0.0000000E+00;  9.9969814E+03;-0.44088933;0.0;0.076475471;1460.5009
  4.7990149E-01;  9.9999998E-03; -2.2001150E-01;1777;-0.063977487;0.0;-0.0085164243;1000.7281;  4.0000147E-01;603.24036;3;-27.518518;0.0;-4.6008229;0;-0.35986349;  1.0017188E+04;  0.0000000E+00;  1.1444397E-05;  1.0000000E+04;  0.0000000E+00;  9.9973066E+03;-0.43096998;0.0;0.071106493;1304.7457
  4.7990382E-01;  9.9999998E-03; -2.0000932E-01;1778;-0.062933095;0.0;-0.0070796921;1000.7166;  4.0000144E-01;593.6604;3;-27.129219;0.0;-4.0868702;0;-0.35539228;  1.0016563E+04;  0.0000000E+00;  2.2626450E-06;  1.0000000E+04;  0.0000000E+00;  9.9976992E+03;-0.41960964;0.0;0.064217344;1117.2577
  4.9988469E-01;  9.9999998E-03; -3.0003610E-01;1804;-0.070642196;0.0;-0.018672926;1000.8663;  4.0000346E-01;717.7052;3;-40.140625;0.0;-8.5128546;0;-0.4193736;  1.0022129E+04;  0.0000000E+00;  5.0648276E-05;  1.0000000E+04;  0.0000000E+00;  9.9950313E+03;-0.51623136;0.0;0.096857764;2419.3018
  4.9988139E-01;  9.9999998E-03; -2.8002858E-01;1805;-0.07282576;0.0;-0.016458219;1000.8854;  4.0000352E-01;733.60596;3;-36.320339;0.0;-7.1749325;0;-0.41472578;  1.0021620E+04;  0.0000000E+00;  1.8474642E-04;  1.0000000E+04;  0.0000000E+00;  9.9959248E+03;-0.50878924;0.0;0.094063468;1976.0245
  4.9988028E-01;  9.9999998E-03; -2.6002163E-01;1806;-0.073943816;0.0;-0.013796618;1000.8815;  4.0000349E-01;730.24805;3;-33.159271;0.0;-6.3081169;0;-0.41322261;  1.0021012E+04;  0.0000000E+00;  1.4145325E-04;  1.0000000E+04;  0.0000000E+00;  9.9964580E+03;-0.49963644;0.0;0.086413831;1721.2272
  4.9988112E-01;  9.9999998E-03; -2.4001710E-01;1807;-0.074103624;0.0;-0.011636858;1000.8566;  4.0000352E-01;709.60675;3;-31.181425;0.0;-5.661828;0;-0.4060072;  1.0020318E+04;  0.0000000E+00;  6.6720429E-05;  1.0000000E+04;  0.0000000E+00;  9.9966514E+03;-0.48869142;0.0;0.082684219;1626.7744
  4.9988329E-01;  9.9999998E-03; -2.2001408E-01;1808;-0.073449463;0.0;-0.0099121798;1000.8348;  4.0000343E-01;691.63202;3;-30.199379;0.0;-5.1211247;0;-0.3989521;  1.0019558E+04;  0.0000000E+00;  2.2673245E-05;  1.0000000E+04;  0.0000000E+00;  9.9969717E+03;-0.47611022;0.0;0.077158131;1472.0343
  4.9988639E-01;  9.9999998E-03; -2.0001191E-01;1809;-0.072146341;0.0;-0.0084400699;1000.8168;  4.0000355E-01;676.71887;3;-29.837957;0.0;-4.5286212;0;-0.39253917;  1.0018782E+04;  0.0000000E+00;  6.5953113E-06;  1.0000000E+04;  0.0000000E+00;  9.9973867E+03;-0.46234149;0.0;0.069802307;1272.9518
  5.1986033E-01;  9.9999998E-03; -3.0004367E-01;1835;-0.08189977;0.0;-0.021911468;1000.9998;  4.0000960E-01;828.31781;3;-44.714691;0.0;-9.5347347;0;-0.45941964;  1.0025090E+04;  0.0000000E+00;  4.7653746E-05;  1.0000000E+04;  0.0000000E+00;  9.9944326E+03;-0.56791264;0.0;0.10849299;2711.4436
  5.1985770E-01;  9.9999998E-03; -2.8003407E-01;1836;-0.083989903;0.0;-0.019251278;1001.0272;  4.0000960E-01;850.93433;3;-40.054123;0.0;-8.1395054;0;-0.45525607;  1.0024397E+04;  0.0000000E+00;  2.8080575E-04;  1.0000000E+04;  0.0000000E+00;  9.9956660E+03;-0.55762142;0.0;0.10236534;2102.6611
  5.1985741E-01;  9.9999998E-03; -2.6002562E-01;1837;-0.08498311;0.0;-0.015884578;1001.0139;  4.0000954E-01;839.97174;3;-36.329376;0.0;-7.0700059;0;-0.45447662;  1.0023597E+04;  0.0000000E+00;  2.3498783E-04;  1.0000000E+04;  0.0000000E+00;  9.9962041E+03;-0.5454548;0.0;0.090978168;1849.4957
  5.1985919E-01;  9.9999998E-03; -2.4002089E-01;1838;-0.084937349;0.0;-0.013482073;1000.972;  4.0000966E-01;805.30627;3;-34.072083;0.0;-6.2664232;0;-0.44318771;  1.0022720E+04;  0.0000000E+00;  1.2050362E-04;  1.0000000E+04;  0.0000000E+00;  9.9962520E+03;-0.53154719;0.0;0.08835949;1825.9117
  5.1986235E-01;  9.9999998E-03; -2.2001794E-01;1839;-0.084017083;0.0;-0.011760892;1000.9401;  4.0000966E-01;778.83801;3;-33.027779;0.0;-5.6338997;0;-0.43290621;  1.0021792E+04;  0.0000000E+00;  4.5754186E-05;  1.0000000E+04;  0.0000000E+00;  9.9965371E+03;-0.51623547;0.0;0.083329268;1689.1213
  5.1986641E-01;  9.9999998E-03; -2.0001586E-01;1840;-0.082390673;0.0;-0.010342966;1000.9157;  4.0000960E-01;758.69055;3;-32.701389;0.0;-4.964262;0;-0.42428723;  1.0020873E+04;  0.0000000E+00;  1.5796955E-05;  1.0000000E+04;  0.0000000E+00;  9.9969609E+03;-0.50012296;0.0;0.075835742;1483.4955
  5.3983074E-01;  9.9999998E-03; -3.0005312E-01;1866;-0.094990626;0.0;-0.025902219;1001.1385;  4.0002584E-01;943.27515;3;-49.764969;0.0;-10.772789;0;-0.48732227;  1.0027513E+04;  0.0000000E+00;  7.2076495E-05;  1.0000000E+04;  0.0000000E+00;  9.9939600E+03;-0.60715503;0.0;0.11983275;2939.9192
  5.3982979E-01;  9.9999998E-03; -2.8004104E-01;1867;-0.096653871;0.0;-0.022636296;1001.1741;  4.0002584E-01;972.70618;3;-44.041485;0.0;-9.3003654;0;-0.48565507;  1.0026652E+04;  0.0000000E+00;  4.6675297E-04;  1.0000000E+04;  0.0000000E+00;  9.9955352E+03;-0.59417051;0.0;0.10851543;2168.3301
  5.3983116E-01;  9.9999998E-03; -2.6003113E-01;1868;-0.097302243;0.0;-0.0184687;1001.1438;  4.0002584E-01;947.62067;3;-39.660748;0.0;-7.9014707;0;-0.48512766;  1.0025684E+04;  0.0000000E+00;  4.2217798E-04;  1.0000000E+04;  0.0000000E+00;  9.9958984E+03;-0.57921141;0.0;0.094083756;2003.3492
  5.3983438E-01;  9.9999998E-03; -2.4002647E-01;1869;-0.096909679;0.0;-0.015943743;1001.0804;  4.0002590E-01;895.07928;3;-37.099709;0.0;-6.8922749;0;-0.46830329;  1.0024643E+04;  0.0000000E+00;  2.3100433E-04;  1.0000000E+04;  0.0000000E+00;  9.9956758E+03;-0.56267965;0.0;0.094376363;2110.3767
  5.3983879E-01;  9.9999998E-03; -2.2002380E-01;1870;-0.095613383;0.0;-0.014354598;1001.0375;  4.0002593E-01;859.52502;3;-35.994278;0.0;-6.1678424;0;-0.45445222;  1.0023579E+04;  0.0000000E+00;  9.1887887E-05;  1.0000000E+04;  0.0000000E+00;  9.9958828E+03;-0.54508859;0.0;0.090636387;2009.7648
  5.3984392E-01;  9.9999998E-03; -2.0002180E-01;1871;-0.093608342;0.0;-0.013057077;1001.008;  4.0002590E-01;835.1308;3;-35.707897;0.0;-5.44063;0;-0.4437868;  1.0022546E+04;  0.0000000E+00;  3.1590553E-05;  1.0000000E+04;  0.0000000E+00;  9.9963193E+03;-0.52716154;0.0;0.083374724;1798.4591
  5.5979568E-01;  9.9999998E-03; -3.0006528E-01;1897;-0.10990044;0.0;-0.03083883;1001.2958;  4.0006953E-01;1073.5396;3;-55.254841;0.0;-12.284721;0;-0.49252421;  1.0028793E+04;  0.0000000E+00;  1.5681722E-04;  1.0000000E+04;  0.0000000E+00;  9.9936260E+03;-0.62280101;0.0;0.13027681;3095.8865
  5.5979812E-01;  9.9999998E-03; -2.8005043E-01;1898;-0.11065986;0.0;-0.026841071;1001.3373;  4.0006959E-01;1107.9086;3;-48.226295;0.0;-10.710666;0;-0.49554265;  1.0027824E+04;  0.0000000E+00;  8.1607851E-04;  1.0000000E+04;  0.0000000E+00;  9.9954268E+03;-0.60809141;0.0;0.11254878;2219.0867
  5.5980211E-01;  9.9999998E-03; -2.6003927E-01;1899;-0.11067916;0.0;-0.021879621;1001.2816;  4.0006950E-01;1061.7869;3;-43.106247;0.0;-8.8293066;0;-0.49447039;  1.0026754E+04;  0.0000000E+00;  7.8799779E-04;  1.0000000E+04;  0.0000000E+00;  9.9953848E+03;-0.59145445;0.0;0.096984066;2257.1663
  5.5980724E-01;  9.9999998E-03; -2.4003483E-01;1900;-0.10975377;0.0;-0.019341365;1001.1942;  4.0006962E-01;989.39459;3;-40.220535;0.0;-7.4913106;0;-0.47138718;  1.0025634E+04;  0.0000000E+00;  4.5261157E-04;  1.0000000E+04;  0.0000000E+00;  9.9947617E+03;-0.57350266;0.0;0.10211549;2555.9915
  5.5981308E-01;  9.9999998E-03; -2.2003245E-01;1901;-0.10796304;0.0;-0.018044328;1001.1427;  4.0006971E-01;946.72949;3;-39.031395;0.0;-6.7195663;0;-0.45425391;  1.0024505E+04;  0.0000000E+00;  1.8151420E-04;  1.0000000E+04;  0.0000000E+00;  9.9948594E+03;-0.55484098;0.0;0.10058708;2507.9805
  5.5981934E-01;  9.9999998E-03; -2.0003036E-01;1902;-0.10555877;0.0;-0.016853604;1001.1118;  4.0006956E-01;921.15021;3;-38.804497;0.0;-5.9007292;0;-0.44231206;  1.0023428E+04;  0.0000000E+00;  5.4163847E-05;  1.0000000E+04;  0.0000000E+00;  9.9953174E+03;-0.53623772;0.0;0.09392567;2285.8162
  5.7975662E-01;  9.9999998E-03; -3.0008134E-01;1928;-0.12601669;0.0;-0.037012286;1001.5373;  4.0018556E-01;1273.6265;3;-60.944004;0.0;-14.257842;0;-0.45987141;  1.0028146E+04;  0.0000000E+00;  3.3895639E-04;  1.0000000E+04;  0.0000000E+00;  9.9932822E+03;-0.60039866;0.0;0.14052723;3244.2075
  5.7976407E-01;  9.9999998E-03; -2.8006393E-01;1929;-0.12537056;0.0;-0.032235313;1001.5787;  4.0018567E-01;1307.8966;3;-52.411316;0.0;-12.4234;0;-0.4697586;  1.0027196E+04;  0.0000000E+00;  1.4339089E-03;  1.0000000E+04;  0.0000000E+00;  9.9950615E+03;-0.58602369;0.0;0.11626508;2387.0488
  5.7977152E-01;  9.9999998E-03; -2.6005149E-01;1930;-0.12446462;0.0;-0.026599826;1001.4953;  4.0018570E-01;1238.7637;3;-46.518929;0.0;-9.9225235;0;-0.46807441;  1.0026161E+04;  0.0000000E+00;  1.4591427E-03;  1.0000000E+04;  0.0000000E+00;  9.9944336E+03;-0.5700686;0.0;0.10199418;2715.6514
  5.7977891E-01;  9.9999998E-03; -2.4004698E-01;1931;-0.12286495;0.0;-0.02412474;1001.3871;  4.0018567E-01;1149.1871;3;-43.310814;0.0;-8.1403036;0;-0.43999556;  1.0025099E+04;  0.0000000E+00;  8.6749956E-04;  1.0000000E+04;  0.0000000E+00;  9.9933389E+03;-0.55315691;0.0;0.11316136;3242.4917
  5.7978642E-01;  9.9999998E-03; -2.2004470E-01;1932;-0.12052399;0.0;-0.023063598;1001.332;  4.0018567E-01;1103.5594;3;-42.098763;0.0;-7.0012884;0;-0.42130175;  1.0024041E+04;  0.0000000E+00;  3.4576771E-04;  1.0000000E+04;  0.0000000E+00;  9.9932949E+03;-0.53575987;0.0;0.11445811;3261.4709
  5.7979375E-01;  9.9999998E-03; -2.0004188E-01;1933;-0.11769642;0.0;-0.02195815;1001.3063;  4.0018579E-01;1082.2269;3;-41.864925;0.0;-6.3049879;0;-0.40949345;  1.0023029E+04;  0.0000000E+00;  8.3375948E-05;  1.0000000E+04;  0.0000000E+00;  9.9937969E+03;-0.51848966;0.0;0.10899623;3018.0034
  5.9971696E-01;  9.9999998E-03; -3.0010337E-01;1959;-0.14195424;0.0;-0.04483987;1002.061;  4.0048024E-01;1707.4774;3;-66.420639;0.0;-17.082605;0;-0.36854494;  1.0024704E+04;  0.0000000E+00;  6.4116548E-04;  1.0000000E+04;  0.0000000E+00;  9.9924639E+03;-0.5221833;0.0;0.15363835;3612.5479
  5.9973013E-01;  9.9999998E-03; -2.8008410E-01;1960;-0.13963954;0.0;-0.039437141;1002.0951;  4.0048048E-01;1735.723;3;-56.295067;0.0;-14.535445;0;-0.38646182;  1.0023948E+04;  0.0000000E+00;  2.4227991E-03;  1.0000000E+04;  0.0000000E+00;  9.9938955E+03;-0.51127726;0.0;0.12481543;2935.605
  5.9974122E-01;  9.9999998E-03; -2.6006979E-01;1961;-0.13769239;0.0;-0.033273559;1001.9985;  4.0048054E-01;1655.6279;3;-49.681068;0.0;-11.255754;0;-0.38767797;  1.0023142E+04;  0.0000000E+00;  2.5648708E-03;  1.0000000E+04;  0.0000000E+00;  9.9927793E+03;-0.49943978;0.0;0.11176182;3508.8728
  5.9975111E-01;  9.9999998E-03; -2.4006395E-01;1962;-0.13544179;0.0;-0.030586055;1001.882;  4.0048069E-01;1559.2373;3;-46.322796;0.0;-8.5305843;0;-0.35929412;  1.0022324E+04;  0.0000000E+00;  1.5677291E-03;  1.0000000E+04;  0.0000000E+00;  9.9912754E+03;-0.48710844;0.0;0.12781431;4233.6475
  5.9976000E-01;  9.9999998E-03; -2.2006030E-01;1963;-0.13254847;0.0;-0.029563481;1001.8328;  4.0048081E-01;1518.3502;3;-44.983376;0.0;-7.2878008;0;-0.34180373;  1.0021512E+04;  0.0000000E+00;  6.2368758E-04;  1.0000000E+04;  0.0000000E+00;  9.9911035E+03;-0.47439855;0.0;0.13259484;4313.229
  5.9976834E-01;  9.9999998E-03; -2.0005602E-01;1964;-0.1293581;0.0;-0.02829014;1001.8204;  4.0048075E-01;1508.1779;3;-44.668835;0.0;-6.655355;0;-0.3321504;  1.0020712E+04;  0.0000000E+00;  1.2233536E-04;  1.0000000E+04;  0.0000000E+00;  9.9916523E+03;-0.46146125;0.0;0.12931083;4045.9922
  6.1968160E-01;  9.9999998E-03; -3.0013424E-01;1990;-0.15595904;0.0;-0.054857966;1003.2839;  4.0115541E-01;2720.5503;3;-71.109085;0.0;-20.957632;0;-0.19151112;  1.0017712E+04;  0.0000000E+00;  1.0167531E-03;  1.0000000E+04;  0.0000000E+00;  9.9901914E+03;-0.36991164;0.0;0.17840052;4668.2227
  6.1969918E-01;  9.9999998E-03; -2.8011465E-01;1991;-0.1523723;0.0;-0.049049582;1003.3087;  4.0115574E-01;2741.0925;3;-59.662479;0.0;-17.196449;0;-0.2220953;  1.0017336E+04;  0.0000000E+00;  3.7019493E-03;  1.0000000E+04;  0.0000000E+00;  9.9910449E+03;-0.36609623;0.0;0.14400093;4290.5552
  6.1971301E-01;  9.9999998E-03; -2.6009715E-01;1992;-0.14985776;0.0;-0.042162869;1003.237;  4.0115607E-01;2681.7375;3;-52.83746;0.0;-12.107546;0;-0.23485039;  1.0016947E+04;  0.0000000E+00;  4.0601031E-03;  1.0000000E+04;  0.0000000E+00;  9.9900068E+03;-0.36207724;0.0;0.12722684;4834.8179
  6.1972457E-01;  9.9999998E-03; -2.4008642E-01;1993;-0.14681421;0.0;-0.039060835;1003.1452;  4.0115625E-01;2605.6921;3;-49.071751;0.0;-8.9821634;0;-0.21274248;  1.0016564E+04;  0.0000000E+00;  2.5641066E-03;  1.0000000E+04;  0.0000000E+00;  9.9885596E+03;-0.35807997;0.0;0.14533749;5533.5981
  6.1973494E-01;  9.9999998E-03; -2.2007924E-01;1994;-0.14348821;0.0;-0.037384093;1003.1124;  4.0115643E-01;2578.533;3;-47.390598;0.0;-7.6757221;0;-0.20027265;  1.0016180E+04;  0.0000000E+00;  1.0414408E-03;  1.0000000E+04;  0.0000000E+00;  9.9882900E+03;-0.35374463;0.0;0.15347198;5660.1484
  6.1974436E-01;  9.9999998E-03; -2.0007241E-01;1995;-0.14003663;0.0;-0.035532109;1003.1208;  4.0115643E-01;2585.4463;3;-47.020119;0.0;-7.1508584;0;-0.19432357;  1.0015757E+04;  0.0000000E+00;  1.8621568E-04;  1.0000000E+04;  0.0000000E+00;  9.9888701E+03;-0.34853888;0.0;0.15421531;5374.7124
  6.3965493E-01;  9.9999998E-03; -3.0017611E-01;2021;-0.16630296;0.0;-0.067479439;1005.5973;  4.0239418E-01;4637.0552;3;-74.194595;0.0;-26.569292;0;0.091153428;  1.0006854E+04;  0.0000000E+00;  1.2582261E-03;  1.0000000E+04;  0.0000000E+00;  9.9854951E+03;-0.13177395;0.0;0.22292738;6878.7109
  6.3967466E-01;  9.9999998E-03; -2.8015828E-01;2022;-0.16269152;0.0;-0.061188787;1005.6174;  4.0239483E-01;4653.7456;3;-62.356064;0.0;-20.790281;0;0.036221087;  1.0007008E+04;  0.0000000E+00;  4.7808141E-03;  1.0000000E+04;  0.0000000E+00;  9.9857109E+03;-0.13814276;0.0;0.17436385;6845.8062
  6.3968992E-01;  9.9999998E-03; -2.6013950E-01;2023;-0.15977691;0.0;-0.054616254;1005.6067;  4.0239510E-01;4644.8574;3;-55.262535;0.0;-13.706786;0;0.0097675622;  1.0007180E+04;  0.0000000E+00;  5.5163149E-03;  1.0000000E+04;  0.0000000E+00;  9.9853213E+03;-0.1448922;0.0;0.15465976;7080.1846
  6.3970172E-01;  9.9999998E-03; -2.4011892E-01;2024;-0.15656173;0.0;-0.049879245;1005.6007;  4.0239534E-01;4639.9194;3;-51.142899;0.0;-9.8541193;0;0.011496276;  1.0007370E+04;  0.0000000E+00;  3.6386554E-03;  1.0000000E+04;  0.0000000E+00;  9.9850117E+03;-0.15207945;0.0;0.16357572;7231.0376
  6.3971257E-01;  9.9999998E-03; -2.2010304E-01;2025;-0.15300588;0.0;-0.046344921;1005.6066;  4.0239561E-01;4644.8574;3;-49.289009;0.0;-8.0877619;0;0.015164763;  1.0007537E+04;  0.0000000E+00;  1.5524229E-03;  1.0000000E+04;  0.0000000E+00;  9.9849619E+03;-0.15892833;0.0;0.1740931;7250.1509
  6.3972324E-01;  9.9999998E-03; -2.0009190E-01;2026;-0.14913659;0.0;-0.043663535;1005.6419;  4.0239564E-01;4674.0898;3;-48.759575;0.0;-7.3954406;0;0.017479852;  1.0007626E+04;  0.0000000E+00;  2.9863630E-04;  1.0000000E+04;  0.0000000E+00;  9.9855654E+03;-0.16419907;0.0;0.18167892;6946.834
  6.5964049E-01;  9.9999998E-03; -3.0022487E-01;2052;-0.17229161;0.0;-0.082203716;1008.4702;  4.0395498E-01;7017.082;3;-75.753357;0.0;-33.888794;0;0.46933037;  9.9926514E+03;  0.0000000E+00;  9.8370726E-04;  1.0000000E+04;  0.0000000E+00;  9.9793525E+03;0.18777724;0.0;0.28155312;9776.2402
  6.5966010E-01;  9.9999998E-03; -2.8021026E-01;2053;-0.16930547;0.0;-0.073915184;1008.4885;  4.0395561E-01;7032.1924;3;-63.839645;0.0;-25.469213;0;0.36225092;  9.9933916E+03;  0.0000000E+00;  4.8831403E-03;  1.0000000E+04;  0.0000000E+00;  9.9789453E+03;0.16991995;0.0;0.19233097;10115.531
  6.5967679E-01;  9.9999998E-03; -2.6019666E-01;2054;-0.16610377;0.0;-0.069892168;1008.5222;  4.0395570E-01;7060.1406;3;-56.873787;0.0;-15.303026;0;0.33989918;  9.9941748E+03;  0.0000000E+00;  6.1949692E-03;  1.0000000E+04;  0.0000000E+00;  9.9788291E+03;0.15116963;0.0;0.18872957;10203.586
  6.5968800E-01;  9.9999998E-03; -2.4016720E-01;2055;-0.1625282;0.0;-0.065224856;1008.6443;  4.0395573E-01;7161.3682;3;-52.610085;0.0;-10.306333;0;0.32016987;  9.9949727E+03;  0.0000000E+00;  4.3399432E-03;  1.0000000E+04;  0.0000000E+00;  9.9804580E+03;0.1318012;0.0;0.18836865;9406.459
  6.5969801E-01;  9.9999998E-03; -2.2013821E-01;2056;-0.15926409;0.0;-0.058848098;1008.7207;  4.0395573E-01;7224.6714;3;-50.686459;0.0;-7.9786043;0;0.30745643;  9.9957285E+03;  0.0000000E+00;  1.9839134E-03;  1.0000000E+04;  0.0000000E+00;  9.9812256E+03;0.11289889;0.0;0.19455755;9030.0293
  6.5970862E-01;  9.9999998E-03; -2.0011809E-01;2057;-0.15544999;0.0;-0.054019369;1008.7908;  4.0395588E-01;7282.7412;3;-50.20079;0.0;-7.2447796;0;0.30515385;  9.9963623E+03;  0.0000000E+00;  4.5460270E-04;  1.0000000E+04;  0.0000000E+00;  9.9819814E+03;0.09617193;0.0;0.20898192;8644.5654
  6.7964637E-01;  9.9999998E-03; -3.0026948E-01;2083;-0.17206429;0.0;-0.096369281;1010.5532;  4.0520364E-01;8742.6553;3;-75.184608;0.0;-42.119762;0;0.88173437;  9.9767607E+03;  0.0000000E+00;  2.4142415E-04;  1.0000000E+04;  0.0000000E+00;  9.9747793E+03;0.55824643;0.0;0.32348794;11910.183
  6.7966002E-01;  9.9999998E-03; -2.8025839E-01;2084;-0.17111064;0.0;-0.085191488;1010.5527;  4.0520418E-01;8742.1621;3;-64.096375;0.0;-28.73341;0;0.71639526;  9.9779854E+03;  0.0000000E+00;  3.6359592E-03;  1.0000000E+04;  0.0000000E+00;  9.9735273E+03;0.53088659;0.0;0.18550864;12745.572
  6.7967677E-01;  9.9999998E-03; -2.6025215E-01;2085;-0.16774637;0.0;-0.084572881;1010.5919;  4.0520385E-01;8774.6523;3;-57.742168;0.0;-17.05584;0;0.70875239;  9.9792959E+03;  0.0000000E+00;  5.5078040E-03;  1.0000000E+04;  0.0000000E+00;  9.9730098E+03;0.50169867;0.0;0.20705369;13006.566
  6.7968655E-01;  9.9999998E-03; -2.4022144E-01;2086;-0.16356689;0.0;-0.083897531;1010.8011;  4.0520334E-01;8947.9717;3;-53.194016;0.0;-11.563321;0;0.68651944;  9.9806074E+03;  0.0000000E+00;  4.1888217E-03;  1.0000000E+04;  0.0000000E+00;  9.9758672E+03;0.47188157;0.0;0.21463788;11593.173
  6.7969424E-01;  9.9999998E-03; -2.2018178E-01;2087;-0.16078632;0.0;-0.076225936;1010.9473;  4.0520298E-01;9069.0469;3;-51.168716;0.0;-8.4584341;0;0.65677017;  9.9818555E+03;  0.0000000E+00;  2.0768163E-03;  1.0000000E+04;  0.0000000E+00;  9.9775234E+03;0.44278917;0.0;0.213981;10785.205
  6.7970365E-01;  9.9999998E-03; -2.0015155E-01;2088;-0.15750167;0.0;-0.068798482;1011.0518;  4.0520284E-01;9155.6572;3;-50.607334;0.0;-7.7179813;0;0.64950597;  9.9829629E+03;  0.0000000E+00;  5.7735975E-04;  1.0000000E+04;  0.0000000E+00;  9.9784941E+03;0.41618752;0.0;0.23331848;10291.574
  6.9969952E-01;  9.9999998E-03; -3.0030397E-01;2114;-0.14968407;0.0;-0.10707616;1011.4112;  4.0588814E-01;9453.2188;3;-65.331276;0.0;-46.003498;0;1.2471762;  9.9619346E+03;  0.0000000E+00;  7.3360070E-04;  1.0000000E+04;  0.0000000E+00;  9.9728086E+03;0.91819829;0.0;0.32897782;12807.252
  6.9969034E-01;  9.9999998E-03; -2.8029487E-01;2115;-0.16059351;0.0;-0.095600098;1011.3793;  4.0588844E-01;9426.8516;3;-61.9897;0.0;-31.294638;0;1.0652146;  9.9633496E+03;  0.0000000E+00;  2.3308482E-03;  1.0000000E+04;  0.0000000E+00;  9.9707734E+03;0.88833213;0.0;0.17688254;14053.856
  6.9969893E-01;  9.9999998E-03; -2.6029637E-01;2116;-0.16075227;0.0;-0.097762302;1011.3704;  4.0588799E-01;9419.4443;3;-57.729416;0.0;-18.454071;0;1.0693487;  9.9649160E+03;  0.0000000E+00;  3.8793208E-03;  1.0000000E+04;  0.0000000E+00;  9.9690615E+03;0.85475862;0.0;0.2145901;14895.791
  6.9970572E-01;  9.9999998E-03; -2.4026798E-01;2117;-0.15662789;0.0;-0.10148038;1011.6121;  4.0588734E-01;9619.6211;3;-52.724388;0.0;-13.952063;0;1.0504044;  9.9664951E+03;  0.0000000E+00;  3.2066326E-03;  1.0000000E+04;  0.0000000E+00;  9.9722910E+03;0.82003593;0.0;0.23036851;13287.908
  6.9970936E-01;  9.9999998E-03; -2.2022533E-01;2118;-0.15483804;0.0;-0.096655972;1011.7933;  4.0588671E-01;9769.7285;3;-49.661289;0.0;-11.772886;0;1.0153526;  9.9680195E+03;  0.0000000E+00;  1.7154993E-03;  1.0000000E+04;  0.0000000E+00;  9.9743730E+03;0.7858513;0.0;0.22950135;12271.147
  6.9971633E-01;  9.9999998E-03; -2.0018885E-01;2119;-0.15267219;0.0;-0.088589214;1011.9196;  4.0588623E-01;9874.4082;3;-48.821072;0.0;-11.11038;0;1.0060303;  9.9694336E+03;  0.0000000E+00;  5.6405034E-04;  1.0000000E+04;  0.0000000E+00;  9.9754736E+03;0.75362396;0.0;0.25240642;11710.857
  7.1978992E-01;  9.9999998E-03; -3.0032846E-01;2145;-0.10306501;0.0;-0.11674274;1011.602;  4.0618768E-01;9611.0635;3;-43.590816;0.0;-49.673515;0;1.5322396;  9.9511621E+03;  0.0000000E+00;  1.3577554E-03;  1.0000000E+04;  0.0000000E+00;  9.9726094E+03;1.1902345;0.0;0.34200504;12834.354
  7.1977490E-01;  9.9999998E-03; -2.8031749E-01;2146;-0.11624973;0.0;-0.10446998;1011.5655;  4.0618810E-01;9580.7461;3;-44.389015;0.0;-34.952621;0;1.3328935;  9.9524014E+03;  0.0000000E+00;  2.5390217E-03;  1.0000000E+04;  0.0000000E+00;  9.9706523E+03;1.1675988;0.0;0.16529469;14071.934
  7.1976614E-01;  9.9999998E-03; -2.6032180E-01;2147;-0.12575249;0.0;-0.10661287;1011.4868;  4.0618771E-01;9515.5693;3;-45.2019;0.0;-20.35428;0;1.3411281;  9.9538291E+03;  0.0000000E+00;  2.6728073E-03;  1.0000000E+04;  0.0000000E+00;  9.9677080E+03;1.1400245;0.0;0.20110361;15530.825
  7.1976280E-01;  9.9999998E-03; -2.4029852E-01;2148;-0.1307731;0.0;-0.1145558;1011.6872;  4.0618676E-01;9681.5723;3;-45.595657;0.0;-15.943785;0;1.3434292;  9.9553379E+03;  0.0000000E+00;  2.0169897E-03;  1.0000000E+04;  0.0000000E+00;  9.9701943E+03;1.1097976;0.0;0.23363158;14272.474
  7.1976388E-01;  9.9999998E-03; -2.2025758E-01;2149;-0.13273673;0.0;-0.11464573;1011.8631;  4.0618622E-01;9827.3301;3;-45.380741;0.0;-16.012213;0;1.3160478;  9.9568584E+03;  0.0000000E+00;  1.1069929E-03;  1.0000000E+04;  0.0000000E+00;  9.9721670E+03;1.0783279;0.0;0.23771986;13305.867
  7.1977007E-01;  9.9999998E-03; -2.0021902E-01;2150;-0.13154314;0.0;-0.10854296;1011.9913;  4.0618578E-01;9933.5879;3;-45.769707;0.0;-18.581116;0;1.3106354;  9.9583652E+03;  0.0000000E+00;  4.0961051E-04;  1.0000000E+04;  0.0000000E+00;  9.9732129E+03;1.0463991;0.0;0.26423636;12769.389
  7.3987138E-01;  9.9999998E-03; -3.0034474E-01;2176;-0.062000189;0.0;-0.12510356;1011.6634;  4.0630543E-01;9661.5625;3;-25.470121;0.0;-54.481556;0;1.6922998;  9.9461035E+03;  0.0000000E+00;  2.8466890E-04;  1.0000000E+04;  0.0000000E+00;  9.9731162E+03;1.3256401;0.0;0.36665982;12510.522
  7.3986059E-01;  9.9999998E-03; -2.8032961E-01;2177;-0.071025707;0.0;-0.11005713;1011.6398;  4.0630585E-01;9642.0117;3;-26.18609;0.0;-37.819351;0;1.4592322;  9.9469502E+03;  0.0000000E+00;  1.5396613E-03;  1.0000000E+04;  0.0000000E+00;  9.9718047E+03;1.3156352;0.0;0.14359699;13493.208
  7.3985356E-01;  9.9999998E-03; -2.6033074E-01;2178;-0.077882081;0.0;-0.10954618;1011.5162;  4.0630573E-01;9539.6094;3;-27.124823;0.0;-21.336094;0;1.4644508;  9.9479619E+03;  0.0000000E+00;  1.5496328E-03;  1.0000000E+04;  0.0000000E+00;  9.9683682E+03;1.3018076;0.0;0.16264315;15217.71
  7.3984963E-01;  9.9999998E-03; -2.4030770E-01;2179;-0.082701273;0.0;-0.1169334;1011.6465;  4.0630496E-01;9647.542;3;-28.160456;0.0;-14.845292;0;1.4932339;  9.9491309E+03;  0.0000000E+00;  1.0516372E-03;  1.0000000E+04;  0.0000000E+00;  9.9698047E+03;1.2839164;0.0;0.20931754;14463.95
  7.3984951E-01;  9.9999998E-03; -2.2026831E-01;2180;-0.085125044;0.0;-0.1182938;1011.7773;  4.0630436E-01;9755.8691;3;-29.125355;0.0;-15.233546;0;1.4898244;  9.9504326E+03;  0.0000000E+00;  5.4975366E-04;  1.0000000E+04;  0.0000000E+00;  9.9711094E+03;1.2617394;0.0;0.22808501;13810.373
  7.3985320E-01;  9.9999998E-03; -2.0023049E-01;2181;-0.085001551;0.0;-0.11333744;1011.8847;  4.0630382E-01;9844.8418;3;-30.096203;0.0;-18.403698;0;1.5007116;  9.9518535E+03;  0.0000000E+00;  2.1772721E-04;  1.0000000E+04;  0.0000000E+00;  9.9718223E+03;1.2352482;0.0;0.26546338;13425.068
  7.5993353E-01;  9.9999998E-03; -3.0035570E-01;2207;-0.031978186;0.0;-0.13151562;1011.7887;  4.0634957E-01;9764.8613;3;-13.363782;0.0;-58.194649;0;1.7307173;  9.9462695E+03;  0.0000000E+00; -6.8496919E-04;  1.0000000E+04;  0.0000000E+00;  9.9732734E+03;1.3320154;0.0;0.39870188;12371.495
  7.5992680E-01;  9.9999998E-03; -2.8033665E-01;2208;-0.037356351;0.0;-0.11390026;1011.7816;  4.0635008E-01;9758.9365;3;-13.833973;0.0;-40.55162;0;1.4672601;  9.9466895E+03;  0.0000000E+00;  2.9138711E-04;  1.0000000E+04;  0.0000000E+00;  9.9727002E+03;1.3346884;0.0;0.13257168;13047.375
  7.5992244E-01;  9.9999998E-03; -2.6033422E-01;2209;-0.041335721;0.0;-0.11056736;1011.6276;  4.0635005E-01;9631.458;3;-14.49505;0.0;-21.230785;0;1.4714699;  9.9472480E+03;  0.0000000E+00;  4.7061747E-04;  1.0000000E+04;  0.0000000E+00;  9.9691221E+03;1.3351282;0.0;0.13634168;14860.922
  7.5991946E-01;  9.9999998E-03; -2.4031034E-01;2210;-0.044570286;0.0;-0.11679159;1011.7014;  4.0634939E-01;9692.4814;3;-15.306938;0.0;-14.194489;0;1.5200806;  9.9480020E+03;  0.0000000E+00;  3.2827124E-04;  1.0000000E+04;  0.0000000E+00;  9.9698438E+03;1.3308102;0.0;0.18927042;14453.821
  7.5991863E-01;  9.9999998E-03; -2.2027242E-01;2211;-0.046563651;0.0;-0.11850202;1011.7897;  4.0634894E-01;9765.6514;3;-16.194693;0.0;-13.803374;0;1.5386097;  9.9490000E+03;  0.0000000E+00;  1.7113774E-04;  1.0000000E+04;  0.0000000E+00;  9.9706133E+03;1.3197846;0.0;0.21882509;14051.288
  7.5992000E-01;  9.9999998E-03; -2.0023596E-01;2212;-0.047124743;0.0;-0.11453503;1011.8743;  4.0634835E-01;9835.7588;3;-17.064285;0.0;-17.013594;0;1.5647751;  9.9502256E+03;  0.0000000E+00;  7.6233875E-05;  1.0000000E+04;  0.0000000E+00;  9.9710723E+03;1.3010761;0.0;0.26369908;13783.193
  7.7997839E-01;  9.9999998E-03; -3.0036256E-01;2238;-0.011217923;0.0;-0.13594714;1011.9886;  4.0636551E-01;9929.7861;3;-5.7325749;0.0;-60.66711;0;1.6890867;  9.9497324E+03;  0.0000000E+00; -6.2773074E-04;  1.0000000E+04;  0.0000000E+00;  9.9729668E+03;1.2565023;0.0;0.43258438;12474.04
  7.7997535E-01;  9.9999998E-03; -2.8034079E-01;2239;-0.013432106;0.0;-0.11652765;1011.9921;  4.0636614E-01;9932.6494;3;-5.8633265;0.0;-42.451061;0;1.4069235;  9.9498057E+03;  0.0000000E+00; -1.8391297E-04;  1.0000000E+04;  0.0000000E+00;  9.9729502E+03;1.2688904;0.0;0.13803309;12911.463
  7.7997345E-01;  9.9999998E-03; -2.6033568E-01;2240;-0.015014864;0.0;-0.1111759;1011.8259;  4.0636611E-01;9795.0107;3;-6.1238079;0.0;-21.352421;0;1.4079635;  9.9499990E+03;  0.0000000E+00; -1.5354182E-05;  1.0000000E+04;  0.0000000E+00;  9.9694902E+03;1.2799619;0.0;0.1280016;14682.087
  7.7997160E-01;  9.9999998E-03; -2.4031073E-01;2241;-0.016639566;0.0;-0.11641766;1011.867;  4.0636548E-01;9829.0752;3;-6.535862;0.0;-13.974198;0;1.4679533;  9.9504170E+03;  0.0000000E+00;  1.6403166E-05;  1.0000000E+04;  0.0000000E+00;  9.9699072E+03;1.2860504;0.0;0.18190289;14423.787
  7.7997047E-01;  9.9999998E-03; -2.2027339E-01;2242;-0.017975498;0.0;-0.11798026;1011.9283;  4.0636501E-01;9879.8252;3;-7.0705142;0.0;-12.908924;0;1.4993138;  9.9511260E+03;  0.0000000E+00;  1.4307348E-05;  1.0000000E+04;  0.0000000E+00;  9.9704258E+03;1.2841678;0.0;0.21514601;14142.074
  7.7997035E-01;  9.9999998E-03; -2.0023775E-01;2243;-0.018761808;0.0;-0.11430553;1011.9962;  4.0636447E-01;9936.0068;3;-7.6574206;0.0;-15.800485;0;1.5348892;  9.9521436E+03;  0.0000000E+00;  1.1696423E-05;  1.0000000E+04;  0.0000000E+00;  9.9707686E+03;1.2726191;0.0;0.26227009;13928.164
  8.0001354E-01;  9.9999998E-03; -3.0036575E-01;2269;0.0049556457;0.0;-0.13832754;1012.2039;  4.0637013E-01;10107.188;3;0.22756499;0.0;-61.985928;0;1.6135241;  9.9543359E+03;  0.0000000E+00; -1.6654104E-04;  1.0000000E+04;  0.0000000E+00;  9.9723779E+03;1.1535603;0.0;0.45996377;12727.218
  8.0001378E-01;  9.9999998E-03; -2.8034273E-01;2270;0.0054649953;0.0;-0.11823537;1012.2124;  4.0637076E-01;10114.197;3;0.37999767;0.0;-44.005669;0;1.3260152;  9.9541924E+03;  0.0000000E+00; -1.0335352E-04;  1.0000000E+04;  0.0000000E+00;  9.9726738E+03;1.1713283;0.0;0.1546869;13022.114
  8.0001384E-01;  9.9999998E-03; -2.6033613E-01;2271;0.0057940516;0.0;-0.11180625;1012.0472;  4.0637070E-01;9977.459;3;0.46838945;0.0;-21.66754;0;1.3238072;  9.9541670E+03;  0.0000000E+00; -4.8823516E-05;  1.0000000E+04;  0.0000000E+00;  9.9694502E+03;1.1878974;0.0;0.13590978;14686.329
  8.0001324E-01;  9.9999998E-03; -2.4031034E-01;2272;0.0056627593;0.0;-0.11636099;1012.0792;  4.0637007E-01;10003.819;3;0.43968537;0.0;-13.869113;0;1.3856764;  9.9543740E+03;  0.0000000E+00; -1.7750574E-05;  1.0000000E+04;  0.0000000E+00;  9.9698975E+03;1.1995069;0.0;0.18616951;14417.475
  8.0001211E-01;  9.9999998E-03; -2.2027265E-01;2273;0.0050673475;0.0;-0.11749191;1012.1307;  4.0636975E-01;10046.568;3;0.28623807;0.0;-12.722561;0;1.4200518;  9.9548857E+03;  0.0000000E+00; -5.3637282E-06;  1.0000000E+04;  0.0000000E+00;  9.9704160E+03;1.2028592;0.0;0.21719259;14137.286
  8.0001092E-01;  9.9999998E-03; -2.0023702E-01;2274;0.0043049445;0.0;-0.11335798;1012.1903;  4.0636912E-01;10095.933;3;0.041278783;0.0;-15.181103;0;1.4583098;  9.9557305E+03;  0.0000000E+00; -1.1561523E-06;  1.0000000E+04;  0.0000000E+00;  9.9707686E+03;1.195884;0.0;0.26242581;13922.061
  8.2004672E-01;  9.9999998E-03; -3.0036545E-01;2300;0.02095893;0.0;-0.13870022;1012.3713;  4.0636221E-01;10244.546;3;6.88867;0.0;-62.299538;0;1.5349339;  9.9586309E+03;  0.0000000E+00;  4.1214109E-05;  1.0000000E+04;  0.0000000E+00;  9.9717510E+03;1.0593538;0.0;0.47558013;13008.101
  8.2005000E-01;  9.9999998E-03; -2.8034246E-01;2301;0.023908412;0.0;-0.11866999;1012.3795;  4.0636280E-01;10251.259;3;7.1720161;0.0;-44.587688;0;1.2512132;  9.9584160E+03;  0.0000000E+00;  7.3533345E-05;  1.0000000E+04;  0.0000000E+00;  9.9721172E+03;1.077965;0.0;0.17324814;13264.404
  8.2005125E-01;  9.9999998E-03; -2.6033571E-01;2302;0.025685141;0.0;-0.11232549;1012.223;  4.0636277E-01;10121.743;3;7.4402914;0.0;-22.20973;0;1.2483281;  9.9583242E+03;  0.0000000E+00;  8.3601139E-05;  1.0000000E+04;  0.0000000E+00;  9.9691348E+03;1.095066;0.0;0.15326214;14806.795
  8.2005179E-01;  9.9999998E-03; -2.4030919E-01;2303;0.026816839;0.0;-0.11656081;1012.2659;  4.0636230E-01;10157.281;3;7.6350613;0.0;-14.309176;0;1.3047469;  9.9584561E+03;  0.0000000E+00;  6.2147104E-05;  1.0000000E+04;  0.0000000E+00;  9.9698711E+03;1.1073545;0.0;0.19739236;14403.845
  8.2005084E-01;  9.9999998E-03; -2.2027053E-01;2304;0.026928578;0.0;-0.11699317;1012.322;  4.0636173E-01;10203.776;3;7.7300496;0.0;-13.158059;0;1.3343606;  9.9588799E+03;  0.0000000E+00;  3.1847951E-05;  1.0000000E+04;  0.0000000E+00;  9.9705635E+03;1.1116829;0.0;0.22267766;14044.523
  8.2004875E-01;  9.9999998E-03; -2.0023432E-01;2305;0.026184;0.0;-0.11188676;1012.3812;  4.0636128E-01;10252.739;3;7.7246819;0.0;-14.894744;0;1.3696901;  9.9596338E+03;  0.0000000E+00;  9.2887185E-06;  1.0000000E+04;  0.0000000E+00;  9.9710010E+03;1.1059209;0.0;0.26376918;13792.568
  8.4008181E-01;  9.9999998E-03; -3.0036044E-01;2331;0.038845722;0.0;-0.13707115;1012.2939;  4.0625915E-01;10178.794;3;15.188929;0.0;-61.586895;0;1.4588304;  9.9622373E+03;  0.0000000E+00;  4.6084991E-05;  1.0000000E+04;  0.0000000E+00;  9.9716738E+03;0.98247629;0.0;0.47635412;13027.714
  8.4008759E-01;  9.9999998E-03; -2.8033805E-01;2332;0.043976407;0.0;-0.11754669;1012.3002;  4.0625972E-01;10183.926;3;15.442305;0.0;-44.152439;0;1.1838876;  9.9620742E+03;  0.0000000E+00;  2.6516904E-04;  1.0000000E+04;  0.0000000E+00;  9.9719521E+03;0.99811488;0.0;0.18577272;13310.781
  8.4008980E-01;  9.9999998E-03; -2.6033139E-01;2333;0.046953931;0.0;-0.11160858;1012.1553;  4.0625957E-01;10064.006;3;15.700893;0.0;-22.486456;0;1.180081;  9.9620361E+03;  0.0000000E+00;  2.9891200E-04;  1.0000000E+04;  0.0000000E+00;  9.9691426E+03;1.011793;0.0;0.16828801;14759.287
  8.4009117E-01;  9.9999998E-03; -2.4030477E-01;2334;0.049061533;0.0;-0.11575987;1012.2109;  4.0625900E-01;10110.0;3;15.914989;0.0;-14.936799;0;1.2287054;  9.9622080E+03;  0.0000000E+00;  2.0686739E-04;  1.0000000E+04;  0.0000000E+00;  9.9700898E+03;1.0207919;0.0;0.20791349;14258.623
  8.4009033E-01;  9.9999998E-03; -2.2026573E-01;2335;0.049771097;0.0;-0.11555597;1012.2758;  4.0625858E-01;10163.791;3;16.057926;0.0;-13.620168;0;1.2503102;  9.9626514E+03;  0.0000000E+00;  1.0126363E-04;  1.0000000E+04;  0.0000000E+00;  9.9709463E+03;1.0223483;0.0;0.2279619;13828.285
  8.4008729E-01;  9.9999998E-03; -2.0022947E-01;2336;0.048851997;0.0;-0.10974873;1012.3393;  4.0625808E-01;10216.397;3;16.110619;0.0;-14.885243;0;1.279393;  9.9633936E+03;  0.0000000E+00;  3.2007196E-05;  1.0000000E+04;  0.0000000E+00;  9.9714736E+03;1.0145583;0.0;0.2648347;13537.653
  8.6011839E-01;  9.9999998E-03; -3.0035082E-01;2362;0.058167987;0.0;-0.13375328;1011.9846;  4.0605634E-01;9920.4521;3;24.701271;0.0;-60.213844;0;1.37628;  9.9655723E+03;  0.0000000E+00;  1.4066775E-04;  1.0000000E+04;  0.0000000E+00;  9.9722061E+03;0.91045451;0.0;0.46582547;12753.564
  8.6012650E-01;  9.9999998E-03; -2.8032920E-01;2363;0.065343715;0.0;-0.11492652;1011.9901;  4.0605688E-01;9924.9902;3;24.816902;0.0;-43.13699;0;1.1111538;  9.9655430E+03;  0.0000000E+00;  5.7391555E-04;  1.0000000E+04;  0.0000000E+00;  9.9723330E+03;0.92056084;0.0;0.19059302;13087.449
  8.6012924E-01;  9.9999998E-03; -2.6032245E-01;2364;0.069316201;0.0;-0.10939061;1011.8594;  4.0605676E-01;9816.8389;3;24.934332;0.0;-22.510153;0;1.1050889;  9.9656465E+03;  0.0000000E+00;  6.3292461E-04;  1.0000000E+04;  0.0000000E+00;  9.9696641E+03;0.92809707;0.0;0.17699184;14456.783
  8.6013126E-01;  9.9999998E-03; -2.4029632E-01;2365;0.072178297;0.0;-0.11341174;1011.9249;  4.0605626E-01;9871.0127;3;25.011112;0.0;-15.391222;0;1.1449435;  9.9659502E+03;  0.0000000E+00;  4.2979061E-04;  1.0000000E+04;  0.0000000E+00;  9.9706787E+03;0.93089426;0.0;0.21404918;13927.989
  8.6013049E-01;  9.9999998E-03; -2.2025785E-01;2366;0.073325388;0.0;-0.11280458;1011.9995;  4.0605578E-01;9932.7842;3;25.030529;0.0;-14.041865;0;1.157383;  9.9664990E+03;  0.0000000E+00;  2.0639620E-04;  1.0000000E+04;  0.0000000E+00;  9.9716191E+03;0.92675751;0.0;0.23062547;13462.405
  8.6012626E-01;  9.9999998E-03; -2.0022231E-01;2367;0.071999855;0.0;-0.10670844;1012.07;  4.0605536E-01;9991.2021;3;24.973726;0.0;-14.943738;0;1.1784046;  9.9673135E+03;  0.0000000E+00;  6.5528482E-05;  1.0000000E+04;  0.0000000E+00;  9.9722090E+03;0.91433495;0.0;0.26406968;13145.072
  8.8015383E-01;  9.9999998E-03; -3.0033711E-01;2393;0.07728067;0.0;-0.12900026;1011.4974;  4.0576556E-01;9514.2881;3;34.382496;0.0;-58.292061;0;1.2727565;  9.9692568E+03;  0.0000000E+00;  4.0903338E-04;  1.0000000E+04;  0.0000000E+00;  9.9732109E+03;0.82516539;0.0;0.4475911;12247.549
  8.8016385E-01;  9.9999998E-03; -2.8031629E-01;2394;0.086285882;0.0;-0.11103123;1011.5048;  4.0576592E-01;9520.4023;3;34.321022;0.0;-41.763966;0;1.0183353;  9.9694082E+03;  0.0000000E+00;  1.0120035E-03;  1.0000000E+04;  0.0000000E+00;  9.9732002E+03;0.82832587;0.0;0.19000952;12623.318
  8.8016677E-01;  9.9999998E-03; -2.6030916E-01;2395;0.09099029;0.0;-0.10573831;1011.3923;  4.0576583E-01;9427.377;3;34.242786;0.0;-22.279209;0;1.0074635;  9.9697217E+03;  0.0000000E+00;  1.0762888E-03;  1.0000000E+04;  0.0000000E+00;  9.9706895E+03;0.8280161;0.0;0.17944738;13903.991
  8.8016951E-01;  9.9999998E-03; -2.4028385E-01;2396;0.094498053;0.0;-0.10943977;1011.4665;  4.0576535E-01;9488.7354;3;34.106892;0.0;-15.660055;0;1.0372084;  9.9702246E+03;  0.0000000E+00;  7.1621733E-04;  1.0000000E+04;  0.0000000E+00;  9.9716680E+03;0.82260084;0.0;0.21460755;13397.97
  8.8016862E-01;  9.9999998E-03; -2.2024688E-01;2397;0.095929518;0.0;-0.1086531;1011.5504;  4.0576488E-01;9558.085;3;33.909649;0.0;-14.279691;0;1.040282;  9.9709580E+03;  0.0000000E+00;  3.3677867E-04;  1.0000000E+04;  0.0000000E+00;  9.9726035E+03;0.81070203;0.0;0.22958001;12935.876
  8.8016319E-01;  9.9999998E-03; -2.0021276E-01;2398;0.094110429;0.0;-0.10259242;1011.6295;  4.0576443E-01;9623.5879;3;33.64542;0.0;-14.885207;0;1.0522907;  9.9719131E+03;  0.0000000E+00;  1.0294035E-04;  1.0000000E+04;  0.0000000E+00;  9.9732334E+03;0.79188299;0.0;0.26040766;12607.469
  9.0018541E-01;  9.9999998E-03; -3.0032003E-01;2424;0.094487868;0.0;-0.12300773;1010.8796;  4.0540239E-01;8999.4346;3;43.218052;0.0;-55.89357;0;1.1411953;  9.9735967E+03;  0.0000000E+00;  7.3838187E-04;  1.0000000E+04;  0.0000000E+00;  9.9745566E+03;0.71772474;0.0;0.42347053;11573.41
  9.0019667E-01;  9.9999998E-03; -2.8029996E-01;2425;0.10497423;0.0;-0.10613271;1010.8945;  4.0540275E-01;9011.6592;3;42.988022;0.0;-40.269321;0;0.89960885;  9.9739746E+03;  0.0000000E+00;  1.4724532E-03;  1.0000000E+04;  0.0000000E+00;  9.9744736E+03;0.71309179;0.0;0.18651707;11953.654
  9.0019912E-01;  9.9999998E-03; -2.6029196E-01;2426;0.10998861;0.0;-0.10077927;1010.8054;  4.0540263E-01;8937.999;3;42.718456;0.0;-21.80505;0;0.8803947;  9.9745332E+03;  0.0000000E+00;  1.5321781E-03;  1.0000000E+04;  0.0000000E+00;  9.9721709E+03;0.70386982;0.0;0.17652485;13123.81
  9.0020227E-01;  9.9999998E-03; -2.4026741E-01;2427;0.11383528;0.0;-0.10388688;1010.8878;  4.0540212E-01;9006.1357;3;42.366497;0.0;-15.779572;0;0.89858919;  9.9752988E+03;  0.0000000E+00;  9.9525659E-04;  1.0000000E+04;  0.0000000E+00;  9.9730537E+03;0.68893886;0.0;0.20965034;12670.22
  9.0020162E-01;  9.9999998E-03; -2.2023277E-01;2428;0.11554017;0.0;-0.10280143;1010.9796;  4.0540174E-01;9082.1631;3;41.791931;0.0;-14.034973;0;0.89224875;  9.9762764E+03;  0.0000000E+00;  4.5192108E-04;  1.0000000E+04;  0.0000000E+00;  9.9739111E+03;0.66800362;0.0;0.22424515;12251.839
  9.0019524E-01;  9.9999998E-03; -2.0020099E-01;2429;0.11350745;0.0;-0.097368486;1011.0682;  4.0540147E-01;9155.4297;3;41.453007;0.0;-14.604113;0;0.89538932;  9.9774160E+03;  0.0000000E+00;  1.2775153E-04;  1.0000000E+04;  0.0000000E+00;  9.9745342E+03;0.6419037;0.0;0.25348565;11930.394
  9.2021054E-01;  9.9999998E-03; -3.0030021E-01;2455;0.10841865;0.0;-0.11603808;1010.1631;  4.0498576E-01;8402.1953;3;50.499954;0.0;-53.198376;0;0.98904097;  9.9783594E+03;  0.0000000E+00;  9.9265319E-04;  1.0000000E+04;  0.0000000E+00;  9.9761729E+03;0.59407127;0.0;0.3949697;10763.244
  9.2022187E-01;  9.9999998E-03; -2.8028077E-01;2456;0.1198205;0.0;-0.10038313;1010.1901;  4.0498596E-01;8424.4648;3;50.130733;0.0;-38.706829;0;0.76076555;  9.9789912E+03;  0.0000000E+00;  1.8412292E-03;  1.0000000E+04;  0.0000000E+00;  9.9760791E+03;0.58110797;0.0;0.17965759;11116.52
  9.2022407E-01;  9.9999998E-03; -2.6027191E-01;2457;0.12509076;0.0;-0.094952807;1010.1271;  4.0498582E-01;8372.3291;3;49.853722;0.0;-21.313147;0;0.73217249;  9.9798408E+03;  0.0000000E+00;  1.8622059E-03;  1.0000000E+04;  0.0000000E+00;  9.9740029E+03;0.56243032;0.0;0.1697422;12167.774
  9.2022711E-01;  9.9999998E-03; -2.4024795E-01;2458;0.12861851;0.0;-0.09700191;1010.2188;  4.0498549E-01;8448.1162;3;49.115406;0.0;-15.648492;0;0.73699218;  9.9809170E+03;  0.0000000E+00;  1.1706408E-03;  1.0000000E+04;  0.0000000E+00;  9.9747627E+03;0.53750348;0.0;0.19948868;11781.306
  9.2022669E-01;  9.9999998E-03; -2.2021599E-01;2459;0.13056797;0.0;-0.095533952;1010.318;  4.0498504E-01;8530.2109;3;48.260197;0.0;-13.557059;0;0.72219956;  9.9821680E+03;  0.0000000E+00;  5.0430692E-04;  1.0000000E+04;  0.0000000E+00;  9.9754834E+03;0.5073086;0.0;0.21489093;11431.772
  9.2021859E-01;  9.9999998E-03; -2.0018736E-01;2460;0.12790291;0.0;-0.09120544;1010.4141;  4.0498477E-01;8609.5498;3;47.648186;0.0;-14.103524;0;0.71786582;  9.9835088E+03;  0.0000000E+00;  1.2686718E-04;  1.0000000E+04;  0.0000000E+00;  9.9760635E+03;0.47427347;0.0;0.24359234;11133.559
  9.4022804E-01;  9.9999998E-03; -3.0027848E-01;2486;0.11836503;0.0;-0.1082501;1009.3641;  4.0453541E-01;7735.875;3;55.857063;0.0;-50.118557;0;0.83171964;  9.9829561E+03;  0.0000000E+00;  1.1027997E-03;  1.0000000E+04;  0.0000000E+00;  9.9779932E+03;0.47028166;0.0;0.36143801;9849.3564
  9.4023943E-01;  9.9999998E-03; -2.8026003E-01;2487;0.13049723;0.0;-0.093981683;1009.4027;  4.0453565E-01;7767.7793;3;55.443665;0.0;-36.749214;0;0.61889356;  9.9838730E+03;  0.0000000E+00;  2.1152194E-03;  1.0000000E+04;  0.0000000E+00;  9.9778467E+03;0.44879714;0.0;0.17009644;10191.716
  9.4024146E-01;  9.9999998E-03; -2.6025042E-01;2488;0.1358844;0.0;-0.08860711;1009.3678;  4.0453550E-01;7738.9229;3;55.054653;0.0;-20.460896;0;0.58131623;  9.9850400E+03;  0.0000000E+00;  1.9847197E-03;  1.0000000E+04;  0.0000000E+00;  9.9760078E+03;0.42081198;0.0;0.16050425;11117.488
  9.4024372E-01;  9.9999998E-03; -2.4022718E-01;2489;0.13858746;0.0;-0.089356065;1009.4694;  4.0453511E-01;7822.8281;3;53.610126;0.0;-14.868401;0;0.5726862;  9.9864307E+03;  0.0000000E+00;  1.1751330E-03;  1.0000000E+04;  0.0000000E+00;  9.9766484E+03;0.38663092;0.0;0.1860553;10798.664
  9.4023830E-01;  9.9999998E-03; -2.2019845E-01;2490;0.13743149;0.0;-0.088251963;1009.5743;  4.0453488E-01;7909.4932;3;51.333878;0.0;-12.869002;0;0.5525378;  9.9879551E+03;  0.0000000E+00;  4.8284975E-04;  1.0000000E+04;  0.0000000E+00;  9.9772188E+03;0.34861636;0.0;0.20392147;10522.775
  9.4022560E-01;  9.9999998E-03; -2.0017269E-01;2491;0.13174687;0.0;-0.084573381;1009.6773;  4.0453467E-01;7994.585;3;49.393684;0.0;-13.617288;0;0.54203224;  9.9894570E+03;  0.0000000E+00;  1.0612136E-04;  1.0000000E+04;  0.0000000E+00;  9.9777588E+03;0.31052983;0.0;0.23150238;10248.155
  9.6024013E-01;  9.9999998E-03; -3.0025566E-01;2517;0.1254068;0.0;-0.099758856;1008.4977;  4.0407127E-01;7013.1401;3;59.698273;0.0;-46.532463;0;0.6849981;  9.9867773E+03;  0.0000000E+00;  1.0053016E-03;  1.0000000E+04;  0.0000000E+00;  9.9799502E+03;0.36340484;0.0;0.32159325;8863.3232
  9.6025127E-01;  9.9999998E-03; -2.8023839E-01;2518;0.13777369;0.0;-0.08707729;1008.5479;  4.0407136E-01;7054.5547;3;59.091064;0.0;-34.205696;0;0.49134594;  9.9879961E+03;  0.0000000E+00;  5.4653296E-03;  1.0000000E+04;  0.0000000E+00;  9.9797285E+03;0.33381635;0.0;0.15752961;9200.6543
  9.6025252E-01;  9.9999998E-03; -2.6022840E-01;2519;0.14288948;0.0;-0.081769697;1008.5385;  4.0407136E-01;7046.7817;3;58.523872;0.0;-19.41209;0;0.44526052;  9.9894805E+03;  0.0000000E+00;  5.0384244E-03;  1.0000000E+04;  0.0000000E+00;  9.9780820E+03;0.29740965;0.0;0.14785087;10024.007
  9.6025068E-01;  9.9999998E-03; -2.4020696E-01;2520;0.1430258;0.0;-0.082375571;1008.6462;  4.0407097E-01;7135.7207;3;55.194702;0.0;-14.16732;0;0.42988175;  9.9911650E+03;  0.0000000E+00;  2.2675723E-03;  1.0000000E+04;  0.0000000E+00;  9.9785498E+03;0.25582007;0.0;0.17406169;9791.3359
  9.6023959E-01;  9.9999998E-03; -2.2018118E-01;2521;0.13831443;0.0;-0.081827328;1008.7576;  4.0407079E-01;7227.6152;3;51.680977;0.0;-12.694116;0;0.40520972;  9.9929072E+03;  0.0000000E+00;  5.2128889E-04;  1.0000000E+04;  0.0000000E+00;  9.9790225E+03;0.21251996;0.0;0.19268976;9564.5859
  9.6022499E-01;  9.9999998E-03; -2.0015752E-01;2522;0.13167389;0.0;-0.077757999;1008.865;  4.0407065E-01;7316.2646;3;49.700096;0.0;-13.164142;0;0.38967234;  9.9945244E+03;  0.0000000E+00;  7.7850556E-05;  1.0000000E+04;  0.0000000E+00;  9.9795410E+03;0.17177302;0.0;0.21789932;9308.8379
  9.8025042E-01;  9.9999998E-03; -3.0023256E-01;2548;0.13144594;0.0;-0.091145717;1007.5922;  4.0361118E-01;6257.4482;3;63.071789;0.0;-42.758282;0;0.56578028;  9.9895313E+03;  0.0000000E+00;  5.8359455E-04;  1.0000000E+04;  0.0000000E+00;  9.9820107E+03;0.28244853;0.0;0.28333175;7811.6631
  9.8026007E-01;  9.9999998E-03; -2.8021637E-01;2549;0.14320114;0.0;-0.079708897;1007.6529;  4.0361112E-01;6307.4536;3;61.952614;0.0;-31.445074;0;0.38617742;  9.9910293E+03;  0.0000000E+00;  1.7583398E-02;  1.0000000E+04;  0.0000000E+00;  9.9817246E+03;0.2464055;0.0;0.13977191;8149.5703
  9.8025894E-01;  9.9999998E-03; -2.6020664E-01;2550;0.14668195;0.0;-0.074946724;1007.66;  4.0361103E-01;6313.3491;3;60.008492;0.0;-18.264374;0;0.33834016;  9.9928008E+03;  0.0000000E+00;  1.7813494E-02;  1.0000000E+04;  0.0000000E+00;  9.9801143E+03;0.20330459;0.0;0.13503557;8934.1982
  9.8025149E-01;  9.9999998E-03; -2.4018756E-01;2551;0.1435679;0.0;-0.076046042;1007.7697;  4.0361086E-01;6403.7441;3;55.061062;0.0;-13.624504;0;0.32047755;  9.9947168E+03;  0.0000000E+00;  9.1971075E-03;  1.0000000E+04;  0.0000000E+00;  9.9803877E+03;0.15669268;0.0;0.16378488;8793.4873
  9.8023736E-01;  9.9999998E-03; -2.2016385E-01;2552;0.13767044;0.0;-0.075440109;1007.8873;  4.0361080E-01;6500.6279;3;51.776165;0.0;-12.617338;0;0.29122514;  9.9966074E+03;  0.0000000E+00;  2.5036035E-03;  1.0000000E+04;  0.0000000E+00;  9.9808291E+03;0.11065841;0.0;0.18056674;8588.8535
  9.8022181E-01;  9.9999998E-03; -2.0014259E-01;2553;0.13049084;0.0;-0.071146905;1007.9965;  4.0361053E-01;6590.7319;3;49.83041;0.0;-12.795696;0;0.27251607;  9.9982969E+03;  0.0000000E+00;  2.4852180E-04;  1.0000000E+04;  0.0000000E+00;  9.9813184E+03;0.069155239;0.0;0.20336083;8353.1943
  1.0002620E+00;  9.9999998E-03; -3.0020967E-01;2579;0.13822995;0.0;-0.082943521;1006.6926;  4.0317005E-01;5506.0405;3;67.270546;0.0;-39.686573;0;0.47507602;  9.9912988E+03;  0.0000000E+00; -3.1604066E-03;  1.0000000E+04;  0.0000000E+00;  9.9842412E+03;0.2266611;0.0;0.24841493;6670.6274
  1.0002676E+00;  9.9999998E-03; -2.8019446E-01;2580;0.14756528;0.0;-0.072120115;1006.7565;  4.0317020E-01;5558.6055;3;64.773506;0.0;-28.537458;0;0.30458224;  9.9930293E+03;  0.0000000E+00;  3.6524154E-02;  1.0000000E+04;  0.0000000E+00;  9.9837930E+03;0.18672013;0.0;0.11786209;7061.9399
  1.0002620E+00;  9.9999998E-03; -2.6018575E-01;2581;0.14781076;0.0;-0.068531185;1006.7665;  4.0316996E-01;5566.8472;3;60.199356;0.0;-17.153799;0;0.26402155;  9.9950264E+03;  0.0000000E+00;  3.9747257E-02;  1.0000000E+04;  0.0000000E+00;  9.9820039E+03;0.13890179;0.0;0.12511976;7892.7236
  1.0002502E+00;  9.9999998E-03; -2.4016874E-01;2582;0.14311491;0.0;-0.069858335;1006.8759;  4.0316984E-01;5656.8872;3;54.925674;0.0;-13.11151;0;0.24369565;  9.9970947E+03;  0.0000000E+00;  2.1410935E-02;  1.0000000E+04;  0.0000000E+00;  9.9821143E+03;0.089718707;0.0;0.15397693;7829.3413
  1.0002334E+00;  9.9999998E-03; -2.2014682E-01;2583;0.13628262;0.0;-0.068677485;1006.9958;  4.0316981E-01;5755.561;3;51.814781;0.0;-12.426044;0;0.21113876;  9.9990527E+03;  0.0000000E+00;  5.9239045E-03;  1.0000000E+04;  0.0000000E+00;  9.9825420E+03;0.043271422;0.0;0.16786733;7639.854
  1.0002172E+00;  9.9999998E-03; -2.0012861E-01;2584;0.1287937;0.0;-0.065002538;1007.1048;  4.0316963E-01;5845.2114;3;49.902264;0.0;-12.371767;0;0.19123481;  1.0000753E+04;  0.0000000E+00;  5.1859819E-04;  1.0000000E+04;  0.0000000E+00;  9.9830078E+03;0.0025699278;0.0;0.18866488;7423.0703
  1.0202777E+00;  9.9999998E-03; -3.0018765E-01;2610;0.14706533;0.0;-0.07532391;1005.8408;  4.0275985E-01;4793.7212;3;73.241333;0.0;-37.536175;0;0.40603116;  9.9923525E+03;  0.0000000E+00; -9.1034072E-03;  1.0000000E+04;  0.0000000E+00;  9.9866143E+03;0.19047441;0.0;0.21555676;5469.5376
  1.0202754E+00;  9.9999998E-03; -2.8017393E-01;2611;0.15119185;0.0;-0.064992093;1005.8954;  4.0276009E-01;4838.6309;3;67.964188;0.0;-25.572748;0;0.24677104;  9.9943252E+03;  0.0000000E+00;  4.3618295E-02;  1.0000000E+04;  0.0000000E+00;  9.9857305E+03;0.1471114;0.0;0.099659637;6028.3413
  1.0202643E+00;  9.9999998E-03; -2.6016623E-01;2612;0.14823605;0.0;-0.062197614;1005.9017;  4.0276021E-01;4843.7261;3;60.624275;0.0;-15.994422;0;0.21181627;  9.9964961E+03;  0.0000000E+00;  5.0375130E-02;  1.0000000E+04;  0.0000000E+00;  9.9836836E+03;0.096323267;0.0;0.115493;6934.3813
  1.0202483E+00;  9.9999998E-03; -2.4015100E-01;2613;0.14246315;0.0;-0.063536033;1006.0058;  4.0276006E-01;4929.1504;3;55.116817;0.0;-12.568473;0;0.19188544;  9.9986152E+03;  0.0000000E+00;  2.2683594E-02;  1.0000000E+04;  0.0000000E+00;  9.9836396E+03;0.047126856;0.0;0.14475858;6940.1416
  1.0202290E+00;  9.9999998E-03; -2.2013164E-01;2614;0.13477829;0.0;-0.062343903;1006.1225;  4.0275994E-01;5024.9492;3;51.977306;0.0;-12.023752;0;0.15934201;  1.0000532E+04;  0.0000000E+00;  6.0158916E-04;  1.0000000E+04;  0.0000000E+00;  9.9840381E+03;0.0025964691;0.0;0.15674554;6770.4595
  1.0202121E+00;  9.9999998E-03; -2.0011590E-01;2615;0.12689684;0.0;-0.059401844;1006.2287;  4.0275994E-01;5112.1357;3;49.760036;0.0;-12.274613;0;0.13922289;  1.0002160E+04;  0.0000000E+00; -3.6997881E-03;  1.0000000E+04;  0.0000000E+00;  9.9845234E+03;-0.035606347;0.0;0.17482924;6556.5825
  1.0403000E+00;  9.9999998E-03; -3.0016863E-01;2641;0.15886857;0.0;-0.067145243;1005.0285;  4.0238932E-01;4113.7437;3;81.607269;0.0;-33.423618;0;0.34733361;  9.9927266E+03;  0.0000000E+00;  1.5767395E-02;  1.0000000E+04;  0.0000000E+00;  9.9885010E+03;0.17354922;0.0;0.1737844;4507.9907
  1.0402857E+00;  9.9999998E-03; -2.8015631E-01;2642;0.15549904;0.0;-0.058897898;1005.0922;  4.0238950E-01;4165.9302;3;71.760887;0.0;-23.343023;0;0.20903036;  9.9952578E+03;  0.0000000E+00; -1.8637832E-03;  1.0000000E+04;  0.0000000E+00;  9.9872354E+03;0.11857921;0.0;0.090451159;5168.8667
  1.0402672E+00;  9.9999998E-03; -2.6014882E-01;2643;0.14896731;0.0;-0.056201544;1005.1029;  4.0238956E-01;4174.624;3;61.570225;0.0;-14.938382;0;0.17314124;  9.9976309E+03;  0.0000000E+00;  6.2075430E-03;  1.0000000E+04;  0.0000000E+00;  9.9850693E+03;0.06499096;0.0;0.10815029;6087.2935
  1.0402465E+00;  9.9999998E-03; -2.4013537E-01;2644;0.14187138;0.0;-0.057300888;1005.1964;  4.0238962E-01;4251.0991;3;55.615845;0.0;-12.066151;0;0.15593588;  9.9996982E+03;  0.0000000E+00; -2.0515405E-02;  1.0000000E+04;  0.0000000E+00;  9.9848594E+03;0.018317403;0.0;0.13761848;6165.8789
  1.0402249E+00;  9.9999998E-03; -2.2011843E-01;2645;0.13344909;0.0;-0.056261268;1005.304;  4.0238953E-01;4339.1812;3;52.126358;0.0;-11.361531;0;0.12652668;  1.0001433E+04;  0.0000000E+00; -3.5809692E-02;  1.0000000E+04;  0.0000000E+00;  9.9852646E+03;-0.021675877;0.0;0.14820255;6005.4009
  1.0402066E+00;  9.9999998E-03; -2.0010406E-01;2646;0.12484919;0.0;-0.053841464;1005.4034;  4.0238950E-01;4420.5327;3;49.849995;0.0;-11.58574;0;0.10750768;  1.0002863E+04;  0.0000000E+00; -2.4295243E-02;  1.0000000E+04;  0.0000000E+00;  9.9858086E+03;-0.05530132;0.0;0.162809;5777.4399
  1.0603235E+00;  9.9999998E-03; -3.0015394E-01;2672;0.17021957;0.0;-0.058624163;1004.2304;  4.0206307E-01;3445.9414;3;90.148674;0.0;-27.02883;0;0.30381587;  9.9921875E+03;  0.0000000E+00;  1.7569496E-01;  1.0000000E+04;  0.0000000E+00;  9.9893945E+03;0.17881757;0.0;0.12499829;4040.7385
  1.0602980E+00;  9.9999998E-03; -2.8014290E-01;2673;0.16071364;0.0;-0.053675216;1004.3453;  4.0206319E-01;3539.5723;3;75.749001;0.0;-20.911406;0;0.19087905;  9.9959111E+03;  0.0000000E+00; -1.3139509E-01;  1.0000000E+04;  0.0000000E+00;  9.9879414E+03;0.098567039;0.0;0.092312008;4659.0635
  1.0602720E+00;  9.9999998E-03; -2.6013494E-01;2674;0.15089026;0.0;-0.051140741;1004.3843;  4.0206313E-01;3571.3484;3;63.545925;0.0;-14.099877;0;0.14668831;  9.9986611E+03;  0.0000000E+00; -1.4373277E-01;  1.0000000E+04;  0.0000000E+00;  9.9859551E+03;0.038588509;0.0;0.10809981;5466.627
  1.0602455E+00;  9.9999998E-03; -2.4012251E-01;2675;0.14153236;0.0;-0.051658381;1004.4734;  4.0206325E-01;3644.0073;3;56.376637;0.0;-11.727471;0;0.1293792;  1.0000655E+04;  0.0000000E+00; -1.4424308E-01;  1.0000000E+04;  0.0000000E+00;  9.9857354E+03;-0.005114628;0.0;0.13449383;5548.7661
  1.0602216E+00;  9.9999998E-03; -2.2010693E-01;2676;0.13226913;0.0;-0.050454099;1004.5692;  4.0206331E-01;3722.0056;3;52.448826;0.0;-10.861979;0;0.10449546;  1.0002075E+04;  0.0000000E+00; -1.2952258E-01;  1.0000000E+04;  0.0000000E+00;  9.9862158E+03;-0.038223065;0.0;0.14271852;5360.9839
  1.0602012E+00;  9.9999998E-03; -2.0009348E-01;2677;0.12285086;0.0;-0.04829007;1004.6561;  4.0206322E-01;3792.8157;3;49.817631;0.0;-10.643228;0;0.088416867;  1.0003181E+04;  0.0000000E+00; -7.8742489E-02;  1.0000000E+04;  0.0000000E+00;  9.9868350E+03;-0.065002225;0.0;0.15341909;5101.0425
  1.0803388E+00;  9.9999998E-03; -3.0014181E-01;2703;0.17624587;0.0;-0.052152175;1003.5007;  4.0178284E-01;2835.2842;3;95.562592;0.0;-23.076805;0;0.29363304;  9.9909775E+03;  0.0000000E+00;  6.2260211E-01;  1.0000000E+04;  0.0000000E+00;  9.9900137E+03;0.19436039;0.0;0.099272639;4277.6689
  1.0803075E+00;  9.9999998E-03; -2.8013191E-01;2704;0.16458017;0.0;-0.048931506;1003.6857;  4.0178302E-01;2985.1602;3;79.748932;0.0;-18.865696;0;0.18071726;  9.9962461E+03;  0.0000000E+00; -2.7233523E-01;  1.0000000E+04;  0.0000000E+00;  9.9884102E+03;0.086115845;0.0;0.094601408;4290.0938
  1.0802765E+00;  9.9999998E-03; -2.6012319E-01;2705;0.15264855;0.0;-0.046269778;1003.7658;  4.0178290E-01;3050.0732;3;66.190338;0.0;-13.397148;0;0.12285352;  9.9995742E+03;  0.0000000E+00; -3.9585292E-01;  1.0000000E+04;  0.0000000E+00;  9.9866748E+03;0.015741285;0.0;0.10711224;5078.5942
  1.0802456E+00;  9.9999998E-03; -2.4011160E-01;2706;0.14153904;0.0;-0.046073034;1003.8522;  4.0178302E-01;3120.105;3;57.745682;0.0;-11.047611;0;0.10555711;  1.0001562E+04;  0.0000000E+00; -3.6219406E-01;  1.0000000E+04;  0.0000000E+00;  9.9863994E+03;-0.026402017;0.0;0.13195913;5134.8643
  1.0802191E+00;  9.9999998E-03; -2.2009724E-01;2707;0.13129492;0.0;-0.044939574;1003.9322;  4.0178299E-01;3184.9194;3;52.986256;0.0;-10.243979;0;0.088128611;  1.0002614E+04;  0.0000000E+00; -2.9687166E-01;  1.0000000E+04;  0.0000000E+00;  9.9869297E+03;-0.051718399;0.0;0.13984701;4882.9854
  1.0801966E+00;  9.9999998E-03; -2.0008411E-01;2708;0.12103897;0.0;-0.04280987;1004.0014;  4.0178311E-01;3240.9443;3;49.829086;0.0;-9.7303143;0;0.076876812;  1.0003295E+04;  0.0000000E+00; -1.8478297E-01;  1.0000000E+04;  0.0000000E+00;  9.9876240E+03;-0.0700031;0.0;0.14687991;4544.27
  1.1003114E+00;  9.9999998E-03; -2.8012207E-01;2734;0.16637981;0.0;-0.044564296;1003.1347;  4.0154797E-01;2519.7712;3;84.33242;0.0;-17.390062;0;0.17563051;  9.9962520E+03;  0.0000000E+00; -2.2084551E-01;  1.0000000E+04;  0.0000000E+00;  9.9891328E+03;0.082757428;0.0;0.092873082;3662.1892
  1.1002793E+00;  9.9999998E-03; -2.6011270E-01;2735;0.15350893;0.0;-0.041390158;1003.2536;  4.0154791E-01;2615.3438;3;69.385864;0.0;-12.7196;0;0.098494574;  1.0000155E+04;  0.0000000E+00; -6.4720386E-01;  1.0000000E+04;  0.0000000E+00;  9.9875850E+03;-0.00068784342;0.0;0.099182419;4778.7554
  1.1002473E+00;  9.9999998E-03; -2.4010241E-01;2736;0.1418695;0.0;-0.040707134;1003.3292;  4.0154800E-01;2676.2292;3;59.710655;0.0;-10.222317;0;0.083749466;  1.0002232E+04;  0.0000000E+00; -6.4886063E-01;  1.0000000E+04;  0.0000000E+00;  9.9870117E+03;-0.042992242;0.0;0.12674171;4952.9448
  1.1002178E+00;  9.9999998E-03; -2.2008902E-01;2737;0.13062777;0.0;-0.039638903;1003.3948;  4.0154806E-01;2728.9683;3;54.070301;0.0;-9.3659201;0;0.074780934;  1.0003036E+04;  0.0000000E+00; -5.3291655E-01;  1.0000000E+04;  0.0000000E+00;  9.9875049E+03;-0.06277623;0.0;0.13755716;4611.6855
  1.1001931E+00;  9.9999998E-03; -2.0007606E-01;2738;0.11958588;0.0;-0.037628423;1003.4442;  4.0154806E-01;2768.6702;3;50.10828;0.0;-8.818594;0;0.070121452;  1.0003290E+04;  0.0000000E+00; -3.5324183E-01;  1.0000000E+04;  0.0000000E+00;  9.9882285E+03;-0.072596461;0.0;0.14271791;4140.979
  1.1203099E+00;  9.9999998E-03; -2.8011402E-01;2763;0.16581294;0.0;-0.040902015;1002.6718;  4.0135518E-01;2126.3774;3;88.951706;0.0;-16.152241;0;0.17895399;  9.9958428E+03;  0.0000000E+00;  2.1321101E-01;  1.0000000E+04;  0.0000000E+00;  9.9899043E+03;0.088021487;0.0;0.090932503;3063.9846
  1.1202807E+00;  9.9999998E-03; -2.6010469E-01;2764;0.15412827;0.0;-0.037586097;1002.8123;  4.0135521E-01;2238.2742;3;73.860992;0.0;-12.031933;0;0.091991842;  1.0000038E+04;  0.0000000E+00; -7.3645532E-01;  1.0000000E+04;  0.0000000E+00;  9.9885039E+03;-0.0014333659;0.0;0.093425207;4239.0791
  1.1202496E+00;  9.9999998E-03; -2.4009489E-01;2765;0.14230312;0.0;-0.035868801;1002.8885;  4.0135530E-01;2299.0366;3;62.525623;0.0;-9.1090193;0;0.067433432;  1.0002347E+04;  0.0000000E+00; -9.2787528E-01;  1.0000000E+04;  0.0000000E+00;  9.9877070E+03;-0.04949579;0.0;0.11692923;4826.499
  1.1202185E+00;  9.9999998E-03; -2.2008246E-01;2766;0.13048775;0.0;-0.034721091;1002.9481;  4.0135524E-01;2346.4229;3;55.605232;0.0;-8.2332392;0;0.064235143;  1.0003199E+04;  0.0000000E+00; -8.1161052E-01;  1.0000000E+04;  0.0000000E+00;  9.9880313E+03;-0.069033034;0.0;0.13326818;4508.0283
  1.1201912E+00;  9.9999998E-03; -2.0006944E-01;2767;0.11862247;0.0;-0.032769568;1002.9828;  4.0135533E-01;2374.165;3;50.837761;0.0;-7.7610478;0;0.065743521;  1.0003187E+04;  0.0000000E+00; -5.8323872E-01;  1.0000000E+04;  0.0000000E+00;  9.9887363E+03;-0.073593706;0.0;0.13933723;3915.5459
  1.1402802E+00;  9.9999998E-03; -2.6009941E-01;2792;0.1541875;0.0;-0.035350867;1002.4109;  4.0120077E-01;1894.1995;3;79.379036;0.0;-11.989356;0;0.11634232;  9.9990010E+03;  0.0000000E+00; -4.4944632E-01;  1.0000000E+04;  0.0000000E+00;  9.9892305E+03;0.018740479;0.0;0.097601838;3154.8994
  1.1402520E+00;  9.9999998E-03; -2.4008982E-01;2793;0.14273751;0.0;-0.032537982;1002.5017;  4.0120062E-01;1965.61;3;66.534378;0.0;-8.5555859;0;0.069271259;  1.0001633E+04;  0.0000000E+00; -1.0600634E+00;  1.0000000E+04;  0.0000000E+00;  9.9884072E+03;-0.039650254;0.0;0.10892151;4389.0938
  1.1402217E+00;  9.9999998E-03; -2.2007853E-01;2794;0.13121805;0.0;-0.031088376;1002.5656;  4.0120074E-01;2015.7643;3;58.069542;0.0;-7.2706432;0;0.063813284;  1.0002829E+04;  0.0000000E+00; -1.0882772E+00;  1.0000000E+04;  0.0000000E+00;  9.9884766E+03;-0.065135017;0.0;0.1289483;4429.3179
  1.1401918E+00;  9.9999998E-03; -2.0006508E-01;2795;0.11850745;0.0;-0.028780362;1002.6065;  4.0120068E-01;2048.0298;3;52.119373;0.0;-6.6835465;0;0.063698322;  1.0002933E+04;  0.0000000E+00; -8.5689187E-01;  1.0000000E+04;  0.0000000E+00;  9.9891836E+03;-0.072094068;0.0;0.13579239;3828.4329
  1.1602770E+00;  9.9999998E-03; -2.6009560E-01;2819;0.15260857;0.0;-0.033834528;1002.0524;  4.0107942E-01;1586.006;3;84.774399;0.0;-12.253086;0;0.15629742;  9.9972354E+03;  0.0000000E+00;  3.9444137E-01;  1.0000000E+04;  0.0000000E+00;  9.9898877E+03;0.05242601;0.0;0.1038714;2513.5002
  1.1602541E+00;  9.9999998E-03; -2.4008760E-01;2820;0.14348301;0.0;-0.031315081;1002.1332;  4.0107945E-01;1648.4059;3;72.138786;0.0;-9.0661469;0;0.10853849;  9.9998740E+03;  0.0000000E+00; -8.4435332E-01;  1.0000000E+04;  0.0000000E+00;  9.9888584E+03;-0.0058058836;0.0;0.11434437;3347.5732
  1.1602263E+00;  9.9999998E-03; -2.2007695E-01;2821;0.1323978;0.0;-0.028882379;1002.219;  4.0107942E-01;1714.777;3;61.788933;0.0;-6.8817477;0;0.08158645;  1.0001610E+04;  0.0000000E+00; -1.2468776E+00;  1.0000000E+04;  0.0000000E+00;  9.9888340E+03;-0.044740561;0.0;0.12632701;4069.0693
  1.1601962E+00;  9.9999998E-03; -2.0006402E-01;2822;0.11975903;0.0;-0.026386356;1002.2855;  4.0107957E-01;1766.2314;3;54.333199;0.0;-5.9641037;0;0.071454987;  1.0002267E+04;  0.0000000E+00; -1.1334053E+00;  1.0000000E+04;  0.0000000E+00;  9.9895000E+03;-0.062405605;0.0;0.13386059;3750.2146
  1.1802531E+00;  9.9999998E-03; -2.4008618E-01;2846;0.1427138;0.0;-0.030758472;1001.8047;  4.0098628E-01;1365.5858;3;78.187317;0.0;-10.153426;0;0.16402219;  9.9975049E+03;  0.0000000E+00; -7.7098887E-03;  1.0000000E+04;  0.0000000E+00;  9.9893174E+03;0.041503403;0.0;0.12251879;2092.1326
  1.1802306E+00;  9.9999998E-03; -2.2007726E-01;2847;0.1334115;0.0;-0.028179599;1001.8861;  4.0098628E-01;1427.2323;3;67.004745;0.0;-7.4295483;0;0.12692963;  9.9993896E+03;  0.0000000E+00; -1.0392892E+00;  1.0000000E+04;  0.0000000E+00;  9.9890557E+03;-0.0029147025;0.0;0.12984432;3082.47
  1.1802033E+00;  9.9999998E-03; -2.0006570E-01;2848;0.12188408;0.0;-0.02560661;1001.9819;  4.0098637E-01;1499.8057;3;58.090942;0.0;-5.9439554;0;0.10086022;  1.0000737E+04;  0.0000000E+00; -1.2971151E+00;  1.0000000E+04;  0.0000000E+00;  9.9896152E+03;-0.03511747;0.0;0.13597769;3422.885
  1.2002317E+00;  9.9999998E-03; -2.2007757E-01;2871;0.13296685;0.0;-0.028034212;1001.5891;  4.0091622E-01;1171.4036;3;72.926208;0.0;-8.7056913;0;0.18654422;  9.9966445E+03;  0.0000000E+00; -1.4629124E-01;  1.0000000E+04;  0.0000000E+00;  9.9893643E+03;0.051620025;0.0;0.1349242;1749.033
  1.2002102E+00;  9.9999998E-03; -2.0006837E-01;2872;0.12383099;0.0;-0.025870781;1001.6761;  4.0091622E-01;1235.6801;3;63.470276;0.0;-6.8474193;0;0.1585907;  9.9981084E+03;  0.0000000E+00; -1.0742729E+00;  1.0000000E+04;  0.0000000E+00;  9.9896377E+03;0.016483044;0.0;0.14210767;2524.0544
  1.2202255E+00;  9.9999998E-03; -2.2007509E-01;2894;0.12836646;0.0;-0.02613925;1001.4305;  4.0086451E-01;1021.563;3;77.177177;0.0;-9.079711;0;0.18735653;  9.9951348E+03;  0.0000000E+00;  1.3369325E+00;  1.0000000E+04;  0.0000000E+00;  9.9902861E+03;0.07108742;0.0;0.11626911;2269.7905
  1.2202129E+00;  9.9999998E-03; -2.0007023E-01;2895;0.12355436;0.0;-0.026088189;1001.4122;  4.0086463E-01;1008.4749;3;69.274239;0.0;-8.1033115;0;0.21864045;  9.9952900E+03;  0.0000000E+00; -1.4495738E-01;  1.0000000E+04;  0.0000000E+00;  9.9897656E+03;0.07222712;0.0;0.14641333;1357.5703
 -4.7979114E-07;  9.9999998E-03; -1.8000005E-01;1036;-0.00054858328;0.0;-6.1404724e-05;1000.0108;  4.0000001E-01;8.9873991;3;-0.54761922;0.0;-0.059064046;0;-0.010688942;  1.0000223E+04;  0.0000000E+00; -1.1284875E-09;  1.0000000E+04;  0.0000000E+00;  9.9999922E+03;-0.011137246;0.0;0.00044830458;4.5391307
 -4.9415718E-07;  9.9999998E-03; -1.6000004E-01;1037;-0.00056377612;0.0;-4.749075e-05;1000.0112;  4.0000001E-01;9.2836866;3;-0.56170881;0.0;-0.04481449;0;-0.011029493;  1.0000233E+04;  0.0000000E+00; -7.5356454E-10;  1.0000000E+04;  0.0000000E+00;  9.9999922E+03;-0.011462374;0.0;0.00043288071;4.4766364
 -5.0329271E-07;  9.9999998E-03; -1.4000003E-01;1038;-0.0005727571;0.0;-3.5958394e-05;1000.0114;  4.0000001E-01;9.4812117;3;-0.56957459;0.0;-0.033237647;0;-0.011266949;  1.0000236E+04;  0.0000000E+00; -2.4732932E-10;  1.0000000E+04;  0.0000000E+00;  9.9999932E+03;-0.011655807;0.0;0.00038885928;4.1725659
 -5.0872654E-07;  9.9999998E-03; -1.2000003E-01;1039;-0.00057740457;0.0;-2.6360851e-05;1000.0117;  4.0000001E-01;9.6787367;3;-0.57301629;0.0;-0.02379711;0;-0.011422121;  1.0000239E+04;  0.0000000E+00; -2.7321046E-11;  1.0000000E+04;  0.0000000E+00;  9.9999941E+03;-0.011755683;0.0;0.00033356165;3.7707334
 -5.1161953E-07;  9.9999998E-03; -1.0000002E-01;1040;-0.00057917199;0.0;-1.8696246e-05;1000.0117;  4.0000001E-01;9.6787367;3;-0.5735594;0.0;-0.016453533;0;-0.011516249;  1.0000240E+04;  0.0000000E+00; -2.6319016E-11;  1.0000000E+04;  0.0000000E+00;  9.9999941E+03;-0.011793308;0.0;0.00027705877;3.3531048
 -5.1287668E-07;  9.9999998E-03; -8.0000013E-02;1041;-0.00057920406;0.0;-1.2826094e-05;1000.0118;  4.0000001E-01;9.7775002;3;-0.57245696;0.0;-0.010986468;0;-0.011568361;  1.0000241E+04;  0.0000000E+00; -1.3391938E-11;  1.0000000E+04;  0.0000000E+00;  9.9999961E+03;-0.01179385;0.0;0.00022548861;2.9689741
 -5.1323309E-07;  9.9999998E-03; -6.0000010E-02;1042;-0.0005784324;0.0;-8.2947281e-06;1000.0119;  4.0000001E-01;9.8762627;3;-0.57071364;0.0;-0.0069020586;0;-0.011593789;  1.0000242E+04;  0.0000000E+00; -3.6567232E-11;  1.0000000E+04;  0.0000000E+00;  9.9999961E+03;-0.011776475;0.0;0.00018268666;2.6488214
 -5.1316067E-07;  9.9999998E-03; -4.0000007E-02;1043;-0.00057746028;0.0;-4.9236119e-06;1000.0119;  4.0000001E-01;9.8762627;3;-0.5690037;0.0;-0.0039791651;0;-0.011604088;  1.0000243E+04;  0.0000000E+00; -1.7790739E-11;  1.0000000E+04;  0.0000000E+00;  9.9999971E+03;-0.011754993;0.0;0.00015090505;2.4104424
 -5.1299594E-07;  9.9999998E-03; -2.0000003E-02;1044;-0.00057672377;0.0;-2.2659842e-06;1000.0119;  4.0000001E-01;9.8762627;3;-0.56780648;0.0;-0.0017887144;0;-0.011607205;  1.0000243E+04;  0.0000000E+00;  6.5885058E-12;  1.0000000E+04;  0.0000000E+00;  9.9999980E+03;-0.011738615;0.0;0.00013140979;2.2639413
  1.9999301E-02;  9.9999998E-03; -1.8000008E-01;1066;-0.00079157279;0.0;-8.3520659e-05;1000.0132;  4.0000001E-01;10.962651;3;-0.73544288;0.0;-0.073832333;0;-0.012988647;  1.0000279E+04;  0.0000000E+00;  7.8171070E-10;  1.0000000E+04;  0.0000000E+00;  9.9999883E+03;-0.013599858;0.0;0.00061121094;6.2063527
  1.9999282E-02;  9.9999998E-03; -1.6000006E-01;1067;-0.0008112471;0.0;-6.5033491e-05;1000.0138;  4.0000001E-01;11.456465;3;-0.75207889;0.0;-0.056348138;0;-0.013362333;  1.0000289E+04;  0.0000000E+00;  5.4865775E-11;  1.0000000E+04;  0.0000000E+00;  9.9999883E+03;-0.013950269;0.0;0.00058793603;6.0940099
  1.9999271E-02;  9.9999998E-03; -1.4000005E-01;1068;-0.00082206877;0.0;-4.9552549e-05;1000.014;  4.0000001E-01;11.65399;3;-0.76045394;0.0;-0.041909251;0;-0.013618508;  1.0000293E+04;  0.0000000E+00;  2.8004109E-11;  1.0000000E+04;  0.0000000E+00;  9.9999902E+03;-0.01414609;0.0;0.00052758108;5.6630816
  1.9999264E-02;  9.9999998E-03; -1.2000003E-01;1069;-0.00082701782;0.0;-3.6378595e-05;1000.0143;  4.0000001E-01;11.851515;3;-0.76322472;0.0;-0.029870709;0;-0.013781399;  1.0000294E+04;  0.0000000E+00;  4.1468568E-11;  1.0000000E+04;  0.0000000E+00;  9.9999912E+03;-0.014234237;0.0;0.00045283907;5.1059008
  1.9999262E-02;  9.9999998E-03; -1.0000002E-01;1070;-0.00082806189;0.0;-2.6032005e-05;1000.0145;  4.0000001E-01;11.950277;3;-0.76234686;0.0;-0.020694464;0;-0.013876427;  1.0000295E+04;  0.0000000E+00;  1.1990442E-11;  1.0000000E+04;  0.0000000E+00;  9.9999922E+03;-0.014252828;0.0;0.00037640007;4.527513
  1.9999260E-02;  9.9999998E-03; -8.0000021E-02;1071;-0.00082695123;0.0;-1.7946291e-05;1000.0146;  4.0000001E-01;12.04904;3;-0.7595911;0.0;-0.0137383;0;-0.013925779;  1.0000296E+04;  0.0000000E+00; -2.2442893E-11;  1.0000000E+04;  0.0000000E+00;  9.9999941E+03;-0.014232297;0.0;0.00030651881;3.9952521
  1.9999260E-02;  9.9999998E-03; -6.0000014E-02;1072;-0.00082495844;0.0;-1.1741082e-05;1000.0146;  4.0000001E-01;12.04904;3;-0.75626051;0.0;-0.0086423708;0;-0.013947026;  1.0000296E+04;  0.0000000E+00; -1.6215893E-11;  1.0000000E+04;  0.0000000E+00;  9.9999951E+03;-0.014195476;0.0;0.00024845;3.5514548
  1.9999262E-02;  9.9999998E-03; -4.0000007E-02;1073;-0.00082295656;0.0;-7.0207961e-06;1000.0146;  4.0000001E-01;12.04904;3;-0.75327766;0.0;-0.0049694902;0;-0.013953316;  1.0000296E+04;  0.0000000E+00; -1.7787090E-11;  1.0000000E+04;  0.0000000E+00;  9.9999961E+03;-0.014158625;0.0;0.00020530871;3.221019
  1.9999262E-02;  9.9999998E-03; -2.0000003E-02;1074;-0.00082153879;0.0;-3.2577334e-06;1000.0146;  4.0000001E-01;12.04904;3;-0.75125766;0.0;-0.0022405572;0;-0.013953644;  1.0000296E+04;  0.0000000E+00;  5.7532489E-13;  1.0000000E+04;  0.0000000E+00;  9.9999961E+03;-0.014132483;0.0;0.00017883863;3.0179765
  3.9999012E-02;  9.9999998E-03; -1.8000010E-01;1097;-0.0011077703;0.0;-9.9553654e-05;1000.016;  4.0000001E-01;13.234192;3;-0.96849716;0.0;-0.080713131;0;-0.015240438;  1.0000338E+04;  0.0000000E+00;  9.2890456E-10;  1.0000000E+04;  0.0000000E+00;  9.9999854E+03;-0.01600912;0.0;0.00076868228;7.9446692
  3.9998990E-02;  9.9999998E-03; -1.6000007E-01;1098;-0.0011322952;0.0;-7.7966644e-05;1000.0164;  4.0000001E-01;13.530479;3;-0.98762465;0.0;-0.061862729;0;-0.015620054;  1.0000344E+04;  0.0000000E+00;  4.9028170E-10;  1.0000000E+04;  0.0000000E+00;  9.9999863E+03;-0.016355479;0.0;0.00073542551;7.7599049
  3.9998975E-02;  9.9999998E-03; -1.4000006E-01;1099;-0.0011449165;0.0;-5.9412101e-05;1000.0168;  4.0000001E-01;13.92553;3;-0.99629629;0.0;-0.045779191;0;-0.015870342;  1.0000350E+04;  0.0000000E+00;  2.8988059E-10;  1.0000000E+04;  0.0000000E+00;  9.9999863E+03;-0.016528964;0.0;0.00065862242;7.1903524
  3.9998967E-02;  9.9999998E-03; -1.2000004E-01;1100;-0.0011496264;0.0;-4.3825417e-05;1000.017;  4.0000001E-01;14.024293;3;-0.99783719;0.0;-0.032590009;0;-0.016020216;  1.0000351E+04;  0.0000000E+00;  2.1955698E-10;  1.0000000E+04;  0.0000000E+00;  9.9999893E+03;-0.016585505;0.0;0.00056528865;6.4720321
  3.9998963E-02;  9.9999998E-03; -1.0000003E-01;1101;-0.0011493368;0.0;-3.1507068e-05;1000.0172;  4.0000001E-01;14.221818;3;-0.99498081;0.0;-0.022501972;0;-0.016099889;  1.0000353E+04;  0.0000000E+00;  9.6880219E-11;  1.0000000E+04;  0.0000000E+00;  9.9999893E+03;-0.016569823;0.0;0.00046993431;5.7284269
  3.9998963E-02;  9.9999998E-03; -8.0000021E-02;1102;-0.0011464697;0.0;-2.1722037e-05;1000.0172;  4.0000001E-01;14.221818;3;-0.99007225;0.0;-0.014729375;0;-0.016134279;  1.0000352E+04;  0.0000000E+00;  2.6733785E-11;  1.0000000E+04;  0.0000000E+00;  9.9999922E+03;-0.016516954;0.0;0.00038267547;5.0440483
  3.9998963E-02;  9.9999998E-03; -6.0000017E-02;1103;-0.0011426925;0.0;-1.428514e-05;1000.0172;  4.0000001E-01;14.221818;3;-0.98470461;0.0;-0.0092041269;0;-0.016142655;  1.0000351E+04;  0.0000000E+00; -1.2949376E-11;  1.0000000E+04;  0.0000000E+00;  9.9999932E+03;-0.01645275;0.0;0.00031009506;4.4731469
  3.9998967E-02;  9.9999998E-03; -4.0000010E-02;1104;-0.0011392252;0.0;-8.5460924e-06;1000.0172;  4.0000001E-01;14.221818;3;-0.98010457;0.0;-0.0052070757;0;-0.01613917;  1.0000351E+04;  0.0000000E+00; -1.6791547E-11;  1.0000000E+04;  0.0000000E+00;  9.9999951E+03;-0.016395308;0.0;0.00025613836;4.0479698
  3.9998967E-02;  9.9999998E-03; -2.0000005E-02;1105;-0.0011368491;0.0;-3.98886e-06;1000.0172;  4.0000001E-01;14.221818;3;-0.9770447;0.0;-0.0023496447;0;-0.016133426;  1.0000350E+04;  0.0000000E+00; -2.6940919E-12;  1.0000000E+04;  0.0000000E+00;  9.9999951E+03;-0.016356446;0.0;0.0002230208;3.7866948
  5.9998661E-02;  9.9999998E-03; -1.8000011E-01;1128;-0.0014827404;0.0;-0.00011065086;1000.0191;  4.0000001E-01;15.80202;3;-1.236722;0.0;-0.082285561;0;-0.017711898;  1.0000401E+04;  0.0000000E+00;  6.2597333E-10;  1.0000000E+04;  0.0000000E+00;  9.9999814E+03;-0.018624991;0.0;0.00091309234;9.7439833
  5.9998631E-02;  9.9999998E-03; -1.6000009E-01;1129;-0.0015114606;0.0;-8.6732631e-05;1000.0195;  4.0000001E-01;16.197071;3;-1.2576604;0.0;-0.062961861;0;-0.01807528;  1.0000411E+04;  0.0000000E+00;  5.1683186E-10;  1.0000000E+04;  0.0000000E+00;  9.9999814E+03;-0.018942719;0.0;0.00086743938;9.4594326
  5.9998617E-02;  9.9999998E-03; -1.4000008E-01;1130;-0.0015250391;0.0;-6.584623e-05;1000.0198;  4.0000001E-01;16.394596;3;-1.2658954;0.0;-0.046096947;0;-0.018297104;  1.0000413E+04;  0.0000000E+00;  5.3185045E-10;  1.0000000E+04;  0.0000000E+00;  9.9999834E+03;-0.01907186;0.0;0.00077475578;8.7409801
  5.9998609E-02;  9.9999998E-03; -1.2000005E-01;1131;-0.0015285593;0.0;-4.8598224e-05;1000.02;  4.0000001E-01;16.493359;3;-1.2654488;0.0;-0.032529905;0;-0.018413737;  1.0000413E+04;  0.0000000E+00;  2.0309317E-10;  1.0000000E+04;  0.0000000E+00;  9.9999854E+03;-0.019078361;0.0;0.00066462351;7.8585372
  5.9998605E-02;  9.9999998E-03; -1.0000004E-01;1132;-0.001526046;0.0;-3.4806741e-05;1000.0201;  4.0000001E-01;16.690884;3;-1.2599809;0.0;-0.021987267;0;-0.018461404;  1.0000412E+04;  0.0000000E+00;  8.7712060E-11;  1.0000000E+04;  0.0000000E+00;  9.9999883E+03;-0.019013805;0.0;0.00055240066;6.9485788
  5.9998609E-02;  9.9999998E-03; -8.0000028E-02;1133;-0.00152058;0.0;-2.3978931e-05;1000.0201;  4.0000001E-01;16.690884;3;-1.2522762;0.0;-0.014180887;0;-0.018467812;  1.0000411E+04;  0.0000000E+00;  1.5329495E-12;  1.0000000E+04;  0.0000000E+00;  9.9999902E+03;-0.018917454;0.0;0.00044964219;6.1110692
  5.9998609E-02;  9.9999998E-03; -6.0000021E-02;1134;-0.0015143519;0.0;-1.5740039e-05;1000.0201;  4.0000001E-01;16.690884;3;-1.2444042;0.0;-0.0086200619;0;-0.01845365;  1.0000410E+04;  0.0000000E+00; -2.1473446E-11;  1.0000000E+04;  0.0000000E+00;  9.9999912E+03;-0.018817721;0.0;0.00036407079;5.4117994
  5.9998613E-02;  9.9999998E-03; -4.0000010E-02;1135;-0.0015089236;0.0;-9.3976796e-06;1000.0201;  4.0000001E-01;16.690884;3;-1.2378373;0.0;-0.0047803703;0;-0.018433794;  1.0000410E+04;  0.0000000E+00; -5.0968427E-12;  1.0000000E+04;  0.0000000E+00;  9.9999932E+03;-0.018734181;0.0;0.00030038654;4.8905621
  5.9998617E-02;  9.9999998E-03; -2.0000005E-02;1136;-0.0015052884;0.0;-4.3819696e-06;1000.0201;  4.0000001E-01;16.690884;3;-1.2335327;0.0;-0.0021008167;0;-0.018418146;  1.0000408E+04;  0.0000000E+00; -5.6467079E-12;  1.0000000E+04;  0.0000000E+00;  9.9999941E+03;-0.018679418;0.0;0.00026127047;4.5700736
  7.9998247E-02;  9.9999998E-03; -1.8000013E-01;1159;-0.0019151738;0.0;-0.00011817092;1000.0228;  4.0000001E-01;18.863661;3;-1.5430013;0.0;-0.080510065;0;-0.020656621;  1.0000479E+04;  0.0000000E+00; -1.1904269E-10;  1.0000000E+04;  0.0000000E+00;  9.9999756E+03;-0.021703221;0.0;0.0010465994;11.677121
  7.9998210E-02;  9.9999998E-03; -1.6000010E-01;1160;-0.001946597;0.0;-9.2360715e-05;1000.0233;  4.0000001E-01;19.258711;3;-1.564623;0.0;-0.061014008;0;-0.020984432;  1.0000484E+04;  0.0000000E+00;  7.0693729E-10;  1.0000000E+04;  0.0000000E+00;  9.9999785E+03;-0.021970946;0.0;0.00098651508;11.264701
  7.9998195E-02;  9.9999998E-03; -1.4000008E-01;1161;-0.0019596282;0.0;-6.960873e-05;1000.0235;  4.0000001E-01;19.456238;3;-1.5711982;0.0;-0.043952197;0;-0.021156855;  1.0000491E+04;  0.0000000E+00;  5.1192234E-10;  1.0000000E+04;  0.0000000E+00;  9.9999814E+03;-0.022035539;0.0;0.00087868486;10.383475
  7.9998188E-02;  9.9999998E-03; -1.2000006E-01;1162;-0.0019605332;0.0;-5.1220395e-05;1000.0235;  4.0000001E-01;19.456238;3;-1.5676819;0.0;-0.030538416;0;-0.021221146;  1.0000491E+04;  0.0000000E+00;  1.3502899E-10;  1.0000000E+04;  0.0000000E+00;  9.9999834E+03;-0.021974614;0.0;0.00075346814;9.3277674
  7.9998188E-02;  9.9999998E-03; -1.0000005E-01;1163;-0.0019545343;0.0;-3.6399182e-05;1000.0236;  4.0000001E-01;19.555;3;-1.5586474;0.0;-0.02003384;0;-0.021220474;  1.0000491E+04;  0.0000000E+00;  6.9498636E-11;  1.0000000E+04;  0.0000000E+00;  9.9999863E+03;-0.021846795;0.0;0.00062632147;8.2438278
  7.9998188E-02;  9.9999998E-03; -8.0000028E-02;1164;-0.0019454048;0.0;-2.4973964e-05;1000.0236;  4.0000001E-01;19.555;3;-1.54738;0.0;-0.012549605;0;-0.021185793;  1.0000487E+04;  0.0000000E+00; -1.6768338E-11;  1.0000000E+04;  0.0000000E+00;  9.9999873E+03;-0.021695549;0.0;0.00050975563;7.2454147
  7.9998195E-02;  9.9999998E-03; -6.0000021E-02;1165;-0.0019359022;0.0;-1.6266185e-05;1000.0236;  4.0000001E-01;19.555;3;-1.5364054;0.0;-0.0072828042;0;-0.021139191;  1.0000485E+04;  0.0000000E+00; -3.9616969E-11;  1.0000000E+04;  0.0000000E+00;  9.9999902E+03;-0.021551665;0.0;0.00041247348;6.4101686
  7.9998203E-02;  9.9999998E-03; -4.0000014E-02;1166;-0.0019279106;0.0;-9.6804097e-06;1000.0236;  4.0000001E-01;19.555;3;-1.5274312;0.0;-0.0038890187;0;-0.021096071;  1.0000483E+04;  0.0000000E+00; -1.4958845E-11;  1.0000000E+04;  0.0000000E+00;  9.9999912E+03;-0.021435995;0.0;0.00033992252;5.7863946
  7.9998203E-02;  9.9999998E-03; -2.0000007E-02;1167;-0.0019226591;0.0;-4.4878734e-06;1000.0236;  4.0000001E-01;19.555;3;-1.5216252;0.0;-0.0016355895;0;-0.021066459;  1.0000483E+04;  0.0000000E+00; -1.8890287E-11;  1.0000000E+04;  0.0000000E+00;  9.9999922E+03;-0.021361753;0.0;0.00029529448;5.4023447
  9.9997744E-02;  9.9999998E-03; -1.8000014E-01;1190;-0.002413881;0.0;-0.00012372584;1000.0275;  4.0000001E-01;22.715403;3;-1.8942248;0.0;-0.07662873;0;-0.024272658;  1.0000578E+04;  0.0000000E+00; -2.9929841E-09;  1.0000000E+04;  0.0000000E+00;  9.9999746E+03;-0.025452878;0.0;0.0011802203;13.897899
  9.9997714E-02;  9.9999998E-03; -1.6000012E-01;1191;-0.0024459441;0.0;-9.6146199e-05;1000.0279;  4.0000001E-01;23.110455;3;-1.914925;0.0;-0.057121709;0;-0.02454357;  1.0000583E+04;  0.0000000E+00; -2.1322592E-10;  1.0000000E+04;  0.0000000E+00;  9.9999756E+03;-0.025648486;0.0;0.0011049157;13.331874
  9.9997692E-02;  9.9999998E-03; -1.4000009E-01;1192;-0.0024562557;0.0;-7.2152179e-05;1000.0281;  4.0000001E-01;23.30798;3;-1.9181588;0.0;-0.040639184;0;-0.024645632;  1.0000586E+04;  0.0000000E+00;  5.5783744E-10;  1.0000000E+04;  0.0000000E+00;  9.9999775E+03;-0.025628109;0.0;0.00098247558;12.264424
  9.9997692E-02;  9.9999998E-03; -1.2000006E-01;1193;-0.002452679;0.0;-5.2792155e-05;1000.0282;  4.0000001E-01;23.406742;3;-1.9102143;0.0;-0.027481021;0;-0.024638791;  1.0000585E+04;  0.0000000E+00;  1.6374600E-10;  1.0000000E+04;  0.0000000E+00;  9.9999785E+03;-0.025481967;0.0;0.00084317609;11.012519
  9.9997692E-02;  9.9999998E-03; -1.0000005E-01;1194;-0.0024415599;0.0;-3.7219099e-05;1000.0283;  4.0000001E-01;23.505505;3;-1.896359;0.0;-0.017504089;0;-0.024573769;  1.0000581E+04;  0.0000000E+00;  1.1895232E-12;  1.0000000E+04;  0.0000000E+00;  9.9999834E+03;-0.025275737;0.0;0.0007019678;9.7304602
  9.9997699E-02;  9.9999998E-03; -8.0000035E-02;1195;-0.0024274481;0.0;-2.5351681e-05;1000.0283;  4.0000001E-01;23.406742;3;-1.8805698;0.0;-0.010416862;0;-0.024485108;  1.0000577E+04;  0.0000000E+00; -2.9899912E-11;  1.0000000E+04;  0.0000000E+00;  9.9999863E+03;-0.025057163;0.0;0.00057205569;8.5464468
  9.9997707E-02;  9.9999998E-03; -6.0000025E-02;1196;-0.0024136424;0.0;-1.6376502e-05;1000.0281;  4.0000001E-01;23.30798;3;-1.8657131;0.0;-0.0057240007;0;-0.024396304;  1.0000574E+04;  0.0000000E+00; -4.4233579E-11;  1.0000000E+04;  0.0000000E+00;  9.9999873E+03;-0.024859456;0.0;0.00046315262;7.5522738
  9.9997714E-02;  9.9999998E-03; -4.0000014E-02;1197;-0.0024023659;0.0;-9.6796812e-06;1000.0281;  4.0000001E-01;23.30798;3;-1.8538091;0.0;-0.0028229142;0;-0.02432311;  1.0000572E+04;  0.0000000E+00; -4.1882435E-11;  1.0000000E+04;  0.0000000E+00;  9.9999893E+03;-0.024704734;0.0;0.00038162438;6.8074317
  9.9997722E-02;  9.9999998E-03; -2.0000007E-02;1198;-0.0023950636;0.0;-4.4643352e-06;1000.0281;  4.0000001E-01;23.30798;3;-1.8461767;0.0;-0.0011201357;0;-0.024275575;  1.0000571E+04;  0.0000000E+00; -3.4547720E-13;  1.0000000E+04;  0.0000000E+00;  9.9999912E+03;-0.024606913;0.0;0.00033133887;6.3478131
  1.1999715E-01;  9.9999998E-03; -1.8000016E-01;1221;-0.0029953232;0.0;-0.0001298195;1000.0333;  4.0000001E-01;27.653534;3;-2.2977881;0.0;-0.072630696;0;-0.028686214;  1.0000698E+04;  0.0000000E+00; -9.0495726E-09;  1.0000000E+04;  0.0000000E+00;  9.9999688E+03;-0.030021317;0.0;0.0013351025;16.666679
  1.1999711E-01;  9.9999998E-03; -1.6000013E-01;1222;-0.0030253481;0.0;-0.00010070729;1000.0337;  4.0000001E-01;27.949823;3;-2.3154445;0.0;-0.053675089;0;-0.028874068;  1.0000704E+04;  0.0000000E+00; -2.0838493E-09;  1.0000000E+04;  0.0000000E+00;  9.9999688E+03;-0.03011797;0.0;0.0012439026;15.904244
  1.1999710E-01;  9.9999998E-03; -1.4000009E-01;1223;-0.003030299;0.0;-7.5605574e-05;1000.0339;  4.0000001E-01;28.048586;3;-2.3134377;0.0;-0.037946172;0;-0.028883059;  1.0000705E+04;  0.0000000E+00;  3.5526562E-10;  1.0000000E+04;  0.0000000E+00;  9.9999727E+03;-0.029989578;0.0;0.00110652;14.605038
  1.1999710E-01;  9.9999998E-03; -1.2000007E-01;1224;-0.0030199313;0.0;-5.5066397e-05;1000.0339;  4.0000001E-01;28.048586;3;-2.2993574;0.0;-0.025174242;0;-0.02878554;  1.0000701E+04;  0.0000000E+00;  1.7075159E-10;  1.0000000E+04;  0.0000000E+00;  9.9999775E+03;-0.029738262;0.0;0.00095272309;13.109377
  1.1999711E-01;  9.9999998E-03; -1.0000005E-01;1225;-0.0030016901;0.0;-3.8696668e-05;1000.0338;  4.0000001E-01;27.949823;3;-2.2792518;0.0;-0.015718302;0;-0.028640265;  1.0000695E+04;  0.0000000E+00; -2.8653983E-13;  1.0000000E+04;  0.0000000E+00;  9.9999795E+03;-0.029436586;0.0;0.00079632149;11.577209
  1.1999712E-01;  9.9999998E-03; -8.0000035E-02;1226;-0.0029809913;0.0;-2.6179017e-05;1000.0337;  4.0000001E-01;27.949823;3;-2.2577724;0.0;-0.0089687863;0;-0.028485211;  1.0000690E+04;  0.0000000E+00; -5.3690732E-11;  1.0000000E+04;  0.0000000E+00;  9.9999824E+03;-0.029136527;0.0;0.00065131689;10.155008
  1.1999713E-01;  9.9999998E-03; -6.0000025E-02;1227;-0.0029616344;0.0;-1.6840466e-05;1000.0335;  4.0000001E-01;27.752296;3;-2.238147;0.0;-0.0047064149;0;-0.028344996;  1.0000686E+04;  0.0000000E+00; -6.2661744E-11;  1.0000000E+04;  0.0000000E+00;  9.9999873E+03;-0.028873816;0.0;0.00052882044;8.9543123
  1.1999714E-01;  9.9999998E-03; -4.0000018E-02;1228;-0.0029461938;0.0;-9.9001909e-06;1000.0335;  4.0000001E-01;27.752296;3;-2.2226799;0.0;-0.0021591436;0;-0.028235443;  1.0000683E+04;  0.0000000E+00; -5.1613096E-11;  1.0000000E+04;  0.0000000E+00;  9.9999883E+03;-0.028671999;0.0;0.00043655545;8.0507889
  1.1999715E-01;  9.9999998E-03; -2.0000007E-02;1229;-0.0029363146;0.0;-4.5471047e-06;1000.0334;  4.0000001E-01;27.752296;3;-2.2128415;0.0;-0.00079730334;0;-0.028166259;  1.0000682E+04;  0.0000000E+00; -1.6408546E-11;  1.0000000E+04;  0.0000000E+00;  9.9999893E+03;-0.02854567;0.0;0.00037941139;7.4916182
  1.3999642E-01;  9.9999998E-03; -1.8000017E-01;1252;-0.0036799712;0.0;-0.00014026854;1000.0405;  4.0000001E-01;33.579292;3;-2.7609034;0.0;-0.071338966;0;-0.033960421;  1.0000851E+04;  0.0000000E+00; -1.9594459E-06;  1.0000000E+04;  0.0000000E+00;  9.9999619E+03;-0.035510071;0.0;0.0015496493;20.436092
  1.3999639E-01;  9.9999998E-03; -1.6000015E-01;1253;-0.0037046839;0.0;-0.00010939634;1000.0407;  4.0000001E-01;33.776817;3;-2.7730422;0.0;-0.053275462;0;-0.034036193;  1.0000853E+04;  0.0000000E+00; -1.8830029E-09;  1.0000000E+04;  0.0000000E+00;  9.9999619E+03;-0.03547205;0.0;0.0014358582;19.345928
  1.3999638E-01;  9.9999998E-03; -1.4000010E-01;1254;-0.0037011467;0.0;-8.2793893e-05;1000.0407;  4.0000001E-01;33.776817;3;-2.7635362;0.0;-0.038379222;0;-0.033927478;  1.0000848E+04;  0.0000000E+00;  4.3662599E-10;  1.0000000E+04;  0.0000000E+00;  9.9999678E+03;-0.035207231;0.0;0.0012797539;17.712513
  1.3999639E-01;  9.9999998E-03; -1.2000009E-01;1255;-0.003681205;0.0;-6.047518e-05;1000.0406;  4.0000001E-01;33.678055;3;-2.7413836;0.0;-0.025757849;0;-0.033719279;  1.0000841E+04;  0.0000000E+00;  1.5694536E-10;  1.0000000E+04;  0.0000000E+00;  9.9999717E+03;-0.034827154;0.0;0.0011078737;15.877563
  1.3999641E-01;  9.9999998E-03; -1.0000006E-01;1256;-0.0036534728;0.0;-4.2690135e-05;1000.0405;  4.0000001E-01;33.579292;3;-2.7134099;0.0;-0.016464552;0;-0.033478282;  1.0000835E+04;  0.0000000E+00; -7.1329144E-11;  1.0000000E+04;  0.0000000E+00;  9.9999756E+03;-0.034410134;0.0;0.00093185192;13.998583
  1.3999642E-01;  9.9999998E-03; -8.0000043E-02;1257;-0.0036242481;0.0;-2.8903052e-05;1000.0404;  4.0000001E-01;33.48053;3;-2.6849246;0.0;-0.0096056089;0;-0.033245463;  1.0000827E+04;  0.0000000E+00; -1.1414401E-10;  1.0000000E+04;  0.0000000E+00;  9.9999795E+03;-0.034012191;0.0;0.000766729;12.244551
  1.3999644E-01;  9.9999998E-03; -6.0000032E-02;1258;-0.0035978416;0.0;-1.8630953e-05;1000.0403;  4.0000001E-01;33.381767;3;-2.6595371;0.0;-0.0052378941;0;-0.033045746;  1.0000822E+04;  0.0000000E+00; -5.5472533E-11;  1.0000000E+04;  0.0000000E+00;  9.9999834E+03;-0.033671487;0.0;0.00062574144;10.754917
  1.3999645E-01;  9.9999998E-03; -4.0000018E-02;1259;-0.0035771672;0.0;-1.0959034e-05;1000.0402;  4.0000001E-01;33.283005;3;-2.6397893;0.0;-0.0025414394;0;-0.032894373;  1.0000816E+04;  0.0000000E+00; -2.2153312E-11;  1.0000000E+04;  0.0000000E+00;  9.9999854E+03;-0.03341306;0.0;0.00051868701;9.6287518
  1.3999647E-01;  9.9999998E-03; -2.0000009E-02;1260;-0.0035640714;0.0;-5.0379463e-06;1000.0402;  4.0000001E-01;33.283005;3;-2.6273201;0.0;-0.00099661644;0;-0.032800443;  1.0000815E+04;  0.0000000E+00;  3.6729540E-11;  1.0000000E+04;  0.0000000E+00;  9.9999873E+03;-0.033252478;0.0;0.00045203403;8.9297256
  1.5999554E-01;  9.9999998E-03; -1.8000022E-01;1283;-0.0044887564;0.0;-0.00016075003;1000.049;  4.0000001E-01;40.591438;3;-3.2904484;0.0;-0.077563167;0;-0.040131669;  1.0001030E+04;  0.0000000E+00; -1.7213166E-05;  1.0000000E+04;  0.0000000E+00;  9.9999512E+03;-0.042021297;0.0;0.0018896264;25.970982
  1.5999551E-01;  9.9999998E-03; -1.6000018E-01;1284;-0.004504283;0.0;-0.00012683129;1000.0494;  4.0000001E-01;40.887726;3;-3.2943332;0.0;-0.059947275;0;-0.040064856;  1.0001030E+04;  0.0000000E+00; -2.6494160E-09;  1.0000000E+04;  0.0000000E+00;  9.9999541E+03;-0.041795336;0.0;0.0017304791;24.214584
  1.5999551E-01;  9.9999998E-03; -1.4000013E-01;1285;-0.0044886707;0.0;-9.7421878e-05;1000.0493;  4.0000001E-01;40.788963;3;-3.2749705;0.0;-0.045242172;0;-0.039816659;  1.0001024E+04;  0.0000000E+00;  6.9049388E-10;  1.0000000E+04;  0.0000000E+00;  9.9999600E+03;-0.041358516;0.0;0.0015418559;22.011314
  1.5999553E-01;  9.9999998E-03; -1.2000010E-01;1286;-0.0044559217;0.0;-7.1992552e-05;1000.0491;  4.0000001E-01;40.690201;3;-3.2426574;0.0;-0.032069948;0;-0.039479889;  1.0001015E+04;  0.0000000E+00;  2.8686345E-10;  1.0000000E+04;  0.0000000E+00;  9.9999648E+03;-0.040821191;0.0;0.0013413021;19.648165
  1.5999556E-01;  9.9999998E-03; -1.0000008E-01;1287;-0.0044159181;0.0;-5.1419396e-05;1000.0488;  4.0000001E-01;40.393913;3;-3.2050822;0.0;-0.021996465;0;-0.039129913;  1.0001005E+04;  0.0000000E+00; -1.7376577E-10;  1.0000000E+04;  0.0000000E+00;  9.9999717E+03;-0.04026553;0.0;0.0011356161;17.253036
  1.5999559E-01;  9.9999998E-03; -8.0000050E-02;1288;-0.004375862;0.0;-3.5159333e-05;1000.0486;  4.0000001E-01;40.295151;3;-3.168164;0.0;-0.014065401;0;-0.038809985;  1.0000994E+04;  0.0000000E+00; -2.3667360E-10;  1.0000000E+04;  0.0000000E+00;  9.9999746E+03;-0.039750561;0.0;0.00094057602;15.014558
  1.5999562E-01;  9.9999998E-03; -6.0000036E-02;1289;-0.0043406044;0.0;-2.2878219e-05;1000.0482;  4.0000001E-01;39.900101;3;-3.1358936;0.0;-0.0086148391;0;-0.038544498;  1.0000986E+04;  0.0000000E+00; -7.4077876E-11;  1.0000000E+04;  0.0000000E+00;  9.9999785E+03;-0.03931677;0.0;0.00077227154;13.106887
  1.5999563E-01;  9.9999998E-03; -4.0000021E-02;1290;-0.0043134033;0.0;-1.3566687e-05;1000.0482;  4.0000001E-01;39.900101;3;-3.111069;0.0;-0.0047926432;0;-0.038347393;  1.0000979E+04;  0.0000000E+00; -1.3220714E-11;  1.0000000E+04;  0.0000000E+00;  9.9999834E+03;-0.038990825;0.0;0.00064343045;11.660173
  1.5999565E-01;  9.9999998E-03; -2.0000011E-02;1291;-0.0042963158;0.0;-6.2767322e-06;1000.048;  4.0000001E-01;39.801338;3;-3.0954881;0.0;-0.0021290258;0;-0.038226474;  1.0000976E+04;  0.0000000E+00;  4.1642870E-11;  1.0000000E+04;  0.0000000E+00;  9.9999844E+03;-0.038789269;0.0;0.00056279282;10.760351
  1.7999448E-01;  9.9999998E-03; -1.8000026E-01;1314;-0.0054420824;0.0;-0.00019917131;1000.0593;  4.0000001E-01;49.183788;3;-3.8931165;0.0;-0.097429544;0;-0.047238283;  1.0001253E+04;  0.0000000E+00; -5.1441428E-05;  1.0000000E+04;  0.0000000E+00;  9.9999336E+03;-0.049689285;0.0;0.0024510026;34.395779
  1.7999445E-01;  9.9999998E-03; -1.6000022E-01;1315;-0.0054439437;0.0;-0.00015930954;1000.0593;  4.0000001E-01;49.183788;3;-3.8857548;0.0;-0.079075448;0;-0.047009565;  1.0001245E+04;  0.0000000E+00; -1.6167964E-07;  1.0000000E+04;  0.0000000E+00;  9.9999404E+03;-0.049208775;0.0;0.00219921;31.316759
  1.7999446E-01;  9.9999998E-03; -1.4000016E-01;1316;-0.0054122717;0.0;-0.00012400723;1000.0591;  4.0000001E-01;48.986263;3;-3.8541684;0.0;-0.062784247;0;-0.046610709;  1.0001232E+04;  0.0000000E+00;  7.3321937E-10;  1.0000000E+04;  0.0000000E+00;  9.9999482E+03;-0.048556339;0.0;0.0019456288;28.075115
  1.7999449E-01;  9.9999998E-03; -1.2000012E-01;1317;-0.0053630457;0.0;-9.2941758e-05;1000.0587;  4.0000001E-01;48.689972;3;-3.8096094;0.0;-0.047366008;0;-0.046134524;  1.0001219E+04;  0.0000000E+00;  2.8238722E-10;  1.0000000E+04;  0.0000000E+00;  9.9999531E+03;-0.047827654;0.0;0.0016931307;24.8365
  1.7999454E-01;  9.9999998E-03; -1.0000009E-01;1318;-0.0053075515;0.0;-6.7269124e-05;1000.0584;  4.0000001E-01;48.393684;3;-3.7606175;0.0;-0.034810312;0;-0.045667186;  1.0001205E+04;  0.0000000E+00; -3.5465225E-10;  1.0000000E+04;  0.0000000E+00;  9.9999609E+03;-0.047105834;0.0;0.0014386467;21.6436
  1.7999458E-01;  9.9999998E-03; -8.0000065E-02;1319;-0.0052539483;0.0;-4.6654215e-05;1000.058;  4.0000001E-01;48.097397;3;-3.7137511;0.0;-0.024249978;0;-0.045254424;  1.0001192E+04;  0.0000000E+00; -1.4762634E-10;  1.0000000E+04;  0.0000000E+00;  9.9999658E+03;-0.046451468;0.0;0.0011970433;18.685434
  1.7999461E-01;  9.9999998E-03; -6.0000043E-02;1320;-0.0052076979;0.0;-3.0728366e-05;1000.0577;  4.0000001E-01;47.801109;3;-3.6733954;0.0;-0.016194146;0;-0.044919498;  1.0001182E+04;  0.0000000E+00;  4.9754237E-12;  1.0000000E+04;  0.0000000E+00;  9.9999736E+03;-0.04590692;0.0;0.00098742172;16.169981
  1.7999464E-01;  9.9999998E-03; -4.0000029E-02;1321;-0.0051724296;0.0;-1.8441204e-05;1000.0575;  4.0000001E-01;47.603584;3;-3.6426351;0.0;-0.0097966529;0;-0.044674415;  1.0001172E+04;  0.0000000E+00;  1.7408819E-10;  1.0000000E+04;  0.0000000E+00;  9.9999785E+03;-0.045500547;0.0;0.0008261312;14.262908
  1.7999466E-01;  9.9999998E-03; -2.0000013E-02;1322;-0.0051504206;0.0;-8.5979927e-06;1000.0574;  4.0000001E-01;47.603584;3;-3.6234248;0.0;-0.0046222028;0;-0.044525448;  1.0001167E+04;  0.0000000E+00;  9.9016108E-11;  1.0000000E+04;  0.0000000E+00;  9.9999805E+03;-0.045250285;0.0;0.00072483718;13.076664
  1.9999318E-01;  9.9999998E-03; -1.8000033E-01;1345;-0.0065623745;0.0;-0.00026329915;1000.0713;  4.0000001E-01;59.060051;3;-4.5755014;0.0;-0.13776408;0;-0.055309765;  1.0001521E+04;  0.0000000E+00; -8.9264220E-05;  1.0000000E+04;  0.0000000E+00;  9.9999082E+03;-0.058658335;0.0;0.0033485703;47.09124
  1.9999318E-01;  9.9999998E-03; -1.6000028E-01;1346;-0.0065455493;0.0;-0.0002129708;1000.0712;  4.0000001E-01;59.060051;3;-4.5540857;0.0;-0.11603543;0;-0.054926809;  1.0001507E+04;  0.0000000E+00; -6.7518744E-07;  1.0000000E+04;  0.0000000E+00;  9.9999189E+03;-0.057856809;0.0;0.0029300004;41.666039
  1.9999321E-01;  9.9999998E-03; -1.4000021E-01;1347;-0.0064932806;0.0;-0.00016726405;1000.0709;  4.0000001E-01;58.664997;3;-4.5079217;0.0;-0.09537708;0;-0.054382458;  1.0001487E+04;  0.0000000E+00;  1.6994546E-09;  1.0000000E+04;  0.0000000E+00;  9.9999307E+03;-0.056937523;0.0;0.002555063;36.612877
  1.9999325E-01;  9.9999998E-03; -1.2000016E-01;1348;-0.0064233947;0.0;-0.00012678749;1000.0706;  4.0000001E-01;58.467472;3;-4.4490581;0.0;-0.07503891;0;-0.053767473;  1.0001468E+04;  0.0000000E+00; -4.0152801E-11;  1.0000000E+04;  0.0000000E+00;  9.9999404E+03;-0.055977147;0.0;0.0022096748;31.933079
  1.9999331E-01;  9.9999998E-03; -1.0000012E-01;1349;-0.0063487235;0.0;-9.2616945e-05;1000.0699;  4.0000001E-01;57.97366;3;-4.3868537;0.0;-0.057464387;0;-0.053181771;  1.0001448E+04;  0.0000000E+00; -4.7112564E-10;  1.0000000E+04;  0.0000000E+00;  9.9999512E+03;-0.055056367;0.0;0.0018745951;27.507246
  1.9999337E-01;  9.9999998E-03; -8.0000080E-02;1350;-0.0062784161;0.0;-6.4999047e-05;1000.0695;  4.0000001E-01;57.578609;3;-4.3284917;0.0;-0.042073004;0;-0.052675251;  1.0001433E+04;  0.0000000E+00; -1.0778731E-10;  1.0000000E+04;  0.0000000E+00;  9.9999600E+03;-0.054235939;0.0;0.0015606878;23.486532
  1.9999342E-01;  9.9999998E-03; -6.0000055E-02;1351;-0.0062186625;0.0;-4.3204764e-05;1000.0692;  4.0000001E-01;57.381084;3;-4.2788415;0.0;-0.029264182;0;-0.052270442;  1.0001417E+04;  0.0000000E+00; -3.8182072E-11;  1.0000000E+04;  0.0000000E+00;  9.9999658E+03;-0.053559694;0.0;0.0012892508;20.09889
  1.9999345E-01;  9.9999998E-03; -4.0000033E-02;1352;-0.0061734905;0.0;-2.6184505e-05;1000.0689;  4.0000001E-01;57.084797;3;-4.2412524;0.0;-0.018423066;0;-0.051977303;  1.0001404E+04;  0.0000000E+00; -2.0077028E-12;  1.0000000E+04;  0.0000000E+00;  9.9999717E+03;-0.053057753;0.0;0.00108045;17.54249
  1.9999348E-01;  9.9999998E-03; -2.0000016E-02;1353;-0.0061454587;0.0;-1.2289018e-05;1000.0687;  4.0000001E-01;56.986034;3;-4.2178788;0.0;-0.0088841422;0;-0.051800247;  1.0001396E+04;  0.0000000E+00;  6.0118376E-11;  1.0000000E+04;  0.0000000E+00;  9.9999766E+03;-0.052749511;0.0;0.0009492652;15.956202
  2.1999161E-01;  9.9999998E-03; -1.8000045E-01;1376;-0.0078753782;0.0;-0.00035989017;1000.0854;  4.0000001E-01;70.812805;3;-5.3448105;0.0;-0.20449051;0;-0.064375073;  1.0001838E+04;  0.0000000E+00; -1.0064094E-04;  1.0000000E+04;  0.0000000E+00;  9.9998711E+03;-0.069065109;0.0;0.004690038;65.437332
  2.1999162E-01;  9.9999998E-03; -1.6000037E-01;1377;-0.0078344662;0.0;-0.00029251922;1000.0852;  4.0000001E-01;70.615273;3;-5.3070283;0.0;-0.17495054;0;-0.063876092;  1.0001815E+04;  0.0000000E+00; -7.3250112E-07;  1.0000000E+04;  0.0000000E+00;  9.9998887E+03;-0.067886345;0.0;0.0040102531;56.321236
  2.1999168E-01;  9.9999998E-03; -1.4000028E-01;1378;-0.0077563142;0.0;-0.00023096797;1000.0847;  4.0000001E-01;70.12146;3;-5.2440495;0.0;-0.14623867;0;-0.063208774;  1.0001789E+04;  0.0000000E+00;  1.7212872E-09;  1.0000000E+04;  0.0000000E+00;  9.9999082E+03;-0.066645116;0.0;0.0034363414;48.385082
  2.1999176E-01;  9.9999998E-03; -1.2000021E-01;1379;-0.0076609482;0.0;-0.00017645161;1000.084;  4.0000001E-01;69.627647;3;-5.1688156;0.0;-0.11814192;0;-0.062468532;  1.0001761E+04;  0.0000000E+00; -4.3263454E-10;  1.0000000E+04;  0.0000000E+00;  9.9999199E+03;-0.065406986;0.0;0.002938454;41.45747
  2.1999183E-01;  9.9999998E-03; -1.0000015E-01;1380;-0.0075628697;0.0;-0.00012936718;1000.0834;  4.0000001E-01;69.035072;3;-5.0916195;0.0;-0.092212491;0;-0.061772071;  1.0001734E+04;  0.0000000E+00; -8.3687995E-10;  1.0000000E+04;  0.0000000E+00;  9.9999365E+03;-0.064248644;0.0;0.0024765711;35.186729
  2.1999191E-01;  9.9999998E-03; -8.0000110E-02;1381;-0.0074722003;0.0;-9.1355265e-05;1000.0828;  4.0000001E-01;68.640022;3;-5.0202498;0.0;-0.069287896;0;-0.061176293;  1.0001711E+04;  0.0000000E+00; -4.2781048E-10;  1.0000000E+04;  0.0000000E+00;  9.9999482E+03;-0.063230366;0.0;0.0020540718;29.636633
  2.1999198E-01;  9.9999998E-03; -6.0000069E-02;1382;-0.0073959851;0.0;-6.1099672e-05;1000.0825;  4.0000001E-01;68.343735;3;-4.9601221;0.0;-0.049068075;0;-0.060704459;  1.0001693E+04;  0.0000000E+00;  1.7677482E-10;  1.0000000E+04;  0.0000000E+00;  9.9999590E+03;-0.062397372;0.0;0.0016929117;25.028954
  2.1999203E-01;  9.9999998E-03; -4.0000044E-02;1383;-0.0073387655;0.0;-3.7162699e-05;1000.0821;  4.0000001E-01;68.047447;3;-4.9148278;0.0;-0.031350274;0;-0.060365114;  1.0001679E+04;  0.0000000E+00; -7.0670511E-11;  1.0000000E+04;  0.0000000E+00;  9.9999648E+03;-0.061781749;0.0;0.0014166334;21.581312
  2.1999206E-01;  9.9999998E-03; -2.0000020E-02;1384;-0.0073033962;0.0;-1.7530632e-05;1000.082;  4.0000001E-01;67.948685;3;-4.8867512;0.0;-0.015268818;0;-0.060161009;  1.0001671E+04;  0.0000000E+00;  1.2742347E-10;  1.0000000E+04;  0.0000000E+00;  9.9999707E+03;-0.061404519;0.0;0.0012435104;19.452095
  2.3998973E-01;  9.9999998E-03; -1.8000060E-01;1407;-0.0094116414;0.0;-0.00049413787;1000.1016;  4.0000001E-01;84.145752;3;-6.2105198;0.0;-0.29919267;0;-0.074502118;  1.0002217E+04;  0.0000000E+00; -7.2965449E-05;  1.0000000E+04;  0.0000000E+00;  9.9998135E+03;-0.081046142;0.0;0.0065440205;90.490295
  2.3998977E-01;  9.9999998E-03; -1.6000047E-01;1408;-0.0093393829;0.0;-0.00040257559;1000.1014;  4.0000001E-01;84.046989;3;-6.1530833;0.0;-0.25894836;0;-0.073940665;  1.0002183E+04;  0.0000000E+00; -2.0087320E-07;  1.0000000E+04;  0.0000000E+00;  9.9998496E+03;-0.079445846;0.0;0.0055051795;76.170303
  2.3998986E-01;  9.9999998E-03; -1.4000037E-01;1409;-0.0092293378;0.0;-0.00031771604;1000.1008;  4.0000001E-01;83.553177;3;-6.0711036;0.0;-0.21817365;0;-0.07318411;  1.0002146E+04;  0.0000000E+00;  1.1245440E-09;  1.0000000E+04;  0.0000000E+00;  9.9998750E+03;-0.077828526;0.0;0.0046444149;64.072243
  2.3998997E-01;  9.9999998E-03; -1.2000027E-01;1410;-0.009102948;0.0;-0.00024277167;1000.1001;  4.0000001E-01;82.960602;3;-5.9774747;0.0;-0.17853771;0;-0.072342165;  1.0002106E+04;  0.0000000E+00; -1.1638914E-09;  1.0000000E+04;  0.0000000E+00;  9.9998975E+03;-0.076262675;0.0;0.0039205123;53.884136
  2.3999007E-01;  9.9999998E-03; -1.0000020E-01;1411;-0.0089763701;0.0;-0.00017838799;1000.0994;  4.0000001E-01;82.368027;3;-5.8836627;0.0;-0.14066105;0;-0.07154981;  1.0002073E+04;  0.0000000E+00; -1.7349523E-09;  1.0000000E+04;  0.0000000E+00;  9.9999170E+03;-0.074822493;0.0;0.0032726836;44.989746
  2.3999017E-01;  9.9999998E-03; -8.0000132E-02;1412;-0.0088610752;0.0;-0.00012597893;1000.0989;  4.0000001E-01;81.874214;3;-5.7978487;0.0;-0.10657734;0;-0.070873857;  1.0002044E+04;  0.0000000E+00; -4.4407752E-10;  1.0000000E+04;  0.0000000E+00;  9.9999326E+03;-0.073568918;0.0;0.0026950641;37.322746
  2.3999026E-01;  9.9999998E-03; -6.0000088E-02;1413;-0.0087649543;0.0;-8.4652187e-05;1000.0983;  4.0000001E-01;81.380402;3;-5.7259917;0.0;-0.076379254;0;-0.070340544;  1.0002018E+04;  0.0000000E+00;  1.3122839E-10;  1.0000000E+04;  0.0000000E+00;  9.9999463E+03;-0.072549388;0.0;0.0022088448;31.066389
  2.3999032E-01;  9.9999998E-03; -4.0000051E-02;1414;-0.0086932071;0.0;-5.1584724e-05;1000.0979;  4.0000001E-01;81.084114;3;-5.6721554;0.0;-0.049162369;0;-0.069958337;  1.0002003E+04;  0.0000000E+00;  3.1737768E-10;  1.0000000E+04;  0.0000000E+00;  9.9999561E+03;-0.071798518;0.0;0.0018401833;26.435738
  2.3999035E-01;  9.9999998E-03; -2.0000024E-02;1415;-0.0086489702;0.0;-2.4346309e-05;1000.0976;  4.0000001E-01;80.886589;3;-5.6388631;0.0;-0.023981119;0;-0.069729;  1.0001990E+04;  0.0000000E+00;  6.4133067E-11;  1.0000000E+04;  0.0000000E+00;  9.9999629E+03;-0.071339257;0.0;0.0016102537;23.593977
  2.5998744E-01;  9.9999998E-03; -1.8000080E-01;1438;-0.011205696;0.0;-0.000675141;1000.1207;  4.0000001E-01;100.04653;3;-7.181819;0.0;-0.43004176;0;-0.085822873;  1.0002664E+04;  0.0000000E+00; -2.9787610E-05;  1.0000000E+04;  0.0000000E+00;  9.9997490E+03;-0.094741806;0.0;0.0089189336;122.75415
  2.5998753E-01;  9.9999998E-03; -1.6000062E-01;1439;-0.011093527;0.0;-0.00054479798;1000.1205;  4.0000001E-01;99.849007;3;-7.1016912;0.0;-0.37070093;0;-0.085243084;  1.0002616E+04;  0.0000000E+00; -8.2423945E-10;  1.0000000E+04;  0.0000000E+00;  9.9997949E+03;-0.092685275;0.0;0.0074421931;101.76198
  2.5998768E-01;  9.9999998E-03; -1.4000048E-01;1440;-0.010943604;0.0;-0.00042881496;1000.12;  4.0000001E-01;99.453957;3;-6.9982038;0.0;-0.31284091;0;-0.084431566;  1.0002567E+04;  0.0000000E+00; -2.6671521E-11;  1.0000000E+04;  0.0000000E+00;  9.9998320E+03;-0.090642862;0.0;0.0062112948;84.150925
  2.5998780E-01;  9.9999998E-03; -1.2000035E-01;1441;-0.010779483;0.0;-0.00032570795;1000.1193;  4.0000001E-01;98.762619;3;-6.8844886;0.0;-0.2563138;0;-0.083514474;  1.0002520E+04;  0.0000000E+00; -1.1900388E-09;  1.0000000E+04;  0.0000000E+00;  9.9998662E+03;-0.088697493;0.0;0.0051830178;69.5662
  2.5998795E-01;  9.9999998E-03; -1.0000025E-01;1442;-0.010618318;0.0;-0.00023973154;1000.1183;  4.0000001E-01;97.972519;3;-6.7721148;0.0;-0.20339775;0;-0.082644247;  1.0002478E+04;  0.0000000E+00; -1.6653997E-09;  1.0000000E+04;  0.0000000E+00;  9.9998926E+03;-0.086926095;0.0;0.0042818473;57.148731
  2.5998810E-01;  9.9999998E-03; -8.0000170E-02;1443;-0.010473421;0.0;-0.00016890718;1000.1174;  4.0000001E-01;97.281174;3;-6.6704903;0.0;-0.15469313;0;-0.081899203;  1.0002438E+04;  0.0000000E+00;  9.4635090E-12;  1.0000000E+04;  0.0000000E+00;  9.9999150E+03;-0.085393824;0.0;0.0034946208;46.684372
  2.5998822E-01;  9.9999998E-03; -6.0000107E-02;1444;-0.010353387;0.0;-0.00011325496;1000.1169;  4.0000001E-01;96.886124;3;-6.5858459;0.0;-0.11112718;0;-0.081310913;  1.0002408E+04;  0.0000000E+00;  4.7259185E-10;  1.0000000E+04;  0.0000000E+00;  9.9999326E+03;-0.084152669;0.0;0.0028417574;38.288967
  2.5998828E-01;  9.9999998E-03; -4.0000062E-02;1445;-0.010264163;0.0;-6.9032787e-05;1000.1165;  4.0000001E-01;96.491074;3;-6.5225201;0.0;-0.071836889;0;-0.080889404;  1.0002385E+04;  0.0000000E+00;  7.2756390E-10;  1.0000000E+04;  0.0000000E+00;  9.9999453E+03;-0.083240904;0.0;0.002351498;32.147125
  2.5998834E-01;  9.9999998E-03; -2.0000029E-02;1446;-0.010209337;0.0;-3.256715e-05;1000.1162;  4.0000001E-01;96.293549;3;-6.4835453;0.0;-0.035173289;0;-0.08063665;  1.0002371E+04;  0.0000000E+00;  2.5695968E-10;  1.0000000E+04;  0.0000000E+00;  9.9999551E+03;-0.082684085;0.0;0.002047431;28.404928
  2.7998471E-01;  9.9999998E-03; -1.8000104E-01;1469;-0.013296159;0.0;-0.00090546475;1000.1429;  4.0000001E-01;118.41637;3;-8.2685719;0.0;-0.59725815;0;-0.098528832;  1.0003193E+04;  0.0000000E+00; -3.9178017E-06;  1.0000000E+04;  0.0000000E+00;  9.9996641E+03;-0.11029817;0.0;0.01176934;162.21696
  2.7998486E-01;  9.9999998E-03; -1.6000080E-01;1470;-0.01313347;0.0;-0.00072208128;1000.1429;  4.0000001E-01;118.41637;3;-8.1625261;0.0;-0.51107478;0;-0.097949818;  1.0003129E+04;  0.0000000E+00; -3.6492189E-09;  1.0000000E+04;  0.0000000E+00;  9.9997285E+03;-0.10775997;0.0;0.0098101581;133.27061
  2.7998504E-01;  9.9999998E-03; -1.4000060E-01;1471;-0.012933806;0.0;-0.00056417158;1000.1423;  4.0000001E-01;117.8238;3;-8.0348749;0.0;-0.43099219;0;-0.097107463;  1.0003063E+04;  0.0000000E+00; -3.3324316E-10;  1.0000000E+04;  0.0000000E+00;  9.9997832E+03;-0.10524971;0.0;0.0081422459;108.8372
  2.7998525E-01;  9.9999998E-03; -1.2000044E-01;1472;-0.012723534;0.0;-0.00042520923;1000.1414;  4.0000001E-01;117.13246;3;-7.8988924;0.0;-0.3519063;0;-0.096135564;  1.0003001E+04;  0.0000000E+00; -1.9369633E-09;  1.0000000E+04;  0.0000000E+00;  9.9998242E+03;-0.10287117;0.0;0.0067356084;88.691231
  2.7998546E-01;  9.9999998E-03; -1.0000031E-01;1473;-0.012520699;0.0;-0.00031136442;1000.1403;  4.0000001E-01;116.2436;3;-7.7665391;0.0;-0.2789368;0;-0.095202103;  1.0002943E+04;  0.0000000E+00; -1.1100367E-09;  1.0000000E+04;  0.0000000E+00;  9.9998643E+03;-0.10071372;0.0;0.0055116196;71.800629
  2.7998561E-01;  9.9999998E-03; -8.0000207E-02;1474;-0.012340177;0.0;-0.00021916171;1000.1391;  4.0000001E-01;115.25597;3;-7.6476107;0.0;-0.21327861;0;-0.094397061;  1.0002896E+04;  0.0000000E+00;  2.8558977E-10;  1.0000000E+04;  0.0000000E+00;  9.9998926E+03;-0.098853201;0.0;0.0044561378;57.816589
  2.7998576E-01;  9.9999998E-03; -6.0000129E-02;1475;-0.01219156;0.0;-0.0001463323;1000.1385;  4.0000001E-01;114.76216;3;-7.5491953;0.0;-0.153613;0;-0.093758546;  1.0002856E+04;  0.0000000E+00;  1.0709426E-09;  1.0000000E+04;  0.0000000E+00;  9.9999180E+03;-0.097349666;0.0;0.0035911219;46.767731
  2.7998587E-01;  9.9999998E-03; -4.0000077E-02;1476;-0.012081406;0.0;-8.8919973e-05;1000.138;  4.0000001E-01;114.36711;3;-7.4756355;0.0;-0.099474005;0;-0.093299732;  1.0002828E+04;  0.0000000E+00;  9.6986341E-10;  1.0000000E+04;  0.0000000E+00;  9.9999355E+03;-0.096246921;0.0;0.0029471898;38.776756
  2.7998593E-01;  9.9999998E-03; -2.0000035E-02;1477;-0.012013924;0.0;-4.1859665e-05;1000.1376;  4.0000001E-01;114.07082;3;-7.4304061;0.0;-0.048512235;0;-0.093024269;  1.0002811E+04;  0.0000000E+00;  1.1312976E-09;  1.0000000E+04;  0.0000000E+00;  9.9999463E+03;-0.095574282;0.0;0.0025500113;33.944202
  2.9998145E-01;  9.9999998E-03; -1.8000133E-01;1500;-0.015724376;0.0;-0.0011800396;1000.1688;  4.0000001E-01;139.84784;3;-9.4792166;0.0;-0.79734194;0;-0.11284937;  1.0003812E+04;  0.0000000E+00; -1.3669951E-08;  1.0000000E+04;  0.0000000E+00;  9.9995654E+03;-0.12787811;0.0;0.015028748;208.63797
  2.9998165E-01;  9.9999998E-03; -1.6000101E-01;1501;-0.015498787;0.0;-0.00093175372;1000.1687;  4.0000001E-01;139.74908;3;-9.3443766;0.0;-0.67881787;0;-0.11226651;  1.0003729E+04;  0.0000000E+00; -5.7591296E-09;  1.0000000E+04;  0.0000000E+00;  9.9996504E+03;-0.12483981;0.0;0.012573301;170.59431
  2.9998192E-01;  9.9999998E-03; -1.4000075E-01;1502;-0.015238186;0.0;-0.0007217378;1000.1682;  4.0000001E-01;139.35403;3;-9.1900873;0.0;-0.57026768;0;-0.11139727;  1.0003645E+04;  0.0000000E+00;  2.1275606E-09;  1.0000000E+04;  0.0000000E+00;  9.9997197E+03;-0.12181854;0.0;0.010421273;138.1162
  2.9998219E-01;  9.9999998E-03; -1.2000053E-01;1503;-0.014971683;0.0;-0.00053894363;1000.1672;  4.0000001E-01;138.46516;3;-9.0299349;0.0;-0.46380797;0;-0.11037643;  1.0003566E+04;  0.0000000E+00; -1.9350235E-10;  1.0000000E+04;  0.0000000E+00;  9.9997793E+03;-0.11894856;0.0;0.0085721249;111.29037
  2.9998246E-01;  9.9999998E-03; -1.0000037E-01;1504;-0.014718644;0.0;-0.00039170933;1000.1661;  4.0000001E-01;137.67506;3;-8.876298;0.0;-0.36757469;0;-0.10938422;  1.0003494E+04;  0.0000000E+00;  8.2590584E-10;  1.0000000E+04;  0.0000000E+00;  9.9998281E+03;-0.11634356;0.0;0.0069593382;89.005478
  2.9998267E-01;  9.9999998E-03; -8.0000244E-02;1505;-0.014495275;0.0;-0.00027429359;1000.1649;  4.0000001E-01;136.58868;3;-8.7388735;0.0;-0.28123611;0;-0.10852069;  1.0003433E+04;  0.0000000E+00;  2.7856168E-09;  1.0000000E+04;  0.0000000E+00;  9.9998691E+03;-0.11409807;0.0;0.0055773845;70.80806
  2.9998288E-01;  9.9999998E-03; -6.0000151E-02;1506;-0.014312608;0.0;-0.00018234247;1000.1641;  4.0000001E-01;135.89734;3;-8.6257343;0.0;-0.20202275;0;-0.10783086;  1.0003382E+04;  0.0000000E+00;  3.2845136E-09;  1.0000000E+04;  0.0000000E+00;  9.9999004E+03;-0.11228502;0.0;0.0044541559;56.623684
  2.9998299E-01;  9.9999998E-03; -4.0000089E-02;1507;-0.014177587;0.0;-0.00011033054;1000.1633;  4.0000001E-01;135.30476;3;-8.5415659;0.0;-0.13110487;0;-0.10733268;  1.0003345E+04;  0.0000000E+00;  1.6174039E-09;  1.0000000E+04;  0.0000000E+00;  9.9999209E+03;-0.11095662;0.0;0.0036239335;46.477253
  2.9998308E-01;  9.9999998E-03; -2.0000041E-02;1508;-0.014094956;0.0;-5.1643208e-05;1000.1629;  4.0000001E-01;135.00848;3;-8.4896078;0.0;-0.063916743;0;-0.10703253;  1.0003324E+04;  0.0000000E+00;  6.1616917E-10;  1.0000000E+04;  0.0000000E+00;  9.9999355E+03;-0.11014691;0.0;0.0031143795;40.387634
  3.1997752E-01;  9.9999998E-03; -1.8000168E-01;1531;-0.018535573;0.0;-0.0014957357;1000.1993;  4.0000001E-01;165.13107;3;-10.820765;0.0;-1.0250181;0;-0.12903409;  1.0004533E+04;  0.0000000E+00; -2.6468422E-08;  1.0000000E+04;  0.0000000E+00;  9.9994561E+03;-0.14767894;0.0;0.01864486;261.84708
  3.1997785E-01;  9.9999998E-03; -1.6000125E-01;1532;-0.018233903;0.0;-0.0011709968;1000.1993;  4.0000001E-01;165.13107;3;-10.655116;0.0;-0.86914086;0;-0.12842257;  1.0004431E+04;  0.0000000E+00;  1.3077202E-09;  1.0000000E+04;  0.0000000E+00;  9.9995586E+03;-0.14411438;0.0;0.015691806;213.52058
  3.1997821E-01;  9.9999998E-03; -1.4000091E-01;1533;-0.017899819;0.0;-0.00089955848;1000.1986;  4.0000001E-01;164.5385;3;-10.473183;0.0;-0.72838145;0;-0.12750573;  1.0004324E+04;  0.0000000E+00;  7.1360731E-09;  1.0000000E+04;  0.0000000E+00;  9.9996504E+03;-0.14052777;0.0;0.013022036;171.83224
  3.1997856E-01;  9.9999998E-03; -1.2000064E-01;1534;-0.017565414;0.0;-0.00066610228;1000.1973;  4.0000001E-01;163.4521;3;-10.287811;0.0;-0.59350717;0;-0.12642097;  1.0004223E+04;  0.0000000E+00;  3.8572381E-09;  1.0000000E+04;  0.0000000E+00;  9.9997266E+03;-0.13709769;0.0;0.010676712;137.30411
  3.1997889E-01;  9.9999998E-03; -1.0000043E-01;1535;-0.017251842;0.0;-0.00047946858;1000.1959;  4.0000001E-01;162.26695;3;-10.11147;0.0;-0.46812311;0;-0.12535776;  1.0004132E+04;  0.0000000E+00;  4.7996398E-09;  1.0000000E+04;  0.0000000E+00;  9.9997891E+03;-0.13397455;0.0;0.0086167939;108.81761
  3.1997919E-01;  9.9999998E-03; -8.0000281E-02;1536;-0.016977049;0.0;-0.00033302829;1000.1946;  4.0000001E-01;161.18057;3;-9.954525;0.0;-0.35728937;0;-0.12442388;  1.0004054E+04;  0.0000000E+00;  5.4959255E-09;  1.0000000E+04;  0.0000000E+00;  9.9998379E+03;-0.13127951;0.0;0.0068556359;85.830078
  3.1997943E-01;  9.9999998E-03; -6.0000174E-02;1537;-0.016753538;0.0;-0.00021925799;1000.1934;  4.0000001E-01;160.19295;3;-9.8258438;0.0;-0.25543195;0;-0.12367118;  1.0003994E+04;  0.0000000E+00;  4.8729789E-09;  1.0000000E+04;  0.0000000E+00;  9.9998789E+03;-0.12910326;0.0;0.0054320795;68.135986
  3.1997961E-01;  9.9999998E-03; -4.0000100E-02;1538;-0.016588969;0.0;-0.0001321657;1000.1925;  4.0000001E-01;159.5016;3;-9.7304993;0.0;-0.16563535;0;-0.12312357;  1.0003950E+04;  0.0000000E+00;  3.3167098E-09;  1.0000000E+04;  0.0000000E+00;  9.9999043E+03;-0.12750936;0.0;0.0043857871;55.615704
  3.1997973E-01;  9.9999998E-03; -2.0000044E-02;1539;-0.01648825;0.0;-6.1483748e-05;1000.1921;  4.0000001E-01;159.10655;3;-9.6713371;0.0;-0.080770463;0;-0.12279175;  1.0003923E+04;  0.0000000E+00;  2.4445745E-09;  1.0000000E+04;  0.0000000E+00;  9.9999219E+03;-0.12653816;0.0;0.0037464083;48.160145
  3.3997285E-01;  9.9999998E-03; -1.8000205E-01;1562;-0.021778494;0.0;-0.0018444635;1000.2352;  4.0000001E-01;194.8586;3;-12.298924;0.0;-1.2771457;0;-0.14734636;  1.0005375E+04;  0.0000000E+00; -2.9249936E-08;  1.0000000E+04;  0.0000000E+00;  9.9993281E+03;-0.16993715;0.0;0.022590784;321.79251
  3.3997330E-01;  9.9999998E-03; -1.6000152E-01;1563;-0.021387272;0.0;-0.0014337987;1000.2351;  4.0000001E-01;194.75984;3;-12.103465;0.0;-1.0834367;0;-0.14665425;  1.0005246E+04;  0.0000000E+00;  1.7711617E-08;  1.0000000E+04;  0.0000000E+00;  9.9994590E+03;-0.16578928;0.0;0.019135026;261.83801
  3.3997378E-01;  9.9999998E-03; -1.4000109E-01;1564;-0.020965798;0.0;-0.0010928083;1000.2341;  4.0000001E-01;193.96974;3;-11.892983;0.0;-0.90310651;0;-0.14564306;  1.0005112E+04;  0.0000000E+00;  1.3262474E-08;  1.0000000E+04;  0.0000000E+00;  9.9995713E+03;-0.16156067;0.0;0.01591761;209.79631
  3.3997425E-01;  9.9999998E-03; -1.2000076E-01;1565;-0.02055043;0.0;-0.00080346927;1000.2327;  4.0000001E-01;192.78458;3;-11.681501;0.0;-0.73475069;0;-0.14445436;  1.0004986E+04;  0.0000000E+00;  7.8707796E-09;  1.0000000E+04;  0.0000000E+00;  9.9996660E+03;-0.15748629;0.0;0.013031934;166.70024
  3.3997470E-01;  9.9999998E-03; -1.0000051E-01;1566;-0.020164493;0.0;-0.00057251507;1000.2307;  4.0000001E-01;191.10562;3;-11.482214;0.0;-0.57717562;0;-0.14328453;  1.0004871E+04;  0.0000000E+00;  8.7418570E-09;  1.0000000E+04;  0.0000000E+00;  9.9997422E+03;-0.15376273;0.0;0.010478197;131.42197
  3.3997509E-01;  9.9999998E-03; -8.0000326E-02;1567;-0.019828213;0.0;-0.00039372742;1000.2292;  4.0000001E-01;189.92047;3;-11.305072;0.0;-0.43867147;0;-0.14224823;  1.0004776E+04;  0.0000000E+00;  8.7591419E-09;  1.0000000E+04;  0.0000000E+00;  9.9998066E+03;-0.15054481;0.0;0.0082965735;103.29329
  3.3997539E-01;  9.9999998E-03; -6.0000200E-02;1568;-0.019555809;0.0;-0.00025639619;1000.2276;  4.0000001E-01;188.5378;3;-11.160018;0.0;-0.31188479;0;-0.14140475;  1.0004699E+04;  0.0000000E+00;  7.6808879E-09;  1.0000000E+04;  0.0000000E+00;  9.9998516E+03;-0.14794533;0.0;0.0065405811;81.917465
  3.3997560E-01;  9.9999998E-03; -4.0000111E-02;1569;-0.019355796;0.0;-0.00015331614;1000.2264;  4.0000001E-01;187.64893;3;-11.052287;0.0;-0.20015098;0;-0.14078517;  1.0004644E+04;  0.0000000E+00;  3.8522376E-09;  1.0000000E+04;  0.0000000E+00;  9.9998838E+03;-0.1460413;0.0;0.0052561364;66.963036
  3.3997574E-01;  9.9999998E-03; -2.0000050E-02;1570;-0.019233622;0.0;-7.100201e-05;1000.2259;  4.0000001E-01;187.15512;3;-10.98604;0.0;-0.09823741;0;-0.14040706;  1.0004611E+04;  0.0000000E+00;  1.8987585E-09;  1.0000000E+04;  0.0000000E+00;  9.9999063E+03;-0.14488137;0.0;0.0044743102;58.133198
  3.5996732E-01;  9.9999998E-03; -1.8000245E-01;1593;-0.025507053;0.0;-0.0022213561;1000.2772;  4.0000001E-01;229.72176;3;-13.918612;0.0;-1.5464588;0;-0.16804181;  1.0006357E+04;  0.0000000E+00; -1.2969990E-08;  1.0000000E+04;  0.0000000E+00;  9.9991895E+03;-0.19490345;0.0;0.02686164;388.48996
  3.5996792E-01;  9.9999998E-03; -1.6000180E-01;1594;-0.025012072;0.0;-0.0017179005;1000.2768;  4.0000001E-01;229.32671;3;-13.695656;0.0;-1.3132631;0;-0.16719218;  1.0006193E+04;  0.0000000E+00;  4.0546279E-08;  1.0000000E+04;  0.0000000E+00;  9.9993467E+03;-0.19007269;0.0;0.022880506;315.35281
  3.5996854E-01;  9.9999998E-03; -1.4000128E-01;1595;-0.024487125;0.0;-0.0012974903;1000.2754;  4.0000001E-01;228.14156;3;-13.457808;0.0;-1.0892711;0;-0.16601214;  1.0006023E+04;  0.0000000E+00;  1.6410754E-08;  1.0000000E+04;  0.0000000E+00;  9.9994834E+03;-0.18509714;0.0;0.019085001;251.89975
  3.5996917E-01;  9.9999998E-03; -1.2000088E-01;1596;-0.023975611;0.0;-0.00094630459;1000.2732;  4.0000001E-01;226.36383;3;-13.220964;0.0;-0.88297969;0;-0.16464885;  1.0005867E+04;  0.0000000E+00; -4.7830440E-10;  1.0000000E+04;  0.0000000E+00;  9.9995986E+03;-0.18027593;0.0;0.015627084;199.65427
  3.5996974E-01;  9.9999998E-03; -1.0000059E-01;1597;-0.023504131;0.0;-0.00066931976;1000.2708;  4.0000001E-01;224.28981;3;-12.998365;0.0;-0.68857294;0;-0.16330646;  1.0005727E+04;  0.0000000E+00;  3.8405576E-09;  1.0000000E+04;  0.0000000E+00;  9.9996914E+03;-0.17585784;0.0;0.012551381;157.35608
  3.5997021E-01;  9.9999998E-03; -8.0000378E-02;1598;-0.023095015;0.0;-0.00045673209;1000.2687;  4.0000001E-01;222.61086;3;-12.801108;0.0;-0.52241814;0;-0.16210757;  1.0005609E+04;  0.0000000E+00;  7.5238429E-09;  1.0000000E+04;  0.0000000E+00;  9.9997646E+03;-0.17203556;0.0;0.0099279881;124.09402
  3.5997060E-01;  9.9999998E-03; -6.0000230E-02;1599;-0.022764232;0.0;-0.00029427055;1000.2667;  4.0000001E-01;220.93188;3;-12.638821;0.0;-0.3688342;0;-0.16112161;  1.0005516E+04;  0.0000000E+00;  6.5021948E-09;  1.0000000E+04;  0.0000000E+00;  9.9998193E+03;-0.16894718;0.0;0.0078255674;99.174194
  3.5997087E-01;  9.9999998E-03; -4.0000126E-02;1600;-0.022521824;0.0;-0.00017427545;1000.2654;  4.0000001E-01;219.94426;3;-12.517993;0.0;-0.2348731;0;-0.16039047;  1.0005450E+04;  0.0000000E+00;  2.5586844E-09;  1.0000000E+04;  0.0000000E+00;  9.9998594E+03;-0.16668548;0.0;0.0062950091;81.960426
  3.5997105E-01;  9.9999998E-03; -2.0000057E-02;1601;-0.022374047;0.0;-8.0463717e-05;1000.2646;  4.0000001E-01;219.25293;3;-12.443752;0.0;-0.11529277;0;-0.15994075;  1.0005410E+04;  0.0000000E+00;  1.8233393E-09;  1.0000000E+04;  0.0000000E+00;  9.9998818E+03;-0.16530778;0.0;0.0053670225;71.893906
  3.7996075E-01;  9.9999998E-03; -1.8000291E-01;1624;-0.029778888;0.0;-0.0026293832;1000.3265;  4.0000001E-01;270.51065;3;-15.685163;0.0;-1.8352534;0;-0.19136283;  1.0007490E+04;  0.0000000E+00;  1.4983385E-08;  1.0000000E+04;  0.0000000E+00;  9.9990391E+03;-0.22281386;0.0;0.031451035;461.8092
  3.7996155E-01;  9.9999998E-03; -1.6000213E-01;1625;-0.029164137;0.0;-0.0020250797;1000.3254;  4.0000001E-01;269.6218;3;-15.439846;0.0;-1.5576441;0;-0.19025359;  1.0007282E+04;  0.0000000E+00;  5.5166726E-08;  1.0000000E+04;  0.0000000E+00;  9.9992275E+03;-0.21715696;0.0;0.026903372;373.88675
  3.7996238E-01;  9.9999998E-03; -1.4000151E-01;1626;-0.028518438;0.0;-0.0015199312;1000.3233;  4.0000001E-01;267.84409;3;-15.179031;0.0;-1.2889102;0;-0.18879689;  1.0007076E+04;  0.0000000E+00; -1.0946057E-08;  1.0000000E+04;  0.0000000E+00;  9.9993896E+03;-0.21130238;0.0;0.02250549;298.28058
  3.7996316E-01;  9.9999998E-03; -1.2000104E-01;1627;-0.027893072;0.0;-0.0011006298;1000.3201;  4.0000001E-01;265.17749;3;-14.91673;0.0;-1.0360297;0;-0.18714839;  1.0006882E+04;  0.0000000E+00; -3.5904826E-08;  1.0000000E+04;  0.0000000E+00;  9.9995244E+03;-0.20561561;0.0;0.018467214;236.82584
  3.7996387E-01;  9.9999998E-03; -1.0000069E-01;1628;-0.027319765;0.0;-0.00077262981;1000.317;  4.0000001E-01;262.60965;3;-14.670816;0.0;-0.80010641;0;-0.18552727;  1.0006709E+04;  0.0000000E+00; -2.5151895E-08;  1.0000000E+04;  0.0000000E+00;  9.9996309E+03;-0.20040032;0.0;0.014873056;187.84341
  3.7996450E-01;  9.9999998E-03; -8.0000445E-02;1629;-0.026824499;0.0;-0.00052520703;1000.314;  4.0000001E-01;260.14059;3;-14.45262;0.0;-0.60424292;0;-0.18406905;  1.0006566E+04;  0.0000000E+00; -5.7547025E-09;  1.0000000E+04;  0.0000000E+00;  9.9997158E+03;-0.19588794;0.0;0.011818885;149.96675
  3.7996498E-01;  9.9999998E-03; -6.0000274E-02;1630;-0.026424408;0.0;-0.00033628003;1000.3116;  4.0000001E-01;258.16534;3;-14.271938;0.0;-0.4232294;0;-0.18285896;  1.0006457E+04;  0.0000000E+00; -1.5406179E-09;  1.0000000E+04;  0.0000000E+00;  9.9997754E+03;-0.19224361;0.0;0.0093846451;122.05613
  3.7996534E-01;  9.9999998E-03; -4.0000156E-02;1631;-0.026131522;0.0;-0.00019793586;1000.3098;  4.0000001E-01;256.58514;3;-14.136687;0.0;-0.26732671;0;-0.18195368;  1.0006374E+04;  0.0000000E+00;  2.5411611E-09;  1.0000000E+04;  0.0000000E+00;  9.9998203E+03;-0.18957578;0.0;0.0076220883;103.05997
  3.7996554E-01;  9.9999998E-03; -2.0000070E-02;1632;-0.025953174;0.0;-9.1280621e-05;1000.3085;  4.0000001E-01;255.59752;3;-14.053569;0.0;-0.13099001;0;-0.18139336;  1.0006326E+04;  0.0000000E+00;  3.0374525E-09;  1.0000000E+04;  0.0000000E+00;  9.9998428E+03;-0.18795137;0.0;0.0065580145;92.076637
  3.9995301E-01;  9.9999998E-03; -1.8000342E-01;1655;-0.034653746;0.0;-0.0030745827;1000.3839;  4.0000001E-01;318.01538;3;-17.604126;0.0;-2.1437976;0;-0.21753693;  1.0008801E+04;  0.0000000E+00;  3.9242359E-08;  1.0000000E+04;  0.0000000E+00;  9.9988760E+03;-0.25385997;0.0;0.036323033;541.34564
  3.9995405E-01;  9.9999998E-03; -1.6000250E-01;1656;-0.033899881;0.0;-0.0023626464;1000.3818;  4.0000001E-01;316.33643;3;-17.343554;0.0;-1.8141291;0;-0.21603227;  1.0008538E+04;  0.0000000E+00;  4.7048470E-08;  1.0000000E+04;  0.0000000E+00;  9.9990977E+03;-0.24719778;0.0;0.031165509;437.41583
  3.9995512E-01;  9.9999998E-03; -1.4000179E-01;1657;-0.033112776;0.0;-0.0017681682;1000.3784;  4.0000001E-01;313.47232;3;-17.063688;0.0;-1.4962485;0;-0.2141452;  1.0008284E+04;  0.0000000E+00; -8.1441904E-08;  1.0000000E+04;  0.0000000E+00;  9.9992852E+03;-0.24031283;0.0;0.026167633;349.65048
  3.9995614E-01;  9.9999998E-03; -1.2000124E-01;1658;-0.032353349;0.0;-0.0012772708;1000.3741;  4.0000001E-01;309.91687;3;-16.778509;0.0;-1.1895682;0;-0.21204859;  1.0008045E+04;  0.0000000E+00; -1.2297204E-07;  1.0000000E+04;  0.0000000E+00;  9.9994385E+03;-0.23363492;0.0;0.021586334;279.78983
  3.9995706E-01;  9.9999998E-03; -1.0000085E-01;1659;-0.031659607;0.0;-0.00089506526;1000.3696;  4.0000001E-01;306.26263;3;-16.509155;0.0;-0.90932459;0;-0.2099902;  1.0007836E+04;  0.0000000E+00; -8.6179980E-08;  1.0000000E+04;  0.0000000E+00;  9.9995557E+03;-0.22751912;0.0;0.017528916;225.25998
  3.9995781E-01;  9.9999998E-03; -8.0000564E-02;1660;-0.031061983;0.0;-0.00060863927;1000.3657;  4.0000001E-01;303.00348;3;-16.267422;0.0;-0.67817551;0;-0.20813085;  1.0007667E+04;  0.0000000E+00; -4.3592209E-08;  1.0000000E+04;  0.0000000E+00;  9.9996475E+03;-0.22223492;0.0;0.014104067;183.94104
  3.9995840E-01;  9.9999998E-03; -6.0000356E-02;1661;-0.030580183;0.0;-0.000390801;1000.3623;  4.0000001E-01;300.13937;3;-16.06739;0.0;-0.47208688;0;-0.20657836;  1.0007531E+04;  0.0000000E+00; -1.7773996E-08;  1.0000000E+04;  0.0000000E+00;  9.9997158E+03;-0.21797219;0.0;0.011393834;154.08026
  3.9995885E-01;  9.9999998E-03; -4.0000211E-02;1662;-0.030227505;0.0;-0.00023044072;1000.3598;  4.0000001E-01;298.06534;3;-15.915946;0.0;-0.29574129;0;-0.20541063;  1.0007439E+04;  0.0000000E+00; -4.5464890E-09;  1.0000000E+04;  0.0000000E+00;  9.9997617E+03;-0.21485478;0.0;0.0094441455;134.11032
  3.9995909E-01;  9.9999998E-03; -2.0000096E-02;1663;-0.030012837;0.0;-0.00010662685;1000.3585;  4.0000001E-01;296.97897;3;-15.822448;0.0;-0.14436939;0;-0.2046847;  1.0007382E+04;  0.0000000E+00; -4.4825654E-10;  1.0000000E+04;  0.0000000E+00;  9.9997871E+03;-0.2129577;0.0;0.0082729887;122.72157
  4.1994393E-01;  9.9999998E-03; -1.8000403E-01;1686;-0.040193655;0.0;-0.0035716284;1000.4502;  4.0000001E-01;373.026;3;-19.681383;0.0;-2.4712462;0;-0.24674843;  1.0010301E+04;  0.0000000E+00;  6.3022874E-08;  1.0000000E+04;  0.0000000E+00;  9.9987012E+03;-0.28814626;0.0;0.041397821;626.65308
  4.1994530E-01;  9.9999998E-03; -1.6000299E-01;1687;-0.039276231;0.0;-0.0027490524;1000.4465;  4.0000001E-01;369.8656;3;-19.41437;0.0;-2.0804157;0;-0.24466139;  1.0009972E+04;  0.0000000E+00; -1.7272795E-08;  1.0000000E+04;  0.0000000E+00;  9.9989580E+03;-0.28027833;0.0;0.035616927;506.54108
  4.1994667E-01;  9.9999998E-03; -1.4000218E-01;1688;-0.038322911;0.0;-0.0020638613;1000.4413;  4.0000001E-01;365.61884;3;-19.119764;0.0;-1.7074174;0;-0.24212812;  1.0009659E+04;  0.0000000E+00; -2.3354693E-07;  1.0000000E+04;  0.0000000E+00;  9.9991680E+03;-0.2722097;0.0;0.030081579;407.90424
  4.1994795E-01;  9.9999998E-03; -1.2000155E-01;1689;-0.037405849;0.0;-0.0014996845;1000.4353;  4.0000001E-01;360.68069;3;-18.814842;0.0;-1.3415946;0;-0.23935437;  1.0009373E+04;  0.0000000E+00; -2.6240460E-07;  1.0000000E+04;  0.0000000E+00;  9.9993340E+03;-0.26442447;0.0;0.025070101;331.6803
  4.1994908E-01;  9.9999998E-03; -1.0000110E-01;1690;-0.036570363;0.0;-0.0010599893;1000.4292;  4.0000001E-01;355.54504;3;-18.521666;0.0;-1.0145831;0;-0.23663999;  1.0009126E+04;  0.0000000E+00; -1.8583411E-07;  1.0000000E+04;  0.0000000E+00;  9.9994619E+03;-0.25732091;0.0;0.020680914;273.7392
  4.1995004E-01;  9.9999998E-03; -8.0000766E-02;1691;-0.035852253;0.0;-0.00072893046;1000.4238;  4.0000001E-01;351.10074;3;-18.254215;0.0;-0.74741048;0;-0.23418705;  1.0008923E+04;  0.0000000E+00; -9.6953222E-08;  1.0000000E+04;  0.0000000E+00;  9.9995537E+03;-0.2511999;0.0;0.017012848;230.86813
  4.1995078E-01;  9.9999998E-03; -6.0000509E-02;1692;-0.035274118;0.0;-0.00047480006;1000.4194;  4.0000001E-01;347.44653;3;-18.031425;0.0;-0.51656747;0;-0.23213524;  1.0008767E+04;  0.0000000E+00; -4.4842263E-08;  1.0000000E+04;  0.0000000E+00;  9.9996230E+03;-0.24627158;0.0;0.014136345;200.56857
  4.1995129E-01;  9.9999998E-03; -4.0000312E-02;1693;-0.034851056;0.0;-0.00028360554;1000.4161;  4.0000001E-01;344.77994;3;-17.860764;0.0;-0.32006007;0;-0.23058949;  1.0008655E+04;  0.0000000E+00; -1.7273424E-08;  1.0000000E+04;  0.0000000E+00;  9.9996660E+03;-0.24267264;0.0;0.012083145;180.71758
  4.1995162E-01;  9.9999998E-03; -2.0000149E-02;1694;-0.034593608;0.0;-0.00013280942;1000.4141;  4.0000001E-01;343.0022;3;-17.754831;0.0;-0.15632281;0;-0.22962734;  1.0008593E+04;  0.0000000E+00; -4.3182058E-09;  1.0000000E+04;  0.0000000E+00;  9.9996934E+03;-0.24048455;0.0;0.010857202;169.58391
  4.3993333E-01;  9.9999998E-03; -1.8000482E-01;1717;-0.04646587;0.0;-0.0041505354;1000.5256;  4.0000001E-01;435.44376;3;-21.922213;0.0;-2.8153679;0;-0.27903247;  1.0012003E+04;  0.0000000E+00;  1.4712054E-08;  1.0000000E+04;  0.0000000E+00;  9.9985186E+03;-0.32559597;0.0;0.04656351;718.07629
  4.3993512E-01;  9.9999998E-03; -1.6000366E-01;1718;-0.045354079;0.0;-0.0032214667;1000.5198;  4.0000001E-01;430.70316;3;-21.659264;0.0;-2.3554304;0;-0.27610356;  1.0011601E+04;  0.0000000E+00; -1.8489159E-07;  1.0000000E+04;  0.0000000E+00;  9.9988018E+03;-0.3163234;0.0;0.040219847;583.43604
  4.3993688E-01;  9.9999998E-03; -1.4000276E-01;1719;-0.044204291;0.0;-0.0024481018;1000.5121;  4.0000001E-01;424.2836;3;-21.35359;0.0;-1.9243301;0;-0.27263063;  1.0011217E+04;  0.0000000E+00; -4.5343867E-07;  1.0000000E+04;  0.0000000E+00;  9.9990283E+03;-0.30694193;0.0;0.034311287;477.06284
  4.3993849E-01;  9.9999998E-03; -1.2000206E-01;1720;-0.043102782;0.0;-0.0018096425;1000.5038;  4.0000001E-01;417.37021;3;-21.032259;0.0;-1.4925804;0;-0.26887777;  1.0010879E+04;  0.0000000E+00; -4.3564637E-07;  1.0000000E+04;  0.0000000E+00;  9.9992002E+03;-0.29796889;0.0;0.029091125;398.03232
  4.3993989E-01;  9.9999998E-03; -1.0000153E-01;1721;-0.042101867;0.0;-0.0013080139;1000.4955;  4.0000001E-01;410.5556;3;-20.714544;0.0;-1.1217248;0;-0.26522681;  1.0010587E+04;  0.0000000E+00; -2.8574547E-07;  1.0000000E+04;  0.0000000E+00;  9.9993271E+03;-0.28982773;0.0;0.024600919;339.85416
  4.3994102E-01;  9.9999998E-03; -8.0001116E-02;1722;-0.041243125;0.0;-0.00092054374;1000.4886;  4.0000001E-01;404.82739;3;-20.418068;0.0;-0.81335503;0;-0.26193997;  1.0010352E+04;  0.0000000E+00; -1.5078768E-07;  1.0000000E+04;  0.0000000E+00;  9.9994219E+03;-0.282839;0.0;0.020899024;297.92773
  4.3994194E-01;  9.9999998E-03; -6.0000781E-02;1723;-0.040552333;0.0;-0.00061590486;1000.4828;  4.0000001E-01;399.98804;3;-20.166727;0.0;-0.55806005;0;-0.25919828;  1.0010173E+04;  0.0000000E+00; -7.1011044E-08;  1.0000000E+04;  0.0000000E+00;  9.9994883E+03;-0.27722654;0.0;0.018028261;268.99695
  4.3994257E-01;  9.9999998E-03; -4.0000498E-02;1724;-0.040047295;0.0;-0.00037647461;1000.4787;  4.0000001E-01;396.6301;3;-19.973051;0.0;-0.34225145;0;-0.2571362;  1.0010048E+04;  0.0000000E+00; -2.9045500E-08;  1.0000000E+04;  0.0000000E+00;  9.9995283E+03;-0.27313459;0.0;0.015998393;250.46951
  4.3994296E-01;  9.9999998E-03; -2.0000244E-02;1725;-0.039739847;0.0;-0.00017966991;1000.476;  4.0000001E-01;394.35855;3;-19.851498;0.0;-0.16709094;0;-0.25585434;  1.0009972E+04;  0.0000000E+00; -5.9306493E-09;  1.0000000E+04;  0.0000000E+00;  9.9995518E+03;-0.27064955;0.0;0.014795227;240.27873
  4.5992097E-01;  9.9999998E-03; -1.8000594E-01;1748;-0.053544354;0.0;-0.0048680399;1000.6116;  4.0000051E-01;506.65118;3;-24.332035;0.0;-3.1725521;0;-0.3140139;  1.0013896E+04;  0.0000000E+00; -2.6788285E-08;  1.0000000E+04;  0.0000000E+00;  9.9983135E+03;-0.36573914;0.0;0.051725253;818.34314
  4.5992327E-01;  9.9999998E-03; -1.6000468E-01;1749;-0.052201409;0.0;-0.003847101;1000.6024;  4.0000048E-01;499.04648;3;-24.083403;0.0;-2.6417537;0;-0.30990019;  1.0013405E+04;  0.0000000E+00; -3.9076878E-07;  1.0000000E+04;  0.0000000E+00;  9.9986211E+03;-0.35490164;0.0;0.045001451;673.27594
  4.5992547E-01;  9.9999998E-03; -1.4000367E-01;1750;-0.050821871;0.0;-0.0029890921;1000.5914;  4.0000060E-01;489.96036;3;-23.772783;0.0;-2.1407378;0;-0.30511385;  1.0012953E+04;  0.0000000E+00; -6.7547876E-07;  1.0000000E+04;  0.0000000E+00;  9.9988535E+03;-0.34413868;0.0;0.039024834;564.45422
  4.5992747E-01;  9.9999998E-03; -1.2000288E-01;1751;-0.049505211;0.0;-0.0022744881;1000.5798;  4.0000054E-01;480.3804;3;-23.434996;0.0;-1.6493527;0;-0.30001235;  1.0012559E+04;  0.0000000E+00; -5.6979081E-07;  1.0000000E+04;  0.0000000E+00;  9.9990195E+03;-0.33396453;0.0;0.033952165;487.66434
  4.5992920E-01;  9.9999998E-03; -1.0000224E-01;1752;-0.04831329;0.0;-0.0016988793;1000.5692;  4.0000048E-01;471.59055;3;-23.089361;0.0;-1.2326607;0;-0.29509628;  1.0012225E+04;  0.0000000E+00; -3.4722237E-07;  1.0000000E+04;  0.0000000E+00;  9.9991396E+03;-0.32480034;0.0;0.029704062;433.20029
  4.5993060E-01;  9.9999998E-03; -8.0001704E-02;1753;-0.047292724;0.0;-0.0012354571;1000.5601;  4.0000048E-01;463.98584;3;-22.760756;0.0;-0.88230348;0;-0.29070559;  1.0011954E+04;  0.0000000E+00; -1.6875261E-07;  1.0000000E+04;  0.0000000E+00;  9.9992256E+03;-0.3169691;0.0;0.026263492;394.93948
  4.5993167E-01;  9.9999998E-03; -6.0001239E-02;1754;-0.046472497;0.0;-0.00085658859;1000.5529;  4.0000045E-01;458.06009;3;-22.474455;0.0;-0.60539234;0;-0.28706464;  1.0011753E+04;  0.0000000E+00; -7.1767715E-08;  1.0000000E+04;  0.0000000E+00;  9.9992813E+03;-0.31069672;0.0;0.023632074;369.08438
  4.5993242E-01;  9.9999998E-03; -4.0000811E-02;1755;-0.045873195;0.0;-0.00053784758;1000.5475;  4.0000045E-01;453.61578;3;-22.252151;0.0;-0.36799642;0;-0.28433761;  1.0011612E+04;  0.0000000E+00; -2.9728122E-08;  1.0000000E+04;  0.0000000E+00;  9.9993203E+03;-0.30613101;0.0;0.021793403;352.86295
  4.5993289E-01;  9.9999998E-03; -2.0000402E-02;1756;-0.04550812;0.0;-0.00026037608;1000.5445;  4.0000048E-01;451.14673;3;-22.110756;0.0;-0.1744553;0;-0.28264683;  1.0011528E+04;  0.0000000E+00; -5.7096461E-09;  1.0000000E+04;  0.0000000E+00;  9.9993389E+03;-0.3033607;0.0;0.020713877;344.10989
  4.7990662E-01;  9.9999998E-03; -1.8000761E-01;1779;-0.061506297;0.0;-0.0058211782;1000.7045;  4.0000159E-01;583.68542;3;-26.915581;0.0;-3.541486;0;-0.3504647;  1.0015942E+04;  0.0000000E+00;  3.9931899E-07;  1.0000000E+04;  0.0000000E+00;  9.9980801E+03;-0.40735921;0.0;0.056894522;934.91278
  4.7990951E-01;  9.9999998E-03; -1.6000625E-01;1780;-0.059892498;0.0;-0.0047319233;1000.6912;  4.0000156E-01;572.62402;3;-26.690304;0.0;-2.9441926;0;-0.34475487;  1.0015359E+04;  0.0000000E+00; -2.6761433E-07;  1.0000000E+04;  0.0000000E+00;  9.9983984E+03;-0.39488328;0.0;0.050128385;785.92584
  4.7991225E-01;  9.9999998E-03; -1.4000514E-01;1781;-0.058248136;0.0;-0.0037921395;1000.6761;  4.0000153E-01;560.17999;3;-26.37903;0.0;-2.3707633;0;-0.33822241;  1.0014835E+04;  0.0000000E+00; -6.1896651E-07;  1.0000000E+04;  0.0000000E+00;  9.9986182E+03;-0.38277173;0.0;0.044549324;681.79028
  4.7991470E-01;  9.9999998E-03; -1.2000419E-01;1782;-0.056685612;0.0;-0.002992281;1000.6609;  4.0000147E-01;547.53839;3;-26.024715;0.0;-1.8316425;0;-0.33136392;  1.0014385E+04;  0.0000000E+00; -5.1828061E-07;  1.0000000E+04;  0.0000000E+00;  9.9987676E+03;-0.37148449;0.0;0.040120587;613.25061
  4.7991678E-01;  9.9999998E-03; -1.0000338E-01;1783;-0.055276915;0.0;-0.0023181548;1000.6472;  4.0000156E-01;536.18073;3;-25.646315;0.0;-1.364933;0;-0.32483715;  1.0014011E+04;  0.0000000E+00; -2.9513254E-07;  1.0000000E+04;  0.0000000E+00;  9.9988672E+03;-0.36140275;0.0;0.036565617;566.5708
  4.7991845E-01;  9.9999998E-03; -8.0002651E-02;1784;-0.054073803;0.0;-0.0017472686;1000.6359;  4.0000147E-01;526.79834;3;-25.279819;0.0;-0.97923148;0;-0.31907037;  1.0013713E+04;  0.0000000E+00; -1.3277889E-07;  1.0000000E+04;  0.0000000E+00;  9.9989346E+03;-0.3528277;0.0;0.03375734;534.23822
  4.7991973E-01;  9.9999998E-03; -6.0001969E-02;1785;-0.05310788;0.0;-0.0012510137;1000.6271;  4.0000156E-01;519.58868;3;-24.953835;0.0;-0.66283077;0;-0.31432807;  1.0013489E+04;  0.0000000E+00; -5.5931366E-08;  1.0000000E+04;  0.0000000E+00;  9.9989844E+03;-0.34597674;0.0;0.031648651;512.44073
  4.7992063E-01;  9.9999998E-03; -4.0001310E-02;1786;-0.052401796;0.0;-0.00080763188;1000.6207;  4.0000153E-01;514.25549;3;-24.695105;0.0;-0.40434611;0;-0.31079602;  1.0013332E+04;  0.0000000E+00; -1.8740977E-08;  1.0000000E+04;  0.0000000E+00;  9.9990156E+03;-0.34099564;0.0;0.030199606;498.79056
  4.7992116E-01;  9.9999998E-03; -2.0000657E-02;1787;-0.05197173;0.0;-0.0003962784;1000.617;  4.0000147E-01;511.19388;3;-24.529287;0.0;-0.18838046;0;-0.30861354;  1.0013240E+04;  0.0000000E+00; -5.2050586E-09;  1.0000000E+04;  0.0000000E+00;  9.9990332E+03;-0.33797446;0.0;0.029360915;491.46048
  4.9988994E-01;  9.9999998E-03; -1.8001017E-01;1810;-0.070420943;0.0;-0.0071578193;1000.7996;  4.0000346E-01;662.49713;3;-29.673885;0.0;-3.9215279;0;-0.38576773;  1.0018040E+04;  0.0000000E+00;  2.5153704E-06;  1.0000000E+04;  0.0000000E+00;  9.9977871E+03;-0.448075;0.0;0.06230728;1082.9994
  4.9989355E-01;  9.9999998E-03; -1.6000870E-01;1811;-0.068499297;0.0;-0.0060236449;1000.7811;  4.0000343E-01;647.09021;3;-29.480515;0.0;-3.2699845;0;-0.37804687;  1.0017366E+04;  0.0000000E+00;  1.2614945E-06;  1.0000000E+04;  0.0000000E+00;  9.9980918E+03;-0.43403122;0.0;0.055984344;937.57562
  4.9989691E-01;  9.9999998E-03; -1.4000741E-01;1812;-0.066557646;0.0;-0.0050008711;1000.7612;  4.0000346E-01;630.69568;3;-29.172388;0.0;-2.6511075;0;-0.36933386;  1.0016775E+04;  0.0000000E+00;  5.0218273E-07;  1.0000000E+04;  0.0000000E+00;  9.9982832E+03;-0.42074224;0.0;0.051408391;845.74524
  4.9989989E-01;  9.9999998E-03; -1.2000622E-01;1813;-0.064720824;0.0;-0.0040863561;1000.7421;  4.0000346E-01;614.79498;3;-28.799608;0.0;-2.0586805;0;-0.36032203;  1.0016274E+04;  0.0000000E+00;  1.3926832E-07;  1.0000000E+04;  0.0000000E+00;  9.9983975E+03;-0.40855584;0.0;0.048233811;791.20575
  4.9990237E-01;  9.9999998E-03; -1.0000512E-01;1814;-0.063071609;0.0;-0.0032719746;1000.7253;  4.0000349E-01;600.96826;3;-28.383881;0.0;-1.544729;0;-0.35186404;  1.0015863E+04;  0.0000000E+00;  3.4778196E-08;  1.0000000E+04;  0.0000000E+00;  9.9984756E+03;-0.39776805;0.0;0.045904011;755.43158
  4.9990433E-01;  9.9999998E-03; -8.0004074E-02;1815;-0.061667334;0.0;-0.0025404289;1000.7117;  4.0000337E-01;589.6106;3;-27.971876;0.0;-1.1224777;0;-0.34448326;  1.0015538E+04;  0.0000000E+00;  6.6459491E-09;  1.0000000E+04;  0.0000000E+00;  9.9985283E+03;-0.38863325;0.0;0.04414998;729.90002
  4.9990585E-01;  9.9999998E-03; -6.0003065E-02;1816;-0.060541101;0.0;-0.0018651242;1000.7017;  4.0000340E-01;581.31458;3;-27.59532;0.0;-0.76368546;0;-0.33847144;  1.0015296E+04;  0.0000000E+00; -7.1818125E-09;  1.0000000E+04;  0.0000000E+00;  9.9985674E+03;-0.38134754;0.0;0.042876102;711.64789
  4.9990690E-01;  9.9999998E-03; -4.0002052E-02;1817;-0.059718557;0.0;-0.0012274304;1000.6942;  4.0000349E-01;575.09253;3;-27.294113;0.0;-0.47095311;0;-0.33402252;  1.0015127E+04;  0.0000000E+00; -4.0740176E-09;  1.0000000E+04;  0.0000000E+00;  9.9985947E+03;-0.37605181;0.0;0.042029306;699.53113
  4.9990749E-01;  9.9999998E-03; -2.0001030E-02;1818;-0.059217162;0.0;-0.00060937909;1000.6904;  4.0000352E-01;571.93213;3;-27.099184;0.0;-0.22320293;0;-0.33128464;  1.0015027E+04;  0.0000000E+00; -1.4815144E-09;  1.0000000E+04;  0.0000000E+00;  9.9986084E+03;-0.37283942;0.0;0.041554786;692.73273
  5.1987082E-01;  9.9999998E-03; -1.8001407E-01;1841;-0.080326885;0.0;-0.0090778638;1000.8932;  4.0000960E-01;740.02448;3;-32.595627;0.0;-4.3073072;0;-0.41546771;  1.0020018E+04;  0.0000000E+00;  7.8255680E-06;  1.0000000E+04;  0.0000000E+00;  9.9973691E+03;-0.48402381;0.0;0.0685561;1289.498
  5.1987523E-01;  9.9999998E-03; -1.6001239E-01;1842;-0.078067735;0.0;-0.0079029268;1000.8696;  4.0000978E-01;720.37085;3;-32.443993;0.0;-3.6267931;0;-0.40545529;  1.0019259E+04;  0.0000000E+00;  5.7993147E-06;  1.0000000E+04;  0.0000000E+00;  9.9976533E+03;-0.46869001;0.0;0.063234709;1152.4304
  5.1987922E-01;  9.9999998E-03; -1.4001079E-01;1843;-0.075807139;0.0;-0.006777002;1000.8448;  4.0000966E-01;699.92706;3;-32.157501;0.0;-2.9730837;0;-0.39423159;  1.0018610E+04;  0.0000000E+00;  4.0608770E-06;  1.0000000E+04;  0.0000000E+00;  9.9978066E+03;-0.45456025;0.0;0.060328666;1077.958
  5.1988274E-01;  9.9999998E-03; -1.2000920E-01;1844;-0.07367415;0.0;-0.005704667;1000.8215;  4.0000966E-01;680.5697;3;-31.76153;0.0;-2.3526003;0;-0.38275659;  1.0018068E+04;  0.0000000E+00;  2.3060607E-06;  1.0000000E+04;  0.0000000E+00;  9.9978789E+03;-0.44182163;0.0;0.059065059;1040.7845
  5.1988572E-01;  9.9999998E-03; -1.0000765E-01;1845;-0.071765535;0.0;-0.0046856534;1000.8018;  4.0000963E-01;664.27393;3;-31.302938;0.0;-1.79732;0;-0.37212595;  1.0017628E+04;  0.0000000E+00;  1.0970401E-06;  1.0000000E+04;  0.0000000E+00;  9.9979277E+03;-0.430648;0.0;0.058522057;1016.6416
  5.1988798E-01;  9.9999998E-03; -8.0006130E-02;1846;-0.070144512;0.0;-0.0037171401;1000.7863;  4.0000960E-01;651.43488;3;-30.83427;0.0;-1.3331082;0;-0.36296478;  1.0017280E+04;  0.0000000E+00;  4.4255219E-07;  1.0000000E+04;  0.0000000E+00;  9.9979697E+03;-0.42122203;0.0;0.058257259;996.35229
  5.1988971E-01;  9.9999998E-03; -6.0004614E-02;1847;-0.068847418;0.0;-0.0027773452;1000.775;  4.0000975E-01;642.05249;3;-30.397461;0.0;-0.93112922;0;-0.35557684;  1.0017021E+04;  0.0000000E+00;  1.4855588E-07;  1.0000000E+04;  0.0000000E+00;  9.9980010E+03;-0.41370854;0.0;0.058131687;978.8504
  5.1989090E-01;  9.9999998E-03; -4.0003091E-02;1848;-0.067900874;0.0;-0.0018515406;1000.7673;  4.0000969E-01;635.73169;3;-30.045261;0.0;-0.58903915;0;-0.35014737;  1.0016841E+04;  0.0000000E+00;  3.9691052E-08;  1.0000000E+04;  0.0000000E+00;  9.9980293E+03;-0.40824279;0.0;0.05809544;965.36267
  5.1989162E-01;  9.9999998E-03; -2.0001553E-02;1849;-0.067324072;0.0;-0.00092683622;1000.7631;  4.0000960E-01;632.27502;3;-29.816105;0.0;-0.28493062;0;-0.34681934;  1.0016735E+04;  0.0000000E+00;  7.2749726E-09;  1.0000000E+04;  0.0000000E+00;  9.9980430E+03;-0.40492287;0.0;0.058103543;956.98474
  5.3984922E-01;  9.9999998E-03; -1.8001980E-01;1872;-0.091178536;0.0;-0.011817999;1000.9818;  4.0002573E-01;813.4032;3;-35.666866;0.0;-4.7636938;0;-0.43309361;  1.0021605E+04;  0.0000000E+00;  1.5688123E-05;  1.0000000E+04;  0.0000000E+00;  9.9967393E+03;-0.50978971;0.0;0.076696105;1596.9789
  5.3985447E-01;  9.9999998E-03; -1.6001774E-01;1873;-0.088568725;0.0;-0.010559868;1000.9545;  4.0002590E-01;790.78674;3;-35.563114;0.0;-4.0692391;0;-0.42084557;  1.0020783E+04;  0.0000000E+00;  1.3501926E-05;  1.0000000E+04;  0.0000000E+00;  9.9970107E+03;-0.49372244;0.0;0.072876863;1464.8074
  5.3985918E-01;  9.9999998E-03; -1.4001557E-01;1874;-0.085977718;0.0;-0.0092823748;1000.9261;  4.0002573E-01;767.28137;3;-35.288273;0.0;-3.4111273;0;-0.40705892;  1.0020097E+04;  0.0000000E+00;  1.1149868E-05;  1.0000000E+04;  0.0000000E+00;  9.9971289E+03;-0.47928295;0.0;0.072224014;1405.1613
  5.3986329E-01;  9.9999998E-03; -1.2001334E-01;1875;-0.08354301;0.0;-0.007978945;1000.8995;  4.0002581E-01;745.25745;3;-34.873981;0.0;-2.772948;0;-0.39301741;  1.0019529E+04;  0.0000000E+00;  7.1320846E-06;  1.0000000E+04;  0.0000000E+00;  9.9971631E+03;-0.46647888;0.0;0.07346148;1382.9828
  5.3986669E-01;  9.9999998E-03; -1.0001110E-01;1876;-0.081368133;0.0;-0.006665526;1000.8777;  4.0002584E-01;727.18402;3;-34.3708;0.0;-2.18472;0;-0.3801192;  1.0019068E+04;  0.0000000E+00;  3.6602646E-06;  1.0000000E+04;  0.0000000E+00;  9.9971885E+03;-0.45534357;0.0;0.075224362;1366.9733
  5.3986931E-01;  9.9999998E-03; -8.0008887E-02;1877;-0.07952185;0.0;-0.0053545469;1000.8611;  4.0002587E-01;713.45612;3;-33.836773;0.0;-1.6610868;0;-0.36912173;  1.0018701E+04;  0.0000000E+00;  1.5444894E-06;  1.0000000E+04;  0.0000000E+00;  9.9972246E+03;-0.44597569;0.0;0.076853953;1346.9194
  5.3987128E-01;  9.9999998E-03; -6.0006682E-02;1878;-0.078046858;0.0;-0.0040429747;1000.8496;  4.0002590E-01;703.87622;3;-33.338303;0.0;-1.1955489;0;-0.36033651;  1.0018429E+04;  0.0000000E+00;  5.2837714E-07;  1.0000000E+04;  0.0000000E+00;  9.9972637E+03;-0.43850163;0.0;0.078165121;1324.4362
  5.3987265E-01;  9.9999998E-03; -4.0004473E-02;1879;-0.076970719;0.0;-0.0027144831;1000.8419;  4.0002590E-01;697.45673;3;-32.932419;0.0;-0.77377158;0;-0.35392255;  1.0018241E+04;  0.0000000E+00;  1.5628032E-07;  1.0000000E+04;  0.0000000E+00;  9.9972969E+03;-0.43304968;0.0;0.079127133;1304.3607
  5.3987342E-01;  9.9999998E-03; -2.0002244E-02;1880;-0.076314718;0.0;-0.0013644464;1000.8376;  4.0002584E-01;693.90125;3;-32.666702;0.0;-0.37981346;0;-0.35000613;  1.0018128E+04;  0.0000000E+00;  3.1348499E-08;  1.0000000E+04;  0.0000000E+00;  9.9973232E+03;-0.42972931;0.0;0.079723172;1290.8043
  5.5982566E-01;  9.9999998E-03; -1.8002787E-01;1903;-0.10274511;0.0;-0.015591381;1001.0859;  4.0006962E-01;899.71893;3;-38.82782;0.0;-5.2207646;0;-0.43042618;  1.0022449E+04;  0.0000000E+00;  1.9785279E-05;  1.0000000E+04;  0.0000000E+00;  9.9957754E+03;-0.51862615;0.0;0.088199988;2063.4431
  5.5983162E-01;  9.9999998E-03; -1.6002509E-01;1904;-0.099801041;0.0;-0.014200555;1001.0586;  4.0006959E-01;877.00378;3;-38.7659;0.0;-4.5654755;0;-0.41649103;  1.0021612E+04;  0.0000000E+00;  1.9222982E-05;  1.0000000E+04;  0.0000000E+00;  9.9960645E+03;-0.5027253;0.0;0.086234272;1919.7936
  5.5983704E-01;  9.9999998E-03; -1.4002204E-01;1905;-0.096898504;0.0;-0.012685509;1001.0293;  4.0006959E-01;852.70837;3;-38.508293;0.0;-3.936173;0;-0.40054655;  1.0020913E+04;  0.0000000E+00;  1.9533813E-05;  1.0000000E+04;  0.0000000E+00;  9.9961777E+03;-0.48874146;0.0;0.088194892;1859.7363
  5.5984175E-01;  9.9999998E-03; -1.2001885E-01;1906;-0.094172701;0.0;-0.011043164;1001.0015;  4.0006971E-01;829.6969;3;-38.080212;0.0;-3.3276134;0;-0.38419589;  1.0020335E+04;  0.0000000E+00;  1.4373399E-05;  1.0000000E+04;  0.0000000E+00;  9.9962021E+03;-0.47651765;0.0;0.092321754;1840.4071
  5.5984563E-01;  9.9999998E-03; -1.0001566E-01;1907;-0.091733679;0.0;-0.009327352;1000.9792;  4.0006968E-01;811.22845;3;-37.533169;0.0;-2.7358971;0;-0.36917481;  1.0019866E+04;  0.0000000E+00;  8.0340997E-06;  1.0000000E+04;  0.0000000E+00;  9.9962207E+03;-0.46595472;0.0;0.09677992;1822.5219
  5.5984861E-01;  9.9999998E-03; -8.0012485E-02;1908;-0.089664087;0.0;-0.0075471504;1000.9628;  4.0006959E-01;797.69812;3;-36.942245;0.0;-2.1588368;0;-0.35643664;  1.0019494E+04;  0.0000000E+00;  3.5059213E-06;  1.0000000E+04;  0.0000000E+00;  9.9962656E+03;-0.45707151;0.0;0.10063487;1793.1938
  5.5985087E-01;  9.9999998E-03; -6.0009342E-02;1909;-0.088009059;0.0;-0.0057171877;1000.952;  4.0006971E-01;788.71082;3;-36.380222;0.0;-1.609464;0;-0.34633166;  1.0019214E+04;  0.0000000E+00;  1.2161918E-06;  1.0000000E+04;  0.0000000E+00;  9.9963291E+03;-0.4499574;0.0;0.10362574;1756.5535
  5.5985236E-01;  9.9999998E-03; -4.0006220E-02;1910;-0.086801268;0.0;-0.0038449229;1000.9453;  4.0006974E-01;783.18018;3;-35.921448;0.0;-1.0791301;0;-0.33899415;  1.0019020E+04;  0.0000000E+00;  3.3879604E-07;  1.0000000E+04;  0.0000000E+00;  9.9963887E+03;-0.44473955;0.0;0.1057454;1722.0752
  5.5985326E-01;  9.9999998E-03; -2.0003108E-02;1911;-0.086063735;0.0;-0.0019334146;1000.9418;  4.0006974E-01;780.21729;3;-35.618683;0.0;-0.54205704;0;-0.33452666;  1.0018905E+04;  0.0000000E+00;  6.8746267E-08;  1.0000000E+04;  0.0000000E+00;  9.9964365E+03;-0.4415454;0.0;0.10701875;1698.1006
  5.7980096E-01;  9.9999998E-03; -1.8003850E-01;1934;-0.11454811;0.0;-0.020600392;1001.2875;  4.0018579E-01;1066.7214;3;-41.935642;0.0;-5.6854777;0;-0.39758012;  1.0022104E+04;  0.0000000E+00;  7.9980528E-06;  1.0000000E+04;  0.0000000E+00;  9.9943418E+03;-0.50223488;0.0;0.10465477;2752.8608
  5.7980764E-01;  9.9999998E-03; -1.6003449E-01;1935;-0.11131697;0.0;-0.018949719;1001.266;  4.0018576E-01;1048.8456;3;-41.913589;0.0;-5.1869116;0;-0.38292852;  1.0021303E+04;  0.0000000E+00;  1.0650247E-05;  1.0000000E+04;  0.0000000E+00;  9.9947090E+03;-0.48774365;0.0;0.10481513;2568.387
  5.7981378E-01;  9.9999998E-03; -1.4003021E-01;1936;-0.1081415;0.0;-0.017026667;1001.2409;  4.0018576E-01;1028.007;3;-41.685417;0.0;-4.6328759;0;-0.3656573;  1.0020636E+04;  0.0000000E+00;  2.1411597E-05;  1.0000000E+04;  0.0000000E+00;  9.9948740E+03;-0.47519171;0.0;0.10953442;2478.4182
  5.7981908E-01;  9.9999998E-03; -1.2002573E-01;1937;-0.10515138;0.0;-0.014920685;1001.2162;  4.0018576E-01;1007.5634;3;-41.254974;0.0;-4.069355;0;-0.347646;  1.0020078E+04;  0.0000000E+00;  2.0278174E-05;  1.0000000E+04;  0.0000000E+00;  9.9949336E+03;-0.46432;0.0;0.11667401;2437.5732
  5.7982343E-01;  9.9999998E-03; -1.0002123E-01;1938;-0.10247846;0.0;-0.012654534;1001.196;  4.0018579E-01;990.87268;3;-40.687042;0.0;-3.4810891;0;-0.3309325;  1.0019623E+04;  0.0000000E+00;  1.2632341E-05;  1.0000000E+04;  0.0000000E+00;  9.9949844E+03;-0.45493734;0.0;0.12400483;2399.178
  5.7982677E-01;  9.9999998E-03; -8.0016807E-02;1939;-0.10020505;0.0;-0.010264366;1001.1821;  4.0018576E-01;979.31763;3;-40.050636;0.0;-2.8683593;0;-0.31672561;  1.0019260E+04;  0.0000000E+00;  5.5860860E-06;  1.0000000E+04;  0.0000000E+00;  9.9950703E+03;-0.44700906;0.0;0.13028346;2345.3821
  5.7982928E-01;  9.9999998E-03; -6.0012490E-02;1940;-0.098383732;0.0;-0.0077883857;1001.174;  4.0018582E-01;972.60187;3;-39.437611;0.0;-2.2218654;0;-0.30548346;  1.0018980E+04;  0.0000000E+00;  1.7432488E-06;  1.0000000E+04;  0.0000000E+00;  9.9951836E+03;-0.44060448;0.0;0.13512103;2281.4612
  5.7983094E-01;  9.9999998E-03; -4.0008277E-02;1941;-0.097051062;0.0;-0.0052449903;1001.1697;  4.0018588E-01;969.04645;3;-38.933243;0.0;-1.526001;0;-0.29734454;  1.0018786E+04;  0.0000000E+00;  3.6685253E-07;  1.0000000E+04;  0.0000000E+00;  9.9952930E+03;-0.43586069;0.0;0.13851616;2221.9844
  5.7983196E-01;  9.9999998E-03; -2.0004127E-02;1942;-0.096233457;0.0;-0.0026416266;1001.1675;  4.0018579E-01;967.26874;3;-38.602028;0.0;-0.77833575;0;-0.29239678;  1.0018668E+04;  0.0000000E+00;  4.6115456E-08;  1.0000000E+04;  0.0000000E+00;  9.9953691E+03;-0.43293285;0.0;0.14053607;2180.6519
  5.9977639E-01;  9.9999998E-03; -1.8005106E-01;1965;-0.12596075;0.0;-0.026621036;1001.8163;  4.0048069E-01;1504.7212;3;-44.747517;0.0;-6.3054676;0;-0.32166731;  1.0019958E+04;  0.0000000E+00; -3.2182277E-05;  1.0000000E+04;  0.0000000E+00;  9.9923252E+03;-0.44887522;0.0;0.12720792;3715.6099
  5.9978402E-01;  9.9999998E-03; -1.6004573E-01;1966;-0.12244185;0.0;-0.024625793;1001.8089;  4.0048087E-01;1498.598;3;-44.78336;0.0;-5.8885489;0;-0.30743247;  1.0019281E+04;  0.0000000E+00; -2.7690350E-05;  1.0000000E+04;  0.0000000E+00;  9.9928428E+03;-0.43741605;0.0;0.12998356;3454.5398
  5.9979093E-01;  9.9999998E-03; -1.4004000E-01;1967;-0.11899989;0.0;-0.022313833;1001.7947;  4.0048087E-01;1486.8455;3;-44.611992;0.0;-5.4746237;0;-0.28982523;  1.0018701E+04;  0.0000000E+00;  4.2946212E-06;  1.0000000E+04;  0.0000000E+00;  9.9931396E+03;-0.42743537;0.0;0.13761014;3295.2327
  5.9979683E-01;  9.9999998E-03; -1.2003389E-01;1968;-0.11577998;0.0;-0.019652903;1001.7783;  4.0048078E-01;1473.3153;3;-44.192448;0.0;-5.0198212;0;-0.27102745;  1.0018209E+04;  0.0000000E+00;  1.6880700E-05;  1.0000000E+04;  0.0000000E+00;  9.9933027E+03;-0.41875115;0.0;0.1477237;3198.0613
  5.9980160E-01;  9.9999998E-03; -1.0002775E-01;1969;-0.11291645;0.0;-0.01670967;1001.765;  4.0048087E-01;1462.254;3;-43.615707;0.0;-4.4901562;0;-0.25329435;  1.0017797E+04;  0.0000000E+00;  1.3143961E-05;  1.0000000E+04;  0.0000000E+00;  9.9934453E+03;-0.41117024;0.0;0.15787588;3111.7732
  5.9980530E-01;  9.9999998E-03; -8.0021791E-02;1970;-0.11047626;0.0;-0.013568372;1001.7568;  4.0048096E-01;1455.4396;3;-42.952396;0.0;-3.8321204;0;-0.23807199;  1.0017464E+04;  0.0000000E+00;  5.4325783E-06;  1.0000000E+04;  0.0000000E+00;  9.9936162E+03;-0.40465856;0.0;0.16658656;3012.156
  5.9980804E-01;  9.9999998E-03; -6.0016099E-02;1971;-0.10851819;0.0;-0.010314043;1001.7537;  4.0048110E-01;1452.8717;3;-42.318253;0.0;-3.0692933;0;-0.22599608;  1.0017202E+04;  0.0000000E+00;  8.7948257E-07;  1.0000000E+04;  0.0000000E+00;  9.9938096E+03;-0.39930597;0.0;0.17330989;2903.7026
  5.9980994E-01;  9.9999998E-03; -4.0010639E-02;1972;-0.10707329;0.0;-0.0069610127;1001.7535;  4.0048096E-01;1452.6742;3;-41.795048;0.0;-2.1565604;0;-0.21725889;  1.0017015E+04;  0.0000000E+00; -3.3033265E-07;  1.0000000E+04;  0.0000000E+00;  9.9939941E+03;-0.39527842;0.0;0.17801954;2805.8611
  5.9981108E-01;  9.9999998E-03; -2.0005299E-02;1973;-0.10618059;0.0;-0.0035072081;1001.7542;  4.0048105E-01;1453.2668;3;-41.456863;0.0;-1.1037164;0;-0.21194932;  1.0016902E+04;  0.0000000E+00; -1.6777646E-07;  1.0000000E+04;  0.0000000E+00;  9.9941201E+03;-0.39276293;0.0;0.18081361;2738.583
  6.1975342E-01;  9.9999998E-03; -1.8006577E-01;1996;-0.13629118;0.0;-0.033485752;1003.14;  4.0115643E-01;2601.3467;3;-47.076698;0.0;-6.8342605;0;-0.18642102;  1.0015308E+04;  0.0000000E+00; -9.9289733E-05;  1.0000000E+04;  0.0000000E+00;  9.9896943E+03;-0.34243354;0.0;0.15601252;4965.2319
  6.1976206E-01;  9.9999998E-03; -1.6005893E-01;1997;-0.13246921;0.0;-0.031177687;1003.1542;  4.0115663E-01;2613.0991;3;-47.130276;0.0;-6.6231451;0;-0.17358465;  1.0014859E+04;  0.0000000E+00; -1.0189508E-04;  1.0000000E+04;  0.0000000E+00;  9.9904238E+03;-0.33603454;0.0;0.16244988;4595.6802
  6.1976969E-01;  9.9999998E-03; -1.4005139E-01;1998;-0.12882109;0.0;-0.02841316;1003.1593;  4.0115684E-01;2617.3459;3;-47.006889;0.0;-6.4238439;0;-0.15651301;  1.0014442E+04;  0.0000000E+00; -4.0927000E-05;  1.0000000E+04;  0.0000000E+00;  9.9909326E+03;-0.32997802;0.0;0.17346501;4327.3999
  6.1977613E-01;  9.9999998E-03; -1.2004329E-01;1999;-0.12546811;0.0;-0.025108237;1003.1583;  4.0115675E-01;2616.5557;3;-46.643135;0.0;-6.1145082;0;-0.13781564;  1.0014071E+04;  0.0000000E+00; -4.3863884E-06;  1.0000000E+04;  0.0000000E+00;  9.9912793E+03;-0.32440725;0.0;0.18659161;4135.5044
  6.1978132E-01;  9.9999998E-03; -1.0003518E-01;2000;-0.12248933;0.0;-0.021424951;1003.1568;  4.0115684E-01;2615.2717;3;-46.123692;0.0;-5.7024174;0;-0.11990286;  1.0013742E+04;  0.0000000E+00;  3.3899560E-06;  1.0000000E+04;  0.0000000E+00;  9.9915762E+03;-0.31929442;0.0;0.19939156;3968.9399
  6.1978543E-01;  9.9999998E-03; -8.0027431E-02;2001;-0.11991354;0.0;-0.017467724;1003.1586;  4.0115678E-01;2616.8518;3;-45.518902;0.0;-5.0684347;0;-0.10434715;  1.0013469E+04;  0.0000000E+00; -5.6639374E-07;  1.0000000E+04;  0.0000000E+00;  9.9918848E+03;-0.31469512;0.0;0.21034797;3797.7122
  6.1978853E-01;  9.9999998E-03; -6.0020160E-02;2002;-0.11779758;0.0;-0.013298062;1003.1641;  4.0115684E-01;2621.3948;3;-44.88736;0.0;-4.0940366;0;-0.091944158;  1.0013251E+04;  0.0000000E+00; -3.2427893E-06;  1.0000000E+04;  0.0000000E+00;  9.9922031E+03;-0.31076887;0.0;0.21882471;3624.2947
  6.1979067E-01;  9.9999998E-03; -4.0013269E-02;2003;-0.11624385;0.0;-0.008983491;1003.1704;  4.0115690E-01;2626.5303;3;-44.377895;0.0;-2.9148498;0;-0.082963288;  1.0013091E+04;  0.0000000E+00; -2.4827518E-06;  1.0000000E+04;  0.0000000E+00;  9.9924912E+03;-0.30772886;0.0;0.22476557;3472.6218
  6.1979192E-01;  9.9999998E-03; -2.0006595E-02;2004;-0.11528252;0.0;-0.0045357724;1003.1753;  4.0115684E-01;2630.5796;3;-44.031635;0.0;-1.5185326;0;-0.077503517;  1.0012993E+04;  0.0000000E+00; -7.6804884E-07;  1.0000000E+04;  0.0000000E+00;  9.9926836E+03;-0.30579323;0.0;0.22828971;3369.5691
  6.3973355E-01;  9.9999998E-03; -1.8008289E-01;2027;-0.14504115;0.0;-0.041157782;1005.6902;  4.0239584E-01;4714.0879;3;-48.875267;0.0;-7.1850553;0;0.02271086;  1.0007599E+04;  0.0000000E+00; -1.5973467E-04;  1.0000000E+04;  0.0000000E+00;  9.9865400E+03;-0.16709775;0.0;0.18980861;6457.1689
  6.3974297E-01;  9.9999998E-03; -1.6007394E-01;2028;-0.14100029;0.0;-0.03843388;1005.7333;  4.0239593E-01;4749.8384;3;-48.963097;0.0;-7.1552606;0;0.033897534;  1.0007481E+04;  0.0000000E+00; -1.9036751E-04;  1.0000000E+04;  0.0000000E+00;  9.9875078E+03;-0.16780965;0.0;0.20170718;5962.7778
  6.3975114E-01;  9.9999998E-03; -1.4006406E-01;2029;-0.13723847;0.0;-0.035065535;1005.764;  4.0239602E-01;4775.2197;3;-48.905266;0.0;-7.2451105;0;0.050033346;  1.0007308E+04;  0.0000000E+00; -1.0634915E-04;  1.0000000E+04;  0.0000000E+00;  9.9882852E+03;-0.16714825;0.0;0.21718159;5558.1914
  6.3975805E-01;  9.9999998E-03; -1.2005346E-01;2030;-0.13380224;0.0;-0.031003471;1005.7846;  4.0239605E-01;4792.3052;3;-48.642735;0.0;-7.271225;0;0.067962527;  1.0007119E+04;  0.0000000E+00; -4.3850490E-05;  1.0000000E+04;  0.0000000E+00;  9.9888730E+03;-0.16573609;0.0;0.23369862;5240.3354
  6.3976377E-01;  9.9999998E-03; -1.0004300E-01;2031;-0.13069566;0.0;-0.02639015;1005.8012;  4.0239620E-01;4806.0327;3;-48.225616;0.0;-7.0138745;0;0.085167289;  1.0006932E+04;  0.0000000E+00; -1.9451551E-05;  1.0000000E+04;  0.0000000E+00;  9.9893809E+03;-0.163877;0.0;0.24904428;4963.7334
  6.3976836E-01;  9.9999998E-03; -8.0033273E-02;2032;-0.12796268;0.0;-0.021483021;1005.8181;  4.0239626E-01;4819.958;3;-47.657158;0.0;-6.3147812;0;0.1001464;  1.0006764E+04;  0.0000000E+00; -1.4643867E-05;  1.0000000E+04;  0.0000000E+00;  9.9898818E+03;-0.16180767;0.0;0.26195407;4695.3154
  6.3977176E-01;  9.9999998E-03; -6.0024347E-02;2033;-0.12575701;0.0;-0.016378548;1005.8354;  4.0239617E-01;4834.376;3;-47.070755;0.0;-5.1490445;0;0.11210383;  1.0006621E+04;  0.0000000E+00; -1.1702581E-05;  1.0000000E+04;  0.0000000E+00;  9.9903701E+03;-0.15979074;0.0;0.27189457;4436.1113
  6.3977420E-01;  9.9999998E-03; -4.0016003E-02;2034;-0.12413153;0.0;-0.011105552;1005.8515;  4.0239626E-01;4847.7085;3;-46.610775;0.0;-3.6811125;0;0.12075594;  1.0006513E+04;  0.0000000E+00; -6.5392101E-06;  1.0000000E+04;  0.0000000E+00;  9.9907930E+03;-0.15809333;0.0;0.27884927;4214.8208
  6.3977563E-01;  9.9999998E-03; -2.0007951E-02;2035;-0.12312531;0.0;-0.0056186551;1005.8625;  4.0239623E-01;4856.8931;3;-46.310303;0.0;-1.9181007;0;0.12601593;  1.0006448E+04;  0.0000000E+00; -1.8187011E-06;  1.0000000E+04;  0.0000000E+00;  9.9910781E+03;-0.15695786;0.0;0.2829738;4066.0071
  6.5971923E-01;  9.9999998E-03; -1.8010406E-01;2058;-0.15128238;0.0;-0.050384264;1008.8698;  4.0395570E-01;7348.1191;3;-50.295616;0.0;-7.1266289;0;0.30894226;  9.9968203E+03;  0.0000000E+00; -1.6120035E-04;  1.0000000E+04;  0.0000000E+00;  9.9830898E+03;0.083058961;0.0;0.22588329;8081.5342
  6.5972894E-01;  9.9999998E-03; -1.6009206E-01;2059;-0.1471664;0.0;-0.04700841;1008.9442;  4.0395585E-01;7409.8433;3;-50.357941;0.0;-7.4415808;0;0.31954268;  9.9970977E+03;  0.0000000E+00; -2.4281644E-04;  1.0000000E+04;  0.0000000E+00;  9.9842754E+03;0.073906012;0.0;0.24563666;7469.9741
  6.5973729E-01;  9.9999998E-03; -1.4007930E-01;2060;-0.14337555;0.0;-0.042910051;1009.004;  4.0395585E-01;7459.3213;3;-50.288033;0.0;-7.9559178;0;0.33520505;  9.9972373E+03;  0.0000000E+00; -1.6030722E-04;  1.0000000E+04;  0.0000000E+00;  9.9853164E+03;0.067948461;0.0;0.26725659;6925.2427
  6.5974432E-01;  9.9999998E-03; -1.2006572E-01;2061;-0.1399691;0.0;-0.037857573;1009.0503;  4.0395579E-01;7497.6396;3;-50.069721;0.0;-8.3507233;0;0.35216573;  9.9972939E+03;  0.0000000E+00; -8.5729233E-05;  1.0000000E+04;  0.0000000E+00;  9.9861797E+03;0.064163364;0.0;0.28800237;6468.2349
  6.5975034E-01;  9.9999998E-03; -1.0005251E-01;2062;-0.13687354;0.0;-0.032216817;1009.0892;  4.0395579E-01;7529.9336;3;-49.735435;0.0;-8.2754688;0;0.36791337;  9.9973027E+03;  0.0000000E+00; -4.8341863E-05;  1.0000000E+04;  0.0000000E+00;  9.9869375E+03;0.061880231;0.0;0.30603313;6063.498
  6.5975523E-01;  9.9999998E-03; -8.0040388E-02;2063;-0.13412033;0.0;-0.026300361;1009.1253;  4.0395582E-01;7559.8574;3;-49.221123;0.0;-7.6305728;0;0.38129982;  9.9972881E+03;  0.0000000E+00; -3.3240092E-05;  1.0000000E+04;  0.0000000E+00;  9.9876660E+03;0.060654171;0.0;0.32064566;5679.1006
  6.5975899E-01;  9.9999998E-03; -6.0029417E-02;2064;-0.13187353;0.0;-0.020134469;1009.1592;  4.0395582E-01;7587.9048;3;-48.726162;0.0;-6.4563375;0;0.39181858;  9.9972637E+03;  0.0000000E+00; -2.2455695E-05;  1.0000000E+04;  0.0000000E+00;  9.9883535E+03;0.060128085;0.0;0.33169049;5317.3682
  6.5976167E-01;  9.9999998E-03; -4.0019277E-02;2065;-0.13021974;0.0;-0.013675765;1009.1876;  4.0395585E-01;7611.4092;3;-48.353306;0.0;-4.6969051;0;0.39935312;  9.9972393E+03;  0.0000000E+00; -1.1446725E-05;  1.0000000E+04;  0.0000000E+00;  9.9889414E+03;0.060002416;0.0;0.3393507;5013.3853
  6.5976322E-01;  9.9999998E-03; -2.0009561E-02;2066;-0.12921651;0.0;-0.0069266194;1009.2064;  4.0395585E-01;7627.0132;3;-48.116085;0.0;-2.4787018;0;0.403914;  9.9972207E+03;  0.0000000E+00; -3.0372962E-06;  1.0000000E+04;  0.0000000E+00;  9.9893311E+03;0.060036402;0.0;0.34387761;4810.481
  6.7971396E-01;  9.9999998E-03; -1.8013136E-01;2089;-0.15355699;0.0;-0.063448533;1011.1571;  4.0520254E-01;9242.958;3;-50.582253;0.0;-7.8838539;0;0.65422761;  9.9838701E+03;  0.0000000E+00; -8.7872548E-05;  1.0000000E+04;  0.0000000E+00;  9.9796719E+03;0.39372316;0.0;0.26050442;9679.3623
  6.7972356E-01;  9.9999998E-03; -1.6011529E-01;2090;-0.14958985;0.0;-0.058910731;1011.2586;  4.0520242E-01;9327.0;3;-50.65942;0.0;-8.6246567;0;0.66667724;  9.9845479E+03;  0.0000000E+00; -2.1949700E-04;  1.0000000E+04;  0.0000000E+00;  9.9810078E+03;0.37615988;0.0;0.29051736;8983.8643
  6.7973179E-01;  9.9999998E-03; -1.4009890E-01;2091;-0.14599597;0.0;-0.053779069;1011.3465;  4.0520227E-01;9399.7842;3;-50.5009;0.0;-9.5336142;0;0.6833303;  9.9850371E+03;  0.0000000E+00; -1.6727629E-04;  1.0000000E+04;  0.0000000E+00;  9.9822646E+03;0.36304677;0.0;0.32028353;8323.0918
  6.7973882E-01;  9.9999998E-03; -1.2008161E-01;2092;-0.14280996;0.0;-0.047613837;1011.4197;  4.0520206E-01;9460.4199;3;-50.453854;0.0;-10.477459;0;0.69971442;  9.9853857E+03;  0.0000000E+00; -1.0462979E-04;  1.0000000E+04;  0.0000000E+00;  9.9833701E+03;0.35327873;0.0;0.34643573;7737.6484
  6.7974478E-01;  9.9999998E-03; -1.0006484E-01;2093;-0.13986607;0.0;-0.04066772;1011.4835;  4.0520197E-01;9513.3535;3;-50.272018;0.0;-10.837463;0;0.71354532;  9.9856387E+03;  0.0000000E+00; -6.6821805E-05;  1.0000000E+04;  0.0000000E+00;  9.9843779E+03;0.34598258;0.0;0.36756277;7204.7769
  6.7974979E-01;  9.9999998E-03; -8.0049552E-02;2094;-0.13720824;0.0;-0.033242971;1011.5414;  4.0520182E-01;9561.3496;3;-49.995541;0.0;-10.346515;0;0.72437268;  9.9858203E+03;  0.0000000E+00; -4.6114197E-05;  1.0000000E+04;  0.0000000E+00;  9.9853457E+03;0.34059656;0.0;0.38377613;6698.4087
  6.7975366E-01;  9.9999998E-03; -6.0035914E-02;2095;-0.1349782;0.0;-0.02548915;1011.5939;  4.0520182E-01;9604.8027;3;-49.69413;0.0;-8.9210625;0;0.73236084;  9.9859502E+03;  0.0000000E+00; -2.9585448E-05;  1.0000000E+04;  0.0000000E+00;  9.9862559E+03;0.33674663;0.0;0.39561424;6226.5386
  6.7975640E-01;  9.9999998E-03; -4.0023472E-02;2096;-0.13329066;0.0;-0.017357202;1011.6367;  4.0520164E-01;9640.1582;3;-49.365364;0.0;-6.5596118;0;0.7378546;  9.9860371E+03;  0.0000000E+00; -1.4441785E-05;  1.0000000E+04;  0.0000000E+00;  9.9870176E+03;0.33417839;0.0;0.40367618;5833.2866
  6.7975807E-01;  9.9999998E-03; -2.0011622E-02;2097;-0.13224158;0.0;-0.0088012842;1011.6646;  4.0520161E-01;9663.2666;3;-49.147785;0.0;-3.4790349;0;0.74112219;  9.9860840E+03;  0.0000000E+00; -3.7838081E-06;  1.0000000E+04;  0.0000000E+00;  9.9875254E+03;0.33271369;0.0;0.40840849;5572.0068
  6.9972551E-01;  9.9999998E-03; -1.8016297E-01;2120;-0.14938629;0.0;-0.081571698;1012.0419;  4.0588588E-01;9975.7314;3;-48.944687;0.0;-11.582268;0;1.0145262;  9.9706729E+03;  0.0000000E+00;  7.7650629E-06;  1.0000000E+04;  0.0000000E+00;  9.9766592E+03;0.72472215;0.0;0.28980413;11085.37
  6.9973445E-01;  9.9999998E-03; -1.6014239E-01;2121;-0.14591406;0.0;-0.075418584;1012.1632;  4.0588531E-01;10076.164;3;-49.173668;0.0;-12.557211;0;1.0318205;  9.9717080E+03;  0.0000000E+00; -1.3378328E-04;  1.0000000E+04;  0.0000000E+00;  9.9780322E+03;0.70020658;0.0;0.33161393;10355.102
  6.9974196E-01;  9.9999998E-03; -1.4012119E-01;2122;-0.14303419;0.0;-0.068285584;1012.2736;  4.0588507E-01;10167.71;3;-49.550262;0.0;-13.816783;0;1.0514196;  9.9725332E+03;  0.0000000E+00; -1.2096756E-04;  1.0000000E+04;  0.0000000E+00;  9.9794063E+03;0.6802392;0.0;0.37118044;9623.2422
  6.9974840E-01;  9.9999998E-03; -1.2009887E-01;2123;-0.14050801;0.0;-0.059773624;1012.3713;  4.0588477E-01;10248.591;3;-50.076469;0.0;-14.965938;0;1.0679711;  9.9731885E+03;  0.0000000E+00; -8.6728083E-05;  1.0000000E+04;  0.0000000E+00;  9.9806914E+03;0.66409415;0.0;0.40387696;8941.3574
  6.9975400E-01;  9.9999998E-03; -1.0007760E-01;2124;-0.13790685;0.0;-0.050464798;1012.4589;  4.0588447E-01;10321.176;3;-50.292507;0.0;-15.155555;0;1.0796936;  9.9737070E+03;  0.0000000E+00; -6.1508195E-05;  1.0000000E+04;  0.0000000E+00;  9.9819072E+03;0.65103716;0.0;0.42865646;8299.6309
  6.9975877E-01;  9.9999998E-03; -8.0058634E-02;2125;-0.13532919;0.0;-0.040878445;1012.5391;  4.0588439E-01;10387.638;3;-50.172604;0.0;-14.195252;0;1.0872052;  9.9741143E+03;  0.0000000E+00; -4.3879008E-05;  1.0000000E+04;  0.0000000E+00;  9.9830957E+03;0.64061886;0.0;0.44658628;7681.5977
  6.9976252E-01;  9.9999998E-03; -6.0042094E-02;2126;-0.13310814;0.0;-0.03113538;1012.6108;  4.0588421E-01;10446.989;3;-49.921131;0.0;-12.041654;0;1.0917362;  9.9744180E+03;  0.0000000E+00; -2.7799077E-05;  1.0000000E+04;  0.0000000E+00;  9.9842129E+03;0.63261563;0.0;0.45912057;7105.1104
  6.9976521E-01;  9.9999998E-03; -4.0027332E-02;2127;-0.13140495;0.0;-0.021120798;1012.6686;  4.0588418E-01;10494.885;3;-49.660656;0.0;-8.7894144;0;1.0943844;  9.9746289E+03;  0.0000000E+00; -1.3344937E-05;  1.0000000E+04;  0.0000000E+00;  9.9851484E+03;0.62693566;0.0;0.46744883;6625.8574
  6.9976681E-01;  9.9999998E-03; -2.0013502E-02;2128;-0.13034526;0.0;-0.010711434;1012.7063;  4.0588400E-01;10526.092;3;-49.44865;0.0;-4.65025;0;1.0958323;  9.9747559E+03;  0.0000000E+00; -3.4380214E-06;  1.0000000E+04;  0.0000000E+00;  9.9857686E+03;0.62353992;0.0;0.47229245;6308.1064
  7.1977866E-01;  9.9999998E-03; -1.8018974E-01;2151;-0.12851664;0.0;-0.10048785;1012.1187;  4.0618521E-01;10039.056;3;-46.476421;0.0;-19.741686;0;1.325963;  9.9597988E+03;  0.0000000E+00;  6.1403553E-05;  1.0000000E+04;  0.0000000E+00;  9.9743086E+03;1.0150962;0.0;0.31086689;12178.73
  7.1978742E-01;  9.9999998E-03; -1.6016571E-01;2152;-0.12487058;0.0;-0.092759706;1012.2501;  4.0618461E-01;10147.88;3;-46.987251;0.0;-20.903208;0;1.3503478;  9.9610967E+03;  0.0000000E+00; -4.2335847E-05;  1.0000000E+04;  0.0000000E+00;  9.9756289E+03;0.98591965;0.0;0.36442804;11462.359
  7.1979541E-01;  9.9999998E-03; -1.4014034E-01;2153;-0.12120156;0.0;-0.083077319;1012.3763;  4.0618432E-01;10252.458;3;-47.255604;0.0;-21.596512;0;1.3742676;  9.9622139E+03;  0.0000000E+00; -5.2590192E-05;  1.0000000E+04;  0.0000000E+00;  9.9770156E+03;0.95997655;0.0;0.41429102;10709.069
  7.1980226E-01;  9.9999998E-03; -1.2011375E-01;2154;-0.11762963;0.0;-0.071581334;1012.493;  4.0618384E-01;10349.137;3;-47.114487;0.0;-21.402449;0;1.3915803;  9.9631563E+03;  0.0000000E+00; -4.4927947E-05;  1.0000000E+04;  0.0000000E+00;  9.9783867E+03;0.93741977;0.0;0.45416057;9973.9805
  7.1980798E-01;  9.9999998E-03; -1.0008880E-01;2155;-0.11429326;0.0;-0.059675209;1012.6008;  4.0618348E-01;10438.408;3;-46.572731;0.0;-20.34655;0;1.4012601;  9.9639346E+03;  0.0000000E+00; -3.6547495E-05;  1.0000000E+04;  0.0000000E+00;  9.9797461E+03;0.91811574;0.0;0.48314434;9257.2549
  7.1981251E-01;  9.9999998E-03; -8.0066822E-02;2156;-0.11136011;0.0;-0.047927901;1012.7007;  4.0618333E-01;10521.262;3;-45.815933;0.0;-18.317663;0;1.4052361;  9.9645625E+03;  0.0000000E+00; -2.7990060E-05;  1.0000000E+04;  0.0000000E+00;  9.9811035E+03;0.90204453;0.0;0.50319159;8552.9512
  7.1981591E-01;  9.9999998E-03; -6.0047828E-02;2157;-0.10893525;0.0;-0.036320228;1012.7899;  4.0618303E-01;10595.128;3;-45.032307;0.0;-15.187133;0;1.4059979;  9.9650391E+03;  0.0000000E+00; -1.8079891E-05;  1.0000000E+04;  0.0000000E+00;  9.9823896E+03;0.88931024;0.0;0.51668763;7890.8896
  7.1981835E-01;  9.9999998E-03; -4.0031001E-02;2158;-0.10710512;0.0;-0.024566185;1012.8612;  4.0618289E-01;10654.183;3;-44.341389;0.0;-10.928544;0;1.4055221;  9.9653760E+03;  0.0000000E+00; -8.6481305E-06;  1.0000000E+04;  0.0000000E+00;  9.9834697E+03;0.8800661;0.0;0.52545595;7339.4712
  7.1981978E-01;  9.9999998E-03; -2.0015303E-02;2159;-0.10595911;0.0;-0.012439159;1012.9075;  4.0618286E-01;10692.498;3;-43.859997;0.0;-5.7315254;0;1.4049685;  9.9655762E+03;  0.0000000E+00; -2.2053173E-06;  1.0000000E+04;  0.0000000E+00;  9.9841846E+03;0.87445515;0.0;0.53051329;6973.8442
  7.3985881E-01;  9.9999998E-03; -1.8020126E-01;2182;-0.083231293;0.0;-0.10599691;1012.0043;  4.0630314E-01;9943.9854;3;-30.834154;0.0;-20.216965;0;1.5278897;  9.9533291E+03;  0.0000000E+00;  6.1518280E-05;  1.0000000E+04;  0.0000000E+00;  9.9727256E+03;1.2054269;0.0;0.32246277;12916.968
  7.3986477E-01;  9.9999998E-03; -1.6017658E-01;2183;-0.080863789;0.0;-0.098451644;1012.137;  4.0630269E-01;10053.793;3;-31.321083;0.0;-21.7857;0;1.5606718;  9.9547705E+03;  0.0000000E+00;  1.1498147E-05;  1.0000000E+04;  0.0000000E+00;  9.9739268E+03;1.1743219;0.0;0.38634986;12246.926
  7.3987037E-01;  9.9999998E-03; -1.4015001E-01;2184;-0.078305751;0.0;-0.08854527;1012.2707;  4.0630203E-01;10164.588;3;-31.507248;0.0;-22.698191;0;1.5894922;  9.9560957E+03;  0.0000000E+00; -1.3629772E-06;  1.0000000E+04;  0.0000000E+00;  9.9752598E+03;1.1440766;0.0;0.44541559;11510.418
  7.3987526E-01;  9.9999998E-03; -1.2012194E-01;2185;-0.075771175;0.0;-0.076625161;1012.3989;  4.0630171E-01;10270.842;3;-31.402777;0.0;-22.707674;0;1.6082561;  9.9572637E+03;  0.0000000E+00; -7.0500287E-06;  1.0000000E+04;  0.0000000E+00;  9.9766396E+03;1.1160411;0.0;0.4922151;10763.049
  7.3987937E-01;  9.9999998E-03; -1.0009547E-01;2186;-0.073399283;0.0;-0.06416823;1012.5207;  4.0630138E-01;10371.664;3;-31.060966;0.0;-21.805191;0;1.6167424;  9.9582529E+03;  0.0000000E+00; -1.0056623E-05;  1.0000000E+04;  0.0000000E+00;  9.9780586E+03;1.0910486;0.0;0.52569377;10009.411
  7.3988271E-01;  9.9999998E-03; -8.0072030E-02;2187;-0.071285918;0.0;-0.051745072;1012.6347;  4.0630102E-01;10466.166;3;-30.56337;0.0;-19.798191;0;1.6180861;  9.9590557E+03;  0.0000000E+00; -9.9141844E-06;  1.0000000E+04;  0.0000000E+00;  9.9795146E+03;1.0697194;0.0;0.54836667;9251.8838
  7.3988521E-01;  9.9999998E-03; -6.0051683E-02;2188;-0.069510698;0.0;-0.039340489;1012.7368;  4.0630075E-01;10550.695;3;-30.01194;0.0;-16.504332;0;1.6159041;  9.9596777E+03;  0.0000000E+00; -7.0609917E-06;  1.0000000E+04;  0.0000000E+00;  9.9809170E+03;1.052562;0.0;0.56334209;8531.6338
  7.3988700E-01;  9.9999998E-03; -4.0033560E-02;2189;-0.068154819;0.0;-0.026671436;1012.8183;  4.0630057E-01;10618.239;3;-29.515617;0.0;-11.916877;0;1.6129513;  9.9601143E+03;  0.0000000E+00; -3.4460031E-06;  1.0000000E+04;  0.0000000E+00;  9.9820967E+03;1.0399851;0.0;0.57296628;7928.9658
  7.3988813E-01;  9.9999998E-03; -2.0016586E-02;2190;-0.067299083;0.0;-0.013524026;1012.8712;  4.0630054E-01;10661.984;3;-29.172297;0.0;-6.2624483;0;1.6108047;  9.9603750E+03;  0.0000000E+00; -8.7670179E-07;  1.0000000E+04;  0.0000000E+00;  9.9828799E+03;1.0323036;0.0;0.57850111;7528.7056
  7.5992280E-01;  9.9999998E-03; -1.8020755E-01;2213;-0.046602894;0.0;-0.10819313;1011.9825;  4.0634763E-01;9925.3193;3;-17.826973;0.0;-19.355824;0;1.6025487;  9.9516270E+03;  0.0000000E+00;  3.5826812E-05;  1.0000000E+04;  0.0000000E+00;  9.9718252E+03;1.2754041;0.0;0.32714465;13340.895
  7.5992596E-01;  9.9999998E-03; -1.6018303E-01;2214;-0.04557601;0.0;-0.10127116;1012.1104;  4.0634710E-01;10031.271;3;-18.405109;0.0;-21.463587;0;1.6429929;  9.9530918E+03;  0.0000000E+00;  2.2860693E-05;  1.0000000E+04;  0.0000000E+00;  9.9729121E+03;1.2451105;0.0;0.39788231;12719.85
  7.5992918E-01;  9.9999998E-03; -1.4015608E-01;2215;-0.044290613;0.0;-0.091639027;1012.2443;  4.0634659E-01;10142.26;3;-18.75374;0.0;-22.848118;0;1.6768806;  9.9545068E+03;  0.0000000E+00;  1.6275622E-05;  1.0000000E+04;  0.0000000E+00;  9.9741582E+03;1.2131096;0.0;0.46377105;12018.634
  7.5993210E-01;  9.9999998E-03; -1.2012727E-01;2216;-0.042910881;0.0;-0.079713315;1012.3765;  4.0634617E-01;10251.766;3;-18.874908;0.0;-23.233561;0;1.6981686;  9.9557949E+03;  0.0000000E+00;  9.3719973E-06;  1.0000000E+04;  0.0000000E+00;  9.9754902E+03;1.1818547;0.0;0.51631391;11286.74
  7.5993460E-01;  9.9999998E-03; -1.0009991E-01;2217;-0.041551396;0.0;-0.067050949;1012.5046;  4.0634573E-01;10357.816;3;-18.802086;0.0;-22.579979;0;1.7071272;  9.9569121E+03;  0.0000000E+00;  3.6701761E-06;  1.0000000E+04;  0.0000000E+00;  9.9769131E+03;1.1531312;0.0;0.55399597;10527.287
  7.5993663E-01;  9.9999998E-03; -8.0075569E-02;2218;-0.040291499;0.0;-0.054275744;1012.6261;  4.0634549E-01;10458.437;3;-18.58902;0.0;-20.67724;0;1.7077196;  9.9578262E+03;  0.0000000E+00;  5.1474836E-07;  1.0000000E+04;  0.0000000E+00;  9.9784082E+03;1.1282073;0.0;0.57951224;9747.2422
  7.5993824E-01;  9.9999998E-03; -6.0054347E-02;2219;-0.039197676;0.0;-0.041393518;1012.7355;  4.0634516E-01;10549.083;3;-18.304991;0.0;-17.337488;0;1.7043507;  9.9585352E+03;  0.0000000E+00; -4.1806845E-07;  1.0000000E+04;  0.0000000E+00;  9.9798662E+03;1.1079749;0.0;0.59637582;8996.4502
  7.5993943E-01;  9.9999998E-03; -4.0035356E-02;2220;-0.038339954;0.0;-0.028127681;1012.8231;  4.0634504E-01;10621.66;3;-18.026871;0.0;-12.564554;0;1.7003143;  9.9590352E+03;  0.0000000E+00; -3.1712597E-07;  1.0000000E+04;  0.0000000E+00;  9.9811025E+03;1.0930685;0.0;0.6072458;8364.6318
  7.5994015E-01;  9.9999998E-03; -2.0017495E-02;2221;-0.037788708;0.0;-0.014281899;1012.8798;  4.0634498E-01;10668.662;3;-17.826195;0.0;-6.6159372;0;1.6974578;  9.9593350E+03;  0.0000000E+00; -7.5043516E-08;  1.0000000E+04;  0.0000000E+00;  9.9819258E+03;1.083937;0.0;0.61352074;7944.0449
  7.7997094E-01;  9.9999998E-03; -1.8021011E-01;2244;-0.018994777;0.0;-0.10860398;1012.0936;  4.0636382E-01;10016.675;3;-8.2200804;0.0;-18.400209;0;1.5795921;  9.9534063E+03;  0.0000000E+00;  1.2209744E-05;  1.0000000E+04;  0.0000000E+00;  9.9714502E+03;1.2517377;0.0;0.32785442;13519.674
  7.7997196E-01;  9.9999998E-03; -1.6018601E-01;2245;-0.018902915;0.0;-0.10224154;1012.2145;  4.0636331E-01;10116.795;3;-8.6968279;0.0;-20.87318;0;1.6254734;  9.9548066E+03;  0.0000000E+00;  1.3002350E-05;  1.0000000E+04;  0.0000000E+00;  9.9724570E+03;1.2238308;0.0;0.40164256;12933.654
  7.7997315E-01;  9.9999998E-03; -1.4015909E-01;2246;-0.018597065;0.0;-0.09294644;1012.3439;  4.0636277E-01;10224.022;3;-9.0531998;0.0;-22.601574;0;1.6636124;  9.9562148E+03;  0.0000000E+00;  1.1512780E-05;  1.0000000E+04;  0.0000000E+00;  9.9736211E+03;1.1922102;0.0;0.47140223;12268.14
  7.7997434E-01;  9.9999998E-03; -1.2013002E-01;2247;-0.018168395;0.0;-0.081161149;1012.4741;  4.0636230E-01;10331.942;3;-9.2789354;0.0;-23.275768;0;1.6878912;  9.9575283E+03;  0.0000000E+00;  8.1642938E-06;  1.0000000E+04;  0.0000000E+00;  9.9748916E+03;1.1600906;0.0;0.52780074;11563.168
  7.7997535E-01;  9.9999998E-03; -1.0010228E-01;2248;-0.017680727;0.0;-0.068495974;1012.6024;  4.0636200E-01;10438.184;3;-9.3821125;0.0;-22.833082;0;1.6986849;  9.9586846E+03;  0.0000000E+00;  4.8312650E-06;  1.0000000E+04;  0.0000000E+00;  9.9762803E+03;1.1299524;0.0;0.56873244;10816.428
  7.7997625E-01;  9.9999998E-03; -8.0077514E-02;2249;-0.017179152;0.0;-0.055610064;1012.7255;  4.0636161E-01;10540.08;3;-9.3839788;0.0;-21.050802;0;1.7003033;  9.9596348E+03;  0.0000000E+00;  2.5216448E-06;  1.0000000E+04;  0.0000000E+00;  9.9777705E+03;1.1035235;0.0;0.59677976;10035.949
  7.7997702E-01;  9.9999998E-03; -6.0055852E-02;2250;-0.01670601;0.0;-0.042519543;1012.8369;  4.0636137E-01;10632.399;3;-9.3177929;0.0;-17.734722;0;1.6975126;  9.9603701E+03;  0.0000000E+00;  1.2196813E-06;  1.0000000E+04;  0.0000000E+00;  9.9792412E+03;1.0819584;0.0;0.61555421;9276.75
  7.7997756E-01;  9.9999998E-03; -4.0036399E-02;2251;-0.016311316;0.0;-0.028949345;1012.9267;  4.0636125E-01;10706.748;3;-9.2259007;0.0;-12.892422;0;1.6938269;  9.9608906E+03;  0.0000000E+00;  5.1240875E-07;  1.0000000E+04;  0.0000000E+00;  9.9804961E+03;1.066025;0.0;0.6278019;8634.5195
  7.7997792E-01;  9.9999998E-03; -2.0018028E-02;2252;-0.016047267;0.0;-0.014716905;1012.9847;  4.0636110E-01;10754.733;3;-9.150095;0.0;-6.8004136;0;1.6911831;  9.9612031E+03;  0.0000000E+00;  1.3460135E-07;  1.0000000E+04;  0.0000000E+00;  9.9813350E+03;1.0562494;0.0;0.63493365;8206.0869
  8.0000997E-01;  9.9999998E-03; -1.8020989E-01;2275;0.0036009995;0.0;-0.10789166;1012.2806;  4.0636852E-01;10170.669;3;-0.25057259;0.0;-17.649496;0;1.5054543;  9.9568613E+03;  0.0000000E+00;  8.0473484E-07;  1.0000000E+04;  0.0000000E+00;  9.9714434E+03;1.1785814;0.0;0.326873;13517.46
  8.0000919E-01;  9.9999998E-03; -1.6018622E-01;2276;0.003009202;0.0;-0.10187943;1012.395;  4.0636796E-01;10265.448;3;-0.55407029;0.0;-20.270157;0;1.5536097;  9.9581631E+03;  0.0000000E+00;  1.9773054E-06;  1.0000000E+04;  0.0000000E+00;  9.9724219E+03;1.15309;0.0;0.40051973;12947.484
  8.0000865E-01;  9.9999998E-03; -1.4015952E-01;2277;0.0025438459;0.0;-0.09285669;1012.5184;  4.0636739E-01;10367.632;3;-0.84503222;0.0;-22.166958;0;1.5941864;  9.9595098E+03;  0.0000000E+00;  2.2649554E-06;  1.0000000E+04;  0.0000000E+00;  9.9735322E+03;1.1228647;0.0;0.47132167;12307.799
  8.0000830E-01;  9.9999998E-03; -1.2013055E-01;2278;0.0021932046;0.0;-0.081258461;1012.6438;  4.0636694E-01;10471.494;3;-1.1030619;0.0;-23.001183;0;1.6209121;  9.9607822E+03;  0.0000000E+00;  1.8718597E-06;  1.0000000E+04;  0.0000000E+00;  9.9747471E+03;1.0914806;0.0;0.52943146;11629.0
  8.0000806E-01;  9.9999998E-03; -1.0010283E-01;2279;0.0019483464;0.0;-0.068716273;1012.7683;  4.0636659E-01;10574.566;3;-1.3132223;0.0;-22.696167;0;1.6339537;  9.9619043E+03;  0.0000000E+00;  1.2862725E-06;  1.0000000E+04;  0.0000000E+00;  9.9760938E+03;1.0617416;0.0;0.5722121;10902.019
  8.0000794E-01;  9.9999998E-03; -8.0078036E-02;2280;0.001800655;0.0;-0.055899523;1012.889;  4.0636635E-01;10674.577;3;-1.4677474;0.0;-21.019632;0;1.6375535;  9.9628340E+03;  0.0000000E+00;  7.9044253E-07;  1.0000000E+04;  0.0000000E+00;  9.9775566E+03;1.0355617;0.0;0.60199183;10133.694
  8.0000794E-01;  9.9999998E-03; -6.0056310E-02;2281;0.0017334763;0.0;-0.042819917;1012.9987;  4.0636611E-01;10765.407;3;-1.568029;0.0;-17.768454;0;1.6364396;  9.9635518E+03;  0.0000000E+00;  4.4242071E-07;  1.0000000E+04;  0.0000000E+00;  9.9790127E+03;1.0141726;0.0;0.62226695;9380.9219
  8.0000794E-01;  9.9999998E-03; -4.0036742E-02;2282;0.0017189591;0.0;-0.029197393;1013.0873;  4.0636587E-01;10838.861;3;-1.6242911;0.0;-12.946944;0;1.6340582;  9.9640625E+03;  0.0000000E+00;  2.0264672E-07;  1.0000000E+04;  0.0000000E+00;  9.9802568E+03;0.99836463;0.0;0.63569355;8741.8086
  8.0000794E-01;  9.9999998E-03; -2.0018214E-02;2283;0.0017264467;0.0;-0.014857181;1013.1448;  4.0636566E-01;10886.35;3;-1.6503091;0.0;-6.8383126;0;1.6322567;  9.9643672E+03;  0.0000000E+00;  5.3487561E-08;  1.0000000E+04;  0.0000000E+00;  9.9810908E+03;0.98866528;0.0;0.6435914;8314.8447
  8.2004631E-01;  9.9999998E-03; -1.8020745E-01;2306;0.02504563;0.0;-0.10639384;1012.4689;  4.0636072E-01;10325.395;3;7.629096;0.0;-17.194798;0;1.415076;  9.9606680E+03;  0.0000000E+00; -8.0597988E-07;  1.0000000E+04;  0.0000000E+00;  9.9717178E+03;1.089929;0.0;0.32514697;13373.086
  8.2004404E-01;  9.9999998E-03; -1.6018414E-01;2307;0.02383592;0.0;-0.10051057;1012.5789;  4.0636003E-01;10416.509;3;7.4544325;0.0;-19.767706;0;1.4622521;  9.9618828E+03;  0.0000000E+00; -2.9994051E-06;  1.0000000E+04;  0.0000000E+00;  9.9727002E+03;1.0657694;0.0;0.39648274;12804.711
  8.2004195E-01;  9.9999998E-03; -1.4015782E-01;2308;0.022689622;0.0;-0.091665551;1012.6971;  4.0635958E-01;10514.337;3;7.216258;0.0;-21.665756;0;1.5029997;  9.9631455E+03;  0.0000000E+00; -2.4610458E-06;  1.0000000E+04;  0.0000000E+00;  9.9737891E+03;1.0369159;0.0;0.46608377;12179.896
  8.2004029E-01;  9.9999998E-03; -1.2012921E-01;2309;0.021663295;0.0;-0.080264114;1012.8168;  4.0635914E-01;10613.447;3;6.9405508;0.0;-22.532314;0;1.5308819;  9.9643447E+03;  0.0000000E+00; -1.6086275E-06;  1.0000000E+04;  0.0000000E+00;  9.9749619E+03;1.0069468;0.0;0.52393508;11521.661
  8.2003897E-01;  9.9999998E-03; -1.0010182E-01;2310;0.020789351;0.0;-0.067928538;1012.9359;  4.0635872E-01;10712.065;3;6.6555262;0.0;-22.285379;0;1.5456696;  9.9654023E+03;  0.0000000E+00; -1.0204066E-06;  1.0000000E+04;  0.0000000E+00;  9.9762705E+03;0.97861671;0.0;0.5670529;10815.023
  8.2003796E-01;  9.9999998E-03; -8.0077328E-02;2311;0.020085063;0.0;-0.055315595;1013.0521;  4.0635845E-01;10808.313;3;6.3886833;0.0;-20.685839;0;1.5512562;  9.9662764E+03;  0.0000000E+00; -6.5129376E-07;  1.0000000E+04;  0.0000000E+00;  9.9776973E+03;0.95376199;0.0;0.59749424;10064.707
  8.2003725E-01;  9.9999998E-03; -6.0055848E-02;2312;0.019552756;0.0;-0.042420529;1013.1581;  4.0635824E-01;10896.072;3;6.1619101;0.0;-17.520428;0;1.5520654;  9.9669531E+03;  0.0000000E+00; -3.8882339E-07;  1.0000000E+04;  0.0000000E+00;  9.9791201E+03;0.93351883;0.0;0.61854649;9327.126
  8.2003677E-01;  9.9999998E-03; -4.0036473E-02;2313;0.019184172;0.0;-0.028953947;1013.244;  4.0635803E-01;10967.246;3;5.9905715;0.0;-12.784872;0;1.5512795;  9.9674346E+03;  0.0000000E+00; -1.8546505E-07;  1.0000000E+04;  0.0000000E+00;  9.9803428E+03;0.91859514;0.0;0.63268435;8699.877
  8.2003647E-01;  9.9999998E-03; -2.0018095E-02;2314;0.018968288;0.0;-0.014743202;1013.2996;  4.0635791E-01;11013.248;3;5.8843131;0.0;-6.7587399;0;1.5505338;  9.9677197E+03;  0.0000000E+00; -4.9101288E-08;  1.0000000E+04;  0.0000000E+00;  9.9811611E+03;0.90945488;0.0;0.64107889;8280.6182
  8.4008342E-01;  9.9999998E-03; -1.8020296E-01;2337;0.047160175;0.0;-0.10413899;1012.4279;  4.0625763E-01;10289.732;3;16.06138;0.0;-16.94945;0;1.3198488;  9.9643994E+03;  0.0000000E+00;  3.2333278E-06;  1.0000000E+04;  0.0000000E+00;  9.9722422E+03;0.99743879;0.0;0.32240993;13099.0
  8.4007961E-01;  9.9999998E-03; -1.6018008E-01;2338;0.045278795;0.0;-0.098269284;1012.5365;  4.0625700E-01;10379.647;3;15.906451;0.0;-19.349556;0;1.3634053;  9.9655576E+03;  0.0000000E+00; -3.0508240E-06;  1.0000000E+04;  0.0000000E+00;  9.9732422E+03;0.97314864;0.0;0.39025673;12527.167
  8.4007615E-01;  9.9999998E-03; -1.4015429E-01;2339;0.043457214;0.0;-0.08954978;1012.6506;  4.0625647E-01;10474.104;3;15.656265;0.0;-21.127745;0;1.402246;  9.9667529E+03;  0.0000000E+00; -2.5417576E-06;  1.0000000E+04;  0.0000000E+00;  9.9743193E+03;0.94509703;0.0;0.45714891;11911.581
  8.4007329E-01;  9.9999998E-03; -1.2012628E-01;2340;0.04180035;0.0;-0.0783673;1012.7648;  4.0625614E-01;10568.659;3;15.335678;0.0;-21.930744;0;1.4297888;  9.9678740E+03;  0.0000000E+00; -1.5093083E-06;  1.0000000E+04;  0.0000000E+00;  9.9754717E+03;0.91657829;0.0;0.51321048;11269.966
  8.4007090E-01;  9.9999998E-03; -1.0009950E-01;2341;0.040361147;0.0;-0.06631159;1012.8785;  4.0625572E-01;10662.818;3;14.976557;0.0;-21.678795;0;1.4453267;  9.9688545E+03;  0.0000000E+00; -9.9559441E-07;  1.0000000E+04;  0.0000000E+00;  9.9767441E+03;0.8900041;0.0;0.55532259;10583.146
  8.4006912E-01;  9.9999998E-03; -8.0075577E-02;2342;0.039166965;0.0;-0.054011632;1012.9893;  4.0625551E-01;10754.511;3;14.614343;0.0;-20.129536;0;1.4522638;  9.9696641E+03;  0.0000000E+00; -7.7527545E-07;  1.0000000E+04;  0.0000000E+00;  9.9781328E+03;0.86692971;0.0;0.58533412;9853.874
  8.4006780E-01;  9.9999998E-03; -6.0054611E-02;2343;0.038229428;0.0;-0.04144137;1013.0908;  4.0625519E-01;10838.504;3;14.28495;0.0;-17.061054;0;1.4545996;  9.9702881E+03;  0.0000000E+00; -5.6523766E-07;  1.0000000E+04;  0.0000000E+00;  9.9795176E+03;0.8482784;0.0;0.60632122;9136.8311
  8.4006691E-01;  9.9999998E-03; -4.0035684E-02;2344;0.037553396;0.0;-0.028301027;1013.173;  4.0625504E-01;10906.606;3;14.021472;0.0;-12.458161;0;1.4551681;  9.9707305E+03;  0.0000000E+00; -3.0238763E-07;  1.0000000E+04;  0.0000000E+00;  9.9807080E+03;0.83460027;0.0;0.62056786;8527.1221
  8.4006637E-01;  9.9999998E-03; -2.0017710E-02;2345;0.037143853;0.0;-0.014416433;1013.2264;  4.0625489E-01;10950.824;3;13.851072;0.0;-6.5890379;0;1.4553409;  9.9709912E+03;  0.0000000E+00; -8.1795086E-08;  1.0000000E+04;  0.0000000E+00;  9.9815059E+03;0.826249;0.0;0.6290918;8119.7231
  8.6012089E-01;  9.9999998E-03; -1.8019642E-01;2368;0.069612443;0.0;-0.10102192;1012.1621;  4.0605488E-01;10067.383;3;24.82531;0.0;-16.753468;0;1.2119021;  9.9683467E+03;  0.0000000E+00;  9.3169483E-06;  1.0000000E+04;  0.0000000E+00;  9.9730186E+03;0.89411253;0.0;0.31778955;12693.164
  8.6011553E-01;  9.9999998E-03; -1.6017415E-01;2369;0.066984229;0.0;-0.09515322;1012.2703;  4.0605423E-01;10156.982;3;24.57933;0.0;-18.920528;0;1.2501235;  9.9694922E+03;  0.0000000E+00; -2.1962308E-06;  1.0000000E+04;  0.0000000E+00;  9.9740322E+03;0.86846435;0.0;0.38165912;12121.806
  8.6011076E-01;  9.9999998E-03; -1.4014909E-01;2370;0.064470276;0.0;-0.086575665;1012.3814;  4.0605378E-01;10248.95;3;24.243757;0.0;-20.513819;0;1.2855899;  9.9706348E+03;  0.0000000E+00; -1.6995390E-06;  1.0000000E+04;  0.0000000E+00;  9.9751025E+03;0.84061664;0.0;0.44497329;11517.117
  8.6010677E-01;  9.9999998E-03; -1.2012193E-01;2371;0.062204413;0.0;-0.075669982;1012.4913;  4.0605348E-01;10339.833;3;23.838026;0.0;-21.199961;0;1.3115706;  9.9716816E+03;  0.0000000E+00; -5.5760933E-07;  1.0000000E+04;  0.0000000E+00;  9.9762275E+03;0.81336194;0.0;0.4982087;10893.029
  8.6010349E-01;  9.9999998E-03; -1.0009602E-01;2372;0.060241446;0.0;-0.063977145;1012.5993;  4.0605322E-01;10429.334;3;23.389727;0.0;-20.906815;0;1.3268776;  9.9725898E+03;  0.0000000E+00; -2.9053976E-07;  1.0000000E+04;  0.0000000E+00;  9.9774678E+03;0.78858638;0.0;0.53829122;10227.863
  8.6010098E-01;  9.9999998E-03; -8.0072924E-02;2373;0.058605373;0.0;-0.052092038;1012.7048;  4.0605289E-01;10516.565;3;22.93396;0.0;-19.393507;0;1.3343749;  9.9733330E+03;  0.0000000E+00; -4.6005252E-07;  1.0000000E+04;  0.0000000E+00;  9.9788164E+03;0.7674256;0.0;0.56694925;9523.0068
  8.6009914E-01;  9.9999998E-03; -6.0052693E-02;2374;0.057308499;0.0;-0.039968841;1012.8011;  4.0605271E-01;10596.396;3;22.512711;0.0;-16.433514;0;1.337606;  9.9739004E+03;  0.0000000E+00; -5.2062921E-07;  1.0000000E+04;  0.0000000E+00;  9.9801572E+03;0.75051087;0.0;0.58709514;8830.9951
  8.6009789E-01;  9.9999998E-03; -4.0034436E-02;2375;0.056362618;0.0;-0.02730019;1012.8795;  4.0605253E-01;10661.228;3;22.17001;0.0;-12.000941;0;1.3390574;  9.9743027E+03;  0.0000000E+00; -3.2885109E-07;  1.0000000E+04;  0.0000000E+00;  9.9813086E+03;0.73819619;0.0;0.60086131;8243.3555
  8.6009711E-01;  9.9999998E-03; -2.0017093E-02;2376;0.055784125;0.0;-0.013908993;1012.9303;  4.0605244E-01;10703.264;3;21.945669;0.0;-6.3480773;0;1.3398565;  9.9745410E+03;  0.0000000E+00; -9.8589538E-08;  1.0000000E+04;  0.0000000E+00;  9.9820771E+03;0.73070997;0.0;0.60914654;7851.1226
  8.8015634E-01;  9.9999998E-03; -1.8018788E-01;2399;0.090959504;0.0;-0.096940488;1011.7266;  4.0576404E-01;9703.9883;3;33.310139;0.0;-16.454756;0;1.0778003;  9.9730215E+03;  0.0000000E+00;  1.2437025E-05;  1.0000000E+04;  0.0000000E+00;  9.9740615E+03;0.76733565;0.0;0.31046459;12153.171
  8.8014954E-01;  9.9999998E-03; -1.6016644E-01;2400;0.087563887;0.0;-0.091136009;1011.8353;  4.0576348E-01;9793.8574;3;32.904167;0.0;-18.375546;0;1.1098989;  9.9741768E+03;  0.0000000E+00; -4.8868219E-06;  1.0000000E+04;  0.0000000E+00;  9.9750684E+03;0.73967975;0.0;0.37021914;11591.862
  8.8014352E-01;  9.9999998E-03; -1.4014237E-01;2401;0.08437109;0.0;-0.08277262;1011.9434;  4.0576324E-01;9883.3311;3;32.434917;0.0;-19.764332;0;1.1413194;  9.9752803E+03;  0.0000000E+00; -3.4477891E-06;  1.0000000E+04;  0.0000000E+00;  9.9761182E+03;0.71180779;0.0;0.42951158;11005.463
  8.8013846E-01;  9.9999998E-03; -1.2011633E-01;2402;0.08152958;0.0;-0.072232947;1012.048;  4.0576288E-01;9969.9453;3;31.914648;0.0;-20.316734;0;1.1651433;  9.9762607E+03;  0.0000000E+00; -1.3898359E-06;  1.0000000E+04;  0.0000000E+00;  9.9772119E+03;0.6858421;0.0;0.47930118;10404.587
  8.8013440E-01;  9.9999998E-03; -1.0009154E-01;2403;0.079084694;0.0;-0.060998023;1012.1501;  4.0576252E-01;10054.487;3;31.362642;0.0;-19.97142;0;1.179685;  9.9770898E+03;  0.0000000E+00; -7.3868244E-07;  1.0000000E+04;  0.0000000E+00;  9.9784092E+03;0.66300303;0.0;0.51668197;9766.1514
  8.8013130E-01;  9.9999998E-03; -8.0069475E-02;2404;0.077050149;0.0;-0.049628764;1012.2494;  4.0576240E-01;10136.563;3;30.809631;0.0;-18.494299;0;1.1872401;  9.9777598E+03;  0.0000000E+00; -8.5384659E-07;  1.0000000E+04;  0.0000000E+00;  9.9797119E+03;0.64391488;0.0;0.54332525;9090.8125
  8.8012898E-01;  9.9999998E-03; -6.0050186E-02;2405;0.075433895;0.0;-0.038065147;1012.3403;  4.0576223E-01;10211.832;3;30.299797;0.0;-15.659655;0;1.1909057;  9.9782676E+03;  0.0000000E+00; -8.5577852E-07;  1.0000000E+04;  0.0000000E+00;  9.9810039E+03;0.62887043;0.0;0.56203526;8429.0049
  8.8012737E-01;  9.9999998E-03; -4.0032793E-02;2406;0.074250773;0.0;-0.025997227;1012.4139;  4.0576208E-01;10272.697;3;29.88438;0.0;-11.432675;0;1.1928668;  9.9786289E+03;  0.0000000E+00; -5.2631651E-07;  1.0000000E+04;  0.0000000E+00;  9.9821055E+03;0.6180163;0.0;0.57485044;7868.0918
  8.8012642E-01;  9.9999998E-03; -2.0016277E-02;2407;0.073524699;0.0;-0.013245255;1012.4618;  4.0576190E-01;10312.354;3;29.611662;0.0;-6.04706;0;1.1940496;  9.9788398E+03;  0.0000000E+00; -1.5053054E-07;  1.0000000E+04;  0.0000000E+00;  9.9828428E+03;0.61145282;0.0;0.58259684;7494.291
  9.0018702E-01;  9.9999998E-03; -1.8017747E-01;2430;0.1096329;0.0;-0.091886334;1011.17;  4.0540105E-01;9239.6426;3;40.91544;0.0;-15.960214;0;0.912835;  9.9786260E+03;  0.0000000E+00;  7.3691485E-06;  1.0000000E+04;  0.0000000E+00;  9.9753525E+03;0.61273664;0.0;0.30009839;11485.609
  9.0017891E-01;  9.9999998E-03; -1.6015711E-01;2431;0.1055278;0.0;-0.086245261;1011.2782;  4.0540057E-01;9329.0811;3;40.337067;0.0;-17.647017;0;0.93901402;  9.9797979E+03;  0.0000000E+00; -1.2528551E-05;  1.0000000E+04;  0.0000000E+00;  9.9763359E+03;0.58328122;0.0;0.3557328;10945.835
  9.0017182E-01;  9.9999998E-03; -1.4013429E-01;2432;0.10171267;0.0;-0.078194357;1011.3821;  4.0540037E-01;9415.0693;3;39.724045;0.0;-18.83782;0;0.96666336;  9.9808496E+03;  0.0000000E+00; -8.5447964E-06;  1.0000000E+04;  0.0000000E+00;  9.9773477E+03;0.55586118;0.0;0.41080216;10387.717
  9.0016586E-01;  9.9999998E-03; -1.2010962E-01;2433;0.098341696;0.0;-0.068122208;1011.4798;  4.0540010E-01;9495.9287;3;39.081043;0.0;-19.261133;0;0.98855627;  9.9817451E+03;  0.0000000E+00; -4.4452854E-06;  1.0000000E+04;  0.0000000E+00;  9.9783926E+03;0.53173327;0.0;0.45682299;9818.3506
  9.0016109E-01;  9.9999998E-03; -1.0008616E-01;2434;0.095450237;0.0;-0.05744293;1011.5747;  4.0539971E-01;9574.4219;3;38.418385;0.0;-18.868853;0;1.0024633;  9.9824795E+03;  0.0000000E+00; -2.7016199E-06;  1.0000000E+04;  0.0000000E+00;  9.9795410E+03;0.51134366;0.0;0.49111968;9213.8076
  9.0015739E-01;  9.9999998E-03; -8.0065340E-02;2435;0.093042821;0.0;-0.046686616;1011.6664;  4.0539956E-01;9650.252;3;37.763535;0.0;-17.438713;0;1.0100992;  9.9830615E+03;  0.0000000E+00; -2.1820817E-06;  1.0000000E+04;  0.0000000E+00;  9.9807813E+03;0.49475381;0.0;0.51534539;8574.5176
  9.0015459E-01;  9.9999998E-03; -6.0047168E-02;2436;0.091127187;0.0;-0.035785921;1011.7505;  4.0539950E-01;9719.7705;3;37.163906;0.0;-14.751136;0;1.0141337;  9.9835010E+03;  0.0000000E+00; -1.7037485E-06;  1.0000000E+04;  0.0000000E+00;  9.9820127E+03;0.48190123;0.0;0.53223252;7948.9087
  9.0015268E-01;  9.9999998E-03; -4.0030811E-02;2437;0.089722596;0.0;-0.024433365;1011.8188;  4.0539929E-01;9776.3721;3;36.67662;0.0;-10.764726;0;1.0165038;  9.9838066E+03;  0.0000000E+00; -9.5081487E-07;  1.0000000E+04;  0.0000000E+00;  9.9830586E+03;0.47272953;0.0;0.54377425;7419.7598
  9.0015155E-01;  9.9999998E-03; -2.0015292E-02;2438;0.088859417;0.0;-0.012447035;1011.8632;  4.0539932E-01;9813.0547;3;36.357212;0.0;-5.6928444;0;1.0179901;  9.9839883E+03;  0.0000000E+00; -2.6052638E-07;  1.0000000E+04;  0.0000000E+00;  9.9837598E+03;0.46722037;0.0;0.55076969;7067.7861
  9.2020774E-01;  9.9999998E-03; -1.8016554E-01;2461;0.12248821;0.0;-0.086022884;1010.5194;  4.0498438E-01;8696.6748;3;46.615379;0.0;-15.277177;0;0.72839642;  9.9848057E+03;  0.0000000E+00; -4.2842685E-06;  1.0000000E+04;  0.0000000E+00;  9.9768604E+03;0.44143429;0.0;0.28696212;10708.88
  9.2019737E-01;  9.9999998E-03; -1.6014650E-01;2462;0.11703898;0.0;-0.080594853;1010.6249;  4.0498421E-01;8783.8975;3;45.641933;0.0;-16.727491;0;0.74993253;  9.9859619E+03;  0.0000000E+00; -2.1032327E-05;  1.0000000E+04;  0.0000000E+00;  9.9777959E+03;0.41141555;0.0;0.33851698;10201.048
  9.2018861E-01;  9.9999998E-03; -1.4012511E-01;2463;0.11219355;0.0;-0.072930403;1010.7213;  4.0498388E-01;8863.5303;3;44.643139;0.0;-17.711979;0;0.77494502;  9.9869287E+03;  0.0000000E+00; -1.3588243E-05;  1.0000000E+04;  0.0000000E+00;  9.9787500E+03;0.38564831;0.0;0.38929674;9680.6865
  9.2018133E-01;  9.9999998E-03; -1.2010205E-01;2464;0.1079937;0.0;-0.063430287;1010.8098;  4.0498361E-01;8936.7588;3;43.688416;0.0;-18.007315;0;0.79578853;  9.9877080E+03;  0.0000000E+00; -7.6201759E-06;  1.0000000E+04;  0.0000000E+00;  9.9797344E+03;0.36437556;0.0;0.43141297;9151.0586
  9.2017537E-01;  9.9999998E-03; -1.0008020E-01;2465;0.10439456;0.0;-0.053421527;1010.8953;  4.0498343E-01;9007.4238;3;42.781078;0.0;-17.575417;0;0.80969203;  9.9883184E+03;  0.0000000E+00; -4.8142574E-06;  1.0000000E+04;  0.0000000E+00;  9.9808125E+03;0.34724489;0.0;0.46244711;8587.7441
  9.2017061E-01;  9.9999998E-03; -8.0060855E-02;2466;0.10138863;0.0;-0.04339128;1010.9775;  4.0498328E-01;9075.4268;3;41.945065;0.0;-16.205017;0;0.81781602;  9.9887852E+03;  0.0000000E+00; -3.5944840E-06;  1.0000000E+04;  0.0000000E+00;  9.9819814E+03;0.33377025;0.0;0.4840458;7991.2705
  9.2016703E-01;  9.9999998E-03; -6.0043979E-02;2467;0.099003837;0.0;-0.033255327;1011.0535;  4.0498313E-01;9138.3047;3;41.218155;0.0;-13.688673;0;0.82245302;  9.9891309E+03;  0.0000000E+00; -2.5419881E-06;  1.0000000E+04;  0.0000000E+00;  9.9831445E+03;0.32356143;0.0;0.49889162;7407.9478
  9.2016453E-01;  9.9999998E-03; -4.0028762E-02;2468;0.097266912;0.0;-0.02270625;1011.1151;  4.0498307E-01;9189.1592;3;40.652798;0.0;-9.9822712;0;0.82534242;  9.9893701E+03;  0.0000000E+00; -1.3343097E-06;  1.0000000E+04;  0.0000000E+00;  9.9841279E+03;0.31637868;0.0;0.50896376;6915.4785
  9.2016304E-01;  9.9999998E-03; -2.0014288E-02;2469;0.096214488;0.0;-0.01156815;1011.1552;  4.0498295E-01;9222.2744;3;40.293888;0.0;-5.2786784;0;0.82716775;  9.9895078E+03;  0.0000000E+00; -3.6744444E-07;  1.0000000E+04;  0.0000000E+00;  9.9847832E+03;0.3121005;0.0;0.51506728;6588.5156
  9.4021249E-01;  9.9999998E-03; -1.8015277E-01;2492;0.12519474;0.0;-0.079684243;1009.7828;  4.0453431E-01;8081.7451;3;48.027534;0.0;-14.536039;0;0.54765505;  9.9907988E+03;  0.0000000E+00; -1.2811126E-05;  1.0000000E+04;  0.0000000E+00;  9.9785186E+03;0.27592483;0.0;0.27173021;9850.5977
  9.4020104E-01;  9.9999998E-03; -1.6013509E-01;2493;0.11925161;0.0;-0.074453719;1009.8823;  4.0453413E-01;8163.9805;3;46.87009;0.0;-15.68149;0;0.56622094;  9.9918984E+03;  0.0000000E+00; -2.2874161E-05;  1.0000000E+04;  0.0000000E+00;  9.9793926E+03;0.24695913;0.0;0.31926179;9382.1064
  9.4019157E-01;  9.9999998E-03; -1.4011528E-01;2494;0.11407892;0.0;-0.067218326;1009.9691;  4.0453389E-01;8235.6777;3;45.760754;0.0;-16.442766;0;0.58981681;  9.9927432E+03;  0.0000000E+00; -1.4011694E-05;  1.0000000E+04;  0.0000000E+00;  9.9802744E+03;0.22404069;0.0;0.36577609;8906.3779
  9.4018376E-01;  9.9999998E-03; -1.2009400E-01;2495;0.109631;0.0;-0.05837239;1010.0467;  4.0453374E-01;8299.792;3;44.734604;0.0;-16.619921;0;0.61040956;  9.9933770E+03;  0.0000000E+00; -8.0546679E-06;  1.0000000E+04;  0.0000000E+00;  9.9811826E+03;0.20642675;0.0;0.40398279;8422.7344
  9.4017738E-01;  9.9999998E-03; -1.0007392E-01;2496;0.10583757;0.0;-0.049109247;1010.1204;  4.0453357E-01;8360.6553;3;43.772919;0.0;-16.152443;0;0.62478614;  9.9938389E+03;  0.0000000E+00; -5.2876767E-06;  1.0000000E+04;  0.0000000E+00;  9.9821865E+03;0.19306791;0.0;0.43171826;7906.6548
  9.4017231E-01;  9.9999998E-03; -8.0056161E-02;2497;0.10268692;0.0;-0.039865579;1010.1923;  4.0453351E-01;8420.042;3;42.894123;0.0;-14.846293;0;0.63365608;  9.9941777E+03;  0.0000000E+00; -3.9223014E-06;  1.0000000E+04;  0.0000000E+00;  9.9832725E+03;0.18303457;0.0;0.45062152;7358.8359
  9.4016850E-01;  9.9999998E-03; -6.0040656E-02;2498;0.10019619;0.0;-0.030539379;1010.2587;  4.0453342E-01;8474.8965;3;42.146717;0.0;-12.513927;0;0.6390053;  9.9944150E+03;  0.0000000E+00; -2.7208459E-06;  1.0000000E+04;  0.0000000E+00;  9.9843535E+03;0.17567602;0.0;0.46332926;6823.0435
  9.4016582E-01;  9.9999998E-03; -4.0026631E-02;2499;0.098398082;0.0;-0.020844849;1010.3132;  4.0453333E-01;8519.9043;3;41.572102;0.0;-9.1146078;0;0.64243233;  9.9945762E+03;  0.0000000E+00; -1.3978832E-06;  1.0000000E+04;  0.0000000E+00;  9.9852686E+03;0.17060933;0.0;0.47182301;6371.3301
  9.4016421E-01;  9.9999998E-03; -2.0013237E-02;2500;0.097312674;0.0;-0.010616039;1010.3483;  4.0453333E-01;8548.957;3;41.206024;0.0;-4.8168435;0;0.64457476;  9.9946699E+03;  0.0000000E+00; -3.7277306E-07;  1.0000000E+04;  0.0000000E+00;  9.9858760E+03;0.16763194;0.0;0.47694281;6071.8828
  9.6021140E-01;  9.9999998E-03; -1.8013965E-01;2523;0.12493967;0.0;-0.073239252;1008.9686;  4.0407047E-01;7401.7651;3;48.32777;0.0;-13.8559;0;0.39223737;  9.9958750E+03;  0.0000000E+00; -1.0658675E-05;  1.0000000E+04;  0.0000000E+00;  9.9802471E+03;0.13713883;0.0;0.25509852;8942.876
  9.6019971E-01;  9.9999998E-03; -1.6012338E-01;2524;0.11885992;0.0;-0.068180509;1009.0604;  4.0407014E-01;7477.5249;3;47.122398;0.0;-14.666205;0;0.40893584;  9.9968926E+03;  0.0000000E+00; -1.5012901E-05;  1.0000000E+04;  0.0000000E+00;  9.9810547E+03;0.11022823;0.0;0.29870763;8517.584
  9.6019000E-01;  9.9999998E-03; -1.4010517E-01;2525;0.11358918;0.0;-0.061408531;1009.1368;  4.0407008E-01;7540.5933;3;45.987808;0.0;-15.200974;0;0.43163916;  9.9976064E+03;  0.0000000E+00; -8.6898517E-06;  1.0000000E+04;  0.0000000E+00;  9.9818564E+03;0.090563037;0.0;0.34107614;8089.8408
  9.6018201E-01;  9.9999998E-03; -1.2008575E-01;2526;0.10906854;0.0;-0.053227536;1009.2026;  4.0406990E-01;7594.9043;3;44.90435;0.0;-15.239765;0;0.45209584;  9.9980879E+03;  0.0000000E+00; -5.2342652E-06;  1.0000000E+04;  0.0000000E+00;  9.9826895E+03;0.076599725;0.0;0.37549612;7655.562
  9.6017557E-01;  9.9999998E-03; -1.0006744E-01;2527;0.10522866;0.0;-0.044697903;1009.265;  4.0406984E-01;7646.46;3;43.902023;0.0;-14.715936;0;0.46681875;  9.9984063E+03;  0.0000000E+00; -3.7582608E-06;  1.0000000E+04;  0.0000000E+00;  9.9836045E+03;0.06678424;0.0;0.40003452;7190.6367
  9.6017045E-01;  9.9999998E-03; -8.0051228E-02;2528;0.10204614;0.0;-0.036210805;1009.326;  4.0406972E-01;7696.7363;3;42.999485;0.0;-13.456911;0;0.47619617;  9.9986162E+03;  0.0000000E+00; -2.9799621E-06;  1.0000000E+04;  0.0000000E+00;  9.9846035E+03;0.059893806;0.0;0.41630235;6695.7583
  9.6016663E-01;  9.9999998E-03; -6.0037080E-02;2529;0.099538513;0.0;-0.027686127;1009.3827;  4.0406969E-01;7743.5679;3;42.23336;0.0;-11.30038;0;0.48199108;  9.9987549E+03;  0.0000000E+00; -2.1010026E-06;  1.0000000E+04;  0.0000000E+00;  9.9855957E+03;0.055107761;0.0;0.42688331;6211.4297
  9.6016395E-01;  9.9999998E-03; -4.0024277E-02;2530;0.097732432;0.0;-0.018866125;1009.4297;  4.0406972E-01;7782.3325;3;41.6451;0.0;-8.2101898;0;0.48570976;  9.9988418E+03;  0.0000000E+00; -1.0803979E-06;  1.0000000E+04;  0.0000000E+00;  9.9864395E+03;0.051943;0.0;0.43376675;5803.3931
  9.6016240E-01;  9.9999998E-03; -2.0012066E-02;2531;0.096647277;0.0;-0.0095994473;1009.46;  4.0406951E-01;7807.3228;3;41.283642;0.0;-4.3378711;0;0.48799023;  9.9988867E+03;  0.0000000E+00; -2.8994006E-07;  1.0000000E+04;  0.0000000E+00;  9.9869941E+03;0.050133239;0.0;0.437857;5533.1455
  9.8020780E-01;  9.9999998E-03; -1.8012671E-01;2554;0.12356757;0.0;-0.067012206;1008.0977;  4.0361044E-01;6674.0566;3;48.374672;0.0;-13.319872;0;0.27292252;  9.9996377E+03;  0.0000000E+00; -2.7478791E-06;  1.0000000E+04;  0.0000000E+00;  9.9819824E+03;0.035336547;0.0;0.23758596;8019.4609
  9.8019594E-01;  9.9999998E-03; -1.6011186E-01;2555;0.1173596;0.0;-0.062197294;1008.1826;  4.0361026E-01;6744.0186;3;47.096264;0.0;-13.857093;0;0.28790459;  1.0000592E+04;  0.0000000E+00; -3.4413756E-06;  1.0000000E+04;  0.0000000E+00;  9.9827197E+03;0.010469696;0.0;0.27743489;7637.3701
  9.8018616E-01;  9.9999998E-03; -1.4009528E-01;2556;0.11199766;0.0;-0.055838998;1008.2498;  4.0361020E-01;6799.438;3;45.874851;0.0;-14.157518;0;0.30939057;  1.0001196E+04;  0.0000000E+00; -1.6840942E-06;  1.0000000E+04;  0.0000000E+00;  9.9834492E+03;-0.0064832927;0.0;0.31587386;7256.98
  9.8017818E-01;  9.9999998E-03; -1.2007765E-01;2557;0.10742553;0.0;-0.048265185;1008.3056;  4.0361011E-01;6845.4238;3;44.735874;0.0;-14.020296;0;0.3291465;  1.0001560E+04;  0.0000000E+00; -1.4066561E-06;  1.0000000E+04;  0.0000000E+00;  9.9842002E+03;-0.017611191;0.0;0.34675768;6872.1152
  9.8017174E-01;  9.9999998E-03; -1.0006105E-01;2558;0.10356322;0.0;-0.04041956;1008.3574;  4.0361002E-01;6888.167;3;43.685848;0.0;-13.404145;0;0.34357637;  1.0001765E+04;  0.0000000E+00; -1.4700555E-06;  1.0000000E+04;  0.0000000E+00;  9.9850244E+03;-0.024769614;0.0;0.36834598;6459.8296
  9.8016673E-01;  9.9999998E-03; -8.0046393E-02;2559;0.10038285;0.0;-0.032668591;1008.4089;  4.0361005E-01;6930.6147;3;42.739914;0.0;-12.166945;0;0.35285926;  1.0001876E+04;  0.0000000E+00; -1.4537198E-06;  1.0000000E+04;  0.0000000E+00;  9.9859326E+03;-0.029327476;0.0;0.38218674;6020.4502
  9.8016298E-01;  9.9999998E-03; -6.0033582E-02;2560;0.097885117;0.0;-0.024929449;1008.4572;  4.0360987E-01;6970.4087;3;41.929691;0.0;-10.16184;0;0.35858315;  1.0001933E+04;  0.0000000E+00; -1.1202687E-06;  1.0000000E+04;  0.0000000E+00;  9.9868320E+03;-0.032194737;0.0;0.39077789;5590.2344
  9.8016042E-01;  9.9999998E-03; -4.0021982E-02;2561;0.09608195;0.0;-0.016956085;1008.4969;  4.0360981E-01;7003.2266;3;41.305092;0.0;-7.3535261;0;0.36218506;  1.0001958E+04;  0.0000000E+00; -5.9919631E-07;  1.0000000E+04;  0.0000000E+00;  9.9875967E+03;-0.033925775;0.0;0.39611083;5227.7988
  9.8015893E-01;  9.9999998E-03; -2.0010917E-02;2562;0.094989948;0.0;-0.00861248;1008.523;  4.0360987E-01;7024.646;3;40.91148;0.0;-3.8703132;0;0.36433554;  1.0001972E+04;  0.0000000E+00; -1.5909018E-07;  1.0000000E+04;  0.0000000E+00;  9.9881016E+03;-0.034847122;0.0;0.39918265;4987.7969
  1.0002030E+00;  9.9999998E-03; -1.8011452E-01;2585;0.12173356;0.0;-0.061223231;1007.2039;  4.0316951E-01;5926.7217;3;48.34449;0.0;-12.823797;0;0.189559;  1.0002088E+04;  0.0000000E+00; -2.3683400E-05;  1.0000000E+04;  0.0000000E+00;  9.9836416E+03;-0.030085932;0.0;0.21964493;7114.3022
  1.0001910E+00;  9.9999998E-03; -1.6010116E-01;2586;0.11535808;0.0;-0.056766108;1007.2844;  4.0316951E-01;5993.0278;3;46.963806;0.0;-13.251417;0;0.20217471;  1.0003004E+04;  0.0000000E+00;  1.1576215E-06;  1.0000000E+04;  0.0000000E+00;  9.9843281E+03;-0.053652953;0.0;0.25582767;6770.2817
  1.0001811E+00;  9.9999998E-03; -1.4008613E-01;2587;0.10979544;0.0;-0.050841041;1007.3455;  4.0316927E-01;6043.3472;3;45.641064;0.0;-13.381057;0;0.22149114;  1.0003555E+04;  0.0000000E+00;  7.4887930E-07;  1.0000000E+04;  0.0000000E+00;  9.9849932E+03;-0.06909354;0.0;0.29058468;6432.2393
  1.0001731E+00;  9.9999998E-03; -1.2007029E-01;2588;0.10514039;0.0;-0.043874491;1007.3942;  4.0316924E-01;6083.3677;3;44.397083;0.0;-13.09054;0;0.23957554;  1.0003852E+04;  0.0000000E+00;  3.1400845E-07;  1.0000000E+04;  0.0000000E+00;  9.9856709E+03;-0.078694202;0.0;0.31826973;6093.2329
  1.0001668E+00;  9.9999998E-03; -1.0005531E-01;2589;0.10127019;0.0;-0.036660269;1007.4388;  4.0316930E-01;6120.0518;3;43.26619;0.0;-12.357215;0;0.25286371;  1.0003988E+04;  0.0000000E+00;  1.2485370E-07;  1.0000000E+04;  0.0000000E+00;  9.9864141E+03;-0.08442682;0.0;0.33729053;5732.4419
  1.0001620E+00;  9.9999998E-03; -8.0042027E-02;2590;0.098111339;0.0;-0.029541729;1007.4822;  4.0316921E-01;6155.8525;3;42.238033;0.0;-11.095698;0;0.26137286;  1.0004040E+04;  0.0000000E+00; -1.0741979E-07;  1.0000000E+04;  0.0000000E+00;  9.9872236E+03;-0.087692901;0.0;0.34906575;5349.3457
  1.0001584E+00;  9.9999998E-03; -6.0030404E-02;2591;0.095620587;0.0;-0.022444228;1007.5231;  4.0316918E-01;6189.4946;3;41.343285;0.0;-9.1752234;0;0.26650754;  1.0004048E+04;  0.0000000E+00; -2.1620816E-07;  1.0000000E+04;  0.0000000E+00;  9.9880264E+03;-0.089441337;0.0;0.35594887;4974.7271
  1.0001559E+00;  9.9999998E-03; -4.0019885E-02;2592;0.093809105;0.0;-0.015207862;1007.5571;  4.0316918E-01;6217.3501;3;40.64576;0.0;-6.583602;0;0.26960853;  1.0004040E+04;  0.0000000E+00; -1.3329398E-07;  1.0000000E+04;  0.0000000E+00;  9.9887090E+03;-0.090295821;0.0;0.35990435;4659.0737
  1.0001544E+00;  9.9999998E-03; -2.0009864E-02;2593;0.092707098;0.0;-0.0077034892;1007.5792;  4.0316921E-01;6235.5928;3;40.22068;0.0;-3.447917;0;0.27138701;  1.0004029E+04;  0.0000000E+00; -4.3777248E-08;  1.0000000E+04;  0.0000000E+00;  9.9891650E+03;-0.09065643;0.0;0.36204344;4449.9282
  1.0201976E+00;  9.9999998E-03; -1.8010305E-01;2616;0.11955947;0.0;-0.05574163;1006.3255;  4.0275991E-01;5191.5928;3;48.181873;0.0;-12.351982;0;0.13537385;  1.0003448E+04;  0.0000000E+00; -1.0962625E-03;  1.0000000E+04;  0.0000000E+00;  9.9851621E+03;-0.066542685;0.0;0.20191653;6260.0493
  1.0201854E+00;  9.9999998E-03; -1.6009110E-01;2617;0.11297119;0.0;-0.05163328;1006.4047;  4.0275970E-01;5256.665;3;46.742771;0.0;-12.607918;0;0.14467227;  1.0004361E+04;  0.0000000E+00; -3.9205173E-05;  1.0000000E+04;  0.0000000E+00;  9.9858242E+03;-0.089531936;0.0;0.23420422;5942.4307
  1.0201752E+00;  9.9999998E-03; -1.4007765E-01;2618;0.1072146;0.0;-0.046201441;1006.4637;  4.0275967E-01;5305.0059;3;45.270977;0.0;-12.61951;0;0.16055563;  1.0004915E+04;  0.0000000E+00; -6.2116137E-06;  1.0000000E+04;  0.0000000E+00;  9.9864463E+03;-0.10487326;0.0;0.2654289;5637.3252
  1.0201672E+00;  9.9999998E-03; -1.2006346E-01;2619;0.10245107;0.0;-0.03982234;1006.5095;  4.0275964E-01;5342.6802;3;43.925098;0.0;-12.215496;0;0.17587456;  1.0005202E+04;  0.0000000E+00; -2.2257063E-06;  1.0000000E+04;  0.0000000E+00;  9.9870674E+03;-0.11437508;0.0;0.29024965;5336.9805
  1.0201610E+00;  9.9999998E-03; -1.0004998E-01;2620;0.098549701;0.0;-0.03315524;1006.5496;  4.0275958E-01;5375.5591;3;42.702824;0.0;-11.374629;0;0.18722051;  1.0005331E+04;  0.0000000E+00;  3.3145838E-07;  1.0000000E+04;  0.0000000E+00;  9.9877383E+03;-0.11993432;0.0;0.30715483;5023.6865
  1.0201563E+00;  9.9999998E-03; -8.0038026E-02;2621;0.095396526;0.0;-0.026601413;1006.5875;  4.0275967E-01;5406.6763;3;41.595192;0.0;-10.077053;0;0.19443101;  1.0005370E+04;  0.0000000E+00;  9.2385096E-07;  1.0000000E+04;  0.0000000E+00;  9.9884551E+03;-0.12291399;0.0;0.31734499;4695.5991
  1.0201528E+00;  9.9999998E-03; -6.0027529E-02;2622;0.092926383;0.0;-0.020138444;1006.6229;  4.0275958E-01;5435.7373;3;40.645073;0.0;-8.2516375;0;0.19864251;  1.0005361E+04;  0.0000000E+00;  6.3148195E-07;  1.0000000E+04;  0.0000000E+00;  9.9891621E+03;-0.1242951;0.0;0.32293761;4376.7334
  1.0201504E+00;  9.9999998E-03; -4.0017981E-02;2623;0.091129996;0.0;-0.013594072;1006.6517;  4.0275955E-01;5459.3188;3;39.912109;0.0;-5.8913975;0;0.20102584;  1.0005337E+04;  0.0000000E+00;  2.6737081E-07;  1.0000000E+04;  0.0000000E+00;  9.9897627E+03;-0.12479068;0.0;0.32581651;4108.3477
  1.0201491E+00;  9.9999998E-03; -2.0008907E-02;2624;0.090029344;0.0;-0.0068677338;1006.6708;  4.0275955E-01;5475.0723;3;39.440033;0.0;-3.0744576;0;0.20230398;  1.0005315E+04;  0.0000000E+00;  5.8056166E-08;  1.0000000E+04;  0.0000000E+00;  9.9901631E+03;-0.12489418;0.0;0.32719815;3930.3623
  1.0401917E+00;  9.9999998E-03; -1.8009271E-01;2647;0.11711132;0.0;-0.050739184;1005.4963;  4.0238947E-01;4496.6147;3;48.013268;0.0;-11.887626;0;0.10194343;  1.0004040E+04;  0.0000000E+00; -7.4075949E-03;  1.0000000E+04;  0.0000000E+00;  9.9864805E+03;-0.083357453;0.0;0.18530089;5482.4312
  1.0401789E+00;  9.9999998E-03; -1.6008160E-01;2648;0.11018603;0.0;-0.046707992;1005.5759;  4.0238935E-01;4561.6748;3;46.338505;0.0;-11.944898;0;0.10723106;  1.0004945E+04;  0.0000000E+00; -6.6009263E-04;  1.0000000E+04;  0.0000000E+00;  9.9871592E+03;-0.10582147;0.0;0.21305253;5176.1553
  1.0401686E+00;  9.9999998E-03; -1.4006981E-01;2649;0.1042584;0.0;-0.041878879;1005.6373;  4.0238920E-01;4611.9097;3;44.769981;0.0;-11.853745;0;0.1184556;  1.0005552E+04;  0.0000000E+00; -2.5019994E-05;  1.0000000E+04;  0.0000000E+00;  9.9877783E+03;-0.12214862;0.0;0.24060422;4890.7871
  1.0401605E+00;  9.9999998E-03; -1.2005722E-01;2650;0.099331729;0.0;-0.036094531;1005.6843;  4.0238923E-01;4650.3423;3;43.288136;0.0;-11.395612;0;0.12997161;  1.0005893E+04;  0.0000000E+00; -1.0349087E-05;  1.0000000E+04;  0.0000000E+00;  9.9883701E+03;-0.13280247;0.0;0.26277408;4618.897
  1.0401543E+00;  9.9999998E-03; -1.0004522E-01;2651;0.095378064;0.0;-0.030001355;1005.723;  4.0238920E-01;4682.043;3;41.951183;0.0;-10.48808;0;0.13873689;  1.0006059E+04;  0.0000000E+00; -1.1793883E-06;  1.0000000E+04;  0.0000000E+00;  9.9889785E+03;-0.13924591;0.0;0.2779828;4346.166
  1.0401498E+00;  9.9999998E-03; -8.0034472E-02;2652;0.092228197;0.0;-0.02397819;1005.7575;  4.0238917E-01;4710.2324;3;40.771595;0.0;-9.1642323;0;0.14434774;  1.0006116E+04;  0.0000000E+00;  1.8159780E-06;  1.0000000E+04;  0.0000000E+00;  9.9896094E+03;-0.14275901;0.0;0.28710675;4069.2559
  1.0401465E+00;  9.9999998E-03; -6.0024954E-02;2653;0.089782327;0.0;-0.018066222;1005.7885;  4.0238920E-01;4735.6899;3;39.760254;0.0;-7.4175248;0;0.14753029;  1.0006118E+04;  0.0000000E+00;  1.6687990E-06;  1.0000000E+04;  0.0000000E+00;  9.9902227E+03;-0.14438063;0.0;0.29191092;3804.4133
  1.0401442E+00;  9.9999998E-03; -4.0016271E-02;2654;0.088004254;0.0;-0.012133389;1005.8138;  4.0238911E-01;4756.3672;3;38.969231;0.0;-5.2411084;0;0.14918402;  1.0006100E+04;  0.0000000E+00;  8.0679820E-07;  1.0000000E+04;  0.0000000E+00;  9.9907451E+03;-0.14493793;0.0;0.29412195;3582.6987
  1.0401428E+00;  9.9999998E-03; -2.0008046E-02;2655;0.086915933;0.0;-0.0061101918;1005.83;  4.0238920E-01;4769.6318;3;38.466045;0.0;-2.7209322;0;0.14997517;  1.0006083E+04;  0.0000000E+00;  1.9384406E-07;  1.0000000E+04;  0.0000000E+00;  9.9910879E+03;-0.14503188;0.0;0.29500705;3435.717
  1.0601852E+00;  9.9999998E-03; -1.8008302E-01;2678;0.11448968;0.0;-0.045695253;1004.7408;  4.0206316E-01;3861.874;3;47.769897;0.0;-11.053048;0;0.082431942;  1.0004139E+04;  0.0000000E+00; -2.7737815E-02;  1.0000000E+04;  0.0000000E+00;  9.9875654E+03;-0.088294521;0.0;0.17072646;4794.5293
  1.0601721E+00;  9.9999998E-03; -1.6007282E-01;2679;0.10715061;0.0;-0.042097501;1004.8203;  4.0206316E-01;3926.658;3;45.846703;0.0;-11.225226;0;0.083883934;  1.0004987E+04;  0.0000000E+00; -4.1010384E-03;  1.0000000E+04;  0.0000000E+00;  9.9882998E+03;-0.10927268;0.0;0.19315661;4487.3511
  1.0601616E+00;  9.9999998E-03; -1.4006241E-01;2680;0.10095454;0.0;-0.03773234;1004.8868;  4.0206310E-01;3980.8542;3;44.058369;0.0;-11.145786;0;0.089680836;  1.0005658E+04;  0.0000000E+00; -1.1640209E-04;  1.0000000E+04;  0.0000000E+00;  9.9889551E+03;-0.12684821;0.0;0.21652904;4208.2437
  1.0601534E+00;  9.9999998E-03; -1.2005153E-01;2681;0.095910922;0.0;-0.032624569;1004.9388;  4.0206310E-01;4023.2017;3;42.503502;0.0;-10.541887;0;0.096492156;  1.0006097E+04;  0.0000000E+00; -2.6569762E-05;  1.0000000E+04;  0.0000000E+00;  9.9895518E+03;-0.13954096;0.0;0.23603311;3953.1729
  1.0601472E+00;  9.9999998E-03; -1.0004096E-01;2682;0.09186808;0.0;-0.027140154;1004.9797;  4.0206301E-01;4056.5159;3;41.053921;0.0;-9.6118069;0;0.10211487;  1.0006338E+04;  0.0000000E+00; -6.2423796E-06;  1.0000000E+04;  0.0000000E+00;  9.9901250E+03;-0.14767779;0.0;0.24979267;3711.4373
  1.0601426E+00;  9.9999998E-03; -8.0031328E-02;2683;0.088707343;0.0;-0.021649275;1005.0135;  4.0206307E-01;4084.0994;3;39.788082;0.0;-8.297039;0;0.10589285;  1.0006453E+04;  0.0000000E+00;  1.8150432E-06;  1.0000000E+04;  0.0000000E+00;  9.9906846E+03;-0.15237285;0.0;0.2582657;3478.6824
  1.0601394E+00;  9.9999998E-03; -6.0022671E-02;2684;0.086275071;0.0;-0.016219012;1005.0417;  4.0206310E-01;4107.0205;3;38.715073;0.0;-6.6220613;0;0.10804789;  1.0006492E+04;  0.0000000E+00;  2.7639596E-06;  1.0000000E+04;  0.0000000E+00;  9.9912080E+03;-0.15472002;0.0;0.26276791;3263.3931
  1.0601372E+00;  9.9999998E-03; -4.0014759E-02;2685;0.084522568;0.0;-0.010835714;1005.0638;  4.0206301E-01;4125.085;3;37.882683;0.0;-4.6281114;0;0.10908552;  1.0006495E+04;  0.0000000E+00;  1.5145349E-06;  1.0000000E+04;  0.0000000E+00;  9.9916455E+03;-0.15567555;0.0;0.26476106;3085.9072
  1.0601360E+00;  9.9999998E-03; -2.0007279E-02;2686;0.083451681;0.0;-0.005430466;1005.0779;  4.0206298E-01;4136.5449;3;37.352303;0.0;-2.3825901;0;0.10950626;  1.0006485E+04;  0.0000000E+00;  3.8852480E-07;  1.0000000E+04;  0.0000000E+00;  9.9919346E+03;-0.15595739;0.0;0.26546365;2968.8152
  1.0801790E+00;  9.9999998E-03; -1.8007387E-01;2709;0.11187222;0.0;-0.040476412;1004.0729;  4.0178311E-01;3298.8965;3;47.421734;0.0;-9.9363079;0;0.072498076;  1.0003926E+04;  0.0000000E+00; -7.6496132E-02;  1.0000000E+04;  0.0000000E+00;  9.9884092E+03;-0.086497568;0.0;0.15899564;4200.3901
  1.0801654E+00;  9.9999998E-03; -1.6006495E-01;2710;0.10414259;0.0;-0.037679262;1004.1483;  4.0178311E-01;3360.0308;3;45.338753;0.0;-10.278078;0;0.071532525;  1.0004631E+04;  0.0000000E+00; -1.7315833E-02;  1.0000000E+04;  0.0000000E+00;  9.9892129E+03;-0.10410481;0.0;0.17563733;3883.8257
  1.0801544E+00;  9.9999998E-03; -1.4005557E-01;2711;0.097585969;0.0;-0.033824503;1004.22;  4.0178314E-01;3418.073;3;43.351585;0.0;-10.220336;0;0.072181404;  1.0005330E+04;  0.0000000E+00; -1.3492206E-03;  1.0000000E+04;  0.0000000E+00;  9.9899404E+03;-0.12190914;0.0;0.19409055;3601.9697
  1.0801461E+00;  9.9999998E-03; -1.2004633E-01;2712;0.092344567;0.0;-0.02947242;1004.2799;  4.0178311E-01;3466.553;3;41.586834;0.0;-9.8236876;0;0.073676705;  1.0005887E+04;  0.0000000E+00; -5.5021697E-05;  1.0000000E+04;  0.0000000E+00;  9.9905811E+03;-0.13688843;0.0;0.21056513;3353.1382
  1.0801399E+00;  9.9999998E-03; -1.0003710E-01;2713;0.088213123;0.0;-0.024553675;1004.3267;  4.0178296E-01;3504.5066;3;40.012001;0.0;-8.8240337;0;0.075463891;  1.0006248E+04;  0.0000000E+00; -1.9382300E-05;  1.0000000E+04;  0.0000000E+00;  9.9911494E+03;-0.14735794;0.0;0.22282183;3131.4524
  1.0801353E+00;  9.9999998E-03; -8.0028534E-02;2714;0.085011899;0.0;-0.019566666;1004.3623;  4.0178302E-01;3533.3821;3;38.690689;0.0;-7.5127997;0;0.076943994;  1.0006449E+04;  0.0000000E+00; -2.0073846E-06;  1.0000000E+04;  0.0000000E+00;  9.9916631E+03;-0.15385342;0.0;0.23079741;2932.71
  1.0801321E+00;  9.9999998E-03; -6.0020678E-02;2715;0.082588829;0.0;-0.014615338;1004.39;  4.0178296E-01;3555.7871;3;37.575981;0.0;-5.9263735;0;0.077892169;  1.0006544E+04;  0.0000000E+00;  2.5658824E-06;  1.0000000E+04;  0.0000000E+00;  9.9921162E+03;-0.15742205;0.0;0.23531422;2759.0066
  1.0801299E+00;  9.9999998E-03; -4.0013444E-02;2716;0.080860496;0.0;-0.0097117601;1004.4103;  4.0178305E-01;3572.3008;3;36.722343;0.0;-4.0930252;0;0.078351572;  1.0006585E+04;  0.0000000E+00;  1.9408685E-06;  1.0000000E+04;  0.0000000E+00;  9.9924795E+03;-0.15911375;0.0;0.23746532;2620.4888
  1.0801287E+00;  9.9999998E-03; -2.0006619E-02;2717;0.079817772;0.0;-0.0048505254;1004.4229;  4.0178293E-01;3582.4407;3;36.184986;0.0;-2.0963161;0;0.07850723;  1.0006597E+04;  0.0000000E+00;  5.5885738E-07;  1.0000000E+04;  0.0000000E+00;  9.9927188E+03;-0.15977578;0.0;0.23828301;2530.4841
  1.1001736E+00;  9.9999998E-03; -1.8006560E-01;2739;0.10959792;0.0;-0.03537368;1003.4968;  4.0154797E-01;2810.9543;3;47.192585;0.0;-8.7631636;0;0.069520041;  1.0003521E+04;  0.0000000E+00; -1.7158061E-01;  1.0000000E+04;  0.0000000E+00;  9.9890459E+03;-0.080934197;0.0;0.15045424;3708.3884
  1.1001588E+00;  9.9999998E-03; -1.6005707E-01;2740;0.10120452;0.0;-0.032954779;1003.5624;  4.0154809E-01;2863.7744;3;44.777233;0.0;-9.0290909;0;0.068588547;  1.0003973E+04;  0.0000000E+00; -5.4471295E-02;  1.0000000E+04;  0.0000000E+00;  9.9898984E+03;-0.092942469;0.0;0.16153102;3364.7297
  1.1001477E+00;  9.9999998E-03; -1.4004932E-01;2741;0.094417736;0.0;-0.030092398;1003.635;  4.0154809E-01;2922.1487;3;42.618629;0.0;-9.2217979;0;0.065783061;  1.0004608E+04;  0.0000000E+00; -9.2947911E-03;  1.0000000E+04;  0.0000000E+00;  9.9907080E+03;-0.10883806;0.0;0.17462112;3077.9521
  1.1001390E+00;  9.9999998E-03; -1.2004133E-01;2742;0.088872924;0.0;-0.02631999;1003.7032;  4.0154794E-01;2976.9744;3;40.644592;0.0;-8.832881;0;0.062212855;  1.0005261E+04;  0.0000000E+00; -5.3945574E-04;  1.0000000E+04;  0.0000000E+00;  9.9914199E+03;-0.12514544;0.0;0.18735829;2829.4668
  1.1001327E+00;  9.9999998E-03; -1.0003360E-01;2743;0.084607147;0.0;-0.022233063;1003.7587;  4.0154788E-01;3021.5439;3;38.977356;0.0;-8.0553131;0;0.059369937;  1.0005765E+04;  0.0000000E+00; -4.6186593E-05;  1.0000000E+04;  0.0000000E+00;  9.9920244E+03;-0.13832547;0.0;0.1976954;2618.137
  1.1001281E+00;  9.9999998E-03; -8.0025978E-02;2744;0.081320234;0.0;-0.017729109;1003.8005;  4.0154794E-01;3055.1868;3;37.507359;0.0;-6.842587;0;0.057671085;  1.0006092E+04;  0.0000000E+00; -1.4636799E-05;  1.0000000E+04;  0.0000000E+00;  9.9925283E+03;-0.14729953;0.0;0.20497061;2441.8064
  1.1001248E+00;  9.9999998E-03; -6.0018908E-02;2745;0.078891493;0.0;-0.013214617;1003.8306;  4.0154794E-01;3079.3403;3;36.367157;0.0;-5.3124442;0;0.056768104;  1.0006284E+04;  0.0000000E+00; -1.8575550E-06;  1.0000000E+04;  0.0000000E+00;  9.9929346E+03;-0.15273865;0.0;0.20950675;2298.6367
  1.1001227E+00;  9.9999998E-03; -4.0012293E-02;2746;0.077180497;0.0;-0.0087523079;1003.851;  4.0154794E-01;3095.7307;3;35.498226;0.0;-3.6364558;0;0.056313261;  1.0006381E+04;  0.0000000E+00;  8.6004638E-07;  1.0000000E+04;  0.0000000E+00;  9.9932461E+03;-0.15565385;0.0;0.21196711;2190.5679
  1.1001215E+00;  9.9999998E-03; -2.0006049E-02;2747;0.076157466;0.0;-0.0043535372;1003.8629;  4.0154794E-01;3105.3152;3;34.957172;0.0;-1.8416954;0;0.056096703;  1.0006425E+04;  0.0000000E+00;  4.1832303E-07;  1.0000000E+04;  0.0000000E+00;  9.9934414E+03;-0.15697847;0.0;0.21307518;2122.5503
  1.1201698E+00;  9.9999998E-03; -1.8005861E-01;2768;0.10787773;0.0;-0.030600142;1003.0142;  4.0135533E-01;2399.1484;3;47.199593;0.0;-7.5299888;0;0.070642948;  1.0003018E+04;  0.0000000E+00; -3.3168948E-01;  1.0000000E+04;  0.0000000E+00;  9.9895244E+03;-0.074044317;0.0;0.14468727;3349.8396
  1.1201535E+00;  9.9999998E-03; -1.6005000E-01;2769;0.098755851;0.0;-0.02836884;1003.0633;  4.0135545E-01;2438.2632;3;44.32761;0.0;-7.651422;0;0.072600432;  1.0003133E+04;  0.0000000E+00; -1.3963532E-01;  1.0000000E+04;  0.0000000E+00;  9.9903857E+03;-0.078735314;0.0;0.15133575;2934.3967
  1.1201415E+00;  9.9999998E-03; -1.4004292E-01;2770;0.091433398;0.0;-0.026020274;1003.1296;  4.0135536E-01;2491.0361;3;41.905617;0.0;-7.9216733;0;0.069372237;  1.0003588E+04;  0.0000000E+00; -4.0057786E-02;  1.0000000E+04;  0.0000000E+00;  9.9912510E+03;-0.089950562;0.0;0.1593228;2633.2969
  1.1201327E+00;  9.9999998E-03; -1.2003650E-01;2771;0.085710779;0.0;-0.023246728;1003.2014;  4.0135542E-01;2548.1702;3;39.737289;0.0;-7.8600068;0;0.062624641;  1.0004227E+04;  0.0000000E+00; -6.6217887E-03;  1.0000000E+04;  0.0000000E+00;  9.9920469E+03;-0.10513074;0.0;0.16775538;2385.9023
  1.1201260E+00;  9.9999998E-03; -1.0002991E-01;2772;0.081219457;0.0;-0.01973949;1003.2661;  4.0135536E-01;2599.7029;3;37.906757;0.0;-7.1764598;0;0.055294976;  1.0004851E+04;  0.0000000E+00; -4.8352926E-04;  1.0000000E+04;  0.0000000E+00;  9.9927129E+03;-0.12013486;0.0;0.17542984;2180.0476
  1.1201214E+00;  9.9999998E-03; -8.0023549E-02;2773;0.077860251;0.0;-0.015986813;1003.3169;  4.0135533E-01;2640.1313;3;36.398148;0.0;-6.1340714;0;0.04948175;  1.0005333E+04;  0.0000000E+00; -4.0121537E-05;  1.0000000E+04;  0.0000000E+00;  9.9932432E+03;-0.13198493;0.0;0.18146668;2016.1602
  1.1201180E+00;  9.9999998E-03; -6.0017228E-02;2774;0.075361729;0.0;-0.011942634;1003.3531;  4.0135545E-01;2668.9822;3;35.16571;0.0;-4.7807717;0;0.045700297;  1.0005653E+04;  0.0000000E+00; -1.4183915E-05;  1.0000000E+04;  0.0000000E+00;  9.9936475E+03;-0.13997684;0.0;0.18567714;1891.6705
  1.1201159E+00;  9.9999998E-03; -4.0011264E-02;2775;0.073644981;0.0;-0.0079223653;1003.3768;  4.0135533E-01;2687.7732;3;34.268597;0.0;-3.2643552;0;0.043538824;  1.0005840E+04;  0.0000000E+00; -3.5921730E-06;  1.0000000E+04;  0.0000000E+00;  9.9939307E+03;-0.14474362;0.0;0.18828245;1803.4989
  1.1201147E+00;  9.9999998E-03; -2.0005547E-02;2776;0.072636999;0.0;-0.0039373664;1003.39;  4.0135530E-01;2698.3074;3;33.728867;0.0;-1.6492863;0;0.042485386;  1.0005937E+04;  0.0000000E+00; -5.2214267E-07;  1.0000000E+04;  0.0000000E+00;  9.9941016E+03;-0.14715433;0.0;0.18963972;1750.4575
  1.1401677E+00;  9.9999998E-03; -1.8005334E-01;2796;0.10682151;0.0;-0.026365571;1002.6233;  4.0120086E-01;2061.2729;3;47.715679;0.0;-6.367785;0;0.072272293;  1.0002520E+04;  0.0000000E+00; -5.6372947E-01;  1.0000000E+04;  0.0000000E+00;  9.9899316E+03;-0.068029918;0.0;0.14030221;3160.2534
  1.1401497E+00;  9.9999998E-03; -1.6004421E-01;2797;0.09697105;0.0;-0.024149461;1002.6514;  4.0120077E-01;2083.313;3;44.20285;0.0;-6.3382668;0;0.0792614;  1.0002265E+04;  0.0000000E+00; -2.9941052E-01;  1.0000000E+04;  0.0000000E+00;  9.9907432E+03;-0.065160222;0.0;0.14442162;2626.3584
  1.1401365E+00;  9.9999998E-03; -1.4003725E-01;2798;0.089061417;0.0;-0.022086607;1002.7028;  4.0120086E-01;2123.7048;3;41.393951;0.0;-6.4535551;0;0.079212464;  1.0002416E+04;  0.0000000E+00; -1.2327752E-01;  1.0000000E+04;  0.0000000E+00;  9.9916113E+03;-0.06929224;0.0;0.1485047;2269.3572
  1.1401269E+00;  9.9999998E-03; -1.2003151E-01;2799;0.082893923;0.0;-0.019887984;1002.769;  4.0120080E-01;2175.801;3;38.99971;0.0;-6.586678;0;0.072725564;  1.0002899E+04;  0.0000000E+00; -3.7354507E-02;  1.0000000E+04;  0.0000000E+00;  9.9924551E+03;-0.080076918;0.0;0.15280248;2016.433
  1.1401203E+00;  9.9999998E-03; -1.0002628E-01;2800;0.078237601;0.0;-0.017286619;1002.8368;  4.0120068E-01;2229.1111;3;36.945518;0.0;-6.2680926;0;0.063155852;  1.0003518E+04;  0.0000000E+00; -7.8154188E-03;  1.0000000E+04;  0.0000000E+00;  9.9931924E+03;-0.094074152;0.0;0.15723;1817.0404
  1.1401154E+00;  9.9999998E-03; -8.0020815E-02;2801;0.074699201;0.0;-0.014056453;1002.8956;  4.0120077E-01;2275.2993;3;35.294212;0.0;-5.3776436;0;0.053817026;  1.0004103E+04;  0.0000000E+00; -9.9699327E-04;  1.0000000E+04;  0.0000000E+00;  9.9937773E+03;-0.10749043;0.0;0.16130745;1660.9343
  1.1401119E+00;  9.9999998E-03; -6.0015492E-02;2802;0.072168946;0.0;-0.010658905;1002.9398;  4.0120080E-01;2310.0576;3;34.039341;0.0;-4.2293496;0;0.046594933;  1.0004558E+04;  0.0000000E+00; -7.3532326E-05;  1.0000000E+04;  0.0000000E+00;  9.9942080E+03;-0.11801335;0.0;0.16460828;1545.9222
  1.1401098E+00;  9.9999998E-03; -4.0010192E-02;2803;0.070429362;0.0;-0.0071080662;1002.9696;  4.0120074E-01;2333.4795;3;33.114506;0.0;-2.9085598;0;0.041931123;  1.0004862E+04;  0.0000000E+00; -1.2724704E-05;  1.0000000E+04;  0.0000000E+00;  9.9945010E+03;-0.12501197;0.0;0.16694309;1467.7875
  1.1401085E+00;  9.9999998E-03; -2.0005057E-02;2804;0.069417283;0.0;-0.0035517297;1002.9862;  4.0120065E-01;2346.502;3;32.557915;0.0;-1.4793949;0;0.039456159;  1.0005026E+04;  0.0000000E+00; -2.7062642E-06;  1.0000000E+04;  0.0000000E+00;  9.9946699E+03;-0.12884726;0.0;0.16830342;1422.4756
  1.1601686E+00;  9.9999998E-03; -1.8005082E-01;2823;0.10694683;0.0;-0.023287904;1002.3143;  4.0107954E-01;1788.5719;3;48.844139;0.0;-5.3666797;0;0.073485687;  1.0002033E+04;  0.0000000E+00; -8.4696239E-01;  1.0000000E+04;  0.0000000E+00;  9.9902988E+03;-0.062911421;0.0;0.13639711;3101.3245
  1.1601480E+00;  9.9999998E-03; -1.6004044E-01;2824;0.096031845;0.0;-0.020671127;1002.3272;  4.0107960E-01;1798.5564;3;44.551327;0.0;-5.1162324;0;0.08355587;  1.0001528E+04;  0.0000000E+00; -5.4222232E-01;  1.0000000E+04;  0.0000000E+00;  9.9910566E+03;-0.055614837;0.0;0.13917071;2485.0684
  1.1601331E+00;  9.9999998E-03; -1.4003283E-01;2825;0.087383531;0.0;-0.018516632;1002.3564;  4.0107971E-01;1821.1534;3;41.19278;0.0;-5.0585823;0;0.089336425;  1.0001301E+04;  0.0000000E+00; -2.8898618E-01;  1.0000000E+04;  0.0000000E+00;  9.9918662E+03;-0.051706728;0.0;0.14104316;2021.75
  1.1601226E+00;  9.9999998E-03; -1.2002719E-01;2826;0.080726013;0.0;-0.01662962;1002.4064;  4.0107954E-01;1859.8666;3;38.502968;0.0;-5.1055746;0;0.087227747;  1.0001472E+04;  0.0000000E+00; -1.2635259E-01;  1.0000000E+04;  0.0000000E+00;  9.9926953E+03;-0.055151206;0.0;0.14237896;1722.1942
  1.1601152E+00;  9.9999998E-03; -1.0002244E-01;2827;0.075662628;0.0;-0.014562756;1002.467;  4.0107945E-01;1906.6827;3;36.190189;0.0;-5.0855575;0;0.079325028;  1.0001916E+04;  0.0000000E+00; -4.4879001E-02;  1.0000000E+04;  0.0000000E+00;  9.9934609E+03;-0.064466529;0.0;0.14379156;1520.1105
  1.1601102E+00;  9.9999998E-03; -8.0018058E-02;2828;0.072003454;0.0;-0.012132033;1002.5259;  4.0107954E-01;1952.2056;3;34.410007;0.0;-4.5888186;0;0.069391496;  1.0002458E+04;  0.0000000E+00; -1.2715217E-02;  1.0000000E+04;  0.0000000E+00;  9.9940957E+03;-0.076155715;0.0;0.14554721;1371.4373
  1.1601067E+00;  9.9999998E-03; -6.0013484E-02;2829;0.069342583;0.0;-0.0092318347;1002.575;  4.0107945E-01;1990.0787;3;33.026985;0.0;-3.6183476;0;0.060312897;  1.0002953E+04;  0.0000000E+00; -2.6560093E-03;  1.0000000E+04;  0.0000000E+00;  9.9945771E+03;-0.087086782;0.0;0.14739968;1262.5172
  1.1601044E+00;  9.9999998E-03; -4.0008973E-02;2830;0.067579456;0.0;-0.0062212883;1002.6102;  4.0107951E-01;2017.3545;3;32.081112;0.0;-2.5031025;0;0.053559311;  1.0003328E+04;  0.0000000E+00; -3.7424729E-04;  1.0000000E+04;  0.0000000E+00;  9.9949063E+03;-0.095439233;0.0;0.14899854;1188.3997
  1.1601031E+00;  9.9999998E-03; -2.0004496E-02;2831;0.066571027;0.0;-0.0031566718;1002.6311;  4.0107948E-01;2033.4802;3;31.52277;0.0;-1.3103058;0;0.049574092;  1.0003558E+04;  0.0000000E+00; -1.9359508E-05;  1.0000000E+04;  0.0000000E+00;  9.9950947E+03;-0.10047941;0.0;0.1500535;1145.5098
  1.1801752E+00;  9.9999998E-03; -1.8005247E-01;2849;0.10914187;0.0;-0.022322774;1002.0491;  4.0098637E-01;1550.6442;3;51.122799;0.0;-5.0100517;0;0.085832134;  1.0001185E+04;  0.0000000E+00; -1.1341807E+00;  1.0000000E+04;  0.0000000E+00;  9.9905059E+03;-0.050179619;0.0;0.13601175;3043.4219
  1.1801503E+00;  9.9999998E-03; -1.6004008E-01;2850;0.096647955;0.0;-0.018676335;1002.078;  4.0098622E-01;1572.6113;3;45.691456;0.0;-4.2366638;0;0.085081846;  1.0000923E+04;  0.0000000E+00; -8.3656943E-01;  1.0000000E+04;  0.0000000E+00;  9.9913398E+03;-0.049701437;0.0;0.13478328;2460.9243
  1.1801323E+00;  9.9999998E-03; -1.4003073E-01;2851;0.086709708;0.0;-0.015859211;1002.0912;  4.0098640E-01;1582.6587;3;41.598766;0.0;-3.8900981;0;0.093843155;  1.0000429E+04;  0.0000000E+00; -5.3901041E-01;  1.0000000E+04;  0.0000000E+00;  9.9920957E+03;-0.041168593;0.0;0.13501175;1929.4955
  1.1801200E+00;  9.9999998E-03; -1.2002421E-01;2852;0.079316579;0.0;-0.013774474;1002.1171;  4.0098637E-01;1602.1683;3;38.440674;0.0;-3.7087312;0;0.099103466;  1.0000185E+04;  0.0000000E+00; -3.0056569E-01;  1.0000000E+04;  0.0000000E+00;  9.9928535E+03;-0.035816029;0.0;0.13491949;1540.374
  1.1801116E+00;  9.9999998E-03; -1.0001943E-01;2853;0.073807053;0.0;-0.012037049;1002.1583;  4.0098625E-01;1633.3994;3;35.825859;0.0;-3.7288504;0;0.097453356;  1.0000281E+04;  0.0000000E+00; -1.4406486E-01;  1.0000000E+04;  0.0000000E+00;  9.9935830E+03;-0.037132863;0.0;0.13458622;1293.8392
  1.1801059E+00;  9.9999998E-03; -8.0015279E-02;2854;0.069738835;0.0;-0.010052905;1002.2062;  4.0098631E-01;1669.6785;3;33.724655;0.0;-3.5660875;0;0.091198109;  1.0000597E+04;  0.0000000E+00; -5.8611941E-02;  1.0000000E+04;  0.0000000E+00;  9.9942236E+03;-0.043338038;0.0;0.13453615;1138.5504
  1.1801021E+00;  9.9999998E-03; -6.0011439E-02;2855;0.066947579;0.0;-0.007775146;1002.251;  4.0098625E-01;1703.6082;3;32.18959;0.0;-2.9728022;0;0.083666585;  1.0000980E+04;  0.0000000E+00; -1.9372862E-02;  1.0000000E+04;  0.0000000E+00;  9.9947344E+03;-0.051323675;0.0;0.13499026;1034.043
  1.1800998E+00;  9.9999998E-03; -4.0007662E-02;2856;0.065133922;0.0;-0.0053015146;1002.2863;  4.0098628E-01;1730.3177;3;31.189697;0.0;-2.0911539;0;0.077068612;  1.0001319E+04;  0.0000000E+00; -4.7526811E-03;  1.0000000E+04;  0.0000000E+00;  9.9950996E+03;-0.058623645;0.0;0.13569225;963.26508
  1.1800984E+00;  9.9999998E-03; -2.0003822E-02;2857;0.064092368;0.0;-0.0026778653;1002.3088;  4.0098628E-01;1747.3721;3;30.589804;0.0;-1.0792904;0;0.072721265;  1.0001546E+04;  0.0000000E+00; -6.3544785E-04;  1.0000000E+04;  0.0000000E+00;  9.9953203E+03;-0.063560806;0.0;0.13628207;921.39783
  1.2001851E+00;  9.9999998E-03; -1.8005662E-01;2873;0.11220869;0.0;-0.022689657;1001.7816;  4.0091622E-01;1313.4137;3;55.082592;0.0;-5.2572856;0;0.12195697;  9.9993555E+03;  0.0000000E+00; -1.2988845E+00;  1.0000000E+04;  0.0000000E+00;  9.9904951E+03;-0.017621944;0.0;0.13957891;2745.2344
  1.2001593E+00;  9.9999998E-03; -1.6004439E-01;2874;0.099906012;0.0;-0.019078877;1001.8539;  4.0091622E-01;1366.8097;3;48.308372;0.0;-4.2421498;0;0.10117604;  9.9998711E+03;  0.0000000E+00; -1.1247849E+00;  1.0000000E+04;  0.0000000E+00;  9.9914189E+03;-0.033864018;0.0;0.13504006;2411.8625
  1.2001367E+00;  9.9999998E-03; -1.4003301E-01;2875;0.088178754;0.0;-0.015147094;1001.8884;  4.0091625E-01;1392.2544;3;42.940022;0.0;-3.2415581;0;0.095924452;  9.9997129E+03;  0.0000000E+00; -8.2609540E-01;  1.0000000E+04;  0.0000000E+00;  9.9922627E+03;-0.034647603;0.0;0.13057205;1918.6234
  1.2001204E+00;  9.9999998E-03; -1.2002416E-01;2876;0.079111829;0.0;-0.012050896;1001.9012;  4.0091625E-01;1401.7793;3;38.949005;0.0;-2.6101129;0;0.10294561;  9.9992441E+03;  0.0000000E+00; -5.3912681E-01;  1.0000000E+04;  0.0000000E+00;  9.9929854E+03;-0.025727239;0.0;0.12867285;1479.4985
  1.2001100E+00;  9.9999998E-03; -1.0001810E-01;2877;0.072738782;0.0;-0.0099900207;1001.9166;  4.0091625E-01;1413.0507;3;35.932285;0.0;-2.3652141;0;0.11004396;  9.9989053E+03;  0.0000000E+00; -3.1095886E-01;  1.0000000E+04;  0.0000000E+00;  9.9936279E+03;-0.01794352;0.0;0.12798747;1163.1256
  1.2001033E+00;  9.9999998E-03; -8.0013715E-02;2878;0.068241186;0.0;-0.0083434517;1001.942;  4.0091619E-01;1431.7856;3;33.500843;0.0;-2.4526696;0;0.11209198;  9.9988340E+03;  0.0000000E+00; -1.5464364E-01;  1.0000000E+04;  0.0000000E+00;  9.9942070E+03;-0.015517658;0.0;0.12760964;966.99261
  1.2000989E+00;  9.9999998E-03; -6.0009897E-02;2879;0.065123633;0.0;-0.0064512831;1001.9722;  4.0091628E-01;1454.1199;3;31.746046;0.0;-2.213423;0;0.11025081;  9.9989473E+03;  0.0000000E+00; -6.3751116E-02;  1.0000000E+04;  0.0000000E+00;  9.9946973E+03;-0.017282225;0.0;0.12753303;852.83752
  1.2000961E+00;  9.9999998E-03; -4.0006451E-02;2880;0.063136198;0.0;-0.0043722992;1001.9996;  4.0091619E-01;1474.3413;3;30.554993;0.0;-1.6228876;0;0.10700881;  9.9991221E+03;  0.0000000E+00; -2.0127460E-02;  1.0000000E+04;  0.0000000E+00;  9.9950732E+03;-0.020773502;0.0;0.12778232;784.19592
  1.2000947E+00;  9.9999998E-03; -2.0003188E-02;2881;0.062034007;0.0;-0.0022184926;1002.0188;  4.0091622E-01;1488.4955;3;29.899443;0.0;-0.87664634;0;0.10430365;  9.9992676E+03;  0.0000000E+00; -3.7291977E-03;  1.0000000E+04;  0.0000000E+00;  9.9953096E+03;-0.02379035;0.0;0.128094;744.7439
  1.2201935E+00;  9.9999998E-03; -1.8006085E-01;2896;0.11417391;0.0;-0.023389764;1001.5071;  4.0086460E-01;1076.3615;3;60.209892;0.0;-6.1082401;0;0.17877519;  9.9965430E+03;  0.0000000E+00; -1.0279698E+00;  1.0000000E+04;  0.0000000E+00;  9.9904063E+03;0.034618195;0.0;0.14415699;1923.2422
  1.2201718E+00;  9.9999998E-03; -1.6005032E-01;2897;0.10360131;0.0;-0.02038108;1001.6025;  4.0086457E-01;1144.5125;3;52.48724;0.0;-4.6689925;0;0.14469433;  9.9975693E+03;  0.0000000E+00; -1.2420796E+00;  1.0000000E+04;  0.0000000E+00;  9.9912832E+03;0.005379728;0.0;0.13931461;2093.5896
  1.2201490E+00;  9.9999998E-03; -1.4003950E-01;2898;0.092362709;0.0;-0.016811153;1001.6794;  4.0086448E-01;1199.4739;3;45.78141;0.0;-3.57741;0;0.12024797;  9.9982158E+03;  0.0000000E+00; -1.0710485E+00;  1.0000000E+04;  0.0000000E+00;  9.9921699E+03;-0.011925228;0.0;0.1321732;1830.4686
  1.2201284E+00;  9.9999998E-03; -1.2002945E-01;2899;0.08189027;0.0;-0.012932858;1001.7224;  4.0086454E-01;1230.1687;3;40.679382;0.0;-2.4016812;0;0.11110784;  9.9982959E+03;  0.0000000E+00; -7.7811557E-01;  1.0000000E+04;  0.0000000E+00;  9.9929453E+03;-0.01504004;0.0;0.12614788;1440.5071
  1.2201130E+00;  9.9999998E-03; -1.0002091E-01;2900;0.073505662;0.0;-0.0096772639;1001.7366;  4.0086463E-01;1240.3337;3;36.963531;0.0;-1.4248536;0;0.11537886;  9.9979443E+03;  0.0000000E+00; -4.9829021E-01;  1.0000000E+04;  0.0000000E+00;  9.9935762E+03;-0.0083396491;0.0;0.12371852;1095.6326
  1.2201034E+00;  9.9999998E-03; -8.0014594E-02;2901;0.067801006;0.0;-0.0074584987;1001.741;  4.0086451E-01;1243.5902;3;34.033012;0.0;-1.3186628;0;0.12498049;  9.9975234E+03;  0.0000000E+00; -2.7879918E-01;  1.0000000E+04;  0.0000000E+00;  9.9940879E+03;0.0012374774;0.0;0.12374301;855.68939
  1.2200975E+00;  9.9999998E-03; -6.0009915E-02;2902;0.064100474;0.0;-0.0056356038;1001.7493;  4.0086451E-01;1249.4781;3;31.876898;0.0;-1.3941283;0;0.13204047;  9.9972607E+03;  0.0000000E+00; -1.3073094E-01;  1.0000000E+04;  0.0000000E+00;  9.9945146E+03;0.0076250224;0.0;0.12441545;716.80273
  1.2200942E+00;  9.9999998E-03; -4.0006254E-02;2903;0.061834339;0.0;-0.0038674199;1001.761;  4.0086451E-01;1257.915;3;30.479664;0.0;-1.1815962;0;0.13551207;  9.9971592E+03;  0.0000000E+00; -4.7427129E-02;  1.0000000E+04;  0.0000000E+00;  9.9948545E+03;0.010373558;0.0;0.12513851;643.8692
  1.2200924E+00;  9.9999998E-03; -2.0003036E-02;2904;0.06058694;0.0;-0.0019804982;1001.7714;  4.0086448E-01;1265.3271;3;29.685312;0.0;-0.68346322;0;0.13662495;  9.9971396E+03;  0.0000000E+00; -9.9833654E-03;  1.0000000E+04;  0.0000000E+00;  9.9950771E+03;0.010989903;0.0;0.12563504;606.68359
  1.2401936E+00;  9.9999998E-03; -1.8006246E-01;2917;0.11245176;0.0;-0.022702415;1001.3382;  4.0082735E-01;920.52692;3;65.289909;0.0;-6.7030125;0;0.20281187;  9.9948047E+03;  0.0000000E+00; -7.0951204E-03;  1.0000000E+04;  0.0000000E+00;  9.9906318E+03;0.066927038;0.0;0.13588482;981.93365
  1.2401789E+00;  9.9999998E-03; -1.6005473E-01;2918;0.10464904;0.0;-0.020746954;1001.3762;  4.0082720E-01;946.6308;3;57.144127;0.0;-5.1185484;0;0.18891527;  9.9950205E+03;  0.0000000E+00; -7.9760832E-01;  1.0000000E+04;  0.0000000E+00;  9.9911719E+03;0.050544009;0.0;0.13837126;1280.0044
  1.2401623E+00;  9.9999998E-03; -1.4004602E-01;2919;0.095898829;0.0;-0.018536633;1001.4341;  4.0082729E-01;986.51703;3;50.019688;0.0;-4.0644665;0;0.17056775;  9.9954541E+03;  0.0000000E+00; -1.0423303E+00;  1.0000000E+04;  0.0000000E+00;  9.9918975E+03;0.03378563;0.0;0.13678212;1433.1683
  1.2401447E+00;  9.9999998E-03; -1.2003703E-01;2920;0.086964399;0.0;-0.015707325;1001.4936;  4.0082729E-01;1027.4736;3;43.80127;0.0;-3.2383139;0;0.15416829;  9.9959131E+03;  0.0000000E+00; -9.2366707E-01;  1.0000000E+04;  0.0000000E+00;  9.9926230E+03;0.022516066;0.0;0.13165222;1279.0979
  1.2401271E+00;  9.9999998E-03; -1.0002848E-01;2921;0.078263491;0.0;-0.012302238;1001.544;  4.0082732E-01;1062.2004;3;39.332737;0.0;-1.8563384;0;0.14271691;  9.9962969E+03;  0.0000000E+00; -6.5370256E-01;  1.0000000E+04;  0.0000000E+00;  9.9932490E+03;0.015932785;0.0;0.12678413;1005.8965
  1.2401124E+00;  9.9999998E-03; -8.0020577E-02;2922;0.070489116;0.0;-0.0091844723;1001.5726;  4.0082726E-01;1081.9152;3;35.805618;0.0;-0.97896057;0;0.13975132;  9.9963467E+03;  0.0000000E+00; -3.8852492E-01;  1.0000000E+04;  0.0000000E+00;  9.9937627E+03;0.014532335;0.0;0.12521897;767.00781
  1.2401025E+00;  9.9999998E-03; -6.0013641E-02;2923;0.065076903;0.0;-0.0064572152;1001.5818;  4.0082717E-01;1088.252;3;32.946251;0.0;-0.77679098;0;0.14590257;  9.9961182E+03;  0.0000000E+00; -1.9308043E-01;  1.0000000E+04;  0.0000000E+00;  9.9941738E+03;0.02013959;0.0;0.12576298;616.22766
  1.2400968E+00;  9.9999998E-03; -4.0008157E-02;2924;0.061861474;0.0;-0.0042056195;1001.5838;  4.0082717E-01;1089.6586;3;31.148056;0.0;-0.7961483;0;0.153868;  9.9958525E+03;  0.0000000E+00; -7.4715585E-02;  1.0000000E+04;  0.0000000E+00;  9.9944795E+03;0.026795728;0.0;0.12707227;539.08032
  1.2400941E+00;  9.9999998E-03; -2.0003781E-02;2925;0.060206674;0.0;-0.0020766754;1001.5853;  4.0082723E-01;1090.731;3;30.047983;0.0;-0.54092783;0;0.15919505;  9.9956777E+03;  0.0000000E+00; -1.6625373E-02;  1.0000000E+04;  0.0000000E+00;  9.9946826E+03;0.031194204;0.0;0.12800084;503.17184
  1.2601759E+00;  9.9999998E-03; -1.6005580E-01;2936;0.10162809;0.0;-0.019576292;1001.3099;  4.0080100E-01;863.20044;3;61.506702;0.0;-5.433434;0;0.17938279;  9.9948066E+03;  0.0000000E+00;  3.1150365E-01;  1.0000000E+04;  0.0000000E+00;  9.9913848E+03;0.055545382;0.0;0.1238374;770.73877
  1.2601659E+00;  9.9999998E-03; -1.4004982E-01;2937;0.095548406;0.0;-0.018323513;1001.2837;  4.0080091E-01;845.93677;3;54.514816;0.0;-4.2405996;0;0.19169417;  9.9939502E+03;  0.0000000E+00; -3.8268793E-01;  1.0000000E+04;  0.0000000E+00;  9.9917129E+03;0.06027608;0.0;0.13141809;741.29016
  1.2601551E+00;  9.9999998E-03; -1.2004283E-01;2938;0.088947386;0.0;-0.016778026;1001.2824;  4.0080085E-01;845.17206;3;47.977852;0.0;-3.298856;0;0.19515686;  9.9934375E+03;  0.0000000E+00; -6.6957951E-01;  1.0000000E+04;  0.0000000E+00;  9.9921982E+03;0.060337767;0.0;0.13481909;836.65918
  1.2601436E+00;  9.9999998E-03; -1.0003508E-01;2939;0.082525425;0.0;-0.014922138;1001.3003;  4.0080091E-01;856.97852;3;42.539894;0.0;-2.8802109;0;0.196777;  9.9932510E+03;  0.0000000E+00; -6.2500751E-01;  1.0000000E+04;  0.0000000E+00;  9.9927461E+03;0.061324611;0.0;0.13545239;763.70764
  1.2601329E+00;  9.9999998E-03; -8.0026686E-02;2940;0.076718234;0.0;-0.012356259;1001.326;  4.0080082E-01;873.8913;3;38.258595;0.0;-2.5887032;0;0.1971316;  9.9932354E+03;  0.0000000E+00; -4.2627311E-01;  1.0000000E+04;  0.0000000E+00;  9.9932734E+03;0.063128531;0.0;0.13400307;605.25079
  1.2601235E+00;  9.9999998E-03; -6.0018398E-02;2941;0.071484268;0.0;-0.0093023153;1001.3495;  4.0080091E-01;889.46613;3;34.5751;0.0;-2.5811431;0;0.19590001;  9.9932715E+03;  0.0000000E+00; -2.2468290E-01;  1.0000000E+04;  0.0000000E+00;  9.9937051E+03;0.062893137;0.0;0.13300687;475.85745
  1.2601171E+00;  9.9999998E-03; -4.0011078E-02;2942;0.067808539;0.0;-0.0059691668;1001.3625;  4.0080091E-01;898.04327;3;31.953159;0.0;-2.0704284;0;0.19810542;  9.9932178E+03;  0.0000000E+00; -8.8920690E-02;  1.0000000E+04;  0.0000000E+00;  9.9940156E+03;0.06501811;0.0;0.13308731;407.58868
  1.2601134E+00;  9.9999998E-03; -2.0005103E-02;2943;0.065817207;0.0;-0.0028278094;1001.3683;  4.0080085E-01;901.9007;3;30.736412;0.0;-1.0487583;0;0.20169085;  9.9931455E+03;  0.0000000E+00; -2.0029215E-02;  1.0000000E+04;  0.0000000E+00;  9.9942061E+03;0.067993276;0.0;0.13369757;378.57404
  1.2801533E+00;  9.9999998E-03; -1.2004565E-01;2953;0.086603791;0.0;-0.015919635;1001.2568;  4.0078264E-01;790.03687;3;52.040699;0.0;-3.2509727;0;0.1769201;  9.9942002E+03;  0.0000000E+00;  1.3902004E-01;  1.0000000E+04;  0.0000000E+00;  9.9918369E+03;0.049296085;0.0;0.12762402;530.34253
  1.2801472E+00;  9.9999998E-03; -1.0003963E-01;2954;0.081859119;0.0;-0.014943244;1001.2026;  4.0078259E-01;755.95276;3;46.458908;0.0;-2.6504617;0;0.20107347;  9.9928057E+03;  0.0000000E+00; -1.5504971E-01;  1.0000000E+04;  0.0000000E+00;  9.9921504E+03;0.063670583;0.0;0.13740288;464.84354
  1.2801412E+00;  9.9999998E-03; -8.0031320E-02;2955;0.077173069;0.0;-0.013157474;1001.1789;  4.0078250E-01;741.05133;3;41.314594;0.0;-2.6644769;0;0.21181647;  9.9917910E+03;  0.0000000E+00; -2.0969027E-01;  1.0000000E+04;  0.0000000E+00;  9.9926924E+03;0.070915699;0.0;0.14090078;401.7056
  1.2801374E+00;  9.9999998E-03; -6.0021728E-02;2956;0.073992476;0.0;-0.010302711;1001.1481;  4.0078256E-01;721.7243;3;36.940384;0.0;-3.2322366;0;0.23015383;  9.9906641E+03;  0.0000000E+00; -1.3924679E-01;  1.0000000E+04;  0.0000000E+00;  9.9932080E+03;0.089761093;0.0;0.14039274;313.46277
  1.2801349E+00;  9.9999998E-03; -4.0012911E-02;2957;0.072429761;0.0;-0.0064619565;1001.1215;  4.0078256E-01;704.94269;3;34.595215;0.0;-2.4450393;0;0.25374699;  9.9897998E+03;  0.0000000E+00; -5.9876800E-02;  1.0000000E+04;  0.0000000E+00;  9.9935430E+03;0.11404576;0.0;0.13970122;249.72203
  1.2801334E+00;  9.9999998E-03; -2.0005880E-02;2958;0.071633294;0.0;-0.0030028166;1001.1057;  4.0078253E-01;695.05353;3;33.721245;0.0;-1.1518452;0;0.26985943;  9.9892998E+03;  0.0000000E+00; -1.3888119E-02;  1.0000000E+04;  0.0000000E+00;  9.9937236E+03;0.12938747;0.0;0.14047195;217.49466
  1.3001369E+00;  9.9999998E-03; -8.0034524E-02;2966;0.074491017;0.0;-0.012525003;1001.2633;  4.0077001E-01;755.36444;3;45.342369;0.0;-2.3022804;0;0.16876896;  9.9947861E+03;  0.0000000E+00;  2.6783660E-01;  1.0000000E+04;  0.0000000E+00;  9.9919971E+03;0.025208859;0.0;0.1435601;439.94724
  1.3001347E+00;  9.9999998E-03; -6.0024735E-02;2967;0.071303427;0.0;-0.010282004;1001.2282;  4.0077010E-01;734.41199;3;41.195484;0.0;-2.4811046;0;0.17960691;  9.9934385E+03;  0.0000000E+00;  8.8516861E-02;  1.0000000E+04;  0.0000000E+00;  9.9926484E+03;0.032729253;0.0;0.14687766;330.15323
  1.3001339E+00;  9.9999998E-03; -4.0014740E-02;2968;0.06942264;0.0;-0.0068895561;1001.1829;  4.0077016E-01;707.32654;3;37.607986;0.0;-2.7238927;0;0.19625774;  9.9920977E+03;  0.0000000E+00;  2.0578764E-02;  1.0000000E+04;  0.0000000E+00;  9.9930850E+03;0.049596664;0.0;0.14666107;255.62759
  1.3001336E+00;  9.9999998E-03; -2.0006634E-02;2969;0.068859458;0.0;-0.0031769511;1001.1489;  4.0077010E-01;686.94049;3;36.483303;0.0;-1.3458955;0;0.21548942;  9.9912158E+03;  0.0000000E+00;  2.8633887E-03;  1.0000000E+04;  0.0000000E+00;  9.9932861E+03;0.068350881;0.0;0.14713854;215.87521
 -5.1292119E-07;  9.9999998E-03; -1.1443483E-14;1045;-0.00057645125;0.0;-1.7402876e-11;1000.0119;  4.0000001E-01;9.8762627;3;-0.56737769;0.0;-1.8440335e-07;0;-0.011607744;  1.0000243E+04;  0.0000000E+00;  1.9162413E-16;  1.0000000E+04;  0.0000000E+00;  9.9999980E+03;-0.011732589;0.0;0.00012484487;2.214556
 -5.1299594E-07;  9.9999998E-03;  2.0000003E-02;1046;-0.00057672348;0.0;2.265974e-06;1000.0119;  4.0000001E-01;9.8762627;3;-0.56780577;0.0;0.0017887338;0;-0.011607205;  1.0000243E+04;  0.0000000E+00;  9.2726055E-13;  1.0000000E+04;  0.0000000E+00;  9.9999980E+03;-0.011738615;0.0;0.00013140983;2.2639413
 -5.1316067E-07;  9.9999998E-03;  4.0000007E-02;1047;-0.0005774601;0.0;4.9236746e-06;1000.0119;  4.0000001E-01;9.8762627;3;-0.56900346;0.0;0.0039795227;0;-0.011604088;  1.0000243E+04;  0.0000000E+00; -1.1789065E-11;  1.0000000E+04;  0.0000000E+00;  9.9999971E+03;-0.011754993;0.0;0.00015090514;2.4104433
 -5.1323315E-07;  9.9999998E-03;  6.0000010E-02;1048;-0.00057843275;0.0;8.2947154e-06;1000.0119;  4.0000001E-01;9.8762627;3;-0.57071519;0.0;0.0069020484;0;-0.011593786;  1.0000242E+04;  0.0000000E+00; -3.3141004E-11;  1.0000000E+04;  0.0000000E+00;  9.9999961E+03;-0.011776472;0.0;0.00018268671;2.6488218
 -5.1287697E-07;  9.9999998E-03;  8.0000013E-02;1049;-0.00057920418;0.0;1.2826046e-05;1000.0118;  4.0000001E-01;9.7775002;3;-0.57245529;0.0;0.01098641;0;-0.01156836;  1.0000241E+04;  0.0000000E+00; -2.7398984E-11;  1.0000000E+04;  0.0000000E+00;  9.9999961E+03;-0.011793849;0.0;0.00022548868;2.9689751
 -5.1161953E-07;  9.9999998E-03;  1.0000002E-01;1050;-0.00057917211;0.0;1.869623e-05;1000.0117;  4.0000001E-01;9.6787367;3;-0.57356036;0.0;0.016453467;0;-0.011516249;  1.0000240E+04;  0.0000000E+00; -1.7845373E-11;  1.0000000E+04;  0.0000000E+00;  9.9999941E+03;-0.011793308;0.0;0.00027705892;3.3531053
 -5.0872666E-07;  9.9999998E-03;  1.2000003E-01;1051;-0.00057740486;0.0;2.6360829e-05;1000.0117;  4.0000001E-01;9.6787367;3;-0.57301688;0.0;0.023796976;0;-0.011422118;  1.0000239E+04;  0.0000000E+00; -6.3897533E-11;  1.0000000E+04;  0.0000000E+00;  9.9999941E+03;-0.01175568;0.0;0.00033356179;3.7707338
 -5.0329282E-07;  9.9999998E-03;  1.4000003E-01;1052;-0.00057275733;0.0;3.5958397e-05;1000.0114;  4.0000001E-01;9.4812117;3;-0.56957531;0.0;0.033237714;0;-0.01126695;  1.0000236E+04;  0.0000000E+00; -4.2777434E-10;  1.0000000E+04;  0.0000000E+00;  9.9999932E+03;-0.011655809;0.0;0.00038885939;4.1725669
  1.9999262E-02;  9.9999998E-03; -3.0026285E-14;1075;-0.00082102889;0.0;1.0305663e-11;1000.0146;  4.0000001E-01;12.04904;3;-0.75054657;0.0;2.6750911e-08;0;-0.01395319;  1.0000296E+04;  0.0000000E+00; -4.7755906E-17;  1.0000000E+04;  0.0000000E+00;  9.9999961E+03;-0.014123116;0.0;0.00016992522;2.9495459
  1.9999262E-02;  9.9999998E-03;  2.0000003E-02;1076;-0.0008215385;0.0;3.257755e-06;1000.0146;  4.0000001E-01;12.04904;3;-0.75125766;0.0;0.0022409954;0;-0.013953648;  1.0000296E+04;  0.0000000E+00; -9.7266821E-12;  1.0000000E+04;  0.0000000E+00;  9.9999961E+03;-0.014132487;0.0;0.00017883867;3.0179768
  1.9999262E-02;  9.9999998E-03;  4.0000007E-02;1077;-0.00082295627;0.0;7.0207184e-06;1000.0146;  4.0000001E-01;12.04904;3;-0.75327694;0.0;0.0049694772;0;-0.013953325;  1.0000296E+04;  0.0000000E+00; -2.0272900E-11;  1.0000000E+04;  0.0000000E+00;  9.9999961E+03;-0.014158634;0.0;0.00020530891;3.2210193
  1.9999260E-02;  9.9999998E-03;  6.0000014E-02;1078;-0.00082495809;0.0;1.1741015e-05;1000.0146;  4.0000001E-01;12.04904;3;-0.75625932;0.0;0.0086423382;0;-0.013947028;  1.0000296E+04;  0.0000000E+00; -1.4384095E-11;  1.0000000E+04;  0.0000000E+00;  9.9999951E+03;-0.014195478;0.0;0.00024845029;3.5514555
  1.9999260E-02;  9.9999998E-03;  8.0000021E-02;1079;-0.00082695129;0.0;1.7946255e-05;1000.0146;  4.0000001E-01;12.04904;3;-0.75959158;0.0;0.01373828;0;-0.013925775;  1.0000296E+04;  0.0000000E+00; -2.5440774E-11;  1.0000000E+04;  0.0000000E+00;  9.9999941E+03;-0.014232294;0.0;0.00030651898;3.9952536
  1.9999262E-02;  9.9999998E-03;  1.0000002E-01;1080;-0.00082806195;0.0;2.603197e-05;1000.0145;  4.0000001E-01;11.950277;3;-0.76234639;0.0;0.020694403;0;-0.01387643;  1.0000295E+04;  0.0000000E+00;  2.0088360E-11;  1.0000000E+04;  0.0000000E+00;  9.9999922E+03;-0.01425283;0.0;0.00037640039;4.5275135
  1.9999264E-02;  9.9999998E-03;  1.2000003E-01;1081;-0.00082701753;0.0;3.6378562e-05;1000.0143;  4.0000001E-01;11.851515;3;-0.76322389;0.0;0.029870607;0;-0.0137814;  1.0000294E+04;  0.0000000E+00; -2.0246377E-11;  1.0000000E+04;  0.0000000E+00;  9.9999912E+03;-0.014234239;0.0;0.00045283916;5.1059017
  1.9999271E-02;  9.9999998E-03;  1.4000005E-01;1082;-0.00082206848;0.0;4.955248e-05;1000.014;  4.0000001E-01;11.65399;3;-0.7604531;0.0;0.041908842;0;-0.01361851;  1.0000293E+04;  0.0000000E+00;  1.5190106E-10;  1.0000000E+04;  0.0000000E+00;  9.9999902E+03;-0.014146091;0.0;0.0005275812;5.6630826
  3.9998967E-02;  9.9999998E-03;  9.1850415E-15;1106;-0.0011360089;0.0;2.0565502e-11;1000.0172;  4.0000001E-01;14.221818;3;-0.97597885;0.0;5.9738909e-08;0;-0.016130913;  1.0000350E+04;  0.0000000E+00;  3.7937967E-17;  1.0000000E+04;  0.0000000E+00;  9.9999951E+03;-0.016342781;0.0;0.00021186798;3.6986456
  3.9998967E-02;  9.9999998E-03;  2.0000005E-02;1107;-0.0011368498;0.0;3.988745e-06;1000.0172;  4.0000001E-01;14.221818;3;-0.97704649;0.0;0.0023494875;0;-0.016133424;  1.0000350E+04;  0.0000000E+00; -2.2731237E-12;  1.0000000E+04;  0.0000000E+00;  9.9999951E+03;-0.016356444;0.0;0.0002230208;3.7866957
  3.9998967E-02;  9.9999998E-03;  4.0000010E-02;1108;-0.0011392254;0.0;8.5460943e-06;1000.0172;  4.0000001E-01;14.221818;3;-0.9801048;0.0;0.0052075274;0;-0.016139178;  1.0000351E+04;  0.0000000E+00; -6.4641070E-12;  1.0000000E+04;  0.0000000E+00;  9.9999951E+03;-0.016395316;0.0;0.00025613865;4.0479712
  3.9998963E-02;  9.9999998E-03;  6.0000017E-02;1109;-0.0011426926;0.0;1.4285055e-05;1000.0172;  4.0000001E-01;14.221818;3;-0.9847039;0.0;0.0092040095;0;-0.016142659;  1.0000351E+04;  0.0000000E+00; -1.0178810E-11;  1.0000000E+04;  0.0000000E+00;  9.9999932E+03;-0.016452754;0.0;0.00031009535;4.4731488
  3.9998963E-02;  9.9999998E-03;  8.0000021E-02;1110;-0.0011464702;0.0;2.172202e-05;1000.0172;  4.0000001E-01;14.221818;3;-0.99007368;0.0;0.014729267;0;-0.016134279;  1.0000352E+04;  0.0000000E+00;  7.2946553E-12;  1.0000000E+04;  0.0000000E+00;  9.9999922E+03;-0.016516954;0.0;0.00038267559;5.0440507
  3.9998963E-02;  9.9999998E-03;  1.0000003E-01;1111;-0.001149337;0.0;3.1507028e-05;1000.0172;  4.0000001E-01;14.221818;3;-0.99498129;0.0;0.022501945;0;-0.016099887;  1.0000353E+04;  0.0000000E+00;  8.8795006E-11;  1.0000000E+04;  0.0000000E+00;  9.9999893E+03;-0.016569821;0.0;0.00046993472;5.7284274
  3.9998967E-02;  9.9999998E-03;  1.2000004E-01;1112;-0.0011496261;0.0;4.3825308e-05;1000.017;  4.0000001E-01;14.024293;3;-0.99783492;0.0;0.032589912;0;-0.016020214;  1.0000351E+04;  0.0000000E+00;  2.3861341E-10;  1.0000000E+04;  0.0000000E+00;  9.9999893E+03;-0.016585503;0.0;0.00056528882;6.4720325
  3.9998975E-02;  9.9999998E-03;  1.4000006E-01;1113;-0.0011449159;0.0;5.9412174e-05;1000.0168;  4.0000001E-01;13.92553;3;-0.99629557;0.0;0.045779273;0;-0.015870346;  1.0000350E+04;  0.0000000E+00;  4.0499787E-10;  1.0000000E+04;  0.0000000E+00;  9.9999863E+03;-0.016528968;0.0;0.00065862248;7.1903524
  5.9998617E-02;  9.9999998E-03; -6.5814487E-14;1137;-0.0015040139;0.0;-3.2272279e-11;1000.0201;  4.0000001E-01;16.690884;3;-1.2320333;0.0;-1.4702425e-07;0;-0.018412318;  1.0000408E+04;  0.0000000E+00;  6.8646437E-18;  1.0000000E+04;  0.0000000E+00;  9.9999941E+03;-0.018660411;0.0;0.0002480933;4.4620476
  5.9998617E-02;  9.9999998E-03;  2.0000005E-02;1138;-0.0015052885;0.0;4.3819773e-06;1000.0201;  4.0000001E-01;16.690884;3;-1.2335327;0.0;0.0021005739;0;-0.018418144;  1.0000408E+04;  0.0000000E+00; -7.7646622E-12;  1.0000000E+04;  0.0000000E+00;  9.9999941E+03;-0.018679416;0.0;0.00026127059;4.570075
  5.9998613E-02;  9.9999998E-03;  4.0000010E-02;1139;-0.0015089237;0.0;9.3975996e-06;1000.0201;  4.0000001E-01;16.690884;3;-1.2378383;0.0;0.0047805784;0;-0.0184338;  1.0000410E+04;  0.0000000E+00; -9.4829179E-12;  1.0000000E+04;  0.0000000E+00;  9.9999932E+03;-0.018734187;0.0;0.00030038678;4.890564
  5.9998609E-02;  9.9999998E-03;  6.0000021E-02;1140;-0.0015143519;0.0;1.5740015e-05;1000.0201;  4.0000001E-01;16.690884;3;-1.2444052;0.0;0.008620197;0;-0.018453656;  1.0000410E+04;  0.0000000E+00; -8.5312200E-12;  1.0000000E+04;  0.0000000E+00;  9.9999912E+03;-0.018817727;0.0;0.00036407111;5.4118009
  5.9998609E-02;  9.9999998E-03;  8.0000028E-02;1141;-0.0015205794;0.0;2.3978931e-05;1000.0201;  4.0000001E-01;16.690884;3;-1.2522748;0.0;0.014180942;0;-0.01846781;  1.0000411E+04;  0.0000000E+00;  8.8756624E-12;  1.0000000E+04;  0.0000000E+00;  9.9999902E+03;-0.018917453;0.0;0.00044964248;6.1110721
  5.9998605E-02;  9.9999998E-03;  1.0000004E-01;1142;-0.0015260448;0.0;3.4806737e-05;1000.0201;  4.0000001E-01;16.690884;3;-1.2599776;0.0;0.021987552;0;-0.018461399;  1.0000412E+04;  0.0000000E+00;  8.1724828E-11;  1.0000000E+04;  0.0000000E+00;  9.9999883E+03;-0.0190138;0.0;0.00055240106;6.9485803
  5.9998609E-02;  9.9999998E-03;  1.2000005E-01;1143;-0.0015285588;0.0;4.8598104e-05;1000.02;  4.0000001E-01;16.493359;3;-1.2654471;0.0;0.032529656;0;-0.018413728;  1.0000413E+04;  0.0000000E+00;  2.0514140E-10;  1.0000000E+04;  0.0000000E+00;  9.9999854E+03;-0.019078352;0.0;0.00066462363;7.8585396
  5.9998617E-02;  9.9999998E-03;  1.4000008E-01;1144;-0.0015250394;0.0;6.5846245e-05;1000.0198;  4.0000001E-01;16.394596;3;-1.2658972;0.0;0.046096642;0;-0.018297099;  1.0000413E+04;  0.0000000E+00;  5.4878546E-10;  1.0000000E+04;  0.0000000E+00;  9.9999834E+03;-0.019071855;0.0;0.00077475584;8.7409821
  7.9998203E-02;  9.9999998E-03; -5.1760954E-14;1168;-0.001920833;0.0;1.6196243e-10;1000.0236;  4.0000001E-01;19.555;3;-1.519618;0.0;8.6498756e-07;0;-0.021055989;  1.0000483E+04;  0.0000000E+00;  4.1482919E-17;  1.0000000E+04;  0.0000000E+00;  9.9999922E+03;-0.021336239;0.0;0.00028024896;5.2728105
  7.9998203E-02;  9.9999998E-03;  2.0000007E-02;1169;-0.0019226593;0.0;4.4878025e-06;1000.0236;  4.0000001E-01;19.555;3;-1.5216259;0.0;0.0016342616;0;-0.021066459;  1.0000483E+04;  0.0000000E+00; -9.3599373E-12;  1.0000000E+04;  0.0000000E+00;  9.9999922E+03;-0.021361753;0.0;0.00029529471;5.4023466
  7.9998203E-02;  9.9999998E-03;  4.0000014E-02;1170;-0.0019279106;0.0;9.6801505e-06;1000.0236;  4.0000001E-01;19.555;3;-1.527433;0.0;0.0038880366;0;-0.021096073;  1.0000483E+04;  0.0000000E+00; -2.1796174E-11;  1.0000000E+04;  0.0000000E+00;  9.9999912E+03;-0.021435997;0.0;0.00033992293;5.786397
  7.9998195E-02;  9.9999998E-03;  6.0000021E-02;1171;-0.0019359019;0.0;1.6266047e-05;1000.0236;  4.0000001E-01;19.555;3;-1.5364051;0.0;0.0072823795;0;-0.021139197;  1.0000485E+04;  0.0000000E+00; -2.6979944E-11;  1.0000000E+04;  0.0000000E+00;  9.9999902E+03;-0.021551671;0.0;0.00041247421;6.410171
  7.9998188E-02;  9.9999998E-03;  8.0000028E-02;1172;-0.001945405;0.0;2.4973884e-05;1000.0236;  4.0000001E-01;19.555;3;-1.5473795;0.0;0.012549714;0;-0.021185789;  1.0000487E+04;  0.0000000E+00; -3.2640998E-11;  1.0000000E+04;  0.0000000E+00;  9.9999873E+03;-0.021695545;0.0;0.00050975644;7.2454181
  7.9998188E-02;  9.9999998E-03;  1.0000005E-01;1173;-0.0019545348;0.0;3.6399098e-05;1000.0236;  4.0000001E-01;19.555;3;-1.5586483;0.0;0.020033944;0;-0.021220481;  1.0000491E+04;  0.0000000E+00;  2.6680489E-11;  1.0000000E+04;  0.0000000E+00;  9.9999863E+03;-0.021846803;0.0;0.00062632217;8.2438307
  7.9998188E-02;  9.9999998E-03;  1.2000006E-01;1174;-0.001960533;0.0;5.1220268e-05;1000.0235;  4.0000001E-01;19.456238;3;-1.5676813;0.0;0.030538427;0;-0.021221152;  1.0000491E+04;  0.0000000E+00;  2.5593397E-10;  1.0000000E+04;  0.0000000E+00;  9.9999834E+03;-0.021974619;0.0;0.00075346843;9.3277693
  7.9998195E-02;  9.9999998E-03;  1.4000008E-01;1175;-0.0019596287;0.0;6.9608788e-05;1000.0235;  4.0000001E-01;19.456238;3;-1.5711976;0.0;0.043952189;0;-0.021156853;  1.0000491E+04;  0.0000000E+00;  5.6629229E-10;  1.0000000E+04;  0.0000000E+00;  9.9999814E+03;-0.022035537;0.0;0.00087868475;10.383476
  9.9997722E-02;  9.9999998E-03; -3.7582330E-14;1199;-0.0023925414;0.0;-1.7738047e-10;1000.0281;  4.0000001E-01;23.30798;3;-1.8435508;0.0;-3.5144944e-07;0;-0.024259133;  1.0000570E+04;  0.0000000E+00;  1.3874854E-16;  1.0000000E+04;  0.0000000E+00;  9.9999912E+03;-0.024573496;0.0;0.00031436319;6.1926193
  9.9997722E-02;  9.9999998E-03;  2.0000007E-02;1200;-0.0023950632;0.0;4.4638873e-06;1000.0281;  4.0000001E-01;23.30798;3;-1.8461746;0.0;0.0011197365;0;-0.024275571;  1.0000571E+04;  0.0000000E+00; -7.1471058E-12;  1.0000000E+04;  0.0000000E+00;  9.9999912E+03;-0.02460691;0.0;0.00033133928;6.347815
  9.9997714E-02;  9.9999998E-03;  4.0000014E-02;1201;-0.0024023659;0.0;9.6793892e-06;1000.0281;  4.0000001E-01;23.30798;3;-1.8538085;0.0;0.0028217828;0;-0.024323123;  1.0000572E+04;  0.0000000E+00; -3.7889913E-11;  1.0000000E+04;  0.0000000E+00;  9.9999893E+03;-0.024704747;0.0;0.00038162517;6.8074341
  9.9997707E-02;  9.9999998E-03;  6.0000025E-02;1202;-0.0024136428;0.0;1.6376387e-05;1000.0281;  4.0000001E-01;23.30798;3;-1.8657136;0.0;0.00572372;0;-0.024396311;  1.0000574E+04;  0.0000000E+00; -3.5344522E-11;  1.0000000E+04;  0.0000000E+00;  9.9999873E+03;-0.024859466;0.0;0.00046315344;7.552278
  9.9997699E-02;  9.9999998E-03;  8.0000035E-02;1203;-0.0024274483;0.0;2.5351605e-05;1000.0283;  4.0000001E-01;23.406742;3;-1.8805712;0.0;0.010417155;0;-0.024485113;  1.0000577E+04;  0.0000000E+00; -5.1836074E-11;  1.0000000E+04;  0.0000000E+00;  9.9999863E+03;-0.025057171;0.0;0.00057205657;8.5464487
  9.9997692E-02;  9.9999998E-03;  1.0000005E-01;1204;-0.0024415606;0.0;3.7218921e-05;1000.0283;  4.0000001E-01;23.505505;3;-1.8963616;0.0;0.017503735;0;-0.024573782;  1.0000581E+04;  0.0000000E+00; -1.1506965E-11;  1.0000000E+04;  0.0000000E+00;  9.9999834E+03;-0.025275752;0.0;0.00070196897;9.7304621
  9.9997692E-02;  9.9999998E-03;  1.2000006E-01;1205;-0.0024526785;0.0;5.279214e-05;1000.0282;  4.0000001E-01;23.406742;3;-1.9102114;0.0;0.02748091;0;-0.024638796;  1.0000585E+04;  0.0000000E+00;  1.2008405E-10;  1.0000000E+04;  0.0000000E+00;  9.9999785E+03;-0.025481973;0.0;0.00084317644;11.012523
  9.9997692E-02;  9.9999998E-03;  1.4000009E-01;1206;-0.0024562557;0.0;7.2152201e-05;1000.0281;  4.0000001E-01;23.30798;3;-1.9181583;0.0;0.040639572;0;-0.024645632;  1.0000586E+04;  0.0000000E+00;  4.5706006E-10;  1.0000000E+04;  0.0000000E+00;  9.9999775E+03;-0.025628109;0.0;0.0009824757;12.264427
  1.1999715E-01;  9.9999998E-03; -6.0812276E-14;1230;-0.0029329222;0.0;-1.7289678e-10;1000.0334;  4.0000001E-01;27.653534;3;-2.2094736;0.0;-9.6560439e-07;0;-0.028142622;  1.0000680E+04;  0.0000000E+00; -3.8089153E-17;  1.0000000E+04;  0.0000000E+00;  9.9999893E+03;-0.028502701;0.0;0.00036007984;7.3025336
  1.1999715E-01;  9.9999998E-03;  2.0000007E-02;1231;-0.0029363143;0.0;4.5471484e-06;1000.0334;  4.0000001E-01;27.752296;3;-2.2128415;0.0;0.00079793873;0;-0.028166246;  1.0000682E+04;  0.0000000E+00; -2.6337420E-11;  1.0000000E+04;  0.0000000E+00;  9.9999893E+03;-0.028545657;0.0;0.00037941188;7.4916191
  1.1999714E-01;  9.9999998E-03;  4.0000018E-02;1232;-0.0029461945;0.0;9.8999144e-06;1000.0335;  4.0000001E-01;27.752296;3;-2.2226813;0.0;0.0021595047;0;-0.028235449;  1.0000683E+04;  0.0000000E+00;  4.6494297E-13;  1.0000000E+04;  0.0000000E+00;  9.9999883E+03;-0.028672004;0.0;0.00043655612;8.0507889
  1.1999713E-01;  9.9999998E-03;  6.0000025E-02;1233;-0.0029616347;0.0;1.6840286e-05;1000.0335;  4.0000001E-01;27.752296;3;-2.2381468;0.0;0.0047065415;0;-0.028344991;  1.0000686E+04;  0.0000000E+00; -7.6017199E-11;  1.0000000E+04;  0.0000000E+00;  9.9999873E+03;-0.028873812;0.0;0.00052882131;8.9543142
  1.1999712E-01;  9.9999998E-03;  8.0000035E-02;1234;-0.0029809913;0.0;2.6178825e-05;1000.0337;  4.0000001E-01;27.949823;3;-2.257772;0.0;0.0089686345;0;-0.028485207;  1.0000690E+04;  0.0000000E+00; -5.4115885E-11;  1.0000000E+04;  0.0000000E+00;  9.9999824E+03;-0.029136525;0.0;0.00065131794;10.15501
  1.1999711E-01;  9.9999998E-03;  1.0000005E-01;1235;-0.0030016901;0.0;3.8696577e-05;1000.0338;  4.0000001E-01;27.949823;3;-2.2792528;0.0;0.015718542;0;-0.028640263;  1.0000695E+04;  0.0000000E+00; -1.5439549E-11;  1.0000000E+04;  0.0000000E+00;  9.9999795E+03;-0.029436585;0.0;0.00079632254;11.577211
  1.1999710E-01;  9.9999998E-03;  1.2000007E-01;1236;-0.003019932;0.0;5.5066441e-05;1000.0339;  4.0000001E-01;28.048586;3;-2.2993562;0.0;0.025174294;0;-0.028785525;  1.0000701E+04;  0.0000000E+00;  1.3382168E-10;  1.0000000E+04;  0.0000000E+00;  9.9999775E+03;-0.029738249;0.0;0.0009527239;13.109379
  1.1999710E-01;  9.9999998E-03;  1.4000009E-01;1237;-0.0030302983;0.0;7.5605749e-05;1000.0339;  4.0000001E-01;28.048586;3;-2.3134358;0.0;0.037946373;0;-0.028883066;  1.0000705E+04;  0.0000000E+00;  4.3441806E-10;  1.0000000E+04;  0.0000000E+00;  9.9999727E+03;-0.029989587;0.0;0.0011065206;14.605039
  1.3999647E-01;  9.9999998E-03; -7.1953267E-14;1261;-0.0035595966;0.0;2.0916938e-10;1000.04;  4.0000001E-01;33.184242;3;-2.6230643;0.0;1.75318e-06;0;-0.032768644;  1.0000813E+04;  0.0000000E+00;  3.9164507E-17;  1.0000000E+04;  0.0000000E+00;  9.9999873E+03;-0.03319807;0.0;0.0004294262;8.6930056
  1.3999647E-01;  9.9999998E-03;  2.0000009E-02;1262;-0.0035640718;0.0;5.0376048e-06;1000.0402;  4.0000001E-01;33.283005;3;-2.6273201;0.0;0.00099544961;0;-0.03280044;  1.0000815E+04;  0.0000000E+00;  1.0452701E-11;  1.0000000E+04;  0.0000000E+00;  9.9999873E+03;-0.033252474;0.0;0.00045203484;8.9297266
  1.3999645E-01;  9.9999998E-03;  4.0000018E-02;1263;-0.0035771669;0.0;1.0959105e-05;1000.0402;  4.0000001E-01;33.283005;3;-2.6397893;0.0;0.0025419618;0;-0.032894388;  1.0000816E+04;  0.0000000E+00; -5.8821052E-11;  1.0000000E+04;  0.0000000E+00;  9.9999854E+03;-0.033413075;0.0;0.00051868841;9.6287527
  1.3999644E-01;  9.9999998E-03;  6.0000032E-02;1264;-0.0035978416;0.0;1.8630806e-05;1000.0403;  4.0000001E-01;33.381767;3;-2.6595354;0.0;0.0052376832;0;-0.033045739;  1.0000822E+04;  0.0000000E+00; -5.4270081E-11;  1.0000000E+04;  0.0000000E+00;  9.9999834E+03;-0.033671483;0.0;0.00062574324;10.754921
  1.3999642E-01;  9.9999998E-03;  8.0000043E-02;1265;-0.0036242479;0.0;2.890295e-05;1000.0404;  4.0000001E-01;33.48053;3;-2.6849229;0.0;0.0096057309;0;-0.033245452;  1.0000827E+04;  0.0000000E+00; -1.0247650E-10;  1.0000000E+04;  0.0000000E+00;  9.9999795E+03;-0.034012184;0.0;0.00076673046;12.244556
  1.3999641E-01;  9.9999998E-03;  1.0000006E-01;1266;-0.0036534728;0.0;4.2690041e-05;1000.0405;  4.0000001E-01;33.579292;3;-2.7134113;0.0;0.016464213;0;-0.033478282;  1.0000835E+04;  0.0000000E+00; -1.5848046E-10;  1.0000000E+04;  0.0000000E+00;  9.9999756E+03;-0.034410138;0.0;0.0009318536;13.998588
  1.3999639E-01;  9.9999998E-03;  1.2000009E-01;1267;-0.0036812052;0.0;6.0475108e-05;1000.0406;  4.0000001E-01;33.678055;3;-2.7413852;0.0;0.025757648;0;-0.033719275;  1.0000841E+04;  0.0000000E+00;  1.4865235E-10;  1.0000000E+04;  0.0000000E+00;  9.9999717E+03;-0.03482715;0.0;0.0011078754;15.877569
  1.3999638E-01;  9.9999998E-03;  1.4000010E-01;1268;-0.0037011465;0.0;8.2793675e-05;1000.0407;  4.0000001E-01;33.776817;3;-2.7635374;0.0;0.03837847;0;-0.033927489;  1.0000848E+04;  0.0000000E+00;  2.7237226E-10;  1.0000000E+04;  0.0000000E+00;  9.9999678E+03;-0.035207245;0.0;0.0012797548;17.712519
  1.5999565E-01;  9.9999998E-03; -1.0573392E-13;1292;-0.0042904974;0.0;2.0773575e-10;1000.048;  4.0000001E-01;39.801338;3;-3.0901814;0.0;2.785398e-07;0;-0.038185779;  1.0000975E+04;  0.0000000E+00;  6.0016989E-17;  1.0000000E+04;  0.0000000E+00;  9.9999854E+03;-0.038721152;0.0;0.00053537381;10.455351
  1.5999565E-01;  9.9999998E-03;  2.0000011E-02;1293;-0.0042963163;0.0;6.2764825e-06;1000.048;  4.0000001E-01;39.801338;3;-3.0954874;0.0;0.002129178;0;-0.038226459;  1.0000976E+04;  0.0000000E+00;  3.2639818E-11;  1.0000000E+04;  0.0000000E+00;  9.9999844E+03;-0.038789254;0.0;0.00056279369;10.760352
  1.5999563E-01;  9.9999998E-03;  4.0000021E-02;1294;-0.0043134033;0.0;1.3566298e-05;1000.0482;  4.0000001E-01;39.900101;3;-3.111068;0.0;0.0047921301;0;-0.038347371;  1.0000979E+04;  0.0000000E+00;  5.3661121E-11;  1.0000000E+04;  0.0000000E+00;  9.9999834E+03;-0.038990803;0.0;0.00064343191;11.660174
  1.5999562E-01;  9.9999998E-03;  6.0000036E-02;1295;-0.004340603;0.0;2.2877934e-05;1000.0482;  4.0000001E-01;39.900101;3;-3.135891;0.0;0.0086147413;0;-0.038544483;  1.0000986E+04;  0.0000000E+00; -1.3400167E-10;  1.0000000E+04;  0.0000000E+00;  9.9999785E+03;-0.039316755;0.0;0.00077227305;13.106891
  1.5999559E-01;  9.9999998E-03;  8.0000050E-02;1296;-0.0043758624;0.0;3.5159304e-05;1000.0486;  4.0000001E-01;40.295151;3;-3.1681631;0.0;0.014065557;0;-0.03880997;  1.0000994E+04;  0.0000000E+00; -1.5929880E-10;  1.0000000E+04;  0.0000000E+00;  9.9999746E+03;-0.039750546;0.0;0.00094057806;15.014561
  1.5999556E-01;  9.9999998E-03;  1.0000008E-01;1297;-0.0044159186;0.0;5.1419291e-05;1000.0488;  4.0000001E-01;40.393913;3;-3.2050781;0.0;0.021996563;0;-0.039129913;  1.0001005E+04;  0.0000000E+00; -1.9839647E-10;  1.0000000E+04;  0.0000000E+00;  9.9999717E+03;-0.04026553;0.0;0.0011356178;17.253038
  1.5999553E-01;  9.9999998E-03;  1.2000010E-01;1298;-0.0044559222;0.0;7.1992603e-05;1000.0491;  4.0000001E-01;40.690201;3;-3.2426591;0.0;0.032070477;0;-0.039479867;  1.0001015E+04;  0.0000000E+00;  6.2641052E-11;  1.0000000E+04;  0.0000000E+00;  9.9999648E+03;-0.040821172;0.0;0.0013413039;19.648172
  1.5999551E-01;  9.9999998E-03;  1.4000013E-01;1299;-0.0044886717;0.0;9.742174e-05;1000.0493;  4.0000001E-01;40.788963;3;-3.2749763;0.0;0.045241702;0;-0.039816678;  1.0001024E+04;  0.0000000E+00;  8.8342800E-10;  1.0000000E+04;  0.0000000E+00;  9.9999600E+03;-0.041358534;0.0;0.0015418568;22.011322
  1.7999466E-01;  9.9999998E-03;  1.1765626E-14;1323;-0.0051429477;0.0;-1.9164913e-10;1000.0573;  4.0000001E-01;47.504822;3;-3.6168966;0.0;-9.0579169e-07;0;-0.044475485;  1.0001163E+04;  0.0000000E+00;  2.1054405E-16;  1.0000000E+04;  0.0000000E+00;  9.9999805E+03;-0.045165822;0.0;0.00069033878;12.674564
  1.7999466E-01;  9.9999998E-03;  2.0000013E-02;1324;-0.0051504215;0.0;8.5975234e-06;1000.0574;  4.0000001E-01;47.603584;3;-3.6234231;0.0;0.0046224762;0;-0.044525448;  1.0001167E+04;  0.0000000E+00;  7.0505213E-11;  1.0000000E+04;  0.0000000E+00;  9.9999805E+03;-0.045250285;0.0;0.00072483777;13.076662
  1.7999464E-01;  9.9999998E-03;  4.0000029E-02;1325;-0.0051724291;0.0;1.8441184e-05;1000.0575;  4.0000001E-01;47.603584;3;-3.6426334;0.0;0.0097968634;0;-0.044674434;  1.0001172E+04;  0.0000000E+00;  1.9965751E-10;  1.0000000E+04;  0.0000000E+00;  9.9999785E+03;-0.045500565;0.0;0.00082613289;14.262908
  1.7999461E-01;  9.9999998E-03;  6.0000043E-02;1326;-0.0052076993;0.0;3.072805e-05;1000.0577;  4.0000001E-01;47.801109;3;-3.6733949;0.0;0.016192893;0;-0.044919513;  1.0001182E+04;  0.0000000E+00; -4.9208013E-11;  1.0000000E+04;  0.0000000E+00;  9.9999736E+03;-0.045906939;0.0;0.00098742405;16.169983
  1.7999458E-01;  9.9999998E-03;  8.0000065E-02;1327;-0.0052539487;0.0;4.6653917e-05;1000.058;  4.0000001E-01;48.097397;3;-3.7137527;0.0;0.024248891;0;-0.045254409;  1.0001192E+04;  0.0000000E+00; -1.6131201E-10;  1.0000000E+04;  0.0000000E+00;  9.9999658E+03;-0.046451453;0.0;0.0011970453;18.685438
  1.7999454E-01;  9.9999998E-03;  1.0000009E-01;1328;-0.0053075529;0.0;6.7269204e-05;1000.0584;  4.0000001E-01;48.393684;3;-3.7606192;0.0;0.034810841;0;-0.045667175;  1.0001205E+04;  0.0000000E+00; -3.5787026E-10;  1.0000000E+04;  0.0000000E+00;  9.9999609E+03;-0.047105823;0.0;0.0014386491;21.64361
  1.7999449E-01;  9.9999998E-03;  1.2000012E-01;1329;-0.0053630471;0.0;9.2941635e-05;1000.0587;  4.0000001E-01;48.689972;3;-3.8096099;0.0;0.047366578;0;-0.046134513;  1.0001219E+04;  0.0000000E+00;  1.6547494E-10;  1.0000000E+04;  0.0000000E+00;  9.9999531E+03;-0.047827646;0.0;0.0016931336;24.83651
  1.7999446E-01;  9.9999998E-03;  1.4000016E-01;1330;-0.0054122722;0.0;0.00012400723;1000.0591;  4.0000001E-01;48.986263;3;-3.8541677;0.0;0.062784031;0;-0.046610739;  1.0001232E+04;  0.0000000E+00;  1.4984370E-09;  1.0000000E+04;  0.0000000E+00;  9.9999482E+03;-0.048556369;0.0;0.0019456305;28.075121
  1.9999348E-01;  9.9999998E-03;  2.6820638E-13;1354;-0.0061359606;0.0;2.6007022e-10;1000.0687;  4.0000001E-01;56.887272;3;-4.2099557;0.0;-1.7902053e-06;0;-0.051741041;  1.0001396E+04;  0.0000000E+00;  5.2596729E-17;  1.0000000E+04;  0.0000000E+00;  9.9999775E+03;-0.052645616;0.0;0.00090457569;15.41908
  1.9999348E-01;  9.9999998E-03;  2.0000016E-02;1355;-0.0061454587;0.0;1.2288805e-05;1000.0687;  4.0000001E-01;56.986034;3;-4.2178798;0.0;0.0088837082;0;-0.05180027;  1.0001396E+04;  0.0000000E+00; -1.9391740E-11;  1.0000000E+04;  0.0000000E+00;  9.9999766E+03;-0.052749537;0.0;0.00094926683;15.956205
  1.9999345E-01;  9.9999998E-03;  4.0000033E-02;1356;-0.006173491;0.0;2.6184081e-05;1000.0689;  4.0000001E-01;57.084797;3;-4.2412548;0.0;0.018423166;0;-0.051977314;  1.0001404E+04;  0.0000000E+00;  1.5654034E-10;  1.0000000E+04;  0.0000000E+00;  9.9999717E+03;-0.053057767;0.0;0.001080452;17.542492
  1.9999342E-01;  9.9999998E-03;  6.0000055E-02;1357;-0.006218662;0.0;4.3204287e-05;1000.0692;  4.0000001E-01;57.381084;3;-4.2788386;0.0;0.029263673;0;-0.052270461;  1.0001417E+04;  0.0000000E+00; -2.7647119E-11;  1.0000000E+04;  0.0000000E+00;  9.9999658E+03;-0.053559713;0.0;0.0012892535;20.09889
  1.9999337E-01;  9.9999998E-03;  8.0000080E-02;1358;-0.0062784166;0.0;6.4998821e-05;1000.0695;  4.0000001E-01;57.578609;3;-4.3284907;0.0;0.042072579;0;-0.052675251;  1.0001433E+04;  0.0000000E+00; -3.3503231E-10;  1.0000000E+04;  0.0000000E+00;  9.9999600E+03;-0.054235943;0.0;0.0015606908;23.486538
  1.9999331E-01;  9.9999998E-03;  1.0000012E-01;1359;-0.006348724;0.0;9.2617018e-05;1000.0699;  4.0000001E-01;57.97366;3;-4.3868537;0.0;0.057464819;0;-0.053181782;  1.0001448E+04;  0.0000000E+00; -5.1858901E-10;  1.0000000E+04;  0.0000000E+00;  9.9999512E+03;-0.055056382;0.0;0.001874598;27.507257
  1.9999325E-01;  9.9999998E-03;  1.2000016E-01;1360;-0.0064233956;0.0;0.00012678702;1000.0706;  4.0000001E-01;58.467472;3;-4.4490628;0.0;0.075038128;0;-0.053767521;  1.0001468E+04;  0.0000000E+00; -2.0662702E-11;  1.0000000E+04;  0.0000000E+00;  9.9999404E+03;-0.055977196;0.0;0.0022096755;31.933081
  1.9999321E-01;  9.9999998E-03;  1.4000021E-01;1361;-0.0064932811;0.0;0.00016726463;1000.0709;  4.0000001E-01;58.664997;3;-4.507926;0.0;0.095379181;0;-0.054382477;  1.0001487E+04;  0.0000000E+00;  1.6281135E-09;  1.0000000E+04;  0.0000000E+00;  9.9999307E+03;-0.056937542;0.0;0.0025550646;36.612888
  2.1999207E-01;  9.9999998E-03; -4.2614287E-13;1385;-0.0072914427;0.0;-3.8831272e-10;1000.082;  4.0000001E-01;67.948685;3;-4.8772502;0.0;4.7722688e-07;0;-0.060092948;  1.0001668E+04;  0.0000000E+00; -3.1456858E-16;  1.0000000E+04;  0.0000000E+00;  9.9999717E+03;-0.061277546;0.0;0.0011845957;18.73267
  2.1999206E-01;  9.9999998E-03;  2.0000020E-02;1386;-0.0073033967;0.0;1.7530345e-05;1000.082;  4.0000001E-01;67.948685;3;-4.8867497;0.0;0.015269837;0;-0.060161013;  1.0001671E+04;  0.0000000E+00;  1.0505941E-10;  1.0000000E+04;  0.0000000E+00;  9.9999707E+03;-0.061404526;0.0;0.0012435116;19.452101
  2.1999203E-01;  9.9999998E-03;  4.0000044E-02;1387;-0.0073387665;0.0;3.716243e-05;1000.0821;  4.0000001E-01;68.047447;3;-4.9148297;0.0;0.03135043;0;-0.060365126;  1.0001679E+04;  0.0000000E+00;  1.9783691E-10;  1.0000000E+04;  0.0000000E+00;  9.9999648E+03;-0.06178176;0.0;0.0014166357;21.581316
  2.1999198E-01;  9.9999998E-03;  6.0000069E-02;1388;-0.0073959846;0.0;6.1099367e-05;1000.0825;  4.0000001E-01;68.343735;3;-4.9601159;0.0;0.049067274;0;-0.060704459;  1.0001693E+04;  0.0000000E+00;  1.1891763E-10;  1.0000000E+04;  0.0000000E+00;  9.9999590E+03;-0.062397372;0.0;0.0016929142;25.028959
  2.1999191E-01;  9.9999998E-03;  8.0000110E-02;1389;-0.0074721999;0.0;9.1355214e-05;1000.0828;  4.0000001E-01;68.640022;3;-5.0202489;0.0;0.069287576;0;-0.061176304;  1.0001711E+04;  0.0000000E+00; -3.5446335E-10;  1.0000000E+04;  0.0000000E+00;  9.9999482E+03;-0.06323038;0.0;0.0020540759;29.636646
  2.1999183E-01;  9.9999998E-03;  1.0000015E-01;1390;-0.0075628669;0.0;0.00012936699;1000.0834;  4.0000001E-01;69.035072;3;-5.0916133;0.0;0.092212878;0;-0.061772063;  1.0001734E+04;  0.0000000E+00; -8.6448776E-10;  1.0000000E+04;  0.0000000E+00;  9.9999365E+03;-0.064248636;0.0;0.0024765739;35.186741
  2.1999176E-01;  9.9999998E-03;  1.2000021E-01;1391;-0.0076609491;0.0;0.00017645113;1000.084;  4.0000001E-01;69.627647;3;-5.1688204;0.0;0.11814363;0;-0.062468573;  1.0001761E+04;  0.0000000E+00; -3.4190681E-10;  1.0000000E+04;  0.0000000E+00;  9.9999199E+03;-0.06540703;0.0;0.0029384552;41.457478
  2.1999168E-01;  9.9999998E-03;  1.4000028E-01;1392;-0.0077563138;0.0;0.00023096791;1000.0847;  4.0000001E-01;70.12146;3;-5.2440515;0.0;0.14624028;0;-0.063208826;  1.0001789E+04;  0.0000000E+00;  2.0251825E-09;  1.0000000E+04;  0.0000000E+00;  9.9999082E+03;-0.066645168;0.0;0.0034363435;48.385101
  2.3999037E-01;  9.9999998E-03; -7.0056195E-13;1416;-0.0086340476;0.0;4.4349989e-11;1000.0976;  4.0000001E-01;80.886589;3;-5.6275783;0.0;4.1817002e-06;0;-0.06965261;  1.0001988E+04;  0.0000000E+00; -6.8423644E-16;  1.0000000E+04;  0.0000000E+00;  9.9999658E+03;-0.071184769;0.0;0.0015321587;22.636545
  2.3999035E-01;  9.9999998E-03;  2.0000024E-02;1417;-0.0086489702;0.0;2.4346236e-05;1000.0976;  4.0000001E-01;80.886589;3;-5.6388559;0.0;0.023982514;0;-0.069728971;  1.0001990E+04;  0.0000000E+00;  7.3687077E-11;  1.0000000E+04;  0.0000000E+00;  9.9999629E+03;-0.071339227;0.0;0.0016102546;23.593975
  2.3999032E-01;  9.9999998E-03;  4.0000051E-02;1418;-0.0086932071;0.0;5.1584208e-05;1000.0979;  4.0000001E-01;81.084114;3;-5.672152;0.0;0.04916279;0;-0.069958284;  1.0002003E+04;  0.0000000E+00;  4.0295051E-10;  1.0000000E+04;  0.0000000E+00;  9.9999561E+03;-0.071798474;0.0;0.001840186;26.435743
  2.3999026E-01;  9.9999998E-03;  6.0000088E-02;1419;-0.0087649552;0.0;8.4652056e-05;1000.0983;  4.0000001E-01;81.380402;3;-5.7259974;0.0;0.076379649;0;-0.070340551;  1.0002018E+04;  0.0000000E+00;  1.0862820E-10;  1.0000000E+04;  0.0000000E+00;  9.9999463E+03;-0.072549403;0.0;0.002208848;31.066395
  2.3999017E-01;  9.9999998E-03;  8.0000132E-02;1420;-0.0088610742;0.0;0.00012597848;1000.0989;  4.0000001E-01;81.874214;3;-5.7978477;0.0;0.10657603;0;-0.070873894;  1.0002044E+04;  0.0000000E+00; -4.3271128E-10;  1.0000000E+04;  0.0000000E+00;  9.9999326E+03;-0.073568963;0.0;0.002695068;37.322754
  2.3999007E-01;  9.9999998E-03;  1.0000020E-01;1421;-0.008976371;0.0;0.00017838848;1000.0994;  4.0000001E-01;82.368027;3;-5.8836656;0.0;0.14066257;0;-0.071549818;  1.0002073E+04;  0.0000000E+00; -1.3387912E-09;  1.0000000E+04;  0.0000000E+00;  9.9999170E+03;-0.074822508;0.0;0.0032726882;44.989765
  2.3998997E-01;  9.9999998E-03;  1.2000027E-01;1422;-0.0091029489;0.0;0.000242772;1000.1001;  4.0000001E-01;82.960602;3;-5.9774837;0.0;0.17853794;0;-0.072342165;  1.0002106E+04;  0.0000000E+00; -1.3465866E-09;  1.0000000E+04;  0.0000000E+00;  9.9998975E+03;-0.076262683;0.0;0.0039205155;53.884144
  2.3998986E-01;  9.9999998E-03;  1.4000037E-01;1423;-0.0092293378;0.0;0.00031771715;1000.1008;  4.0000001E-01;83.553177;3;-6.0711045;0.0;0.21817413;0;-0.073184088;  1.0002146E+04;  0.0000000E+00;  8.6405172E-10;  1.0000000E+04;  0.0000000E+00;  9.9998750E+03;-0.077828504;0.0;0.0046444153;64.072258
  2.5998837E-01;  9.9999998E-03; -9.4256153E-14;1447;-0.010190827;0.0;-2.6586303e-10;1000.1161;  4.0000001E-01;96.194786;3;-6.4703093;0.0;-1.4875873e-06;0;-0.080552533;  1.0002365E+04;  0.0000000E+00; -9.2605351E-17;  1.0000000E+04;  0.0000000E+00;  9.9999580E+03;-0.082496941;0.0;0.0019444065;27.148365
  2.5998834E-01;  9.9999998E-03;  2.0000029E-02;1448;-0.010209337;0.0;3.2566444e-05;1000.1162;  4.0000001E-01;96.293549;3;-6.4835391;0.0;0.035172846;0;-0.08063665;  1.0002371E+04;  0.0000000E+00;  2.7027608E-10;  1.0000000E+04;  0.0000000E+00;  9.9999551E+03;-0.082684085;0.0;0.0020474331;28.404936
  2.5998828E-01;  9.9999998E-03;  4.0000062E-02;1449;-0.010264161;0.0;6.903318e-05;1000.1165;  4.0000001E-01;96.491074;3;-6.5225153;0.0;0.07183902;0;-0.080889389;  1.0002385E+04;  0.0000000E+00;  8.3636786E-10;  1.0000000E+04;  0.0000000E+00;  9.9999453E+03;-0.083240889;0.0;0.0023515008;32.147141
  2.5998822E-01;  9.9999998E-03;  6.0000107E-02;1450;-0.010353385;0.0;0.00011325505;1000.1169;  4.0000001E-01;96.886124;3;-6.5858388;0.0;0.11112751;0;-0.081310958;  1.0002408E+04;  0.0000000E+00;  8.5062052E-10;  1.0000000E+04;  0.0000000E+00;  9.9999326E+03;-0.084152721;0.0;0.0028417602;38.288982
  2.5998810E-01;  9.9999998E-03;  8.0000170E-02;1451;-0.01047342;0.0;0.00016890687;1000.1174;  4.0000001E-01;97.281174;3;-6.6704888;0.0;0.15469179;0;-0.081899241;  1.0002438E+04;  0.0000000E+00; -1.2552884E-10;  1.0000000E+04;  0.0000000E+00;  9.9999150E+03;-0.085393868;0.0;0.003494625;46.684387
  2.5998795E-01;  9.9999998E-03;  1.0000025E-01;1452;-0.010618318;0.0;0.00023973057;1000.1183;  4.0000001E-01;97.972519;3;-6.772119;0.0;0.20339561;0;-0.082644232;  1.0002478E+04;  0.0000000E+00; -2.1999875E-09;  1.0000000E+04;  0.0000000E+00;  9.9998926E+03;-0.08692608;0.0;0.004281851;57.148758
  2.5998780E-01;  9.9999998E-03;  1.2000035E-01;1453;-0.010779485;0.0;0.00032570792;1000.1193;  4.0000001E-01;98.762619;3;-6.8844957;0.0;0.25631312;0;-0.083514504;  1.0002520E+04;  0.0000000E+00; -2.2679232E-09;  1.0000000E+04;  0.0000000E+00;  9.9998662E+03;-0.088697523;0.0;0.0051830192;69.566216
  2.5998768E-01;  9.9999998E-03;  1.4000048E-01;1454;-0.010943605;0.0;0.00042881494;1000.12;  4.0000001E-01;99.453957;3;-6.9982004;0.0;0.31283963;0;-0.084431559;  1.0002567E+04;  0.0000000E+00;  2.3710306E-10;  1.0000000E+04;  0.0000000E+00;  9.9998320E+03;-0.090642855;0.0;0.0062112962;84.150963
  2.7998596E-01;  9.9999998E-03;  1.0965760E-13;1478;-0.011991183;0.0;4.6444648e-10;1000.1376;  4.0000001E-01;113.97206;3;-7.4152331;0.0;2.3342086e-06;0;-0.09293253;  1.0002804E+04;  0.0000000E+00; -1.0797758E-15;  1.0000000E+04;  0.0000000E+00;  9.9999502E+03;-0.095348313;0.0;0.0024157804;32.327412
  2.7998593E-01;  9.9999998E-03;  2.0000035E-02;1479;-0.012013924;0.0;4.1858963e-05;1000.1376;  4.0000001E-01;114.07082;3;-7.4304109;0.0;0.048508205;0;-0.093024284;  1.0002811E+04;  0.0000000E+00;  6.1233746E-10;  1.0000000E+04;  0.0000000E+00;  9.9999463E+03;-0.095574297;0.0;0.0025500113;33.944214
  2.7998587E-01;  9.9999998E-03;  4.0000077E-02;1480;-0.012081407;0.0;8.8920824e-05;1000.138;  4.0000001E-01;114.36711;3;-7.4756427;0.0;0.099474348;0;-0.093299739;  1.0002828E+04;  0.0000000E+00;  1.0561162E-09;  1.0000000E+04;  0.0000000E+00;  9.9999355E+03;-0.096246935;0.0;0.0029471931;38.776768
  2.7998576E-01;  9.9999998E-03;  6.0000129E-02;1481;-0.012191562;0.0;0.00014633218;1000.1385;  4.0000001E-01;114.76216;3;-7.5492015;0.0;0.15361229;0;-0.093758553;  1.0002856E+04;  0.0000000E+00;  1.0993964E-09;  1.0000000E+04;  0.0000000E+00;  9.9999180E+03;-0.097349681;0.0;0.0035911268;46.767746
  2.7998561E-01;  9.9999998E-03;  8.0000207E-02;1482;-0.012340178;0.0;0.00021916124;1000.1391;  4.0000001E-01;115.25597;3;-7.6476097;0.0;0.21327724;0;-0.094397046;  1.0002896E+04;  0.0000000E+00;  4.2398537E-10;  1.0000000E+04;  0.0000000E+00;  9.9998926E+03;-0.098853186;0.0;0.004456142;57.816616
  2.7998546E-01;  9.9999998E-03;  1.0000031E-01;1483;-0.012520698;0.0;0.00031136398;1000.1403;  4.0000001E-01;116.2436;3;-7.7665334;0.0;0.27893537;0;-0.095202066;  1.0002943E+04;  0.0000000E+00; -1.4738815E-09;  1.0000000E+04;  0.0000000E+00;  9.9998643E+03;-0.10071369;0.0;0.0055116247;71.800652
  2.7998525E-01;  9.9999998E-03;  1.2000044E-01;1484;-0.012723533;0.0;0.00042520979;1000.1414;  4.0000001E-01;117.13246;3;-7.8988881;0.0;0.3519097;0;-0.096135601;  1.0003001E+04;  0.0000000E+00; -1.7952491E-09;  1.0000000E+04;  0.0000000E+00;  9.9998242E+03;-0.10287121;0.0;0.0067356089;88.691246
  2.7998504E-01;  9.9999998E-03;  1.4000060E-01;1485;-0.012933804;0.0;0.0005641717;1000.1423;  4.0000001E-01;117.8238;3;-8.034873;0.0;0.43098864;0;-0.097107448;  1.0003063E+04;  0.0000000E+00; -7.6113821E-10;  1.0000000E+04;  0.0000000E+00;  9.9997832E+03;-0.1052497;0.0;0.0081422469;108.83721
  2.9998311E-01;  9.9999998E-03; -1.3510097E-13;1509;-0.014067204;0.0;-7.0815742e-10;1000.1628;  4.0000001E-01;134.90971;3;-8.4723091;0.0;-5.038667e-06;0;-0.10693236;  1.0003315E+04;  0.0000000E+00; -2.0536316E-16;  1.0000000E+04;  0.0000000E+00;  9.9999414E+03;-0.10987496;0.0;0.0029425896;38.358112
  2.9998308E-01;  9.9999998E-03;  2.0000041E-02;1510;-0.014094954;0.0;5.164271e-05;1000.1629;  4.0000001E-01;135.00848;3;-8.4895992;0.0;0.063917592;0;-0.10703254;  1.0003324E+04;  0.0000000E+00;  1.3021080E-09;  1.0000000E+04;  0.0000000E+00;  9.9999355E+03;-0.11014692;0.0;0.0031143792;40.387642
  2.9998299E-01;  9.9999998E-03;  4.0000089E-02;1511;-0.014177587;0.0;0.00011032906;1000.1633;  4.0000001E-01;135.30476;3;-8.5415649;0.0;0.13110484;0;-0.1073327;  1.0003345E+04;  0.0000000E+00;  1.9357300E-09;  1.0000000E+04;  0.0000000E+00;  9.9999209E+03;-0.11095663;0.0;0.0036239342;46.477276
  2.9998288E-01;  9.9999998E-03;  6.0000151E-02;1512;-0.014312607;0.0;0.00018234224;1000.1641;  4.0000001E-01;135.89734;3;-8.6257343;0.0;0.20202233;0;-0.10783091;  1.0003382E+04;  0.0000000E+00;  3.0579368E-09;  1.0000000E+04;  0.0000000E+00;  9.9999004E+03;-0.11228507;0.0;0.0044541592;56.623714
  2.9998267E-01;  9.9999998E-03;  8.0000244E-02;1513;-0.01449528;0.0;0.00027429295;1000.1649;  4.0000001E-01;136.58868;3;-8.7388821;0.0;0.28123444;0;-0.10852073;  1.0003433E+04;  0.0000000E+00;  2.7423568E-09;  1.0000000E+04;  0.0000000E+00;  9.9998691E+03;-0.11409812;0.0;0.0055773901;70.80809
  2.9998246E-01;  9.9999998E-03;  1.0000037E-01;1514;-0.014718646;0.0;0.00039170892;1000.1661;  4.0000001E-01;137.67506;3;-8.8762913;0.0;0.36757308;0;-0.10938418;  1.0003494E+04;  0.0000000E+00;  2.2558000E-09;  1.0000000E+04;  0.0000000E+00;  9.9998281E+03;-0.11634352;0.0;0.0069593433;89.005524
  2.9998219E-01;  9.9999998E-03;  1.2000053E-01;1515;-0.014971684;0.0;0.00053894339;1000.1672;  4.0000001E-01;138.46516;3;-9.029932;0.0;0.46380839;0;-0.11037641;  1.0003566E+04;  0.0000000E+00; -1.3564359E-09;  1.0000000E+04;  0.0000000E+00;  9.9997793E+03;-0.11894854;0.0;0.0085721286;111.2904
  2.9998192E-01;  9.9999998E-03;  1.4000075E-01;1516;-0.015238187;0.0;0.00072173733;1000.1682;  4.0000001E-01;139.35403;3;-9.1900969;0.0;0.5702666;0;-0.11139734;  1.0003645E+04;  0.0000000E+00;  1.0923995E-09;  1.0000000E+04;  0.0000000E+00;  9.9997197E+03;-0.12181862;0.0;0.010421278;138.11621
  3.1997976E-01;  9.9999998E-03; -2.1079480E-13;1540;-0.016454464;0.0;5.1805182e-10;1000.1919;  4.0000001E-01;159.00778;3;-9.6516132;0.0;1.9928475e-06;0;-0.12268068;  1.0003913E+04;  0.0000000E+00; -1.1972376E-15;  1.0000000E+04;  0.0000000E+00;  9.9999268E+03;-0.12621202;0.0;0.0035313349;45.68557
  3.1997973E-01;  9.9999998E-03;  2.0000044E-02;1541;-0.01648825;0.0;6.1484214e-05;1000.1921;  4.0000001E-01;159.10655;3;-9.6713343;0.0;0.080768183;0;-0.1227917;  1.0003923E+04;  0.0000000E+00;  9.2754709E-10;  1.0000000E+04;  0.0000000E+00;  9.9999219E+03;-0.12653811;0.0;0.0037464101;48.16016
  3.1997961E-01;  9.9999998E-03;  4.0000100E-02;1542;-0.016588967;0.0;0.00013216391;1000.1925;  4.0000001E-01;159.5016;3;-9.7304926;0.0;0.16563553;0;-0.12312347;  1.0003950E+04;  0.0000000E+00;  2.7858844E-09;  1.0000000E+04;  0.0000000E+00;  9.9999043E+03;-0.12750927;0.0;0.0043857894;55.615726
  3.1997943E-01;  9.9999998E-03;  6.0000174E-02;1543;-0.016753539;0.0;0.00021925713;1000.1934;  4.0000001E-01;160.19295;3;-9.8258476;0.0;0.2554315;0;-0.12367119;  1.0003994E+04;  0.0000000E+00;  4.5529776E-09;  1.0000000E+04;  0.0000000E+00;  9.9998789E+03;-0.12910327;0.0;0.0054320837;68.13604
  3.1997919E-01;  9.9999998E-03;  8.0000281E-02;1544;-0.016977048;0.0;0.00033302797;1000.1946;  4.0000001E-01;161.18057;3;-9.9545193;0.0;0.3572897;0;-0.12442389;  1.0004054E+04;  0.0000000E+00;  6.0041074E-09;  1.0000000E+04;  0.0000000E+00;  9.9998379E+03;-0.13127953;0.0;0.0068556401;85.830101
  3.1997889E-01;  9.9999998E-03;  1.0000043E-01;1545;-0.017251842;0.0;0.00047946794;1000.1959;  4.0000001E-01;162.26695;3;-10.111477;0.0;0.46812293;0;-0.12535772;  1.0004132E+04;  0.0000000E+00;  4.5402411E-09;  1.0000000E+04;  0.0000000E+00;  9.9997891E+03;-0.13397452;0.0;0.0086167976;108.81765
  3.1997856E-01;  9.9999998E-03;  1.2000064E-01;1546;-0.017565411;0.0;0.00066610187;1000.1973;  4.0000001E-01;163.4521;3;-10.287801;0.0;0.59350532;0;-0.12642086;  1.0004223E+04;  0.0000000E+00;  3.0135703E-09;  1.0000000E+04;  0.0000000E+00;  9.9997266E+03;-0.13709757;0.0;0.010676714;137.30414
  3.1997821E-01;  9.9999998E-03;  1.4000091E-01;1547;-0.017899817;0.0;0.00089955784;1000.1986;  4.0000001E-01;164.5385;3;-10.473174;0.0;0.72837907;0;-0.12750576;  1.0004324E+04;  0.0000000E+00;  5.2247153E-09;  1.0000000E+04;  0.0000000E+00;  9.9996504E+03;-0.1405278;0.0;0.013022036;171.83224
  3.3997577E-01;  9.9999998E-03;  3.5008923E-13;1571;-0.019192584;0.0;1.665976e-09;1000.2256;  4.0000001E-01;186.9576;3;-10.963528;0.0;4.4413646e-06;0;-0.14028016;  1.0004602E+04;  0.0000000E+00; -1.3410770E-15;  1.0000000E+04;  0.0000000E+00;  9.9999131E+03;-0.14449205;0.0;0.0042118924;55.215702
  3.3997574E-01;  9.9999998E-03;  2.0000050E-02;1572;-0.019233622;0.0;7.0997929e-05;1000.2259;  4.0000001E-01;187.15512;3;-10.986032;0.0;0.098229103;0;-0.14040715;  1.0004611E+04;  0.0000000E+00;  5.8452448E-10;  1.0000000E+04;  0.0000000E+00;  9.9999063E+03;-0.14488146;0.0;0.0044743139;58.133209
  3.3997560E-01;  9.9999998E-03;  4.0000111E-02;1573;-0.0193558;0.0;0.00015331464;1000.2264;  4.0000001E-01;187.64893;3;-11.052294;0.0;0.20015055;0;-0.14078522;  1.0004644E+04;  0.0000000E+00;  4.0348871E-09;  1.0000000E+04;  0.0000000E+00;  9.9998838E+03;-0.14604136;0.0;0.0052561406;66.963066
  3.3997539E-01;  9.9999998E-03;  6.0000200E-02;1574;-0.019555813;0.0;0.00025639523;1000.2276;  4.0000001E-01;188.5378;3;-11.16002;0.0;0.31188324;0;-0.14140475;  1.0004699E+04;  0.0000000E+00;  7.7555224E-09;  1.0000000E+04;  0.0000000E+00;  9.9998516E+03;-0.14794533;0.0;0.0065405881;81.917511
  3.3997509E-01;  9.9999998E-03;  8.0000326E-02;1575;-0.019828212;0.0;0.00039372718;1000.2292;  4.0000001E-01;189.92047;3;-11.305074;0.0;0.43867201;0;-0.14224815;  1.0004776E+04;  0.0000000E+00;  9.0632319E-09;  1.0000000E+04;  0.0000000E+00;  9.9998066E+03;-0.15054473;0.0;0.0082965838;103.29333
  3.3997470E-01;  9.9999998E-03;  1.0000051E-01;1576;-0.020164497;0.0;0.00057251379;1000.2307;  4.0000001E-01;191.10562;3;-11.482216;0.0;0.5771721;0;-0.14328456;  1.0004871E+04;  0.0000000E+00;  9.3587911E-09;  1.0000000E+04;  0.0000000E+00;  9.9997422E+03;-0.15376276;0.0;0.010478198;131.42203
  3.3997425E-01;  9.9999998E-03;  1.2000076E-01;1577;-0.020550434;0.0;0.00080346811;1000.2327;  4.0000001E-01;192.78458;3;-11.68149;0.0;0.73474991;0;-0.14445429;  1.0004986E+04;  0.0000000E+00;  8.5262135E-09;  1.0000000E+04;  0.0000000E+00;  9.9996660E+03;-0.15748622;0.0;0.013031933;166.70032
  3.3997378E-01;  9.9999998E-03;  1.4000109E-01;1578;-0.020965802;0.0;0.0010928076;1000.2341;  4.0000001E-01;193.96974;3;-11.892986;0.0;0.90310061;0;-0.14564306;  1.0005112E+04;  0.0000000E+00;  1.2381163E-08;  1.0000000E+04;  0.0000000E+00;  9.9995713E+03;-0.16156067;0.0;0.015917612;209.79634
  3.5997111E-01;  9.9999998E-03; -1.6589587E-12;1602;-0.022324376;0.0;-1.6268721e-09;1000.2642;  4.0000001E-01;218.85788;3;-12.418354;0.0;-5.0412737e-06;0;-0.15978914;  1.0005397E+04;  0.0000000E+00; -5.9181170E-16;  1.0000000E+04;  0.0000000E+00;  9.9998887E+03;-0.16484538;0.0;0.0050562331;68.585075
  3.5997105E-01;  9.9999998E-03;  2.0000057E-02;1603;-0.022374045;0.0;8.0465135e-05;1000.2646;  4.0000001E-01;219.25293;3;-12.443756;0.0;0.11529563;0;-0.15994076;  1.0005410E+04;  0.0000000E+00;  2.3666828E-09;  1.0000000E+04;  0.0000000E+00;  9.9998818E+03;-0.16530779;0.0;0.0053670211;71.893921
  3.5997087E-01;  9.9999998E-03;  4.0000126E-02;1604;-0.022521826;0.0;0.00017427627;1000.2654;  4.0000001E-01;219.94426;3;-12.517983;0.0;0.23487532;0;-0.16039044;  1.0005450E+04;  0.0000000E+00;  3.7007717E-09;  1.0000000E+04;  0.0000000E+00;  9.9998594E+03;-0.16668545;0.0;0.0062950104;81.960457
  3.5997060E-01;  9.9999998E-03;  6.0000230E-02;1605;-0.022764232;0.0;0.00029427031;1000.2667;  4.0000001E-01;220.93188;3;-12.638823;0.0;0.3688387;0;-0.16112164;  1.0005516E+04;  0.0000000E+00;  7.3862201E-09;  1.0000000E+04;  0.0000000E+00;  9.9998193E+03;-0.1689472;0.0;0.0078255665;99.17424
  3.5997021E-01;  9.9999998E-03;  8.0000378E-02;1606;-0.023095014;0.0;0.00045673162;1000.2687;  4.0000001E-01;222.61086;3;-12.801102;0.0;0.5224188;0;-0.16210757;  1.0005609E+04;  0.0000000E+00;  8.5362739E-09;  1.0000000E+04;  0.0000000E+00;  9.9997646E+03;-0.17203556;0.0;0.009927989;124.09407
  3.5996974E-01;  9.9999998E-03;  1.0000059E-01;1607;-0.023504132;0.0;0.00066932017;1000.2708;  4.0000001E-01;224.28981;3;-12.998362;0.0;0.68857521;0;-0.16330636;  1.0005727E+04;  0.0000000E+00;  3.2702554E-09;  1.0000000E+04;  0.0000000E+00;  9.9996914E+03;-0.17585774;0.0;0.012551383;157.35616
  3.5996917E-01;  9.9999998E-03;  1.2000088E-01;1608;-0.023975611;0.0;0.00094630424;1000.2732;  4.0000001E-01;226.36383;3;-13.220959;0.0;0.88297999;0;-0.16464885;  1.0005867E+04;  0.0000000E+00;  6.0790822E-10;  1.0000000E+04;  0.0000000E+00;  9.9995986E+03;-0.18027593;0.0;0.015627092;199.65431
  3.5996854E-01;  9.9999998E-03;  1.4000128E-01;1609;-0.024487127;0.0;0.00129749;1000.2754;  4.0000001E-01;228.14156;3;-13.4578;0.0;1.0892624;0;-0.1660122;  1.0006023E+04;  0.0000000E+00;  1.2622047E-08;  1.0000000E+04;  0.0000000E+00;  9.9994834E+03;-0.1850972;0.0;0.019085001;251.8998
  3.7996560E-01;  9.9999998E-03;  5.9249020E-13;1633;-0.025893182;0.0;4.1476367e-11;1000.3082;  4.0000001E-01;255.30122;3;-14.024958;0.0;-4.9212849e-07;0;-0.18120357;  1.0006311E+04;  0.0000000E+00;  2.7291874E-15;  1.0000000E+04;  0.0000000E+00;  9.9998525E+03;-0.18740609;0.0;0.0062025152;88.488884
  3.7996554E-01;  9.9999998E-03;  2.0000070E-02;1634;-0.02595317;0.0;9.1280366e-05;1000.3085;  4.0000001E-01;255.59752;3;-14.053569;0.0;0.13099135;0;-0.18139321;  1.0006326E+04;  0.0000000E+00;  1.7208951E-09;  1.0000000E+04;  0.0000000E+00;  9.9998428E+03;-0.18795122;0.0;0.0065580159;92.076637
  3.7996534E-01;  9.9999998E-03;  4.0000156E-02;1635;-0.026131524;0.0;0.00019793477;1000.3098;  4.0000001E-01;256.58514;3;-14.136683;0.0;0.26732126;0;-0.18195367;  1.0006374E+04;  0.0000000E+00;  6.0383076E-10;  1.0000000E+04;  0.0000000E+00;  9.9998203E+03;-0.18957576;0.0;0.0076220916;103.06001
  3.7996498E-01;  9.9999998E-03;  6.0000274E-02;1636;-0.02642441;0.0;0.00033627913;1000.3116;  4.0000001E-01;258.16534;3;-14.271933;0.0;0.4232249;0;-0.18285894;  1.0006457E+04;  0.0000000E+00; -1.4598521E-09;  1.0000000E+04;  0.0000000E+00;  9.9997754E+03;-0.19224359;0.0;0.0093846498;122.05618
  3.7996450E-01;  9.9999998E-03;  8.0000445E-02;1637;-0.026824499;0.0;0.00052520703;1000.314;  4.0000001E-01;260.14059;3;-14.452611;0.0;0.60424167;0;-0.18406904;  1.0006566E+04;  0.0000000E+00; -5.7486682E-09;  1.0000000E+04;  0.0000000E+00;  9.9997158E+03;-0.19588792;0.0;0.01181889;149.96681
  3.7996387E-01;  9.9999998E-03;  1.0000069E-01;1638;-0.027319768;0.0;0.00077262969;1000.317;  4.0000001E-01;262.60965;3;-14.67082;0.0;0.80010468;0;-0.18552727;  1.0006709E+04;  0.0000000E+00; -2.3299959E-08;  1.0000000E+04;  0.0000000E+00;  9.9996309E+03;-0.20040032;0.0;0.014873059;187.84344
  3.7996316E-01;  9.9999998E-03;  1.2000104E-01;1639;-0.027893066;0.0;0.0011006292;1000.3201;  4.0000001E-01;265.17749;3;-14.916733;0.0;1.0360284;0;-0.18714854;  1.0006882E+04;  0.0000000E+00; -3.8663689E-08;  1.0000000E+04;  0.0000000E+00;  9.9995244E+03;-0.20561577;0.0;0.018467227;236.82596
  3.7996238E-01;  9.9999998E-03;  1.4000151E-01;1640;-0.028518436;0.0;0.0015199292;1000.3233;  4.0000001E-01;267.84409;3;-15.179032;0.0;1.2889041;0;-0.18879706;  1.0007076E+04;  0.0000000E+00; -5.3735114E-09;  1.0000000E+04;  0.0000000E+00;  9.9993896E+03;-0.21130253;0.0;0.022505483;298.28058
  3.9995918E-01;  9.9999998E-03; -6.3751559E-13;1664;-0.029940579;0.0;-1.5621335e-09;1000.3579;  4.0000001E-01;296.48514;3;-15.790215;0.0;2.7949072e-06;0;-0.20443851;  1.0007363E+04;  0.0000000E+00;  1.3557378E-16;  1.0000000E+04;  0.0000000E+00;  9.9997939E+03;-0.21232134;0.0;0.007882827;119.02989
  3.9995909E-01;  9.9999998E-03;  2.0000096E-02;1665;-0.030012839;0.0;0.00010662652;1000.3585;  4.0000001E-01;296.97897;3;-15.822455;0.0;0.14436044;0;-0.20468487;  1.0007382E+04;  0.0000000E+00; -2.0867624E-10;  1.0000000E+04;  0.0000000E+00;  9.9997871E+03;-0.21295786;0.0;0.0082729952;122.72159
  3.9995885E-01;  9.9999998E-03;  4.0000211E-02;1666;-0.030227507;0.0;0.00023044065;1000.3598;  4.0000001E-01;298.06534;3;-15.915936;0.0;0.2957375;0;-0.20541064;  1.0007439E+04;  0.0000000E+00; -5.3789844E-09;  1.0000000E+04;  0.0000000E+00;  9.9997617E+03;-0.21485479;0.0;0.0094441455;134.11037
  3.9995840E-01;  9.9999998E-03;  6.0000356E-02;1667;-0.030580183;0.0;0.00039080225;1000.3623;  4.0000001E-01;300.13937;3;-16.067383;0.0;0.47209042;0;-0.20657854;  1.0007531E+04;  0.0000000E+00; -1.8136143E-08;  1.0000000E+04;  0.0000000E+00;  9.9997158E+03;-0.21797238;0.0;0.011393847;154.08029
  3.9995781E-01;  9.9999998E-03;  8.0000564E-02;1668;-0.031061983;0.0;0.00060863898;1000.3657;  4.0000001E-01;303.00348;3;-16.267416;0.0;0.67817259;0;-0.208131;  1.0007667E+04;  0.0000000E+00; -4.3251802E-08;  1.0000000E+04;  0.0000000E+00;  9.9996475E+03;-0.22223507;0.0;0.014104067;183.94112
  3.9995706E-01;  9.9999998E-03;  1.0000085E-01;1669;-0.031659603;0.0;0.00089506508;1000.3696;  4.0000001E-01;306.26263;3;-16.509151;0.0;0.90932643;0;-0.2099901;  1.0007836E+04;  0.0000000E+00; -8.6857121E-08;  1.0000000E+04;  0.0000000E+00;  9.9995557E+03;-0.22751902;0.0;0.017528921;225.26006
  3.9995614E-01;  9.9999998E-03;  1.2000124E-01;1670;-0.032353349;0.0;0.0012772704;1000.3741;  4.0000001E-01;309.91687;3;-16.778494;0.0;1.1895739;0;-0.21204862;  1.0008045E+04;  0.0000000E+00; -1.1671280E-07;  1.0000000E+04;  0.0000000E+00;  9.9994385E+03;-0.23363496;0.0;0.021586338;279.78992
  3.9995512E-01;  9.9999998E-03;  1.4000179E-01;1671;-0.033112779;0.0;0.0017681693;1000.3784;  4.0000001E-01;313.47232;3;-17.063686;0.0;1.4962456;0;-0.21414508;  1.0008284E+04;  0.0000000E+00; -8.6486764E-08;  1.0000000E+04;  0.0000000E+00;  9.9992852E+03;-0.24031274;0.0;0.026167659;349.65054
  4.1995174E-01;  9.9999998E-03; -3.8133919E-12;1695;-0.034506865;0.0;-3.033588e-09;1000.4135;  4.0000001E-01;342.60715;3;-17.718056;0.0;-7.3882893e-07;0;-0.22930066;  1.0008568E+04;  0.0000000E+00;  1.2790569E-15;  1.0000000E+04;  0.0000000E+00;  9.9997021E+03;-0.23975085;0.0;0.010450182;166.00935
  4.1995162E-01;  9.9999998E-03;  2.0000149E-02;1696;-0.034593605;0.0;0.0001328064;1000.4141;  4.0000001E-01;343.0022;3;-17.754833;0.0;0.1563296;0;-0.22962733;  1.0008593E+04;  0.0000000E+00; -6.0893153E-09;  1.0000000E+04;  0.0000000E+00;  9.9996934E+03;-0.24048454;0.0;0.010857205;169.58394
  4.1995129E-01;  9.9999998E-03;  4.0000312E-02;1697;-0.034851048;0.0;0.00028360312;1000.4161;  4.0000001E-01;344.77994;3;-17.86075;0.0;0.32005975;0;-0.23058948;  1.0008655E+04;  0.0000000E+00; -1.7850514E-08;  1.0000000E+04;  0.0000000E+00;  9.9996660E+03;-0.24267262;0.0;0.012083147;180.71761
  4.1995078E-01;  9.9999998E-03;  6.0000509E-02;1698;-0.035274118;0.0;0.00047480114;1000.4194;  4.0000001E-01;347.44653;3;-18.03141;0.0;0.51657104;0;-0.2321353;  1.0008767E+04;  0.0000000E+00; -4.5265569E-08;  1.0000000E+04;  0.0000000E+00;  9.9996230E+03;-0.24627165;0.0;0.014136362;200.5686
  4.1995004E-01;  9.9999998E-03;  8.0000766E-02;1699;-0.035852261;0.0;0.00072893058;1000.4238;  4.0000001E-01;351.10074;3;-18.254234;0.0;0.74741018;0;-0.23418696;  1.0008923E+04;  0.0000000E+00; -9.6057875E-08;  1.0000000E+04;  0.0000000E+00;  9.9995537E+03;-0.25119981;0.0;0.017012844;230.86816
  4.1994908E-01;  9.9999998E-03;  1.0000110E-01;1700;-0.036570366;0.0;0.0010599878;1000.4292;  4.0000001E-01;355.54504;3;-18.521685;0.0;1.0145798;0;-0.23664004;  1.0009126E+04;  0.0000000E+00; -1.8094815E-07;  1.0000000E+04;  0.0000000E+00;  9.9994619E+03;-0.25732094;0.0;0.02068091;273.73923
  4.1994795E-01;  9.9999998E-03;  1.2000155E-01;1701;-0.037405852;0.0;0.0014996834;1000.4353;  4.0000001E-01;360.68069;3;-18.814854;0.0;1.3415878;0;-0.23935434;  1.0009373E+04;  0.0000000E+00; -2.6255947E-07;  1.0000000E+04;  0.0000000E+00;  9.9993340E+03;-0.26442444;0.0;0.025070101;331.6803
  4.1994667E-01;  9.9999998E-03;  1.4000218E-01;1702;-0.038322911;0.0;0.0020638625;1000.4413;  4.0000001E-01;365.61884;3;-19.119749;0.0;1.7074248;0;-0.24212801;  1.0009659E+04;  0.0000000E+00; -2.3488708E-07;  1.0000000E+04;  0.0000000E+00;  9.9991680E+03;-0.27220961;0.0;0.030081604;407.9043
  4.3994308E-01;  9.9999998E-03; -3.0016523E-12;1726;-0.039636292;0.0;2.9069525e-09;1000.4752;  4.0000001E-01;393.66724;3;-19.809502;0.0;1.1961104e-05;0;-0.25541884;  1.0009949E+04;  0.0000000E+00; -7.8723390E-16;  1.0000000E+04;  0.0000000E+00;  9.9995596E+03;-0.26981628;0.0;0.01439745;237.045
  4.3994296E-01;  9.9999998E-03;  2.0000244E-02;1727;-0.039739843;0.0;0.00017966673;1000.476;  4.0000001E-01;394.35855;3;-19.8515;0.0;0.16709195;0;-0.25585437;  1.0009972E+04;  0.0000000E+00; -7.3177766E-09;  1.0000000E+04;  0.0000000E+00;  9.9995518E+03;-0.27064958;0.0;0.014795224;240.27873
  4.3994257E-01;  9.9999998E-03;  4.0000498E-02;1728;-0.040047299;0.0;0.00037647571;1000.4787;  4.0000001E-01;396.6301;3;-19.973043;0.0;0.34225771;0;-0.2571362;  1.0010048E+04;  0.0000000E+00; -2.8772652E-08;  1.0000000E+04;  0.0000000E+00;  9.9995283E+03;-0.27313459;0.0;0.015998391;250.46957
  4.3994194E-01;  9.9999998E-03;  6.0000781E-02;1729;-0.04055234;0.0;0.00061590312;1000.4828;  4.0000001E-01;399.98804;3;-20.166771;0.0;0.55805826;0;-0.25919846;  1.0010173E+04;  0.0000000E+00; -7.0599214E-08;  1.0000000E+04;  0.0000000E+00;  9.9994883E+03;-0.27722672;0.0;0.018028263;268.99695
  4.3994102E-01;  9.9999998E-03;  8.0001116E-02;1730;-0.041243136;0.0;0.00092054415;1000.4886;  4.0000001E-01;404.82739;3;-20.418083;0.0;0.81335914;0;-0.26194015;  1.0010352E+04;  0.0000000E+00; -1.5106252E-07;  1.0000000E+04;  0.0000000E+00;  9.9994219E+03;-0.28283918;0.0;0.020899029;297.92776
  4.3993989E-01;  9.9999998E-03;  1.0000153E-01;1731;-0.042101867;0.0;0.0013080139;1000.4955;  4.0000001E-01;410.5556;3;-20.714529;0.0;1.1217266;0;-0.26522681;  1.0010587E+04;  0.0000000E+00; -2.8364866E-07;  1.0000000E+04;  0.0000000E+00;  9.9993271E+03;-0.28982773;0.0;0.024600934;339.85428
  4.3993849E-01;  9.9999998E-03;  1.2000206E-01;1732;-0.043102778;0.0;0.0018096424;1000.5038;  4.0000001E-01;417.37021;3;-21.032217;0.0;1.4925832;0;-0.26887774;  1.0010879E+04;  0.0000000E+00; -4.4279977E-07;  1.0000000E+04;  0.0000000E+00;  9.9992002E+03;-0.29796886;0.0;0.029091129;398.03238
  4.3993688E-01;  9.9999998E-03;  1.4000276E-01;1733;-0.044204298;0.0;0.0024481015;1000.5121;  4.0000001E-01;424.2836;3;-21.353586;0.0;1.9243441;0;-0.27263057;  1.0011217E+04;  0.0000000E+00; -4.6177684E-07;  1.0000000E+04;  0.0000000E+00;  9.9990283E+03;-0.30694187;0.0;0.034311291;477.06284
  4.5993304E-01;  9.9999998E-03;  2.3582425E-12;1757;-0.045385513;0.0;4.3338209e-09;1000.5434;  4.0000054E-01;450.15909;3;-22.063576;0.0;1.3652108e-05;0;-0.28207341;  1.0011502E+04;  0.0000000E+00; -1.9293214E-16;  1.0000000E+04;  0.0000000E+00;  9.9993438E+03;-0.30243236;0.0;0.020358946;341.36664
  4.5993289E-01;  9.9999998E-03;  2.0000402E-02;1758;-0.04550812;0.0;0.00026037436;1000.5445;  4.0000048E-01;451.14673;3;-22.110756;0.0;0.17445132;0;-0.28264683;  1.0011528E+04;  0.0000000E+00; -6.7284818E-09;  1.0000000E+04;  0.0000000E+00;  9.9993389E+03;-0.3033607;0.0;0.020713869;344.10989
  4.5993242E-01;  9.9999998E-03;  4.0000811E-02;1759;-0.045873187;0.0;0.00053784752;1000.5475;  4.0000045E-01;453.61578;3;-22.25211;0.0;0.36799753;0;-0.28433764;  1.0011612E+04;  0.0000000E+00; -2.7938784E-08;  1.0000000E+04;  0.0000000E+00;  9.9993203E+03;-0.30613104;0.0;0.021793403;352.86301
  4.5993167E-01;  9.9999998E-03;  6.0001239E-02;1760;-0.046472497;0.0;0.00085658778;1000.5529;  4.0000045E-01;458.06009;3;-22.474457;0.0;0.60539538;0;-0.28706467;  1.0011753E+04;  0.0000000E+00; -7.5035622E-08;  1.0000000E+04;  0.0000000E+00;  9.9992813E+03;-0.31069675;0.0;0.023632074;369.08438
  4.5993060E-01;  9.9999998E-03;  8.0001704E-02;1761;-0.047292732;0.0;0.001235457;1000.5601;  4.0000048E-01;463.98584;3;-22.760761;0.0;0.88230497;0;-0.29070562;  1.0011954E+04;  0.0000000E+00; -1.7073523E-07;  1.0000000E+04;  0.0000000E+00;  9.9992256E+03;-0.3169691;0.0;0.02626349;394.93948
  4.5992920E-01;  9.9999998E-03;  1.0000224E-01;1762;-0.048313301;0.0;0.0016988789;1000.5692;  4.0000048E-01;471.59055;3;-23.089355;0.0;1.2326609;0;-0.29509631;  1.0012225E+04;  0.0000000E+00; -3.4210865E-07;  1.0000000E+04;  0.0000000E+00;  9.9991396E+03;-0.32480037;0.0;0.029704068;433.20032
  4.5992747E-01;  9.9999998E-03;  1.2000288E-01;1763;-0.049505211;0.0;0.0022744893;1000.5798;  4.0000054E-01;480.3804;3;-23.43499;0.0;1.6493584;0;-0.30001226;  1.0012559E+04;  0.0000000E+00; -5.7429725E-07;  1.0000000E+04;  0.0000000E+00;  9.9990195E+03;-0.33396441;0.0;0.03395215;487.66434
  4.5992547E-01;  9.9999998E-03;  1.4000367E-01;1764;-0.050821871;0.0;0.0029890917;1000.5914;  4.0000060E-01;489.96036;3;-23.772791;0.0;2.140748;0;-0.30511379;  1.0012953E+04;  0.0000000E+00; -6.7305155E-07;  1.0000000E+04;  0.0000000E+00;  9.9988535E+03;-0.34413865;0.0;0.039024863;564.45435
  4.7992134E-01;  9.9999998E-03; -1.1631069E-12;1788;-0.05182742;0.0;-1.0081781e-09;1000.6158;  4.0000153E-01;510.20624;3;-24.472919;0.0;6.7346191e-06;0;-0.30787492;  1.0013212E+04;  0.0000000E+00; -1.5878683E-16;  1.0000000E+04;  0.0000000E+00;  9.9990381E+03;-0.33696243;0.0;0.029087519;489.17404
  4.7992116E-01;  9.9999998E-03;  2.0000657E-02;1789;-0.051971734;0.0;0.00039627976;1000.617;  4.0000147E-01;511.19388;3;-24.529299;0.0;0.18837988;0;-0.30861366;  1.0013240E+04;  0.0000000E+00; -5.1080118E-09;  1.0000000E+04;  0.0000000E+00;  9.9990332E+03;-0.33797458;0.0;0.02936092;491.46048
  4.7992063E-01;  9.9999998E-03;  4.0001310E-02;1790;-0.0524018;0.0;0.00080762926;1000.6207;  4.0000153E-01;514.25549;3;-24.695084;0.0;0.40433985;0;-0.3107959;  1.0013332E+04;  0.0000000E+00; -2.2171209E-08;  1.0000000E+04;  0.0000000E+00;  9.9990156E+03;-0.34099549;0.0;0.0301996;498.79062
  4.7991973E-01;  9.9999998E-03;  6.0001969E-02;1791;-0.053107873;0.0;0.0012510134;1000.6271;  4.0000156E-01;519.58868;3;-24.95384;0.0;0.66282755;0;-0.31432787;  1.0013489E+04;  0.0000000E+00; -5.4116988E-08;  1.0000000E+04;  0.0000000E+00;  9.9989844E+03;-0.3459765;0.0;0.031648625;512.4408
  4.7991845E-01;  9.9999998E-03;  8.0002651E-02;1792;-0.054073811;0.0;0.0017472681;1000.6359;  4.0000147E-01;526.79834;3;-25.279854;0.0;0.97923106;0;-0.31907034;  1.0013713E+04;  0.0000000E+00; -1.3360315E-07;  1.0000000E+04;  0.0000000E+00;  9.9989346E+03;-0.35282767;0.0;0.033757322;534.23822
  4.7991678E-01;  9.9999998E-03;  1.0000338E-01;1793;-0.055276908;0.0;0.0023181557;1000.6472;  4.0000156E-01;536.18073;3;-25.646313;0.0;1.3649353;0;-0.32483706;  1.0014011E+04;  0.0000000E+00; -3.0237089E-07;  1.0000000E+04;  0.0000000E+00;  9.9988672E+03;-0.36140266;0.0;0.036565613;566.5708
  4.7991470E-01;  9.9999998E-03;  1.2000419E-01;1794;-0.056685615;0.0;0.0029922808;1000.6609;  4.0000147E-01;547.53839;3;-26.024748;0.0;1.8316356;0;-0.33136395;  1.0014385E+04;  0.0000000E+00; -5.2129076E-07;  1.0000000E+04;  0.0000000E+00;  9.9987676E+03;-0.37148452;0.0;0.040120564;613.25079
  4.7991225E-01;  9.9999998E-03;  1.4000514E-01;1795;-0.058248136;0.0;0.0037921413;1000.6761;  4.0000153E-01;560.17999;3;-26.379028;0.0;2.3707604;0;-0.33822232;  1.0014835E+04;  0.0000000E+00; -6.1378034E-07;  1.0000000E+04;  0.0000000E+00;  9.9986182E+03;-0.38277164;0.0;0.044549324;681.79034
  4.9990770E-01;  9.9999998E-03;  1.8595813E-12;1819;-0.059048682;0.0;1.6828613e-09;1000.6889;  4.0000355E-01;570.74701;3;-27.031727;0.0;4.7135145e-06;0;-0.33035937;  1.0014999E+04;  0.0000000E+00;  2.0117382E-15;  1.0000000E+04;  0.0000000E+00;  9.9986113E+03;-0.37176275;0.0;0.041403379;690.56165
  4.9990749E-01;  9.9999998E-03;  2.0001030E-02;1820;-0.059217162;0.0;0.0006093749;1000.6904;  4.0000352E-01;571.93213;3;-27.099192;0.0;0.22319812;0;-0.33128449;  1.0015027E+04;  0.0000000E+00;  5.8944655E-10;  1.0000000E+04;  0.0000000E+00;  9.9986084E+03;-0.3728393;0.0;0.041554812;692.73279
  4.9990690E-01;  9.9999998E-03;  4.0002052E-02;1821;-0.059718553;0.0;0.0012274315;1000.6942;  4.0000349E-01;575.09253;3;-27.294107;0.0;0.47094679;0;-0.33402246;  1.0015127E+04;  0.0000000E+00; -7.5506434E-10;  1.0000000E+04;  0.0000000E+00;  9.9985947E+03;-0.37605178;0.0;0.042029332;699.53113
  4.9990585E-01;  9.9999998E-03;  6.0003065E-02;1822;-0.060541093;0.0;0.0018651236;1000.7017;  4.0000340E-01;581.31458;3;-27.595327;0.0;0.76368469;0;-0.33847135;  1.0015296E+04;  0.0000000E+00; -2.0465718E-09;  1.0000000E+04;  0.0000000E+00;  9.9985674E+03;-0.38134748;0.0;0.042876117;711.64795
  4.9990433E-01;  9.9999998E-03;  8.0004074E-02;1823;-0.061667327;0.0;0.0025404289;1000.7117;  4.0000337E-01;589.6106;3;-27.971891;0.0;1.1224775;0;-0.34448323;  1.0015538E+04;  0.0000000E+00;  3.8146428E-09;  1.0000000E+04;  0.0000000E+00;  9.9985283E+03;-0.38863319;0.0;0.044149954;729.90002
  4.9990237E-01;  9.9999998E-03;  1.0000512E-01;1824;-0.063071601;0.0;0.0032719737;1000.7253;  4.0000349E-01;600.96826;3;-28.383919;0.0;1.5447273;0;-0.35186407;  1.0015863E+04;  0.0000000E+00;  3.1408870E-08;  1.0000000E+04;  0.0000000E+00;  9.9984756E+03;-0.39776808;0.0;0.045904022;755.43164
  4.9989989E-01;  9.9999998E-03;  1.2000622E-01;1825;-0.064720817;0.0;0.0040863557;1000.7421;  4.0000346E-01;614.79498;3;-28.799582;0.0;2.0586798;0;-0.36032191;  1.0016274E+04;  0.0000000E+00;  1.4804247E-07;  1.0000000E+04;  0.0000000E+00;  9.9983975E+03;-0.40855575;0.0;0.048233829;791.20575
  4.9989691E-01;  9.9999998E-03;  1.4000741E-01;1826;-0.066557646;0.0;0.0050008688;1000.7612;  4.0000346E-01;630.69568;3;-29.172379;0.0;2.651114;0;-0.36933371;  1.0016775E+04;  0.0000000E+00;  5.1103177E-07;  1.0000000E+04;  0.0000000E+00;  9.9982832E+03;-0.42074209;0.0;0.051408373;845.74506
  5.1989186E-01;  9.9999998E-03; -2.6357551E-12;1850;-0.067130223;0.0;7.67579e-10;1000.7615;  4.0000963E-01;630.89233;3;-29.73658;0.0;5.7577272e-06;0;-0.34569693;  1.0016700E+04;  0.0000000E+00; -6.6548298E-16;  1.0000000E+04;  0.0000000E+00;  9.9980488E+03;-0.40380952;0.0;0.058112577;954.16418
  5.1989162E-01;  9.9999998E-03;  2.0001553E-02;1851;-0.06732408;0.0;0.0009268354;1000.7631;  4.0000960E-01;632.27502;3;-29.816095;0.0;0.28492865;0;-0.34681934;  1.0016735E+04;  0.0000000E+00;  3.9915857E-09;  1.0000000E+04;  0.0000000E+00;  9.9980430E+03;-0.40492287;0.0;0.058103535;956.98462
  5.1989090E-01;  9.9999998E-03;  4.0003091E-02;1852;-0.067900866;0.0;0.0018515411;1000.7673;  4.0000969E-01;635.73169;3;-30.04525;0.0;0.58904022;0;-0.35014746;  1.0016841E+04;  0.0000000E+00;  3.7388752E-08;  1.0000000E+04;  0.0000000E+00;  9.9980293E+03;-0.40824285;0.0;0.058095399;965.36249
  5.1988971E-01;  9.9999998E-03;  6.0004614E-02;1853;-0.068847418;0.0;0.0027773448;1000.775;  4.0000975E-01;642.05249;3;-30.397457;0.0;0.93112695;0;-0.35557678;  1.0017021E+04;  0.0000000E+00;  1.4396647E-07;  1.0000000E+04;  0.0000000E+00;  9.9980010E+03;-0.41370851;0.0;0.058131717;978.8504
  5.1988798E-01;  9.9999998E-03;  8.0006130E-02;1854;-0.070144527;0.0;0.0037171396;1000.7863;  4.0000960E-01;651.43488;3;-30.834272;0.0;1.3331126;0;-0.3629646;  1.0017280E+04;  0.0000000E+00;  4.3581454E-07;  1.0000000E+04;  0.0000000E+00;  9.9979697E+03;-0.42122185;0.0;0.058257256;996.35242
  5.1988572E-01;  9.9999998E-03;  1.0000765E-01;1855;-0.071765527;0.0;0.0046856534;1000.8018;  4.0000963E-01;664.27393;3;-31.302931;0.0;1.7973239;0;-0.37212592;  1.0017628E+04;  0.0000000E+00;  1.1005923E-06;  1.0000000E+04;  0.0000000E+00;  9.9979277E+03;-0.43064797;0.0;0.058522061;1016.6417
  5.1988274E-01;  9.9999998E-03;  1.2000920E-01;1856;-0.073674157;0.0;0.0057046679;1000.8215;  4.0000966E-01;680.5697;3;-31.761526;0.0;2.3525999;0;-0.38275677;  1.0018068E+04;  0.0000000E+00;  2.3093919E-06;  1.0000000E+04;  0.0000000E+00;  9.9978789E+03;-0.44182181;0.0;0.059065059;1040.7845
  5.1987922E-01;  9.9999998E-03;  1.4001079E-01;1857;-0.075807147;0.0;0.0067770057;1000.8448;  4.0000966E-01;699.92706;3;-32.157471;0.0;2.9730902;0;-0.39423159;  1.0018610E+04;  0.0000000E+00;  4.0536415E-06;  1.0000000E+04;  0.0000000E+00;  9.9978066E+03;-0.45456028;0.0;0.060328692;1077.958
  5.3987372E-01;  9.9999998E-03;  1.9505072E-12;1881;-0.076094002;0.0;1.5369211e-09;1000.8362;  4.0002596E-01;692.71613;3;-32.574333;0.0;1.0572279e-05;0;-0.34868705;  1.0018091E+04;  0.0000000E+00;  4.2562932E-16;  1.0000000E+04;  0.0000000E+00;  9.9973330E+03;-0.42861363;0.0;0.07992658;1286.0575
  5.3987342E-01;  9.9999998E-03;  2.0002244E-02;1882;-0.076314718;0.0;0.001364449;1000.8376;  4.0002584E-01;693.90125;3;-32.666695;0.0;0.37981364;0;-0.35000631;  1.0018128E+04;  0.0000000E+00;  3.1971418E-08;  1.0000000E+04;  0.0000000E+00;  9.9973232E+03;-0.42972949;0.0;0.079723187;1290.8043
  5.3987265E-01;  9.9999998E-03;  4.0004473E-02;1883;-0.076970719;0.0;0.0027144833;1000.8419;  4.0002590E-01;697.45673;3;-32.932457;0.0;0.77377242;0;-0.35392261;  1.0018241E+04;  0.0000000E+00;  1.5436673E-07;  1.0000000E+04;  0.0000000E+00;  9.9972969E+03;-0.43304974;0.0;0.079127133;1304.3606
  5.3987128E-01;  9.9999998E-03;  6.0006682E-02;1884;-0.078046858;0.0;0.0040429737;1000.8496;  4.0002590E-01;703.87622;3;-33.338291;0.0;1.1955492;0;-0.3603366;  1.0018429E+04;  0.0000000E+00;  5.3337055E-07;  1.0000000E+04;  0.0000000E+00;  9.9972637E+03;-0.43850178;0.0;0.078165174;1324.4359
  5.3986931E-01;  9.9999998E-03;  8.0008887E-02;1885;-0.079521827;0.0;0.0053545474;1000.8611;  4.0002587E-01;713.45612;3;-33.83672;0.0;1.6610889;0;-0.36912173;  1.0018701E+04;  0.0000000E+00;  1.5417028E-06;  1.0000000E+04;  0.0000000E+00;  9.9972246E+03;-0.44597569;0.0;0.076853961;1346.9193
  5.3986669E-01;  9.9999998E-03;  1.0001110E-01;1886;-0.081368126;0.0;0.0066655274;1000.8777;  4.0002584E-01;727.18402;3;-34.370842;0.0;2.1847267;0;-0.38011926;  1.0019068E+04;  0.0000000E+00;  3.6657023E-06;  1.0000000E+04;  0.0000000E+00;  9.9971885E+03;-0.4553436;0.0;0.075224355;1366.973
  5.3986329E-01;  9.9999998E-03;  1.2001334E-01;1887;-0.08354301;0.0;0.0079789469;1000.8995;  4.0002581E-01;745.25745;3;-34.87402;0.0;2.7729523;0;-0.39301735;  1.0019529E+04;  0.0000000E+00;  7.1387963E-06;  1.0000000E+04;  0.0000000E+00;  9.9971631E+03;-0.46647877;0.0;0.073461421;1382.9828
  5.3985918E-01;  9.9999998E-03;  1.4001557E-01;1888;-0.085977711;0.0;0.0092823757;1000.9261;  4.0002573E-01;767.28137;3;-35.288273;0.0;3.4111407;0;-0.4070586;  1.0020097E+04;  0.0000000E+00;  1.1128820E-05;  1.0000000E+04;  0.0000000E+00;  9.9971289E+03;-0.47928259;0.0;0.072223976;1405.1617
  5.5985355E-01;  9.9999998E-03; -2.8530351E-12;1912;-0.08581531;0.0;-1.2584459e-09;1000.9406;  4.0006965E-01;779.22968;3;-35.513157;0.0;-3.9092629e-06;0;-0.33302391;  1.0018865E+04;  0.0000000E+00; -3.5376185E-15;  1.0000000E+04;  0.0000000E+00;  9.9964502E+03;-0.44046918;0.0;0.10744528;1689.5897
  5.5985326E-01;  9.9999998E-03;  2.0003108E-02;1913;-0.086063728;0.0;0.0019334146;1000.9418;  4.0006974E-01;780.21729;3;-35.618725;0.0;0.54205716;0;-0.33452675;  1.0018905E+04;  0.0000000E+00;  6.4758531E-08;  1.0000000E+04;  0.0000000E+00;  9.9964365E+03;-0.44154549;0.0;0.10701874;1698.1008
  5.5985236E-01;  9.9999998E-03;  4.0006220E-02;1914;-0.086801276;0.0;0.0038449219;1000.9453;  4.0006974E-01;783.18018;3;-35.921459;0.0;1.0791264;0;-0.33899438;  1.0019020E+04;  0.0000000E+00;  3.3661658E-07;  1.0000000E+04;  0.0000000E+00;  9.9963887E+03;-0.44473979;0.0;0.1057454;1722.0751
  5.5985087E-01;  9.9999998E-03;  6.0009342E-02;1915;-0.088009059;0.0;0.0057171881;1000.952;  4.0006971E-01;788.71082;3;-36.380219;0.0;1.6094633;0;-0.3463316;  1.0019214E+04;  0.0000000E+00;  1.2138256E-06;  1.0000000E+04;  0.0000000E+00;  9.9963291E+03;-0.44995737;0.0;0.10362576;1756.5532
  5.5984861E-01;  9.9999998E-03;  8.0012485E-02;1916;-0.089664094;0.0;0.0075471508;1000.9628;  4.0006959E-01;797.69812;3;-36.942253;0.0;2.1588349;0;-0.35643646;  1.0019494E+04;  0.0000000E+00;  3.5036016E-06;  1.0000000E+04;  0.0000000E+00;  9.9962656E+03;-0.45707136;0.0;0.1006349;1793.1936
  5.5984563E-01;  9.9999998E-03;  1.0001566E-01;1917;-0.091733672;0.0;0.0093273539;1000.9792;  4.0006968E-01;811.22845;3;-37.533222;0.0;2.7359016;0;-0.36917469;  1.0019866E+04;  0.0000000E+00;  8.0345108E-06;  1.0000000E+04;  0.0000000E+00;  9.9962207E+03;-0.46595466;0.0;0.096779972;1822.5221
  5.5984175E-01;  9.9999998E-03;  1.2001885E-01;1918;-0.094172709;0.0;0.011043165;1001.0015;  4.0006971E-01;829.6969;3;-38.080238;0.0;3.3276098;0;-0.38419589;  1.0020335E+04;  0.0000000E+00;  1.4380306E-05;  1.0000000E+04;  0.0000000E+00;  9.9962021E+03;-0.47651768;0.0;0.092321776;1840.407
  5.5983704E-01;  9.9999998E-03;  1.4002204E-01;1919;-0.096898489;0.0;0.012685507;1001.0293;  4.0006959E-01;852.70837;3;-38.508308;0.0;3.9361739;0;-0.40054661;  1.0020913E+04;  0.0000000E+00;  1.9563475E-05;  1.0000000E+04;  0.0000000E+00;  9.9961777E+03;-0.48874155;0.0;0.088194922;1859.7365
  5.7983232E-01;  9.9999998E-03; -2.0211733E-13;1943;-0.095957339;0.0;-1.1448509e-09;1001.1669;  4.0018588E-01;966.67615;3;-38.487606;0.0;-2.3708599e-06;0;-0.29073331;  1.0018630E+04;  0.0000000E+00; -1.6671372E-15;  1.0000000E+04;  0.0000000E+00;  9.9953955E+03;-0.43194199;0.0;0.14120868;2165.9626
  5.7983196E-01;  9.9999998E-03;  2.0004127E-02;1944;-0.09623345;0.0;0.0026416283;1001.1675;  4.0018579E-01;967.26874;3;-38.602013;0.0;0.77833968;0;-0.29239732;  1.0018668E+04;  0.0000000E+00;  4.4257330E-08;  1.0000000E+04;  0.0000000E+00;  9.9953691E+03;-0.43293327;0.0;0.14053597;2180.6516
  5.7983094E-01;  9.9999998E-03;  4.0008277E-02;1945;-0.097051069;0.0;0.0052449894;1001.1697;  4.0018588E-01;969.04645;3;-38.933277;0.0;1.5260031;0;-0.2973446;  1.0018786E+04;  0.0000000E+00;  3.7059530E-07;  1.0000000E+04;  0.0000000E+00;  9.9952930E+03;-0.43586078;0.0;0.13851619;2221.9841
  5.7982928E-01;  9.9999998E-03;  6.0012490E-02;1946;-0.098383754;0.0;0.0077883871;1001.174;  4.0018582E-01;972.60187;3;-39.437618;0.0;2.2218635;0;-0.30548352;  1.0018980E+04;  0.0000000E+00;  1.7490662E-06;  1.0000000E+04;  0.0000000E+00;  9.9951836E+03;-0.44060454;0.0;0.13512102;2281.4614
  5.7982677E-01;  9.9999998E-03;  8.0016807E-02;1947;-0.10020504;0.0;0.010264368;1001.1821;  4.0018576E-01;979.31763;3;-40.050671;0.0;2.8683605;0;-0.31672567;  1.0019260E+04;  0.0000000E+00;  5.5886594E-06;  1.0000000E+04;  0.0000000E+00;  9.9950703E+03;-0.44700918;0.0;0.1302835;2345.3821
  5.7982343E-01;  9.9999998E-03;  1.0002123E-01;1948;-0.10247847;0.0;0.012654536;1001.196;  4.0018579E-01;990.87268;3;-40.687016;0.0;3.481092;0;-0.33093271;  1.0019623E+04;  0.0000000E+00;  1.2628509E-05;  1.0000000E+04;  0.0000000E+00;  9.9949844E+03;-0.45493758;0.0;0.12400486;2399.178
  5.7981908E-01;  9.9999998E-03;  1.2002573E-01;1949;-0.10515138;0.0;0.014920685;1001.2162;  4.0018576E-01;1007.5634;3;-41.254971;0.0;4.069356;0;-0.34764588;  1.0020078E+04;  0.0000000E+00;  2.0261961E-05;  1.0000000E+04;  0.0000000E+00;  9.9949336E+03;-0.46431991;0.0;0.11667403;2437.5732
  5.7981378E-01;  9.9999998E-03;  1.4003021E-01;1950;-0.1081415;0.0;0.017026667;1001.2409;  4.0018576E-01;1028.007;3;-41.685432;0.0;4.6328802;0;-0.36565754;  1.0020636E+04;  0.0000000E+00;  2.1444564E-05;  1.0000000E+04;  0.0000000E+00;  9.9948740E+03;-0.47519192;0.0;0.10953438;2478.4185
  5.9981143E-01;  9.9999998E-03;  6.2757937E-12;1974;-0.10587695;0.0;3.4745824e-09;1001.7545;  4.0048099E-01;1453.4644;3;-41.336033;0.0;-9.3244307e-07;0;-0.21016295;  1.0016865E+04;  0.0000000E+00; -3.5742652E-15;  1.0000000E+04;  0.0000000E+00;  9.9941641E+03;-0.39190525;0.0;0.1817423;2714.7495
  5.9981108E-01;  9.9999998E-03;  2.0005299E-02;1975;-0.10618059;0.0;0.0035072099;1001.7542;  4.0048105E-01;1453.2668;3;-41.456825;0.0;1.1037211;0;-0.21194904;  1.0016902E+04;  0.0000000E+00; -1.7073316E-07;  1.0000000E+04;  0.0000000E+00;  9.9941201E+03;-0.3927626;0.0;0.18081357;2738.5835
  5.9980994E-01;  9.9999998E-03;  4.0010639E-02;1976;-0.10707328;0.0;0.0069610137;1001.7535;  4.0048096E-01;1452.6742;3;-41.795021;0.0;2.1565652;0;-0.21725883;  1.0017015E+04;  0.0000000E+00; -3.2170067E-07;  1.0000000E+04;  0.0000000E+00;  9.9939941E+03;-0.39527845;0.0;0.17801963;2805.8611
  5.9980804E-01;  9.9999998E-03;  6.0016099E-02;1977;-0.1085182;0.0;0.010314042;1001.7537;  4.0048110E-01;1452.8717;3;-42.318188;0.0;3.0692849;0;-0.22599618;  1.0017202E+04;  0.0000000E+00;  8.8867768E-07;  1.0000000E+04;  0.0000000E+00;  9.9938096E+03;-0.399306;0.0;0.17330982;2903.7031
  5.9980530E-01;  9.9999998E-03;  8.0021791E-02;1978;-0.11047625;0.0;0.013568372;1001.7568;  4.0048096E-01;1455.4396;3;-42.952393;0.0;3.8321135;0;-0.23807183;  1.0017464E+04;  0.0000000E+00;  5.4162510E-06;  1.0000000E+04;  0.0000000E+00;  9.9936162E+03;-0.40465841;0.0;0.16658658;3012.156
  5.9980160E-01;  9.9999998E-03;  1.0002775E-01;1979;-0.11291645;0.0;0.016709674;1001.765;  4.0048087E-01;1462.254;3;-43.615707;0.0;4.490159;0;-0.25329444;  1.0017797E+04;  0.0000000E+00;  1.3134801E-05;  1.0000000E+04;  0.0000000E+00;  9.9934453E+03;-0.41117039;0.0;0.15787596;3111.7727
  5.9979683E-01;  9.9999998E-03;  1.2003389E-01;1980;-0.11577997;0.0;0.019652905;1001.7783;  4.0048078E-01;1473.3153;3;-44.192436;0.0;5.0198183;0;-0.27102768;  1.0018209E+04;  0.0000000E+00;  1.6844662E-05;  1.0000000E+04;  0.0000000E+00;  9.9933027E+03;-0.41875124;0.0;0.14772354;3198.0605
  5.9979093E-01;  9.9999998E-03;  1.4004000E-01;1981;-0.11899991;0.0;0.022313833;1001.7947;  4.0048087E-01;1486.8455;3;-44.611988;0.0;5.4746132;0;-0.28982553;  1.0018701E+04;  0.0000000E+00;  4.3256164E-06;  1.0000000E+04;  0.0000000E+00;  9.9931396E+03;-0.42743567;0.0;0.13761014;3295.2319
  6.1979234E-01;  9.9999998E-03; -4.7277594E-12;2005;-0.11495562;0.0;-1.6142687e-09;1003.1771;  4.0115681E-01;2632.061;3;-43.910213;0.0;-7.7120203e-06;0;-0.075665683;  1.0012962E+04;  0.0000000E+00; -5.2597930E-15;  1.0000000E+04;  0.0000000E+00;  9.9927539E+03;-0.30512729;0.0;0.22946161;3333.21
  6.1979192E-01;  9.9999998E-03;  2.0006595E-02;2006;-0.1152825;0.0;0.004535777;1003.1753;  4.0115684E-01;2630.5796;3;-44.031624;0.0;1.5185286;0;-0.077503294;  1.0012993E+04;  0.0000000E+00; -7.6031682E-07;  1.0000000E+04;  0.0000000E+00;  9.9926836E+03;-0.30579311;0.0;0.22828981;3369.5688
  6.1979067E-01;  9.9999998E-03;  4.0013269E-02;2007;-0.11624388;0.0;0.0089834891;1003.1704;  4.0115690E-01;2626.5303;3;-44.377834;0.0;2.9148405;0;-0.082963213;  1.0013091E+04;  0.0000000E+00; -2.4813778E-06;  1.0000000E+04;  0.0000000E+00;  9.9924912E+03;-0.30772874;0.0;0.22476552;3472.6211
  6.1978853E-01;  9.9999998E-03;  6.0020160E-02;2008;-0.11779758;0.0;0.013298062;1003.1641;  4.0115684E-01;2621.3948;3;-44.887291;0.0;4.0940361;0;-0.091943949;  1.0013251E+04;  0.0000000E+00; -3.2412424E-06;  1.0000000E+04;  0.0000000E+00;  9.9922031E+03;-0.31076878;0.0;0.21882483;3624.2952
  6.1978543E-01;  9.9999998E-03;  8.0027431E-02;2009;-0.11991356;0.0;0.017467724;1003.1586;  4.0115678E-01;2616.8518;3;-45.518917;0.0;5.0684328;0;-0.10434714;  1.0013469E+04;  0.0000000E+00; -5.6112310E-07;  1.0000000E+04;  0.0000000E+00;  9.9918848E+03;-0.31469521;0.0;0.21034807;3797.7122
  6.1978132E-01;  9.9999998E-03;  1.0003518E-01;2010;-0.12248933;0.0;0.021424955;1003.1568;  4.0115684E-01;2615.2717;3;-46.123657;0.0;5.7024002;0;-0.1199028;  1.0013742E+04;  0.0000000E+00;  3.3796134E-06;  1.0000000E+04;  0.0000000E+00;  9.9915762E+03;-0.3192943;0.0;0.1993915;3968.9407
  6.1977613E-01;  9.9999998E-03;  1.2004329E-01;2011;-0.12546811;0.0;0.025108239;1003.1583;  4.0115675E-01;2616.5557;3;-46.643162;0.0;6.1145086;0;-0.13781574;  1.0014071E+04;  0.0000000E+00; -4.3463656E-06;  1.0000000E+04;  0.0000000E+00;  9.9912793E+03;-0.32440719;0.0;0.18659145;4135.5049
  6.1976969E-01;  9.9999998E-03;  1.4005139E-01;2012;-0.12882109;0.0;0.028413167;1003.1593;  4.0115684E-01;2617.3459;3;-47.006905;0.0;6.4238458;0;-0.15651305;  1.0014442E+04;  0.0000000E+00; -4.0950708E-05;  1.0000000E+04;  0.0000000E+00;  9.9909326E+03;-0.32997805;0.0;0.173465;4327.4004
  6.3977605E-01;  9.9999998E-03;  6.7666844E-12;2036;-0.12279503;0.0;6.6518067e-09;1005.8665;  4.0239635E-01;4860.0537;3;-46.226048;0.0;9.2582195e-07;0;0.12778743;  1.0006424E+04;  0.0000000E+00; -7.1439089E-15;  1.0000000E+04;  0.0000000E+00;  9.9911768E+03;-0.15655826;0.0;0.28434569;4013.6921
  6.3977563E-01;  9.9999998E-03;  2.0007951E-02;2037;-0.12312532;0.0;0.0056186537;1005.8625;  4.0239623E-01;4856.8931;3;-46.310326;0.0;1.9180999;0;0.12601571;  1.0006448E+04;  0.0000000E+00; -1.8175815E-06;  1.0000000E+04;  0.0000000E+00;  9.9910781E+03;-0.15695788;0.0;0.28297359;4066.0073
  6.3977420E-01;  9.9999998E-03;  4.0016003E-02;2038;-0.12413152;0.0;0.011105545;1005.8515;  4.0239626E-01;4847.7085;3;-46.610802;0.0;3.6811104;0;0.12075602;  1.0006513E+04;  0.0000000E+00; -6.5308295E-06;  1.0000000E+04;  0.0000000E+00;  9.9907930E+03;-0.15809335;0.0;0.27884936;4214.8203
  6.3977176E-01;  9.9999998E-03;  6.0024347E-02;2039;-0.12575701;0.0;0.016378554;1005.8354;  4.0239617E-01;4834.376;3;-47.07077;0.0;5.1490507;0;0.11210398;  1.0006621E+04;  0.0000000E+00; -1.1708275E-05;  1.0000000E+04;  0.0000000E+00;  9.9903701E+03;-0.15979059;0.0;0.27189457;4436.1108
  6.3976836E-01;  9.9999998E-03;  8.0033273E-02;2040;-0.12796269;0.0;0.021483025;1005.8181;  4.0239626E-01;4819.958;3;-47.657215;0.0;6.3147807;0;0.10014644;  1.0006764E+04;  0.0000000E+00; -1.4622325E-05;  1.0000000E+04;  0.0000000E+00;  9.9898818E+03;-0.16180763;0.0;0.26195407;4695.3154
  6.3976377E-01;  9.9999998E-03;  1.0004300E-01;2041;-0.13069566;0.0;0.026390152;1005.8012;  4.0239620E-01;4806.0327;3;-48.225574;0.0;7.0138588;0;0.085167512;  1.0006932E+04;  0.0000000E+00; -1.9454121E-05;  1.0000000E+04;  0.0000000E+00;  9.9893809E+03;-0.16387689;0.0;0.2490444;4963.7339
  6.3975805E-01;  9.9999998E-03;  1.2005346E-01;2042;-0.13380222;0.0;0.03100347;1005.7846;  4.0239605E-01;4792.3052;3;-48.642624;0.0;7.2712126;0;0.067962497;  1.0007119E+04;  0.0000000E+00; -4.3798293E-05;  1.0000000E+04;  0.0000000E+00;  9.9888730E+03;-0.165736;0.0;0.2336985;5240.3354
  6.3975114E-01;  9.9999998E-03;  1.4006406E-01;2043;-0.13723846;0.0;0.035065532;1005.764;  4.0239602E-01;4775.2197;3;-48.905239;0.0;7.2451119;0;0.05003342;  1.0007308E+04;  0.0000000E+00; -1.0627220E-04;  1.0000000E+04;  0.0000000E+00;  9.9882852E+03;-0.16714814;0.0;0.21718156;5558.1909
  6.5976375E-01;  9.9999998E-03; -4.2565786E-12;2067;-0.12889679;0.0;6.8430395e-09;1009.2131;  4.0395585E-01;7632.5435;3;-48.070427;0.0;1.1460739e-05;0;0.40544987;  9.9972158E+03;  0.0000000E+00;  5.0048365E-15;  1.0000000E+04;  0.0000000E+00;  9.9894697E+03;0.060067054;0.0;0.34538281;4739.3477
  6.5976322E-01;  9.9999998E-03;  2.0009561E-02;2068;-0.12921651;0.0;0.0069266157;1009.2064;  4.0395585E-01;7627.0132;3;-48.116093;0.0;2.4787357;0;0.40391412;  9.9972207E+03;  0.0000000E+00; -3.0467943E-06;  1.0000000E+04;  0.0000000E+00;  9.9893311E+03;0.060036425;0.0;0.3438777;4810.4819
  6.5976167E-01;  9.9999998E-03;  4.0019277E-02;2069;-0.13021973;0.0;0.013675772;1009.1876;  4.0395585E-01;7611.4092;3;-48.353302;0.0;4.6969171;0;0.39935309;  9.9972393E+03;  0.0000000E+00; -1.1414198E-05;  1.0000000E+04;  0.0000000E+00;  9.9889414E+03;0.06000242;0.0;0.33935067;5013.3872
  6.5975899E-01;  9.9999998E-03;  6.0029417E-02;2070;-0.13187352;0.0;0.020134479;1009.1592;  4.0395582E-01;7587.9048;3;-48.726089;0.0;6.4563446;0;0.391819;  9.9972637E+03;  0.0000000E+00; -2.2437222E-05;  1.0000000E+04;  0.0000000E+00;  9.9883535E+03;0.060128134;0.0;0.33169088;5317.3691
  6.5975523E-01;  9.9999998E-03;  8.0040388E-02;2071;-0.13412033;0.0;0.026300354;1009.1253;  4.0395582E-01;7559.8574;3;-49.221073;0.0;7.6305652;0;0.38129988;  9.9972881E+03;  0.0000000E+00; -3.3245353E-05;  1.0000000E+04;  0.0000000E+00;  9.9876660E+03;0.060654245;0.0;0.32064563;5679.1011
  6.5975034E-01;  9.9999998E-03;  1.0005251E-01;2072;-0.13687356;0.0;0.032216832;1009.0892;  4.0395579E-01;7529.9336;3;-49.735497;0.0;8.2754679;0;0.36791354;  9.9973027E+03;  0.0000000E+00; -4.8343136E-05;  1.0000000E+04;  0.0000000E+00;  9.9869375E+03;0.061880287;0.0;0.30603325;6063.4995
  6.5974432E-01;  9.9999998E-03;  1.2006572E-01;2073;-0.1399691;0.0;0.03785757;1009.0503;  4.0395579E-01;7497.6396;3;-50.069756;0.0;8.3507309;0;0.35216594;  9.9972939E+03;  0.0000000E+00; -8.5778127E-05;  1.0000000E+04;  0.0000000E+00;  9.9861797E+03;0.064163379;0.0;0.28800255;6468.2354
  6.5973729E-01;  9.9999998E-03;  1.4007930E-01;2074;-0.14337553;0.0;0.042910032;1009.004;  4.0395585E-01;7459.3213;3;-50.28801;0.0;7.9558835;0;0.33520505;  9.9972373E+03;  0.0000000E+00; -1.6025847E-04;  1.0000000E+04;  0.0000000E+00;  9.9853164E+03;0.067948483;0.0;0.26725656;6925.2422
  6.7975861E-01;  9.9999998E-03;  1.1773537E-12;2098;-0.13189535;0.0;-7.5217166e-09;1011.6746;  4.0520176E-01;9671.5625;3;-49.084217;0.0;9.7881421e-06;0;0.74221873;  9.9860986E+03;  0.0000000E+00;  5.0933298E-15;  1.0000000E+04;  0.0000000E+00;  9.9877041E+03;0.33223921;0.0;0.40997952;5480.5845
  6.7975807E-01;  9.9999998E-03;  2.0011622E-02;2099;-0.13224158;0.0;0.008801274;1011.6646;  4.0520161E-01;9663.2666;3;-49.147774;0.0;3.4790335;0;0.74112231;  9.9860840E+03;  0.0000000E+00; -3.7737300E-06;  1.0000000E+04;  0.0000000E+00;  9.9875254E+03;0.33271369;0.0;0.40840861;5572.0068
  6.7975640E-01;  9.9999998E-03;  4.0023472E-02;2100;-0.13329065;0.0;0.017357206;1011.6367;  4.0520164E-01;9640.1582;3;-49.365337;0.0;6.5596094;0;0.73785484;  9.9860371E+03;  0.0000000E+00; -1.4448620E-05;  1.0000000E+04;  0.0000000E+00;  9.9870176E+03;0.33417848;0.0;0.40367639;5833.2861
  6.7975366E-01;  9.9999998E-03;  6.0035914E-02;2101;-0.1349782;0.0;0.025489153;1011.5939;  4.0520182E-01;9604.8027;3;-49.694134;0.0;8.9210386;0;0.73236084;  9.9859502E+03;  0.0000000E+00; -2.9589195E-05;  1.0000000E+04;  0.0000000E+00;  9.9862559E+03;0.33674663;0.0;0.39561421;6226.5391
  6.7974979E-01;  9.9999998E-03;  8.0049552E-02;2102;-0.13720825;0.0;0.033242978;1011.5414;  4.0520182E-01;9561.3496;3;-49.995586;0.0;10.34652;0;0.72437274;  9.9858203E+03;  0.0000000E+00; -4.6131143E-05;  1.0000000E+04;  0.0000000E+00;  9.9853457E+03;0.34059662;0.0;0.38377616;6698.4092
  6.7974478E-01;  9.9999998E-03;  1.0006484E-01;2103;-0.13986607;0.0;0.040667713;1011.4835;  4.0520197E-01;9513.3535;3;-50.271976;0.0;10.837463;0;0.7135455;  9.9856387E+03;  0.0000000E+00; -6.6833345E-05;  1.0000000E+04;  0.0000000E+00;  9.9843779E+03;0.34598261;0.0;0.36756289;7204.7773
  6.7973882E-01;  9.9999998E-03;  1.2008161E-01;2104;-0.14280996;0.0;0.047613818;1011.4197;  4.0520206E-01;9460.4199;3;-50.453831;0.0;10.477449;0;0.69971442;  9.9853857E+03;  0.0000000E+00; -1.0467933E-04;  1.0000000E+04;  0.0000000E+00;  9.9833701E+03;0.35327861;0.0;0.34643584;7737.6494
  6.7973179E-01;  9.9999998E-03;  1.4009890E-01;2105;-0.14599596;0.0;0.053779081;1011.3465;  4.0520227E-01;9399.7842;3;-50.500874;0.0;9.5336313;0;0.68333042;  9.9850371E+03;  0.0000000E+00; -1.6732527E-04;  1.0000000E+04;  0.0000000E+00;  9.9822646E+03;0.36304674;0.0;0.32028371;8323.0918
  6.9976735E-01;  9.9999998E-03;  2.7764308E-11;2129;-0.12997152;0.0;-2.5528875e-09;1012.7192;  4.0588400E-01;10536.758;3;-49.363007;0.0;-1.8723775e-05;0;1.0963084;  9.9747969E+03;  0.0000000E+00;  7.2550481E-15;  1.0000000E+04;  0.0000000E+00;  9.9859893E+03;0.62241018;0.0;0.47389817;6197.0396
  6.9976681E-01;  9.9999998E-03;  2.0013502E-02;2130;-0.13034527;0.0;0.010711433;1012.7063;  4.0588400E-01;10526.092;3;-49.448666;0.0;4.6502752;0;1.0958321;  9.9747559E+03;  0.0000000E+00; -3.4359914E-06;  1.0000000E+04;  0.0000000E+00;  9.9857686E+03;0.62353975;0.0;0.4722923;6308.1074
  6.9976521E-01;  9.9999998E-03;  4.0027332E-02;2131;-0.13140495;0.0;0.021120783;1012.6686;  4.0588418E-01;10494.885;3;-49.660645;0.0;8.7894192;0;1.0943844;  9.9746289E+03;  0.0000000E+00; -1.3328260E-05;  1.0000000E+04;  0.0000000E+00;  9.9851484E+03;0.62693554;0.0;0.46744892;6625.8589
  6.9976252E-01;  9.9999998E-03;  6.0042094E-02;2132;-0.13310814;0.0;0.03113538;1012.6108;  4.0588421E-01;10446.989;3;-49.921158;0.0;12.041677;0;1.0917363;  9.9744180E+03;  0.0000000E+00; -2.7803075E-05;  1.0000000E+04;  0.0000000E+00;  9.9842129E+03;0.6326158;0.0;0.45912045;7105.1118
  6.9975877E-01;  9.9999998E-03;  8.0058634E-02;2133;-0.1353292;0.0;0.04087846;1012.5391;  4.0588439E-01;10387.638;3;-50.172657;0.0;14.195271;0;1.0872054;  9.9741143E+03;  0.0000000E+00; -4.3878757E-05;  1.0000000E+04;  0.0000000E+00;  9.9830957E+03;0.64061904;0.0;0.4465864;7681.5996
  6.9975400E-01;  9.9999998E-03;  1.0007760E-01;2134;-0.13790686;0.0;0.050464772;1012.4589;  4.0588447E-01;10321.176;3;-50.292519;0.0;15.155551;0;1.0796936;  9.9737070E+03;  0.0000000E+00; -6.1510334E-05;  1.0000000E+04;  0.0000000E+00;  9.9819072E+03;0.65103734;0.0;0.42865622;8299.6289
  6.9974840E-01;  9.9999998E-03;  1.2009887E-01;2135;-0.140508;0.0;0.059773628;1012.3713;  4.0588477E-01;10248.591;3;-50.076473;0.0;14.965928;0;1.067971;  9.9731885E+03;  0.0000000E+00; -8.6746390E-05;  1.0000000E+04;  0.0000000E+00;  9.9806914E+03;0.66409409;0.0;0.40387684;8941.3564
  6.9974196E-01;  9.9999998E-03;  1.4012119E-01;2136;-0.14303422;0.0;0.068285577;1012.2736;  4.0588507E-01;10167.71;3;-49.550346;0.0;13.816731;0;1.0514203;  9.9725332E+03;  0.0000000E+00; -1.2096766E-04;  1.0000000E+04;  0.0000000E+00;  9.9794063E+03;0.68023962;0.0;0.37118068;9623.2422
  7.1982026E-01;  9.9999998E-03; -5.3092457E-12;2160;-0.10556853;0.0;-6.9913355e-09;1012.9235;  4.0618280E-01;10705.73;3;-43.688694;0.0;1.1721859e-05;0;1.4047608;  9.9656416E+03;  0.0000000E+00;  6.0356747E-15;  1.0000000E+04;  0.0000000E+00;  9.9844365E+03;0.87257308;0.0;0.5321877;6846.064
  7.1981978E-01;  9.9999998E-03;  2.0015303E-02;2161;-0.1059591;0.0;0.012439161;1012.9075;  4.0618286E-01;10692.498;3;-43.859974;0.0;5.731585;0;1.4049678;  9.9655762E+03;  0.0000000E+00; -2.2045647E-06;  1.0000000E+04;  0.0000000E+00;  9.9841846E+03;0.87445462;0.0;0.53051317;6973.8462
  7.1981835E-01;  9.9999998E-03;  4.0031001E-02;2162;-0.10710511;0.0;0.024566207;1012.8612;  4.0618289E-01;10654.183;3;-44.341442;0.0;10.928588;0;1.4055221;  9.9653760E+03;  0.0000000E+00; -8.6268183E-06;  1.0000000E+04;  0.0000000E+00;  9.9834697E+03;0.88006651;0.0;0.52545565;7339.4727
  7.1981591E-01;  9.9999998E-03;  6.0047828E-02;2163;-0.10893527;0.0;0.036320191;1012.7899;  4.0618303E-01;10595.128;3;-45.032291;0.0;15.187127;0;1.4059976;  9.9650391E+03;  0.0000000E+00; -1.8067896E-05;  1.0000000E+04;  0.0000000E+00;  9.9823896E+03;0.88931006;0.0;0.51668757;7890.8896
  7.1981251E-01;  9.9999998E-03;  8.0066822E-02;2164;-0.11136007;0.0;0.047927897;1012.7007;  4.0618333E-01;10521.262;3;-45.815983;0.0;18.317656;0;1.4052359;  9.9645625E+03;  0.0000000E+00; -2.7984555E-05;  1.0000000E+04;  0.0000000E+00;  9.9811035E+03;0.90204436;0.0;0.50319153;8552.9512
  7.1980798E-01;  9.9999998E-03;  1.0008880E-01;2165;-0.11429325;0.0;0.059675213;1012.6008;  4.0618348E-01;10438.408;3;-46.572704;0.0;20.346537;0;1.4012601;  9.9639346E+03;  0.0000000E+00; -3.6531546E-05;  1.0000000E+04;  0.0000000E+00;  9.9797461E+03;0.91811579;0.0;0.48314431;9257.2559
  7.1980226E-01;  9.9999998E-03;  1.2011375E-01;2166;-0.11762966;0.0;0.071581349;1012.493;  4.0618384E-01;10349.137;3;-47.114521;0.0;21.402428;0;1.3915801;  9.9631563E+03;  0.0000000E+00; -4.4947104E-05;  1.0000000E+04;  0.0000000E+00;  9.9783867E+03;0.93741953;0.0;0.45416063;9973.9805
  7.1979541E-01;  9.9999998E-03;  1.4014034E-01;2167;-0.12120157;0.0;0.083077252;1012.3763;  4.0618432E-01;10252.458;3;-47.255592;0.0;21.596497;0;1.3742672;  9.9622139E+03;  0.0000000E+00; -5.2606181E-05;  1.0000000E+04;  0.0000000E+00;  9.9770156E+03;0.95997608;0.0;0.41429114;10709.071
  7.3988849E-01;  9.9999998E-03;  2.8033333E-11;2191;-0.06700591;0.0;1.9148063e-08;1012.8895;  4.0630040E-01;10677.191;3;-29.049774;0.0;-1.9393628e-06;0;1.6100543;  9.9604619E+03;  0.0000000E+00; -9.7237735E-17;  1.0000000E+04;  0.0000000E+00;  9.9831572E+03;1.0297198;0.0;0.58033442;7388.7568
  7.3988813E-01;  9.9999998E-03;  2.0016586E-02;2192;-0.067299083;0.0;0.013523987;1012.8712;  4.0630054E-01;10661.984;3;-29.172302;0.0;6.262383;0;1.6108048;  9.9603750E+03;  0.0000000E+00; -8.7610721E-07;  1.0000000E+04;  0.0000000E+00;  9.9828799E+03;1.0323037;0.0;0.57850116;7528.7046
  7.3988700E-01;  9.9999998E-03;  4.0033560E-02;2193;-0.068154797;0.0;0.026671454;1012.8183;  4.0630057E-01;10618.239;3;-29.515619;0.0;11.916929;0;1.6129522;  9.9601143E+03;  0.0000000E+00; -3.4483974E-06;  1.0000000E+04;  0.0000000E+00;  9.9820967E+03;1.0399855;0.0;0.57296675;7928.9668
  7.3988521E-01;  9.9999998E-03;  6.0051683E-02;2194;-0.069510669;0.0;0.039340489;1012.7368;  4.0630075E-01;10550.695;3;-30.011921;0.0;16.504345;0;1.6159036;  9.9596777E+03;  0.0000000E+00; -7.0507276E-06;  1.0000000E+04;  0.0000000E+00;  9.9809170E+03;1.0525615;0.0;0.56334203;8531.6328
  7.3988271E-01;  9.9999998E-03;  8.0072030E-02;2195;-0.071285926;0.0;0.051745068;1012.6347;  4.0630102E-01;10466.166;3;-30.563314;0.0;19.798166;0;1.6180859;  9.9590557E+03;  0.0000000E+00; -9.9141989E-06;  1.0000000E+04;  0.0000000E+00;  9.9795146E+03;1.0697194;0.0;0.54836637;9251.8857
  7.3987937E-01;  9.9999998E-03;  1.0009547E-01;2196;-0.073399246;0.0;0.064168192;1012.5207;  4.0630138E-01;10371.664;3;-31.060936;0.0;21.805187;0;1.6167431;  9.9582529E+03;  0.0000000E+00; -1.0053230E-05;  1.0000000E+04;  0.0000000E+00;  9.9780586E+03;1.0910492;0.0;0.52569395;10009.409
  7.3987526E-01;  9.9999998E-03;  1.2012194E-01;2197;-0.075771168;0.0;0.076625198;1012.3989;  4.0630171E-01;10270.842;3;-31.402826;0.0;22.707676;0;1.6082571;  9.9572637E+03;  0.0000000E+00; -7.0618198E-06;  1.0000000E+04;  0.0000000E+00;  9.9766396E+03;1.1160421;0.0;0.49221498;10763.05
  7.3987037E-01;  9.9999998E-03;  1.4015001E-01;2198;-0.078305788;0.0;0.08854527;1012.2707;  4.0630203E-01;10164.588;3;-31.507332;0.0;22.698181;0;1.5894918;  9.9560957E+03;  0.0000000E+00; -1.4041453E-06;  1.0000000E+04;  0.0000000E+00;  9.9752598E+03;1.1440761;0.0;0.44541574;11510.419
  7.5994039E-01;  9.9999998E-03;  5.5538612E-11;2222;-0.037598148;0.0;3.4595978e-08;1012.8995;  4.0634474E-01;10684.954;3;-17.753189;0.0;3.1820382e-06;0;1.696465;  9.9594326E+03;  0.0000000E+00; -2.4453288E-15;  1.0000000E+04;  0.0000000E+00;  9.9822139E+03;1.0808599;0.0;0.61560512;7796.8877
  7.5994015E-01;  9.9999998E-03;  2.0017495E-02;2223;-0.037788726;0.0;0.014281949;1012.8798;  4.0634498E-01;10668.662;3;-17.826181;0.0;6.6160116;0;1.6974581;  9.9593350E+03;  0.0000000E+00; -8.0141476E-08;  1.0000000E+04;  0.0000000E+00;  9.9819258E+03;1.0839372;0.0;0.61352098;7944.0444
  7.5993943E-01;  9.9999998E-03;  4.0035356E-02;2224;-0.038339972;0.0;0.028127698;1012.8231;  4.0634504E-01;10621.66;3;-18.026926;0.0;12.564567;0;1.7003143;  9.9590352E+03;  0.0000000E+00; -3.0852280E-07;  1.0000000E+04;  0.0000000E+00;  9.9811025E+03;1.093069;0.0;0.60724533;8364.6299
  7.5993824E-01;  9.9999998E-03;  6.0054347E-02;2225;-0.039197665;0.0;0.041393511;1012.7355;  4.0634516E-01;10549.083;3;-18.304945;0.0;17.337471;0;1.7043507;  9.9585352E+03;  0.0000000E+00; -4.1934442E-07;  1.0000000E+04;  0.0000000E+00;  9.9798662E+03;1.1079749;0.0;0.59637576;8996.4502
  7.5993663E-01;  9.9999998E-03;  8.0075569E-02;2226;-0.040291477;0.0;0.054275718;1012.6261;  4.0634549E-01;10458.437;3;-18.589048;0.0;20.677231;0;1.7077191;  9.9578262E+03;  0.0000000E+00;  5.1415685E-07;  1.0000000E+04;  0.0000000E+00;  9.9784082E+03;1.1282071;0.0;0.57951206;9747.2422
  7.5993460E-01;  9.9999998E-03;  1.0009991E-01;2227;-0.041551426;0.0;0.067050941;1012.5046;  4.0634573E-01;10357.816;3;-18.802094;0.0;22.579975;0;1.7071273;  9.9569121E+03;  0.0000000E+00;  3.6875638E-06;  1.0000000E+04;  0.0000000E+00;  9.9769131E+03;1.1531311;0.0;0.55399615;10527.287
  7.5993210E-01;  9.9999998E-03;  1.2012727E-01;2228;-0.042910893;0.0;0.079713292;1012.3765;  4.0634617E-01;10251.766;3;-18.874989;0.0;23.23353;0;1.6981685;  9.9557949E+03;  0.0000000E+00;  9.3805947E-06;  1.0000000E+04;  0.0000000E+00;  9.9754902E+03;1.1818547;0.0;0.51631373;11286.739
  7.5992918E-01;  9.9999998E-03;  1.4015608E-01;2229;-0.044290621;0.0;0.091639027;1012.2443;  4.0634659E-01;10142.26;3;-18.753748;0.0;22.848082;0;1.6768816;  9.9545068E+03;  0.0000000E+00;  1.6288952E-05;  1.0000000E+04;  0.0000000E+00;  9.9741582E+03;1.2131106;0.0;0.46377102;12018.636
  7.7997804E-01;  9.9999998E-03; -6.3075036E-12;2253;-0.015954163;0.0;-3.7319384e-12;1013.0046;  4.0636104E-01;10771.321;3;-9.1210918;0.0;-2.785807e-05;0;1.6902664;  9.9613057E+03;  0.0000000E+00; -4.8069831E-15;  1.0000000E+04;  0.0000000E+00;  9.9816279E+03;1.0529534;0.0;0.63731295;8056.0908
  7.7997792E-01;  9.9999998E-03;  2.0018028E-02;2254;-0.016047264;0.0;0.014716908;1012.9847;  4.0636110E-01;10754.733;3;-9.1500874;0.0;6.8003659;0;1.6911819;  9.9612031E+03;  0.0000000E+00;  1.3295416E-07;  1.0000000E+04;  0.0000000E+00;  9.9813350E+03;1.0562483;0.0;0.63493359;8206.0869
  7.7997756E-01;  9.9999998E-03;  4.0036399E-02;2255;-0.016311329;0.0;0.028949343;1012.9267;  4.0636125E-01;10706.748;3;-9.2259264;0.0;12.892424;0;1.6938276;  9.9608906E+03;  0.0000000E+00;  5.1728006E-07;  1.0000000E+04;  0.0000000E+00;  9.9804961E+03;1.0660256;0.0;0.62780201;8634.5195
  7.7997702E-01;  9.9999998E-03;  6.0055852E-02;2256;-0.016706012;0.0;0.042519521;1012.8369;  4.0636137E-01;10632.399;3;-9.3178244;0.0;17.734707;0;1.697512;  9.9603701E+03;  0.0000000E+00;  1.2208097E-06;  1.0000000E+04;  0.0000000E+00;  9.9792412E+03;1.0819579;0.0;0.61555409;9276.75
  7.7997625E-01;  9.9999998E-03;  8.0077514E-02;2257;-0.017179152;0.0;0.055610038;1012.7255;  4.0636161E-01;10540.08;3;-9.3839693;0.0;21.050802;0;1.7003028;  9.9596348E+03;  0.0000000E+00;  2.5229604E-06;  1.0000000E+04;  0.0000000E+00;  9.9777705E+03;1.103523;0.0;0.59677988;10035.949
  7.7997535E-01;  9.9999998E-03;  1.0010228E-01;2258;-0.017680746;0.0;0.068495937;1012.6024;  4.0636200E-01;10438.184;3;-9.382081;0.0;22.833042;0;1.6986851;  9.9586846E+03;  0.0000000E+00;  4.8290522E-06;  1.0000000E+04;  0.0000000E+00;  9.9762803E+03;1.1299525;0.0;0.5687325;10816.427
  7.7997434E-01;  9.9999998E-03;  1.2013002E-01;2259;-0.018168399;0.0;0.081161164;1012.4741;  4.0636230E-01;10331.942;3;-9.2789717;0.0;23.275721;0;1.687892;  9.9575283E+03;  0.0000000E+00;  8.1727203E-06;  1.0000000E+04;  0.0000000E+00;  9.9748916E+03;1.1600912;0.0;0.52780074;11563.17
  7.7997315E-01;  9.9999998E-03;  1.4015909E-01;2260;-0.018597126;0.0;0.092946395;1012.3439;  4.0636277E-01;10224.022;3;-9.053093;0.0;22.601545;0;1.6636126;  9.9562148E+03;  0.0000000E+00;  1.1525643E-05;  1.0000000E+04;  0.0000000E+00;  9.9736211E+03;1.1922104;0.0;0.47140217;12268.14
  8.0000800E-01;  9.9999998E-03; -6.7565328E-11;2284;0.0017318933;0.0;-3.4837122e-08;1013.1649;  4.0636563E-01;10903.034;3;-1.6575419;0.0;-1.2472388e-05;0;1.6316338;  9.9644668E+03;  0.0000000E+00; -9.6443815E-15;  1.0000000E+04;  0.0000000E+00;  9.9813818E+03;0.98539531;0.0;0.64623839;8165.3032
  8.0000794E-01;  9.9999998E-03;  2.0018214E-02;2285;0.0017264599;0.0;0.014857191;1013.1448;  4.0636566E-01;10886.35;3;-1.6503273;0.0;6.8383307;0;1.632256;  9.9643672E+03;  0.0000000E+00;  5.2856912E-08;  1.0000000E+04;  0.0000000E+00;  9.9810908E+03;0.98866504;0.0;0.64359105;8314.8408
  8.0000794E-01;  9.9999998E-03;  4.0036742E-02;2286;0.0017189962;0.0;0.029197389;1013.0873;  4.0636587E-01;10838.861;3;-1.6243352;0.0;12.946941;0;1.6340582;  9.9640625E+03;  0.0000000E+00;  2.0248964E-07;  1.0000000E+04;  0.0000000E+00;  9.9802568E+03;0.99836463;0.0;0.63569361;8741.8047
  8.0000794E-01;  9.9999998E-03;  6.0056310E-02;2287;0.001733425;0.0;0.042819899;1012.9987;  4.0636611E-01;10765.407;3;-1.5680822;0.0;17.768421;0;1.6364388;  9.9635518E+03;  0.0000000E+00;  4.4267145E-07;  1.0000000E+04;  0.0000000E+00;  9.9790127E+03;1.0141721;0.0;0.62226677;9380.9219
  8.0000794E-01;  9.9999998E-03;  8.0078036E-02;2288;0.0018007051;0.0;0.055899516;1012.889;  4.0636635E-01;10674.577;3;-1.4676778;0.0;21.01964;0;1.6375532;  9.9628340E+03;  0.0000000E+00;  7.9174390E-07;  1.0000000E+04;  0.0000000E+00;  9.9775566E+03;1.0355618;0.0;0.60199147;10133.693
  8.0000806E-01;  9.9999998E-03;  1.0010283E-01;2289;0.0019483505;0.0;0.06871625;1012.7683;  4.0636659E-01;10574.566;3;-1.3131843;0.0;22.696146;0;1.6339535;  9.9619053E+03;  0.0000000E+00;  1.2856452E-06;  1.0000000E+04;  0.0000000E+00;  9.9760938E+03;1.0617409;0.0;0.57221258;10902.018
  8.0000830E-01;  9.9999998E-03;  1.2013055E-01;2290;0.0021932325;0.0;0.081258439;1012.6438;  4.0636694E-01;10471.494;3;-1.1031389;0.0;23.001163;0;1.6209122;  9.9607822E+03;  0.0000000E+00;  1.8718753E-06;  1.0000000E+04;  0.0000000E+00;  9.9747471E+03;1.0914805;0.0;0.5294317;11629.002
  8.0000865E-01;  9.9999998E-03;  1.4015952E-01;2291;0.0025438545;0.0;0.092856683;1012.5184;  4.0636739E-01;10367.632;3;-0.84503186;0.0;22.166916;0;1.5941864;  9.9595098E+03;  0.0000000E+00;  2.2628503E-06;  1.0000000E+04;  0.0000000E+00;  9.9735322E+03;1.1228647;0.0;0.47132173;12307.801
  8.2003641E-01;  9.9999998E-03;  1.6245954E-11;2315;0.018897258;0.0;4.7923034e-09;1013.319;  4.0635780E-01;11029.339;3;5.8483176;0.0;-1.8127903e-05;0;1.550282;  9.9678154E+03;  0.0000000E+00; -4.0887526E-15;  1.0000000E+04;  0.0000000E+00;  9.9814482E+03;0.90637618;0.0;0.64390582;8133.7661
  8.2003647E-01;  9.9999998E-03;  2.0018095E-02;2316;0.018968295;0.0;0.014743157;1013.2996;  4.0635791E-01;11013.248;3;5.8842854;0.0;6.758729;0;1.5505338;  9.9677197E+03;  0.0000000E+00; -4.8268607E-08;  1.0000000E+04;  0.0000000E+00;  9.9811611E+03;0.90945476;0.0;0.64107901;8280.6182
  8.2003677E-01;  9.9999998E-03;  4.0036473E-02;2317;0.019184163;0.0;0.028953929;1013.244;  4.0635803E-01;10967.246;3;5.9905858;0.0;12.784891;0;1.5512798;  9.9674346E+03;  0.0000000E+00; -1.8508165E-07;  1.0000000E+04;  0.0000000E+00;  9.9803428E+03;0.91859537;0.0;0.63268441;8699.877
  8.2003725E-01;  9.9999998E-03;  6.0055848E-02;2318;0.019552739;0.0;0.04242054;1013.1581;  4.0635824E-01;10896.072;3;6.1619053;0.0;17.520414;0;1.5520653;  9.9669531E+03;  0.0000000E+00; -3.8787033E-07;  1.0000000E+04;  0.0000000E+00;  9.9791201E+03;0.93351895;0.0;0.61854631;9327.126
  8.2003796E-01;  9.9999998E-03;  8.0077328E-02;2319;0.020085068;0.0;0.055315562;1013.0521;  4.0635845E-01;10808.313;3;6.3886523;0.0;20.68586;0;1.5512561;  9.9662764E+03;  0.0000000E+00; -6.5237634E-07;  1.0000000E+04;  0.0000000E+00;  9.9776973E+03;0.95376176;0.0;0.5974943;10064.709
  8.2003897E-01;  9.9999998E-03;  1.0010182E-01;2320;0.020789385;0.0;0.067928538;1012.9359;  4.0635872E-01;10712.065;3;6.6556115;0.0;22.285389;0;1.5456696;  9.9654023E+03;  0.0000000E+00; -1.0224333E-06;  1.0000000E+04;  0.0000000E+00;  9.9762705E+03;0.97861695;0.0;0.56705254;10815.021
  8.2004029E-01;  9.9999998E-03;  1.2012921E-01;2321;0.021663262;0.0;0.080264054;1012.8168;  4.0635914E-01;10613.447;3;6.9405036;0.0;22.53228;0;1.5308825;  9.9643447E+03;  0.0000000E+00; -1.6065674E-06;  1.0000000E+04;  0.0000000E+00;  9.9749619E+03;1.0069472;0.0;0.52393532;11521.66
  8.2004195E-01;  9.9999998E-03;  1.4015782E-01;2322;0.022689633;0.0;0.091665536;1012.6971;  4.0635958E-01;10514.337;3;7.2163024;0.0;21.665754;0;1.5029993;  9.9631455E+03;  0.0000000E+00; -2.4625954E-06;  1.0000000E+04;  0.0000000E+00;  9.9737891E+03;1.0369155;0.0;0.46608377;12179.896
  8.4006619E-01;  9.9999998E-03;  6.1210259E-11;2346;0.037006516;0.0;4.4196092e-08;1013.245;  4.0625480E-01;10966.223;3;13.792122;0.0;-1.2130185e-05;0;1.4554138;  9.9710791E+03;  0.0000000E+00;  1.5447824E-14;  1.0000000E+04;  0.0000000E+00;  9.9817813E+03;0.82344091;0.0;0.63197297;7977.0684
  8.4006637E-01;  9.9999998E-03;  2.0017710E-02;2347;0.037143845;0.0;0.014416425;1013.2264;  4.0625489E-01;10950.824;3;13.851048;0.0;6.589057;0;1.4553409;  9.9709912E+03;  0.0000000E+00; -8.4133383E-08;  1.0000000E+04;  0.0000000E+00;  9.9815059E+03;0.82624918;0.0;0.62909168;8119.7236
  8.4006691E-01;  9.9999998E-03;  4.0035684E-02;2348;0.037553377;0.0;0.028301017;1013.173;  4.0625504E-01;10906.606;3;14.021508;0.0;12.458138;0;1.455168;  9.9707305E+03;  0.0000000E+00; -3.0701179E-07;  1.0000000E+04;  0.0000000E+00;  9.9807080E+03;0.83460039;0.0;0.62056762;8527.124
  8.4006780E-01;  9.9999998E-03;  6.0054611E-02;2349;0.038229451;0.0;0.041441362;1013.0908;  4.0625519E-01;10838.504;3;14.28498;0.0;17.06106;0;1.4545994;  9.9702881E+03;  0.0000000E+00; -5.6518292E-07;  1.0000000E+04;  0.0000000E+00;  9.9795176E+03;0.84827822;0.0;0.60632116;9136.8291
  8.4006912E-01;  9.9999998E-03;  8.0075577E-02;2350;0.039166957;0.0;0.054011609;1012.9893;  4.0625551E-01;10754.511;3;14.614323;0.0;20.12953;0;1.4522636;  9.9696641E+03;  0.0000000E+00; -7.7447095E-07;  1.0000000E+04;  0.0000000E+00;  9.9781328E+03;0.86692971;0.0;0.58533394;9853.874
  8.4007090E-01;  9.9999998E-03;  1.0009950E-01;2351;0.04036111;0.0;0.066311561;1012.8785;  4.0625572E-01;10662.818;3;14.976555;0.0;21.678778;0;1.4453262;  9.9688545E+03;  0.0000000E+00; -9.8836654E-07;  1.0000000E+04;  0.0000000E+00;  9.9767441E+03;0.89000392;0.0;0.55532229;10583.146
  8.4007329E-01;  9.9999998E-03;  1.2012628E-01;2352;0.041800372;0.0;0.078367256;1012.7648;  4.0625614E-01;10568.659;3;15.335669;0.0;21.930717;0;1.4297893;  9.9678740E+03;  0.0000000E+00; -1.5194364E-06;  1.0000000E+04;  0.0000000E+00;  9.9754717E+03;0.91657823;0.0;0.51321113;11269.963
  8.4007615E-01;  9.9999998E-03;  1.4015429E-01;2353;0.043457218;0.0;0.089549839;1012.6506;  4.0625647E-01;10474.104;3;15.656286;0.0;21.127756;0;1.402247;  9.9667529E+03;  0.0000000E+00; -2.5433890E-06;  1.0000000E+04;  0.0000000E+00;  9.9743193E+03;0.94509774;0.0;0.45714918;11911.582
  8.6009687E-01;  9.9999998E-03;  3.5139322E-11;2377;0.055588979;0.0;1.9014108e-08;1012.948;  4.0605250E-01;10717.967;3;21.867458;0.0;-6.9109956e-07;0;1.3401538;  9.9746211E+03;  0.0000000E+00;  7.2602667E-15;  1.0000000E+04;  0.0000000E+00;  9.9823467E+03;0.72819769;0.0;0.61195612;7713.8618
  8.6009711E-01;  9.9999998E-03;  2.0017093E-02;2378;0.055784069;0.0;0.013908966;1012.9303;  4.0605244E-01;10703.264;3;21.945568;0.0;6.3480296;0;1.3398571;  9.9745410E+03;  0.0000000E+00; -9.7177264E-08;  1.0000000E+04;  0.0000000E+00;  9.9820771E+03;0.73071039;0.0;0.60914665;7851.1211
  8.6009789E-01;  9.9999998E-03;  4.0034436E-02;2379;0.05636261;0.0;0.027300186;1012.8795;  4.0605253E-01;10661.228;3;22.169991;0.0;12.000937;0;1.3390572;  9.9743027E+03;  0.0000000E+00; -3.3105553E-07;  1.0000000E+04;  0.0000000E+00;  9.9813086E+03;0.73819643;0.0;0.60086083;8243.3574
  8.6009914E-01;  9.9999998E-03;  6.0052693E-02;2380;0.057308506;0.0;0.03996883;1012.8011;  4.0605271E-01;10596.396;3;22.512703;0.0;16.433533;0;1.3376062;  9.9739004E+03;  0.0000000E+00; -5.1626256E-07;  1.0000000E+04;  0.0000000E+00;  9.9801572E+03;0.75051087;0.0;0.58709532;8830.9951
  8.6010098E-01;  9.9999998E-03;  8.0072924E-02;2381;0.058605403;0.0;0.052092031;1012.7048;  4.0605289E-01;10516.565;3;22.933987;0.0;19.393494;0;1.334375;  9.9733330E+03;  0.0000000E+00; -4.6085358E-07;  1.0000000E+04;  0.0000000E+00;  9.9788164E+03;0.76742566;0.0;0.56694937;9523.0059
  8.6010349E-01;  9.9999998E-03;  1.0009602E-01;2382;0.060241438;0.0;0.063977137;1012.5993;  4.0605322E-01;10429.334;3;23.389791;0.0;20.90679;0;1.3268778;  9.9725898E+03;  0.0000000E+00; -2.8702985E-07;  1.0000000E+04;  0.0000000E+00;  9.9774678E+03;0.78858662;0.0;0.53829128;10227.862
  8.6010677E-01;  9.9999998E-03;  1.2012193E-01;2383;0.062204447;0.0;0.075669937;1012.4913;  4.0605348E-01;10339.833;3;23.838034;0.0;21.199949;0;1.3115705;  9.9716816E+03;  0.0000000E+00; -5.6731267E-07;  1.0000000E+04;  0.0000000E+00;  9.9762275E+03;0.8133617;0.0;0.49820882;10893.028
  8.6011076E-01;  9.9999998E-03;  1.4014909E-01;2384;0.064470269;0.0;0.086575642;1012.3814;  4.0605378E-01;10248.95;3;24.243763;0.0;20.513811;0;1.2855897;  9.9706348E+03;  0.0000000E+00; -1.6700277E-06;  1.0000000E+04;  0.0000000E+00;  9.9751025E+03;0.84061617;0.0;0.4449735;11517.118
  8.8012612E-01;  9.9999998E-03; -5.5894560E-11;2408;0.073279321;0.0;-3.6872265e-08;1012.4785;  4.0576190E-01;10326.165;3;29.51643;0.0;8.6723594e-06;0;1.1944878;  9.9789141E+03;  0.0000000E+00;  2.6033910E-14;  1.0000000E+04;  0.0000000E+00;  9.9831006E+03;0.60925579;0.0;0.58523196;7363.5986
  8.8012642E-01;  9.9999998E-03;  2.0016277E-02;2409;0.073524743;0.0;0.013245231;1012.4617;  4.0576190E-01;10312.354;3;29.611666;0.0;6.047039;0;1.1940501;  9.9788398E+03;  0.0000000E+00; -1.5473753E-07;  1.0000000E+04;  0.0000000E+00;  9.9828428E+03;0.61145294;0.0;0.58259714;7494.292
  8.8012737E-01;  9.9999998E-03;  4.0032793E-02;2410;0.074250802;0.0;0.025997208;1012.4139;  4.0576208E-01;10272.697;3;29.884396;0.0;11.432673;0;1.1928666;  9.9786289E+03;  0.0000000E+00; -5.3762443E-07;  1.0000000E+04;  0.0000000E+00;  9.9821055E+03;0.61801624;0.0;0.57485026;7868.0947
  8.8012898E-01;  9.9999998E-03;  6.0050186E-02;2411;0.07543394;0.0;0.038065139;1012.3403;  4.0576223E-01;10211.832;3;30.299797;0.0;15.659639;0;1.1909053;  9.9782676E+03;  0.0000000E+00; -8.5264310E-07;  1.0000000E+04;  0.0000000E+00;  9.9810039E+03;0.62887025;0.0;0.56203508;8429.0049
  8.8013130E-01;  9.9999998E-03;  8.0069475E-02;2412;0.077050172;0.0;0.049628768;1012.2494;  4.0576240E-01;10136.563;3;30.809681;0.0;18.494295;0;1.1872404;  9.9777598E+03;  0.0000000E+00; -8.5063914E-07;  1.0000000E+04;  0.0000000E+00;  9.9797119E+03;0.64391488;0.0;0.54332548;9090.8125
  8.8013440E-01;  9.9999998E-03;  1.0009154E-01;2413;0.079084724;0.0;0.060998037;1012.1501;  4.0576252E-01;10054.487;3;31.362701;0.0;19.971432;0;1.1796849;  9.9770898E+03;  0.0000000E+00; -7.4646255E-07;  1.0000000E+04;  0.0000000E+00;  9.9784092E+03;0.66300315;0.0;0.51668179;9766.1504
  8.8013846E-01;  9.9999998E-03;  1.2011633E-01;2414;0.081529595;0.0;0.072232924;1012.048;  4.0576288E-01;9969.9453;3;31.914774;0.0;20.31674;0;1.1651435;  9.9762607E+03;  0.0000000E+00; -1.3714460E-06;  1.0000000E+04;  0.0000000E+00;  9.9772119E+03;0.68584204;0.0;0.47930145;10404.586
  8.8014352E-01;  9.9999998E-03;  1.4014237E-01;2415;0.08437115;0.0;0.082772627;1011.9434;  4.0576324E-01;9883.3311;3;32.435001;0.0;19.764366;0;1.1413198;  9.9752803E+03;  0.0000000E+00; -3.4879879E-06;  1.0000000E+04;  0.0000000E+00;  9.9761182E+03;0.71180809;0.0;0.42951173;11005.463
  9.0015113E-01;  9.9999998E-03; -8.7849505E-11;2439;0.088567577;0.0;-2.6435089e-08;1011.8784;  4.0539935E-01;9825.5781;3;36.245899;0.0;1.8693099e-05;0;1.0185366;  9.9840439E+03;  0.0000000E+00; -2.2141155E-15;  1.0000000E+04;  0.0000000E+00;  9.9840039E+03;0.46538121;0.0;0.5531553;6944.8516
  9.0015155E-01;  9.9999998E-03;  2.0015292E-02;2440;0.088859424;0.0;0.012447054;1011.8632;  4.0539932E-01;9813.0547;3;36.357273;0.0;5.6928401;0;1.0179898;  9.9839883E+03;  0.0000000E+00; -2.6483681E-07;  1.0000000E+04;  0.0000000E+00;  9.9837598E+03;0.46722007;0.0;0.55076969;7067.7856
  9.0015268E-01;  9.9999998E-03;  4.0030811E-02;2441;0.089722589;0.0;0.024433393;1011.8188;  4.0539929E-01;9776.3721;3;36.676678;0.0;10.764711;0;1.0165033;  9.9838066E+03;  0.0000000E+00; -9.4891772E-07;  1.0000000E+04;  0.0000000E+00;  9.9830586E+03;0.47272944;0.0;0.54377395;7419.7607
  9.0015459E-01;  9.9999998E-03;  6.0047168E-02;2442;0.091127194;0.0;0.035785925;1011.7505;  4.0539950E-01;9719.7705;3;37.163944;0.0;14.75112;0;1.0141337;  9.9835010E+03;  0.0000000E+00; -1.7028894E-06;  1.0000000E+04;  0.0000000E+00;  9.9820127E+03;0.48190141;0.0;0.53223234;7948.9102
  9.0015739E-01;  9.9999998E-03;  8.0065340E-02;2443;0.093042843;0.0;0.046686605;1011.6664;  4.0539956E-01;9650.252;3;37.763527;0.0;17.438728;0;1.0100992;  9.9830615E+03;  0.0000000E+00; -2.1878429E-06;  1.0000000E+04;  0.0000000E+00;  9.9807813E+03;0.49475363;0.0;0.51534551;8574.5176
  9.0016109E-01;  9.9999998E-03;  1.0008616E-01;2444;0.095450193;0.0;0.057442937;1011.5747;  4.0539971E-01;9574.4219;3;38.418362;0.0;18.868843;0;1.0024633;  9.9824795E+03;  0.0000000E+00; -2.6996661E-06;  1.0000000E+04;  0.0000000E+00;  9.9795410E+03;0.51134372;0.0;0.49111959;9213.8076
  9.0016586E-01;  9.9999998E-03;  1.2010962E-01;2445;0.098341726;0.0;0.068122201;1011.4798;  4.0540010E-01;9495.9287;3;39.081081;0.0;19.261131;0;0.98855603;  9.9817451E+03;  0.0000000E+00; -4.4384929E-06;  1.0000000E+04;  0.0000000E+00;  9.9783926E+03;0.53173321;0.0;0.45682281;9818.3506
  9.0017182E-01;  9.9999998E-03;  1.4013429E-01;2446;0.1017127;0.0;0.078194357;1011.3821;  4.0540037E-01;9415.0693;3;39.724079;0.0;18.837812;0;0.96666312;  9.9808496E+03;  0.0000000E+00; -8.5230004E-06;  1.0000000E+04;  0.0000000E+00;  9.9773477E+03;0.55586088;0.0;0.41080225;10387.717
  9.2016256E-01;  9.9999998E-03; -6.8823176E-12;2470;0.095861167;0.0;-1.2920682e-08;1011.1691;  4.0498298E-01;9233.8057;3;40.167721;0.0;-2.0947075e-05;0;0.82783079;  9.9895547E+03;  0.0000000E+00; -5.2091014E-15;  1.0000000E+04;  0.0000000E+00;  9.9850127E+03;0.31067851;0.0;0.51715231;6474.4409
  9.2016304E-01;  9.9999998E-03;  2.0014288E-02;2471;0.096214496;0.0;0.011568154;1011.1552;  4.0498295E-01;9222.2744;3;40.293945;0.0;5.278646;0;0.82716739;  9.9895078E+03;  0.0000000E+00; -3.6813449E-07;  1.0000000E+04;  0.0000000E+00;  9.9847832E+03;0.31210062;0.0;0.5150668;6588.5151
  9.2016453E-01;  9.9999998E-03;  4.0028762E-02;2472;0.097266905;0.0;0.02270622;1011.1151;  4.0498307E-01;9189.1592;3;40.652725;0.0;9.9822636;0;0.82534182;  9.9893701E+03;  0.0000000E+00; -1.3392192E-06;  1.0000000E+04;  0.0000000E+00;  9.9841279E+03;0.31637838;0.0;0.50896341;6915.4795
  9.2016703E-01;  9.9999998E-03;  6.0043979E-02;2473;0.099003814;0.0;0.033255339;1011.0535;  4.0498313E-01;9138.3047;3;41.218132;0.0;13.688681;0;0.82245332;  9.9891309E+03;  0.0000000E+00; -2.5387149E-06;  1.0000000E+04;  0.0000000E+00;  9.9831445E+03;0.32356152;0.0;0.4988918;7407.9482
  9.2017061E-01;  9.9999998E-03;  8.0060855E-02;2474;0.10138863;0.0;0.043391261;1010.9775;  4.0498328E-01;9075.4268;3;41.945156;0.0;16.205019;0;0.81781614;  9.9887852E+03;  0.0000000E+00; -3.5912240E-06;  1.0000000E+04;  0.0000000E+00;  9.9819814E+03;0.33377036;0.0;0.48404577;7991.271
  9.2017537E-01;  9.9999998E-03;  1.0008020E-01;2475;0.10439456;0.0;0.05342152;1010.8953;  4.0498343E-01;9007.4238;3;42.781105;0.0;17.575415;0;0.80969167;  9.9883184E+03;  0.0000000E+00; -4.8234156E-06;  1.0000000E+04;  0.0000000E+00;  9.9808125E+03;0.34724465;0.0;0.46244702;8587.7441
  9.2018133E-01;  9.9999998E-03;  1.2010205E-01;2476;0.10799372;0.0;0.063430324;1010.8098;  4.0498361E-01;8936.7588;3;43.688423;0.0;18.007334;0;0.79578865;  9.9877080E+03;  0.0000000E+00; -7.5918433E-06;  1.0000000E+04;  0.0000000E+00;  9.9797344E+03;0.36437556;0.0;0.43141311;9151.0566
  9.2018861E-01;  9.9999998E-03;  1.4012511E-01;2477;0.11219355;0.0;0.07293044;1010.7213;  4.0498388E-01;8863.5303;3;44.643166;0.0;17.711979;0;0.77494496;  9.9869287E+03;  0.0000000E+00; -1.3578170E-05;  1.0000000E+04;  0.0000000E+00;  9.9787500E+03;0.38564834;0.0;0.38929662;9680.6885
  9.4016373E-01;  9.9999998E-03;  2.3596618E-11;2501;0.096948072;0.0;1.6203744e-08;1010.3605;  4.0453324E-01;8559.002;3;41.079781;0.0;2.3090892e-05;0;0.64534038;  9.9946973E+03;  0.0000000E+00;  1.9272375E-14;  1.0000000E+04;  0.0000000E+00;  9.9860879E+03;0.16664878;0.0;0.47869161;5967.5073
  9.4016421E-01;  9.9999998E-03;  2.0013237E-02;2502;0.097312704;0.0;0.010616056;1010.3483;  4.0453333E-01;8548.957;3;41.205963;0.0;4.8168607;0;0.64457494;  9.9946699E+03;  0.0000000E+00; -3.7319234E-07;  1.0000000E+04;  0.0000000E+00;  9.9858760E+03;0.16763192;0.0;0.47694302;6071.8828
  9.4016582E-01;  9.9999998E-03;  4.0026631E-02;2503;0.098398097;0.0;0.020844853;1010.3132;  4.0453333E-01;8519.9043;3;41.572109;0.0;9.1146078;0;0.64243251;  9.9945762E+03;  0.0000000E+00; -1.3975965E-06;  1.0000000E+04;  0.0000000E+00;  9.9852686E+03;0.17060922;0.0;0.47182328;6371.3296
  9.4016850E-01;  9.9999998E-03;  6.0040656E-02;2504;0.10019619;0.0;0.030539382;1010.2587;  4.0453342E-01;8474.8965;3;42.146717;0.0;12.513932;0;0.63900536;  9.9944150E+03;  0.0000000E+00; -2.7159497E-06;  1.0000000E+04;  0.0000000E+00;  9.9843535E+03;0.17567594;0.0;0.46332943;6823.0415
  9.4017231E-01;  9.9999998E-03;  8.0056161E-02;2505;0.10268691;0.0;0.039865598;1010.1923;  4.0453351E-01;8420.042;3;42.894119;0.0;14.846294;0;0.63365597;  9.9941777E+03;  0.0000000E+00; -3.9199667E-06;  1.0000000E+04;  0.0000000E+00;  9.9832725E+03;0.18303451;0.0;0.45062146;7358.8354
  9.4017738E-01;  9.9999998E-03;  1.0007392E-01;2506;0.10583759;0.0;0.049109239;1010.1204;  4.0453357E-01;8360.6553;3;43.77301;0.0;16.152477;0;0.6247862;  9.9938389E+03;  0.0000000E+00; -5.2862315E-06;  1.0000000E+04;  0.0000000E+00;  9.9821865E+03;0.19306786;0.0;0.43171832;7906.6538
  9.4018376E-01;  9.9999998E-03;  1.2009400E-01;2507;0.10963101;0.0;0.05837236;1010.0467;  4.0453374E-01;8299.792;3;44.734684;0.0;16.619938;0;0.61040944;  9.9933770E+03;  0.0000000E+00; -8.0561358E-06;  1.0000000E+04;  0.0000000E+00;  9.9811826E+03;0.20642672;0.0;0.40398273;8422.7363
  9.4019157E-01;  9.9999998E-03;  1.4011528E-01;2508;0.11407894;0.0;0.067218333;1009.9691;  4.0453389E-01;8235.6777;3;45.760761;0.0;16.44277;0;0.58981723;  9.9927432E+03;  0.0000000E+00; -1.4034470E-05;  1.0000000E+04;  0.0000000E+00;  9.9802744E+03;0.22404094;0.0;0.3657763;8906.377
  9.6016186E-01;  9.9999998E-03; -4.4182382E-13;2532;0.096285611;0.0;4.0682306e-09;1009.4706;  4.0406960E-01;7816.0791;3;41.151302;0.0;4.3601613e-06;0;0.48879197;  9.9989043E+03;  0.0000000E+00; -5.5305005E-15;  1.0000000E+04;  0.0000000E+00;  9.9871895E+03;0.049543861;0.0;0.43924811;5439.002
  9.6016240E-01;  9.9999998E-03;  2.0012066E-02;2533;0.096647292;0.0;0.0095994705;1009.46;  4.0406951E-01;7807.3228;3;41.283726;0.0;4.3378978;0;0.48798999;  9.9988867E+03;  0.0000000E+00; -2.8917634E-07;  1.0000000E+04;  0.0000000E+00;  9.9869941E+03;0.050133232;0.0;0.43785676;5533.1455
  9.6016395E-01;  9.9999998E-03;  4.0024277E-02;2534;0.097732447;0.0;0.018866142;1009.4297;  4.0406972E-01;7782.3325;3;41.645096;0.0;8.2101974;0;0.48570997;  9.9988418E+03;  0.0000000E+00; -1.0812630E-06;  1.0000000E+04;  0.0000000E+00;  9.9864395E+03;0.051942959;0.0;0.43376702;5803.3926
  9.6016663E-01;  9.9999998E-03;  6.0037080E-02;2535;0.099538498;0.0;0.02768611;1009.3827;  4.0406969E-01;7743.5679;3;42.233395;0.0;11.300378;0;0.48199132;  9.9987549E+03;  0.0000000E+00; -2.1028502E-06;  1.0000000E+04;  0.0000000E+00;  9.9855957E+03;0.055107735;0.0;0.42688358;6211.4282
  9.6017045E-01;  9.9999998E-03;  8.0051228E-02;2536;0.10204615;0.0;0.036210809;1009.326;  4.0406972E-01;7696.7363;3;42.9995;0.0;13.456907;0;0.47619623;  9.9986162E+03;  0.0000000E+00; -2.9768348E-06;  1.0000000E+04;  0.0000000E+00;  9.9846035E+03;0.059893835;0.0;0.41630238;6695.7593
  9.6017557E-01;  9.9999998E-03;  1.0006744E-01;2537;0.10522864;0.0;0.044697922;1009.265;  4.0406984E-01;7646.46;3;43.902046;0.0;14.71594;0;0.46681878;  9.9984063E+03;  0.0000000E+00; -3.7659754E-06;  1.0000000E+04;  0.0000000E+00;  9.9836045E+03;0.066784255;0.0;0.40003452;7190.6377
  9.6018201E-01;  9.9999998E-03;  1.2008575E-01;2538;0.10906854;0.0;0.05322754;1009.2026;  4.0406990E-01;7594.9043;3;44.904259;0.0;15.239767;0;0.45209605;  9.9980879E+03;  0.0000000E+00; -5.2098189E-06;  1.0000000E+04;  0.0000000E+00;  9.9826895E+03;0.076599665;0.0;0.37549639;7655.5615
  9.6019000E-01;  9.9999998E-03;  1.4010517E-01;2539;0.11358918;0.0;0.06140855;1009.1368;  4.0407008E-01;7540.5933;3;45.987839;0.0;15.200941;0;0.43163905;  9.9976064E+03;  0.0000000E+00; -8.6985547E-06;  1.0000000E+04;  0.0000000E+00;  9.9818564E+03;0.090562932;0.0;0.34107611;8089.8423
  9.8015839E-01;  9.9999998E-03; -9.6711614E-12;2563;0.094624154;0.0;-1.5663172e-08;1008.5322;  4.0360984E-01;7032.2119;3;40.778656;0.0;6.5645727e-06;0;0.3650786;  1.0001976E+04;  0.0000000E+00;  3.6546152E-16;  1.0000000E+04;  0.0000000E+00;  9.9882813E+03;-0.035135448;0.0;0.40021405;4904.188
  9.8015893E-01;  9.9999998E-03;  2.0010917E-02;2564;0.094989933;0.0;0.0086124493;1008.523;  4.0360987E-01;7024.646;3;40.911449;0.0;3.8703244;0;0.36433533;  1.0001972E+04;  0.0000000E+00; -1.5928843E-07;  1.0000000E+04;  0.0000000E+00;  9.9881016E+03;-0.034847103;0.0;0.39918244;4987.7964
  9.8016042E-01;  9.9999998E-03;  4.0021982E-02;2565;0.096081957;0.0;0.016956093;1008.4969;  4.0360981E-01;7003.2266;3;41.305161;0.0;7.3535361;0;0.36218482;  1.0001958E+04;  0.0000000E+00; -5.9554407E-07;  1.0000000E+04;  0.0000000E+00;  9.9875967E+03;-0.033925787;0.0;0.39611062;5227.7983
  9.8016298E-01;  9.9999998E-03;  6.0033582E-02;2566;0.097885124;0.0;0.024929443;1008.4572;  4.0360987E-01;6970.4087;3;41.929718;0.0;10.161845;0;0.35858321;  1.0001933E+04;  0.0000000E+00; -1.1230533E-06;  1.0000000E+04;  0.0000000E+00;  9.9868320E+03;-0.032194715;0.0;0.39077792;5590.2349
  9.8016673E-01;  9.9999998E-03;  8.0046393E-02;2567;0.10038283;0.0;0.032668609;1008.4089;  4.0361005E-01;6930.6147;3;42.739895;0.0;12.166957;0;0.35285944;  1.0001876E+04;  0.0000000E+00; -1.4456942E-06;  1.0000000E+04;  0.0000000E+00;  9.9859326E+03;-0.029327432;0.0;0.38218686;6020.4507
  9.8017174E-01;  9.9999998E-03;  1.0006105E-01;2568;0.10356322;0.0;0.040419567;1008.3574;  4.0361002E-01;6888.167;3;43.685837;0.0;13.404147;0;0.34357664;  1.0001765E+04;  0.0000000E+00; -1.4637102E-06;  1.0000000E+04;  0.0000000E+00;  9.9850244E+03;-0.024769571;0.0;0.36834621;6459.8291
  9.8017818E-01;  9.9999998E-03;  1.2007765E-01;2569;0.10742555;0.0;0.048265204;1008.3056;  4.0361011E-01;6845.4238;3;44.735882;0.0;14.020271;0;0.32914633;  1.0001560E+04;  0.0000000E+00; -1.3918326E-06;  1.0000000E+04;  0.0000000E+00;  9.9842002E+03;-0.017611142;0.0;0.34675747;6872.1147
  9.8018616E-01;  9.9999998E-03;  1.4009528E-01;2570;0.11199769;0.0;0.055838998;1008.2498;  4.0361020E-01;6799.438;3;45.874947;0.0;14.157513;0;0.30939037;  1.0001196E+04;  0.0000000E+00; -1.7223335E-06;  1.0000000E+04;  0.0000000E+00;  9.9834492E+03;-0.0064832638;0.0;0.31587362;7256.98
  1.0001539E+00;  9.9999998E-03; -5.0164469E-12;2594;0.092337891;0.0;-9.5154815e-11;1007.5869;  4.0316921E-01;6241.9683;3;40.074585;0.0;5.1232346e-06;0;0.27198926;  1.0004024E+04;  0.0000000E+00; -1.5895417E-15;  1.0000000E+04;  0.0000000E+00;  9.9893242E+03;-0.090751581;0.0;0.36274084;4377.0366
  1.0001544E+00;  9.9999998E-03;  2.0009866E-02;2595;0.092707112;0.0;0.0077034854;1007.5792;  4.0316921E-01;6235.5928;3;40.220772;0.0;3.4478805;0;0.27138695;  1.0004029E+04;  0.0000000E+00; -4.0480071E-08;  1.0000000E+04;  0.0000000E+00;  9.9891650E+03;-0.090656392;0.0;0.36204335;4449.9287
  1.0001559E+00;  9.9999998E-03;  4.0019885E-02;2596;0.093809128;0.0;0.015207862;1007.5571;  4.0316918E-01;6217.3501;3;40.645844;0.0;6.5836029;0;0.26960865;  1.0004040E+04;  0.0000000E+00; -1.4731023E-07;  1.0000000E+04;  0.0000000E+00;  9.9887090E+03;-0.090295829;0.0;0.35990447;4659.0747
  1.0001584E+00;  9.9999998E-03;  6.0030404E-02;2597;0.095620587;0.0;0.022444235;1007.5231;  4.0316918E-01;6189.4946;3;41.343311;0.0;9.1752214;0;0.26650757;  1.0004048E+04;  0.0000000E+00; -2.1753563E-07;  1.0000000E+04;  0.0000000E+00;  9.9880264E+03;-0.089441285;0.0;0.35594884;4974.7271
  1.0001620E+00;  9.9999998E-03;  8.0042027E-02;2598;0.098111324;0.0;0.029541742;1007.4822;  4.0316921E-01;6155.8525;3;42.237926;0.0;11.0957;0;0.26137289;  1.0004040E+04;  0.0000000E+00; -1.1039923E-07;  1.0000000E+04;  0.0000000E+00;  9.9872236E+03;-0.087692857;0.0;0.34906575;5349.3452
  1.0001668E+00;  9.9999998E-03;  1.0005531E-01;2599;0.1012702;0.0;0.03666028;1007.4388;  4.0316930E-01;6120.0518;3;43.266193;0.0;12.357203;0;0.25286359;  1.0003988E+04;  0.0000000E+00;  1.0137332E-07;  1.0000000E+04;  0.0000000E+00;  9.9864141E+03;-0.084426813;0.0;0.33729041;5732.4429
  1.0001731E+00;  9.9999998E-03;  1.2007029E-01;2600;0.10514037;0.0;0.043874487;1007.3942;  4.0316924E-01;6083.3677;3;44.397045;0.0;13.090518;0;0.23957573;  1.0003851E+04;  0.0000000E+00;  3.2713837E-07;  1.0000000E+04;  0.0000000E+00;  9.9856709E+03;-0.07869412;0.0;0.31826985;6093.2324
  1.0001811E+00;  9.9999998E-03;  1.4008613E-01;2601;0.10979546;0.0;0.050841056;1007.3455;  4.0316927E-01;6043.3472;3;45.641026;0.0;13.381062;0;0.22149113;  1.0003555E+04;  0.0000000E+00;  7.6481962E-07;  1.0000000E+04;  0.0000000E+00;  9.9849932E+03;-0.069093563;0.0;0.29058468;6432.2402
  1.0201486E+00;  9.9999998E-03;  7.0775673E-12;2625;0.089658193;0.0;1.2169759e-08;1006.6776;  4.0275949E-01;5480.5522;3;39.275131;0.0;1.1498109e-05;0;0.20272163;  1.0005309E+04;  0.0000000E+00; -4.0934630E-16;  1.0000000E+04;  0.0000000E+00;  9.9903047E+03;-0.12489674;0.0;0.32761836;3868.2747
  1.0201491E+00;  9.9999998E-03;  2.0008907E-02;2626;0.090029344;0.0;0.0068677338;1006.6708;  4.0275955E-01;5475.0723;3;39.44001;0.0;3.0744631;0;0.20230386;  1.0005315E+04;  0.0000000E+00;  5.7485433E-08;  1.0000000E+04;  0.0000000E+00;  9.9901631E+03;-0.12489417;0.0;0.32719803;3930.3616
  1.0201504E+00;  9.9999998E-03;  4.0017981E-02;2627;0.091129988;0.0;0.013594065;1006.6517;  4.0275955E-01;5459.3188;3;39.912052;0.0;5.891397;0;0.20102605;  1.0005337E+04;  0.0000000E+00;  2.6999538E-07;  1.0000000E+04;  0.0000000E+00;  9.9897627E+03;-0.12479061;0.0;0.32581666;4108.3481
  1.0201528E+00;  9.9999998E-03;  6.0027529E-02;2628;0.092926383;0.0;0.020138446;1006.6229;  4.0275958E-01;5435.7373;3;40.645157;0.0;8.2516394;0;0.19864261;  1.0005361E+04;  0.0000000E+00;  6.3370754E-07;  1.0000000E+04;  0.0000000E+00;  9.9891621E+03;-0.12429506;0.0;0.32293767;4376.7339
  1.0201563E+00;  9.9999998E-03;  8.0038026E-02;2629;0.095396526;0.0;0.026601434;1006.5875;  4.0275967E-01;5406.6763;3;41.595284;0.0;10.077058;0;0.19443125;  1.0005370E+04;  0.0000000E+00;  9.2657325E-07;  1.0000000E+04;  0.0000000E+00;  9.9884551E+03;-0.12291392;0.0;0.31734517;4695.6001
  1.0201610E+00;  9.9999998E-03;  1.0004998E-01;2630;0.098549716;0.0;0.033155248;1006.5496;  4.0275958E-01;5375.5591;3;42.702766;0.0;11.374618;0;0.18722069;  1.0005331E+04;  0.0000000E+00;  2.9929032E-07;  1.0000000E+04;  0.0000000E+00;  9.9877383E+03;-0.11993429;0.0;0.30715498;5023.6865
  1.0201672E+00;  9.9999998E-03;  1.2006346E-01;2631;0.10245107;0.0;0.039822351;1006.5095;  4.0275964E-01;5342.6802;3;43.925079;0.0;12.215498;0;0.17587456;  1.0005202E+04;  0.0000000E+00; -2.2108757E-06;  1.0000000E+04;  0.0000000E+00;  9.9870674E+03;-0.11437494;0.0;0.2902495;5336.9795
  1.0201752E+00;  9.9999998E-03;  1.4007765E-01;2632;0.10721458;0.0;0.046201445;1006.4637;  4.0275967E-01;5305.0059;3;45.270878;0.0;12.619512;0;0.16055578;  1.0004915E+04;  0.0000000E+00; -6.2770682E-06;  1.0000000E+04;  0.0000000E+00;  9.9864463E+03;-0.1048732;0.0;0.26542899;5637.3252
  1.0401424E+00;  9.9999998E-03;  1.4196376E-11;2656;0.086547881;0.0;2.9368941e-10;1005.8357;  4.0238917E-01;4774.2163;3;38.291634;0.0;-3.1742675e-06;0;0.15021543;  1.0006076E+04;  0.0000000E+00; -3.7206210E-15;  1.0000000E+04;  0.0000000E+00;  9.9912090E+03;-0.14502324;0.0;0.29523867;3384.4014
  1.0401428E+00;  9.9999998E-03;  2.0008046E-02;2657;0.08691591;0.0;0.0061102016;1005.83;  4.0238920E-01;4769.6318;3;38.465977;0.0;2.7209494;0;0.14997518;  1.0006083E+04;  0.0000000E+00;  1.9498512E-07;  1.0000000E+04;  0.0000000E+00;  9.9910879E+03;-0.1450319;0.0;0.29500708;3435.7163
  1.0401442E+00;  9.9999998E-03;  4.0016271E-02;2658;0.088004254;0.0;0.012133373;1005.8138;  4.0238911E-01;4756.3672;3;38.969219;0.0;5.2411151;0;0.14918387;  1.0006100E+04;  0.0000000E+00;  8.0433875E-07;  1.0000000E+04;  0.0000000E+00;  9.9907451E+03;-0.14493793;0.0;0.2941218;3582.6987
  1.0401465E+00;  9.9999998E-03;  6.0024954E-02;2659;0.089782327;0.0;0.018066226;1005.7885;  4.0238920E-01;4735.6899;3;39.76022;0.0;7.4175329;0;0.14753047;  1.0006118E+04;  0.0000000E+00;  1.6803187E-06;  1.0000000E+04;  0.0000000E+00;  9.9902227E+03;-0.14438051;0.0;0.29191098;3804.4133
  1.0401498E+00;  9.9999998E-03;  8.0034472E-02;2660;0.092228197;0.0;0.023978189;1005.7575;  4.0238917E-01;4710.2324;3;40.77153;0.0;9.1642303;0;0.14434779;  1.0006116E+04;  0.0000000E+00;  1.8127764E-06;  1.0000000E+04;  0.0000000E+00;  9.9896094E+03;-0.14275891;0.0;0.28710669;4069.2559
  1.0401543E+00;  9.9999998E-03;  1.0004522E-01;2661;0.095378049;0.0;0.030001367;1005.723;  4.0238920E-01;4682.043;3;41.951168;0.0;10.488078;0;0.13873686;  1.0006059E+04;  0.0000000E+00; -1.1847389E-06;  1.0000000E+04;  0.0000000E+00;  9.9889785E+03;-0.13924588;0.0;0.27798274;4346.167
  1.0401605E+00;  9.9999998E-03;  1.2005722E-01;2662;0.099331737;0.0;0.036094539;1005.6843;  4.0238923E-01;4650.3423;3;43.288231;0.0;11.395624;0;0.12997161;  1.0005893E+04;  0.0000000E+00; -1.0381135E-05;  1.0000000E+04;  0.0000000E+00;  9.9883701E+03;-0.13280232;0.0;0.26277393;4618.8965
  1.0401686E+00;  9.9999998E-03;  1.4006981E-01;2663;0.1042584;0.0;0.041878879;1005.6373;  4.0238920E-01;4611.9097;3;44.769932;0.0;11.853734;0;0.11845557;  1.0005552E+04;  0.0000000E+00; -2.5014453E-05;  1.0000000E+04;  0.0000000E+00;  9.9877783E+03;-0.12214857;0.0;0.24060413;4890.7866
  1.0601355E+00;  9.9999998E-03;  1.5157644E-11;2687;0.083090901;0.0;5.2060436e-09;1005.0829;  4.0206295E-01;4140.5269;3;37.168468;0.0;-5.4984994e-06;0;0.10961543;  1.0006480E+04;  0.0000000E+00;  4.5671822E-15;  1.0000000E+04;  0.0000000E+00;  9.9920361E+03;-0.15600277;0.0;0.26561821;2927.9675
  1.0601360E+00;  9.9999998E-03;  2.0007279E-02;2688;0.083451673;0.0;0.005430453;1005.0779;  4.0206298E-01;4136.5449;3;37.352333;0.0;2.3825986;0;0.10950617;  1.0006485E+04;  0.0000000E+00;  3.9072168E-07;  1.0000000E+04;  0.0000000E+00;  9.9919346E+03;-0.15595745;0.0;0.26546362;2968.8154
  1.0601372E+00;  9.9999998E-03;  4.0014759E-02;2689;0.084522568;0.0;0.010835717;1005.0638;  4.0206301E-01;4125.085;3;37.882668;0.0;4.6281095;0;0.10908578;  1.0006495E+04;  0.0000000E+00;  1.5219046E-06;  1.0000000E+04;  0.0000000E+00;  9.9916455E+03;-0.15567546;0.0;0.26476124;3085.9072
  1.0601394E+00;  9.9999998E-03;  6.0022671E-02;2690;0.086275071;0.0;0.016219022;1005.0417;  4.0206310E-01;4107.0205;3;38.715122;0.0;6.6220613;0;0.10804786;  1.0006492E+04;  0.0000000E+00;  2.7606904E-06;  1.0000000E+04;  0.0000000E+00;  9.9912080E+03;-0.15472002;0.0;0.26276788;3263.3931
  1.0601426E+00;  9.9999998E-03;  8.0031328E-02;2691;0.088707358;0.0;0.021649281;1005.0135;  4.0206307E-01;4084.0994;3;39.788033;0.0;8.2970381;0;0.10589282;  1.0006453E+04;  0.0000000E+00;  1.8145516E-06;  1.0000000E+04;  0.0000000E+00;  9.9906846E+03;-0.15237279;0.0;0.25826561;3478.6829
  1.0601472E+00;  9.9999998E-03;  1.0004096E-01;2692;0.091868103;0.0;0.027140168;1004.9797;  4.0206301E-01;4056.5159;3;41.053898;0.0;9.6118059;0;0.10211495;  1.0006338E+04;  0.0000000E+00; -6.2422528E-06;  1.0000000E+04;  0.0000000E+00;  9.9901250E+03;-0.14767769;0.0;0.24979264;3711.4365
  1.0601534E+00;  9.9999998E-03;  1.2005153E-01;2693;0.095910937;0.0;0.03262458;1004.9388;  4.0206310E-01;4023.2017;3;42.50351;0.0;10.541889;0;0.096491963;  1.0006097E+04;  0.0000000E+00; -2.6580463E-05;  1.0000000E+04;  0.0000000E+00;  9.9895518E+03;-0.13954102;0.0;0.23603298;3953.1729
  1.0601616E+00;  9.9999998E-03;  1.4006241E-01;2694;0.10095454;0.0;0.037732344;1004.8868;  4.0206310E-01;3980.8542;3;44.058357;0.0;11.14579;0;0.089680776;  1.0005658E+04;  0.0000000E+00; -1.1637913E-04;  1.0000000E+04;  0.0000000E+00;  9.9889551E+03;-0.12684821;0.0;0.21652898;4208.2437
  1.0801282E+00;  9.9999998E-03;  3.1009143E-12;2718;0.079466149;0.0;3.0746086e-10;1004.427;  4.0178302E-01;3585.7244;3;36.001984;0.0;-3.4215627e-06;0;0.078535959;  1.0006599E+04;  0.0000000E+00; -2.9572161E-15;  1.0000000E+04;  0.0000000E+00;  9.9927998E+03;-0.1599374;0.0;0.23847336;2499.25
  1.0801287E+00;  9.9999998E-03;  2.0006619E-02;2719;0.079817779;0.0;0.0048505212;1004.4229;  4.0178293E-01;3582.4407;3;36.185013;0.0;2.0963326;0;0.078507155;  1.0006597E+04;  0.0000000E+00;  5.5997594E-07;  1.0000000E+04;  0.0000000E+00;  9.9927188E+03;-0.15977584;0.0;0.23828299;2530.4846
  1.0801299E+00;  9.9999998E-03;  4.0013444E-02;2720;0.080860496;0.0;0.0097117694;1004.4103;  4.0178305E-01;3572.3008;3;36.722382;0.0;4.0930281;0;0.078351974;  1.0006585E+04;  0.0000000E+00;  1.9429110E-06;  1.0000000E+04;  0.0000000E+00;  9.9924795E+03;-0.15911365;0.0;0.23746562;2620.4888
  1.0801321E+00;  9.9999998E-03;  6.0020678E-02;2721;0.082588814;0.0;0.014615339;1004.39;  4.0178296E-01;3555.7871;3;37.575935;0.0;5.9263783;0;0.077892274;  1.0006544E+04;  0.0000000E+00;  2.5552599E-06;  1.0000000E+04;  0.0000000E+00;  9.9921162E+03;-0.15742199;0.0;0.23531426;2759.0068
  1.0801353E+00;  9.9999998E-03;  8.0028534E-02;2722;0.085011892;0.0;0.019566672;1004.3623;  4.0178302E-01;3533.3821;3;38.690659;0.0;7.5127988;0;0.076943934;  1.0006449E+04;  0.0000000E+00; -1.9977638E-06;  1.0000000E+04;  0.0000000E+00;  9.9916631E+03;-0.15385345;0.0;0.23079738;2932.7102
  1.0801399E+00;  9.9999998E-03;  1.0003710E-01;2723;0.088213138;0.0;0.024553685;1004.3267;  4.0178296E-01;3504.5066;3;40.01199;0.0;8.8240385;0;0.075463757;  1.0006248E+04;  0.0000000E+00; -1.9380430E-05;  1.0000000E+04;  0.0000000E+00;  9.9911494E+03;-0.147358;0.0;0.22282176;3131.4524
  1.0801461E+00;  9.9999998E-03;  1.2004633E-01;2724;0.092344575;0.0;0.029472426;1004.2799;  4.0178311E-01;3466.553;3;41.586853;0.0;9.8236752;0;0.073676705;  1.0005887E+04;  0.0000000E+00; -5.5001346E-05;  1.0000000E+04;  0.0000000E+00;  9.9905811E+03;-0.13688844;0.0;0.21056515;3353.1384
  1.0801544E+00;  9.9999998E-03;  1.4005557E-01;2725;0.097585984;0.0;0.033824503;1004.22;  4.0178314E-01;3418.073;3;43.351578;0.0;10.220335;0;0.072181381;  1.0005330E+04;  0.0000000E+00; -1.3492494E-03;  1.0000000E+04;  0.0000000E+00;  9.9899404E+03;-0.12190913;0.0;0.19409052;3601.9697
  1.1001210E+00;  9.9999998E-03; -3.0220253E-12;2748;0.075817555;0.0;-6.0401222e-09;1003.8668;  4.0154782E-01;3108.478;3;34.774387;0.0;9.3410636e-06;0;0.056031331;  1.0006436E+04;  0.0000000E+00;  4.2543822E-15;  1.0000000E+04;  0.0000000E+00;  9.9935088E+03;-0.15734614;0.0;0.21337748;2099.2661
  1.1001215E+00;  9.9999998E-03;  2.0006049E-02;2749;0.076157451;0.0;0.0043535386;1003.8629;  4.0154794E-01;3105.3152;3;34.957188;0.0;1.8416975;0;0.056096777;  1.0006425E+04;  0.0000000E+00;  4.1729956E-07;  1.0000000E+04;  0.0000000E+00;  9.9934414E+03;-0.15697847;0.0;0.21307525;2122.5503
  1.1001227E+00;  9.9999998E-03;  4.0012293E-02;2750;0.077180512;0.0;0.0087523097;1003.851;  4.0154794E-01;3095.7307;3;35.498211;0.0;3.6364477;0;0.056313321;  1.0006381E+04;  0.0000000E+00;  8.5922767E-07;  1.0000000E+04;  0.0000000E+00;  9.9932461E+03;-0.15565389;0.0;0.21196721;2190.5679
  1.1001248E+00;  9.9999998E-03;  6.0018908E-02;2751;0.078891508;0.0;0.013214621;1003.8306;  4.0154794E-01;3079.3403;3;36.367203;0.0;5.3124504;0;0.05676806;  1.0006284E+04;  0.0000000E+00; -1.8731259E-06;  1.0000000E+04;  0.0000000E+00;  9.9929346E+03;-0.15273871;0.0;0.20950677;2298.6365
  1.1001281E+00;  9.9999998E-03;  8.0025978E-02;2752;0.081320234;0.0;0.017729111;1003.8005;  4.0154794E-01;3055.1868;3;37.507381;0.0;6.8425856;0;0.057671204;  1.0006092E+04;  0.0000000E+00; -1.4639355E-05;  1.0000000E+04;  0.0000000E+00;  9.9925283E+03;-0.14729959;0.0;0.20497079;2441.8062
  1.1001327E+00;  9.9999998E-03;  1.0003360E-01;2753;0.084607132;0.0;0.022233069;1003.7587;  4.0154788E-01;3021.5439;3;38.977356;0.0;8.055315;0;0.059369996;  1.0005765E+04;  0.0000000E+00; -4.6176177E-05;  1.0000000E+04;  0.0000000E+00;  9.9920244E+03;-0.13832542;0.0;0.19769542;2618.1372
  1.1001390E+00;  9.9999998E-03;  1.2004133E-01;2754;0.088872954;0.0;0.026319999;1003.7032;  4.0154794E-01;2976.9744;3;40.644596;0.0;8.8328886;0;0.062212989;  1.0005261E+04;  0.0000000E+00; -5.3942995E-04;  1.0000000E+04;  0.0000000E+00;  9.9914199E+03;-0.12514539;0.0;0.18735838;2829.4668
  1.1001477E+00;  9.9999998E-03;  1.4004932E-01;2755;0.094417758;0.0;0.030092398;1003.635;  4.0154809E-01;2922.1487;3;42.618656;0.0;9.2217903;0;0.065783069;  1.0004608E+04;  0.0000000E+00; -9.2948889E-03;  1.0000000E+04;  0.0000000E+00;  9.9907080E+03;-0.10883807;0.0;0.17462113;3077.9519
  1.1201142E+00;  9.9999998E-03; -4.9024955E-12;2777;0.072302252;0.0;-4.4858437e-09;1003.3942;  4.0135527E-01;2701.7241;3;33.54678;0.0;-6.9610542e-06;0;0.0421772;  1.0005965E+04;  0.0000000E+00; -4.1991095E-16;  1.0000000E+04;  0.0000000E+00;  9.9941572E+03;-0.14787576;0.0;0.19005296;1732.6989
  1.1201147E+00;  9.9999998E-03;  2.0005547E-02;2778;0.072637022;0.0;0.0039373678;1003.39;  4.0135530E-01;2698.3074;3;33.728889;0.0;1.6492951;0;0.042485207;  1.0005937E+04;  0.0000000E+00; -5.1924695E-07;  1.0000000E+04;  0.0000000E+00;  9.9941016E+03;-0.1471545;0.0;0.1896397;1750.457
  1.1201159E+00;  9.9999998E-03;  4.0011264E-02;2779;0.073644981;0.0;0.0079223718;1003.3768;  4.0135533E-01;2687.7732;3;34.268574;0.0;3.2643614;0;0.043538883;  1.0005840E+04;  0.0000000E+00; -3.5996968E-06;  1.0000000E+04;  0.0000000E+00;  9.9939307E+03;-0.14474362;0.0;0.1882825;1803.4988
  1.1201180E+00;  9.9999998E-03;  6.0017228E-02;2780;0.075361729;0.0;0.011942637;1003.3531;  4.0135545E-01;2668.9822;3;35.165695;0.0;4.780776;0;0.045700356;  1.0005653E+04;  0.0000000E+00; -1.4188577E-05;  1.0000000E+04;  0.0000000E+00;  9.9936475E+03;-0.13997686;0.0;0.18567722;1891.6708
  1.1201214E+00;  9.9999998E-03;  8.0023549E-02;2781;0.077860244;0.0;0.015986815;1003.3169;  4.0135533E-01;2640.1313;3;36.398079;0.0;6.1340737;0;0.049481809;  1.0005333E+04;  0.0000000E+00; -4.0129922E-05;  1.0000000E+04;  0.0000000E+00;  9.9932432E+03;-0.13198487;0.0;0.18146668;2016.1598
  1.1201260E+00;  9.9999998E-03;  1.0002991E-01;2782;0.081219465;0.0;0.019739492;1003.2661;  4.0135536E-01;2599.7029;3;37.906754;0.0;7.1764607;0;0.055294894;  1.0004851E+04;  0.0000000E+00; -4.8351302E-04;  1.0000000E+04;  0.0000000E+00;  9.9927129E+03;-0.12013488;0.0;0.17542978;2180.0476
  1.1201327E+00;  9.9999998E-03;  1.2003650E-01;2783;0.085710771;0.0;0.023246728;1003.2014;  4.0135542E-01;2548.1702;3;39.73727;0.0;7.8600087;0;0.062624678;  1.0004227E+04;  0.0000000E+00; -6.6217603E-03;  1.0000000E+04;  0.0000000E+00;  9.9920469E+03;-0.10513072;0.0;0.1677554;2385.9023
  1.1201415E+00;  9.9999998E-03;  1.4004292E-01;2784;0.091433406;0.0;0.026020274;1003.1296;  4.0135536E-01;2491.0361;3;41.90559;0.0;7.9216766;0;0.069372408;  1.0003588E+04;  0.0000000E+00; -4.0057763E-02;  1.0000000E+04;  0.0000000E+00;  9.9912510E+03;-0.089950509;0.0;0.15932292;2633.2969
  1.1401081E+00;  9.9999998E-03;  4.3390075E-13;2805;0.069092959;0.0;3.2004484e-09;1002.9919;  4.0120077E-01;2350.9993;3;32.377682;0.0;9.9921308e-06;0;0.03869544;  1.0005080E+04;  0.0000000E+00; -1.3507975E-15;  1.0000000E+04;  0.0000000E+00;  9.9947236E+03;-0.13005233;0.0;0.16874777;1407.6168
  1.1401085E+00;  9.9999998E-03;  2.0005057E-02;2806;0.069417283;0.0;0.0035517276;1002.9862;  4.0120065E-01;2346.502;3;32.557911;0.0;1.479412;0;0.039456189;  1.0005026E+04;  0.0000000E+00; -2.7042813E-06;  1.0000000E+04;  0.0000000E+00;  9.9946699E+03;-0.12884727;0.0;0.16830346;1422.4756
  1.1401098E+00;  9.9999998E-03;  4.0010192E-02;2807;0.07042937;0.0;0.0071080741;1002.9696;  4.0120074E-01;2333.4795;3;33.114529;0.0;2.9085739;0;0.041931182;  1.0004862E+04;  0.0000000E+00; -1.2716608E-05;  1.0000000E+04;  0.0000000E+00;  9.9945010E+03;-0.12501198;0.0;0.16694316;1467.7872
  1.1401119E+00;  9.9999998E-03;  6.0015492E-02;2808;0.072168946;0.0;0.010658906;1002.9398;  4.0120080E-01;2310.0576;3;34.039368;0.0;4.2293439;0;0.046594985;  1.0004558E+04;  0.0000000E+00; -7.3538555E-05;  1.0000000E+04;  0.0000000E+00;  9.9942080E+03;-0.11801334;0.0;0.16460833;1545.9225
  1.1401154E+00;  9.9999998E-03;  8.0020815E-02;2809;0.074699193;0.0;0.014056453;1002.8956;  4.0120077E-01;2275.2993;3;35.294186;0.0;5.3776369;0;0.053817056;  1.0004103E+04;  0.0000000E+00; -9.9698885E-04;  1.0000000E+04;  0.0000000E+00;  9.9937773E+03;-0.10749043;0.0;0.16130748;1660.9346
  1.1401203E+00;  9.9999998E-03;  1.0002628E-01;2810;0.078237616;0.0;0.017286617;1002.8368;  4.0120068E-01;2229.1111;3;36.945572;0.0;6.2680864;0;0.063155763;  1.0003518E+04;  0.0000000E+00; -7.8154104E-03;  1.0000000E+04;  0.0000000E+00;  9.9931924E+03;-0.094074138;0.0;0.1572299;1817.0404
  1.1401269E+00;  9.9999998E-03;  1.2003151E-01;2811;0.082893915;0.0;0.019887988;1002.769;  4.0120080E-01;2175.801;3;38.999722;0.0;6.5866642;0;0.072725572;  1.0002899E+04;  0.0000000E+00; -3.7354518E-02;  1.0000000E+04;  0.0000000E+00;  9.9924551E+03;-0.080076851;0.0;0.15280242;2016.4331
  1.1401365E+00;  9.9999998E-03;  1.4003725E-01;2812;0.089061424;0.0;0.022086613;1002.7028;  4.0120086E-01;2123.7048;3;41.393982;0.0;6.453568;0;0.079212457;  1.0002416E+04;  0.0000000E+00; -1.2327760E-01;  1.0000000E+04;  0.0000000E+00;  9.9916113E+03;-0.069292232;0.0;0.14850469;2269.3572
  1.1601027E+00;  9.9999998E-03;  2.7919492E-12;2832;0.066243351;0.0;2.7575457e-09;1002.6379;  4.0107951E-01;2038.8248;3;31.335918;0.0;5.6550198e-07;0;0.048269562;  1.0003631E+04;  0.0000000E+00; -1.4237673E-15;  1.0000000E+04;  0.0000000E+00;  9.9951582E+03;-0.10214978;0.0;0.15041934;1131.4619
  1.1601031E+00;  9.9999998E-03;  2.0004496E-02;2833;0.06657102;0.0;0.0031566746;1002.6311;  4.0107948E-01;2033.4802;3;31.522753;0.0;1.3102953;0;0.049574062;  1.0003558E+04;  0.0000000E+00; -1.9357289E-05;  1.0000000E+04;  0.0000000E+00;  9.9950947E+03;-0.10047935;0.0;0.15005341;1145.5095
  1.1601044E+00;  9.9999998E-03;  4.0008973E-02;2834;0.067579441;0.0;0.006221287;1002.6102;  4.0107951E-01;2017.3545;3;32.081055;0.0;2.5030982;0;0.053559303;  1.0003328E+04;  0.0000000E+00; -3.7426018E-04;  1.0000000E+04;  0.0000000E+00;  9.9949063E+03;-0.095439225;0.0;0.14899853;1188.3999
  1.1601067E+00;  9.9999998E-03;  6.0013484E-02;2835;0.069342606;0.0;0.0092318347;1002.575;  4.0107945E-01;1990.0787;3;33.027016;0.0;3.6183412;0;0.060312919;  1.0002953E+04;  0.0000000E+00; -2.6559986E-03;  1.0000000E+04;  0.0000000E+00;  9.9945771E+03;-0.08708676;0.0;0.14739968;1262.5172
  1.1601102E+00;  9.9999998E-03;  8.0018058E-02;2836;0.072003469;0.0;0.01213203;1002.5259;  4.0107954E-01;1952.2056;3;34.410034;0.0;4.5888124;0;0.069391459;  1.0002458E+04;  0.0000000E+00; -1.2715233E-02;  1.0000000E+04;  0.0000000E+00;  9.9940957E+03;-0.076155737;0.0;0.1455472;1371.4371
  1.1601152E+00;  9.9999998E-03;  1.0002244E-01;2837;0.07566265;0.0;0.014562755;1002.467;  4.0107945E-01;1906.6827;3;36.190258;0.0;5.0855508;0;0.07932505;  1.0001916E+04;  0.0000000E+00; -4.4878993E-02;  1.0000000E+04;  0.0000000E+00;  9.9934609E+03;-0.064466536;0.0;0.14379159;1520.1108
  1.1601226E+00;  9.9999998E-03;  1.2002719E-01;2838;0.080726013;0.0;0.016629623;1002.4064;  4.0107954E-01;1859.8666;3;38.502968;0.0;5.1055679;0;0.087227799;  1.0001472E+04;  0.0000000E+00; -1.2635259E-01;  1.0000000E+04;  0.0000000E+00;  9.9926953E+03;-0.055151187;0.0;0.14237899;1722.1943
  1.1601331E+00;  9.9999998E-03;  1.4003283E-01;2839;0.087383538;0.0;0.018516636;1002.3564;  4.0107971E-01;1821.1534;3;41.192734;0.0;5.0585904;0;0.08933638;  1.0001301E+04;  0.0000000E+00; -2.8898621E-01;  1.0000000E+04;  0.0000000E+00;  9.9918662E+03;-0.051706731;0.0;0.14104311;2021.7501
  1.1800981E+00;  9.9999998E-03;  3.5797888E-12;2858;0.063746467;0.0;1.7768826e-09;1002.3163;  4.0098622E-01;1753.0566;3;30.398932;0.0;-4.9977243e-06;0;0.071214922;  1.0001625E+04;  0.0000000E+00; -2.2780468E-15;  1.0000000E+04;  0.0000000E+00;  9.9953945E+03;-0.065291651;0.0;0.13650657;907.4809
  1.1800984E+00;  9.9999998E-03;  2.0003822E-02;2859;0.064092375;0.0;0.0026778725;1002.3088;  4.0098628E-01;1747.3721;3;30.589796;0.0;1.0792965;0;0.072721295;  1.0001546E+04;  0.0000000E+00; -6.3544774E-04;  1.0000000E+04;  0.0000000E+00;  9.9953203E+03;-0.063560776;0.0;0.13628207;921.39777
  1.1800998E+00;  9.9999998E-03;  4.0007662E-02;2860;0.065133922;0.0;0.0053015114;1002.2863;  4.0098628E-01;1730.3177;3;31.189688;0.0;2.0911443;0;0.07706856;  1.0001319E+04;  0.0000000E+00; -4.7526802E-03;  1.0000000E+04;  0.0000000E+00;  9.9950996E+03;-0.058623724;0.0;0.13569228;963.26508
  1.1801021E+00;  9.9999998E-03;  6.0011439E-02;2861;0.066947579;0.0;0.007775146;1002.251;  4.0098625E-01;1703.6082;3;32.189575;0.0;2.9728055;0;0.083666489;  1.0000980E+04;  0.0000000E+00; -1.9372873E-02;  1.0000000E+04;  0.0000000E+00;  9.9947344E+03;-0.051323708;0.0;0.1349902;1034.0427
  1.1801059E+00;  9.9999998E-03;  8.0015279E-02;2862;0.069738843;0.0;0.010052905;1002.2062;  4.0098631E-01;1669.6785;3;33.724667;0.0;3.5660872;0;0.091198161;  1.0000597E+04;  0.0000000E+00; -5.8611963E-02;  1.0000000E+04;  0.0000000E+00;  9.9942236E+03;-0.043338045;0.0;0.13453621;1138.5505
  1.1801116E+00;  9.9999998E-03;  1.0001943E-01;2863;0.073807061;0.0;0.012037049;1002.1583;  4.0098625E-01;1633.3994;3;35.825871;0.0;3.7288547;0;0.097453341;  1.0000281E+04;  0.0000000E+00; -1.4406486E-01;  1.0000000E+04;  0.0000000E+00;  9.9935830E+03;-0.037132856;0.0;0.1345862;1293.8394
  1.1801200E+00;  9.9999998E-03;  1.2002421E-01;2864;0.079316586;0.0;0.013774478;1002.1171;  4.0098637E-01;1602.1683;3;38.44067;0.0;3.7087319;0;0.099103436;  1.0000185E+04;  0.0000000E+00; -3.0056581E-01;  1.0000000E+04;  0.0000000E+00;  9.9928535E+03;-0.035816032;0.0;0.13491946;1540.3744
  1.1801323E+00;  9.9999998E-03;  1.4003073E-01;2865;0.086709723;0.0;0.015859211;1002.0912;  4.0098640E-01;1582.6587;3;41.598782;0.0;3.890089;0;0.093843028;  1.0000429E+04;  0.0000000E+00; -5.3901070E-01;  1.0000000E+04;  0.0000000E+00;  9.9920957E+03;-0.041168645;0.0;0.13501167;1929.4956
  1.2000942E+00;  9.9999998E-03; -1.2320286E-12;2882;0.061711926;0.0;1.7637412e-09;1002.0255;  4.0091616E-01;1493.4186;3;29.751759;0.0;-2.6763882e-07;0;0.10329631;  9.9993203E+03;  0.0000000E+00; -7.4826365E-15;  1.0000000E+04;  0.0000000E+00;  9.9953867E+03;-0.024928687;0.0;0.128225;731.60645
  1.2000947E+00;  9.9999998E-03;  2.0003188E-02;2883;0.062034003;0.0;0.00221849;1002.0188;  4.0091622E-01;1488.4955;3;29.899439;0.0;0.87663919;0;0.10430361;  9.9992676E+03;  0.0000000E+00; -3.7292005E-03;  1.0000000E+04;  0.0000000E+00;  9.9953096E+03;-0.023790358;0.0;0.12809397;744.74377
  1.2000961E+00;  9.9999998E-03;  4.0006451E-02;2884;0.06313619;0.0;0.004372295;1001.9996;  4.0091619E-01;1474.3413;3;30.555025;0.0;1.6228899;0;0.10700872;  9.9991221E+03;  0.0000000E+00; -2.0127458E-02;  1.0000000E+04;  0.0000000E+00;  9.9950732E+03;-0.020773521;0.0;0.12778224;784.19604
  1.2000989E+00;  9.9999998E-03;  6.0009897E-02;2885;0.06512364;0.0;0.0064512817;1001.9722;  4.0091628E-01;1454.1199;3;31.746077;0.0;2.2134204;0;0.11025078;  9.9989473E+03;  0.0000000E+00; -6.3751139E-02;  1.0000000E+04;  0.0000000E+00;  9.9946973E+03;-0.017282255;0.0;0.12753303;852.83759
  1.2001033E+00;  9.9999998E-03;  8.0013715E-02;2886;0.068241194;0.0;0.0083434507;1001.942;  4.0091619E-01;1431.7856;3;33.500854;0.0;2.4526711;0;0.11209197;  9.9988340E+03;  0.0000000E+00; -1.5464371E-01;  1.0000000E+04;  0.0000000E+00;  9.9942070E+03;-0.015517659;0.0;0.12760963;966.99261
  1.2001100E+00;  9.9999998E-03;  1.0001810E-01;2887;0.072738796;0.0;0.0099900197;1001.9166;  4.0091625E-01;1413.0507;3;35.932293;0.0;2.3652179;0;0.110044;  9.9989053E+03;  0.0000000E+00; -3.1095886E-01;  1.0000000E+04;  0.0000000E+00;  9.9936279E+03;-0.017943531;0.0;0.12798753;1163.1256
  1.2001204E+00;  9.9999998E-03;  1.2002416E-01;2888;0.079111837;0.0;0.012050896;1001.9012;  4.0091625E-01;1401.7793;3;38.949001;0.0;2.6101127;0;0.1029456;  9.9992441E+03;  0.0000000E+00; -5.3912681E-01;  1.0000000E+04;  0.0000000E+00;  9.9929854E+03;-0.025727255;0.0;0.12867285;1479.4985
  1.2001367E+00;  9.9999998E-03;  1.4003301E-01;2889;0.088178769;0.0;0.015147098;1001.8884;  4.0091625E-01;1392.2544;3;42.939991;0.0;3.2415695;0;0.095924541;  9.9997129E+03;  0.0000000E+00; -8.2609570E-01;  1.0000000E+04;  0.0000000E+00;  9.9922627E+03;-0.034647528;0.0;0.13057207;1918.6243
  1.2200918E+00;  9.9999998E-03; -9.5437696E-14;2905;0.060199317;0.0;-1.7156072e-10;1001.7754;  4.0086445E-01;1268.1382;3;29.421232;0.0;-2.9324437e-06;0;0.13684614;  9.9971406E+03;  0.0000000E+00; -2.9952603E-15;  1.0000000E+04;  0.0000000E+00;  9.9951533E+03;0.01103779;0.0;0.12580834;594.80872
  1.2200924E+00;  9.9999998E-03;  2.0003036E-02;2906;0.06058694;0.0;0.0019804989;1001.7714;  4.0086448E-01;1265.3271;3;29.685318;0.0;0.68346524;0;0.13662495;  9.9971396E+03;  0.0000000E+00; -9.9833794E-03;  1.0000000E+04;  0.0000000E+00;  9.9950771E+03;0.010989903;0.0;0.12563504;606.68359
  1.2200942E+00;  9.9999998E-03;  4.0006254E-02;2907;0.061834343;0.0;0.0038674236;1001.761;  4.0086451E-01;1257.915;3;30.479675;0.0;1.1816018;0;0.13551201;  9.9971592E+03;  0.0000000E+00; -4.7427163E-02;  1.0000000E+04;  0.0000000E+00;  9.9948545E+03;0.010373538;0.0;0.12513848;643.86914
  1.2200975E+00;  9.9999998E-03;  6.0009915E-02;2908;0.064100467;0.0;0.0056356038;1001.7493;  4.0086451E-01;1249.4781;3;31.876904;0.0;1.3941244;0;0.13204049;  9.9972607E+03;  0.0000000E+00; -1.3073102E-01;  1.0000000E+04;  0.0000000E+00;  9.9945146E+03;0.0076250131;0.0;0.12441548;716.80286
  1.2201034E+00;  9.9999998E-03;  8.0014594E-02;2909;0.067801021;0.0;0.007458502;1001.741;  4.0086451E-01;1243.5902;3;34.032997;0.0;1.3186725;0;0.12498053;  9.9975234E+03;  0.0000000E+00; -2.7879930E-01;  1.0000000E+04;  0.0000000E+00;  9.9940879E+03;0.0012374872;0.0;0.12374304;855.68951
  1.2201130E+00;  9.9999998E-03;  1.0002091E-01;2910;0.073505677;0.0;0.0096772695;1001.7366;  4.0086463E-01;1240.3337;3;36.963516;0.0;1.4248581;0;0.11537892;  9.9979443E+03;  0.0000000E+00; -4.9829030E-01;  1.0000000E+04;  0.0000000E+00;  9.9935762E+03;-0.0083396025;0.0;0.12371852;1095.6327
  1.2201284E+00;  9.9999998E-03;  1.2002945E-01;2911;0.081890285;0.0;0.012932857;1001.7224;  4.0086454E-01;1230.1687;3;40.679382;0.0;2.401686;0;0.11110786;  9.9982959E+03;  0.0000000E+00; -7.7811605E-01;  1.0000000E+04;  0.0000000E+00;  9.9929453E+03;-0.015040033;0.0;0.1261479;1440.5073
  1.2201490E+00;  9.9999998E-03;  1.4003950E-01;2912;0.092362709;0.0;0.016811153;1001.6794;  4.0086448E-01;1199.4739;3;45.781414;0.0;3.5773985;0;0.12024803;  9.9982158E+03;  0.0000000E+00; -1.0710491E+00;  1.0000000E+04;  0.0000000E+00;  9.9921699E+03;-0.011925251;0.0;0.13217328;1830.4694
  1.2400932E+00;  9.9999998E-03; -2.4867432E-12;2926;0.059752468;0.0;5.2300642e-10;1001.5859;  4.0082729E-01;1091.1428;3;29.817394;0.0;4.1130115e-06;0;0.16108865;  9.9956162E+03;  0.0000000E+00;  1.1483454E-14;  1.0000000E+04;  0.0000000E+00;  9.9947539E+03;0.032773279;0.0;0.12831536;492.36774
  1.2400941E+00;  9.9999998E-03;  2.0003781E-02;2927;0.060206674;0.0;0.0020766777;1001.5853;  4.0082723E-01;1090.731;3;30.047949;0.0;0.54093015;0;0.15919507;  9.9956777E+03;  0.0000000E+00; -1.6625389E-02;  1.0000000E+04;  0.0000000E+00;  9.9946826E+03;0.031194193;0.0;0.12800087;503.17166
  1.2400968E+00;  9.9999998E-03;  4.0008157E-02;2928;0.061861478;0.0;0.0042056176;1001.5838;  4.0082717E-01;1089.6586;3;31.148058;0.0;0.79615265;0;0.15386799;  9.9958525E+03;  0.0000000E+00; -7.4715674E-02;  1.0000000E+04;  0.0000000E+00;  9.9944795E+03;0.026795721;0.0;0.12707227;539.08032
  1.2401025E+00;  9.9999998E-03;  6.0013641E-02;2929;0.06507691;0.0;0.0064572128;1001.5818;  4.0082717E-01;1088.252;3;32.946251;0.0;0.7767871;0;0.14590254;  9.9961182E+03;  0.0000000E+00; -1.9308044E-01;  1.0000000E+04;  0.0000000E+00;  9.9941738E+03;0.020139556;0.0;0.12576298;616.22772
  1.2401124E+00;  9.9999998E-03;  8.0020577E-02;2930;0.070489123;0.0;0.0091844685;1001.5726;  4.0082726E-01;1081.9152;3;35.805641;0.0;0.97895861;0;0.13975126;  9.9963467E+03;  0.0000000E+00; -3.8852498E-01;  1.0000000E+04;  0.0000000E+00;  9.9937627E+03;0.014532276;0.0;0.12521897;767.00793
  1.2401271E+00;  9.9999998E-03;  1.0002848E-01;2931;0.078263491;0.0;0.012302235;1001.544;  4.0082732E-01;1062.2004;3;39.332737;0.0;1.8563362;0;0.14271683;  9.9962969E+03;  0.0000000E+00; -6.5370280E-01;  1.0000000E+04;  0.0000000E+00;  9.9932490E+03;0.015932685;0.0;0.12678415;1005.8967
  1.2401447E+00;  9.9999998E-03;  1.2003703E-01;2932;0.086964421;0.0;0.015707327;1001.4936;  4.0082729E-01;1027.4736;3;43.801273;0.0;3.2383168;0;0.15416822;  9.9959131E+03;  0.0000000E+00; -9.2366749E-01;  1.0000000E+04;  0.0000000E+00;  9.9926230E+03;0.022516087;0.0;0.13165213;1279.0988
  1.2401623E+00;  9.9999998E-03;  1.4004602E-01;2933;0.095898859;0.0;0.018536631;1001.4341;  4.0082729E-01;986.51703;3;50.019726;0.0;4.0644784;0;0.17056772;  9.9954541E+03;  0.0000000E+00; -1.0423301E+00;  1.0000000E+04;  0.0000000E+00;  9.9918975E+03;0.033785619;0.0;0.13678211;1433.1682
  1.2601122E+00;  9.9999998E-03; -8.1414687E-13;2944;0.06519077;0.0;1.4675461e-10;1001.3701;  4.0080088E-01;903.00299;3;30.389147;0.0;-9.4261486e-07;0;0.20318647;  9.9931123E+03;  0.0000000E+00; -5.2597443E-15;  1.0000000E+04;  0.0000000E+00;  9.9942725E+03;0.069192722;0.0;0.13399374;370.37094
  1.2601134E+00;  9.9999998E-03;  2.0005103E-02;2945;0.065817207;0.0;0.0028278099;1001.3683;  4.0080085E-01;901.9007;3;30.736408;0.0;1.0487597;0;0.20169094;  9.9931455E+03;  0.0000000E+00; -2.0029262E-02;  1.0000000E+04;  0.0000000E+00;  9.9942061E+03;0.067993343;0.0;0.1336976;378.57401
  1.2601171E+00;  9.9999998E-03;  4.0011078E-02;2946;0.067808531;0.0;0.0059691663;1001.3625;  4.0080091E-01;898.04327;3;31.953159;0.0;2.0704284;0;0.19810525;  9.9932178E+03;  0.0000000E+00; -8.8920735E-02;  1.0000000E+04;  0.0000000E+00;  9.9940156E+03;0.065017961;0.0;0.13308729;407.58875
  1.2601235E+00;  9.9999998E-03;  6.0018398E-02;2947;0.07148429;0.0;0.0093023162;1001.3495;  4.0080091E-01;889.46613;3;34.575115;0.0;2.5811422;0;0.19590014;  9.9932715E+03;  0.0000000E+00; -2.2468308E-01;  1.0000000E+04;  0.0000000E+00;  9.9937051E+03;0.062893309;0.0;0.13300683;475.85745
  1.2601329E+00;  9.9999998E-03;  8.0026686E-02;2948;0.076718241;0.0;0.012356255;1001.326;  4.0080082E-01;873.8913;3;38.258625;0.0;2.5886989;0;0.19713143;  9.9932354E+03;  0.0000000E+00; -4.2627332E-01;  1.0000000E+04;  0.0000000E+00;  9.9932734E+03;0.063128479;0.0;0.13400295;605.25085
  1.2601436E+00;  9.9999998E-03;  1.0003508E-01;2949;0.082525425;0.0;0.014922138;1001.3003;  4.0080091E-01;856.97852;3;42.539909;0.0;2.8802016;0;0.19677696;  9.9932510E+03;  0.0000000E+00; -6.2500799E-01;  1.0000000E+04;  0.0000000E+00;  9.9927461E+03;0.061324563;0.0;0.13545239;763.70801
  1.2601551E+00;  9.9999998E-03;  1.2004283E-01;2950;0.0889474;0.0;0.016778033;1001.2824;  4.0080085E-01;845.17206;3;47.977848;0.0;3.2988496;0;0.19515696;  9.9934375E+03;  0.0000000E+00; -6.6957986E-01;  1.0000000E+04;  0.0000000E+00;  9.9921982E+03;0.060337804;0.0;0.13481916;836.65948
  1.2601659E+00;  9.9999998E-03;  1.4004982E-01;2951;0.095548414;0.0;0.018323516;1001.2837;  4.0080091E-01;845.93677;3;54.514843;0.0;4.2405982;0;0.19169402;  9.9939502E+03;  0.0000000E+00; -3.8268808E-01;  1.0000000E+04;  0.0000000E+00;  9.9917129E+03;0.060275961;0.0;0.13141806;741.2901
  1.2801328E+00;  9.9999998E-03;  2.7110608E-12;2959;0.071357183;0.0;7.936557e-10;1001.1006;  4.0078259E-01;691.90692;3;33.450653;0.0;-1.3649696e-07;0;0.27516907;  9.9891426E+03;  0.0000000E+00; -3.7267870E-15;  1.0000000E+04;  0.0000000E+00;  9.9937832E+03;0.13426624;0.0;0.14090282;207.83153
  1.2801334E+00;  9.9999998E-03;  2.0005880E-02;2960;0.071633294;0.0;0.0030028208;1001.1057;  4.0078253E-01;695.05353;3;33.721275;0.0;1.1518465;0;0.26985911;  9.9892998E+03;  0.0000000E+00; -1.3888132E-02;  1.0000000E+04;  0.0000000E+00;  9.9937236E+03;0.12938723;0.0;0.14047188;217.4948
  1.2801349E+00;  9.9999998E-03;  4.0012911E-02;2961;0.072429769;0.0;0.0064619579;1001.1215;  4.0078256E-01;704.94269;3;34.59523;0.0;2.4450386;0;0.25374705;  9.9897998E+03;  0.0000000E+00; -5.9876878E-02;  1.0000000E+04;  0.0000000E+00;  9.9935430E+03;0.11404587;0.0;0.13970119;249.72192
  1.2801374E+00;  9.9999998E-03;  6.0021728E-02;2962;0.073992468;0.0;0.010302711;1001.1481;  4.0078256E-01;721.7243;3;36.940376;0.0;3.2322316;0;0.23015365;  9.9906641E+03;  0.0000000E+00; -1.3924690E-01;  1.0000000E+04;  0.0000000E+00;  9.9932080E+03;0.089760877;0.0;0.14039277;313.46286
  1.2801412E+00;  9.9999998E-03;  8.0031320E-02;2963;0.077173062;0.0;0.013157474;1001.1789;  4.0078250E-01;741.05133;3;41.31459;0.0;2.6644721;0;0.21181643;  9.9917910E+03;  0.0000000E+00; -2.0969038E-01;  1.0000000E+04;  0.0000000E+00;  9.9926924E+03;0.070915617;0.0;0.14090082;401.70566
  1.2801472E+00;  9.9999998E-03;  1.0003963E-01;2964;0.081859134;0.0;0.014943242;1001.2026;  4.0078259E-01;755.95276;3;46.458916;0.0;2.6504607;0;0.20107347;  9.9928057E+03;  0.0000000E+00; -1.5504976E-01;  1.0000000E+04;  0.0000000E+00;  9.9921504E+03;0.063670613;0.0;0.13740285;464.84341
  1.2801533E+00;  9.9999998E-03;  1.2004565E-01;2965;0.086603798;0.0;0.015919628;1001.2568;  4.0078264E-01;790.03687;3;52.040718;0.0;3.2509701;0;0.17691991;  9.9942002E+03;  0.0000000E+00;  1.3901980E-01;  1.0000000E+04;  0.0000000E+00;  9.9918369E+03;0.049295958;0.0;0.12762395;530.34235
  1.3001335E+00;  9.9999998E-03;  1.7534737E-12;2970;0.068679683;0.0;2.0324697e-10;1001.1371;  4.0077010E-01;679.95514;3;36.17046;0.0;-1.3487006e-06;0;0.2223289;  9.9909287E+03;  0.0000000E+00; -6.0976221E-15;  1.0000000E+04;  0.0000000E+00;  9.9933418E+03;0.074692287;0.0;0.14763661;203.50545
  1.3001336E+00;  9.9999998E-03;  2.0006634E-02;2971;0.068859443;0.0;0.0031769481;1001.1489;  4.0077010E-01;686.94049;3;36.483299;0.0;1.345894;0;0.21548946;  9.9912158E+03;  0.0000000E+00;  2.8633629E-03;  1.0000000E+04;  0.0000000E+00;  9.9932861E+03;0.068350881;0.0;0.14713858;215.87529
  1.3001339E+00;  9.9999998E-03;  4.0014740E-02;2972;0.069422655;0.0;0.006889557;1001.1829;  4.0077016E-01;707.32654;3;37.608002;0.0;2.723892;0;0.19625768;  9.9920977E+03;  0.0000000E+00;  2.0578774E-02;  1.0000000E+04;  0.0000000E+00;  9.9930850E+03;0.049596641;0.0;0.14666104;255.62762
  1.3001347E+00;  9.9999998E-03;  6.0024735E-02;2973;0.071303435;0.0;0.010282002;1001.2282;  4.0077010E-01;734.41199;3;41.195484;0.0;2.4811108;0;0.17960703;  9.9934385E+03;  0.0000000E+00;  8.8516854E-02;  1.0000000E+04;  0.0000000E+00;  9.9926484E+03;0.032729309;0.0;0.14687772;330.15323
  1.3001369E+00;  9.9999998E-03;  8.0034524E-02;2974;0.074491024;0.0;0.012525002;1001.2633;  4.0077001E-01;755.36444;3;45.342365;0.0;2.302273;0;0.16876882;  9.9947861E+03;  0.0000000E+00;  2.6783663E-01;  1.0000000E+04;  0.0000000E+00;  9.9919971E+03;0.02520879;0.0;0.14356004;439.94724
 -4.9415723E-07;  9.9999998E-03;  1.6000004E-01;1053;-0.00056377624;0.0;4.7490783e-05;1000.0112;  4.0000001E-01;9.2836866;3;-0.56170893;0.0;0.044814885;0;-0.011029493;  1.0000233E+04;  0.0000000E+00; -7.8331758E-10;  1.0000000E+04;  0.0000000E+00;  9.9999922E+03;-0.011462374;0.0;0.000432881;4.4766364
 -4.7979137E-07;  9.9999998E-03;  1.8000005E-01;1054;-0.00054858346;0.0;6.1404746e-05;1000.0108;  4.0000001E-01;8.9873991;3;-0.54761899;0.0;0.059064128;0;-0.010688941;  1.0000223E+04;  0.0000000E+00; -6.8165362E-10;  1.0000000E+04;  0.0000000E+00;  9.9999922E+03;-0.011137245;0.0;0.00044830467;4.5391326
 -4.5883752E-07;  9.9999998E-03;  2.0000006E-01;1055;-0.00052552705;0.0;7.651333e-05;1000.0103;  4.0000001E-01;8.5923481;3;-0.5261054;0.0;0.074757978;0;-0.01022391;  1.0000215E+04;  0.0000000E+00;  4.7569765E-10;  1.0000000E+04;  0.0000000E+00;  9.9999932E+03;-0.010632221;0.0;0.00040830998;4.1317339
 -4.2942648E-07;  9.9999998E-03;  2.2000009E-01;1056;-0.00049232016;0.0;9.2398266e-05;1000.0098;  4.0000001E-01;8.0985355;3;-0.49564457;0.0;0.091703326;0;-0.009605987;  1.0000201E+04;  0.0000000E+00;  5.4119254E-10;  1.0000000E+04;  0.0000000E+00;  9.9999951E+03;-0.0098928381;0.0;0.00028685064;3.0267386
 -3.9040955E-07;  9.9999998E-03;  2.4000010E-01;1057;-0.00044760635;0.0;0.00010677432;1000.0089;  4.0000001E-01;7.407197;3;-0.45553172;0.0;0.10798906;0;-0.0088001704;  1.0000180E+04;  0.0000000E+00;  5.7543520E-10;  1.0000000E+04;  0.0000000E+00;  1.0000000E+04;-0.0088753039;0.0;7.5133634e-05;1.1411533
 -3.4039056E-07;  9.9999998E-03;  2.6000011E-01;1058;-0.00038994019;0.0;0.00011822875;1000.0078;  4.0000001E-01;6.4195704;3;-0.40436029;0.0;0.1223188;0;-0.0077759856;  1.0000154E+04;  0.0000000E+00; -1.7007922E-09;  1.0000000E+04;  0.0000000E+00;  1.0000004E+04;-0.0075727412;0.0;-0.0002032445;1.3276751
 -2.8110537E-07;  9.9999998E-03;  2.8000012E-01;1059;-0.00032152736;0.0;0.00012283045;1000.0066;  4.0000001E-01;5.4319444;3;-0.34246713;0.0;0.13095039;0;-0.0065271277;  1.0000122E+04;  0.0000000E+00; -7.0112600E-09;  1.0000000E+04;  0.0000000E+00;  1.0000010E+04;-0.0060451068;0.0;-0.00048202067;3.8142529
  1.9999282E-02;  9.9999998E-03;  1.6000006E-01;1083;-0.00081124692;0.0;6.5033571e-05;1000.0138;  4.0000001E-01;11.456465;3;-0.75207853;0.0;0.056348335;0;-0.013362337;  1.0000289E+04;  0.0000000E+00; -2.5591109E-11;  1.0000000E+04;  0.0000000E+00;  9.9999883E+03;-0.013950273;0.0;0.00058793649;6.0940127
  1.9999301E-02;  9.9999998E-03;  1.8000008E-01;1084;-0.00079157244;0.0;8.3520579e-05;1000.0132;  4.0000001E-01;10.962651;3;-0.73544168;0.0;0.073832266;0;-0.012988647;  1.0000279E+04;  0.0000000E+00;  7.3630801E-10;  1.0000000E+04;  0.0000000E+00;  9.9999883E+03;-0.013599858;0.0;0.00061121129;6.2063556
  1.9999331E-02;  9.9999998E-03;  2.0000009E-01;1085;-0.00076001324;0.0;0.0001038655;1000.0128;  4.0000001E-01;10.567601;3;-0.70847595;0.0;0.093448982;0;-0.012472379;  1.0000269E+04;  0.0000000E+00;  2.2827933E-09;  1.0000000E+04;  0.0000000E+00;  9.9999902E+03;-0.0130338;0.0;0.00056142092;5.6867533
  1.9999372E-02;  9.9999998E-03;  2.2000012E-01;1086;-0.00071313285;0.0;0.00012429642;1000.0121;  4.0000001E-01;9.9750252;3;-0.66943526;0.0;0.11376974;0;-0.011777734;  1.0000249E+04;  0.0000000E+00;  4.1866355E-09;  1.0000000E+04;  0.0000000E+00;  9.9999932E+03;-0.012181014;0.0;0.00040327918;4.2196813
  1.9999430E-02;  9.9999998E-03;  2.4000013E-01;1087;-0.00064781064;0.0;0.00014142781;1000.0111;  4.0000001E-01;9.1849241;3;-0.61661434;0.0;0.13232152;0;-0.010858392;  1.0000225E+04;  0.0000000E+00;  5.1268616E-09;  1.0000000E+04;  0.0000000E+00;  9.9999980E+03;-0.01098194;0.0;0.0001235471;1.6789787
  1.9999506E-02;  9.9999998E-03;  2.6000014E-01;1088;-0.00056094048;0.0;0.00015295978;1000.0099;  4.0000001E-01;8.197298;3;-0.54680169;0.0;0.14735472;0;-0.009671771;  1.0000193E+04;  0.0000000E+00;  2.7243592E-09;  1.0000000E+04;  0.0000000E+00;  1.0000005E+04;-0.0094224289;0.0;-0.000249342;1.691673
  1.9999599E-02;  9.9999998E-03;  2.8000015E-01;1089;-0.00045286008;0.0;0.00015516355;1000.0085;  4.0000001E-01;7.0121465;3;-0.4569487;0.0;0.15520224;0;-0.0082038511;  1.0000155E+04;  0.0000000E+00; -2.0909743E-09;  1.0000000E+04;  0.0000000E+00;  1.0000013E+04;-0.0075721079;0.0;-0.00063174346;5.1604581
  1.9999711E-02;  9.9999998E-03;  3.0000013E-01;1090;-0.00032582704;0.0;0.0001647372;1000.0067;  4.0000001E-01;5.5307069;3;-0.3424089;0.0;0.17372334;0;-0.006499466;  1.0000113E+04;  0.0000000E+00; -1.1048675E-08;  1.0000000E+04;  0.0000000E+00;  1.0000019E+04;-0.0056037516;0.0;-0.00089571456;7.6183195
  3.9998990E-02;  9.9999998E-03;  1.6000007E-01;1114;-0.0011322956;0.0;7.7966528e-05;1000.0164;  4.0000001E-01;13.530479;3;-0.98762584;0.0;0.061862536;0;-0.015620051;  1.0000344E+04;  0.0000000E+00;  1.1389043E-10;  1.0000000E+04;  0.0000000E+00;  9.9999863E+03;-0.016355477;0.0;0.00073542586;7.7599053
  3.9999012E-02;  9.9999998E-03;  1.8000010E-01;1115;-0.0011077698;0.0;9.9553501e-05;1000.016;  4.0000001E-01;13.234192;3;-0.96849465;0.0;0.08071287;0;-0.015240437;  1.0000338E+04;  0.0000000E+00;  1.6676418E-09;  1.0000000E+04;  0.0000000E+00;  9.9999854E+03;-0.01600912;0.0;0.00076868298;7.9446707
  3.9999053E-02;  9.9999998E-03;  2.0000012E-01;1116;-0.0010665926;0.0;0.0001230153;1000.0154;  4.0000001E-01;12.740378;3;-0.93589151;0.0;0.10160062;0;-0.014701146;  1.0000323E+04;  0.0000000E+00;  3.1166212E-09;  1.0000000E+04;  0.0000000E+00;  9.9999863E+03;-0.015414696;0.0;0.00071355078;7.3423829
  3.9999109E-02;  9.9999998E-03;  2.2000013E-01;1117;-0.0010031268;0.0;0.00014658448;1000.0146;  4.0000001E-01;12.147802;3;-0.88720214;0.0;0.12331624;0;-0.013956239;  1.0000305E+04;  0.0000000E+00;  5.3288436E-09;  1.0000000E+04;  0.0000000E+00;  9.9999902E+03;-0.014481004;0.0;0.00052476558;5.5368629
  3.9999187E-02;  9.9999998E-03;  2.4000016E-01;1118;-0.0009127399;0.0;0.00016547543;1000.0136;  4.0000001E-01;11.258939;3;-0.82050622;0.0;0.14254633;0;-0.012943757;  1.0000274E+04;  0.0000000E+00;  5.9409087E-09;  1.0000000E+04;  0.0000000E+00;  9.9999971E+03;-0.013126885;0.0;0.00018312785;2.3428986
  3.9999295E-02;  9.9999998E-03;  2.6000017E-01;1119;-0.00079043402;0.0;0.00017922063;1000.0121;  4.0000001E-01;10.073788;3;-0.73098433;0.0;0.15982133;0;-0.01160363;  1.0000237E+04;  0.0000000E+00;  1.6740134E-09;  1.0000000E+04;  0.0000000E+00;  1.0000006E+04;-0.01132359;0.0;-0.00028004061;1.961701
  3.9999429E-02;  9.9999998E-03;  2.8000018E-01;1120;-0.00063885085;0.0;0.00018380022;1000.0104;  4.0000001E-01;8.5923481;3;-0.61563206;0.0;0.17205429;0;-0.0099101597;  1.0000191E+04;  0.0000000E+00; -6.0352554E-09;  1.0000000E+04;  0.0000000E+00;  1.0000017E+04;-0.0091439309;0.0;-0.00076622906;6.485321
  3.9999586E-02;  9.9999998E-03;  3.0000016E-01;1121;-0.00046097414;0.0;0.0001892469;1000.0082;  4.0000001E-01;6.814621;3;-0.46665269;0.0;0.18905747;0;-0.0079189716;  1.0000143E+04;  0.0000000E+00; -1.2887195E-08;  1.0000000E+04;  0.0000000E+00;  1.0000024E+04;-0.0067943381;0.0;-0.0011246338;9.8762426
  5.9998631E-02;  9.9999998E-03;  1.6000009E-01;1145;-0.0015114613;0.0;8.6732805e-05;1000.0195;  4.0000001E-01;16.197071;3;-1.257661;0.0;0.062962063;0;-0.018075278;  1.0000411E+04;  0.0000000E+00;  7.5974699E-10;  1.0000000E+04;  0.0000000E+00;  9.9999814E+03;-0.018942717;0.0;0.00086743955;9.4594355
  5.9998661E-02;  9.9999998E-03;  1.8000011E-01;1146;-0.0014827407;0.0;0.00011065069;1000.0191;  4.0000001E-01;15.80202;3;-1.236722;0.0;0.082284898;0;-0.017711904;  1.0000401E+04;  0.0000000E+00;  9.7284669E-10;  1.0000000E+04;  0.0000000E+00;  9.9999814E+03;-0.018624997;0.0;0.00091309269;9.7439852
  5.9998710E-02;  9.9999998E-03;  2.0000014E-01;1147;-0.0014320182;0.0;0.00013704096;1000.0185;  4.0000001E-01;15.308207;3;-1.1988487;0.0;0.10408258;0;-0.017168472;  1.0000388E+04;  0.0000000E+00;  2.1812827E-09;  1.0000000E+04;  0.0000000E+00;  9.9999814E+03;-0.018027114;0.0;0.00085864199;9.1005926
  5.9998784E-02;  9.9999998E-03;  2.2000016E-01;1148;-0.0013513722;0.0;0.00016348029;1000.0176;  4.0000001E-01;14.518106;3;-1.1408817;0.0;0.12668328;0;-0.016385358;  1.0000368E+04;  0.0000000E+00;  1.5113371E-09;  1.0000000E+04;  0.0000000E+00;  9.9999863E+03;-0.017033201;0.0;0.0006478437;6.9955034
  5.9998889E-02;  9.9999998E-03;  2.4000017E-01;1149;-0.0012339163;0.0;0.00018488918;1000.0165;  4.0000001E-01;13.629242;3;-1.0604144;0.0;0.14712372;0;-0.015279998;  1.0000333E+04;  0.0000000E+00; -2.4269093E-09;  1.0000000E+04;  0.0000000E+00;  9.9999961E+03;-0.015533306;0.0;0.00025330792;3.1614902
  5.9999034E-02;  9.9999998E-03;  2.6000020E-01;1150;-0.001073179;0.0;0.0002006647;1000.0148;  4.0000001E-01;12.246566;3;-0.95197421;0.0;0.16597223;0;-0.013769925;  1.0000287E+04;  0.0000000E+00; -9.9280131E-09;  1.0000000E+04;  0.0000000E+00;  1.0000007E+04;-0.013476452;0.0;-0.00029347325;2.1076803
  5.9999213E-02;  9.9999998E-03;  2.8000021E-01;1151;-0.00087191985;0.0;0.00020608334;1000.0128;  4.0000001E-01;10.567601;3;-0.81023115;0.0;0.1803546;0;-0.011816995;  1.0000233E+04;  0.0000000E+00; -3.8852221E-07;  1.0000000E+04;  0.0000000E+00;  1.0000019E+04;-0.010936227;0.0;-0.00088076817;7.7569218
  5.9999425E-02;  9.9999998E-03;  3.0000019E-01;1152;-0.00063165562;0.0;0.00021331906;1000.0101;  4.0000001E-01;8.3948231;3;-0.62095857;0.0;0.2018649;0;-0.0094894823;  1.0000174E+04;  0.0000000E+00; -1.4299375E-06;  1.0000000E+04;  0.0000000E+00;  1.0000029E+04;-0.008158559;0.0;-0.0013309229;12.13305
  7.9998210E-02;  9.9999998E-03;  1.6000010E-01;1176;-0.001946597;0.0;9.2360504e-05;1000.0233;  4.0000001E-01;19.258711;3;-1.5646211;0.0;0.061013885;0;-0.020984439;  1.0000484E+04;  0.0000000E+00;  2.0656646E-10;  1.0000000E+04;  0.0000000E+00;  9.9999785E+03;-0.021970954;0.0;0.00098651508;11.264703
  7.9998247E-02;  9.9999998E-03;  1.8000013E-01;1177;-0.0019151742;0.0;0.00011817087;1000.0228;  4.0000001E-01;18.863661;3;-1.5430005;0.0;0.080509782;0;-0.02065664;  1.0000479E+04;  0.0000000E+00; -3.9558140E-10;  1.0000000E+04;  0.0000000E+00;  9.9999756E+03;-0.02170324;0.0;0.0010465998;11.677123
  7.9998299E-02;  9.9999998E-03;  2.0000015E-01;1178;-0.0018562707;0.0;0.00014696222;1000.0221;  4.0000001E-01;18.271086;3;-1.5010555;0.0;0.10254444;0;-0.020123376;  1.0000465E+04;  0.0000000E+00; -3.6621723E-09;  1.0000000E+04;  0.0000000E+00;  9.9999805E+03;-0.02112167;0.0;0.0009982934;11.030816
  7.9998396E-02;  9.9999998E-03;  2.2000018E-01;1179;-0.0017591821;0.0;0.00017620396;1000.0214;  4.0000001E-01;17.678509;3;-1.4347932;0.0;0.1258312;0;-0.019306716;  1.0000441E+04;  0.0000000E+00; -1.1485862E-08;  1.0000000E+04;  0.0000000E+00;  9.9999834E+03;-0.020080086;0.0;0.00077336957;8.6551619
  7.9998523E-02;  9.9999998E-03;  2.4000020E-01;1180;-0.0016141948;0.0;0.00020021498;1000.02;  4.0000001E-01;16.493359;3;-1.3413067;0.0;0.14733189;0;-0.018098487;  1.0000405E+04;  0.0000000E+00; -3.3143554E-06;  1.0000000E+04;  0.0000000E+00;  9.9999941E+03;-0.018432641;0.0;0.00033415551;4.1770954
  7.9998709E-02;  9.9999998E-03;  2.6000023E-01;1181;-0.0014121545;0.0;0.00021859026;1000.0179;  4.0000001E-01;14.913157;3;-1.2138518;0.0;0.16788757;0;-0.016395923;  1.0000353E+04;  0.0000000E+00; -3.0405066E-05;  1.0000000E+04;  0.0000000E+00;  1.0000007E+04;-0.016105581;0.0;-0.00029034115;2.1168544
  7.9998940E-02;  9.9999998E-03;  2.8000024E-01;1182;-0.0011546606;0.0;0.00022646305;1000.0156;  4.0000001E-01;12.937903;3;-1.0435147;0.0;0.1855225;0;-0.014147422;  1.0000290E+04;  0.0000000E+00; -8.7328852E-05;  1.0000000E+04;  0.0000000E+00;  1.0000022E+04;-0.013170602;0.0;-0.00097682024;8.9964542
  7.9999223E-02;  9.9999998E-03;  3.0000025E-01;1183;-0.00084100652;0.0;0.00024083533;1000.0127;  4.0000001E-01;10.468838;3;-0.80788815;0.0;0.21652317;0;-0.011424541;  1.0000217E+04;  0.0000000E+00; -1.5545568E-04;  1.0000000E+04;  0.0000000E+00;  1.0000034E+04;-0.009906115;0.0;-0.0015184268;14.460808
  9.9997714E-02;  9.9999998E-03;  1.6000012E-01;1207;-0.0024459446;0.0;9.6146185e-05;1000.0279;  4.0000001E-01;23.110455;3;-1.9149246;0.0;0.057121739;0;-0.024543572;  1.0000583E+04;  0.0000000E+00; -5.8767061E-11;  1.0000000E+04;  0.0000000E+00;  9.9999756E+03;-0.025648488;0.0;0.0011049155;13.331875
  9.9997744E-02;  9.9999998E-03;  1.8000014E-01;1208;-0.0024138812;0.0;0.00012372575;1000.0275;  4.0000001E-01;22.715403;3;-1.8942242;0.0;0.07662835;0;-0.024272667;  1.0000578E+04;  0.0000000E+00; -2.5699465E-09;  1.0000000E+04;  0.0000000E+00;  9.9999746E+03;-0.025452888;0.0;0.0011802203;13.897902
  9.9997811E-02;  9.9999998E-03;  2.0000017E-01;1209;-0.0023488468;0.0;0.0001542807;1000.0269;  4.0000001E-01;22.320353;3;-1.8499191;0.0;0.098271668;0;-0.02376668;  1.0000564E+04;  0.0000000E+00; -1.3023690E-08;  1.0000000E+04;  0.0000000E+00;  9.9999756E+03;-0.024907822;0.0;0.001141142;13.273854
  9.9997923E-02;  9.9999998E-03;  2.2000021E-01;1210;-0.0022367369;0.0;0.00018588363;1000.0259;  4.0000001E-01;21.530252;3;-1.7768871;0.0;0.12179245;0;-0.022928568;  1.0000536E+04;  0.0000000E+00; -1.3216547E-05;  1.0000000E+04;  0.0000000E+00;  9.9999814E+03;-0.023836024;0.0;0.00090745714;10.638799
  9.9998079E-02;  9.9999998E-03;  2.4000023E-01;1211;-0.002064418;0.0;0.00021221032;1000.0244;  4.0000001E-01;20.147575;3;-1.6717136;0.0;0.1437549;0;-0.021640942;  1.0000499E+04;  0.0000000E+00; -1.1762811E-04;  1.0000000E+04;  0.0000000E+00;  9.9999922E+03;-0.0220703;0.0;0.00042935839;5.5186462
  9.9998310E-02;  9.9999998E-03;  2.6000026E-01;1212;-0.0018185655;0.0;0.00023415631;1000.0224;  4.0000001E-01;18.567373;3;-1.5255206;0.0;0.16647416;0;-0.019785305;  1.0000440E+04;  0.0000000E+00; -4.2410946E-04;  1.0000000E+04;  0.0000000E+00;  1.0000007E+04;-0.01951422;0.0;-0.00027108617;2.8374372
  9.9998601E-02;  9.9999998E-03;  2.8000027E-01;1213;-0.0014984782;0.0;0.00024727485;1000.0195;  4.0000001E-01;16.197071;3;-1.324815;0.0;0.18941557;0;-0.017273644;  1.0000362E+04;  0.0000000E+00; -9.1515965E-04;  1.0000000E+04;  0.0000000E+00;  1.0000026E+04;-0.016211821;0.0;-0.001061823;11.154152
  9.9998973E-02;  9.9999998E-03;  3.0000028E-01;1214;-0.0010990166;0.0;0.00027494074;1000.0159;  4.0000001E-01;13.135429;3;-1.0358486;0.0;0.23626125;0;-0.014135673;  1.0000279E+04;  0.0000000E+00; -1.4405180E-03;  1.0000000E+04;  0.0000000E+00;  1.0000040E+04;-0.012434328;0.0;-0.0017013447;18.339521
  1.1999711E-01;  9.9999998E-03;  1.6000013E-01;1238;-0.0030253483;0.0;0.00010070732;1000.0337;  4.0000001E-01;27.949823;3;-2.3154459;0.0;0.053674899;0;-0.028874068;  1.0000704E+04;  0.0000000E+00; -1.6054698E-09;  1.0000000E+04;  0.0000000E+00;  9.9999688E+03;-0.03011797;0.0;0.001243903;15.904243
  1.1999715E-01;  9.9999998E-03;  1.8000016E-01;1239;-0.0029953229;0.0;0.00012981906;1000.0333;  4.0000001E-01;27.653534;3;-2.2977865;0.0;0.072629377;0;-0.028686229;  1.0000698E+04;  0.0000000E+00; -9.0528811E-09;  1.0000000E+04;  0.0000000E+00;  9.9999688E+03;-0.030021332;0.0;0.0013351029;16.666681
  1.1999722E-01;  9.9999998E-03;  2.0000020E-01;1240;-0.0029266381;0.0;0.00016153963;1000.0329;  4.0000001E-01;27.258484;3;-2.2533371;0.0;0.093173772;0;-0.028237363;  1.0000685E+04;  0.0000000E+00; -1.1048905E-05;  1.0000000E+04;  0.0000000E+00;  9.9999688E+03;-0.029545683;0.0;0.0013083206;16.111166
  1.1999734E-01;  9.9999998E-03;  2.2000022E-01;1241;-0.0028011515;0.0;0.00019531733;1000.0317;  4.0000001E-01;26.270859;3;-2.1757021;0.0;0.11630163;0;-0.02743821;  1.0000660E+04;  0.0000000E+00; -1.5559589E-04;  1.0000000E+04;  0.0000000E+00;  9.9999756E+03;-0.02851012;0.0;0.0010719101;13.276755
  1.1999754E-01;  9.9999998E-03;  2.4000025E-01;1242;-0.0026021479;0.0;0.0002232579;1000.0302;  4.0000001E-01;24.986944;3;-2.0611637;0.0;0.13781694;0;-0.026190948;  1.0000616E+04;  0.0000000E+00; -7.7204587E-04;  1.0000000E+04;  0.0000000E+00;  9.9999893E+03;-0.026748508;0.0;0.00055756094;8.3132067
  1.1999781E-01;  9.9999998E-03;  2.6000029E-01;1243;-0.0023099235;0.0;0.00025044757;1000.0283;  4.0000001E-01;23.505505;3;-1.8973992;0.0;0.16385323;0;-0.02436118;  1.0000556E+04;  0.0000000E+00; -2.2080399E-03;  1.0000000E+04;  0.0000000E+00;  1.0000007E+04;-0.024133578;0.0;-0.00022760307;10.972107
  1.1999818E-01;  9.9999998E-03;  2.8000030E-01;1244;-0.0019208905;0.0;0.00027245833;1000.0251;  4.0000001E-01;20.74015;3;-1.665903;0.0;0.19524384;0;-0.02177885;  1.0000474E+04;  0.0000000E+00; -4.3717367E-03;  1.0000000E+04;  0.0000000E+00;  1.0000028E+04;-0.020635016;0.0;-0.0011438334;24.359608
  1.1999864E-01;  9.9999998E-03;  3.0000034E-01;1245;-0.0014218634;0.0;0.0003204325;1000.0211;  4.0000001E-01;17.480984;3;-1.3173534;0.0;0.26442254;0;-0.018293478;  1.0000374E+04;  0.0000000E+00; -6.3646170E-03;  1.0000000E+04;  0.0000000E+00;  1.0000048E+04;-0.016393332;0.0;-0.0019001465;36.993183
  1.3999639E-01;  9.9999998E-03;  1.6000015E-01;1269;-0.0037046839;0.0;0.0001093961;1000.0407;  4.0000001E-01;33.776817;3;-2.7730417;0.0;0.053274717;0;-0.034036212;  1.0000853E+04;  0.0000000E+00; -1.5747093E-09;  1.0000000E+04;  0.0000000E+00;  9.9999619E+03;-0.035472069;0.0;0.0014358577;19.345932
  1.3999642E-01;  9.9999998E-03;  1.8000017E-01;1270;-0.0036799712;0.0;0.00014026834;1000.0405;  4.0000001E-01;33.579292;3;-2.7609024;0.0;0.07133998;0;-0.033960424;  1.0000851E+04;  0.0000000E+00; -1.9591703E-06;  1.0000000E+04;  0.0000000E+00;  9.9999619E+03;-0.035510074;0.0;0.0015496502;20.436098
  1.3999650E-01;  9.9999998E-03;  2.0000021E-01;1271;-0.003610543;0.0;0.00017350919;1000.0399;  4.0000001E-01;33.08548;3;-2.7189267;0.0;0.090483442;0;-0.033626374;  1.0000838E+04;  0.0000000E+00; -8.7472654E-05;  1.0000000E+04;  0.0000000E+00;  9.9999619E+03;-0.035173487;0.0;0.0015471121;20.12586
  1.3999663E-01;  9.9999998E-03;  2.2000025E-01;1272;-0.0034740975;0.0;0.00020902173;1000.0391;  4.0000001E-01;32.394142;3;-2.6396778;0.0;0.11265422;0;-0.032996319;  1.0000813E+04;  0.0000000E+00; -6.8631023E-04;  1.0000000E+04;  0.0000000E+00;  9.9999688E+03;-0.034315638;0.0;0.0013193181;17.513292
  1.3999686E-01;  9.9999998E-03;  2.4000029E-01;1273;-0.0032486401;0.0;0.0002390828;1000.0379;  4.0000001E-01;31.406515;3;-2.5186255;0.0;0.13365936;0;-0.032036021;  1.0000775E+04;  0.0000000E+00; -2.7495581E-03;  1.0000000E+04;  0.0000000E+00;  9.9999834E+03;-0.032801408;0.0;0.0007653861;17.221977
  1.3999718E-01;  9.9999998E-03;  2.6000032E-01;1274;-0.0029073621;0.0;0.00027396606;1000.0361;  4.0000001E-01;29.925076;3;-2.3391967;0.0;0.16545141;0;-0.030613244;  1.0000718E+04;  0.0000000E+00; -7.2250175E-03;  1.0000000E+04;  0.0000000E+00;  1.0000006E+04;-0.03048023;0.0;-0.00013301382;35.744156
  1.3999763E-01;  9.9999998E-03;  2.8000036E-01;1275;-0.0024439117;0.0;0.00030826961;1000.0334;  4.0000001E-01;27.752296;3;-2.0797901;0.0;0.20790553;0;-0.028407598;  1.0000637E+04;  0.0000000E+00; -1.3791847E-02;  1.0000000E+04;  0.0000000E+00;  1.0000033E+04;-0.027181765;0.0;-0.0012258328;69.244408
  1.3999821E-01;  9.9999998E-03;  3.0000043E-01;1276;-0.0018320351;0.0;0.00038343153;1000.0292;  4.0000001E-01;24.196842;3;-1.6683198;0.0;0.30663633;0;-0.024844741;  1.0000529E+04;  0.0000000E+00; -1.9557871E-02;  1.0000000E+04;  0.0000000E+00;  1.0000057E+04;-0.022708479;0.0;-0.0021362619;99.162041
  1.5999551E-01;  9.9999998E-03;  1.6000018E-01;1300;-0.0045042834;0.0;0.00012683126;1000.0494;  4.0000001E-01;40.887726;3;-3.2943349;0.0;0.059947446;0;-0.040064845;  1.0001030E+04;  0.0000000E+00; -2.5275846E-09;  1.0000000E+04;  0.0000000E+00;  9.9999541E+03;-0.041795325;0.0;0.0017304795;24.214592
  1.5999554E-01;  9.9999998E-03;  1.8000022E-01;1301;-0.0044887573;0.0;0.00016075038;1000.049;  4.0000001E-01;40.591438;3;-3.2904477;0.0;0.07756418;0;-0.040131677;  1.0001030E+04;  0.0000000E+00; -1.7212491E-05;  1.0000000E+04;  0.0000000E+00;  9.9999512E+03;-0.042021304;0.0;0.0018896263;25.970991
  1.5999562E-01;  9.9999998E-03;  2.0000026E-01;1302;-0.0044222455;0.0;0.0001971477;1000.0488;  4.0000001E-01;40.492676;3;-3.2539401;0.0;0.095907234;0;-0.039986003;  1.0001025E+04;  0.0000000E+00; -3.0231787E-04;  1.0000000E+04;  0.0000000E+00;  9.9999492E+03;-0.041927371;0.0;0.0019413675;26.357798
  1.5999578E-01;  9.9999998E-03;  2.2000030E-01;1303;-0.0042772535;0.0;0.00023596533;1000.0482;  4.0000001E-01;39.900101;3;-3.1761467;0.0;0.11758825;0;-0.039695363;  1.0001010E+04;  0.0000000E+00; -1.8682887E-03;  1.0000000E+04;  0.0000000E+00;  9.9999541E+03;-0.041439474;0.0;0.0017441117;25.375452
  1.5999603E-01;  9.9999998E-03;  2.4000035E-01;1304;-0.004025714;0.0;0.00026950866;1000.0477;  4.0000001E-01;39.505051;3;-3.052062;0.0;0.13874692;0;-0.039356548;  1.0000980E+04;  0.0000000E+00; -6.8158647E-03;  1.0000000E+04;  0.0000000E+00;  9.9999717E+03;-0.040498041;0.0;0.0011414929;37.541039
  1.5999641E-01;  9.9999998E-03;  2.6000038E-01;1305;-0.0036363299;0.0;0.00030898713;1000.0468;  4.0000001E-01;38.813713;3;-2.8633928;0.0;0.17430902;0;-0.038904727;  1.0000938E+04;  0.0000000E+00; -1.7391825E-02;  1.0000000E+04;  0.0000000E+00;  1.0000000E+04;-0.038976271;0.0;7.1546063e-05;86.415703
  1.5999694E-01;  9.9999998E-03;  2.8000045E-01;1306;-0.003092784;0.0;0.00035904741;1000.0455;  4.0000001E-01;37.628559;3;-2.58024;0.0;0.23008156;0;-0.03783261;  1.0000872E+04;  0.0000000E+00; -3.3076849E-02;  1.0000000E+04;  0.0000000E+00;  1.0000035E+04;-0.036537066;0.0;-0.001295543;164.47704
  1.5999766E-01;  9.9999998E-03;  3.0000052E-01;1307;-0.0023623258;0.0;0.00046080953;1000.0416;  4.0000001E-01;34.468155;3;-2.1132677;0.0;0.35724568;0;-0.034842569;  1.0000770E+04;  0.0000000E+00; -4.7274139E-02;  1.0000000E+04;  0.0000000E+00;  1.0000065E+04;-0.032407425;0.0;-0.0024351426;235.53807
  1.7999445E-01;  9.9999998E-03;  1.6000022E-01;1331;-0.0054439432;0.0;0.00015930952;1000.0593;  4.0000001E-01;49.183788;3;-3.8857548;0.0;0.079075322;0;-0.047009572;  1.0001245E+04;  0.0000000E+00; -1.6156983E-07;  1.0000000E+04;  0.0000000E+00;  9.9999404E+03;-0.049208783;0.0;0.00219921;31.316765
  1.7999448E-01;  9.9999998E-03;  1.8000026E-01;1332;-0.0054420829;0.0;0.00019917193;1000.0593;  4.0000001E-01;49.183788;3;-3.8931177;0.0;0.097430699;0;-0.04723829;  1.0001253E+04;  0.0000000E+00; -5.1440980E-05;  1.0000000E+04;  0.0000000E+00;  9.9999336E+03;-0.049689293;0.0;0.002451001;34.395782
  1.7999455E-01;  9.9999998E-03;  2.0000032E-01;1333;-0.0053832489;0.0;0.0002409796;1000.0591;  4.0000001E-01;48.986263;3;-3.8655546;0.0;0.1163004;0;-0.047334522;  1.0001251E+04;  0.0000000E+00; -6.5827550E-04;  1.0000000E+04;  0.0000000E+00;  9.9999297E+03;-0.049945932;0.0;0.0026114115;36.309727
  1.7999472E-01;  9.9999998E-03;  2.2000037E-01;1334;-0.0052345418;0.0;0.00028299208;1000.059;  4.0000001E-01;48.887501;3;-3.7944705;0.0;0.13596398;0;-0.047512602;  1.0001249E+04;  0.0000000E+00; -3.6549331E-03;  1.0000000E+04;  0.0000000E+00;  9.9999336E+03;-0.049998797;0.0;0.0024861966;38.881447
  1.7999500E-01;  9.9999998E-03;  2.4000043E-01;1335;-0.0049575213;0.0;0.00032261561;1000.0594;  4.0000001E-01;49.282551;3;-3.6707091;0.0;0.15911293;0;-0.048075054;  1.0001237E+04;  0.0000000E+00; -1.2848582E-02;  1.0000000E+04;  0.0000000E+00;  9.9999512E+03;-0.049906984;0.0;0.0018319318;69.257782
  1.7999545E-01;  9.9999998E-03;  2.6000047E-01;1336;-0.0045193564;0.0;0.00036442972;1000.0604;  4.0000001E-01;50.072651;3;-3.4794841;0.0;0.19453192;0;-0.049145035;  1.0001221E+04;  0.0000000E+00; -3.2728061E-02;  1.0000000E+04;  0.0000000E+00;  9.9999883E+03;-0.049646214;0.0;0.00050117681;163.44952
  1.7999606E-01;  9.9999998E-03;  2.8000054E-01;1337;-0.0038985836;0.0;0.00042100047;1000.0611;  4.0000001E-01;50.665226;3;-3.185189;0.0;0.25633311;0;-0.050117031;  1.0001187E+04;  0.0000000E+00; -6.3226342E-02;  1.0000000E+04;  0.0000000E+00;  1.0000036E+04;-0.048794661;0.0;-0.0013223713;314.95615
  1.7999691E-01;  9.9999998E-03;  3.0000064E-01;1338;-0.0030639931;0.0;0.00052503758;1000.0593;  4.0000001E-01;49.183788;3;-2.6945376;0.0;0.38373184;0;-0.048817359;  1.0001104E+04;  0.0000000E+00; -9.2446916E-02;  1.0000000E+04;  0.0000000E+00;  1.0000081E+04;-0.045916028;0.0;-0.0029013294;460.63336
  1.9999318E-01;  9.9999998E-03;  1.6000028E-01;1362;-0.0065455493;0.0;0.00021297114;1000.0712;  4.0000001E-01;59.060051;3;-4.554081;0.0;0.11603516;0;-0.05492682;  1.0001507E+04;  0.0000000E+00; -6.7465788E-07;  1.0000000E+04;  0.0000000E+00;  9.9999189E+03;-0.057856821;0.0;0.0029300023;41.66605
  1.9999318E-01;  9.9999998E-03;  1.8000033E-01;1363;-0.006562375;0.0;0.00026329904;1000.0713;  4.0000001E-01;59.060051;3;-4.5755019;0.0;0.13776328;0;-0.05530978;  1.0001521E+04;  0.0000000E+00; -8.9263267E-05;  1.0000000E+04;  0.0000000E+00;  9.9999082E+03;-0.05865835;0.0;0.0033485712;47.091255
  1.9999325E-01;  9.9999998E-03;  2.0000041E-01;1364;-0.0065174815;0.0;0.00031318117;1000.0714;  4.0000001E-01;59.158813;3;-4.5612283;0.0;0.15808481;0;-0.055639654;  1.0001527E+04;  0.0000000E+00; -1.0193839E-03;  1.0000000E+04;  0.0000000E+00;  9.9998965E+03;-0.059340615;0.0;0.0037009609;51.712219
  1.9999342E-01;  9.9999998E-03;  2.2000048E-01;1365;-0.0063696029;0.0;0.0003630555;1000.0715;  4.0000001E-01;59.257576;3;-4.5009189;0.0;0.17840779;0;-0.056279439;  1.0001537E+04;  0.0000000E+00; -5.4430184E-03;  1.0000000E+04;  0.0000000E+00;  9.9998955E+03;-0.060003225;0.0;0.0037237857;58.395504
  1.9999373E-01;  9.9999998E-03;  2.4000053E-01;1366;-0.0060743238;0.0;0.00040095381;1000.073;  4.0000001E-01;60.442726;3;-4.3861995;0.0;0.19694364;0;-0.057784718;  1.0001546E+04;  0.0000000E+00; -1.9011389E-02;  1.0000000E+04;  0.0000000E+00;  9.9999180E+03;-0.060821157;0.0;0.0030364399;104.60407
  1.9999424E-01;  9.9999998E-03;  2.6000059E-01;1367;-0.0055915462;0.0;0.00043913582;1000.076;  4.0000001E-01;62.911793;3;-4.2046447;0.0;0.22509861;0;-0.060584072;  1.0001559E+04;  0.0000000E+00; -4.9017787E-02;  1.0000000E+04;  0.0000000E+00;  9.9999629E+03;-0.061908878;0.0;0.0013248072;246.44212
  1.9999494E-01;  9.9999998E-03;  2.8000066E-01;1368;-0.0049068872;0.0;0.00048859941;1000.0798;  4.0000001E-01;66.072197;3;-3.9239957;0.0;0.27991939;0;-0.064163029;  1.0001563E+04;  0.0000000E+00; -9.6677549E-02;  1.0000000E+04;  0.0000000E+00;  1.0000034E+04;-0.062885284;0.0;-0.001277743;483.54285
  1.9999589E-01;  9.9999998E-03;  3.0000076E-01;1369;-0.0039882627;0.0;0.00057516276;1000.0809;  4.0000001E-01;67.059822;3;-3.4508171;0.0;0.38320017;0;-0.065563433;  1.0001515E+04;  0.0000000E+00; -1.4409985E-01;  1.0000000E+04;  0.0000000E+00;  1.0000103E+04;-0.061823972;0.0;-0.0037394583;720.88043
  2.1999162E-01;  9.9999998E-03;  1.6000037E-01;1393;-0.0078344662;0.0;0.00029251864;1000.0852;  4.0000001E-01;70.615273;3;-5.3070283;0.0;0.17494872;0;-0.063876107;  1.0001815E+04;  0.0000000E+00; -7.3172708E-07;  1.0000000E+04;  0.0000000E+00;  9.9998887E+03;-0.06788636;0.0;0.0040102541;56.321243
  2.1999161E-01;  9.9999998E-03;  1.8000045E-01;1394;-0.0078753801;0.0;0.00035989081;1000.0854;  4.0000001E-01;70.812805;3;-5.3448148;0.0;0.20448951;0;-0.064375095;  1.0001838E+04;  0.0000000E+00; -1.0064172E-04;  1.0000000E+04;  0.0000000E+00;  9.9998711E+03;-0.069065139;0.0;0.0046900408;65.437355
  2.1999167E-01;  9.9999998E-03;  2.0000054E-01;1395;-0.0078511108;0.0;0.0004230745;1000.0854;  4.0000001E-01;70.714035;3;-5.3480101;0.0;0.2275286;0;-0.064856596;  1.0001857E+04;  0.0000000E+00; -1.1648551E-03;  1.0000000E+04;  0.0000000E+00;  9.9998516E+03;-0.070199296;0.0;0.0053427014;74.223427
  2.1999183E-01;  9.9999998E-03;  2.2000064E-01;1396;-0.0077125211;0.0;0.00048473076;1000.086;  4.0000001E-01;71.207855;3;-5.3058209;0.0;0.24897048;0;-0.065784387;  1.0001879E+04;  0.0000000E+00; -6.2798574E-03;  1.0000000E+04;  0.0000000E+00;  9.9998398E+03;-0.071413964;0.0;0.0056295795;84.038887
  2.1999218E-01;  9.9999998E-03;  2.4000071E-01;1397;-0.0074098082;0.0;0.00052715425;1000.088;  4.0000001E-01;72.886818;3;-5.2135415;0.0;0.26341182;0;-0.067930847;  1.0001902E+04;  0.0000000E+00; -2.2267610E-02;  1.0000000E+04;  0.0000000E+00;  9.9998584E+03;-0.072924443;0.0;0.0049935975;132.40691
  2.1999273E-01;  9.9999998E-03;  2.6000080E-01;1398;-0.0068884646;0.0;0.00058285892;1000.0924;  4.0000001E-01;76.541031;3;-5.0543613;0.0;0.29735088;0;-0.072011344;  1.0001930E+04;  0.0000000E+00; -5.8608964E-02;  1.0000000E+04;  0.0000000E+00;  9.9999160E+03;-0.074898735;0.0;0.0028873899;298.30585
  2.1999352E-01;  9.9999998E-03;  2.8000093E-01;1399;-0.0061444314;0.0;0.00067051535;1000.0984;  4.0000001E-01;81.577927;3;-4.8083229;0.0;0.37488532;0;-0.077551894;  1.0001958E+04;  0.0000000E+00; -1.1799943E-01;  1.0000000E+04;  0.0000000E+00;  1.0000008E+04;-0.076965638;0.0;-0.00058625569;593.13147
  2.1999465E-01;  9.9999998E-03;  3.0000117E-01;1400;-0.0050877193;0.0;0.00087954744;1000.1005;  4.0000001E-01;83.256889;3;-4.326642;0.0;0.57198763;0;-0.079952165;  1.0001921E+04;  0.0000000E+00; -1.7972015E-01;  1.0000000E+04;  0.0000000E+00;  1.0000086E+04;-0.076645091;0.0;-0.0033070766;903.06195
  2.3998977E-01;  9.9999998E-03;  1.6000047E-01;1424;-0.0093393847;0.0;0.00040257507;1000.1014;  4.0000001E-01;84.046989;3;-6.1530838;0.0;0.25894606;0;-0.073940687;  1.0002183E+04;  0.0000000E+00; -2.0075593E-07;  1.0000000E+04;  0.0000000E+00;  9.9998496E+03;-0.079445869;0.0;0.0055051786;76.170319
  2.3998973E-01;  9.9999998E-03;  1.8000060E-01;1425;-0.0094116423;0.0;0.0004941384;1000.1016;  4.0000001E-01;84.145752;3;-6.2105241;0.0;0.29919159;0;-0.074502125;  1.0002217E+04;  0.0000000E+00; -7.2964496E-05;  1.0000000E+04;  0.0000000E+00;  9.9998135E+03;-0.081046142;0.0;0.0065440191;90.490318
  2.3998976E-01;  9.9999998E-03;  2.0000073E-01;1426;-0.0094154673;0.0;0.00058567279;1000.1015;  4.0000001E-01;84.046989;3;-6.2345805;0.0;0.33510908;0;-0.075016171;  1.0002250E+04;  0.0000000E+00; -9.7640906E-04;  1.0000000E+04;  0.0000000E+00;  9.9997842E+03;-0.082626425;0.0;0.007610254;105.13468
  2.3998991E-01;  9.9999998E-03;  2.2000086E-01;1427;-0.009299513;0.0;0.00067912787;1000.1021;  4.0000001E-01;84.54081;3;-6.2198281;0.0;0.37004694;0;-0.075958274;  1.0002279E+04;  0.0000000E+00; -5.5915313E-03;  1.0000000E+04;  0.0000000E+00;  9.9997627E+03;-0.084270716;0.0;0.0083124414;118.28003
  2.3999025E-01;  9.9999998E-03;  2.4000101E-01;1428;-0.0090071447;0.0;0.0007705919;1000.1041;  4.0000001E-01;86.219772;3;-6.1664276;0.0;0.41060591;0;-0.078163013;  1.0002312E+04;  0.0000000E+00; -2.0584553E-02;  1.0000000E+04;  0.0000000E+00;  9.9997715E+03;-0.086135872;0.0;0.0079728607;152.70226
  2.3999085E-01;  9.9999998E-03;  2.6000124E-01;1429;-0.0084655331;0.0;0.0009412308;1000.1083;  4.0000001E-01;89.67646;3;-6.052454;0.0;0.52476656;0;-0.082255311;  1.0002345E+04;  0.0000000E+00; -5.5905648E-02;  1.0000000E+04;  0.0000000E+00;  9.9998223E+03;-0.088319853;0.0;0.0060645384;296.21024
  2.3999169E-01;  9.9999998E-03;  2.8000161E-01;1430;-0.0076813875;0.0;0.0012594567;1000.1135;  4.0000001E-01;94.022018;3;-5.8674383;0.0;0.78483486;0;-0.086943194;  1.0002368E+04;  0.0000000E+00; -1.1557933E-01;  1.0000000E+04;  0.0000000E+00;  9.9999014E+03;-0.090406932;0.0;0.0034637402;586.46747
  2.3999295E-01;  9.9999998E-03;  3.0000231E-01;1431;-0.0065395371;0.0;0.0018675099;1000.1111;  4.0000001E-01;92.046768;3;-5.4297528;0.0;1.3320913;0;-0.085561141;  1.0002323E+04;  0.0000000E+00; -1.8088944E-01;  1.0000000E+04;  0.0000000E+00;  9.9999014E+03;-0.089934826;0.0;0.0043736873;914.19183
  2.5998753E-01;  9.9999998E-03;  1.6000062E-01;1455;-0.011093529;0.0;0.00054479908;1000.1205;  4.0000001E-01;99.849007;3;-7.1016898;0.0;0.37070182;0;-0.085243061;  1.0002616E+04;  0.0000000E+00; -2.1152040E-10;  1.0000000E+04;  0.0000000E+00;  9.9997949E+03;-0.092685252;0.0;0.0074421936;101.76199
  2.5998744E-01;  9.9999998E-03;  1.8000080E-01;1456;-0.011205697;0.0;0.00067514105;1000.1207;  4.0000001E-01;100.04653;3;-7.1818209;0.0;0.43004134;0;-0.085822895;  1.0002664E+04;  0.0000000E+00; -2.9786353E-05;  1.0000000E+04;  0.0000000E+00;  9.9997490E+03;-0.094741829;0.0;0.0089189326;122.7542
  2.5998744E-01;  9.9999998E-03;  2.0000099E-01;1457;-0.011248124;0.0;0.00081755529;1000.1204;  4.0000001E-01;99.750244;3;-7.2318101;0.0;0.49133319;0;-0.086276554;  1.0002710E+04;  0.0000000E+00; -5.7217811E-04;  1.0000000E+04;  0.0000000E+00;  9.9996992E+03;-0.096759334;0.0;0.010482782;144.92514
  2.5998756E-01;  9.9999998E-03;  2.2000122E-01;1458;-0.011171312;0.0;0.00097989617;1000.1204;  4.0000001E-01;99.750244;3;-7.2563119;0.0;0.56260264;0;-0.086993739;  1.0002752E+04;  0.0000000E+00; -3.7485019E-03;  1.0000000E+04;  0.0000000E+00;  9.9996592E+03;-0.098738544;0.0;0.011744806;164.1291
  2.5998789E-01;  9.9999998E-03;  2.4000148E-01;1459;-0.010918207;0.0;0.0011682622;1000.1215;  4.0000001E-01;100.63911;3;-7.26407;0.0;0.66401422;0;-0.088681489;  1.0002785E+04;  0.0000000E+00; -1.4789721E-02;  1.0000000E+04;  0.0000000E+00;  9.9996484E+03;-0.10072503;0.0;0.012043547;184.42966
  2.5998846E-01;  9.9999998E-03;  2.6000190E-01;1460;-0.010410157;0.0;0.0015023276;1000.1244;  4.0000001E-01;103.00941;3;-7.2449732;0.0;0.8884207;0;-0.091560841;  1.0002813E+04;  0.0000000E+00; -4.2029917E-02;  1.0000000E+04;  0.0000000E+00;  9.9996729E+03;-0.10271724;0.0;0.011156395;264.75909
  2.5998932E-01;  9.9999998E-03;  2.8000262E-01;1461;-0.009634437;0.0;0.0020903728;1000.126;  4.0000001E-01;104.39208;3;-7.1735816;0.0;1.3506074;0;-0.093218587;  1.0002824E+04;  0.0000000E+00; -8.9453697E-02;  1.0000000E+04;  0.0000000E+00;  9.9996943E+03;-0.1043311;0.0;0.011112513;477.74173
  2.5999057E-01;  9.9999998E-03;  3.0000362E-01;1462;-0.0085122334;0.0;0.0029197002;1000.1187;  4.0000001E-01;98.367569;3;-6.8996687;0.0;2.0715206;0;-0.088171795;  1.0002770E+04;  0.0000000E+00; -1.4190991E-01;  1.0000000E+04;  0.0000000E+00;  9.9996045E+03;-0.10378376;0.0;0.015611961;743.57892
  2.7998486E-01;  9.9999998E-03;  1.6000080E-01;1486;-0.01313347;0.0;0.00072208134;1000.1429;  4.0000001E-01;118.41637;3;-8.1625261;0.0;0.51107478;0;-0.097949833;  1.0003129E+04;  0.0000000E+00; -2.8444478E-09;  1.0000000E+04;  0.0000000E+00;  9.9997285E+03;-0.10776;0.0;0.0098101608;133.27065
  2.7998471E-01;  9.9999998E-03;  1.8000104E-01;1487;-0.01329616;0.0;0.00090546568;1000.1429;  4.0000001E-01;118.41637;3;-8.2685738;0.0;0.59726006;0;-0.098528847;  1.0003193E+04;  0.0000000E+00; -3.9199349E-06;  1.0000000E+04;  0.0000000E+00;  9.9996641E+03;-0.11029819;0.0;0.011769343;162.217
  2.7998465E-01;  9.9999998E-03;  2.0000133E-01;1488;-0.013389514;0.0;0.0011165342;1000.1425;  4.0000001E-01;118.02132;3;-8.3497276;0.0;0.69491267;0;-0.098899737;  1.0003249E+04;  0.0000000E+00; -2.0580248E-04;  1.0000000E+04;  0.0000000E+00;  9.9995957E+03;-0.11275298;0.0;0.013853246;193.14296
  2.7998474E-01;  9.9999998E-03;  2.2000167E-01;1489;-0.013367482;0.0;0.0013689325;1000.142;  4.0000001E-01;117.62627;3;-8.421936;0.0;0.8120538;0;-0.099321172;  1.0003302E+04;  0.0000000E+00; -1.7787105E-03;  1.0000000E+04;  0.0000000E+00;  9.9995342E+03;-0.11503665;0.0;0.015715478;221.15149
  2.7998498E-01;  9.9999998E-03;  2.4000210E-01;1490;-0.013175483;0.0;0.0016870004;1000.142;  4.0000001E-01;117.62627;3;-8.5077257;0.0;0.98793674;0;-0.100247;  1.0003342E+04;  0.0000000E+00; -7.9712300E-03;  1.0000000E+04;  0.0000000E+00;  9.9994990E+03;-0.11709207;0.0;0.016845079;241.32591
  2.7998552E-01;  9.9999998E-03;  2.6000273E-01;1491;-0.012735695;0.0;0.0021653597;1000.1429;  4.0000001E-01;118.41637;3;-8.6163864;0.0;1.3005471;0;-0.10156667;  1.0003368E+04;  0.0000000E+00; -2.4329344E-02;  1.0000000E+04;  0.0000000E+00;  9.9994902E+03;-0.11884528;0.0;0.017278612;271.59302
  2.7998635E-01;  9.9999998E-03;  2.8000370E-01;1492;-0.012017948;0.0;0.0029062424;1000.1409;  4.0000001E-01;116.73741;3;-8.7200336;0.0;1.8541079;0;-0.10057484;  1.0003370E+04;  0.0000000E+00; -5.3831425E-02;  1.0000000E+04;  0.0000000E+00;  9.9994492E+03;-0.12001492;0.0;0.019440081;377.1442
  2.7998754E-01;  9.9999998E-03;  3.0000487E-01;1493;-0.010973236;0.0;0.0037819173;1000.1317;  4.0000001E-01;109.13269;3;-8.6866322;0.0;2.5897906;0;-0.094481155;  1.0003318E+04;  0.0000000E+00; -8.6530820E-02;  1.0000000E+04;  0.0000000E+00;  9.9993164E+03;-0.11957159;0.0;0.02509043;543.51007
  2.9998165E-01;  9.9999998E-03;  1.6000101E-01;1517;-0.015498787;0.0;0.00093175343;1000.1687;  4.0000001E-01;139.74908;3;-9.3443766;0.0;0.67881948;0;-0.11226656;  1.0003729E+04;  0.0000000E+00; -3.8318611E-09;  1.0000000E+04;  0.0000000E+00;  9.9996504E+03;-0.12483985;0.0;0.012573295;170.59431
  2.9998145E-01;  9.9999998E-03;  1.8000133E-01;1518;-0.015724378;0.0;0.0011800388;1000.1688;  4.0000001E-01;139.84784;3;-9.4792156;0.0;0.7973417;0;-0.11284937;  1.0003812E+04;  0.0000000E+00; -1.5226650E-08;  1.0000000E+04;  0.0000000E+00;  9.9995654E+03;-0.12787811;0.0;0.015028747;208.63806
  2.9998133E-01;  9.9999998E-03;  2.0000173E-01;1519;-0.015881063;0.0;0.0014720459;1000.168;  4.0000001E-01;139.25526;3;-9.5949316;0.0;0.93193817;0;-0.11317319;  1.0003886E+04;  0.0000000E+00; -3.1166441E-05;  1.0000000E+04;  0.0000000E+00;  9.9994775E+03;-0.13077159;0.0;0.017598396;249.12056
  2.9998133E-01;  9.9999998E-03;  2.2000220E-01;1520;-0.015924305;0.0;0.0018246386;1000.1673;  4.0000001E-01;138.56393;3;-9.7182827;0.0;1.0972368;0;-0.11338416;  1.0003949E+04;  0.0000000E+00; -5.1260443E-04;  1.0000000E+04;  0.0000000E+00;  9.9993984E+03;-0.13336474;0.0;0.019980583;286.97485
  2.9998150E-01;  9.9999998E-03;  2.4000280E-01;1521;-0.015793622;0.0;0.0022561457;1000.1666;  4.0000001E-01;137.97136;3;-9.8855114;0.0;1.334095;0;-0.11374371;  1.0003998E+04;  0.0000000E+00; -2.9593145E-03;  1.0000000E+04;  0.0000000E+00;  9.9993340E+03;-0.13553885;0.0;0.021795133;315.33344
  2.9998198E-01;  9.9999998E-03;  2.6000363E-01;1522;-0.015425576;0.0;0.0028454533;1000.166;  4.0000001E-01;137.57631;3;-10.129765;0.0;1.6947589;0;-0.11397918;  1.0004028E+04;  0.0000000E+00; -1.0252557E-02;  1.0000000E+04;  0.0000000E+00;  9.9992949E+03;-0.13719596;0.0;0.023216778;336.50821
  2.9998276E-01;  9.9999998E-03;  2.8000477E-01;1523;-0.014775528;0.0;0.003656351;1000.1625;  4.0000001E-01;134.61342;3;-10.430684;0.0;2.2702296;0;-0.11183717;  1.0004028E+04;  0.0000000E+00; -2.4378719E-02;  1.0000000E+04;  0.0000000E+00;  9.9992207E+03;-0.13817251;0.0;0.026335336;385.30978
  2.9998392E-01;  9.9999998E-03;  3.0000606E-01;1524;-0.013802069;0.0;0.0045505394;1000.1532;  4.0000001E-01;126.90994;3;-10.662502;0.0;3.0213785;0;-0.10618219;  1.0003989E+04;  0.0000000E+00; -4.0496424E-02;  1.0000000E+04;  0.0000000E+00;  9.9990771E+03;-0.13797644;0.0;0.031794254;475.827
  3.1997785E-01;  9.9999998E-03;  1.6000125E-01;1548;-0.018233903;0.0;0.0011709959;1000.1993;  4.0000001E-01;165.13107;3;-10.655119;0.0;0.86913377;0;-0.12842259;  1.0004431E+04;  0.0000000E+00;  9.4208696E-10;  1.0000000E+04;  0.0000000E+00;  9.9995586E+03;-0.1441144;0.0;0.015691813;213.5206
  3.1997752E-01;  9.9999998E-03;  1.8000168E-01;1549;-0.018535573;0.0;0.0014957354;1000.1993;  4.0000001E-01;165.13107;3;-10.820755;0.0;1.0250196;0;-0.12903407;  1.0004533E+04;  0.0000000E+00; -2.6584070E-08;  1.0000000E+04;  0.0000000E+00;  9.9994561E+03;-0.14767894;0.0;0.018644871;261.84708
  3.1997731E-01;  9.9999998E-03;  2.0000219E-01;1550;-0.018766511;0.0;0.0018770858;1000.1986;  4.0000001E-01;164.5385;3;-10.972389;0.0;1.1965058;0;-0.1293626;  1.0004629E+04;  0.0000000E+00;  1.7771222E-07;  1.0000000E+04;  0.0000000E+00;  9.9993447E+03;-0.15101381;0.0;0.021651212;312.73776
  3.1997722E-01;  9.9999998E-03;  2.2000282E-01;1551;-0.018876072;0.0;0.0023208654;1000.1974;  4.0000001E-01;163.55087;3;-11.144922;0.0;1.39818;0;-0.12950145;  1.0004711E+04;  0.0000000E+00; -5.3493593E-05;  1.0000000E+04;  0.0000000E+00;  9.9992402E+03;-0.15391983;0.0;0.024418382;360.50851
  3.1997737E-01;  9.9999998E-03;  2.4000357E-01;1552;-0.018803231;0.0;0.0028561964;1000.1962;  4.0000001E-01;162.56325;3;-11.390469;0.0;1.6699703;0;-0.12961529;  1.0004770E+04;  0.0000000E+00; -5.9130898E-04;  1.0000000E+04;  0.0000000E+00;  9.9991572E+03;-0.15625772;0.0;0.026642425;398.0509
  3.1997779E-01;  9.9999998E-03;  2.6000458E-01;1553;-0.018483866;0.0;0.0035289605;1000.1951;  4.0000001E-01;161.67438;3;-11.765089;0.0;2.0568886;0;-0.12947616;  1.0004807E+04;  0.0000000E+00; -2.6980042E-03;  1.0000000E+04;  0.0000000E+00;  9.9990996E+03;-0.15795286;0.0;0.028476695;424.76184
  3.1997856E-01;  9.9999998E-03;  2.8000587E-01;1554;-0.017865473;0.0;0.0043865386;1000.1915;  4.0000001E-01;158.7115;3;-12.255099;0.0;2.6480236;0;-0.12732486;  1.0004817E+04;  0.0000000E+00; -7.3792771E-03;  1.0000000E+04;  0.0000000E+00;  9.9990137E+03;-0.1589548;0.0;0.031629931;464.43301
  3.1997976E-01;  9.9999998E-03;  3.0000734E-01;1555;-0.016918844;0.0;0.0053169238;1000.1833;  4.0000001E-01;151.89688;3;-12.74332;0.0;3.4231603;0;-0.12258038;  1.0004799E+04;  0.0000000E+00; -1.3353813E-02;  1.0000000E+04;  0.0000000E+00;  9.9988701E+03;-0.15911685;0.0;0.03653647;531.43109
  3.3997330E-01;  9.9999998E-03;  1.6000152E-01;1579;-0.021387277;0.0;0.0014337976;1000.2351;  4.0000001E-01;194.75984;3;-12.103477;0.0;1.0834326;0;-0.14665429;  1.0005246E+04;  0.0000000E+00;  1.9274584E-08;  1.0000000E+04;  0.0000000E+00;  9.9994590E+03;-0.16578931;0.0;0.019135019;261.83807
  3.3997285E-01;  9.9999998E-03;  1.8000205E-01;1580;-0.021778494;0.0;0.0018444638;1000.2352;  4.0000001E-01;194.8586;3;-12.298928;0.0;1.2771477;0;-0.14734644;  1.0005375E+04;  0.0000000E+00; -2.7130685E-08;  1.0000000E+04;  0.0000000E+00;  9.9993281E+03;-0.16993722;0.0;0.022590779;321.79251
  3.3997253E-01;  9.9999998E-03;  2.0000270E-01;1581;-0.022093708;0.0;0.0023196614;1000.2344;  4.0000001E-01;194.26602;3;-12.485136;0.0;1.4827255;0;-0.14773527;  1.0005493E+04;  0.0000000E+00;  1.4329291E-07;  1.0000000E+04;  0.0000000E+00;  9.9991914E+03;-0.17374296;0.0;0.026007701;384.41632
  3.3997235E-01;  9.9999998E-03;  2.2000349E-01;1582;-0.022275187;0.0;0.0028614046;1000.2332;  4.0000001E-01;193.17964;3;-12.705947;0.0;1.7104417;0;-0.14789727;  1.0005595E+04;  0.0000000E+00;  1.5512204E-06;  1.0000000E+04;  0.0000000E+00;  9.9990693E+03;-0.17697233;0.0;0.029075051;442.88339
  3.3997244E-01;  9.9999998E-03;  2.4000442E-01;1583;-0.022249594;0.0;0.0034909169;1000.2318;  4.0000001E-01;192.09325;3;-13.026863;0.0;2.0070338;0;-0.14799005;  1.0005670E+04;  0.0000000E+00; -1.6421793E-05;  1.0000000E+04;  0.0000000E+00;  9.9989707E+03;-0.17948438;0.0;0.031494331;489.16046
  3.3997285E-01;  9.9999998E-03;  2.6000562E-01;1584;-0.021951588;0.0;0.0042313887;1000.2308;  4.0000001E-01;191.20438;3;-13.526039;0.0;2.4032278;0;-0.1479685;  1.0005719E+04;  0.0000000E+00; -2.5494432E-04;  1.0000000E+04;  0.0000000E+00;  9.9989004E+03;-0.18124779;0.0;0.033279285;521.13672
  3.3997369E-01;  9.9999998E-03;  2.8000712E-01;1585;-0.021315947;0.0;0.0051472415;1000.2276;  4.0000001E-01;188.5378;3;-14.192992;0.0;3.0145707;0;-0.14628623;  1.0005740E+04;  0.0000000E+00; -1.0173859E-03;  1.0000000E+04;  0.0000000E+00;  9.9988125E+03;-0.18231769;0.0;0.036031451;561.28796
  3.3997497E-01;  9.9999998E-03;  3.0000877E-01;1586;-0.020321622;0.0;0.0061345422;1000.2205;  4.0000001E-01;182.61203;3;-14.90564;0.0;3.8319778;0;-0.14245471;  1.0005742E+04;  0.0000000E+00; -2.1904809E-03;  1.0000000E+04;  0.0000000E+00;  9.9986670E+03;-0.18277486;0.0;0.040320139;625.0802
  3.5996792E-01;  9.9999998E-03;  1.6000180E-01;1610;-0.025012072;0.0;0.0017178998;1000.2768;  4.0000001E-01;229.32671;3;-13.695651;0.0;1.3132607;0;-0.16719222;  1.0006193E+04;  0.0000000E+00;  4.2463697E-08;  1.0000000E+04;  0.0000000E+00;  9.9993467E+03;-0.19007273;0.0;0.022880509;315.35281
  3.5996732E-01;  9.9999998E-03;  1.8000245E-01;1611;-0.025507051;0.0;0.002221355;1000.2772;  4.0000001E-01;229.72176;3;-13.918596;0.0;1.546459;0;-0.16804194;  1.0006357E+04;  0.0000000E+00; -1.2647186E-08;  1.0000000E+04;  0.0000000E+00;  9.9991895E+03;-0.19490358;0.0;0.026861632;388.49005
  3.5996681E-01;  9.9999998E-03;  2.0000327E-01;1612;-0.025918534;0.0;0.0028001068;1000.2766;  4.0000001E-01;229.12918;3;-14.137476;0.0;1.7846868;0;-0.16856693;  1.0006507E+04;  0.0000000E+00;  1.1662198E-07;  1.0000000E+04;  0.0000000E+00;  9.9990264E+03;-0.19926684;0.0;0.030699905;464.72446
  3.5996655E-01;  9.9999998E-03;  2.2000423E-01;1613;-0.026176998;0.0;0.0034467122;1000.2754;  4.0000001E-01;228.14156;3;-14.404243;0.0;2.0372758;0;-0.16882855;  1.0006632E+04;  0.0000000E+00;  1.7275853E-06;  1.0000000E+04;  0.0000000E+00;  9.9988770E+03;-0.20288649;0.0;0.034057949;535.74884
  3.5996658E-01;  9.9999998E-03;  2.4000537E-01;1614;-0.026195267;0.0;0.0041740253;1000.2741;  4.0000001E-01;227.05518;3;-14.802588;0.0;2.350312;0;-0.16900846;  1.0006727E+04;  0.0000000E+00;  6.9695611E-06;  1.0000000E+04;  0.0000000E+00;  9.9987568E+03;-0.20561355;0.0;0.03660509;591.95026
  3.5996699E-01;  9.9999998E-03;  2.6000679E-01;1615;-0.025902068;0.0;0.0049838624;1000.2732;  4.0000001E-01;226.36383;3;-15.431755;0.0;2.7481184;0;-0.16928566;  1.0006785E+04;  0.0000000E+00;  1.6797754E-05;  1.0000000E+04;  0.0000000E+00;  9.9986787E+03;-0.20744909;0.0;0.038163435;629.18488
  3.5996792E-01;  9.9999998E-03;  2.8000852E-01;1616;-0.025213076;0.0;0.0059699188;1000.2701;  4.0000001E-01;223.79601;3;-16.277912;0.0;3.3845181;0;-0.16818498;  1.0006820E+04;  0.0000000E+00;  1.9780282E-05;  1.0000000E+04;  0.0000000E+00;  9.9985869E+03;-0.20851988;0.0;0.040334899;670.84265
  3.5996941E-01;  9.9999998E-03;  3.0001044E-01;1617;-0.02410234;0.0;0.0070377877;1000.2635;  4.0000001E-01;218.36406;3;-17.198229;0.0;4.2640476;0;-0.16493461;  1.0006831E+04;  0.0000000E+00; -1.2411031E-05;  1.0000000E+04;  0.0000000E+00;  9.9984434E+03;-0.20902681;0.0;0.044092216;736.17383
  3.7996155E-01;  9.9999998E-03;  1.6000213E-01;1641;-0.029164145;0.0;0.0020250799;1000.3254;  4.0000001E-01;269.6218;3;-15.439865;0.0;1.5576463;0;-0.19025367;  1.0007282E+04;  0.0000000E+00;  5.7860600E-08;  1.0000000E+04;  0.0000000E+00;  9.9992275E+03;-0.21715707;0.0;0.026903389;373.8869
  3.7996075E-01;  9.9999998E-03;  1.8000291E-01;1642;-0.029778892;0.0;0.0026293828;1000.3265;  4.0000001E-01;270.51065;3;-15.685163;0.0;1.8352568;0;-0.19136286;  1.0007490E+04;  0.0000000E+00;  1.1763317E-08;  1.0000000E+04;  0.0000000E+00;  9.9990391E+03;-0.2228139;0.0;0.03145105;461.80927
  3.7996006E-01;  9.9999998E-03;  2.0000388E-01;1643;-0.030299019;0.0;0.0033211105;1000.3262;  4.0000001E-01;270.31314;3;-15.930746;0.0;2.1083114;0;-0.19212109;  1.0007684E+04;  0.0000000E+00;  9.5068430E-08;  1.0000000E+04;  0.0000000E+00;  9.9988408E+03;-0.22788246;0.0;0.035761364;553.95447
  3.7995964E-01;  9.9999998E-03;  2.2000507E-01;1644;-0.030641953;0.0;0.0040839333;1000.3253;  4.0000001E-01;269.52304;3;-16.241575;0.0;2.3844316;0;-0.19257645;  1.0007847E+04;  0.0000000E+00;  1.9700310E-06;  1.0000000E+04;  0.0000000E+00;  9.9986611E+03;-0.23203877;0.0;0.039462309;640.1814
  3.7995958E-01;  9.9999998E-03;  2.4000645E-01;1645;-0.030708287;0.0;0.0049190223;1000.3242;  4.0000001E-01;268.63419;3;-16.730965;0.0;2.6988165;0;-0.19293046;  1.0007970E+04;  0.0000000E+00;  8.6246755E-06;  1.0000000E+04;  0.0000000E+00;  9.9985156E+03;-0.23511799;0.0;0.042187519;709.01135
  3.7996003E-01;  9.9999998E-03;  2.6000810E-01;1646;-0.030412588;0.0;0.0058156778;1000.3235;  4.0000001E-01;268.0416;3;-17.495836;0.0;3.1074686;0;-0.19357549;  1.0008054E+04;  0.0000000E+00;  2.1687747E-05;  1.0000000E+04;  0.0000000E+00;  9.9984199E+03;-0.23713621;0.0;0.043560725;754.42749
  3.7996107E-01;  9.9999998E-03;  2.8001016E-01;1647;-0.029655542;0.0;0.006886675;1000.3207;  4.0000001E-01;265.77005;3;-18.544437;0.0;3.7693214;0;-0.19307321;  1.0008098E+04;  0.0000000E+00;  3.4664874E-05;  1.0000000E+04;  0.0000000E+00;  9.9983203E+03;-0.23825626;0.0;0.045183044;801.86719
  3.7996283E-01;  9.9999998E-03;  3.0001241E-01;1648;-0.028398141;0.0;0.0080493335;1000.3139;  4.0000001E-01;260.04184;3;-19.69602;0.0;4.7174625;0;-0.19029894;  1.0008115E+04;  0.0000000E+00;  2.9540195E-05;  1.0000000E+04;  0.0000000E+00;  9.9981680E+03;-0.23872882;0.0;0.04842988;872.82416
  3.9995405E-01;  9.9999998E-03;  1.6000250E-01;1672;-0.033899881;0.0;0.0023626441;1000.3818;  4.0000001E-01;316.33643;3;-17.343538;0.0;1.814126;0;-0.21603221;  1.0008538E+04;  0.0000000E+00;  4.5968868E-08;  1.0000000E+04;  0.0000000E+00;  9.9990977E+03;-0.24719772;0.0;0.031165514;437.41589
  3.9995301E-01;  9.9999998E-03;  1.8000342E-01;1673;-0.034653742;0.0;0.0030745815;1000.3839;  4.0000001E-01;318.01538;3;-17.604107;0.0;2.1437917;0;-0.21753667;  1.0008801E+04;  0.0000000E+00;  4.3810022E-08;  1.0000000E+04;  0.0000000E+00;  9.9988760E+03;-0.25385973;0.0;0.036323059;541.34564
  3.9995208E-01;  9.9999998E-03;  2.0000458E-01;1674;-0.035298157;0.0;0.0038894452;1000.3844;  4.0000001E-01;318.50919;3;-17.868071;0.0;2.458087;0;-0.21865149;  1.0009048E+04;  0.0000000E+00;  8.5203325E-08;  1.0000000E+04;  0.0000000E+00;  9.9986436E+03;-0.25983855;0.0;0.041187067;651.763
  3.9995149E-01;  9.9999998E-03;  2.2000599E-01;1675;-0.035735659;0.0;0.0047835638;1000.3842;  4.0000001E-01;318.31168;3;-18.218504;0.0;2.7610507;0;-0.21941657;  1.0009264E+04;  0.0000000E+00;  2.2968200E-06;  1.0000000E+04;  0.0000000E+00;  9.9984219E+03;-0.26475248;0.0;0.045335904;756.26355
  3.9995131E-01;  9.9999998E-03;  2.4000764E-01;1676;-0.035854246;0.0;0.0057459893;1000.3835;  4.0000001E-01;317.71909;3;-18.79882;0.0;3.0813875;0;-0.22005069;  1.0009432E+04;  0.0000000E+00;  1.0840372E-05;  1.0000000E+04;  0.0000000E+00;  9.9982422E+03;-0.26840892;0.0;0.048358232;841.12323
  3.9995176E-01;  9.9999998E-03;  2.6000965E-01;1677;-0.035553373;0.0;0.0067538912;1000.3834;  4.0000001E-01;317.62033;3;-19.719946;0.0;3.4925621;0;-0.22111085;  1.0009550E+04;  0.0000000E+00;  2.8223465E-05;  1.0000000E+04;  0.0000000E+00;  9.9981230E+03;-0.27082607;0.0;0.049715221;899.18311
  3.9995292E-01;  9.9999998E-03;  2.8001210E-01;1678;-0.034722917;0.0;0.0079263542;1000.3808;  4.0000001E-01;315.44757;3;-21.00522;0.0;4.1764116;0;-0.22129621;  1.0009618E+04;  0.0000000E+00;  4.5915531E-05;  1.0000000E+04;  0.0000000E+00;  9.9979990E+03;-0.27219293;0.0;0.050896723;959.22479
  3.9995497E-01;  9.9999998E-03;  3.0001476E-01;1679;-0.033309154;0.0;0.0091944234;1000.3736;  4.0000001E-01;309.52182;3;-22.43413;0.0;5.1994586;0;-0.2192404;  1.0009654E+04;  0.0000000E+00;  3.8751834E-05;  1.0000000E+04;  0.0000000E+00;  9.9978223E+03;-0.27279663;0.0;0.053556237;1041.7661
  4.1994530E-01;  9.9999998E-03;  1.6000299E-01;1703;-0.039276235;0.0;0.0027490505;1000.4465;  4.0000001E-01;369.8656;3;-19.414354;0.0;2.080411;0;-0.24466124;  1.0009972E+04;  0.0000000E+00; -2.6343077E-08;  1.0000000E+04;  0.0000000E+00;  9.9989580E+03;-0.28027818;0.0;0.035616931;506.54123
  4.1994393E-01;  9.9999998E-03;  1.8000403E-01;1704;-0.040193655;0.0;0.0035716274;1000.4502;  4.0000001E-01;373.026;3;-19.681387;0.0;2.4712355;0;-0.24674833;  1.0010301E+04;  0.0000000E+00;  6.2495253E-08;  1.0000000E+04;  0.0000000E+00;  9.9987012E+03;-0.28814617;0.0;0.041397844;626.65314
  4.1994271E-01;  9.9999998E-03;  2.0000537E-01;1705;-0.040983416;0.0;0.0045170011;1000.452;  4.0000001E-01;374.50745;3;-19.953215;0.0;2.8341322;0;-0.24838549;  1.0010620E+04;  0.0000000E+00;  1.0439388E-07;  1.0000000E+04;  0.0000000E+00;  9.9984258E+03;-0.29528734;0.0;0.046901852;757.09277
  4.1994184E-01;  9.9999998E-03;  2.2000702E-01;1706;-0.041530188;0.0;0.0055564917;1000.4531;  4.0000001E-01;375.3963;3;-20.334406;0.0;3.1728041;0;-0.24961945;  1.0010900E+04;  0.0000000E+00;  2.8310396E-06;  1.0000000E+04;  0.0000000E+00;  9.9981631E+03;-0.30125302;0.0;0.051633563;882.68597
  4.1994151E-01;  9.9999998E-03;  2.4000901E-01;1707;-0.041706771;0.0;0.0066705598;1000.4539;  4.0000001E-01;376.08765;3;-21.005592;0.0;3.5081787;0;-0.25068057;  1.0011138E+04;  0.0000000E+00;  1.3838986E-05;  1.0000000E+04;  0.0000000E+00;  9.9979434E+03;-0.30580184;0.0;0.055121258;986.78986
  4.1994190E-01;  9.9999998E-03;  2.6001143E-01;1708;-0.041400891;0.0;0.0078230165;1000.4548;  4.0000001E-01;376.77899;3;-22.102016;0.0;3.923285;0;-0.2522234;  1.0011309E+04;  0.0000000E+00;  3.6812595E-05;  1.0000000E+04;  0.0000000E+00;  9.9977900E+03;-0.30893105;0.0;0.056707643;1062.1757
  4.1994321E-01;  9.9999998E-03;  2.8001440E-01;1709;-0.040493421;0.0;0.0091243694;1000.4521;  4.0000001E-01;374.6062;3;-23.663097;0.0;4.6201925;0;-0.2531386;  1.0011427E+04;  0.0000000E+00;  6.0160128E-05;  1.0000000E+04;  0.0000000E+00;  9.9976240E+03;-0.31083646;0.0;0.05769787;1144.2804
  4.1994560E-01;  9.9999998E-03;  3.0001757E-01;1710;-0.03891148;0.0;0.010511577;1000.4449;  4.0000001E-01;368.5817;3;-25.4132;0.0;5.732091;0;-0.25218278;  1.0011494E+04;  0.0000000E+00;  4.8666698E-05;  1.0000000E+04;  0.0000000E+00;  9.9974072E+03;-0.31183121;0.0;0.059648428;1248.8475
  4.3993512E-01;  9.9999998E-03;  1.6000366E-01;1734;-0.045354083;0.0;0.0032214667;1000.5198;  4.0000001E-01;430.70316;3;-21.659273;0.0;2.3554199;0;-0.27610356;  1.0011601E+04;  0.0000000E+00; -1.8215191E-07;  1.0000000E+04;  0.0000000E+00;  9.9988018E+03;-0.3163234;0.0;0.040219836;583.43616
  4.3993333E-01;  9.9999998E-03;  1.8000482E-01;1735;-0.046465874;0.0;0.0041505359;1000.5256;  4.0000001E-01;435.44376;3;-21.922226;0.0;2.8153675;0;-0.27903253;  1.0012003E+04;  0.0000000E+00;  1.4029974E-08;  1.0000000E+04;  0.0000000E+00;  9.9985186E+03;-0.32559603;0.0;0.046563521;718.07635
  4.3993172E-01;  9.9999998E-03;  2.0000632E-01;1736;-0.047429278;0.0;0.0052244426;1000.5299;  4.0000001E-01;438.99921;3;-22.189255;0.0;3.2344182;0;-0.28142512;  1.0012406E+04;  0.0000000E+00;  2.2868306E-07;  1.0000000E+04;  0.0000000E+00;  9.9982012E+03;-0.33418152;0.0;0.052756414;868.77698
  4.3993050E-01;  9.9999998E-03;  2.2000821E-01;1737;-0.048106845;0.0;0.0064152223;1000.5334;  4.0000001E-01;441.86331;3;-22.588535;0.0;3.6196532;0;-0.28336442;  1.0012780E+04;  0.0000000E+00;  3.8886719E-06;  1.0000000E+04;  0.0000000E+00;  9.9978887E+03;-0.34155822;0.0;0.058193803;1016.9697
  4.3992990E-01;  9.9999998E-03;  2.4001054E-01;1738;-0.048352934;0.0;0.0077015194;1000.5363;  4.0000001E-01;444.33237;3;-23.346739;0.0;3.9836369;0;-0.28510475;  1.0013104E+04;  0.0000000E+00;  1.8361647E-05;  1.0000000E+04;  0.0000000E+00;  9.9976279E+03;-0.34740856;0.0;0.062303826;1141.8696
  4.3993023E-01;  9.9999998E-03;  2.6001346E-01;1739;-0.048046038;0.0;0.0090434393;1000.5394;  4.0000001E-01;446.90021;3;-24.637562;0.0;4.4120359;0;-0.28726178;  1.0013359E+04;  0.0000000E+00;  4.8454549E-05;  1.0000000E+04;  0.0000000E+00;  9.9974316E+03;-0.3516742;0.0;0.064412422;1237.3376
  4.3993166E-01;  9.9999998E-03;  2.8001708E-01;1740;-0.0470597;0.0;0.010522896;1000.537;  4.0000001E-01;444.92496;3;-26.518156;0.0;5.118134;0;-0.28883308;  1.0013548E+04;  0.0000000E+00;  7.7861383E-05;  1.0000000E+04;  0.0000000E+00;  9.9971953E+03;-0.35452837;0.0;0.065695271;1353.7175
  4.3993437E-01;  9.9999998E-03;  3.0002093E-01;1741;-0.04530092;0.0;0.012043342;1000.5288;  4.0000001E-01;438.11035;3;-28.65527;0.0;6.3034511;0;-0.28934735;  1.0013677E+04;  0.0000000E+00;  5.7010049E-05;  1.0000000E+04;  0.0000000E+00;  9.9969043E+03;-0.35629079;0.0;0.066943422;1496.2977
  4.5992327E-01;  9.9999998E-03;  1.6000468E-01;1765;-0.052201401;0.0;0.0038471001;1000.6024;  4.0000048E-01;499.04648;3;-24.083382;0.0;2.6417627;0;-0.30990034;  1.0013405E+04;  0.0000000E+00; -3.9015325E-07;  1.0000000E+04;  0.0000000E+00;  9.9986211E+03;-0.35490179;0.0;0.045001455;673.27606
  4.5992097E-01;  9.9999998E-03;  1.8000594E-01;1766;-0.053544357;0.0;0.0048680399;1000.6116;  4.0000051E-01;506.65118;3;-24.332033;0.0;3.172554;0;-0.31401423;  1.0013896E+04;  0.0000000E+00; -2.4361256E-08;  1.0000000E+04;  0.0000000E+00;  9.9983135E+03;-0.36573949;0.0;0.05172528;818.3432
  4.5991883E-01;  9.9999998E-03;  2.0000757E-01;1767;-0.054718047;0.0;0.0060521076;1000.619;  4.0000057E-01;512.77448;3;-24.580854;0.0;3.6515422;0;-0.31748;  1.0014401E+04;  0.0000000E+00;  7.0239332E-07;  1.0000000E+04;  0.0000000E+00;  9.9979609E+03;-0.37604812;0.0;0.058568127;987.19971
  4.5991713E-01;  9.9999998E-03;  2.2000965E-01;1768;-0.055557568;0.0;0.0073848055;1000.6257;  4.0000054E-01;518.40393;3;-24.982443;0.0;4.0991192;0;-0.32046524;  1.0014893E+04;  0.0000000E+00;  6.2278873E-06;  1.0000000E+04;  0.0000000E+00;  9.9976055E+03;-0.38523173;0.0;0.064766496;1157.0372
  4.5991620E-01;  9.9999998E-03;  2.4001230E-01;1769;-0.055894535;0.0;0.0088514788;1000.633;  4.0000045E-01;524.42841;3;-25.820726;0.0;4.5080829;0;-0.32329804;  1.0015334E+04;  0.0000000E+00;  2.5969095E-05;  1.0000000E+04;  0.0000000E+00;  9.9973047E+03;-0.39286822;0.0;0.069570191;1300.9097
  4.5991632E-01;  9.9999998E-03;  2.6001579E-01;1770;-0.055597775;0.0;0.010432187;1000.6397;  4.0000054E-01;529.95911;3;-27.324234;0.0;4.9730477;0;-0.32638282;  1.0015706E+04;  0.0000000E+00;  6.5484244E-05;  1.0000000E+04;  0.0000000E+00;  9.9970723E+03;-0.39880344;0.0;0.072420619;1414.0253
  4.5991781E-01;  9.9999998E-03;  2.8002030E-01;1771;-0.054536376;0.0;0.012171288;1000.6377;  4.0000054E-01;528.28015;3;-29.572577;0.0;5.6923184;0;-0.32836279;  1.0015996E+04;  0.0000000E+00;  1.0066552E-04;  1.0000000E+04;  0.0000000E+00;  9.9967402E+03;-0.40314537;0.0;0.074782588;1576.9983
  4.5992088E-01;  9.9999998E-03;  3.0002502E-01;1772;-0.052598815;0.0;0.013856461;1000.6279;  4.0000048E-01;520.18164;3;-32.170071;0.0;6.9348464;0;-0.33053035;  1.0016215E+04;  0.0000000E+00;  6.1020961E-05;  1.0000000E+04;  0.0000000E+00;  9.9963242E+03;-0.40618953;0.0;0.075659171;1783.7111
  4.7990951E-01;  9.9999998E-03;  1.6000625E-01;1796;-0.059892498;0.0;0.0047319224;1000.6912;  4.0000156E-01;572.62402;3;-26.6903;0.0;2.9441977;0;-0.34475508;  1.0015359E+04;  0.0000000E+00; -2.5663007E-07;  1.0000000E+04;  0.0000000E+00;  9.9983984E+03;-0.39488345;0.0;0.050128378;785.9259
  4.7990662E-01;  9.9999998E-03;  1.8000761E-01;1797;-0.061506305;0.0;0.005821174;1000.7045;  4.0000159E-01;583.68542;3;-26.915604;0.0;3.5414791;0;-0.35046461;  1.0015942E+04;  0.0000000E+00;  4.0686419E-07;  1.0000000E+04;  0.0000000E+00;  9.9980801E+03;-0.40735915;0.0;0.056894537;934.91272
  4.7990382E-01;  9.9999998E-03;  2.0000932E-01;1798;-0.062933102;0.0;0.0070796893;1000.7166;  4.0000144E-01;593.6604;3;-27.129234;0.0;4.0868669;0;-0.35539246;  1.0016563E+04;  0.0000000E+00;  2.2730546E-06;  1.0000000E+04;  0.0000000E+00;  9.9976992E+03;-0.41960979;0.0;0.064217329;1117.2577
  4.7990149E-01;  9.9999998E-03;  2.2001150E-01;1799;-0.063977487;0.0;0.0085164253;1000.7281;  4.0000147E-01;603.24036;3;-27.518509;0.0;4.6008234;0;-0.35986361;  1.0017188E+04;  0.0000000E+00;  1.1437009E-05;  1.0000000E+04;  0.0000000E+00;  9.9973066E+03;-0.43097007;0.0;0.071106471;1304.746
  4.7990006E-01;  9.9999998E-03;  2.4001440E-01;1800;-0.064443253;0.0;0.010143314;1000.7415;  4.0000144E-01;614.30176;3;-28.430347;0.0;5.0721178;0;-0.36441401;  1.0017780E+04;  0.0000000E+00;  3.9915743E-05;  1.0000000E+04;  0.0000000E+00;  9.9969814E+03;-0.44088951;0.0;0.076475509;1460.5009
  4.7989982E-01;  9.9999998E-03;  2.6001847E-01;1801;-0.064185038;0.0;0.01200697;1000.7552;  4.0000156E-01;625.65942;3;-30.161602;0.0;5.6053963;0;-0.36903614;  1.0018301E+04;  0.0000000E+00;  9.2868169E-05;  1.0000000E+04;  0.0000000E+00;  9.9967412E+03;-0.44907853;0.0;0.080042392;1578.7444
  4.7990125E-01;  9.9999998E-03;  2.8002408E-01;1802;-0.063067235;0.0;0.014128149;1000.7549;  4.0000144E-01;625.46191;3;-32.83424;0.0;6.3681059;0;-0.37100354;  1.0018733E+04;  0.0000000E+00;  1.3267729E-04;  1.0000000E+04;  0.0000000E+00;  9.9962988E+03;-0.45553499;0.0;0.084531464;1793.8671
  4.7990456E-01;  9.9999998E-03;  3.0002999E-01;1803;-0.060969941;0.0;0.016032411;1000.7415;  4.0000147E-01;614.30176;3;-35.982529;0.0;7.6608262;0;-0.3747392;  1.0019081E+04;  0.0000000E+00;  5.8505542E-05;  1.0000000E+04;  0.0000000E+00;  9.9956826E+03;-0.46048006;0.0;0.085740857;2099.2839
  4.9989355E-01;  9.9999998E-03;  1.6000870E-01;1827;-0.068499304;0.0;0.0060236468;1000.7811;  4.0000343E-01;647.09021;3;-29.480547;0.0;3.2699752;0;-0.37804684;  1.0017366E+04;  0.0000000E+00;  1.2667344E-06;  1.0000000E+04;  0.0000000E+00;  9.9980918E+03;-0.43403119;0.0;0.055984344;937.57544
  4.9988994E-01;  9.9999998E-03;  1.8001017E-01;1828;-0.070420943;0.0;0.0071578161;1000.7996;  4.0000346E-01;662.49713;3;-29.673878;0.0;3.9215205;0;-0.3857677;  1.0018040E+04;  0.0000000E+00;  2.5012328E-06;  1.0000000E+04;  0.0000000E+00;  9.9977871E+03;-0.44807494;0.0;0.062307253;1082.9991
  4.9988639E-01;  9.9999998E-03;  2.0001191E-01;1829;-0.072146334;0.0;0.0084400708;1000.8168;  4.0000355E-01;676.71887;3;-29.837957;0.0;4.528626;0;-0.39253914;  1.0018782E+04;  0.0000000E+00;  6.5946306E-06;  1.0000000E+04;  0.0000000E+00;  9.9973867E+03;-0.46234149;0.0;0.069802351;1272.9518
  4.9988329E-01;  9.9999998E-03;  2.2001408E-01;1830;-0.073449463;0.0;0.0099121798;1000.8348;  4.0000343E-01;691.63202;3;-30.199417;0.0;5.1211352;0;-0.39895222;  1.0019558E+04;  0.0000000E+00;  2.2670316E-05;  1.0000000E+04;  0.0000000E+00;  9.9969717E+03;-0.47611031;0.0;0.077158101;1472.0344
  4.9988112E-01;  9.9999998E-03;  2.4001710E-01;1831;-0.074103646;0.0;0.011636859;1000.8566;  4.0000352E-01;709.60675;3;-31.181454;0.0;5.6618285;0;-0.40600717;  1.0020318E+04;  0.0000000E+00;  6.6727443E-05;  1.0000000E+04;  0.0000000E+00;  9.9966514E+03;-0.48869142;0.0;0.082684256;1626.7744
  4.9988028E-01;  9.9999998E-03;  2.6002163E-01;1832;-0.073943816;0.0;0.013796618;1000.8815;  4.0000349E-01;730.24805;3;-33.159286;0.0;6.308116;0;-0.41322243;  1.0021012E+04;  0.0000000E+00;  1.4145853E-04;  1.0000000E+04;  0.0000000E+00;  9.9964580E+03;-0.49963629;0.0;0.086413868;1721.2271
  4.9988139E-01;  9.9999998E-03;  2.8002858E-01;1833;-0.072825767;0.0;0.016458221;1000.8854;  4.0000352E-01;733.60596;3;-36.320347;0.0;7.1749296;0;-0.41472575;  1.0021620E+04;  0.0000000E+00;  1.8476271E-04;  1.0000000E+04;  0.0000000E+00;  9.9959248E+03;-0.5087893;0.0;0.094063543;1976.0245
  4.9988469E-01;  9.9999998E-03;  3.0003610E-01;1834;-0.070642196;0.0;0.018672924;1000.8663;  4.0000346E-01;717.7052;3;-40.140621;0.0;8.5128555;0;-0.41937363;  1.0022129E+04;  0.0000000E+00;  5.0668241E-05;  1.0000000E+04;  0.0000000E+00;  9.9950313E+03;-0.51623136;0.0;0.096857712;2419.302
  5.1987523E-01;  9.9999998E-03;  1.6001239E-01;1858;-0.078067727;0.0;0.007902923;1000.8696;  4.0000978E-01;720.37085;3;-32.443993;0.0;3.6267896;0;-0.40545529;  1.0019259E+04;  0.0000000E+00;  5.8013052E-06;  1.0000000E+04;  0.0000000E+00;  9.9976533E+03;-0.46869001;0.0;0.063234709;1152.4305
  5.1987082E-01;  9.9999998E-03;  1.8001407E-01;1859;-0.080326892;0.0;0.0090778628;1000.8932;  4.0000960E-01;740.02448;3;-32.595657;0.0;4.3073182;0;-0.41546786;  1.0020018E+04;  0.0000000E+00;  7.8286812E-06;  1.0000000E+04;  0.0000000E+00;  9.9973691E+03;-0.48402393;0.0;0.068556085;1289.4979
  5.1986641E-01;  9.9999998E-03;  2.0001586E-01;1860;-0.082390673;0.0;0.010342967;1000.9157;  4.0000960E-01;758.69055;3;-32.701412;0.0;4.9642649;0;-0.42428732;  1.0020873E+04;  0.0000000E+00;  1.5807305E-05;  1.0000000E+04;  0.0000000E+00;  9.9969609E+03;-0.50012308;0.0;0.07583575;1483.4954
  5.1986235E-01;  9.9999998E-03;  2.2001794E-01;1861;-0.084017068;0.0;0.011760892;1000.9401;  4.0000966E-01;778.83801;3;-33.027824;0.0;5.6339054;0;-0.43290609;  1.0021792E+04;  0.0000000E+00;  4.5755300E-05;  1.0000000E+04;  0.0000000E+00;  9.9965371E+03;-0.51623529;0.0;0.083329216;1689.1212
  5.1985919E-01;  9.9999998E-03;  2.4002089E-01;1862;-0.084937356;0.0;0.013482074;1000.972;  4.0000966E-01;805.30627;3;-34.072079;0.0;6.2664261;0;-0.44318771;  1.0022720E+04;  0.0000000E+00;  1.2051036E-04;  1.0000000E+04;  0.0000000E+00;  9.9962520E+03;-0.53154719;0.0;0.08835949;1825.9119
  5.1985741E-01;  9.9999998E-03;  2.6002562E-01;1863;-0.084983118;0.0;0.015884578;1001.0139;  4.0000954E-01;839.97174;3;-36.329357;0.0;7.0700021;0;-0.45447636;  1.0023597E+04;  0.0000000E+00;  2.3498015E-04;  1.0000000E+04;  0.0000000E+00;  9.9962041E+03;-0.54545456;0.0;0.090978205;1849.4955
  5.1985770E-01;  9.9999998E-03;  2.8003407E-01;1864;-0.083989874;0.0;0.019251276;1001.0272;  4.0000960E-01;850.93433;3;-40.0541;0.0;8.1395016;0;-0.4552561;  1.0024397E+04;  0.0000000E+00;  2.8082391E-04;  1.0000000E+04;  0.0000000E+00;  9.9956660E+03;-0.55762148;0.0;0.10236537;2102.6611
  5.1986033E-01;  9.9999998E-03;  3.0004367E-01;1865;-0.08189977;0.0;0.021911472;1000.9998;  4.0000960E-01;828.31781;3;-44.714699;0.0;9.5347319;0;-0.45941967;  1.0025090E+04;  0.0000000E+00;  4.7569625E-05;  1.0000000E+04;  0.0000000E+00;  9.9944326E+03;-0.56791276;0.0;0.1084931;2711.4436
  5.3985447E-01;  9.9999998E-03;  1.6001774E-01;1889;-0.088568732;0.0;0.010559872;1000.9545;  4.0002590E-01;790.78674;3;-35.563107;0.0;4.0692401;0;-0.4208456;  1.0020783E+04;  0.0000000E+00;  1.3506141E-05;  1.0000000E+04;  0.0000000E+00;  9.9970107E+03;-0.49372241;0.0;0.072876811;1464.8079
  5.3984922E-01;  9.9999998E-03;  1.8001980E-01;1890;-0.091178536;0.0;0.011817999;1000.9818;  4.0002573E-01;813.4032;3;-35.666843;0.0;4.7636995;0;-0.43309376;  1.0021605E+04;  0.0000000E+00;  1.5661526E-05;  1.0000000E+04;  0.0000000E+00;  9.9967393E+03;-0.50978982;0.0;0.076696075;1596.9789
  5.3984392E-01;  9.9999998E-03;  2.0002180E-01;1891;-0.093608364;0.0;0.013057078;1001.008;  4.0002590E-01;835.1308;3;-35.707912;0.0;5.4406171;0;-0.44378713;  1.0022546E+04;  0.0000000E+00;  3.1596937E-05;  1.0000000E+04;  0.0000000E+00;  9.9963193E+03;-0.52716184;0.0;0.083374709;1798.4596
  5.3983879E-01;  9.9999998E-03;  2.2002380E-01;1892;-0.09561339;0.0;0.014354596;1001.0375;  4.0002593E-01;859.52502;3;-35.994259;0.0;6.1678367;0;-0.45445216;  1.0023579E+04;  0.0000000E+00;  9.1896312E-05;  1.0000000E+04;  0.0000000E+00;  9.9958828E+03;-0.54508853;0.0;0.090636358;2009.7648
  5.3983438E-01;  9.9999998E-03;  2.4002647E-01;1893;-0.096909687;0.0;0.015943743;1001.0804;  4.0002590E-01;895.07928;3;-37.099731;0.0;6.8922801;0;-0.46830362;  1.0024643E+04;  0.0000000E+00;  2.3100927E-04;  1.0000000E+04;  0.0000000E+00;  9.9956758E+03;-0.56268001;0.0;0.094376385;2110.3767
  5.3983116E-01;  9.9999998E-03;  2.6003113E-01;1894;-0.097302243;0.0;0.018468698;1001.1438;  4.0002584E-01;947.62067;3;-39.660797;0.0;7.9014702;0;-0.48512781;  1.0025684E+04;  0.0000000E+00;  4.2216913E-04;  1.0000000E+04;  0.0000000E+00;  9.9958984E+03;-0.57921159;0.0;0.094083779;2003.3492
  5.3982979E-01;  9.9999998E-03;  2.8004104E-01;1895;-0.096653894;0.0;0.022636298;1001.1741;  4.0002584E-01;972.70618;3;-44.041466;0.0;9.3003693;0;-0.4856551;  1.0026652E+04;  0.0000000E+00;  4.6666450E-04;  1.0000000E+04;  0.0000000E+00;  9.9955352E+03;-0.59417063;0.0;0.10851552;2168.3301
  5.3983074E-01;  9.9999998E-03;  3.0005312E-01;1896;-0.094990626;0.0;0.025902221;1001.1385;  4.0002584E-01;943.27515;3;-49.76495;0.0;10.772792;0;-0.48732227;  1.0027513E+04;  0.0000000E+00;  7.1977614E-05;  1.0000000E+04;  0.0000000E+00;  9.9939600E+03;-0.60715503;0.0;0.11983274;2939.9194
  5.5983162E-01;  9.9999998E-03;  1.6002509E-01;1920;-0.099801064;0.0;0.014200557;1001.0586;  4.0006959E-01;877.00378;3;-38.765862;0.0;4.5654664;0;-0.41649082;  1.0021612E+04;  0.0000000E+00;  1.9242701E-05;  1.0000000E+04;  0.0000000E+00;  9.9960645E+03;-0.50272512;0.0;0.086234309;1919.7937
  5.5982566E-01;  9.9999998E-03;  1.8002787E-01;1921;-0.10274509;0.0;0.015591375;1001.0859;  4.0006962E-01;899.71893;3;-38.827751;0.0;5.2207398;0;-0.43042609;  1.0022449E+04;  0.0000000E+00;  1.9759924E-05;  1.0000000E+04;  0.0000000E+00;  9.9957754E+03;-0.51862603;0.0;0.088199943;2063.4431
  5.5981934E-01;  9.9999998E-03;  2.0003036E-01;1922;-0.10555875;0.0;0.016853599;1001.1118;  4.0006956E-01;921.15021;3;-38.804516;0.0;5.900712;0;-0.442312;  1.0023428E+04;  0.0000000E+00;  5.4165597E-05;  1.0000000E+04;  0.0000000E+00;  9.9953174E+03;-0.53623772;0.0;0.0939257;2285.8164
  5.5981308E-01;  9.9999998E-03;  2.2003245E-01;1923;-0.10796306;0.0;0.018044326;1001.1427;  4.0006971E-01;946.72949;3;-39.031414;0.0;6.7195697;0;-0.45425367;  1.0024505E+04;  0.0000000E+00;  1.8152449E-04;  1.0000000E+04;  0.0000000E+00;  9.9948594E+03;-0.55484074;0.0;0.10058706;2507.9805
  5.5980724E-01;  9.9999998E-03;  2.4003483E-01;1924;-0.1097538;0.0;0.019341365;1001.1942;  4.0006962E-01;989.39459;3;-40.220608;0.0;7.4913163;0;-0.47138754;  1.0025634E+04;  0.0000000E+00;  4.5260400E-04;  1.0000000E+04;  0.0000000E+00;  9.9947617E+03;-0.57350302;0.0;0.10211548;2555.9915
  5.5980211E-01;  9.9999998E-03;  2.6003927E-01;1925;-0.11067918;0.0;0.021879619;1001.2816;  4.0006950E-01;1061.7869;3;-43.106289;0.0;8.8293018;0;-0.49447045;  1.0026754E+04;  0.0000000E+00;  7.8799814E-04;  1.0000000E+04;  0.0000000E+00;  9.9953848E+03;-0.59145451;0.0;0.096984059;2257.1665
  5.5979812E-01;  9.9999998E-03;  2.8005043E-01;1926;-0.11065987;0.0;0.026841072;1001.3373;  4.0006959E-01;1107.9086;3;-48.226242;0.0;10.710681;0;-0.495543;  1.0027824E+04;  0.0000000E+00;  8.1601093E-04;  1.0000000E+04;  0.0000000E+00;  9.9954268E+03;-0.60809177;0.0;0.11254877;2219.0859
  5.5979568E-01;  9.9999998E-03;  3.0006528E-01;1927;-0.10990047;0.0;0.030838832;1001.2958;  4.0006953E-01;1073.5396;3;-55.254887;0.0;12.284716;0;-0.49252415;  1.0028793E+04;  0.0000000E+00;  1.5678881E-04;  1.0000000E+04;  0.0000000E+00;  9.9936260E+03;-0.62280101;0.0;0.13027686;3095.8872
  5.7980764E-01;  9.9999998E-03;  1.6003449E-01;1951;-0.11131699;0.0;0.018949721;1001.266;  4.0018576E-01;1048.8456;3;-41.913658;0.0;5.1869178;0;-0.38292834;  1.0021303E+04;  0.0000000E+00;  1.0642070E-05;  1.0000000E+04;  0.0000000E+00;  9.9947090E+03;-0.48774347;0.0;0.10481513;2568.3875
  5.7980096E-01;  9.9999998E-03;  1.8003850E-01;1952;-0.11454812;0.0;0.020600388;1001.2875;  4.0018579E-01;1066.7214;3;-41.93568;0.0;5.6854725;0;-0.39758039;  1.0022104E+04;  0.0000000E+00;  7.9704687E-06;  1.0000000E+04;  0.0000000E+00;  9.9943418E+03;-0.50223511;0.0;0.10465474;2752.8608
  5.7979375E-01;  9.9999998E-03;  2.0004188E-01;1953;-0.11769642;0.0;0.021958144;1001.3063;  4.0018579E-01;1082.2269;3;-41.86496;0.0;6.3049698;0;-0.40949333;  1.0023029E+04;  0.0000000E+00;  8.3394734E-05;  1.0000000E+04;  0.0000000E+00;  9.9937969E+03;-0.51848954;0.0;0.10899621;3018.0027
  5.7978642E-01;  9.9999998E-03;  2.2004470E-01;1954;-0.120524;0.0;0.023063594;1001.332;  4.0018567E-01;1103.5594;3;-42.098713;0.0;7.0012832;0;-0.42130166;  1.0024041E+04;  0.0000000E+00;  3.4573959E-04;  1.0000000E+04;  0.0000000E+00;  9.9932949E+03;-0.53575975;0.0;0.11445809;3261.4712
  5.7977891E-01;  9.9999998E-03;  2.4004698E-01;1955;-0.12286495;0.0;0.02412474;1001.3871;  4.0018567E-01;1149.1871;3;-43.310837;0.0;8.1403008;0;-0.43999574;  1.0025099E+04;  0.0000000E+00;  8.6747017E-04;  1.0000000E+04;  0.0000000E+00;  9.9933389E+03;-0.55315709;0.0;0.11316136;3242.4912
  5.7977152E-01;  9.9999998E-03;  2.6005149E-01;1956;-0.12446463;0.0;0.026599826;1001.4953;  4.0018570E-01;1238.7637;3;-46.518925;0.0;9.9225378;0;-0.46807462;  1.0026161E+04;  0.0000000E+00;  1.4592079E-03;  1.0000000E+04;  0.0000000E+00;  9.9944336E+03;-0.57006878;0.0;0.10199415;2715.6514
  5.7976407E-01;  9.9999998E-03;  2.8006393E-01;1957;-0.12537056;0.0;0.032235313;1001.5787;  4.0018567E-01;1307.8966;3;-52.411339;0.0;12.423404;0;-0.46975875;  1.0027196E+04;  0.0000000E+00;  1.4338458E-03;  1.0000000E+04;  0.0000000E+00;  9.9950615E+03;-0.58602375;0.0;0.11626501;2387.0491
  5.7975662E-01;  9.9999998E-03;  3.0008134E-01;1958;-0.12601669;0.0;0.037012286;1001.5373;  4.0018556E-01;1273.6265;3;-60.943977;0.0;14.25785;0;-0.45987141;  1.0028146E+04;  0.0000000E+00;  3.3890724E-04;  1.0000000E+04;  0.0000000E+00;  9.9932822E+03;-0.6003986;0.0;0.14052717;3244.2073
  5.9978402E-01;  9.9999998E-03;  1.6004573E-01;1982;-0.12244187;0.0;0.024625791;1001.8089;  4.0048087E-01;1498.598;3;-44.783295;0.0;5.8885427;0;-0.30743229;  1.0019281E+04;  0.0000000E+00; -2.7655155E-05;  1.0000000E+04;  0.0000000E+00;  9.9928428E+03;-0.43741584;0.0;0.12998353;3454.54
  5.9977639E-01;  9.9999998E-03;  1.8005106E-01;1983;-0.12596077;0.0;0.026621034;1001.8163;  4.0048069E-01;1504.7212;3;-44.747585;0.0;6.3054562;0;-0.32166773;  1.0019958E+04;  0.0000000E+00; -3.2269945E-05;  1.0000000E+04;  0.0000000E+00;  9.9923252E+03;-0.44887561;0.0;0.12720786;3715.6091
  5.9976834E-01;  9.9999998E-03;  2.0005602E-01;1984;-0.12935811;0.0;0.028290138;1001.8204;  4.0048075E-01;1508.1779;3;-44.668877;0.0;6.6553607;0;-0.33215055;  1.0020712E+04;  0.0000000E+00;  1.2233903E-04;  1.0000000E+04;  0.0000000E+00;  9.9916523E+03;-0.46146137;0.0;0.12931082;4045.9917
  5.9976000E-01;  9.9999998E-03;  2.2006030E-01;1985;-0.13254848;0.0;0.029563477;1001.8328;  4.0048081E-01;1518.3502;3;-44.983429;0.0;7.2877998;0;-0.34180385;  1.0021512E+04;  0.0000000E+00;  6.2364922E-04;  1.0000000E+04;  0.0000000E+00;  9.9911035E+03;-0.47439873;0.0;0.1325949;4313.2285
  5.9975111E-01;  9.9999998E-03;  2.4006395E-01;1986;-0.13544181;0.0;0.030586051;1001.882;  4.0048069E-01;1559.2373;3;-46.322796;0.0;8.5305862;0;-0.35929441;  1.0022324E+04;  0.0000000E+00;  1.5677096E-03;  1.0000000E+04;  0.0000000E+00;  9.9912754E+03;-0.48710868;0.0;0.12781425;4233.6484
  5.9974122E-01;  9.9999998E-03;  2.6006979E-01;1987;-0.13769239;0.0;0.033273559;1001.9985;  4.0048054E-01;1655.6279;3;-49.68103;0.0;11.255766;0;-0.38767809;  1.0023142E+04;  0.0000000E+00;  2.5648286E-03;  1.0000000E+04;  0.0000000E+00;  9.9927793E+03;-0.4994399;0.0;0.11176182;3508.8726
  5.9973013E-01;  9.9999998E-03;  2.8008410E-01;1988;-0.13963953;0.0;0.039437141;1002.0951;  4.0048048E-01;1735.723;3;-56.295017;0.0;14.535452;0;-0.38646173;  1.0023948E+04;  0.0000000E+00;  2.4226543E-03;  1.0000000E+04;  0.0000000E+00;  9.9938955E+03;-0.51127714;0.0;0.12481539;2935.6045
  5.9971696E-01;  9.9999998E-03;  3.0010337E-01;1989;-0.14195423;0.0;0.044839874;1002.061;  4.0048024E-01;1707.4774;3;-66.420593;0.0;17.082613;0;-0.36854476;  1.0024704E+04;  0.0000000E+00;  6.4122170E-04;  1.0000000E+04;  0.0000000E+00;  9.9924639E+03;-0.52218312;0.0;0.15363838;3612.5479
  6.1976206E-01;  9.9999998E-03;  1.6005893E-01;2013;-0.13246922;0.0;0.031177692;1003.1542;  4.0115663E-01;2613.0991;3;-47.130314;0.0;6.6231403;0;-0.17358473;  1.0014859E+04;  0.0000000E+00; -1.0181880E-04;  1.0000000E+04;  0.0000000E+00;  9.9904238E+03;-0.33603457;0.0;0.16244984;4595.6812
  6.1975342E-01;  9.9999998E-03;  1.8006577E-01;2014;-0.13629116;0.0;0.033485748;1003.14;  4.0115643E-01;2601.3467;3;-47.076641;0.0;6.8342609;0;-0.18642107;  1.0015308E+04;  0.0000000E+00; -9.9287601E-05;  1.0000000E+04;  0.0000000E+00;  9.9896943E+03;-0.3424336;0.0;0.15601254;4965.2319
  6.1974436E-01;  9.9999998E-03;  2.0007241E-01;2015;-0.14003663;0.0;0.035532106;1003.1208;  4.0115643E-01;2585.4463;3;-47.020039;0.0;7.1508493;0;-0.19432363;  1.0015757E+04;  0.0000000E+00;  1.8607994E-04;  1.0000000E+04;  0.0000000E+00;  9.9888701E+03;-0.34853888;0.0;0.15421525;5374.7129
  6.1973494E-01;  9.9999998E-03;  2.2007924E-01;2016;-0.14348821;0.0;0.037384089;1003.1124;  4.0115643E-01;2578.533;3;-47.390549;0.0;7.6757112;0;-0.20027278;  1.0016180E+04;  0.0000000E+00;  1.0413602E-03;  1.0000000E+04;  0.0000000E+00;  9.9882900E+03;-0.35374469;0.0;0.1534719;5660.1484
  6.1972457E-01;  9.9999998E-03;  2.4008642E-01;2017;-0.14681421;0.0;0.039060835;1003.1452;  4.0115625E-01;2605.6921;3;-49.071651;0.0;8.9821568;0;-0.21274251;  1.0016564E+04;  0.0000000E+00;  2.5640384E-03;  1.0000000E+04;  0.0000000E+00;  9.9885596E+03;-0.35807994;0.0;0.14533743;5533.5981
  6.1971301E-01;  9.9999998E-03;  2.6009715E-01;2018;-0.14985776;0.0;0.042162865;1003.237;  4.0115607E-01;2681.7375;3;-52.837414;0.0;12.107553;0;-0.23485044;  1.0016947E+04;  0.0000000E+00;  4.0600509E-03;  1.0000000E+04;  0.0000000E+00;  9.9900068E+03;-0.36207724;0.0;0.1272268;4834.8184
  6.1969918E-01;  9.9999998E-03;  2.8011465E-01;2019;-0.15237229;0.0;0.049049586;1003.3087;  4.0115574E-01;2741.0925;3;-59.662514;0.0;17.196455;0;-0.22209515;  1.0017336E+04;  0.0000000E+00;  3.7018836E-03;  1.0000000E+04;  0.0000000E+00;  9.9910449E+03;-0.36609611;0.0;0.14400096;4290.5542
  6.1968160E-01;  9.9999998E-03;  3.0013424E-01;2020;-0.15595905;0.0;0.054857969;1003.2839;  4.0115541E-01;2720.5503;3;-71.109116;0.0;20.957636;0;-0.19151102;  1.0017712E+04;  0.0000000E+00;  1.0167732E-03;  1.0000000E+04;  0.0000000E+00;  9.9901924E+03;-0.36991158;0.0;0.17840056;4668.2222
  6.3974297E-01;  9.9999998E-03;  1.6007394E-01;2044;-0.14100032;0.0;0.038433895;1005.7333;  4.0239593E-01;4749.8384;3;-48.963173;0.0;7.1552811;0;0.033897579;  1.0007481E+04;  0.0000000E+00; -1.9043167E-04;  1.0000000E+04;  0.0000000E+00;  9.9875078E+03;-0.16780967;0.0;0.20170724;5962.7773
  6.3973355E-01;  9.9999998E-03;  1.8008289E-01;2045;-0.14504117;0.0;0.041157782;1005.6902;  4.0239584E-01;4714.0879;3;-48.875336;0.0;7.18505;0;0.022710845;  1.0007599E+04;  0.0000000E+00; -1.5973300E-04;  1.0000000E+04;  0.0000000E+00;  9.9865400E+03;-0.16709772;0.0;0.18980856;6457.1685
  6.3972324E-01;  9.9999998E-03;  2.0009190E-01;2046;-0.1491366;0.0;0.043663535;1005.6419;  4.0239564E-01;4674.0898;3;-48.759666;0.0;7.3954635;0;0.017480016;  1.0007626E+04;  0.0000000E+00;  2.9864410E-04;  1.0000000E+04;  0.0000000E+00;  9.9855654E+03;-0.16419895;0.0;0.18167897;6946.833
  6.3971257E-01;  9.9999998E-03;  2.2010304E-01;2047;-0.15300588;0.0;0.046344921;1005.6066;  4.0239561E-01;4644.8574;3;-49.289032;0.0;8.0877495;0;0.015164867;  1.0007537E+04;  0.0000000E+00;  1.5524109E-03;  1.0000000E+04;  0.0000000E+00;  9.9849619E+03;-0.15892832;0.0;0.17409319;7250.1509
  6.3970172E-01;  9.9999998E-03;  2.4011892E-01;2048;-0.15656173;0.0;0.049879242;1005.6007;  4.0239534E-01;4639.9194;3;-51.142899;0.0;9.8541231;0;0.01149638;  1.0007370E+04;  0.0000000E+00;  3.6385856E-03;  1.0000000E+04;  0.0000000E+00;  9.9850117E+03;-0.15207943;0.0;0.16357581;7231.0386
  6.3968992E-01;  9.9999998E-03;  2.6013950E-01;2049;-0.15977693;0.0;0.054616254;1005.6067;  4.0239510E-01;4644.8574;3;-55.262501;0.0;13.706785;0;0.0097675025;  1.0007180E+04;  0.0000000E+00;  5.5163200E-03;  1.0000000E+04;  0.0000000E+00;  9.9853213E+03;-0.14489225;0.0;0.15465975;7080.1841
  6.3967466E-01;  9.9999998E-03;  2.8015828E-01;2050;-0.16269153;0.0;0.061188795;1005.6174;  4.0239483E-01;4653.7456;3;-62.356071;0.0;20.790297;0;0.036221206;  1.0007008E+04;  0.0000000E+00;  4.7807042E-03;  1.0000000E+04;  0.0000000E+00;  9.9857109E+03;-0.13814272;0.0;0.17436393;6845.8057
  6.3965493E-01;  9.9999998E-03;  3.0017611E-01;2051;-0.16630295;0.0;0.067479454;1005.5973;  4.0239418E-01;4637.0552;3;-74.194534;0.0;26.569296;0;0.091153651;  1.0006854E+04;  0.0000000E+00;  1.2583879E-03;  1.0000000E+04;  0.0000000E+00;  9.9854951E+03;-0.13177383;0.0;0.22292748;6878.71
  6.5972894E-01;  9.9999998E-03;  1.6009206E-01;2075;-0.14716642;0.0;0.047008418;1008.9442;  4.0395585E-01;7409.8433;3;-50.357903;0.0;7.4415746;0;0.31954271;  9.9970977E+03;  0.0000000E+00; -2.4270143E-04;  1.0000000E+04;  0.0000000E+00;  9.9842754E+03;0.07390599;0.0;0.2456367;7469.9731
  6.5971923E-01;  9.9999998E-03;  1.8010406E-01;2076;-0.15128238;0.0;0.050384272;1008.8698;  4.0395570E-01;7348.1191;3;-50.295609;0.0;7.1266499;0;0.30894226;  9.9968203E+03;  0.0000000E+00; -1.6116818E-04;  1.0000000E+04;  0.0000000E+00;  9.9830898E+03;0.083058938;0.0;0.22588331;8081.5361
  6.5970862E-01;  9.9999998E-03;  2.0011809E-01;2077;-0.15544999;0.0;0.054019365;1008.7908;  4.0395588E-01;7282.7412;3;-50.20076;0.0;7.2447906;0;0.30515373;  9.9963623E+03;  0.0000000E+00;  4.5464028E-04;  1.0000000E+04;  0.0000000E+00;  9.9819814E+03;0.096171826;0.0;0.2089819;8644.5654
  6.5969801E-01;  9.9999998E-03;  2.2013821E-01;2078;-0.1592641;0.0;0.058848102;1008.7207;  4.0395573E-01;7224.6714;3;-50.686417;0.0;7.9786143;0;0.30745655;  9.9957285E+03;  0.0000000E+00;  1.9838819E-03;  1.0000000E+04;  0.0000000E+00;  9.9812256E+03;0.11289892;0.0;0.19455762;9030.0293
  6.5968800E-01;  9.9999998E-03;  2.4016720E-01;2079;-0.16252823;0.0;0.065224856;1008.6443;  4.0395573E-01;7161.3682;3;-52.610096;0.0;10.306339;0;0.32016978;  9.9949727E+03;  0.0000000E+00;  4.3398524E-03;  1.0000000E+04;  0.0000000E+00;  9.9804580E+03;0.13180126;0.0;0.18836851;9406.46
  6.5967679E-01;  9.9999998E-03;  2.6019666E-01;2080;-0.16610378;0.0;0.069892168;1008.5222;  4.0395570E-01;7060.1406;3;-56.873692;0.0;15.303026;0;0.33989933;  9.9941748E+03;  0.0000000E+00;  6.1948369E-03;  1.0000000E+04;  0.0000000E+00;  9.9788291E+03;0.15116976;0.0;0.18872957;10203.585
  6.5966010E-01;  9.9999998E-03;  2.8021026E-01;2081;-0.16930549;0.0;0.073915191;1008.4885;  4.0395561E-01;7032.1924;3;-63.839664;0.0;25.469227;0;0.36225078;  9.9933916E+03;  0.0000000E+00;  4.8829038E-03;  1.0000000E+04;  0.0000000E+00;  9.9789453E+03;0.16991995;0.0;0.19233082;10115.529
  6.5964049E-01;  9.9999998E-03;  3.0022487E-01;2082;-0.17229159;0.0;0.082203723;1008.4702;  4.0395498E-01;7017.082;3;-75.753304;0.0;33.88879;0;0.46933046;  9.9926514E+03;  0.0000000E+00;  9.8342972E-04;  1.0000000E+04;  0.0000000E+00;  9.9793525E+03;0.18777716;0.0;0.2815533;9776.2402
  6.7972356E-01;  9.9999998E-03;  1.6011529E-01;2106;-0.14958982;0.0;0.058910768;1011.2586;  4.0520242E-01;9327.0;3;-50.659477;0.0;8.6246729;0;0.66667712;  9.9845479E+03;  0.0000000E+00; -2.1937955E-04;  1.0000000E+04;  0.0000000E+00;  9.9810078E+03;0.37615973;0.0;0.29051736;8983.8643
  6.7971396E-01;  9.9999998E-03;  1.8013136E-01;2107;-0.15355699;0.0;0.063448541;1011.1571;  4.0520254E-01;9242.958;3;-50.582237;0.0;7.8838553;0;0.65422726;  9.9838701E+03;  0.0000000E+00; -8.8036126E-05;  1.0000000E+04;  0.0000000E+00;  9.9796719E+03;0.39372295;0.0;0.26050434;9679.3623
  6.7970365E-01;  9.9999998E-03;  2.0015155E-01;2108;-0.15750167;0.0;0.068798482;1011.0518;  4.0520284E-01;9155.6572;3;-50.607334;0.0;7.7179575;0;0.64950609;  9.9829629E+03;  0.0000000E+00;  5.7738047E-04;  1.0000000E+04;  0.0000000E+00;  9.9784941E+03;0.41618744;0.0;0.23331867;10291.572
  6.7969424E-01;  9.9999998E-03;  2.2018178E-01;2109;-0.16078635;0.0;0.076225944;1010.9473;  4.0520298E-01;9069.0469;3;-51.168743;0.0;8.4584312;0;0.65677029;  9.9818555E+03;  0.0000000E+00;  2.0767371E-03;  1.0000000E+04;  0.0000000E+00;  9.9775234E+03;0.44278926;0.0;0.21398102;10785.205
  6.7968655E-01;  9.9999998E-03;  2.4022144E-01;2110;-0.16356692;0.0;0.083897531;1010.8011;  4.0520334E-01;8947.9717;3;-53.194023;0.0;11.563316;0;0.68651962;  9.9806074E+03;  0.0000000E+00;  4.1888650E-03;  1.0000000E+04;  0.0000000E+00;  9.9758672E+03;0.47188178;0.0;0.21463785;11593.175
  6.7967677E-01;  9.9999998E-03;  2.6025215E-01;2111;-0.16774639;0.0;0.084572881;1010.5919;  4.0520385E-01;8774.6523;3;-57.742268;0.0;17.05583;0;0.70875233;  9.9792959E+03;  0.0000000E+00;  5.5077756E-03;  1.0000000E+04;  0.0000000E+00;  9.9730098E+03;0.50169867;0.0;0.20705368;13006.568
  6.7966002E-01;  9.9999998E-03;  2.8025839E-01;2112;-0.17111064;0.0;0.085191481;1010.5527;  4.0520418E-01;8742.1621;3;-64.096466;0.0;28.733412;0;0.71639508;  9.9779854E+03;  0.0000000E+00;  3.6360137E-03;  1.0000000E+04;  0.0000000E+00;  9.9735273E+03;0.53088659;0.0;0.18550849;12745.572
  6.7964637E-01;  9.9999998E-03;  3.0026948E-01;2113;-0.17206429;0.0;0.096369267;1010.5532;  4.0520364E-01;8742.6553;3;-75.184624;0.0;42.119766;0;0.88173413;  9.9767607E+03;  0.0000000E+00;  2.4156165E-04;  1.0000000E+04;  0.0000000E+00;  9.9747793E+03;0.55824655;0.0;0.32348761;11910.182
  6.9973445E-01;  9.9999998E-03;  1.6014239E-01;2137;-0.14591408;0.0;0.075418577;1012.1632;  4.0588531E-01;10076.164;3;-49.173702;0.0;12.557232;0;1.0318207;  9.9717080E+03;  0.0000000E+00; -1.3377758E-04;  1.0000000E+04;  0.0000000E+00;  9.9780322E+03;0.70020664;0.0;0.33161405;10355.104
  6.9972551E-01;  9.9999998E-03;  1.8016297E-01;2138;-0.14938629;0.0;0.081571691;1012.0419;  4.0588588E-01;9975.7314;3;-48.944744;0.0;11.582284;0;1.0145264;  9.9706729E+03;  0.0000000E+00;  7.7627865E-06;  1.0000000E+04;  0.0000000E+00;  9.9766592E+03;0.72472221;0.0;0.28980416;11085.37
  6.9971633E-01;  9.9999998E-03;  2.0018885E-01;2139;-0.15267222;0.0;0.088589221;1011.9196;  4.0588623E-01;9874.4082;3;-48.821117;0.0;11.110385;0;1.0060307;  9.9694336E+03;  0.0000000E+00;  5.6401116E-04;  1.0000000E+04;  0.0000000E+00;  9.9754736E+03;0.75362426;0.0;0.25240642;11710.862
  6.9970936E-01;  9.9999998E-03;  2.2022533E-01;2140;-0.15483806;0.0;0.096655995;1011.7933;  4.0588671E-01;9769.7285;3;-49.66135;0.0;11.772912;0;1.0153526;  9.9680195E+03;  0.0000000E+00;  1.7154292E-03;  1.0000000E+04;  0.0000000E+00;  9.9743730E+03;0.78585118;0.0;0.22950147;12271.148
  6.9970572E-01;  9.9999998E-03;  2.4026798E-01;2141;-0.15662791;0.0;0.10148039;1011.6121;  4.0588734E-01;9619.6211;3;-52.724422;0.0;13.952065;0;1.0504045;  9.9664951E+03;  0.0000000E+00;  3.2065683E-03;  1.0000000E+04;  0.0000000E+00;  9.9722910E+03;0.82003605;0.0;0.23036852;13287.909
  6.9969893E-01;  9.9999998E-03;  2.6029637E-01;2142;-0.16075227;0.0;0.097762309;1011.3704;  4.0588799E-01;9419.4443;3;-57.729427;0.0;18.454071;0;1.0693486;  9.9649160E+03;  0.0000000E+00;  3.8793390E-03;  1.0000000E+04;  0.0000000E+00;  9.9690615E+03;0.8547585;0.0;0.21459001;14895.793
  6.9969034E-01;  9.9999998E-03;  2.8029487E-01;2143;-0.16059349;0.0;0.095600098;1011.3793;  4.0588844E-01;9426.8516;3;-61.989685;0.0;31.294659;0;1.0652144;  9.9633496E+03;  0.0000000E+00;  2.3308301E-03;  1.0000000E+04;  0.0000000E+00;  9.9707734E+03;0.88833183;0.0;0.17688251;14053.856
  6.9969952E-01;  9.9999998E-03;  3.0030397E-01;2144;-0.1496841;0.0;0.10707616;1011.4112;  4.0588814E-01;9453.2188;3;-65.331253;0.0;46.003475;0;1.2471759;  9.9619346E+03;  0.0000000E+00;  7.3359843E-04;  1.0000000E+04;  0.0000000E+00;  9.9728086E+03;0.91819805;0.0;0.32897785;12807.251
  7.1978742E-01;  9.9999998E-03;  1.6016571E-01;2168;-0.12487061;0.0;0.092759684;1012.2501;  4.0618461E-01;10147.88;3;-46.987274;0.0;20.903196;0;1.3503487;  9.9610967E+03;  0.0000000E+00; -4.2397234E-05;  1.0000000E+04;  0.0000000E+00;  9.9756289E+03;0.98592049;0.0;0.36442819;11462.359
  7.1977866E-01;  9.9999998E-03;  1.8018974E-01;2169;-0.12851669;0.0;0.10048782;1012.1187;  4.0618521E-01;10039.056;3;-46.476425;0.0;19.741676;0;1.3259636;  9.9597988E+03;  0.0000000E+00;  6.1222985E-05;  1.0000000E+04;  0.0000000E+00;  9.9743086E+03;1.0150967;0.0;0.31086692;12178.727
  7.1977007E-01;  9.9999998E-03;  2.0021902E-01;2170;-0.13154314;0.0;0.10854297;1011.9913;  4.0618578E-01;9933.5879;3;-45.76976;0.0;18.581129;0;1.310636;  9.9583652E+03;  0.0000000E+00;  4.0970166E-04;  1.0000000E+04;  0.0000000E+00;  9.9732129E+03;1.0463996;0.0;0.26423642;12769.389
  7.1976388E-01;  9.9999998E-03;  2.2025758E-01;2171;-0.13273674;0.0;0.11464575;1011.8631;  4.0618622E-01;9827.3301;3;-45.380768;0.0;16.01222;0;1.3160465;  9.9568584E+03;  0.0000000E+00;  1.1070134E-03;  1.0000000E+04;  0.0000000E+00;  9.9721670E+03;1.0783266;0.0;0.23771995;13305.869
  7.1976280E-01;  9.9999998E-03;  2.4029852E-01;2172;-0.1307731;0.0;0.1145558;1011.6872;  4.0618676E-01;9681.5723;3;-45.595657;0.0;15.943804;0;1.343429;  9.9553379E+03;  0.0000000E+00;  2.0169285E-03;  1.0000000E+04;  0.0000000E+00;  9.9701943E+03;1.1097975;0.0;0.23363151;14272.475
  7.1976614E-01;  9.9999998E-03;  2.6032180E-01;2173;-0.12575251;0.0;0.10661288;1011.4868;  4.0618771E-01;9515.5693;3;-45.201912;0.0;20.354277;0;1.3411289;  9.9538291E+03;  0.0000000E+00;  2.6727421E-03;  1.0000000E+04;  0.0000000E+00;  9.9677080E+03;1.1400251;0.0;0.20110376;15530.829
  7.1977490E-01;  9.9999998E-03;  2.8031749E-01;2174;-0.11624977;0.0;0.10446998;1011.5655;  4.0618810E-01;9580.7461;3;-44.389061;0.0;34.952599;0;1.3328937;  9.9524014E+03;  0.0000000E+00;  2.5390186E-03;  1.0000000E+04;  0.0000000E+00;  9.9706523E+03;1.1675992;0.0;0.16529456;14071.935
  7.1978992E-01;  9.9999998E-03;  3.0032846E-01;2175;-0.10306502;0.0;0.11674274;1011.602;  4.0618768E-01;9611.0635;3;-43.590839;0.0;49.673512;0;1.5322397;  9.9511621E+03;  0.0000000E+00;  1.3578837E-03;  1.0000000E+04;  0.0000000E+00;  9.9726094E+03;1.1902345;0.0;0.34200507;12834.354
  7.3986477E-01;  9.9999998E-03;  1.6017658E-01;2199;-0.080863833;0.0;0.098451644;1012.137;  4.0630269E-01;10053.793;3;-31.321131;0.0;21.785677;0;1.5606716;  9.9547705E+03;  0.0000000E+00;  1.1549364E-05;  1.0000000E+04;  0.0000000E+00;  9.9739268E+03;1.1743215;0.0;0.38635007;12246.926
  7.3985881E-01;  9.9999998E-03;  1.8020126E-01;2200;-0.083231322;0.0;0.10599693;1012.0043;  4.0630314E-01;9943.9854;3;-30.83419;0.0;20.216969;0;1.5278901;  9.9533291E+03;  0.0000000E+00;  6.1435494E-05;  1.0000000E+04;  0.0000000E+00;  9.9727256E+03;1.2054269;0.0;0.32246315;12916.971
  7.3985320E-01;  9.9999998E-03;  2.0023049E-01;2201;-0.085001573;0.0;0.11333743;1011.8847;  4.0630382E-01;9844.8418;3;-30.096273;0.0;18.403736;0;1.5007126;  9.9518535E+03;  0.0000000E+00;  2.1774498E-04;  1.0000000E+04;  0.0000000E+00;  9.9718223E+03;1.235249;0.0;0.26546362;13425.069
  7.3984951E-01;  9.9999998E-03;  2.2026831E-01;2202;-0.085125059;0.0;0.11829381;1011.7773;  4.0630436E-01;9755.8691;3;-29.125326;0.0;15.233569;0;1.4898248;  9.9504326E+03;  0.0000000E+00;  5.4968888E-04;  1.0000000E+04;  0.0000000E+00;  9.9711094E+03;1.2617397;0.0;0.22808507;13810.37
  7.3984963E-01;  9.9999998E-03;  2.4030770E-01;2203;-0.082701281;0.0;0.11693344;1011.6465;  4.0630496E-01;9647.542;3;-28.160454;0.0;14.845291;0;1.493234;  9.9491309E+03;  0.0000000E+00;  1.0516320E-03;  1.0000000E+04;  0.0000000E+00;  9.9698047E+03;1.2839164;0.0;0.20931764;14463.951
  7.3985356E-01;  9.9999998E-03;  2.6033074E-01;2204;-0.077882148;0.0;0.10954619;1011.5162;  4.0630573E-01;9539.6094;3;-27.124908;0.0;21.3361;0;1.4644506;  9.9479619E+03;  0.0000000E+00;  1.5497030E-03;  1.0000000E+04;  0.0000000E+00;  9.9683682E+03;1.3018076;0.0;0.16264294;15217.716
  7.3986059E-01;  9.9999998E-03;  2.8032961E-01;2205;-0.071025692;0.0;0.11005712;1011.6398;  4.0630585E-01;9642.0117;3;-26.186075;0.0;37.819359;0;1.4592321;  9.9469502E+03;  0.0000000E+00;  1.5395266E-03;  1.0000000E+04;  0.0000000E+00;  9.9718047E+03;1.3156353;0.0;0.14359671;13493.208
  7.3987138E-01;  9.9999998E-03;  3.0034474E-01;2206;-0.062000234;0.0;0.12510355;1011.6634;  4.0630543E-01;9661.5625;3;-25.470118;0.0;54.481544;0;1.6922996;  9.9461035E+03;  0.0000000E+00;  2.8486431E-04;  1.0000000E+04;  0.0000000E+00;  9.9731162E+03;1.3256402;0.0;0.3666594;12510.522
  7.5992596E-01;  9.9999998E-03;  1.6018303E-01;2230;-0.045575984;0.0;0.1012711;1012.1104;  4.0634710E-01;10031.271;3;-18.405064;0.0;21.463554;0;1.6429925;  9.9530918E+03;  0.0000000E+00;  2.2822676E-05;  1.0000000E+04;  0.0000000E+00;  9.9729121E+03;1.2451103;0.0;0.39788219;12719.849
  7.5992280E-01;  9.9999998E-03;  1.8020755E-01;2231;-0.046602946;0.0;0.10819315;1011.9825;  4.0634763E-01;9925.3193;3;-17.826988;0.0;19.355825;0;1.6025499;  9.9516270E+03;  0.0000000E+00;  3.5815916E-05;  1.0000000E+04;  0.0000000E+00;  9.9718252E+03;1.2754049;0.0;0.32714501;13340.895
  7.5992000E-01;  9.9999998E-03;  2.0023596E-01;2232;-0.047124736;0.0;0.11453508;1011.8743;  4.0634835E-01;9835.7588;3;-17.064285;0.0;17.013624;0;1.5647762;  9.9502256E+03;  0.0000000E+00;  7.6235359E-05;  1.0000000E+04;  0.0000000E+00;  9.9710723E+03;1.301077;0.0;0.26369917;13783.193
  7.5991863E-01;  9.9999998E-03;  2.2027242E-01;2233;-0.04656364;0.0;0.11850204;1011.7897;  4.0634894E-01;9765.6514;3;-16.194677;0.0;13.803418;0;1.5386101;  9.9490000E+03;  0.0000000E+00;  1.7114329E-04;  1.0000000E+04;  0.0000000E+00;  9.9706133E+03;1.3197849;0.0;0.21882524;14051.292
  7.5991946E-01;  9.9999998E-03;  2.4031034E-01;2234;-0.044570319;0.0;0.11679161;1011.7014;  4.0634939E-01;9692.4814;3;-15.306993;0.0;14.194517;0;1.5200806;  9.9480020E+03;  0.0000000E+00;  3.2830655E-04;  1.0000000E+04;  0.0000000E+00;  9.9698438E+03;1.3308101;0.0;0.18927053;14453.825
  7.5992244E-01;  9.9999998E-03;  2.6033422E-01;2235;-0.041335735;0.0;0.11056737;1011.6276;  4.0635005E-01;9631.458;3;-14.495095;0.0;21.230799;0;1.4714695;  9.9472480E+03;  0.0000000E+00;  4.7064605E-04;  1.0000000E+04;  0.0000000E+00;  9.9691221E+03;1.3351279;0.0;0.13634157;14860.923
  7.5992680E-01;  9.9999998E-03;  2.8033665E-01;2236;-0.037356343;0.0;0.11390027;1011.7816;  4.0635008E-01;9758.9365;3;-13.833941;0.0;40.551643;0;1.4672601;  9.9466895E+03;  0.0000000E+00;  2.9141823E-04;  1.0000000E+04;  0.0000000E+00;  9.9727002E+03;1.3346885;0.0;0.13257159;13047.375
  7.5993353E-01;  9.9999998E-03;  3.0035570E-01;2237;-0.031978231;0.0;0.13151559;1011.7887;  4.0634957E-01;9764.8613;3;-13.36383;0.0;58.194618;0;1.7307168;  9.9462695E+03;  0.0000000E+00; -6.8502995E-04;  1.0000000E+04;  0.0000000E+00;  9.9732734E+03;1.3320153;0.0;0.39870152;12371.496
  7.7997196E-01;  9.9999998E-03;  1.6018601E-01;2261;-0.018902926;0.0;0.10224148;1012.2145;  4.0636331E-01;10116.795;3;-8.6968517;0.0;20.873148;0;1.6254737;  9.9548066E+03;  0.0000000E+00;  1.3015874E-05;  1.0000000E+04;  0.0000000E+00;  9.9724570E+03;1.2238309;0.0;0.40164286;12933.656
  7.7997094E-01;  9.9999998E-03;  1.8021011E-01;2262;-0.018994803;0.0;0.10860402;1012.0936;  4.0636387E-01;10016.773;3;-8.2200785;0.0;18.400219;0;1.5795914;  9.9534063E+03;  0.0000000E+00;  1.2231415E-05;  1.0000000E+04;  0.0000000E+00;  9.9714502E+03;1.2517368;0.0;0.32785463;13519.672
  7.7997035E-01;  9.9999998E-03;  2.0023775E-01;2263;-0.018761823;0.0;0.11430556;1011.9962;  4.0636447E-01;9936.0068;3;-7.6574364;0.0;15.80051;0;1.5348901;  9.9521436E+03;  0.0000000E+00;  1.1719034E-05;  1.0000000E+04;  0.0000000E+00;  9.9707686E+03;1.2726197;0.0;0.2622703;13928.163
  7.7997047E-01;  9.9999998E-03;  2.2027339E-01;2264;-0.017975494;0.0;0.11798029;1011.9283;  4.0636501E-01;9879.8252;3;-7.070437;0.0;12.908964;0;1.4993141;  9.9511260E+03;  0.0000000E+00;  1.4291216E-05;  1.0000000E+04;  0.0000000E+00;  9.9704258E+03;1.2841679;0.0;0.21514615;14142.074
  7.7997160E-01;  9.9999998E-03;  2.4031073E-01;2265;-0.016639585;0.0;0.11641769;1011.867;  4.0636548E-01;9829.0752;3;-6.5358644;0.0;13.974228;0;1.4679536;  9.9504170E+03;  0.0000000E+00;  1.6391034E-05;  1.0000000E+04;  0.0000000E+00;  9.9699072E+03;1.2860506;0.0;0.18190297;14423.789
  7.7997345E-01;  9.9999998E-03;  2.6033568E-01;2266;-0.015014863;0.0;0.11117593;1011.8259;  4.0636611E-01;9795.0107;3;-6.1237454;0.0;21.352461;0;1.4079638;  9.9499990E+03;  0.0000000E+00; -1.5371443E-05;  1.0000000E+04;  0.0000000E+00;  9.9694902E+03;1.2799621;0.0;0.12800163;14682.087
  7.7997535E-01;  9.9999998E-03;  2.8034079E-01;2267;-0.013432104;0.0;0.11652766;1011.9921;  4.0636614E-01;9932.6494;3;-5.8633175;0.0;42.451065;0;1.4069233;  9.9498057E+03;  0.0000000E+00; -1.8392983E-04;  1.0000000E+04;  0.0000000E+00;  9.9729502E+03;1.2688903;0.0;0.13803308;12911.465
  7.7997839E-01;  9.9999998E-03;  3.0036256E-01;2268;-0.011217913;0.0;0.13594711;1011.9886;  4.0636551E-01;9929.7861;3;-5.7325563;0.0;60.667122;0;1.6890857;  9.9497324E+03;  0.0000000E+00; -6.2775169E-04;  1.0000000E+04;  0.0000000E+00;  9.9729658E+03;1.2565022;0.0;0.43258363;12474.04
  8.0000919E-01;  9.9999998E-03;  1.6018622E-01;2292;0.0030092385;0.0;0.10187941;1012.395;  4.0636796E-01;10265.448;3;-0.5540241;0.0;20.270134;0;1.5536097;  9.9581631E+03;  0.0000000E+00;  1.9798424E-06;  1.0000000E+04;  0.0000000E+00;  9.9724219E+03;1.1530899;0.0;0.40051988;12947.484
  8.0000997E-01;  9.9999998E-03;  1.8020989E-01;2293;0.0036010265;0.0;0.10789163;1012.2806;  4.0636852E-01;10170.669;3;-0.25054142;0.0;17.649515;0;1.505455;  9.9568613E+03;  0.0000000E+00;  8.0628320E-07;  1.0000000E+04;  0.0000000E+00;  9.9714434E+03;1.1785817;0.0;0.32687336;13517.461
  8.0001092E-01;  9.9999998E-03;  2.0023702E-01;2294;0.0043049473;0.0;0.113358;1012.1903;  4.0636912E-01;10095.933;3;0.041363657;0.0;15.181137;0;1.4583104;  9.9557305E+03;  0.0000000E+00; -1.1548348E-06;  1.0000000E+04;  0.0000000E+00;  9.9707686E+03;1.1958843;0.0;0.26242608;13922.063
  8.0001211E-01;  9.9999998E-03;  2.2027265E-01;2295;0.0050674072;0.0;0.11749195;1012.1307;  4.0636975E-01;10046.568;3;0.28632751;0.0;12.722599;0;1.4200524;  9.9548857E+03;  0.0000000E+00; -5.3633953E-06;  1.0000000E+04;  0.0000000E+00;  9.9704160E+03;1.2028596;0.0;0.21719274;14137.287
  8.0001324E-01;  9.9999998E-03;  2.4031034E-01;2296;0.0056627537;0.0;0.11636101;1012.0792;  4.0637007E-01;10003.819;3;0.4396044;0.0;13.869153;0;1.3856773;  9.9543740E+03;  0.0000000E+00; -1.7742002E-05;  1.0000000E+04;  0.0000000E+00;  9.9698975E+03;1.1995077;0.0;0.18616965;14417.478
  8.0001384E-01;  9.9999998E-03;  2.6033613E-01;2297;0.0057940679;0.0;0.11180629;1012.0472;  4.0637070E-01;9977.459;3;0.46831208;0.0;21.667574;0;1.3238071;  9.9541670E+03;  0.0000000E+00; -4.8825681E-05;  1.0000000E+04;  0.0000000E+00;  9.9694502E+03;1.1878973;0.0;0.13590978;14686.328
  8.0001378E-01;  9.9999998E-03;  2.8034273E-01;2298;0.0054649943;0.0;0.11823538;1012.2124;  4.0637076E-01;10114.197;3;0.37999511;0.0;44.005695;0;1.3260148;  9.9541924E+03;  0.0000000E+00; -1.0333403E-04;  1.0000000E+04;  0.0000000E+00;  9.9726738E+03;1.1713279;0.0;0.15468676;13022.113
  8.0001354E-01;  9.9999998E-03;  3.0036575E-01;2299;0.0049556601;0.0;0.13832754;1012.2039;  4.0637013E-01;10107.188;3;0.2276472;0.0;61.985928;0;1.6135243;  9.9543359E+03;  0.0000000E+00; -1.6654503E-04;  1.0000000E+04;  0.0000000E+00;  9.9723779E+03;1.1535608;0.0;0.45996359;12727.218
  8.2004404E-01;  9.9999998E-03;  1.6018414E-01;2323;0.023835881;0.0;0.10051056;1012.5789;  4.0636003E-01;10416.509;3;7.4544067;0.0;19.767687;0;1.4622531;  9.9618828E+03;  0.0000000E+00; -3.0008312E-06;  1.0000000E+04;  0.0000000E+00;  9.9727002E+03;1.0657699;0.0;0.39648318;12804.712
  8.2004631E-01;  9.9999998E-03;  1.8020745E-01;2324;0.025045674;0.0;0.10639384;1012.4689;  4.0636072E-01;10325.395;3;7.6291394;0.0;17.194809;0;1.4150765;  9.9606680E+03;  0.0000000E+00; -8.0100045E-07;  1.0000000E+04;  0.0000000E+00;  9.9717178E+03;1.0899293;0.0;0.32514709;13373.084
  8.2004875E-01;  9.9999998E-03;  2.0023432E-01;2325;0.026184009;0.0;0.11188676;1012.3812;  4.0636128E-01;10252.739;3;7.7246728;0.0;14.894764;0;1.3696902;  9.9596338E+03;  0.0000000E+00;  9.2962691E-06;  1.0000000E+04;  0.0000000E+00;  9.9710010E+03;1.1059209;0.0;0.26376927;13792.567
  8.2005084E-01;  9.9999998E-03;  2.2027053E-01;2326;0.026928592;0.0;0.11699317;1012.322;  4.0636173E-01;10203.776;3;7.7300935;0.0;13.158084;0;1.334361;  9.9588799E+03;  0.0000000E+00;  3.1859912E-05;  1.0000000E+04;  0.0000000E+00;  9.9705635E+03;1.1116832;0.0;0.22267774;14044.524
  8.2005179E-01;  9.9999998E-03;  2.4030919E-01;2327;0.026816856;0.0;0.11656084;1012.2659;  4.0636230E-01;10157.281;3;7.6350803;0.0;14.309205;0;1.3047469;  9.9584561E+03;  0.0000000E+00;  6.2155174E-05;  1.0000000E+04;  0.0000000E+00;  9.9698711E+03;1.1073543;0.0;0.19739255;14403.841
  8.2005125E-01;  9.9999998E-03;  2.6033571E-01;2328;0.025685146;0.0;0.1123255;1012.223;  4.0636277E-01;10121.743;3;7.4402828;0.0;22.209753;0;1.2483273;  9.9583242E+03;  0.0000000E+00;  8.3624953E-05;  1.0000000E+04;  0.0000000E+00;  9.9691348E+03;1.0950652;0.0;0.15326203;14806.795
  8.2005000E-01;  9.9999998E-03;  2.8034246E-01;2329;0.023908412;0.0;0.11866999;1012.3795;  4.0636280E-01;10251.259;3;7.1720648;0.0;44.587696;0;1.2512133;  9.9584160E+03;  0.0000000E+00;  7.3538118E-05;  1.0000000E+04;  0.0000000E+00;  9.9721172E+03;1.0779654;0.0;0.17324792;13264.404
  8.2004672E-01;  9.9999998E-03;  3.0036545E-01;2330;0.020958915;0.0;0.13870019;1012.3713;  4.0636221E-01;10244.546;3;6.8886623;0.0;62.29953;0;1.5349338;  9.9586309E+03;  0.0000000E+00;  4.1223950E-05;  1.0000000E+04;  0.0000000E+00;  9.9717510E+03;1.0593538;0.0;0.47557995;13008.102
  8.4007961E-01;  9.9999998E-03;  1.6018008E-01;2354;0.04527884;0.0;0.098269269;1012.5365;  4.0625700E-01;10379.647;3;15.906494;0.0;19.349546;0;1.3634053;  9.9655576E+03;  0.0000000E+00; -3.0614617E-06;  1.0000000E+04;  0.0000000E+00;  9.9732422E+03;0.97314864;0.0;0.39025667;12527.166
  8.4008342E-01;  9.9999998E-03;  1.8020296E-01;2355;0.047160219;0.0;0.10413895;1012.4279;  4.0625763E-01;10289.732;3;16.06138;0.0;16.949448;0;1.3198485;  9.9643994E+03;  0.0000000E+00;  3.1948575E-06;  1.0000000E+04;  0.0000000E+00;  9.9722422E+03;0.99743837;0.0;0.32241014;13098.998
  8.4008729E-01;  9.9999998E-03;  2.0022947E-01;2356;0.048851997;0.0;0.10974876;1012.3393;  4.0625808E-01;10216.397;3;16.110607;0.0;14.885247;0;1.2793939;  9.9633936E+03;  0.0000000E+00;  3.1977848E-05;  1.0000000E+04;  0.0000000E+00;  9.9714736E+03;1.0145589;0.0;0.26483497;13537.653
  8.4009033E-01;  9.9999998E-03;  2.2026573E-01;2357;0.049771145;0.0;0.11555598;1012.2758;  4.0625858E-01;10163.791;3;16.05794;0.0;13.620192;0;1.2503102;  9.9626514E+03;  0.0000000E+00;  1.0124971E-04;  1.0000000E+04;  0.0000000E+00;  9.9709463E+03;1.0223483;0.0;0.22796194;13828.284
  8.4009117E-01;  9.9999998E-03;  2.4030477E-01;2358;0.049061496;0.0;0.11575988;1012.2109;  4.0625900E-01;10110.0;3;15.91505;0.0;14.936822;0;1.2287058;  9.9622080E+03;  0.0000000E+00;  2.0687182E-04;  1.0000000E+04;  0.0000000E+00;  9.9700898E+03;1.0207924;0.0;0.20791337;14258.621
  8.4008980E-01;  9.9999998E-03;  2.6033139E-01;2359;0.046953958;0.0;0.11160859;1012.1553;  4.0625957E-01;10064.006;3;15.700927;0.0;22.486492;0;1.1800814;  9.9620361E+03;  0.0000000E+00;  2.9889378E-04;  1.0000000E+04;  0.0000000E+00;  9.9691426E+03;1.0117933;0.0;0.1682881;14759.285
  8.4008759E-01;  9.9999998E-03;  2.8033805E-01;2360;0.043976404;0.0;0.11754667;1012.3002;  4.0625972E-01;10183.926;3;15.442356;0.0;44.152424;0;1.1838875;  9.9620742E+03;  0.0000000E+00;  2.6513447E-04;  1.0000000E+04;  0.0000000E+00;  9.9719521E+03;0.998115;0.0;0.18577246;13310.782
  8.4008181E-01;  9.9999998E-03;  3.0036044E-01;2361;0.038845744;0.0;0.13707116;1012.2939;  4.0625915E-01;10178.794;3;15.188964;0.0;61.586884;0;1.4588307;  9.9622373E+03;  0.0000000E+00;  4.6143752E-05;  1.0000000E+04;  0.0000000E+00;  9.9716738E+03;0.98247635;0.0;0.47635436;13027.717
  8.6011553E-01;  9.9999998E-03;  1.6017415E-01;2385;0.066984288;0.0;0.09515322;1012.2703;  4.0605423E-01;10156.982;3;24.579346;0.0;18.920513;0;1.250123;  9.9694922E+03;  0.0000000E+00; -2.1751514E-06;  1.0000000E+04;  0.0000000E+00;  9.9740322E+03;0.86846399;0.0;0.38165897;12121.807
  8.6012089E-01;  9.9999998E-03;  1.8019642E-01;2386;0.069612466;0.0;0.10102189;1012.1621;  4.0605488E-01;10067.383;3;24.825314;0.0;16.753473;0;1.2119024;  9.9683467E+03;  0.0000000E+00;  9.3049039E-06;  1.0000000E+04;  0.0000000E+00;  9.9730186E+03;0.89411253;0.0;0.31778985;12693.163
  8.6012626E-01;  9.9999998E-03;  2.0022231E-01;2387;0.07199987;0.0;0.10670845;1012.0699;  4.0605536E-01;9991.1035;3;24.973701;0.0;14.943735;0;1.1784049;  9.9673135E+03;  0.0000000E+00;  6.5484906E-05;  1.0000000E+04;  0.0000000E+00;  9.9722090E+03;0.91433507;0.0;0.26406986;13145.076
  8.6013049E-01;  9.9999998E-03;  2.2025785E-01;2388;0.07332541;0.0;0.11280458;1011.9995;  4.0605578E-01;9932.7842;3;25.030544;0.0;14.041874;0;1.1573825;  9.9664990E+03;  0.0000000E+00;  2.0638929E-04;  1.0000000E+04;  0.0000000E+00;  9.9716191E+03;0.9267571;0.0;0.23062544;13462.406
  8.6013126E-01;  9.9999998E-03;  2.4029632E-01;2389;0.072178297;0.0;0.11341176;1011.9249;  4.0605626E-01;9871.0127;3;25.011122;0.0;15.391236;0;1.1449437;  9.9659502E+03;  0.0000000E+00;  4.2978552E-04;  1.0000000E+04;  0.0000000E+00;  9.9706787E+03;0.93089455;0.0;0.21404919;13927.99
  8.6012924E-01;  9.9999998E-03;  2.6032245E-01;2390;0.069316171;0.0;0.10939062;1011.8594;  4.0605676E-01;9816.8389;3;24.934296;0.0;22.510141;0;1.1050888;  9.9656465E+03;  0.0000000E+00;  6.3295552E-04;  1.0000000E+04;  0.0000000E+00;  9.9696641E+03;0.92809701;0.0;0.17699181;14456.787
  8.6012650E-01;  9.9999998E-03;  2.8032920E-01;2391;0.06534376;0.0;0.11492656;1011.9901;  4.0605688E-01;9924.9902;3;24.816963;0.0;43.137012;0;1.1111538;  9.9655430E+03;  0.0000000E+00;  5.7394797E-04;  1.0000000E+04;  0.0000000E+00;  9.9723330E+03;0.92056072;0.0;0.19059318;13087.448
  8.6011839E-01;  9.9999998E-03;  3.0035082E-01;2392;0.05816792;0.0;0.13375327;1011.9846;  4.0605634E-01;9920.4521;3;24.701183;0.0;60.213844;0;1.3762794;  9.9655723E+03;  0.0000000E+00;  1.4076909E-04;  1.0000000E+04;  0.0000000E+00;  9.9722061E+03;0.91045439;0.0;0.4658249;12753.564
  8.8014954E-01;  9.9999998E-03;  1.6016644E-01;2416;0.087563872;0.0;0.091136001;1011.8353;  4.0576348E-01;9793.8574;3;32.904171;0.0;18.375544;0;1.1098984;  9.9741768E+03;  0.0000000E+00; -4.8942716E-06;  1.0000000E+04;  0.0000000E+00;  9.9750684E+03;0.7396794;0.0;0.37021905;11591.863
  8.8015634E-01;  9.9999998E-03;  1.8018788E-01;2417;0.090959512;0.0;0.096940465;1011.7266;  4.0576404E-01;9703.9883;3;33.310139;0.0;16.454754;0;1.0778002;  9.9730215E+03;  0.0000000E+00;  1.2440328E-05;  1.0000000E+04;  0.0000000E+00;  9.9740615E+03;0.76733536;0.0;0.31046483;12153.171
  8.8016319E-01;  9.9999998E-03;  2.0021276E-01;2418;0.094110489;0.0;0.10259243;1011.6295;  4.0576443E-01;9623.5879;3;33.645481;0.0;14.885215;0;1.0522908;  9.9719131E+03;  0.0000000E+00;  1.0299074E-04;  1.0000000E+04;  0.0000000E+00;  9.9732334E+03;0.79188299;0.0;0.26040784;12607.47
  8.8016862E-01;  9.9999998E-03;  2.2024688E-01;2419;0.095929556;0.0;0.10865311;1011.5504;  4.0576488E-01;9558.085;3;33.909649;0.0;14.279694;0;1.0402824;  9.9709580E+03;  0.0000000E+00;  3.3678403E-04;  1.0000000E+04;  0.0000000E+00;  9.9726035E+03;0.81070226;0.0;0.22958012;12935.879
  8.8016951E-01;  9.9999998E-03;  2.4028385E-01;2420;0.094498113;0.0;0.10943977;1011.4665;  4.0576535E-01;9488.7354;3;34.106964;0.0;15.660062;0;1.0372087;  9.9702246E+03;  0.0000000E+00;  7.1619306E-04;  1.0000000E+04;  0.0000000E+00;  9.9716680E+03;0.82260108;0.0;0.21460761;13397.971
  8.8016677E-01;  9.9999998E-03;  2.6030916E-01;2421;0.090990312;0.0;0.10573832;1011.3923;  4.0576583E-01;9427.377;3;34.242859;0.0;22.279221;0;1.0074635;  9.9697217E+03;  0.0000000E+00;  1.0762538E-03;  1.0000000E+04;  0.0000000E+00;  9.9706895E+03;0.82801616;0.0;0.17944731;13903.989
  8.8016385E-01;  9.9999998E-03;  2.8031629E-01;2422;0.086285934;0.0;0.11103123;1011.5048;  4.0576592E-01;9520.4023;3;34.321037;0.0;41.764;0;1.0183351;  9.9694082E+03;  0.0000000E+00;  1.0120724E-03;  1.0000000E+04;  0.0000000E+00;  9.9732002E+03;0.82832569;0.0;0.19000944;12623.318
  8.8015383E-01;  9.9999998E-03;  3.0033711E-01;2423;0.077280723;0.0;0.12900025;1011.4974;  4.0576556E-01;9514.2881;3;34.382481;0.0;58.292034;0;1.2727559;  9.9692568E+03;  0.0000000E+00;  4.0905451E-04;  1.0000000E+04;  0.0000000E+00;  9.9732109E+03;0.82516515;0.0;0.44759077;12247.549
  9.0017891E-01;  9.9999998E-03;  1.6015711E-01;2447;0.10552789;0.0;0.086245254;1011.2782;  4.0540057E-01;9329.0811;3;40.33709;0.0;17.647034;0;0.93901372;  9.9797979E+03;  0.0000000E+00; -1.2558093E-05;  1.0000000E+04;  0.0000000E+00;  9.9763359E+03;0.58328092;0.0;0.35573277;10945.833
  9.0018702E-01;  9.9999998E-03;  1.8017747E-01;2448;0.10963295;0.0;0.091886304;1011.17;  4.0540105E-01;9239.6426;3;40.915527;0.0;15.960198;0;0.91283518;  9.9786260E+03;  0.0000000E+00;  7.3476094E-06;  1.0000000E+04;  0.0000000E+00;  9.9753525E+03;0.61273688;0.0;0.3000983;11485.605
  9.0019524E-01;  9.9999998E-03;  2.0020099E-01;2449;0.11350747;0.0;0.097368509;1011.0682;  4.0540147E-01;9155.4297;3;41.452999;0.0;14.604113;0;0.8953898;  9.9774160E+03;  0.0000000E+00;  1.2769223E-04;  1.0000000E+04;  0.0000000E+00;  9.9745342E+03;0.641904;0.0;0.2534858;11930.395
  9.0020162E-01;  9.9999998E-03;  2.2023277E-01;2450;0.11554018;0.0;0.10280144;1010.9796;  4.0540174E-01;9082.1631;3;41.791939;0.0;14.034965;0;0.89224863;  9.9762764E+03;  0.0000000E+00;  4.5194456E-04;  1.0000000E+04;  0.0000000E+00;  9.9739111E+03;0.66800362;0.0;0.22424504;12251.843
  9.0020227E-01;  9.9999998E-03;  2.4026741E-01;2451;0.11383534;0.0;0.10388691;1010.8878;  4.0540212E-01;9006.1357;3;42.366535;0.0;15.77959;0;0.89858902;  9.9752988E+03;  0.0000000E+00;  9.9519745E-04;  1.0000000E+04;  0.0000000E+00;  9.9730547E+03;0.68893874;0.0;0.20965029;12670.219
  9.0019912E-01;  9.9999998E-03;  2.6029196E-01;2452;0.10998861;0.0;0.10077929;1010.8054;  4.0540263E-01;8937.999;3;42.718445;0.0;21.80505;0;0.88039446;  9.9745332E+03;  0.0000000E+00;  1.5321752E-03;  1.0000000E+04;  0.0000000E+00;  9.9721709E+03;0.70386952;0.0;0.17652495;13123.808
  9.0019667E-01;  9.9999998E-03;  2.8029996E-01;2453;0.10497422;0.0;0.10613272;1010.8945;  4.0540275E-01;9011.6592;3;42.987946;0.0;40.269341;0;0.89960933;  9.9739746E+03;  0.0000000E+00;  1.4723691E-03;  1.0000000E+04;  0.0000000E+00;  9.9744736E+03;0.71309227;0.0;0.18651706;11953.655
  9.0018541E-01;  9.9999998E-03;  3.0032003E-01;2454;0.094487838;0.0;0.12300771;1010.8796;  4.0540239E-01;8999.4346;3;43.217987;0.0;55.893555;0;1.1411953;  9.9735967E+03;  0.0000000E+00;  7.3837652E-04;  1.0000000E+04;  0.0000000E+00;  9.9745566E+03;0.71772492;0.0;0.42347044;11573.411
  9.2019737E-01;  9.9999998E-03;  1.6014650E-01;2478;0.11703897;0.0;0.080594823;1010.6249;  4.0498421E-01;8783.8975;3;45.641895;0.0;16.727484;0;0.74993205;  9.9859619E+03;  0.0000000E+00; -2.1027388E-05;  1.0000000E+04;  0.0000000E+00;  9.9777959E+03;0.41141525;0.0;0.33851683;10201.048
  9.2020774E-01;  9.9999998E-03;  1.8016554E-01;2479;0.12248826;0.0;0.086022906;1010.5194;  4.0498438E-01;8696.6748;3;46.615326;0.0;15.277175;0;0.72839653;  9.9848057E+03;  0.0000000E+00; -4.3738733E-06;  1.0000000E+04;  0.0000000E+00;  9.9768604E+03;0.44143426;0.0;0.2869623;10708.881
  9.2021859E-01;  9.9999998E-03;  2.0018736E-01;2480;0.12790291;0.0;0.09120544;1010.4141;  4.0498477E-01;8609.5498;3;47.648212;0.0;14.103537;0;0.71786571;  9.9835088E+03;  0.0000000E+00;  1.2685770E-04;  1.0000000E+04;  0.0000000E+00;  9.9760635E+03;0.47427338;0.0;0.24359229;11133.559
  9.2022669E-01;  9.9999998E-03;  2.2021599E-01;2481;0.13056798;0.0;0.095533952;1010.318;  4.0498504E-01;8530.2109;3;48.260231;0.0;13.557057;0;0.72219986;  9.9821680E+03;  0.0000000E+00;  5.0432223E-04;  1.0000000E+04;  0.0000000E+00;  9.9754834E+03;0.5073089;0.0;0.21489097;11431.772
  9.2022711E-01;  9.9999998E-03;  2.4024795E-01;2482;0.12861854;0.0;0.097001925;1010.2188;  4.0498549E-01;8448.1162;3;49.115425;0.0;15.648494;0;0.736992;  9.9809170E+03;  0.0000000E+00;  1.1706550E-03;  1.0000000E+04;  0.0000000E+00;  9.9747627E+03;0.53750336;0.0;0.19948867;11781.308
  9.2022407E-01;  9.9999998E-03;  2.6027191E-01;2483;0.12509078;0.0;0.094952822;1010.1271;  4.0498582E-01;8372.3291;3;49.853737;0.0;21.313145;0;0.73217231;  9.9798408E+03;  0.0000000E+00;  1.8622464E-03;  1.0000000E+04;  0.0000000E+00;  9.9740029E+03;0.56243002;0.0;0.16974227;12167.775
  9.2022187E-01;  9.9999998E-03;  2.8028077E-01;2484;0.11982051;0.0;0.10038314;1010.1901;  4.0498596E-01;8424.4648;3;50.130764;0.0;38.706856;0;0.76076579;  9.9789912E+03;  0.0000000E+00;  1.8412647E-03;  1.0000000E+04;  0.0000000E+00;  9.9760791E+03;0.58110815;0.0;0.17965765;11116.52
  9.2021054E-01;  9.9999998E-03;  3.0030021E-01;2485;0.10841867;0.0;0.11603808;1010.1631;  4.0498576E-01;8402.1953;3;50.499969;0.0;53.198376;0;0.98904085;  9.9783594E+03;  0.0000000E+00;  9.9270779E-04;  1.0000000E+04;  0.0000000E+00;  9.9761729E+03;0.59407127;0.0;0.39496961;10763.244
  9.4020104E-01;  9.9999998E-03;  1.6013509E-01;2509;0.11925163;0.0;0.074453719;1009.8823;  4.0453413E-01;8163.9805;3;46.870152;0.0;15.681494;0;0.56622064;  9.9918984E+03;  0.0000000E+00; -2.2802074E-05;  1.0000000E+04;  0.0000000E+00;  9.9793926E+03;0.24695894;0.0;0.31926173;9382.1074
  9.4021249E-01;  9.9999998E-03;  1.8015277E-01;2510;0.12519477;0.0;0.07968425;1009.7828;  4.0453431E-01;8081.7451;3;48.027565;0.0;14.536025;0;0.54765475;  9.9907988E+03;  0.0000000E+00; -1.2854099E-05;  1.0000000E+04;  0.0000000E+00;  9.9785186E+03;0.27592453;0.0;0.27173021;9850.5996
  9.4022560E-01;  9.9999998E-03;  2.0017269E-01;2511;0.13174689;0.0;0.084573396;1009.6773;  4.0453467E-01;7994.585;3;49.393635;0.0;13.61729;0;0.54203224;  9.9894570E+03;  0.0000000E+00;  1.0611042E-04;  1.0000000E+04;  0.0000000E+00;  9.9777588E+03;0.31052995;0.0;0.23150231;10248.153
  9.4023830E-01;  9.9999998E-03;  2.2019845E-01;2512;0.13743155;0.0;0.088251963;1009.5743;  4.0453488E-01;7909.4932;3;51.333908;0.0;12.868995;0;0.55253768;  9.9879551E+03;  0.0000000E+00;  4.8282606E-04;  1.0000000E+04;  0.0000000E+00;  9.9772188E+03;0.34861633;0.0;0.20392135;10522.776
  9.4024372E-01;  9.9999998E-03;  2.4022718E-01;2513;0.1385875;0.0;0.089356057;1009.4694;  4.0453511E-01;7822.8281;3;53.610172;0.0;14.868388;0;0.57268608;  9.9864307E+03;  0.0000000E+00;  1.1751108E-03;  1.0000000E+04;  0.0000000E+00;  9.9766484E+03;0.38663086;0.0;0.18605521;10798.667
  9.4024146E-01;  9.9999998E-03;  2.6025042E-01;2514;0.13588443;0.0;0.088607095;1009.3678;  4.0453550E-01;7738.9229;3;55.054684;0.0;20.460909;0;0.58131576;  9.9850400E+03;  0.0000000E+00;  1.9846964E-03;  1.0000000E+04;  0.0000000E+00;  9.9760078E+03;0.42081177;0.0;0.16050401;11117.487
  9.4023943E-01;  9.9999998E-03;  2.8026003E-01;2515;0.13049728;0.0;0.093981683;1009.4027;  4.0453565E-01;7767.7793;3;55.443687;0.0;36.74921;0;0.6188935;  9.9838730E+03;  0.0000000E+00;  2.1152815E-03;  1.0000000E+04;  0.0000000E+00;  9.9778467E+03;0.44879702;0.0;0.17009652;10191.714
  9.4022804E-01;  9.9999998E-03;  3.0027848E-01;2516;0.11836501;0.0;0.10825011;1009.3641;  4.0453541E-01;7735.875;3;55.857033;0.0;50.118553;0;0.83171999;  9.9829561E+03;  0.0000000E+00;  1.1028200E-03;  1.0000000E+04;  0.0000000E+00;  9.9779932E+03;0.4702816;0.0;0.36143842;9849.3574
  9.6019971E-01;  9.9999998E-03;  1.6012338E-01;2540;0.11885991;0.0;0.068180516;1009.0604;  4.0407014E-01;7477.5249;3;47.122345;0.0;14.666234;0;0.40893579;  9.9968926E+03;  0.0000000E+00; -1.5038026E-05;  1.0000000E+04;  0.0000000E+00;  9.9810547E+03;0.11022826;0.0;0.29870752;8517.584
  9.6021140E-01;  9.9999998E-03;  1.8013965E-01;2541;0.12493965;0.0;0.073239267;1008.9686;  4.0407047E-01;7401.7651;3;48.327721;0.0;13.85591;0;0.39223748;  9.9958750E+03;  0.0000000E+00; -1.0632417E-05;  1.0000000E+04;  0.0000000E+00;  9.9802471E+03;0.13713884;0.0;0.25509864;8942.875
  9.6022499E-01;  9.9999998E-03;  2.0015752E-01;2542;0.1316739;0.0;0.077758014;1008.865;  4.0407065E-01;7316.2646;3;49.700012;0.0;13.164132;0;0.38967222;  9.9945244E+03;  0.0000000E+00;  7.7859986E-05;  1.0000000E+04;  0.0000000E+00;  9.9795410E+03;0.17177291;0.0;0.21789929;9308.8369
  9.6023959E-01;  9.9999998E-03;  2.2018118E-01;2543;0.1383144;0.0;0.081827335;1008.7576;  4.0407079E-01;7227.6152;3;51.680901;0.0;12.694124;0;0.40520969;  9.9929072E+03;  0.0000000E+00;  5.2124122E-04;  1.0000000E+04;  0.0000000E+00;  9.9790225E+03;0.21251997;0.0;0.19268972;9564.5859
  9.6025068E-01;  9.9999998E-03;  2.4020696E-01;2544;0.1430258;0.0;0.082375564;1008.6462;  4.0407097E-01;7135.7207;3;55.194729;0.0;14.16734;0;0.42988169;  9.9911650E+03;  0.0000000E+00;  2.2676014E-03;  1.0000000E+04;  0.0000000E+00;  9.9785498E+03;0.25582013;0.0;0.17406158;9791.335
  9.6025252E-01;  9.9999998E-03;  2.6022840E-01;2545;0.14288951;0.0;0.081769705;1008.5385;  4.0407136E-01;7046.7817;3;58.523891;0.0;19.412086;0;0.44526055;  9.9894805E+03;  0.0000000E+00;  5.0384183E-03;  1.0000000E+04;  0.0000000E+00;  9.9780820E+03;0.29740968;0.0;0.14785087;10024.007
  9.6025127E-01;  9.9999998E-03;  2.8023839E-01;2546;0.13777368;0.0;0.087077282;1008.5479;  4.0407136E-01;7054.5547;3;59.091038;0.0;34.2057;0;0.49134564;  9.9879961E+03;  0.0000000E+00;  5.4652104E-03;  1.0000000E+04;  0.0000000E+00;  9.9797285E+03;0.3338162;0.0;0.15752944;9200.6543
  9.6024013E-01;  9.9999998E-03;  3.0025566E-01;2547;0.1254068;0.0;0.099758856;1008.4977;  4.0407127E-01;7013.1401;3;59.698231;0.0;46.532478;0;0.68499786;  9.9867773E+03;  0.0000000E+00;  1.0052072E-03;  1.0000000E+04;  0.0000000E+00;  9.9799502E+03;0.36340475;0.0;0.32159311;8863.3223
  9.8019594E-01;  9.9999998E-03;  1.6011186E-01;2571;0.11735961;0.0;0.062197316;1008.1826;  4.0361026E-01;6744.0186;3;47.09621;0.0;13.857087;0;0.28790444;  1.0000592E+04;  0.0000000E+00; -3.4372356E-06;  1.0000000E+04;  0.0000000E+00;  9.9827197E+03;0.010469701;0.0;0.27743474;7637.3701
  9.8020780E-01;  9.9999998E-03;  1.8012671E-01;2572;0.12356758;0.0;0.067012228;1008.0977;  4.0361044E-01;6674.0566;3;48.374645;0.0;13.319864;0;0.27292237;  9.9996377E+03;  0.0000000E+00; -2.7195913E-06;  1.0000000E+04;  0.0000000E+00;  9.9819824E+03;0.035336517;0.0;0.23758586;8019.4604
  9.8022181E-01;  9.9999998E-03;  2.0014259E-01;2573;0.13049085;0.0;0.071146913;1007.9965;  4.0361053E-01;6590.7319;3;49.830509;0.0;12.795693;0;0.27251589;  9.9982969E+03;  0.0000000E+00;  2.4852526E-04;  1.0000000E+04;  0.0000000E+00;  9.9813184E+03;0.069155194;0.0;0.20336071;8353.1953
  9.8023736E-01;  9.9999998E-03;  2.2016385E-01;2574;0.13767043;0.0;0.075440094;1007.8873;  4.0361080E-01;6500.6279;3;51.77623;0.0;12.617336;0;0.29122508;  9.9966074E+03;  0.0000000E+00;  2.5036074E-03;  1.0000000E+04;  0.0000000E+00;  9.9808291E+03;0.11065833;0.0;0.18056676;8588.8525
  9.8025149E-01;  9.9999998E-03;  2.4018756E-01;2575;0.14356792;0.0;0.07604605;1007.7697;  4.0361086E-01;6403.7441;3;55.061096;0.0;13.624505;0;0.32047746;  9.9947168E+03;  0.0000000E+00;  9.1971066E-03;  1.0000000E+04;  0.0000000E+00;  9.9803877E+03;0.15669256;0.0;0.16378489;8793.4854
  9.8025894E-01;  9.9999998E-03;  2.6020664E-01;2576;0.14668195;0.0;0.074946731;1007.66;  4.0361103E-01;6313.3491;3;60.008472;0.0;18.26437;0;0.33834013;  9.9928008E+03;  0.0000000E+00;  1.7813481E-02;  1.0000000E+04;  0.0000000E+00;  9.9801143E+03;0.20330453;0.0;0.1350356;8934.1973
  9.8026007E-01;  9.9999998E-03;  2.8021637E-01;2577;0.14320114;0.0;0.079708904;1007.6529;  4.0361112E-01;6307.4536;3;61.952602;0.0;31.445057;0;0.3861773;  9.9910293E+03;  0.0000000E+00;  1.7583383E-02;  1.0000000E+04;  0.0000000E+00;  9.9817246E+03;0.24640544;0.0;0.13977188;8149.5703
  9.8025042E-01;  9.9999998E-03;  3.0023256E-01;2578;0.13144594;0.0;0.091145724;1007.5922;  4.0361118E-01;6257.4482;3;63.071743;0.0;42.758278;0;0.56578028;  9.9895313E+03;  0.0000000E+00;  5.8359967E-04;  1.0000000E+04;  0.0000000E+00;  9.9820107E+03;0.28244838;0.0;0.28333187;7811.6636
  1.0001910E+00;  9.9999998E-03;  1.6010116E-01;2602;0.11535808;0.0;0.056766115;1007.2844;  4.0316951E-01;5993.0278;3;46.963882;0.0;13.251424;0;0.20217484;  1.0003004E+04;  0.0000000E+00;  1.1469368E-06;  1.0000000E+04;  0.0000000E+00;  9.9843281E+03;-0.053652965;0.0;0.25582781;6770.2832
  1.0002030E+00;  9.9999998E-03;  1.8011452E-01;2603;0.12173359;0.0;0.061223239;1007.2039;  4.0316951E-01;5926.7217;3;48.344547;0.0;12.823804;0;0.18955883;  1.0002088E+04;  0.0000000E+00; -2.3670626E-05;  1.0000000E+04;  0.0000000E+00;  9.9836416E+03;-0.030085953;0.0;0.21964478;7114.3022
  1.0002172E+00;  9.9999998E-03;  2.0012861E-01;2604;0.1287937;0.0;0.065002523;1007.1048;  4.0316963E-01;5845.2114;3;49.902245;0.0;12.371758;0;0.19123472;  1.0000753E+04;  0.0000000E+00;  5.1861070E-04;  1.0000000E+04;  0.0000000E+00;  9.9830078E+03;0.002569892;0.0;0.18866482;7423.0693
  1.0002334E+00;  9.9999998E-03;  2.2014682E-01;2605;0.13628261;0.0;0.06867747;1006.9958;  4.0316981E-01;5755.561;3;51.814789;0.0;12.426044;0;0.21113874;  9.9990527E+03;  0.0000000E+00;  5.9239580E-03;  1.0000000E+04;  0.0000000E+00;  9.9825420E+03;0.043271434;0.0;0.1678673;7639.854
  1.0002502E+00;  9.9999998E-03;  2.4016874E-01;2606;0.14311492;0.0;0.069858342;1006.8759;  4.0316984E-01;5656.8872;3;54.925613;0.0;13.111521;0;0.24369562;  9.9970947E+03;  0.0000000E+00;  2.1410957E-02;  1.0000000E+04;  0.0000000E+00;  9.9821143E+03;0.08971861;0.0;0.15397701;7829.3408
  1.0002620E+00;  9.9999998E-03;  2.6018575E-01;2607;0.14781076;0.0;0.068531185;1006.7665;  4.0316996E-01;5566.8472;3;60.199387;0.0;17.153801;0;0.26402158;  9.9950264E+03;  0.0000000E+00;  3.9747301E-02;  1.0000000E+04;  0.0000000E+00;  9.9820039E+03;0.1389018;0.0;0.12511978;7892.7236
  1.0002676E+00;  9.9999998E-03;  2.8019446E-01;2608;0.14756526;0.0;0.072120123;1006.7565;  4.0317020E-01;5558.6055;3;64.773514;0.0;28.537462;0;0.30458212;  9.9930293E+03;  0.0000000E+00;  3.6524188E-02;  1.0000000E+04;  0.0000000E+00;  9.9837930E+03;0.18671998;0.0;0.11786214;7061.9404
  1.0002620E+00;  9.9999998E-03;  3.0020967E-01;2609;0.13822994;0.0;0.082943514;1006.6926;  4.0317005E-01;5506.0405;3;67.270554;0.0;39.686569;0;0.47507578;  9.9912988E+03;  0.0000000E+00; -3.1603468E-03;  1.0000000E+04;  0.0000000E+00;  9.9842412E+03;0.22666095;0.0;0.24841481;6670.6289
  1.0201854E+00;  9.9999998E-03;  1.6009110E-01;2633;0.11297116;0.0;0.051633269;1006.4047;  4.0275970E-01;5256.665;3;46.742683;0.0;12.607904;0;0.14467238;  1.0004361E+04;  0.0000000E+00; -3.9218507E-05;  1.0000000E+04;  0.0000000E+00;  9.9858242E+03;-0.089531884;0.0;0.23420426;5942.4297
  1.0201976E+00;  9.9999998E-03;  1.8010305E-01;2634;0.11955947;0.0;0.055741642;1006.3255;  4.0275991E-01;5191.5928;3;48.18187;0.0;12.351976;0;0.13537386;  1.0003448E+04;  0.0000000E+00; -1.0961869E-03;  1.0000000E+04;  0.0000000E+00;  9.9851621E+03;-0.06654267;0.0;0.20191653;6260.0488
  1.0202121E+00;  9.9999998E-03;  2.0011590E-01;2635;0.12689686;0.0;0.059401836;1006.2287;  4.0275994E-01;5112.1357;3;49.760063;0.0;12.274622;0;0.13922283;  1.0002160E+04;  0.0000000E+00; -3.6997572E-03;  1.0000000E+04;  0.0000000E+00;  9.9845234E+03;-0.035606351;0.0;0.17482919;6556.5825
  1.0202290E+00;  9.9999998E-03;  2.2013164E-01;2636;0.13477832;0.0;0.062343903;1006.1225;  4.0275994E-01;5024.9492;3;51.977386;0.0;12.02374;0;0.15934205;  1.0000532E+04;  0.0000000E+00;  6.0157542E-04;  1.0000000E+04;  0.0000000E+00;  9.9840381E+03;0.0025964612;0.0;0.15674558;6770.4595
  1.0202483E+00;  9.9999998E-03;  2.4015100E-01;2637;0.14246313;0.0;0.063536033;1006.0058;  4.0276006E-01;4929.1504;3;55.116772;0.0;12.568469;0;0.19188546;  9.9986152E+03;  0.0000000E+00;  2.2683566E-02;  1.0000000E+04;  0.0000000E+00;  9.9836396E+03;0.047126841;0.0;0.14475861;6940.1401
  1.0202643E+00;  9.9999998E-03;  2.6016623E-01;2638;0.14823608;0.0;0.062197614;1005.9017;  4.0276021E-01;4843.7261;3;60.624321;0.0;15.994426;0;0.21181631;  9.9964961E+03;  0.0000000E+00;  5.0375111E-02;  1.0000000E+04;  0.0000000E+00;  9.9836836E+03;0.096323274;0.0;0.11549304;6934.3828
  1.0202754E+00;  9.9999998E-03;  2.8017393E-01;2639;0.15119186;0.0;0.064992107;1005.8954;  4.0276009E-01;4838.6309;3;67.964233;0.0;25.572763;0;0.24677098;  9.9943252E+03;  0.0000000E+00;  4.3618299E-02;  1.0000000E+04;  0.0000000E+00;  9.9857305E+03;0.14711125;0.0;0.099659719;6028.3408
  1.0202777E+00;  9.9999998E-03;  3.0018765E-01;2640;0.14706533;0.0;0.075323902;1005.8408;  4.0275985E-01;4793.7212;3;73.241394;0.0;37.536182;0;0.40603098;  9.9923525E+03;  0.0000000E+00; -9.1034183E-03;  1.0000000E+04;  0.0000000E+00;  9.9866143E+03;0.19047438;0.0;0.21555661;5469.5371
  1.0401789E+00;  9.9999998E-03;  1.6008160E-01;2664;0.11018603;0.0;0.046707999;1005.5759;  4.0238935E-01;4561.6748;3;46.338459;0.0;11.944874;0;0.10723104;  1.0004945E+04;  0.0000000E+00; -6.6013995E-04;  1.0000000E+04;  0.0000000E+00;  9.9871592E+03;-0.10582142;0.0;0.21305245;5176.1553
  1.0401917E+00;  9.9999998E-03;  1.8009271E-01;2665;0.11711133;0.0;0.050739188;1005.4963;  4.0238947E-01;4496.6147;3;48.01326;0.0;11.887631;0;0.10194336;  1.0004040E+04;  0.0000000E+00; -7.4076378E-03;  1.0000000E+04;  0.0000000E+00;  9.9864805E+03;-0.083357438;0.0;0.1853008;5482.4312
  1.0402066E+00;  9.9999998E-03;  2.0010406E-01;2666;0.1248492;0.0;0.053841457;1005.4034;  4.0238950E-01;4420.5327;3;49.849949;0.0;11.585752;0;0.10750753;  1.0002863E+04;  0.0000000E+00; -2.4295203E-02;  1.0000000E+04;  0.0000000E+00;  9.9858086E+03;-0.05530132;0.0;0.16280885;5777.439
  1.0402249E+00;  9.9999998E-03;  2.2011843E-01;2667;0.13344908;0.0;0.056261271;1005.304;  4.0238953E-01;4339.1812;3;52.126366;0.0;11.361523;0;0.12652664;  1.0001433E+04;  0.0000000E+00; -3.5809752E-02;  1.0000000E+04;  0.0000000E+00;  9.9852646E+03;-0.021675872;0.0;0.14820251;6005.3999
  1.0402465E+00;  9.9999998E-03;  2.4013537E-01;2668;0.14187141;0.0;0.057300888;1005.1964;  4.0238962E-01;4251.0991;3;55.615871;0.0;12.066159;0;0.15593594;  9.9996982E+03;  0.0000000E+00; -2.0515449E-02;  1.0000000E+04;  0.0000000E+00;  9.9848594E+03;0.018317426;0.0;0.13761851;6165.8799
  1.0402672E+00;  9.9999998E-03;  2.6014882E-01;2669;0.14896733;0.0;0.056201555;1005.1029;  4.0238956E-01;4174.624;3;61.570229;0.0;14.938392;0;0.17314136;  9.9976309E+03;  0.0000000E+00;  6.2074764E-03;  1.0000000E+04;  0.0000000E+00;  9.9850693E+03;0.064991005;0.0;0.10815035;6087.2935
  1.0402857E+00;  9.9999998E-03;  2.8015631E-01;2670;0.15549906;0.0;0.058897901;1005.0922;  4.0238950E-01;4165.9302;3;71.760902;0.0;23.343018;0;0.20903054;  9.9952578E+03;  0.0000000E+00; -1.8638493E-03;  1.0000000E+04;  0.0000000E+00;  9.9872354E+03;0.11857925;0.0;0.090451285;5168.8662
  1.0403000E+00;  9.9999998E-03;  3.0016863E-01;2671;0.15886855;0.0;0.067145251;1005.0285;  4.0238932E-01;4113.7437;3;81.607239;0.0;33.423637;0;0.34733361;  9.9927266E+03;  0.0000000E+00;  1.5767423E-02;  1.0000000E+04;  0.0000000E+00;  9.9885010E+03;0.17354918;0.0;0.17378442;4507.9897
  1.0601721E+00;  9.9999998E-03;  1.6007282E-01;2695;0.1071506;0.0;0.042097505;1004.8203;  4.0206316E-01;3926.658;3;45.846588;0.0;11.225224;0;0.083883904;  1.0004987E+04;  0.0000000E+00; -4.1009933E-03;  1.0000000E+04;  0.0000000E+00;  9.9882998E+03;-0.10927267;0.0;0.19315657;4487.3511
  1.0601852E+00;  9.9999998E-03;  1.8008302E-01;2696;0.1144897;0.0;0.045695253;1004.7408;  4.0206316E-01;3861.874;3;47.769897;0.0;11.05306;0;0.082431763;  1.0004139E+04;  0.0000000E+00; -2.7737800E-02;  1.0000000E+04;  0.0000000E+00;  9.9875654E+03;-0.088294551;0.0;0.17072631;4794.5293
  1.0602012E+00;  9.9999998E-03;  2.0009348E-01;2697;0.12285088;0.0;0.048290074;1004.6561;  4.0206322E-01;3792.8157;3;49.817627;0.0;10.643231;0;0.088416807;  1.0003181E+04;  0.0000000E+00; -7.8742445E-02;  1.0000000E+04;  0.0000000E+00;  9.9868350E+03;-0.065002225;0.0;0.15341903;5101.0444
  1.0602216E+00;  9.9999998E-03;  2.2010693E-01;2698;0.13226916;0.0;0.050454099;1004.5692;  4.0206331E-01;3722.0056;3;52.448864;0.0;10.861971;0;0.10449541;  1.0002075E+04;  0.0000000E+00; -1.2952261E-01;  1.0000000E+04;  0.0000000E+00;  9.9862158E+03;-0.038223069;0.0;0.14271848;5360.9834
  1.0602455E+00;  9.9999998E-03;  2.4012251E-01;2699;0.14153236;0.0;0.051658377;1004.4734;  4.0206325E-01;3644.0073;3;56.376675;0.0;11.727463;0;0.12937915;  1.0000655E+04;  0.0000000E+00; -1.4424306E-01;  1.0000000E+04;  0.0000000E+00;  9.9857354E+03;-0.005114642;0.0;0.1344938;5548.7661
  1.0602720E+00;  9.9999998E-03;  2.6013494E-01;2700;0.15089025;0.0;0.051140741;1004.3843;  4.0206313E-01;3571.3484;3;63.545853;0.0;14.099872;0;0.1466884;  9.9986611E+03;  0.0000000E+00; -1.4373286E-01;  1.0000000E+04;  0.0000000E+00;  9.9859551E+03;0.038588524;0.0;0.10809988;5466.6274
  1.0602980E+00;  9.9999998E-03;  2.8014290E-01;2701;0.16071364;0.0;0.053675223;1004.3453;  4.0206319E-01;3539.5723;3;75.748955;0.0;20.911419;0;0.1908792;  9.9959111E+03;  0.0000000E+00; -1.3139507E-01;  1.0000000E+04;  0.0000000E+00;  9.9879414E+03;0.098567173;0.0;0.09231203;4659.063
  1.0603235E+00;  9.9999998E-03;  3.0015394E-01;2702;0.17021956;0.0;0.05862416;1004.2304;  4.0206307E-01;3445.9414;3;90.148697;0.0;27.02882;0;0.30381596;  9.9921875E+03;  0.0000000E+00;  1.7569478E-01;  1.0000000E+04;  0.0000000E+00;  9.9893945E+03;0.17881769;0.0;0.12499829;4040.7385
  1.0801654E+00;  9.9999998E-03;  1.6006495E-01;2726;0.10414263;0.0;0.037679262;1004.1483;  4.0178311E-01;3360.0308;3;45.338802;0.0;10.278077;0;0.071532503;  1.0004631E+04;  0.0000000E+00; -1.7315799E-02;  1.0000000E+04;  0.0000000E+00;  9.9892129E+03;-0.10410485;0.0;0.17563735;3883.8252
  1.0801790E+00;  9.9999998E-03;  1.8007387E-01;2727;0.1118722;0.0;0.040476412;1004.0729;  4.0178311E-01;3298.8965;3;47.421688;0.0;9.9363213;0;0.072498031;  1.0003926E+04;  0.0000000E+00; -7.6496176E-02;  1.0000000E+04;  0.0000000E+00;  9.9884092E+03;-0.086497627;0.0;0.15899566;4200.3896
  1.0801966E+00;  9.9999998E-03;  2.0008411E-01;2728;0.12103896;0.0;0.042809863;1004.0014;  4.0178311E-01;3240.9443;3;49.829071;0.0;9.7303295;0;0.076876715;  1.0003295E+04;  0.0000000E+00; -1.8478300E-01;  1.0000000E+04;  0.0000000E+00;  9.9876240E+03;-0.070003137;0.0;0.14687985;4544.2695
  1.0802191E+00;  9.9999998E-03;  2.2009724E-01;2729;0.13129494;0.0;0.044939574;1003.9322;  4.0178299E-01;3184.9194;3;52.986309;0.0;10.243979;0;0.088128537;  1.0002614E+04;  0.0000000E+00; -2.9687169E-01;  1.0000000E+04;  0.0000000E+00;  9.9869297E+03;-0.051718425;0.0;0.13984697;4882.9854
  1.0802456E+00;  9.9999998E-03;  2.4011160E-01;2730;0.14153907;0.0;0.046073031;1003.8522;  4.0178302E-01;3120.105;3;57.745724;0.0;11.047608;0;0.10555711;  1.0001562E+04;  0.0000000E+00; -3.6219409E-01;  1.0000000E+04;  0.0000000E+00;  9.9863994E+03;-0.026402017;0.0;0.13195913;5134.8643
  1.0802765E+00;  9.9999998E-03;  2.6012319E-01;2731;0.15264855;0.0;0.046269782;1003.7658;  4.0178290E-01;3050.0732;3;66.190346;0.0;13.397132;0;0.12285359;  9.9995742E+03;  0.0000000E+00; -3.9585280E-01;  1.0000000E+04;  0.0000000E+00;  9.9866748E+03;0.015741277;0.0;0.10711231;5078.5933
  1.0803075E+00;  9.9999998E-03;  2.8013191E-01;2732;0.16458014;0.0;0.048931498;1003.6857;  4.0178302E-01;2985.1602;3;79.748901;0.0;18.865686;0;0.18071711;  9.9962461E+03;  0.0000000E+00; -2.7233523E-01;  1.0000000E+04;  0.0000000E+00;  9.9884102E+03;0.086115718;0.0;0.0946014;4290.0928
  1.0803388E+00;  9.9999998E-03;  3.0014181E-01;2733;0.17624585;0.0;0.052152187;1003.5007;  4.0178284E-01;2835.2842;3;95.562561;0.0;23.076818;0;0.29363328;  9.9909775E+03;  0.0000000E+00;  6.2260211E-01;  1.0000000E+04;  0.0000000E+00;  9.9900137E+03;0.19436051;0.0;0.099272758;4277.6689
  1.1001588E+00;  9.9999998E-03;  1.6005707E-01;2756;0.10120452;0.0;0.032954779;1003.5624;  4.0154809E-01;2863.7744;3;44.77721;0.0;9.0290928;0;0.06858848;  1.0003973E+04;  0.0000000E+00; -5.4471370E-02;  1.0000000E+04;  0.0000000E+00;  9.9898984E+03;-0.092942476;0.0;0.16153096;3364.7297
  1.1001736E+00;  9.9999998E-03;  1.8006560E-01;2757;0.10959793;0.0;0.035373677;1003.4968;  4.0154797E-01;2810.9543;3;47.192604;0.0;8.7631731;0;0.069519967;  1.0003521E+04;  0.0000000E+00; -1.7158067E-01;  1.0000000E+04;  0.0000000E+00;  9.9890459E+03;-0.080934212;0.0;0.15045418;3708.3884
  1.1001931E+00;  9.9999998E-03;  2.0007606E-01;2758;0.1195859;0.0;0.037628423;1003.4442;  4.0154806E-01;2768.6702;3;50.108276;0.0;8.8185959;0;0.070121393;  1.0003290E+04;  0.0000000E+00; -3.5324177E-01;  1.0000000E+04;  0.0000000E+00;  9.9882285E+03;-0.072596475;0.0;0.14271787;4140.9785
  1.1002178E+00;  9.9999998E-03;  2.2008902E-01;2759;0.13062777;0.0;0.039638907;1003.3948;  4.0154806E-01;2728.9683;3;54.070274;0.0;9.3659363;0;0.074780911;  1.0003036E+04;  0.0000000E+00; -5.3291655E-01;  1.0000000E+04;  0.0000000E+00;  9.9875049E+03;-0.062776223;0.0;0.13755713;4611.686
  1.1002473E+00;  9.9999998E-03;  2.4010241E-01;2760;0.14186952;0.0;0.040707137;1003.3292;  4.0154800E-01;2676.2292;3;59.710663;0.0;10.22232;0;0.083749473;  1.0002232E+04;  0.0000000E+00; -6.4886099E-01;  1.0000000E+04;  0.0000000E+00;  9.9870117E+03;-0.042992234;0.0;0.12674171;4952.9468
  1.1002793E+00;  9.9999998E-03;  2.6011270E-01;2761;0.15350895;0.0;0.041390166;1003.2536;  4.0154791E-01;2615.3438;3;69.385857;0.0;12.719595;0;0.098494701;  1.0000155E+04;  0.0000000E+00; -6.4720398E-01;  1.0000000E+04;  0.0000000E+00;  9.9875850E+03;-0.00068779808;0.0;0.099182501;4778.7563
  1.1003114E+00;  9.9999998E-03;  2.8012207E-01;2762;0.16637981;0.0;0.044564284;1003.1347;  4.0154797E-01;2519.7712;3;84.332397;0.0;17.390049;0;0.17563038;  9.9962520E+03;  0.0000000E+00; -2.2084546E-01;  1.0000000E+04;  0.0000000E+00;  9.9891328E+03;0.082757398;0.0;0.092872977;3662.1895
  1.1201535E+00;  9.9999998E-03;  1.6005000E-01;2785;0.098755859;0.0;0.028368838;1003.0633;  4.0135545E-01;2438.2632;3;44.327591;0.0;7.6514087;0;0.072600335;  1.0003133E+04;  0.0000000E+00; -1.3963550E-01;  1.0000000E+04;  0.0000000E+00;  9.9903857E+03;-0.078735337;0.0;0.15133567;2934.3967
  1.1201698E+00;  9.9999998E-03;  1.8005861E-01;2786;0.10787775;0.0;0.030600149;1003.0142;  4.0135533E-01;2399.1484;3;47.199509;0.0;7.5299954;0;0.070643015;  1.0003018E+04;  0.0000000E+00; -3.3168948E-01;  1.0000000E+04;  0.0000000E+00;  9.9895244E+03;-0.07404425;0.0;0.14468727;3349.8401
  1.1201912E+00;  9.9999998E-03;  2.0006944E-01;2787;0.11862247;0.0;0.032769561;1002.9828;  4.0135533E-01;2374.165;3;50.837784;0.0;7.7610497;0;0.065743484;  1.0003187E+04;  0.0000000E+00; -5.8323860E-01;  1.0000000E+04;  0.0000000E+00;  9.9887363E+03;-0.073593788;0.0;0.13933727;3915.5442
  1.1202185E+00;  9.9999998E-03;  2.2008246E-01;2788;0.13048775;0.0;0.034721088;1002.9481;  4.0135524E-01;2346.4229;3;55.605251;0.0;8.2332411;0;0.064235151;  1.0003199E+04;  0.0000000E+00; -8.1161034E-01;  1.0000000E+04;  0.0000000E+00;  9.9880313E+03;-0.069033071;0.0;0.13326822;4508.0283
  1.1202496E+00;  9.9999998E-03;  2.4009489E-01;2789;0.14230314;0.0;0.035868794;1002.8885;  4.0135530E-01;2299.0366;3;62.525688;0.0;9.1090202;0;0.06743335;  1.0002347E+04;  0.0000000E+00; -9.2787564E-01;  1.0000000E+04;  0.0000000E+00;  9.9877070E+03;-0.049495831;0.0;0.11692918;4826.5
  1.1202807E+00;  9.9999998E-03;  2.6010469E-01;2790;0.15412825;0.0;0.037586089;1002.8123;  4.0135521E-01;2238.2742;3;73.861;0.0;12.031916;0;0.091991693;  1.0000038E+04;  0.0000000E+00; -7.3645526E-01;  1.0000000E+04;  0.0000000E+00;  9.9885039E+03;-0.0014334342;0.0;0.093425125;4239.0801
  1.1203099E+00;  9.9999998E-03;  2.8011402E-01;2791;0.16581292;0.0;0.040902007;1002.6718;  4.0135518E-01;2126.3774;3;88.951706;0.0;16.152224;0;0.17895383;  9.9958428E+03;  0.0000000E+00;  2.1321091E-01;  1.0000000E+04;  0.0000000E+00;  9.9899043E+03;0.088021405;0.0;0.090932429;3063.9839
  1.1401497E+00;  9.9999998E-03;  1.6004421E-01;2813;0.09697105;0.0;0.024149463;1002.6514;  4.0120077E-01;2083.313;3;44.202911;0.0;6.3382506;0;0.079261288;  1.0002265E+04;  0.0000000E+00; -2.9941058E-01;  1.0000000E+04;  0.0000000E+00;  9.9907432E+03;-0.06516026;0.0;0.14442155;2626.3584
  1.1401677E+00;  9.9999998E-03;  1.8005334E-01;2814;0.10682152;0.0;0.026365573;1002.6233;  4.0120086E-01;2061.2729;3;47.715691;0.0;6.3677845;0;0.072272278;  1.0002520E+04;  0.0000000E+00; -5.6372970E-01;  1.0000000E+04;  0.0000000E+00;  9.9899316E+03;-0.068029933;0.0;0.14030221;3160.2534
  1.1401918E+00;  9.9999998E-03;  2.0006508E-01;2815;0.11850744;0.0;0.028780354;1002.6065;  4.0120068E-01;2048.0298;3;52.119392;0.0;6.6835241;0;0.063698165;  1.0002933E+04;  0.0000000E+00; -8.5689163E-01;  1.0000000E+04;  0.0000000E+00;  9.9891836E+03;-0.07209415;0.0;0.13579232;3828.4326
  1.1402217E+00;  9.9999998E-03;  2.2007853E-01;2816;0.13121803;0.0;0.031088373;1002.5656;  4.0120074E-01;2015.7643;3;58.069557;0.0;7.270648;0;0.06381315;  1.0002829E+04;  0.0000000E+00; -1.0882771E+00;  1.0000000E+04;  0.0000000E+00;  9.9884766E+03;-0.065135032;0.0;0.12894818;4429.3179
  1.1402520E+00;  9.9999998E-03;  2.4008982E-01;2817;0.14273752;0.0;0.032537993;1002.5017;  4.0120062E-01;1965.61;3;66.534355;0.0;8.5555906;0;0.069271415;  1.0001633E+04;  0.0000000E+00; -1.0600638E+00;  1.0000000E+04;  0.0000000E+00;  9.9884072E+03;-0.039650183;0.0;0.1089216;4389.0942
  1.1402802E+00;  9.9999998E-03;  2.6009941E-01;2818;0.15418749;0.0;0.03535087;1002.4109;  4.0120077E-01;1894.1995;3;79.378967;0.0;11.989371;0;0.11634236;  9.9990010E+03;  0.0000000E+00; -4.4944641E-01;  1.0000000E+04;  0.0000000E+00;  9.9892305E+03;0.018740566;0.0;0.097601794;3154.8999
  1.1601480E+00;  9.9999998E-03;  1.6004044E-01;2840;0.096031852;0.0;0.020671129;1002.3272;  4.0107960E-01;1798.5564;3;44.551376;0.0;5.1162219;0;0.083555758;  1.0001528E+04;  0.0000000E+00; -5.4222238E-01;  1.0000000E+04;  0.0000000E+00;  9.9910566E+03;-0.055614855;0.0;0.13917062;2485.0684
  1.1601686E+00;  9.9999998E-03;  1.8005082E-01;2841;0.10694686;0.0;0.023287913;1002.3143;  4.0107954E-01;1788.5719;3;48.844166;0.0;5.3666749;0;0.073485576;  1.0002033E+04;  0.0000000E+00; -8.4696263E-01;  1.0000000E+04;  0.0000000E+00;  9.9902988E+03;-0.062911414;0.0;0.13639699;3101.3254
  1.1601962E+00;  9.9999998E-03;  2.0006402E-01;2842;0.11975905;0.0;0.026386363;1002.2855;  4.0107957E-01;1766.2314;3;54.333199;0.0;5.964097;0;0.071455047;  1.0002267E+04;  0.0000000E+00; -1.1334057E+00;  1.0000000E+04;  0.0000000E+00;  9.9895000E+03;-0.062405523;0.0;0.13386057;3750.2156
  1.1602263E+00;  9.9999998E-03;  2.2007695E-01;2843;0.13239782;0.0;0.028882384;1002.219;  4.0107942E-01;1714.777;3;61.788895;0.0;6.8817697;0;0.08158648;  1.0001610E+04;  0.0000000E+00; -1.2468777E+00;  1.0000000E+04;  0.0000000E+00;  9.9888340E+03;-0.044740479;0.0;0.12632696;4069.0691
  1.1602541E+00;  9.9999998E-03;  2.4008760E-01;2844;0.143483;0.0;0.031315073;1002.1332;  4.0107945E-01;1648.4059;3;72.138817;0.0;9.0661297;0;0.10853826;  9.9998740E+03;  0.0000000E+00; -8.4435314E-01;  1.0000000E+04;  0.0000000E+00;  9.9888584E+03;-0.0058060298;0.0;0.11434428;3347.573
  1.1602770E+00;  9.9999998E-03;  2.6009560E-01;2845;0.15260857;0.0;0.033834532;1002.0524;  4.0107942E-01;1586.006;3;84.774384;0.0;12.253108;0;0.1562975;  9.9972354E+03;  0.0000000E+00;  3.9444125E-01;  1.0000000E+04;  0.0000000E+00;  9.9898877E+03;0.052426137;0.0;0.10387136;2513.4993
  1.1801503E+00;  9.9999998E-03;  1.6004008E-01;2866;0.09664797;0.0;0.018676342;1002.078;  4.0098622E-01;1572.6113;3;45.691437;0.0;4.2366681;0;0.085081905;  1.0000923E+04;  0.0000000E+00; -8.3656985E-01;  1.0000000E+04;  0.0000000E+00;  9.9913398E+03;-0.049701426;0.0;0.13478333;2460.925
  1.1801752E+00;  9.9999998E-03;  1.8005247E-01;2867;0.10914189;0.0;0.02232278;1002.0491;  4.0098637E-01;1550.6442;3;51.122746;0.0;5.0100698;0;0.085832283;  1.0001185E+04;  0.0000000E+00; -1.1341809E+00;  1.0000000E+04;  0.0000000E+00;  9.9905059E+03;-0.050179508;0.0;0.13601179;3043.4216
  1.1802033E+00;  9.9999998E-03;  2.0006570E-01;2868;0.12188406;0.0;0.025606604;1001.9819;  4.0098637E-01;1499.8057;3;58.090969;0.0;5.9439549;0;0.10086001;  1.0000737E+04;  0.0000000E+00; -1.2971151E+00;  1.0000000E+04;  0.0000000E+00;  9.9896152E+03;-0.035117574;0.0;0.13597758;3422.8845
  1.1802306E+00;  9.9999998E-03;  2.2007726E-01;2869;0.13341151;0.0;0.028179601;1001.8861;  4.0098628E-01;1427.2323;3;67.004723;0.0;7.4295549;0;0.1269297;  9.9993896E+03;  0.0000000E+00; -1.0392892E+00;  1.0000000E+04;  0.0000000E+00;  9.9890557E+03;-0.0029146299;0.0;0.12984432;3082.4705
  1.1802531E+00;  9.9999998E-03;  2.4008618E-01;2870;0.14271381;0.0;0.030758483;1001.8047;  4.0098628E-01;1365.5858;3;78.187317;0.0;10.153425;0;0.1640224;  9.9975049E+03;  0.0000000E+00; -7.7097234E-03;  1.0000000E+04;  0.0000000E+00;  9.9893174E+03;0.041503515;0.0;0.12251889;2092.1328
  1.2001593E+00;  9.9999998E-03;  1.6004439E-01;2890;0.099906012;0.0;0.019078875;1001.8539;  4.0091622E-01;1366.8097;3;48.308353;0.0;4.2421384;0;0.10117598;  9.9998711E+03;  0.0000000E+00; -1.1247854E+00;  1.0000000E+04;  0.0000000E+00;  9.9914189E+03;-0.033864066;0.0;0.13504004;2411.863
  1.2001851E+00;  9.9999998E-03;  1.8005662E-01;2891;0.11220869;0.0;0.02268965;1001.7816;  4.0091622E-01;1313.4137;3;55.08263;0.0;5.2572536;0;0.12195671;  9.9993555E+03;  0.0000000E+00; -1.2988839E+00;  1.0000000E+04;  0.0000000E+00;  9.9904951E+03;-0.017622158;0.0;0.13957886;2745.2341
  1.2002102E+00;  9.9999998E-03;  2.0006837E-01;2892;0.12383102;0.0;0.025870783;1001.6761;  4.0091622E-01;1235.6801;3;63.470295;0.0;6.8474069;0;0.15859081;  9.9981084E+03;  0.0000000E+00; -1.0742728E+00;  1.0000000E+04;  0.0000000E+00;  9.9896377E+03;0.016483044;0.0;0.14210777;2524.0542
  1.2002317E+00;  9.9999998E-03;  2.2007757E-01;2893;0.13296685;0.0;0.028034212;1001.5891;  4.0091622E-01;1171.4036;3;72.926178;0.0;8.7056799;0;0.18654409;  9.9966445E+03;  0.0000000E+00; -1.4629130E-01;  1.0000000E+04;  0.0000000E+00;  9.9893643E+03;0.051619913;0.0;0.13492417;1749.0336
  1.2201718E+00;  9.9999998E-03;  1.6005032E-01;2913;0.10360132;0.0;0.020381087;1001.6025;  4.0086457E-01;1144.5125;3;52.487236;0.0;4.6690044;0;0.14469439;  9.9975693E+03;  0.0000000E+00; -1.2420795E+00;  1.0000000E+04;  0.0000000E+00;  9.9912832E+03;0.0053797639;0.0;0.13931462;2093.5896
  1.2201935E+00;  9.9999998E-03;  1.8006085E-01;2914;0.11417392;0.0;0.023389764;1001.5071;  4.0086460E-01;1076.3615;3;60.209862;0.0;6.1082506;0;0.17877519;  9.9965430E+03;  0.0000000E+00; -1.0279701E+00;  1.0000000E+04;  0.0000000E+00;  9.9904063E+03;0.034618266;0.0;0.14415693;1923.2426
  1.2202129E+00;  9.9999998E-03;  2.0007023E-01;2915;0.12355438;0.0;0.026088186;1001.4122;  4.0086463E-01;1008.4749;3;69.274239;0.0;8.1033182;0;0.21864037;  9.9952900E+03;  0.0000000E+00; -1.4495739E-01;  1.0000000E+04;  0.0000000E+00;  9.9897656E+03;0.072227091;0.0;0.14641328;1357.5704
  1.2202255E+00;  9.9999998E-03;  2.2007509E-01;2916;0.12836646;0.0;0.026139241;1001.4305;  4.0086451E-01;1021.563;3;77.177193;0.0;9.0797024;0;0.18735616;  9.9951348E+03;  0.0000000E+00;  1.3369319E+00;  1.0000000E+04;  0.0000000E+00;  9.9902861E+03;0.071087092;0.0;0.11626907;2269.79
  1.2401789E+00;  9.9999998E-03;  1.6005473E-01;2934;0.10464903;0.0;0.020746954;1001.3762;  4.0082720E-01;946.6308;3;57.144096;0.0;5.1185431;0;0.18891512;  9.9950205E+03;  0.0000000E+00; -7.9760873E-01;  1.0000000E+04;  0.0000000E+00;  9.9911719E+03;0.050543845;0.0;0.13837127;1280.0048
  1.2401936E+00;  9.9999998E-03;  1.8006246E-01;2935;0.11245177;0.0;0.022702416;1001.3382;  4.0082735E-01;920.52692;3;65.289909;0.0;6.703012;0;0.20281175;  9.9948047E+03;  0.0000000E+00; -7.0950799E-03;  1.0000000E+04;  0.0000000E+00;  9.9906318E+03;0.066926874;0.0;0.13588487;981.93347
  1.2601759E+00;  9.9999998E-03;  1.6005580E-01;2952;0.10162809;0.0;0.019576291;1001.3099;  4.0080100E-01;863.20044;3;61.50668;0.0;5.4334326;0;0.17938261;  9.9948066E+03;  0.0000000E+00;  3.1150362E-01;  1.0000000E+04;  0.0000000E+00;  9.9913848E+03;0.055545244;0.0;0.12383736;770.73871
